G   36   23    1    0.005     # Parameters to Generate KPOINTS (Don't Edit This Line)
     415
Reciprocal lattice
    0.000000000000    0.000000000000    0.000000000000       1
    0.027777777778    0.000000000000    0.000000000000       2
    0.055555555556    0.000000000000    0.000000000000       2
    0.083333333333    0.000000000000    0.000000000000       2
    0.111111111111    0.000000000000    0.000000000000       2
    0.138888888889    0.000000000000    0.000000000000       2
    0.166666666667    0.000000000000    0.000000000000       2
    0.194444444444    0.000000000000    0.000000000000       2
    0.222222222222    0.000000000000    0.000000000000       2
    0.250000000000    0.000000000000    0.000000000000       2
    0.277777777778    0.000000000000    0.000000000000       2
    0.305555555556    0.000000000000    0.000000000000       2
    0.333333333333    0.000000000000    0.000000000000       2
    0.361111111111    0.000000000000    0.000000000000       2
    0.388888888889    0.000000000000    0.000000000000       2
    0.416666666667    0.000000000000    0.000000000000       2
    0.444444444444    0.000000000000    0.000000000000       2
    0.472222222222    0.000000000000    0.000000000000       2
    0.500000000000    0.000000000000    0.000000000000       1
    0.000000000000    0.043478260870    0.000000000000       2
    0.027777777778    0.043478260870    0.000000000000       2
    0.055555555556    0.043478260870    0.000000000000       2
    0.083333333333    0.043478260870    0.000000000000       2
    0.111111111111    0.043478260870    0.000000000000       2
    0.138888888889    0.043478260870    0.000000000000       2
    0.166666666667    0.043478260870    0.000000000000       2
    0.194444444444    0.043478260870    0.000000000000       2
    0.222222222222    0.043478260870    0.000000000000       2
    0.250000000000    0.043478260870    0.000000000000       2
    0.277777777778    0.043478260870    0.000000000000       2
    0.305555555556    0.043478260870    0.000000000000       2
    0.333333333333    0.043478260870    0.000000000000       2
    0.361111111111    0.043478260870    0.000000000000       2
    0.388888888889    0.043478260870    0.000000000000       2
    0.416666666667    0.043478260870    0.000000000000       2
    0.444444444444    0.043478260870    0.000000000000       2
    0.472222222222    0.043478260870    0.000000000000       2
    0.500000000000    0.043478260870    0.000000000000       2
   -0.472222222222    0.043478260870    0.000000000000       2
   -0.444444444444    0.043478260870    0.000000000000       2
   -0.416666666667    0.043478260870    0.000000000000       2
   -0.388888888889    0.043478260870    0.000000000000       2
   -0.361111111111    0.043478260870    0.000000000000       2
   -0.333333333333    0.043478260870    0.000000000000       2
   -0.305555555556    0.043478260870    0.000000000000       2
   -0.277777777778    0.043478260870    0.000000000000       2
   -0.250000000000    0.043478260870    0.000000000000       2
   -0.222222222222    0.043478260870    0.000000000000       2
   -0.194444444444    0.043478260870    0.000000000000       2
   -0.166666666667    0.043478260870    0.000000000000       2
   -0.138888888889    0.043478260870    0.000000000000       2
   -0.111111111111    0.043478260870    0.000000000000       2
   -0.083333333333    0.043478260870    0.000000000000       2
   -0.055555555556    0.043478260870    0.000000000000       2
   -0.027777777778    0.043478260870    0.000000000000       2
    0.000000000000    0.086956521739    0.000000000000       2
    0.027777777778    0.086956521739    0.000000000000       2
    0.055555555556    0.086956521739    0.000000000000       2
    0.083333333333    0.086956521739    0.000000000000       2
    0.111111111111    0.086956521739    0.000000000000       2
    0.138888888889    0.086956521739    0.000000000000       2
    0.166666666667    0.086956521739    0.000000000000       2
    0.194444444444    0.086956521739    0.000000000000       2
    0.222222222222    0.086956521739    0.000000000000       2
    0.250000000000    0.086956521739    0.000000000000       2
    0.277777777778    0.086956521739    0.000000000000       2
    0.305555555556    0.086956521739    0.000000000000       2
    0.333333333333    0.086956521739    0.000000000000       2
    0.361111111111    0.086956521739    0.000000000000       2
    0.388888888889    0.086956521739    0.000000000000       2
    0.416666666667    0.086956521739    0.000000000000       2
    0.444444444444    0.086956521739    0.000000000000       2
    0.472222222222    0.086956521739    0.000000000000       2
    0.500000000000    0.086956521739    0.000000000000       2
   -0.472222222222    0.086956521739    0.000000000000       2
   -0.444444444444    0.086956521739    0.000000000000       2
   -0.416666666667    0.086956521739    0.000000000000       2
   -0.388888888889    0.086956521739    0.000000000000       2
   -0.361111111111    0.086956521739    0.000000000000       2
   -0.333333333333    0.086956521739    0.000000000000       2
   -0.305555555556    0.086956521739    0.000000000000       2
   -0.277777777778    0.086956521739    0.000000000000       2
   -0.250000000000    0.086956521739    0.000000000000       2
   -0.222222222222    0.086956521739    0.000000000000       2
   -0.194444444444    0.086956521739    0.000000000000       2
   -0.166666666667    0.086956521739    0.000000000000       2
   -0.138888888889    0.086956521739    0.000000000000       2
   -0.111111111111    0.086956521739    0.000000000000       2
   -0.083333333333    0.086956521739    0.000000000000       2
   -0.055555555556    0.086956521739    0.000000000000       2
   -0.027777777778    0.086956521739    0.000000000000       2
    0.000000000000    0.130434782609    0.000000000000       2
    0.027777777778    0.130434782609    0.000000000000       2
    0.055555555556    0.130434782609    0.000000000000       2
    0.083333333333    0.130434782609    0.000000000000       2
    0.111111111111    0.130434782609    0.000000000000       2
    0.138888888889    0.130434782609    0.000000000000       2
    0.166666666667    0.130434782609    0.000000000000       2
    0.194444444444    0.130434782609    0.000000000000       2
    0.222222222222    0.130434782609    0.000000000000       2
    0.250000000000    0.130434782609    0.000000000000       2
    0.277777777778    0.130434782609    0.000000000000       2
    0.305555555556    0.130434782609    0.000000000000       2
    0.333333333333    0.130434782609    0.000000000000       2
    0.361111111111    0.130434782609    0.000000000000       2
    0.388888888889    0.130434782609    0.000000000000       2
    0.416666666667    0.130434782609    0.000000000000       2
    0.444444444444    0.130434782609    0.000000000000       2
    0.472222222222    0.130434782609    0.000000000000       2
    0.500000000000    0.130434782609    0.000000000000       2
   -0.472222222222    0.130434782609    0.000000000000       2
   -0.444444444444    0.130434782609    0.000000000000       2
   -0.416666666667    0.130434782609    0.000000000000       2
   -0.388888888889    0.130434782609    0.000000000000       2
   -0.361111111111    0.130434782609    0.000000000000       2
   -0.333333333333    0.130434782609    0.000000000000       2
   -0.305555555556    0.130434782609    0.000000000000       2
   -0.277777777778    0.130434782609    0.000000000000       2
   -0.250000000000    0.130434782609    0.000000000000       2
   -0.222222222222    0.130434782609    0.000000000000       2
   -0.194444444444    0.130434782609    0.000000000000       2
   -0.166666666667    0.130434782609    0.000000000000       2
   -0.138888888889    0.130434782609    0.000000000000       2
   -0.111111111111    0.130434782609    0.000000000000       2
   -0.083333333333    0.130434782609    0.000000000000       2
   -0.055555555556    0.130434782609    0.000000000000       2
   -0.027777777778    0.130434782609    0.000000000000       2
    0.000000000000    0.173913043478    0.000000000000       2
    0.027777777778    0.173913043478    0.000000000000       2
    0.055555555556    0.173913043478    0.000000000000       2
    0.083333333333    0.173913043478    0.000000000000       2
    0.111111111111    0.173913043478    0.000000000000       2
    0.138888888889    0.173913043478    0.000000000000       2
    0.166666666667    0.173913043478    0.000000000000       2
    0.194444444444    0.173913043478    0.000000000000       2
    0.222222222222    0.173913043478    0.000000000000       2
    0.250000000000    0.173913043478    0.000000000000       2
    0.277777777778    0.173913043478    0.000000000000       2
    0.305555555556    0.173913043478    0.000000000000       2
    0.333333333333    0.173913043478    0.000000000000       2
    0.361111111111    0.173913043478    0.000000000000       2
    0.388888888889    0.173913043478    0.000000000000       2
    0.416666666667    0.173913043478    0.000000000000       2
    0.444444444444    0.173913043478    0.000000000000       2
    0.472222222222    0.173913043478    0.000000000000       2
    0.500000000000    0.173913043478    0.000000000000       2
   -0.472222222222    0.173913043478    0.000000000000       2
   -0.444444444444    0.173913043478    0.000000000000       2
   -0.416666666667    0.173913043478    0.000000000000       2
   -0.388888888889    0.173913043478    0.000000000000       2
   -0.361111111111    0.173913043478    0.000000000000       2
   -0.333333333333    0.173913043478    0.000000000000       2
   -0.305555555556    0.173913043478    0.000000000000       2
   -0.277777777778    0.173913043478    0.000000000000       2
   -0.250000000000    0.173913043478    0.000000000000       2
   -0.222222222222    0.173913043478    0.000000000000       2
   -0.194444444444    0.173913043478    0.000000000000       2
   -0.166666666667    0.173913043478    0.000000000000       2
   -0.138888888889    0.173913043478    0.000000000000       2
   -0.111111111111    0.173913043478    0.000000000000       2
   -0.083333333333    0.173913043478    0.000000000000       2
   -0.055555555556    0.173913043478    0.000000000000       2
   -0.027777777778    0.173913043478    0.000000000000       2
    0.000000000000    0.217391304348    0.000000000000       2
    0.027777777778    0.217391304348    0.000000000000       2
    0.055555555556    0.217391304348    0.000000000000       2
    0.083333333333    0.217391304348    0.000000000000       2
    0.111111111111    0.217391304348    0.000000000000       2
    0.138888888889    0.217391304348    0.000000000000       2
    0.166666666667    0.217391304348    0.000000000000       2
    0.194444444444    0.217391304348    0.000000000000       2
    0.222222222222    0.217391304348    0.000000000000       2
    0.250000000000    0.217391304348    0.000000000000       2
    0.277777777778    0.217391304348    0.000000000000       2
    0.305555555556    0.217391304348    0.000000000000       2
    0.333333333333    0.217391304348    0.000000000000       2
    0.361111111111    0.217391304348    0.000000000000       2
    0.388888888889    0.217391304348    0.000000000000       2
    0.416666666667    0.217391304348    0.000000000000       2
    0.444444444444    0.217391304348    0.000000000000       2
    0.472222222222    0.217391304348    0.000000000000       2
    0.500000000000    0.217391304348    0.000000000000       2
   -0.472222222222    0.217391304348    0.000000000000       2
   -0.444444444444    0.217391304348    0.000000000000       2
   -0.416666666667    0.217391304348    0.000000000000       2
   -0.388888888889    0.217391304348    0.000000000000       2
   -0.361111111111    0.217391304348    0.000000000000       2
   -0.333333333333    0.217391304348    0.000000000000       2
   -0.305555555556    0.217391304348    0.000000000000       2
   -0.277777777778    0.217391304348    0.000000000000       2
   -0.250000000000    0.217391304348    0.000000000000       2
   -0.222222222222    0.217391304348    0.000000000000       2
   -0.194444444444    0.217391304348    0.000000000000       2
   -0.166666666667    0.217391304348    0.000000000000       2
   -0.138888888889    0.217391304348    0.000000000000       2
   -0.111111111111    0.217391304348    0.000000000000       2
   -0.083333333333    0.217391304348    0.000000000000       2
   -0.055555555556    0.217391304348    0.000000000000       2
   -0.027777777778    0.217391304348    0.000000000000       2
    0.000000000000    0.260869565217    0.000000000000       2
    0.027777777778    0.260869565217    0.000000000000       2
    0.055555555556    0.260869565217    0.000000000000       2
    0.083333333333    0.260869565217    0.000000000000       2
    0.111111111111    0.260869565217    0.000000000000       2
    0.138888888889    0.260869565217    0.000000000000       2
    0.166666666667    0.260869565217    0.000000000000       2
    0.194444444444    0.260869565217    0.000000000000       2
    0.222222222222    0.260869565217    0.000000000000       2
    0.250000000000    0.260869565217    0.000000000000       2
    0.277777777778    0.260869565217    0.000000000000       2
    0.305555555556    0.260869565217    0.000000000000       2
    0.333333333333    0.260869565217    0.000000000000       2
    0.361111111111    0.260869565217    0.000000000000       2
    0.388888888889    0.260869565217    0.000000000000       2
    0.416666666667    0.260869565217    0.000000000000       2
    0.444444444444    0.260869565217    0.000000000000       2
    0.472222222222    0.260869565217    0.000000000000       2
    0.500000000000    0.260869565217    0.000000000000       2
   -0.472222222222    0.260869565217    0.000000000000       2
   -0.444444444444    0.260869565217    0.000000000000       2
   -0.416666666667    0.260869565217    0.000000000000       2
   -0.388888888889    0.260869565217    0.000000000000       2
   -0.361111111111    0.260869565217    0.000000000000       2
   -0.333333333333    0.260869565217    0.000000000000       2
   -0.305555555556    0.260869565217    0.000000000000       2
   -0.277777777778    0.260869565217    0.000000000000       2
   -0.250000000000    0.260869565217    0.000000000000       2
   -0.222222222222    0.260869565217    0.000000000000       2
   -0.194444444444    0.260869565217    0.000000000000       2
   -0.166666666667    0.260869565217    0.000000000000       2
   -0.138888888889    0.260869565217    0.000000000000       2
   -0.111111111111    0.260869565217    0.000000000000       2
   -0.083333333333    0.260869565217    0.000000000000       2
   -0.055555555556    0.260869565217    0.000000000000       2
   -0.027777777778    0.260869565217    0.000000000000       2
    0.000000000000    0.304347826087    0.000000000000       2
    0.027777777778    0.304347826087    0.000000000000       2
    0.055555555556    0.304347826087    0.000000000000       2
    0.083333333333    0.304347826087    0.000000000000       2
    0.111111111111    0.304347826087    0.000000000000       2
    0.138888888889    0.304347826087    0.000000000000       2
    0.166666666667    0.304347826087    0.000000000000       2
    0.194444444444    0.304347826087    0.000000000000       2
    0.222222222222    0.304347826087    0.000000000000       2
    0.250000000000    0.304347826087    0.000000000000       2
    0.277777777778    0.304347826087    0.000000000000       2
    0.305555555556    0.304347826087    0.000000000000       2
    0.333333333333    0.304347826087    0.000000000000       2
    0.361111111111    0.304347826087    0.000000000000       2
    0.388888888889    0.304347826087    0.000000000000       2
    0.416666666667    0.304347826087    0.000000000000       2
    0.444444444444    0.304347826087    0.000000000000       2
    0.472222222222    0.304347826087    0.000000000000       2
    0.500000000000    0.304347826087    0.000000000000       2
   -0.472222222222    0.304347826087    0.000000000000       2
   -0.444444444444    0.304347826087    0.000000000000       2
   -0.416666666667    0.304347826087    0.000000000000       2
   -0.388888888889    0.304347826087    0.000000000000       2
   -0.361111111111    0.304347826087    0.000000000000       2
   -0.333333333333    0.304347826087    0.000000000000       2
   -0.305555555556    0.304347826087    0.000000000000       2
   -0.277777777778    0.304347826087    0.000000000000       2
   -0.250000000000    0.304347826087    0.000000000000       2
   -0.222222222222    0.304347826087    0.000000000000       2
   -0.194444444444    0.304347826087    0.000000000000       2
   -0.166666666667    0.304347826087    0.000000000000       2
   -0.138888888889    0.304347826087    0.000000000000       2
   -0.111111111111    0.304347826087    0.000000000000       2
   -0.083333333333    0.304347826087    0.000000000000       2
   -0.055555555556    0.304347826087    0.000000000000       2
   -0.027777777778    0.304347826087    0.000000000000       2
    0.000000000000    0.347826086957    0.000000000000       2
    0.027777777778    0.347826086957    0.000000000000       2
    0.055555555556    0.347826086957    0.000000000000       2
    0.083333333333    0.347826086957    0.000000000000       2
    0.111111111111    0.347826086957    0.000000000000       2
    0.138888888889    0.347826086957    0.000000000000       2
    0.166666666667    0.347826086957    0.000000000000       2
    0.194444444444    0.347826086957    0.000000000000       2
    0.222222222222    0.347826086957    0.000000000000       2
    0.250000000000    0.347826086957    0.000000000000       2
    0.277777777778    0.347826086957    0.000000000000       2
    0.305555555556    0.347826086957    0.000000000000       2
    0.333333333333    0.347826086957    0.000000000000       2
    0.361111111111    0.347826086957    0.000000000000       2
    0.388888888889    0.347826086957    0.000000000000       2
    0.416666666667    0.347826086957    0.000000000000       2
    0.444444444444    0.347826086957    0.000000000000       2
    0.472222222222    0.347826086957    0.000000000000       2
    0.500000000000    0.347826086957    0.000000000000       2
   -0.472222222222    0.347826086957    0.000000000000       2
   -0.444444444444    0.347826086957    0.000000000000       2
   -0.416666666667    0.347826086957    0.000000000000       2
   -0.388888888889    0.347826086957    0.000000000000       2
   -0.361111111111    0.347826086957    0.000000000000       2
   -0.333333333333    0.347826086957    0.000000000000       2
   -0.305555555556    0.347826086957    0.000000000000       2
   -0.277777777778    0.347826086957    0.000000000000       2
   -0.250000000000    0.347826086957    0.000000000000       2
   -0.222222222222    0.347826086957    0.000000000000       2
   -0.194444444444    0.347826086957    0.000000000000       2
   -0.166666666667    0.347826086957    0.000000000000       2
   -0.138888888889    0.347826086957    0.000000000000       2
   -0.111111111111    0.347826086957    0.000000000000       2
   -0.083333333333    0.347826086957    0.000000000000       2
   -0.055555555556    0.347826086957    0.000000000000       2
   -0.027777777778    0.347826086957    0.000000000000       2
    0.000000000000    0.391304347826    0.000000000000       2
    0.027777777778    0.391304347826    0.000000000000       2
    0.055555555556    0.391304347826    0.000000000000       2
    0.083333333333    0.391304347826    0.000000000000       2
    0.111111111111    0.391304347826    0.000000000000       2
    0.138888888889    0.391304347826    0.000000000000       2
    0.166666666667    0.391304347826    0.000000000000       2
    0.194444444444    0.391304347826    0.000000000000       2
    0.222222222222    0.391304347826    0.000000000000       2
    0.250000000000    0.391304347826    0.000000000000       2
    0.277777777778    0.391304347826    0.000000000000       2
    0.305555555556    0.391304347826    0.000000000000       2
    0.333333333333    0.391304347826    0.000000000000       2
    0.361111111111    0.391304347826    0.000000000000       2
    0.388888888889    0.391304347826    0.000000000000       2
    0.416666666667    0.391304347826    0.000000000000       2
    0.444444444444    0.391304347826    0.000000000000       2
    0.472222222222    0.391304347826    0.000000000000       2
    0.500000000000    0.391304347826    0.000000000000       2
   -0.472222222222    0.391304347826    0.000000000000       2
   -0.444444444444    0.391304347826    0.000000000000       2
   -0.416666666667    0.391304347826    0.000000000000       2
   -0.388888888889    0.391304347826    0.000000000000       2
   -0.361111111111    0.391304347826    0.000000000000       2
   -0.333333333333    0.391304347826    0.000000000000       2
   -0.305555555556    0.391304347826    0.000000000000       2
   -0.277777777778    0.391304347826    0.000000000000       2
   -0.250000000000    0.391304347826    0.000000000000       2
   -0.222222222222    0.391304347826    0.000000000000       2
   -0.194444444444    0.391304347826    0.000000000000       2
   -0.166666666667    0.391304347826    0.000000000000       2
   -0.138888888889    0.391304347826    0.000000000000       2
   -0.111111111111    0.391304347826    0.000000000000       2
   -0.083333333333    0.391304347826    0.000000000000       2
   -0.055555555556    0.391304347826    0.000000000000       2
   -0.027777777778    0.391304347826    0.000000000000       2
    0.000000000000    0.434782608696    0.000000000000       2
    0.027777777778    0.434782608696    0.000000000000       2
    0.055555555556    0.434782608696    0.000000000000       2
    0.083333333333    0.434782608696    0.000000000000       2
    0.111111111111    0.434782608696    0.000000000000       2
    0.138888888889    0.434782608696    0.000000000000       2
    0.166666666667    0.434782608696    0.000000000000       2
    0.194444444444    0.434782608696    0.000000000000       2
    0.222222222222    0.434782608696    0.000000000000       2
    0.250000000000    0.434782608696    0.000000000000       2
    0.277777777778    0.434782608696    0.000000000000       2
    0.305555555556    0.434782608696    0.000000000000       2
    0.333333333333    0.434782608696    0.000000000000       2
    0.361111111111    0.434782608696    0.000000000000       2
    0.388888888889    0.434782608696    0.000000000000       2
    0.416666666667    0.434782608696    0.000000000000       2
    0.444444444444    0.434782608696    0.000000000000       2
    0.472222222222    0.434782608696    0.000000000000       2
    0.500000000000    0.434782608696    0.000000000000       2
   -0.472222222222    0.434782608696    0.000000000000       2
   -0.444444444444    0.434782608696    0.000000000000       2
   -0.416666666667    0.434782608696    0.000000000000       2
   -0.388888888889    0.434782608696    0.000000000000       2
   -0.361111111111    0.434782608696    0.000000000000       2
   -0.333333333333    0.434782608696    0.000000000000       2
   -0.305555555556    0.434782608696    0.000000000000       2
   -0.277777777778    0.434782608696    0.000000000000       2
   -0.250000000000    0.434782608696    0.000000000000       2
   -0.222222222222    0.434782608696    0.000000000000       2
   -0.194444444444    0.434782608696    0.000000000000       2
   -0.166666666667    0.434782608696    0.000000000000       2
   -0.138888888889    0.434782608696    0.000000000000       2
   -0.111111111111    0.434782608696    0.000000000000       2
   -0.083333333333    0.434782608696    0.000000000000       2
   -0.055555555556    0.434782608696    0.000000000000       2
   -0.027777777778    0.434782608696    0.000000000000       2
    0.000000000000    0.478260869565    0.000000000000       2
    0.027777777778    0.478260869565    0.000000000000       2
    0.055555555556    0.478260869565    0.000000000000       2
    0.083333333333    0.478260869565    0.000000000000       2
    0.111111111111    0.478260869565    0.000000000000       2
    0.138888888889    0.478260869565    0.000000000000       2
    0.166666666667    0.478260869565    0.000000000000       2
    0.194444444444    0.478260869565    0.000000000000       2
    0.222222222222    0.478260869565    0.000000000000       2
    0.250000000000    0.478260869565    0.000000000000       2
    0.277777777778    0.478260869565    0.000000000000       2
    0.305555555556    0.478260869565    0.000000000000       2
    0.333333333333    0.478260869565    0.000000000000       2
    0.361111111111    0.478260869565    0.000000000000       2
    0.388888888889    0.478260869565    0.000000000000       2
    0.416666666667    0.478260869565    0.000000000000       2
    0.444444444444    0.478260869565    0.000000000000       2
    0.472222222222    0.478260869565    0.000000000000       2
    0.500000000000    0.478260869565    0.000000000000       2
   -0.472222222222    0.478260869565    0.000000000000       2
   -0.444444444444    0.478260869565    0.000000000000       2
   -0.416666666667    0.478260869565    0.000000000000       2
   -0.388888888889    0.478260869565    0.000000000000       2
   -0.361111111111    0.478260869565    0.000000000000       2
   -0.333333333333    0.478260869565    0.000000000000       2
   -0.305555555556    0.478260869565    0.000000000000       2
   -0.277777777778    0.478260869565    0.000000000000       2
   -0.250000000000    0.478260869565    0.000000000000       2
   -0.222222222222    0.478260869565    0.000000000000       2
   -0.194444444444    0.478260869565    0.000000000000       2
   -0.166666666667    0.478260869565    0.000000000000       2
   -0.138888888889    0.478260869565    0.000000000000       2
   -0.111111111111    0.478260869565    0.000000000000       2
   -0.083333333333    0.478260869565    0.000000000000       2
   -0.055555555556    0.478260869565    0.000000000000       2
   -0.027777777778    0.478260869565    0.000000000000       2
