 Mn2 F8                                 
   1.00000000000000     
     4.4483013162459786    0.0000000000000000    0.0000000000000000
     0.0000000000000000    5.1899815684841837    0.0000000000000000
     0.0000000000000000    0.0000000000000000   18.1106969896000010
   Mn   F 
     2     8
Direct
  0.4999613366119491 -0.0000098209822406  0.4999975187668115
  0.0000108423859299  0.5000074494444758  0.5000062098120039
  0.7444285324228420  0.2540436542495332  0.4573334172092955
  0.7555634770808393  0.7540561940364510  0.4573345175608411
  0.2910664596722356  0.9965396721207657  0.4178881896335137
  0.2089434966513935  0.4965369968343569  0.4178790934914405
  0.7910408445111358  0.5034615685958068  0.5821141029933782
  0.7089713611685484  0.0034638753506084  0.5821216514786466
  0.2444399232233065  0.2459481789212274  0.5426627917790072
  0.2555737262718203  0.7459522314290146  0.5426625072750632
 
  0.00000000E+00  0.00000000E+00  0.00000000E+00
  0.00000000E+00  0.00000000E+00  0.00000000E+00
  0.00000000E+00  0.00000000E+00  0.00000000E+00
  0.00000000E+00  0.00000000E+00  0.00000000E+00
  0.00000000E+00  0.00000000E+00  0.00000000E+00
  0.00000000E+00  0.00000000E+00  0.00000000E+00
  0.00000000E+00  0.00000000E+00  0.00000000E+00
  0.00000000E+00  0.00000000E+00  0.00000000E+00
  0.00000000E+00  0.00000000E+00  0.00000000E+00
  0.00000000E+00  0.00000000E+00  0.00000000E+00
