CONTCAR\(3)                             
   1.00000000000000     
    10.9605998993000000    0.0000000000000000    0.0000000000000000
     5.4620360536000003    9.5107522852000006    0.0000000000000000
     0.0000000000000000    0.0000000000000000   24.0680007935000013
   Cr   Ga   S    O    H 
     9    18    36     2     1
Direct
  0.3327523945306311  0.0057734785429499  0.4983096124045473
  0.6651002022781968  0.0067159071762495  0.4985616175565985
 -0.0005028235387421  0.0072592199908775  0.4988884867470317
  0.3325226242351072  0.3399809564411927  0.4982138440761237
  0.6596322991297072  0.3514086018174322  0.4986061592174862
 -0.0021355251183651  0.3401803687113050  0.4983823603409980
  0.3442344372769396  0.6666955702644065  0.4987424301865368
  0.6600569272321977  0.6666087820733941  0.4986325868574980
 -0.0006308869052644  0.6719128605511773  0.4986881983530843
  0.1106901005420289  0.1150313182662023  0.3539647031332298
  0.2192174070128446  0.2313022800869360  0.6420476891360724
  0.4441948595410433  0.1151035729675288  0.3538374321426119
  0.5546176957484826  0.2319600572922989  0.6418911120911306
  0.7765314770651467  0.1170877402498251  0.3550935619989858
  0.8822296852725410  0.2338508613721502  0.6424158785346860
  0.1107873403194812  0.4485393885139741  0.3538507209392975
  0.2213515818808676  0.5651903159985020  0.6420148916828170
  0.4448561283584028  0.4487619978206885  0.3528446994404743
  0.5505428576293876  0.5675186477028638  0.7057405084137802
  0.7768183787139932  0.4488452485789229  0.3527993940811507
  0.8822607884871104  0.5648011392714621  0.6423501379003423
  0.1131413985384663  0.7806242307791637  0.3552935097028009
  0.2206582505760120  0.8957935982669858  0.6421312224426782
  0.4447903714100445  0.7809724648587266  0.3530407035543641
  0.5542318257617392  0.8951988381397933  0.6419501908193721
  0.7766408135903718  0.7808983048616737  0.3550891427710292
  0.8864077585732379  0.8974779406871555  0.6427364068081333
  0.1103452386433060  0.1176165750977191  0.4475079286190034
  0.2208525337072712  0.2289775301264729  0.5486929452008291
  0.1069313469949266  0.1198279296651849  0.6826459109227335
  0.2219107989905541  0.2263327293429545  0.3115057672539251
  0.4434490748137053  0.1174017945347910  0.4473277239830419
  0.5551269209227042  0.2319867441466397  0.5486468005763391
  0.4431891587451926  0.1192772410435312  0.6825126997205170
  0.5560601736660306  0.2254658530032892  0.3113740413494495
  0.7748619319628745  0.1220482198654395  0.4481488611720120
  0.8827468868984458  0.2328259102577775  0.5490692454265584
  0.7750151765229683  0.1195943372242640  0.6851370254188128
  0.8888389215299031  0.2254471608102425  0.3113732557511273
  0.1101309467794354  0.4502373337797225  0.4473552666823618
  0.2243023327375212  0.5626173929508608  0.5487603538648772
  0.1073158534513523  0.4547037840953253  0.6826474350753444
  0.2214639191258538  0.5602202186270477  0.3114786836001655
  0.4433851810127410  0.4499696577965528  0.4464248511632135
  0.5546580824592093  0.5616403058999638  0.5518015659996500
  0.4335523969257234  0.4434687527569480  0.6894847300113122
  0.5553776845190314  0.5598788846578694  0.3099919773183442
  0.7774533984998639  0.4499201225377321  0.4463892443418477
  0.8832941213976754  0.5626479562035605  0.5489831354120114
  0.7916676752897549  0.4443612165948751  0.6910144902943127
  0.8888410648609203  0.5604371686441936  0.3113260811180064
  0.1150598662155212  0.7816105130617040  0.4483231762764159
  0.2246384436836625  0.8913267730550855  0.5488884456084994
  0.1092572105439785  0.7859638863594867  0.6849856749563307
  0.2215356757467326  0.8929324054184815  0.3115506927228578
  0.4433862296435881  0.7843468918834323  0.4465794893956140
  0.5552340825155080  0.8913165226772275  0.5487202957709052
  0.4317029333138387  0.8072873979065056  0.6904729948272907
  0.5560514749950012  0.8930775399763449  0.3114110018505994
  0.7744700096446900  0.7813486070182342  0.4481547781084714
  0.8879815888017638  0.8952644012741389  0.5493146815059268
  0.7749453552668667  0.7860629467291679  0.6849893002158863
  0.8889756378048483  0.8930325148010739  0.3145676445042916
  0.6119175355975538  0.4348471748756931  0.8024149089468584
  0.5378208399561314  0.5822633470055072  0.7831154754577375
  0.5318936786717438  0.4264117830111281  0.8157540352435928
 
  0.00000000E+00  0.00000000E+00  0.00000000E+00
  0.00000000E+00  0.00000000E+00  0.00000000E+00
  0.00000000E+00  0.00000000E+00  0.00000000E+00
  0.00000000E+00  0.00000000E+00  0.00000000E+00
  0.00000000E+00  0.00000000E+00  0.00000000E+00
  0.00000000E+00  0.00000000E+00  0.00000000E+00
  0.00000000E+00  0.00000000E+00  0.00000000E+00
  0.00000000E+00  0.00000000E+00  0.00000000E+00
  0.00000000E+00  0.00000000E+00  0.00000000E+00
  0.00000000E+00  0.00000000E+00  0.00000000E+00
  0.00000000E+00  0.00000000E+00  0.00000000E+00
  0.00000000E+00  0.00000000E+00  0.00000000E+00
  0.00000000E+00  0.00000000E+00  0.00000000E+00
  0.00000000E+00  0.00000000E+00  0.00000000E+00
  0.00000000E+00  0.00000000E+00  0.00000000E+00
  0.00000000E+00  0.00000000E+00  0.00000000E+00
  0.00000000E+00  0.00000000E+00  0.00000000E+00
  0.00000000E+00  0.00000000E+00  0.00000000E+00
  0.00000000E+00  0.00000000E+00  0.00000000E+00
  0.00000000E+00  0.00000000E+00  0.00000000E+00
  0.00000000E+00  0.00000000E+00  0.00000000E+00
  0.00000000E+00  0.00000000E+00  0.00000000E+00
  0.00000000E+00  0.00000000E+00  0.00000000E+00
  0.00000000E+00  0.00000000E+00  0.00000000E+00
  0.00000000E+00  0.00000000E+00  0.00000000E+00
  0.00000000E+00  0.00000000E+00  0.00000000E+00
  0.00000000E+00  0.00000000E+00  0.00000000E+00
  0.00000000E+00  0.00000000E+00  0.00000000E+00
  0.00000000E+00  0.00000000E+00  0.00000000E+00
  0.00000000E+00  0.00000000E+00  0.00000000E+00
  0.00000000E+00  0.00000000E+00  0.00000000E+00
  0.00000000E+00  0.00000000E+00  0.00000000E+00
  0.00000000E+00  0.00000000E+00  0.00000000E+00
  0.00000000E+00  0.00000000E+00  0.00000000E+00
  0.00000000E+00  0.00000000E+00  0.00000000E+00
  0.00000000E+00  0.00000000E+00  0.00000000E+00
  0.00000000E+00  0.00000000E+00  0.00000000E+00
  0.00000000E+00  0.00000000E+00  0.00000000E+00
  0.00000000E+00  0.00000000E+00  0.00000000E+00
  0.00000000E+00  0.00000000E+00  0.00000000E+00
  0.00000000E+00  0.00000000E+00  0.00000000E+00
  0.00000000E+00  0.00000000E+00  0.00000000E+00
  0.00000000E+00  0.00000000E+00  0.00000000E+00
  0.00000000E+00  0.00000000E+00  0.00000000E+00
  0.00000000E+00  0.00000000E+00  0.00000000E+00
  0.00000000E+00  0.00000000E+00  0.00000000E+00
  0.00000000E+00  0.00000000E+00  0.00000000E+00
  0.00000000E+00  0.00000000E+00  0.00000000E+00
  0.00000000E+00  0.00000000E+00  0.00000000E+00
  0.00000000E+00  0.00000000E+00  0.00000000E+00
  0.00000000E+00  0.00000000E+00  0.00000000E+00
  0.00000000E+00  0.00000000E+00  0.00000000E+00
  0.00000000E+00  0.00000000E+00  0.00000000E+00
  0.00000000E+00  0.00000000E+00  0.00000000E+00
  0.00000000E+00  0.00000000E+00  0.00000000E+00
  0.00000000E+00  0.00000000E+00  0.00000000E+00
  0.00000000E+00  0.00000000E+00  0.00000000E+00
  0.00000000E+00  0.00000000E+00  0.00000000E+00
  0.00000000E+00  0.00000000E+00  0.00000000E+00
  0.00000000E+00  0.00000000E+00  0.00000000E+00
  0.00000000E+00  0.00000000E+00  0.00000000E+00
  0.00000000E+00  0.00000000E+00  0.00000000E+00
  0.00000000E+00  0.00000000E+00  0.00000000E+00
  0.00000000E+00  0.00000000E+00  0.00000000E+00
  0.00000000E+00  0.00000000E+00  0.00000000E+00
  0.00000000E+00  0.00000000E+00  0.00000000E+00
