CONTCAR\(14)                            
   1.00000000000000     
    14.3248996734999992    0.0000000000000000    0.0000000000000000
    -7.1590188013000002   12.4195981305000007    0.0000000000000000
     0.0000000000000000    0.0000000000000000   17.6436004639000004
   Rb   O 
    24    13
Direct
  0.3484533309148394  0.3481186969378368  0.5764243891820463
  0.5010871155142124  0.3259059576534210  0.4157132546527100
  0.1732626599046603  0.1730199170548211  0.4263059591307297
  0.0039018773328897  0.1705753679517025  0.5797676669853252
  0.3356043583960543  0.9971450187399742  0.4247424704762671
  0.1698091602143526  0.5008081763581643  0.5803092870762415
  0.8312802906377822  0.3337111334357886  0.5798554396388630
  0.9975441647759952  0.3353488968932814  0.4247518553754055
  0.6662866611241831  0.1625583735818522  0.4247528153600491
  0.5010493440235603  0.1693979054763760  0.5802870108020507
  0.8390229807876335  0.0040529753849565  0.4247294871104065
  0.6534919484318547  0.5006807781900222  0.5764447468568030
  0.3340473334747680  0.8309128442329466  0.5798499827518999
  0.5010146437569472  0.8285578922358223  0.4262982712834746
  0.1628320208001207  0.6660171623760575  0.4247477784112819
  0.9980905200799720  0.6675543889925364  0.5798464841322881
  0.3261891891583129  0.5007580138640181  0.4157391411195573
  0.1709030717769189  0.0036183643909477  0.5797610240149366
  0.8323181165656068  0.8319655181364927  0.5803098178885886
  0.0043704635682993  0.8387870941071434  0.4247379789602554
  0.6756520692272907  0.6753883792039864  0.4156946974979582
  0.5009389935709152  0.6532763728162116  0.5764010740903313
  0.8287842692621705  0.5006777414920838  0.4263124231609083
  0.6679231813010228  0.9978128975333954  0.5798809317299370
  0.1644229357731969  0.3361259476092950  0.4992944607139212
  0.3364043740287549  0.1640794279276073  0.4991993814988901
  0.0043351082897272  0.0040379637272844  0.5030003045778082
  0.6659175909210230  0.3288351166871649  0.4993702127627800
  0.8342131840743702  0.1672409660004315  0.5028677449491120
  0.5009588037223955  0.9974000855926938  0.5030442458047025
  0.1675360133063158  0.8338974055216219  0.5029277041913959
  0.3291671265178807  0.6656256570794651  0.4992739667795806
  0.9977595422641089  0.5006389786900173  0.5030175118969262
  0.6728800740638317  0.8372955622265734  0.4993410405074785
  0.8375771242256764  0.6725518893695639  0.4992764330946775
  0.5009258872211616  0.5005981119865253  0.4693970809311107
  0.5006245949912073  0.5005238625419369  0.6742957186032883
 
  0.00000000E+00  0.00000000E+00  0.00000000E+00
  0.00000000E+00  0.00000000E+00  0.00000000E+00
  0.00000000E+00  0.00000000E+00  0.00000000E+00
  0.00000000E+00  0.00000000E+00  0.00000000E+00
  0.00000000E+00  0.00000000E+00  0.00000000E+00
  0.00000000E+00  0.00000000E+00  0.00000000E+00
  0.00000000E+00  0.00000000E+00  0.00000000E+00
  0.00000000E+00  0.00000000E+00  0.00000000E+00
  0.00000000E+00  0.00000000E+00  0.00000000E+00
  0.00000000E+00  0.00000000E+00  0.00000000E+00
  0.00000000E+00  0.00000000E+00  0.00000000E+00
  0.00000000E+00  0.00000000E+00  0.00000000E+00
  0.00000000E+00  0.00000000E+00  0.00000000E+00
  0.00000000E+00  0.00000000E+00  0.00000000E+00
  0.00000000E+00  0.00000000E+00  0.00000000E+00
  0.00000000E+00  0.00000000E+00  0.00000000E+00
  0.00000000E+00  0.00000000E+00  0.00000000E+00
  0.00000000E+00  0.00000000E+00  0.00000000E+00
  0.00000000E+00  0.00000000E+00  0.00000000E+00
  0.00000000E+00  0.00000000E+00  0.00000000E+00
  0.00000000E+00  0.00000000E+00  0.00000000E+00
  0.00000000E+00  0.00000000E+00  0.00000000E+00
  0.00000000E+00  0.00000000E+00  0.00000000E+00
  0.00000000E+00  0.00000000E+00  0.00000000E+00
  0.00000000E+00  0.00000000E+00  0.00000000E+00
  0.00000000E+00  0.00000000E+00  0.00000000E+00
  0.00000000E+00  0.00000000E+00  0.00000000E+00
  0.00000000E+00  0.00000000E+00  0.00000000E+00
  0.00000000E+00  0.00000000E+00  0.00000000E+00
  0.00000000E+00  0.00000000E+00  0.00000000E+00
  0.00000000E+00  0.00000000E+00  0.00000000E+00
  0.00000000E+00  0.00000000E+00  0.00000000E+00
  0.00000000E+00  0.00000000E+00  0.00000000E+00
  0.00000000E+00  0.00000000E+00  0.00000000E+00
  0.00000000E+00  0.00000000E+00  0.00000000E+00
  0.00000000E+00  0.00000000E+00  0.00000000E+00
  0.00000000E+00  0.00000000E+00  0.00000000E+00
