CONTCAR\(2)                             
   1.00000000000000     
     6.8951001167000001    0.0000000000000000    0.0000000000000000
     3.4475500584000001    5.9713318626999996    0.0000000000000000
     0.0000000000000000    0.0000000000000000   18.3700008391999994
   Nb   Se   O    H 
     4     8     3     3
Selective dynamics
Direct
  0.1666862465370613  0.1659545673005596  0.4973248524184584   F   F   F
  0.6778135061805060  0.1426296380383860  0.4973146845554481   F   F   F
  0.1426618851725223  0.6776152323748832  0.4961621903179818   F   F   F
  0.6778962322307152  0.6774706716124044  0.4965976179704512   F   F   F
  0.3353116389465214  0.3359577301870260  0.5794169491093442   F   F   F
  0.3346681930861806  0.3329736905843674  0.4067418395040647   F   F   F
  0.8302784634600684  0.3350861807102774  0.5874967531445776   F   F   F
  0.8286990658897224  0.3346274721369369  0.4150924456808198   F   F   F
  0.3347483643096609  0.8292448348711758  0.5868183903358215   F   F   F
  0.3347976942868414  0.8295743795285091  0.4146587599993055   F   F   F
  0.8333376258019101  0.8311388747126713  0.5951452458372657   F   F   F
  0.8324060849621944  0.8338059925554475  0.3980471908418366   F   F   F
  0.3407026087999938  0.3309793072829308  0.6796745765822649   T   T   T
  0.8249387227837417  0.3560185497736512  0.3141889532396860   T   T   T
  0.3225251553871971  0.8643337733195082  0.3139550127784076   T   T   T
  0.1832285228246775  0.3944652324874625  0.6941080161056021   T   T   T
  0.9635346075215807  0.2235078378960296  0.2975146813502931   T   T   T
  0.4567350388188914  0.7315463656277998  0.2942454855449136   T   T   T
 
  0.00000000E+00  0.00000000E+00  0.00000000E+00
  0.00000000E+00  0.00000000E+00  0.00000000E+00
  0.00000000E+00  0.00000000E+00  0.00000000E+00
  0.00000000E+00  0.00000000E+00  0.00000000E+00
  0.00000000E+00  0.00000000E+00  0.00000000E+00
  0.00000000E+00  0.00000000E+00  0.00000000E+00
  0.00000000E+00  0.00000000E+00  0.00000000E+00
  0.00000000E+00  0.00000000E+00  0.00000000E+00
  0.00000000E+00  0.00000000E+00  0.00000000E+00
  0.00000000E+00  0.00000000E+00  0.00000000E+00
  0.00000000E+00  0.00000000E+00  0.00000000E+00
  0.00000000E+00  0.00000000E+00  0.00000000E+00
  0.00000000E+00  0.00000000E+00  0.00000000E+00
  0.00000000E+00  0.00000000E+00  0.00000000E+00
  0.00000000E+00  0.00000000E+00  0.00000000E+00
  0.00000000E+00  0.00000000E+00  0.00000000E+00
  0.00000000E+00  0.00000000E+00  0.00000000E+00
  0.00000000E+00  0.00000000E+00  0.00000000E+00
