CONTCAR                                 
   1.00000000000000     
    13.3114004134999995    0.0000000000000000    0.0000000000000000
     0.0000000000000000   13.2841997146999997    0.0000000000000000
     0.0000000000000000    0.0000000000000000   29.9494991301999995
   Bi   I    O 
    54    12     1
Selective dynamics
Direct
  0.2489606623314984  0.6574288314848360  0.6513348916653428   F   F   F
  0.0829122179799171  0.3400963806638586  0.3472724351564267   F   F   F
  0.2482368896024525  0.2978559357642894  0.4161918967400879   F   F   F
  0.0839476660217073  0.7070109650743319  0.5823229270358325   F   F   F
  0.2502948027837704  0.0773717318854068  0.3857732722766798   F   F   F
  0.0833720973015630  0.9246815994375623  0.6136618043320468   F   F   F
  0.2506760601006377  0.9778818526607793  0.5482432559797701   F   F   F
  0.0834687179632283  0.0212935210682375  0.4513256312153402   F   F   F
  0.2505567174856793  0.2006044762582349  0.5746323087259313   F   F   F
  0.0829293347528122  0.7985738553914103  0.4243788534024091   F   F   F
  0.2503919800479792  0.7500162144982241  0.4915162892628260   F   F   F
  0.0835968886108773  0.2469588665546567  0.5075389076082502   F   F   F
  0.2521854222012365  0.5264403045427599  0.4677755641189236   F   F   F
  0.0834920031873949  0.4683783501461960  0.5377431314614327   F   F   F
  0.0838902383732218  0.5626939891588734  0.3725618854014172   F   F   F
  0.2435419044511420  0.4383828556295342  0.6230395175183290   F   F   F
  0.0816907871889256  0.3867627237408087  0.6932180024567032   F   F   F
  0.2492743142778266  0.6135043275403760  0.3035853252694025   F   F   F
  0.5834632689579138  0.6640465219048579  0.6517970533122082   F   F   F
  0.4160253608849729  0.3400780452712198  0.3480018011404482   F   F   F
  0.5831112791082234  0.2986064746430444  0.4161822803600970   F   F   F
  0.4159788350509217  0.7058861181826117  0.5834595965941887   F   F   F
  0.5839257089447329  0.0785268308277693  0.3857643678699034   F   F   F
  0.4157074260454934  0.9244092443820762  0.6149868013023294   F   F   F
  0.5824955138169514  0.9802128107273447  0.5496167567684651   F   F   F
  0.4172274583587878  0.0236284034002097  0.4514432458914399   F   F   F
  0.5822922686353706  0.2036696864211720  0.5770507281440871   F   F   F
  0.4182950191303476  0.8001056432440947  0.4245859921995034   F   F   F
  0.5837757719605321  0.7521812218284651  0.4928593813950997   F   F   F
  0.4182502524032898  0.2496944743205063  0.5083003571614313   F   F   F
  0.5821923600464629  0.5289388261488455  0.4662386570681676   F   F   F
  0.4179516564189782  0.4735703937776137  0.5338456556283688   F   F   F
  0.4150277947504648  0.5635660451507789  0.3727350826782541   F   F   F
  0.5819289949033717  0.4425897245384860  0.6264672754460108   F   F   F
  0.4453715528185640  0.3870053058447169  0.7080200099151739   F   F   F
  0.5826114586293727  0.6145069565227459  0.3046354337182535   F   F   F
  0.9183602917647846  0.6584766806721731  0.6511443461015318   F   F   F
  0.7504315104276174  0.3415584661933977  0.3479287168590517   F   F   F
  0.9178230095786191  0.2987175781094038  0.4162735971124931   F   F   F
  0.7509600385657365  0.7062886999141966  0.5834637879200812   F   F   F
  0.9163281007039998  0.0781534589186066  0.3859344836375627   F   F   F
  0.7504635515294567  0.9253082566238362  0.6147395023024345   F   F   F
  0.9161979025210911  0.9779171467604826  0.5480348381626143   F   F   F
  0.7499056931140800  0.0241513844456591  0.4518079833434854   F   F   F
  0.9174546867293216  0.2002322393180691  0.5753071560365726   F   F   F
  0.7491022399047509  0.8005629435659856  0.4248931227699657   F   F   F
  0.9163811358450502  0.7492675243724278  0.4919927836338189   F   F   F
  0.7488982182465378  0.2493155354364305  0.5093995017714903   F   F   F
  0.9146023309342013  0.5254626104272191  0.4676564626140092   F   F   F
  0.7486175918178191  0.4738826869060944  0.5335955800266490   F   F   F
  0.7510242109690353  0.5650403836166902  0.3726557075494981   F   F   F
  0.9225442008119344  0.4398397402092797  0.6222296980435473   F   F   F
  0.7219636624917314  0.3870453556375182  0.7072407226158504   F   F   F
  0.9179572518835215  0.6151820508177934  0.3040338773693207   F   F   F
  0.0839062671077642  0.5959843131527052  0.7382294056637022   F   F   F
  0.2516347026818337  0.4047097565032587  0.2602519688388440   F   F   F
  0.0835111069092633  0.1605810051958159  0.6676726006954823   F   F   F
  0.2501911442676317  0.8388300030589022  0.3330882430757143   F   F   F
  0.4196525982752561  0.6079304024746648  0.7396038246808558   F   F   F
  0.5824567245427090  0.4056133777605098  0.2611961912198595   F   F   F
  0.4143533252400076  0.1689214843938203  0.6685684903672708   F   F   F
  0.5829130586050937  0.8405714022585116  0.3324220043582784   F   F   F
  0.7490121358528370  0.6076873987303983  0.7391534005851881   F   F   F
  0.9137256659391397  0.4062544614770545  0.2603246887186543   F   F   F
  0.7522074433618684  0.1688919236432511  0.6680329414596713   F   F   F
  0.9171660230288907  0.8405132559527146  0.3326445323558076   F   F   F
  0.5840832098217774  0.3603387428161539  0.7396228077897550   T   T   T
 
  0.00000000E+00  0.00000000E+00  0.00000000E+00
  0.00000000E+00  0.00000000E+00  0.00000000E+00
  0.00000000E+00  0.00000000E+00  0.00000000E+00
  0.00000000E+00  0.00000000E+00  0.00000000E+00
  0.00000000E+00  0.00000000E+00  0.00000000E+00
  0.00000000E+00  0.00000000E+00  0.00000000E+00
  0.00000000E+00  0.00000000E+00  0.00000000E+00
  0.00000000E+00  0.00000000E+00  0.00000000E+00
  0.00000000E+00  0.00000000E+00  0.00000000E+00
  0.00000000E+00  0.00000000E+00  0.00000000E+00
  0.00000000E+00  0.00000000E+00  0.00000000E+00
  0.00000000E+00  0.00000000E+00  0.00000000E+00
  0.00000000E+00  0.00000000E+00  0.00000000E+00
  0.00000000E+00  0.00000000E+00  0.00000000E+00
  0.00000000E+00  0.00000000E+00  0.00000000E+00
  0.00000000E+00  0.00000000E+00  0.00000000E+00
  0.00000000E+00  0.00000000E+00  0.00000000E+00
  0.00000000E+00  0.00000000E+00  0.00000000E+00
  0.00000000E+00  0.00000000E+00  0.00000000E+00
  0.00000000E+00  0.00000000E+00  0.00000000E+00
  0.00000000E+00  0.00000000E+00  0.00000000E+00
  0.00000000E+00  0.00000000E+00  0.00000000E+00
  0.00000000E+00  0.00000000E+00  0.00000000E+00
  0.00000000E+00  0.00000000E+00  0.00000000E+00
  0.00000000E+00  0.00000000E+00  0.00000000E+00
  0.00000000E+00  0.00000000E+00  0.00000000E+00
  0.00000000E+00  0.00000000E+00  0.00000000E+00
  0.00000000E+00  0.00000000E+00  0.00000000E+00
  0.00000000E+00  0.00000000E+00  0.00000000E+00
  0.00000000E+00  0.00000000E+00  0.00000000E+00
  0.00000000E+00  0.00000000E+00  0.00000000E+00
  0.00000000E+00  0.00000000E+00  0.00000000E+00
  0.00000000E+00  0.00000000E+00  0.00000000E+00
  0.00000000E+00  0.00000000E+00  0.00000000E+00
  0.00000000E+00  0.00000000E+00  0.00000000E+00
  0.00000000E+00  0.00000000E+00  0.00000000E+00
  0.00000000E+00  0.00000000E+00  0.00000000E+00
  0.00000000E+00  0.00000000E+00  0.00000000E+00
  0.00000000E+00  0.00000000E+00  0.00000000E+00
  0.00000000E+00  0.00000000E+00  0.00000000E+00
  0.00000000E+00  0.00000000E+00  0.00000000E+00
  0.00000000E+00  0.00000000E+00  0.00000000E+00
  0.00000000E+00  0.00000000E+00  0.00000000E+00
  0.00000000E+00  0.00000000E+00  0.00000000E+00
  0.00000000E+00  0.00000000E+00  0.00000000E+00
  0.00000000E+00  0.00000000E+00  0.00000000E+00
  0.00000000E+00  0.00000000E+00  0.00000000E+00
  0.00000000E+00  0.00000000E+00  0.00000000E+00
  0.00000000E+00  0.00000000E+00  0.00000000E+00
  0.00000000E+00  0.00000000E+00  0.00000000E+00
  0.00000000E+00  0.00000000E+00  0.00000000E+00
  0.00000000E+00  0.00000000E+00  0.00000000E+00
  0.00000000E+00  0.00000000E+00  0.00000000E+00
  0.00000000E+00  0.00000000E+00  0.00000000E+00
  0.00000000E+00  0.00000000E+00  0.00000000E+00
  0.00000000E+00  0.00000000E+00  0.00000000E+00
  0.00000000E+00  0.00000000E+00  0.00000000E+00
  0.00000000E+00  0.00000000E+00  0.00000000E+00
  0.00000000E+00  0.00000000E+00  0.00000000E+00
  0.00000000E+00  0.00000000E+00  0.00000000E+00
  0.00000000E+00  0.00000000E+00  0.00000000E+00
  0.00000000E+00  0.00000000E+00  0.00000000E+00
  0.00000000E+00  0.00000000E+00  0.00000000E+00
  0.00000000E+00  0.00000000E+00  0.00000000E+00
  0.00000000E+00  0.00000000E+00  0.00000000E+00
  0.00000000E+00  0.00000000E+00  0.00000000E+00
  0.00000000E+00  0.00000000E+00  0.00000000E+00
