 Ti1 Ag1 F6                             
   1.00000000000000     
     4.8781935558563037    0.0000000000000000    0.0000000000000000
     0.0000000000000000    5.2800769773876794    0.0000000000000000
     0.0000000000000000    0.0000000000000000   18.4207397474960004
   Ti   Ag   F 
     1     1     6
Direct
  0.5033284140441481  0.5000065516721932  0.4999978837732968
  0.0033270066469058  0.9999970872783450  0.4999983113210931
  0.3074145532718049  0.5366831509974048  0.5831624241573152
  0.6993325624706088  0.4632978827441363  0.4168525245493555
  0.6613324579342503  0.1955124930056513  0.5404373384098591
  0.3453138670777776  0.8044652125522305  0.4595509287055606
  0.2091776999816446  0.3096276765347881  0.4568734634331193
  0.7975016616885426  0.6904099452152650  0.5431271256504004
 
  0.00000000E+00  0.00000000E+00  0.00000000E+00
  0.00000000E+00  0.00000000E+00  0.00000000E+00
  0.00000000E+00  0.00000000E+00  0.00000000E+00
  0.00000000E+00  0.00000000E+00  0.00000000E+00
  0.00000000E+00  0.00000000E+00  0.00000000E+00
  0.00000000E+00  0.00000000E+00  0.00000000E+00
  0.00000000E+00  0.00000000E+00  0.00000000E+00
  0.00000000E+00  0.00000000E+00  0.00000000E+00
