G   41   38    1    0.005     # Parameters to Generate KPOINTS (Don't Edit This Line)
     780
Reciprocal lattice
    0.000000000000    0.000000000000    0.000000000000       1
    0.024390243902    0.000000000000    0.000000000000       2
    0.048780487805    0.000000000000    0.000000000000       2
    0.073170731707    0.000000000000    0.000000000000       2
    0.097560975610    0.000000000000    0.000000000000       2
    0.121951219512    0.000000000000    0.000000000000       2
    0.146341463415    0.000000000000    0.000000000000       2
    0.170731707317    0.000000000000    0.000000000000       2
    0.195121951220    0.000000000000    0.000000000000       2
    0.219512195122    0.000000000000    0.000000000000       2
    0.243902439024    0.000000000000    0.000000000000       2
    0.268292682927    0.000000000000    0.000000000000       2
    0.292682926829    0.000000000000    0.000000000000       2
    0.317073170732    0.000000000000    0.000000000000       2
    0.341463414634    0.000000000000    0.000000000000       2
    0.365853658537    0.000000000000    0.000000000000       2
    0.390243902439    0.000000000000    0.000000000000       2
    0.414634146341    0.000000000000    0.000000000000       2
    0.439024390244    0.000000000000    0.000000000000       2
    0.463414634146    0.000000000000    0.000000000000       2
    0.487804878049    0.000000000000    0.000000000000       2
    0.000000000000    0.026315789474    0.000000000000       2
    0.024390243902    0.026315789474    0.000000000000       2
    0.048780487805    0.026315789474    0.000000000000       2
    0.073170731707    0.026315789474    0.000000000000       2
    0.097560975610    0.026315789474    0.000000000000       2
    0.121951219512    0.026315789474    0.000000000000       2
    0.146341463415    0.026315789474    0.000000000000       2
    0.170731707317    0.026315789474    0.000000000000       2
    0.195121951220    0.026315789474    0.000000000000       2
    0.219512195122    0.026315789474    0.000000000000       2
    0.243902439024    0.026315789474    0.000000000000       2
    0.268292682927    0.026315789474    0.000000000000       2
    0.292682926829    0.026315789474    0.000000000000       2
    0.317073170732    0.026315789474    0.000000000000       2
    0.341463414634    0.026315789474    0.000000000000       2
    0.365853658537    0.026315789474    0.000000000000       2
    0.390243902439    0.026315789474    0.000000000000       2
    0.414634146341    0.026315789474    0.000000000000       2
    0.439024390244    0.026315789474    0.000000000000       2
    0.463414634146    0.026315789474    0.000000000000       2
    0.487804878049    0.026315789474    0.000000000000       2
   -0.487804878049    0.026315789474    0.000000000000       2
   -0.463414634146    0.026315789474    0.000000000000       2
   -0.439024390244    0.026315789474    0.000000000000       2
   -0.414634146341    0.026315789474    0.000000000000       2
   -0.390243902439    0.026315789474    0.000000000000       2
   -0.365853658537    0.026315789474    0.000000000000       2
   -0.341463414634    0.026315789474    0.000000000000       2
   -0.317073170732    0.026315789474    0.000000000000       2
   -0.292682926829    0.026315789474    0.000000000000       2
   -0.268292682927    0.026315789474    0.000000000000       2
   -0.243902439024    0.026315789474    0.000000000000       2
   -0.219512195122    0.026315789474    0.000000000000       2
   -0.195121951220    0.026315789474    0.000000000000       2
   -0.170731707317    0.026315789474    0.000000000000       2
   -0.146341463415    0.026315789474    0.000000000000       2
   -0.121951219512    0.026315789474    0.000000000000       2
   -0.097560975610    0.026315789474    0.000000000000       2
   -0.073170731707    0.026315789474    0.000000000000       2
   -0.048780487805    0.026315789474    0.000000000000       2
   -0.024390243902    0.026315789474    0.000000000000       2
    0.000000000000    0.052631578947    0.000000000000       2
    0.024390243902    0.052631578947    0.000000000000       2
    0.048780487805    0.052631578947    0.000000000000       2
    0.073170731707    0.052631578947    0.000000000000       2
    0.097560975610    0.052631578947    0.000000000000       2
    0.121951219512    0.052631578947    0.000000000000       2
    0.146341463415    0.052631578947    0.000000000000       2
    0.170731707317    0.052631578947    0.000000000000       2
    0.195121951220    0.052631578947    0.000000000000       2
    0.219512195122    0.052631578947    0.000000000000       2
    0.243902439024    0.052631578947    0.000000000000       2
    0.268292682927    0.052631578947    0.000000000000       2
    0.292682926829    0.052631578947    0.000000000000       2
    0.317073170732    0.052631578947    0.000000000000       2
    0.341463414634    0.052631578947    0.000000000000       2
    0.365853658537    0.052631578947    0.000000000000       2
    0.390243902439    0.052631578947    0.000000000000       2
    0.414634146341    0.052631578947    0.000000000000       2
    0.439024390244    0.052631578947    0.000000000000       2
    0.463414634146    0.052631578947    0.000000000000       2
    0.487804878049    0.052631578947    0.000000000000       2
   -0.487804878049    0.052631578947    0.000000000000       2
   -0.463414634146    0.052631578947    0.000000000000       2
   -0.439024390244    0.052631578947    0.000000000000       2
   -0.414634146341    0.052631578947    0.000000000000       2
   -0.390243902439    0.052631578947    0.000000000000       2
   -0.365853658537    0.052631578947    0.000000000000       2
   -0.341463414634    0.052631578947    0.000000000000       2
   -0.317073170732    0.052631578947    0.000000000000       2
   -0.292682926829    0.052631578947    0.000000000000       2
   -0.268292682927    0.052631578947    0.000000000000       2
   -0.243902439024    0.052631578947    0.000000000000       2
   -0.219512195122    0.052631578947    0.000000000000       2
   -0.195121951220    0.052631578947    0.000000000000       2
   -0.170731707317    0.052631578947    0.000000000000       2
   -0.146341463415    0.052631578947    0.000000000000       2
   -0.121951219512    0.052631578947    0.000000000000       2
   -0.097560975610    0.052631578947    0.000000000000       2
   -0.073170731707    0.052631578947    0.000000000000       2
   -0.048780487805    0.052631578947    0.000000000000       2
   -0.024390243902    0.052631578947    0.000000000000       2
    0.000000000000    0.078947368421    0.000000000000       2
    0.024390243902    0.078947368421    0.000000000000       2
    0.048780487805    0.078947368421    0.000000000000       2
    0.073170731707    0.078947368421    0.000000000000       2
    0.097560975610    0.078947368421    0.000000000000       2
    0.121951219512    0.078947368421    0.000000000000       2
    0.146341463415    0.078947368421    0.000000000000       2
    0.170731707317    0.078947368421    0.000000000000       2
    0.195121951220    0.078947368421    0.000000000000       2
    0.219512195122    0.078947368421    0.000000000000       2
    0.243902439024    0.078947368421    0.000000000000       2
    0.268292682927    0.078947368421    0.000000000000       2
    0.292682926829    0.078947368421    0.000000000000       2
    0.317073170732    0.078947368421    0.000000000000       2
    0.341463414634    0.078947368421    0.000000000000       2
    0.365853658537    0.078947368421    0.000000000000       2
    0.390243902439    0.078947368421    0.000000000000       2
    0.414634146341    0.078947368421    0.000000000000       2
    0.439024390244    0.078947368421    0.000000000000       2
    0.463414634146    0.078947368421    0.000000000000       2
    0.487804878049    0.078947368421    0.000000000000       2
   -0.487804878049    0.078947368421    0.000000000000       2
   -0.463414634146    0.078947368421    0.000000000000       2
   -0.439024390244    0.078947368421    0.000000000000       2
   -0.414634146341    0.078947368421    0.000000000000       2
   -0.390243902439    0.078947368421    0.000000000000       2
   -0.365853658537    0.078947368421    0.000000000000       2
   -0.341463414634    0.078947368421    0.000000000000       2
   -0.317073170732    0.078947368421    0.000000000000       2
   -0.292682926829    0.078947368421    0.000000000000       2
   -0.268292682927    0.078947368421    0.000000000000       2
   -0.243902439024    0.078947368421    0.000000000000       2
   -0.219512195122    0.078947368421    0.000000000000       2
   -0.195121951220    0.078947368421    0.000000000000       2
   -0.170731707317    0.078947368421    0.000000000000       2
   -0.146341463415    0.078947368421    0.000000000000       2
   -0.121951219512    0.078947368421    0.000000000000       2
   -0.097560975610    0.078947368421    0.000000000000       2
   -0.073170731707    0.078947368421    0.000000000000       2
   -0.048780487805    0.078947368421    0.000000000000       2
   -0.024390243902    0.078947368421    0.000000000000       2
    0.000000000000    0.105263157895    0.000000000000       2
    0.024390243902    0.105263157895    0.000000000000       2
    0.048780487805    0.105263157895    0.000000000000       2
    0.073170731707    0.105263157895    0.000000000000       2
    0.097560975610    0.105263157895    0.000000000000       2
    0.121951219512    0.105263157895    0.000000000000       2
    0.146341463415    0.105263157895    0.000000000000       2
    0.170731707317    0.105263157895    0.000000000000       2
    0.195121951220    0.105263157895    0.000000000000       2
    0.219512195122    0.105263157895    0.000000000000       2
    0.243902439024    0.105263157895    0.000000000000       2
    0.268292682927    0.105263157895    0.000000000000       2
    0.292682926829    0.105263157895    0.000000000000       2
    0.317073170732    0.105263157895    0.000000000000       2
    0.341463414634    0.105263157895    0.000000000000       2
    0.365853658537    0.105263157895    0.000000000000       2
    0.390243902439    0.105263157895    0.000000000000       2
    0.414634146341    0.105263157895    0.000000000000       2
    0.439024390244    0.105263157895    0.000000000000       2
    0.463414634146    0.105263157895    0.000000000000       2
    0.487804878049    0.105263157895    0.000000000000       2
   -0.487804878049    0.105263157895    0.000000000000       2
   -0.463414634146    0.105263157895    0.000000000000       2
   -0.439024390244    0.105263157895    0.000000000000       2
   -0.414634146341    0.105263157895    0.000000000000       2
   -0.390243902439    0.105263157895    0.000000000000       2
   -0.365853658537    0.105263157895    0.000000000000       2
   -0.341463414634    0.105263157895    0.000000000000       2
   -0.317073170732    0.105263157895    0.000000000000       2
   -0.292682926829    0.105263157895    0.000000000000       2
   -0.268292682927    0.105263157895    0.000000000000       2
   -0.243902439024    0.105263157895    0.000000000000       2
   -0.219512195122    0.105263157895    0.000000000000       2
   -0.195121951220    0.105263157895    0.000000000000       2
   -0.170731707317    0.105263157895    0.000000000000       2
   -0.146341463415    0.105263157895    0.000000000000       2
   -0.121951219512    0.105263157895    0.000000000000       2
   -0.097560975610    0.105263157895    0.000000000000       2
   -0.073170731707    0.105263157895    0.000000000000       2
   -0.048780487805    0.105263157895    0.000000000000       2
   -0.024390243902    0.105263157895    0.000000000000       2
    0.000000000000    0.131578947368    0.000000000000       2
    0.024390243902    0.131578947368    0.000000000000       2
    0.048780487805    0.131578947368    0.000000000000       2
    0.073170731707    0.131578947368    0.000000000000       2
    0.097560975610    0.131578947368    0.000000000000       2
    0.121951219512    0.131578947368    0.000000000000       2
    0.146341463415    0.131578947368    0.000000000000       2
    0.170731707317    0.131578947368    0.000000000000       2
    0.195121951220    0.131578947368    0.000000000000       2
    0.219512195122    0.131578947368    0.000000000000       2
    0.243902439024    0.131578947368    0.000000000000       2
    0.268292682927    0.131578947368    0.000000000000       2
    0.292682926829    0.131578947368    0.000000000000       2
    0.317073170732    0.131578947368    0.000000000000       2
    0.341463414634    0.131578947368    0.000000000000       2
    0.365853658537    0.131578947368    0.000000000000       2
    0.390243902439    0.131578947368    0.000000000000       2
    0.414634146341    0.131578947368    0.000000000000       2
    0.439024390244    0.131578947368    0.000000000000       2
    0.463414634146    0.131578947368    0.000000000000       2
    0.487804878049    0.131578947368    0.000000000000       2
   -0.487804878049    0.131578947368    0.000000000000       2
   -0.463414634146    0.131578947368    0.000000000000       2
   -0.439024390244    0.131578947368    0.000000000000       2
   -0.414634146341    0.131578947368    0.000000000000       2
   -0.390243902439    0.131578947368    0.000000000000       2
   -0.365853658537    0.131578947368    0.000000000000       2
   -0.341463414634    0.131578947368    0.000000000000       2
   -0.317073170732    0.131578947368    0.000000000000       2
   -0.292682926829    0.131578947368    0.000000000000       2
   -0.268292682927    0.131578947368    0.000000000000       2
   -0.243902439024    0.131578947368    0.000000000000       2
   -0.219512195122    0.131578947368    0.000000000000       2
   -0.195121951220    0.131578947368    0.000000000000       2
   -0.170731707317    0.131578947368    0.000000000000       2
   -0.146341463415    0.131578947368    0.000000000000       2
   -0.121951219512    0.131578947368    0.000000000000       2
   -0.097560975610    0.131578947368    0.000000000000       2
   -0.073170731707    0.131578947368    0.000000000000       2
   -0.048780487805    0.131578947368    0.000000000000       2
   -0.024390243902    0.131578947368    0.000000000000       2
    0.000000000000    0.157894736842    0.000000000000       2
    0.024390243902    0.157894736842    0.000000000000       2
    0.048780487805    0.157894736842    0.000000000000       2
    0.073170731707    0.157894736842    0.000000000000       2
    0.097560975610    0.157894736842    0.000000000000       2
    0.121951219512    0.157894736842    0.000000000000       2
    0.146341463415    0.157894736842    0.000000000000       2
    0.170731707317    0.157894736842    0.000000000000       2
    0.195121951220    0.157894736842    0.000000000000       2
    0.219512195122    0.157894736842    0.000000000000       2
    0.243902439024    0.157894736842    0.000000000000       2
    0.268292682927    0.157894736842    0.000000000000       2
    0.292682926829    0.157894736842    0.000000000000       2
    0.317073170732    0.157894736842    0.000000000000       2
    0.341463414634    0.157894736842    0.000000000000       2
    0.365853658537    0.157894736842    0.000000000000       2
    0.390243902439    0.157894736842    0.000000000000       2
    0.414634146341    0.157894736842    0.000000000000       2
    0.439024390244    0.157894736842    0.000000000000       2
    0.463414634146    0.157894736842    0.000000000000       2
    0.487804878049    0.157894736842    0.000000000000       2
   -0.487804878049    0.157894736842    0.000000000000       2
   -0.463414634146    0.157894736842    0.000000000000       2
   -0.439024390244    0.157894736842    0.000000000000       2
   -0.414634146341    0.157894736842    0.000000000000       2
   -0.390243902439    0.157894736842    0.000000000000       2
   -0.365853658537    0.157894736842    0.000000000000       2
   -0.341463414634    0.157894736842    0.000000000000       2
   -0.317073170732    0.157894736842    0.000000000000       2
   -0.292682926829    0.157894736842    0.000000000000       2
   -0.268292682927    0.157894736842    0.000000000000       2
   -0.243902439024    0.157894736842    0.000000000000       2
   -0.219512195122    0.157894736842    0.000000000000       2
   -0.195121951220    0.157894736842    0.000000000000       2
   -0.170731707317    0.157894736842    0.000000000000       2
   -0.146341463415    0.157894736842    0.000000000000       2
   -0.121951219512    0.157894736842    0.000000000000       2
   -0.097560975610    0.157894736842    0.000000000000       2
   -0.073170731707    0.157894736842    0.000000000000       2
   -0.048780487805    0.157894736842    0.000000000000       2
   -0.024390243902    0.157894736842    0.000000000000       2
    0.000000000000    0.184210526316    0.000000000000       2
    0.024390243902    0.184210526316    0.000000000000       2
    0.048780487805    0.184210526316    0.000000000000       2
    0.073170731707    0.184210526316    0.000000000000       2
    0.097560975610    0.184210526316    0.000000000000       2
    0.121951219512    0.184210526316    0.000000000000       2
    0.146341463415    0.184210526316    0.000000000000       2
    0.170731707317    0.184210526316    0.000000000000       2
    0.195121951220    0.184210526316    0.000000000000       2
    0.219512195122    0.184210526316    0.000000000000       2
    0.243902439024    0.184210526316    0.000000000000       2
    0.268292682927    0.184210526316    0.000000000000       2
    0.292682926829    0.184210526316    0.000000000000       2
    0.317073170732    0.184210526316    0.000000000000       2
    0.341463414634    0.184210526316    0.000000000000       2
    0.365853658537    0.184210526316    0.000000000000       2
    0.390243902439    0.184210526316    0.000000000000       2
    0.414634146341    0.184210526316    0.000000000000       2
    0.439024390244    0.184210526316    0.000000000000       2
    0.463414634146    0.184210526316    0.000000000000       2
    0.487804878049    0.184210526316    0.000000000000       2
   -0.487804878049    0.184210526316    0.000000000000       2
   -0.463414634146    0.184210526316    0.000000000000       2
   -0.439024390244    0.184210526316    0.000000000000       2
   -0.414634146341    0.184210526316    0.000000000000       2
   -0.390243902439    0.184210526316    0.000000000000       2
   -0.365853658537    0.184210526316    0.000000000000       2
   -0.341463414634    0.184210526316    0.000000000000       2
   -0.317073170732    0.184210526316    0.000000000000       2
   -0.292682926829    0.184210526316    0.000000000000       2
   -0.268292682927    0.184210526316    0.000000000000       2
   -0.243902439024    0.184210526316    0.000000000000       2
   -0.219512195122    0.184210526316    0.000000000000       2
   -0.195121951220    0.184210526316    0.000000000000       2
   -0.170731707317    0.184210526316    0.000000000000       2
   -0.146341463415    0.184210526316    0.000000000000       2
   -0.121951219512    0.184210526316    0.000000000000       2
   -0.097560975610    0.184210526316    0.000000000000       2
   -0.073170731707    0.184210526316    0.000000000000       2
   -0.048780487805    0.184210526316    0.000000000000       2
   -0.024390243902    0.184210526316    0.000000000000       2
    0.000000000000    0.210526315789    0.000000000000       2
    0.024390243902    0.210526315789    0.000000000000       2
    0.048780487805    0.210526315789    0.000000000000       2
    0.073170731707    0.210526315789    0.000000000000       2
    0.097560975610    0.210526315789    0.000000000000       2
    0.121951219512    0.210526315789    0.000000000000       2
    0.146341463415    0.210526315789    0.000000000000       2
    0.170731707317    0.210526315789    0.000000000000       2
    0.195121951220    0.210526315789    0.000000000000       2
    0.219512195122    0.210526315789    0.000000000000       2
    0.243902439024    0.210526315789    0.000000000000       2
    0.268292682927    0.210526315789    0.000000000000       2
    0.292682926829    0.210526315789    0.000000000000       2
    0.317073170732    0.210526315789    0.000000000000       2
    0.341463414634    0.210526315789    0.000000000000       2
    0.365853658537    0.210526315789    0.000000000000       2
    0.390243902439    0.210526315789    0.000000000000       2
    0.414634146341    0.210526315789    0.000000000000       2
    0.439024390244    0.210526315789    0.000000000000       2
    0.463414634146    0.210526315789    0.000000000000       2
    0.487804878049    0.210526315789    0.000000000000       2
   -0.487804878049    0.210526315789    0.000000000000       2
   -0.463414634146    0.210526315789    0.000000000000       2
   -0.439024390244    0.210526315789    0.000000000000       2
   -0.414634146341    0.210526315789    0.000000000000       2
   -0.390243902439    0.210526315789    0.000000000000       2
   -0.365853658537    0.210526315789    0.000000000000       2
   -0.341463414634    0.210526315789    0.000000000000       2
   -0.317073170732    0.210526315789    0.000000000000       2
   -0.292682926829    0.210526315789    0.000000000000       2
   -0.268292682927    0.210526315789    0.000000000000       2
   -0.243902439024    0.210526315789    0.000000000000       2
   -0.219512195122    0.210526315789    0.000000000000       2
   -0.195121951220    0.210526315789    0.000000000000       2
   -0.170731707317    0.210526315789    0.000000000000       2
   -0.146341463415    0.210526315789    0.000000000000       2
   -0.121951219512    0.210526315789    0.000000000000       2
   -0.097560975610    0.210526315789    0.000000000000       2
   -0.073170731707    0.210526315789    0.000000000000       2
   -0.048780487805    0.210526315789    0.000000000000       2
   -0.024390243902    0.210526315789    0.000000000000       2
    0.000000000000    0.236842105263    0.000000000000       2
    0.024390243902    0.236842105263    0.000000000000       2
    0.048780487805    0.236842105263    0.000000000000       2
    0.073170731707    0.236842105263    0.000000000000       2
    0.097560975610    0.236842105263    0.000000000000       2
    0.121951219512    0.236842105263    0.000000000000       2
    0.146341463415    0.236842105263    0.000000000000       2
    0.170731707317    0.236842105263    0.000000000000       2
    0.195121951220    0.236842105263    0.000000000000       2
    0.219512195122    0.236842105263    0.000000000000       2
    0.243902439024    0.236842105263    0.000000000000       2
    0.268292682927    0.236842105263    0.000000000000       2
    0.292682926829    0.236842105263    0.000000000000       2
    0.317073170732    0.236842105263    0.000000000000       2
    0.341463414634    0.236842105263    0.000000000000       2
    0.365853658537    0.236842105263    0.000000000000       2
    0.390243902439    0.236842105263    0.000000000000       2
    0.414634146341    0.236842105263    0.000000000000       2
    0.439024390244    0.236842105263    0.000000000000       2
    0.463414634146    0.236842105263    0.000000000000       2
    0.487804878049    0.236842105263    0.000000000000       2
   -0.487804878049    0.236842105263    0.000000000000       2
   -0.463414634146    0.236842105263    0.000000000000       2
   -0.439024390244    0.236842105263    0.000000000000       2
   -0.414634146341    0.236842105263    0.000000000000       2
   -0.390243902439    0.236842105263    0.000000000000       2
   -0.365853658537    0.236842105263    0.000000000000       2
   -0.341463414634    0.236842105263    0.000000000000       2
   -0.317073170732    0.236842105263    0.000000000000       2
   -0.292682926829    0.236842105263    0.000000000000       2
   -0.268292682927    0.236842105263    0.000000000000       2
   -0.243902439024    0.236842105263    0.000000000000       2
   -0.219512195122    0.236842105263    0.000000000000       2
   -0.195121951220    0.236842105263    0.000000000000       2
   -0.170731707317    0.236842105263    0.000000000000       2
   -0.146341463415    0.236842105263    0.000000000000       2
   -0.121951219512    0.236842105263    0.000000000000       2
   -0.097560975610    0.236842105263    0.000000000000       2
   -0.073170731707    0.236842105263    0.000000000000       2
   -0.048780487805    0.236842105263    0.000000000000       2
   -0.024390243902    0.236842105263    0.000000000000       2
    0.000000000000    0.263157894737    0.000000000000       2
    0.024390243902    0.263157894737    0.000000000000       2
    0.048780487805    0.263157894737    0.000000000000       2
    0.073170731707    0.263157894737    0.000000000000       2
    0.097560975610    0.263157894737    0.000000000000       2
    0.121951219512    0.263157894737    0.000000000000       2
    0.146341463415    0.263157894737    0.000000000000       2
    0.170731707317    0.263157894737    0.000000000000       2
    0.195121951220    0.263157894737    0.000000000000       2
    0.219512195122    0.263157894737    0.000000000000       2
    0.243902439024    0.263157894737    0.000000000000       2
    0.268292682927    0.263157894737    0.000000000000       2
    0.292682926829    0.263157894737    0.000000000000       2
    0.317073170732    0.263157894737    0.000000000000       2
    0.341463414634    0.263157894737    0.000000000000       2
    0.365853658537    0.263157894737    0.000000000000       2
    0.390243902439    0.263157894737    0.000000000000       2
    0.414634146341    0.263157894737    0.000000000000       2
    0.439024390244    0.263157894737    0.000000000000       2
    0.463414634146    0.263157894737    0.000000000000       2
    0.487804878049    0.263157894737    0.000000000000       2
   -0.487804878049    0.263157894737    0.000000000000       2
   -0.463414634146    0.263157894737    0.000000000000       2
   -0.439024390244    0.263157894737    0.000000000000       2
   -0.414634146341    0.263157894737    0.000000000000       2
   -0.390243902439    0.263157894737    0.000000000000       2
   -0.365853658537    0.263157894737    0.000000000000       2
   -0.341463414634    0.263157894737    0.000000000000       2
   -0.317073170732    0.263157894737    0.000000000000       2
   -0.292682926829    0.263157894737    0.000000000000       2
   -0.268292682927    0.263157894737    0.000000000000       2
   -0.243902439024    0.263157894737    0.000000000000       2
   -0.219512195122    0.263157894737    0.000000000000       2
   -0.195121951220    0.263157894737    0.000000000000       2
   -0.170731707317    0.263157894737    0.000000000000       2
   -0.146341463415    0.263157894737    0.000000000000       2
   -0.121951219512    0.263157894737    0.000000000000       2
   -0.097560975610    0.263157894737    0.000000000000       2
   -0.073170731707    0.263157894737    0.000000000000       2
   -0.048780487805    0.263157894737    0.000000000000       2
   -0.024390243902    0.263157894737    0.000000000000       2
    0.000000000000    0.289473684211    0.000000000000       2
    0.024390243902    0.289473684211    0.000000000000       2
    0.048780487805    0.289473684211    0.000000000000       2
    0.073170731707    0.289473684211    0.000000000000       2
    0.097560975610    0.289473684211    0.000000000000       2
    0.121951219512    0.289473684211    0.000000000000       2
    0.146341463415    0.289473684211    0.000000000000       2
    0.170731707317    0.289473684211    0.000000000000       2
    0.195121951220    0.289473684211    0.000000000000       2
    0.219512195122    0.289473684211    0.000000000000       2
    0.243902439024    0.289473684211    0.000000000000       2
    0.268292682927    0.289473684211    0.000000000000       2
    0.292682926829    0.289473684211    0.000000000000       2
    0.317073170732    0.289473684211    0.000000000000       2
    0.341463414634    0.289473684211    0.000000000000       2
    0.365853658537    0.289473684211    0.000000000000       2
    0.390243902439    0.289473684211    0.000000000000       2
    0.414634146341    0.289473684211    0.000000000000       2
    0.439024390244    0.289473684211    0.000000000000       2
    0.463414634146    0.289473684211    0.000000000000       2
    0.487804878049    0.289473684211    0.000000000000       2
   -0.487804878049    0.289473684211    0.000000000000       2
   -0.463414634146    0.289473684211    0.000000000000       2
   -0.439024390244    0.289473684211    0.000000000000       2
   -0.414634146341    0.289473684211    0.000000000000       2
   -0.390243902439    0.289473684211    0.000000000000       2
   -0.365853658537    0.289473684211    0.000000000000       2
   -0.341463414634    0.289473684211    0.000000000000       2
   -0.317073170732    0.289473684211    0.000000000000       2
   -0.292682926829    0.289473684211    0.000000000000       2
   -0.268292682927    0.289473684211    0.000000000000       2
   -0.243902439024    0.289473684211    0.000000000000       2
   -0.219512195122    0.289473684211    0.000000000000       2
   -0.195121951220    0.289473684211    0.000000000000       2
   -0.170731707317    0.289473684211    0.000000000000       2
   -0.146341463415    0.289473684211    0.000000000000       2
   -0.121951219512    0.289473684211    0.000000000000       2
   -0.097560975610    0.289473684211    0.000000000000       2
   -0.073170731707    0.289473684211    0.000000000000       2
   -0.048780487805    0.289473684211    0.000000000000       2
   -0.024390243902    0.289473684211    0.000000000000       2
    0.000000000000    0.315789473684    0.000000000000       2
    0.024390243902    0.315789473684    0.000000000000       2