 Sr4 Mn3 Cl2 O8                         
   1.00000000000000     
     3.8216945019848403    0.0000000000000000    0.0000000000000000
     0.0000000000000000    3.8216943531498728    0.0000000000000000
     0.0000000000000000    0.0000000000000000   29.1504053092320028
   Sr   Mn   Cl   O 
     4     3     2     8
Direct
  0.0000000536599529  0.9999999697520252  0.2996833320813366
  0.9999999691448451  0.0000000628553778  0.7003221372831092
  0.9999999587810109  0.9999999858728472  0.4355262459023592
  0.0000000003218403  0.0000000260247575  0.5644734312741306
  0.4999999989963655  0.4999999978976888  0.5000047840945143
  0.4999999963166459  0.5000000001915836  0.6331561837622601
  0.5000000050443418  0.4999999915590152  0.3668284296096260
  0.4999999666072554  0.4999999521493166  0.2552416877648227
  0.5000000148084496  0.5000000600814545  0.7447582396945975
  0.5000000228969554  0.9999999852852639  0.3560715998765005
  0.9999999936617456  0.5000000059868484  0.6439317565099785
  0.5000000070282411  0.9999999924227794  0.4999990367502534
  0.9999999996289617  0.4999999933820547  0.4999990434487955
  0.0000000147555212  0.4999999788809220  0.3560715995023003
  0.5000000097736645  0.5000000108214309  0.4316607580227014
  0.4999999913318405  0.0000000013738344  0.6439317560109217
  0.4999999972423694  0.4999999854628072  0.5683399784117853
 
  0.00000000E+00  0.00000000E+00  0.00000000E+00
  0.00000000E+00  0.00000000E+00  0.00000000E+00
  0.00000000E+00  0.00000000E+00  0.00000000E+00
  0.00000000E+00  0.00000000E+00  0.00000000E+00
  0.00000000E+00  0.00000000E+00  0.00000000E+00
  0.00000000E+00  0.00000000E+00  0.00000000E+00
  0.00000000E+00  0.00000000E+00  0.00000000E+00
  0.00000000E+00  0.00000000E+00  0.00000000E+00
  0.00000000E+00  0.00000000E+00  0.00000000E+00
  0.00000000E+00  0.00000000E+00  0.00000000E+00
  0.00000000E+00  0.00000000E+00  0.00000000E+00
  0.00000000E+00  0.00000000E+00  0.00000000E+00
  0.00000000E+00  0.00000000E+00  0.00000000E+00
  0.00000000E+00  0.00000000E+00  0.00000000E+00
  0.00000000E+00  0.00000000E+00  0.00000000E+00
  0.00000000E+00  0.00000000E+00  0.00000000E+00
  0.00000000E+00  0.00000000E+00  0.00000000E+00
