CONTCAR\(5)                             
   1.00000000000000     
    11.8035001755000000    0.0000000000000000    0.0000000000000000
    -5.9028060597999996   10.2219826981999997    0.0000000000000000
     0.0000000000000000    0.0000000000000000   24.2695999146000005
   Cr   Te   O    H 
    27    36     1     1
Direct
  0.9961578882763007  0.9924488145968482  0.4996033025567570
  0.9962394700146078  0.3259677905752270  0.6330530848523921
  0.3293518053496030  0.9921076904145565  0.3670951019116941
  0.3287799512726579  0.9910925262904513  0.4994399793628332
  0.3301631049630913  0.3263274998102332  0.6322956625112468
  0.6625037552397544  0.9915144829206213  0.3668323367517203
  0.6628806348565703  0.9924948863120235  0.4995463305167007
  0.6627946564528600  0.3263689711356221  0.6322402126285240
  0.9956215939860229  0.9914369111362618  0.3667716037088127
  0.9961416977355242  0.3256835114202872  0.4999804936827061
  0.9961407849952124  0.6594030523995897  0.6330392716423461
  0.3291727957186765  0.3250921863954872  0.3669027077593867
  0.3290512562758892  0.3267475463283844  0.4994896726766314
  0.3298324604950196  0.6594186854686868  0.6330433016573807
  0.6625249072253894  0.3251032673183261  0.3669280087582436
  0.6643657541868535  0.3268269487895168  0.4994190908602505
  0.6584380089871829  0.6505553776762767  0.6313742665817301
  0.9957185181146002  0.3248018550855605  0.3668466215171620
  0.9963692804637745  0.6588403361173860  0.5000012489645087
  0.0059769679449460  0.9974134093189733  0.6313079405712188
  0.3292008925460550  0.6584415662183076  0.3669030143369199
  0.3290383958728640  0.6588722187567200  0.4999663427747265
  0.3299874725235981  0.9934012377682464  0.6323007055198886
  0.6624603631716042  0.6583262805417505  0.3668307933054535
  0.6629585769624740  0.6593450739941602  0.4996214791941611
  0.6576997180885229  0.9975936371003584  0.6311607707587328
  0.9959112153383245  0.6583222962099526  0.3668686355302384
  0.1088685989081242  0.2159144365172949  0.6922860589139574
  0.1068011046220150  0.2143852892157270  0.4348594592847235
  0.2179362770569000  0.1026155194179665  0.3077956638400963
  0.2203814846064631  0.1048202546982253  0.5638113214267406
  0.4410932673175978  0.2155056882190181  0.6915389218263641
  0.4405889881773604  0.2146722558693526  0.4350423082152801
  0.5513358626018530  0.1026370529725824  0.3078359156260859
  0.5509253160303089  0.1050038076339774  0.5636772008241522
  0.7735038061809334  0.2159116084975565  0.6921545789428123
  0.7742029141360192  0.2143832744156100  0.4348560092613525
  0.8846156109192123  0.1025267753058614  0.3076335676144240
  0.8845914124460492  0.1025956886137749  0.5655223556385636
  0.1075278741080652  0.5484813081434936  0.6920933729580696
  0.1070648360015340  0.5475131345438484  0.4350378889866349
  0.2179181549659148  0.4359473726179601  0.3077870584533358
  0.2181766272641070  0.4372843023509176  0.5651278557463115
  0.4403910894997622  0.5474236707060527  0.6921814278895653
  0.4405867566357742  0.5482026153318742  0.4348987124977626
  0.5512105171655932  0.4358180329772381  0.3077027467150870
  0.5512680657081930  0.4359752144186473  0.5640126751831289
  0.7735163459449552  0.5475014682857449  0.6921432869937760
  0.7742646821540475  0.5482927679673821  0.4348503849600220
  0.8846013958286463  0.4358441819335042  0.3077652347869844
  0.8856760115715048  0.4372970899372746  0.5650926494054715
  0.1087386634998069  0.8821733356671544  0.6921946000734636
  0.1067409180163779  0.8806301319178900  0.4348646944322923
  0.2183264763169106  0.7698562888642684  0.3079220303673580
  0.2184591369024815  0.7702888431953170  0.5651767796748430
  0.4400005056526624  0.8822053999356854  0.6921292588199464
  0.4404845693341457  0.8806616747078237  0.4348635846779629
  0.5511914764195112  0.7691413305882335  0.3076425046384088
  0.5525168988697686  0.7709352823965148  0.5653405328853438
  0.7736464622053205  0.8814449541744409  0.6812394408943021
  0.7737910218614914  0.8810479204504418  0.4343890160475254
  0.8845344302406346  0.7688899673150047  0.3076086277862302
  0.8848666398460310  0.7708698758193719  0.5654190301128637
  0.7665203612410920  0.8693607294122785  0.7645717695783532
  0.8237839596849099  0.9575843588648851  0.7789595911280429
 
  0.00000000E+00  0.00000000E+00  0.00000000E+00
  0.00000000E+00  0.00000000E+00  0.00000000E+00
  0.00000000E+00  0.00000000E+00  0.00000000E+00
  0.00000000E+00  0.00000000E+00  0.00000000E+00
  0.00000000E+00  0.00000000E+00  0.00000000E+00
  0.00000000E+00  0.00000000E+00  0.00000000E+00
  0.00000000E+00  0.00000000E+00  0.00000000E+00
  0.00000000E+00  0.00000000E+00  0.00000000E+00
  0.00000000E+00  0.00000000E+00  0.00000000E+00
  0.00000000E+00  0.00000000E+00  0.00000000E+00
  0.00000000E+00  0.00000000E+00  0.00000000E+00
  0.00000000E+00  0.00000000E+00  0.00000000E+00
  0.00000000E+00  0.00000000E+00  0.00000000E+00
  0.00000000E+00  0.00000000E+00  0.00000000E+00
  0.00000000E+00  0.00000000E+00  0.00000000E+00
  0.00000000E+00  0.00000000E+00  0.00000000E+00
  0.00000000E+00  0.00000000E+00  0.00000000E+00
  0.00000000E+00  0.00000000E+00  0.00000000E+00
  0.00000000E+00  0.00000000E+00  0.00000000E+00
  0.00000000E+00  0.00000000E+00  0.00000000E+00
  0.00000000E+00  0.00000000E+00  0.00000000E+00
  0.00000000E+00  0.00000000E+00  0.00000000E+00
  0.00000000E+00  0.00000000E+00  0.00000000E+00
  0.00000000E+00  0.00000000E+00  0.00000000E+00
  0.00000000E+00  0.00000000E+00  0.00000000E+00
  0.00000000E+00  0.00000000E+00  0.00000000E+00
  0.00000000E+00  0.00000000E+00  0.00000000E+00
  0.00000000E+00  0.00000000E+00  0.00000000E+00
  0.00000000E+00  0.00000000E+00  0.00000000E+00
  0.00000000E+00  0.00000000E+00  0.00000000E+00
  0.00000000E+00  0.00000000E+00  0.00000000E+00
  0.00000000E+00  0.00000000E+00  0.00000000E+00
  0.00000000E+00  0.00000000E+00  0.00000000E+00
  0.00000000E+00  0.00000000E+00  0.00000000E+00
  0.00000000E+00  0.00000000E+00  0.00000000E+00
  0.00000000E+00  0.00000000E+00  0.00000000E+00
  0.00000000E+00  0.00000000E+00  0.00000000E+00
  0.00000000E+00  0.00000000E+00  0.00000000E+00
  0.00000000E+00  0.00000000E+00  0.00000000E+00
  0.00000000E+00  0.00000000E+00  0.00000000E+00
  0.00000000E+00  0.00000000E+00  0.00000000E+00
  0.00000000E+00  0.00000000E+00  0.00000000E+00
  0.00000000E+00  0.00000000E+00  0.00000000E+00
  0.00000000E+00  0.00000000E+00  0.00000000E+00
  0.00000000E+00  0.00000000E+00  0.00000000E+00
  0.00000000E+00  0.00000000E+00  0.00000000E+00
  0.00000000E+00  0.00000000E+00  0.00000000E+00
  0.00000000E+00  0.00000000E+00  0.00000000E+00
  0.00000000E+00  0.00000000E+00  0.00000000E+00
  0.00000000E+00  0.00000000E+00  0.00000000E+00
  0.00000000E+00  0.00000000E+00  0.00000000E+00
  0.00000000E+00  0.00000000E+00  0.00000000E+00
  0.00000000E+00  0.00000000E+00  0.00000000E+00
  0.00000000E+00  0.00000000E+00  0.00000000E+00
  0.00000000E+00  0.00000000E+00  0.00000000E+00
  0.00000000E+00  0.00000000E+00  0.00000000E+00
  0.00000000E+00  0.00000000E+00  0.00000000E+00
  0.00000000E+00  0.00000000E+00  0.00000000E+00
  0.00000000E+00  0.00000000E+00  0.00000000E+00
  0.00000000E+00  0.00000000E+00  0.00000000E+00
  0.00000000E+00  0.00000000E+00  0.00000000E+00
  0.00000000E+00  0.00000000E+00  0.00000000E+00
  0.00000000E+00  0.00000000E+00  0.00000000E+00
  0.00000000E+00  0.00000000E+00  0.00000000E+00
  0.00000000E+00  0.00000000E+00  0.00000000E+00
