CONTCAR                                 
   1.00000000000000     
     9.7571001052999993    0.0000000000000000    0.0000000000000000
    -3.0063686365000000   15.8319856181999992    0.0000000000000000
     0.0000000000000000    0.0000000000000000   18.2793006897000012
   V    P    S    O    H 
     4     8    26     2     1
Selective dynamics
Direct
  0.6335751630543598  0.6107778675929580  0.5043596467602569   F   F   F
  0.6065755904030610  0.1050386395191509  0.4996490649099101   F   F   F
  0.3818392878591368  0.3966533800023555  0.5073069806430368   F   F   F
  0.3693519610473075  0.8947408079744577  0.4947239225236260   F   F   F
  0.8224908804695161  0.2617953574558101  0.5007752097603557   F   F   F
  0.6905061655278431  0.4334106960726984  0.5479242899319274   F   F   F
  0.1632901386112593  0.7367599153119357  0.5099304607434405   F   F   F
  0.1659068486000379  0.2405570704189159  0.5007123590024705   F   F   F
  0.2952318759930819  0.0666209144080341  0.5419508816284804   F   F   F
  0.6741494491329902  0.9371850627214258  0.4451237440213447   F   F   F
  0.3144519558790435  0.5676380756017991  0.4655105515037263   F   F   F
  0.8386624301538035  0.7843203054372978  0.5285469147572499   F   F   F
  0.1038875143441800  0.1108927766909744  0.5337425468357679   F   F   F
  0.8459007612889593  0.8787990779500774  0.4341119211421045   F   F   F
  0.0102303653710578  0.7374039755943045  0.5891926518506594   F   F   F
  0.3745674509548138  0.0420310637745871  0.4413068963183946   F   F   F
  0.5350441692424397  0.3508031489104226  0.5955860699623798   F   F   F
  0.2540564220642310  0.4551054869801234  0.4143119021981221   F   F   F
  0.1943665948205719  0.3224457983162381  0.5846202109214147   F   F   F
  0.6584836505273799  0.7300083628236607  0.5806935331373708   F   F   F
  0.4724109791757982  0.6479871112866178  0.4163139343423623   F   F   F
  0.6134484669224491  0.4623112524035946  0.4479837125414861   F   F   F
  0.6567331617369234  0.2395522005487365  0.4335908370473760   F   F   F
  0.8827647431356098  0.3894466667481069  0.5393956308079524   F   F   F
  0.9948801376829834  0.2532231696766090  0.4308953049454942   F   F   F
  0.6029242233119803  0.9582384389042176  0.5490196614374838   F   F   F
  0.8168221340023507  0.6812126029701560  0.4448212583672415   F   F   F
  0.3929899738612193  0.5401309237052416  0.5652940858869684   F   F   F
  0.1673403744424249  0.8198027376540367  0.4273020728135108   F   F   F
  0.7467557347701756  0.5451205635713450  0.6003437076726073   F   F   F
  0.5033313157830293  0.8661909143384889  0.3953574054497793   F   F   F
  0.2380142491931068  0.9530671057084206  0.5907991669790604   F   F   F
  0.3466931185354625  0.7684818371083679  0.5646760430198654   F   F   F
  0.7924156681486068  0.1739068454596193  0.5802738960584364   F   F   F
  0.7271839452073721  0.0544121694539399  0.4002062190904283   F   F   F
  0.4533099923648152  0.1455948570272199  0.5914485160835170   F   F   F
  0.1206067183627368  0.6078264172604051  0.4713359913597657   F   F   F
  0.3325424206492897  0.2669149975128633  0.4343752967995016   F   F   F
  0.8779112432666025  0.8805567546524244  0.5719345939289298   T   T   T
  0.8880006164465257  0.8703280547645491  0.6517130921017085   T   T   T
  0.9885419516554350  0.8930767106878363  0.6570292603942091   T   T   T
 
  0.00000000E+00  0.00000000E+00  0.00000000E+00
  0.00000000E+00  0.00000000E+00  0.00000000E+00
  0.00000000E+00  0.00000000E+00  0.00000000E+00
  0.00000000E+00  0.00000000E+00  0.00000000E+00
  0.00000000E+00  0.00000000E+00  0.00000000E+00
  0.00000000E+00  0.00000000E+00  0.00000000E+00
  0.00000000E+00  0.00000000E+00  0.00000000E+00
  0.00000000E+00  0.00000000E+00  0.00000000E+00
  0.00000000E+00  0.00000000E+00  0.00000000E+00
  0.00000000E+00  0.00000000E+00  0.00000000E+00
  0.00000000E+00  0.00000000E+00  0.00000000E+00
  0.00000000E+00  0.00000000E+00  0.00000000E+00
  0.00000000E+00  0.00000000E+00  0.00000000E+00
  0.00000000E+00  0.00000000E+00  0.00000000E+00
  0.00000000E+00  0.00000000E+00  0.00000000E+00
  0.00000000E+00  0.00000000E+00  0.00000000E+00
  0.00000000E+00  0.00000000E+00  0.00000000E+00
  0.00000000E+00  0.00000000E+00  0.00000000E+00
  0.00000000E+00  0.00000000E+00  0.00000000E+00
  0.00000000E+00  0.00000000E+00  0.00000000E+00
  0.00000000E+00  0.00000000E+00  0.00000000E+00
  0.00000000E+00  0.00000000E+00  0.00000000E+00
  0.00000000E+00  0.00000000E+00  0.00000000E+00
  0.00000000E+00  0.00000000E+00  0.00000000E+00
  0.00000000E+00  0.00000000E+00  0.00000000E+00
  0.00000000E+00  0.00000000E+00  0.00000000E+00
  0.00000000E+00  0.00000000E+00  0.00000000E+00
  0.00000000E+00  0.00000000E+00  0.00000000E+00
  0.00000000E+00  0.00000000E+00  0.00000000E+00
  0.00000000E+00  0.00000000E+00  0.00000000E+00
  0.00000000E+00  0.00000000E+00  0.00000000E+00
  0.00000000E+00  0.00000000E+00  0.00000000E+00
  0.00000000E+00  0.00000000E+00  0.00000000E+00
  0.00000000E+00  0.00000000E+00  0.00000000E+00
  0.00000000E+00  0.00000000E+00  0.00000000E+00
  0.00000000E+00  0.00000000E+00  0.00000000E+00
  0.00000000E+00  0.00000000E+00  0.00000000E+00
  0.00000000E+00  0.00000000E+00  0.00000000E+00
  0.00000000E+00  0.00000000E+00  0.00000000E+00
  0.00000000E+00  0.00000000E+00  0.00000000E+00
  0.00000000E+00  0.00000000E+00  0.00000000E+00
