 Nb6 Ge2 Te12                           
   1.00000000000000     
     6.5341144439588730    0.0000000000000000    0.0000000000000000
     0.0000000000000000   11.6650781340994918    0.0000000000000000
     0.0000000000000000    0.0000000000000000   18.7824039597240002
   Nb   Ge   Te
     6     2    12
Direct
  0.6991462618205085  0.7179240190806988  0.4999999874031289
  0.1991461325578136  0.2820758955875169  0.4999999842029723
  0.9633526342901754  0.0650153571320007  0.4999999883836423
  0.4633527945620778  0.9349846923999121  0.4999999875224859
  0.6714602204882744  0.4151735060727839  0.4999999866288718
  0.1714598759174883  0.5848262854946490  0.4999999869858982
  0.5749302440433279  0.1750499199355081  0.5000000638864890
  0.0749297283096038  0.8249504196193651  0.5000000762875842
  0.8543325791383063  0.5687100199750723  0.6007219618610786
  0.3543325530241342  0.4312897386986088  0.3992780478515433
  0.3543325500201087  0.4312897405010994  0.6007219266761890
  0.8543325812197986  0.5687100239031444  0.3992780137443551
  0.7844837354325486  0.9103574819762380  0.6006246140270963
  0.2844839251459952  0.0896427691303960  0.3993753846175292
  0.2844838967170169  0.0896427585068371  0.6006246090924481
  0.7844837705653412  0.9103574652859231  0.3993753848876704
  0.3650665396972680  0.7429289751028565  0.5981906513659629
  0.8650667217784413  0.2570709555601523  0.4018092212103904
  0.8650667639215837  0.2570709752160523  0.5981907724058948
  0.3650664913501710  0.7429290008211853  0.4018093509587696
 
  0.00000000E+00  0.00000000E+00  0.00000000E+00
  0.00000000E+00  0.00000000E+00  0.00000000E+00
  0.00000000E+00  0.00000000E+00  0.00000000E+00
  0.00000000E+00  0.00000000E+00  0.00000000E+00
  0.00000000E+00  0.00000000E+00  0.00000000E+00
  0.00000000E+00  0.00000000E+00  0.00000000E+00
  0.00000000E+00  0.00000000E+00  0.00000000E+00
  0.00000000E+00  0.00000000E+00  0.00000000E+00
  0.00000000E+00  0.00000000E+00  0.00000000E+00
  0.00000000E+00  0.00000000E+00  0.00000000E+00
  0.00000000E+00  0.00000000E+00  0.00000000E+00
  0.00000000E+00  0.00000000E+00  0.00000000E+00
  0.00000000E+00  0.00000000E+00  0.00000000E+00
  0.00000000E+00  0.00000000E+00  0.00000000E+00
  0.00000000E+00  0.00000000E+00  0.00000000E+00
  0.00000000E+00  0.00000000E+00  0.00000000E+00
  0.00000000E+00  0.00000000E+00  0.00000000E+00
  0.00000000E+00  0.00000000E+00  0.00000000E+00
  0.00000000E+00  0.00000000E+00  0.00000000E+00
  0.00000000E+00  0.00000000E+00  0.00000000E+00
