CONTCAR\(8)                             
   1.00000000000000     
    11.2263002396000005    0.0000000000000000    0.0000000000000000
     0.0000000000000000   21.7961997986000000    0.0000000000000000
     0.0000000000000000    0.0000000000000000   19.3752994536999985
   Ta   Te   Pd   O    H 
     9    42     9     2     1
Direct
  0.1649116894193969  0.4748163108883631  0.5019430595517961
  0.1651538481286685  0.1238190287224120  0.5004222362610740
  0.1648181595498739  0.7729649241930334  0.5150764423799329
  0.4974277144048989  0.4749236943207593  0.5019163602015662
  0.4977553008665180  0.1233735185945006  0.5022056995027081
  0.4975349752054932  0.7712365666578511  0.5138027204657465
  0.8306314094850077  0.4748303432361701  0.5023432287691445
  0.8306027381585983  0.1229915231356220  0.5005393148654889
  0.8310438783255183  0.7735951589323196  0.5150225958321951
  0.9976933931947322  0.4070021431545421  0.4222407635146895
  0.1642356472853655  0.2408419820476006  0.4271583119527182
  0.1586616068416257  0.8875392841479950  0.5882637097790242
  0.9990109340829403  0.8393779149415199  0.4332743205677068
  0.9974372432705498  0.5480182603111766  0.4275279530439308
  0.9978135085660527  0.4804822328647358  0.6146929214404591
  0.1614953251031901  0.0062452133798674  0.4288969771823189
  0.9984347692277947  0.0539836854224428  0.5792015966803075
  0.1650981918270179  0.5917581732149799  0.5733686801587026
  0.9975913945033602  0.1958303164353335  0.5755278314124170
  0.1634001983104215  0.6960337571854485  0.4064497457528259
  0.9976580388071719  0.1196489510355120  0.3878805901814882
  0.9979949240427203  0.7379994814982959  0.6129512339317000
  0.1648680414554027  0.3585261058420229  0.5773419144248888
  0.3314397706816292  0.4073641659553048  0.4212089307391982
  0.4976023306025775  0.2405858651129670  0.4275942544247113
  0.4971754003446615  0.8877659425953064  0.5780790657438671
  0.3313494902572365  0.8417244765866037  0.4363299584539129
  0.3308742033685254  0.5475643678887337  0.4264823631783211
  0.3311306271542088  0.4799888169628330  0.6145988323784944
  0.4963125723064333  0.0028687129086471  0.4362750521832456
  0.3290428352255544  0.0554223692963583  0.5822669224738382
  0.4974771258782926  0.5920219196933334  0.5734466417965826
  0.3309273627335491  0.1963379068257887  0.5770357698623514
  0.4988919753576848  0.6938153594916437  0.4061748624237226
  0.3330444312100191  0.1220422796489595  0.3890347821473314
  0.3321700762033849  0.7378045254047562  0.6129314587030111
  0.4979092991095751  0.3579300837892017  0.5767641725758825
  0.6639852421524213  0.4075561992342964  0.4214665155715461
  0.8306757813364347  0.2400599975204471  0.4270297393067388
  0.8397913488018304  0.8886864726862738  0.5870187971950704
  0.6655464690747522  0.8408410064952672  0.4352242240303304
  0.6642461434957422  0.5479372306293092  0.4274824583964604
  0.6638289221251241  0.4798215273820134  0.6147226266248822
  0.8322428086960133  0.0037308243309688  0.4320657411051317
  0.6658157357725687  0.0552659316715511  0.5826924273720431
  0.8304555276599571  0.5917180745213698  0.5738851921698539
  0.6650061603983439  0.1961305942581649  0.5766573875661450
  0.8311094132108205  0.6962005731225461  0.4068428149343543
  0.6626191033163870  0.1202869170029144  0.3892298480217392
  0.6639533153168569  0.7397628015934936  0.6134793771849059
  0.8304767089442343  0.3585784129164222  0.5778210584194597
  0.0003588212918541  0.9453933708994483  0.5064597056724286
  0.9972718667758508  0.3009055523888083  0.5010263431268600
  0.9976735425975803  0.6587421859448548  0.5029615943256058
  0.3216018594886024  0.9471329184030444  0.5106798398168025
  0.3303145776581544  0.3008261459322745  0.5003741209173571
  0.3308199325092136  0.6593397885734497  0.5020390466261047
  0.6701585006184244  0.9456004415047853  0.5115347880898129
  0.6653996573973358  0.3008647948848092  0.5005172996520368
  0.6647304982382359  0.6598771688846814  0.5035862500165890
  0.5364781365014861  0.8801538168397122  0.6861255755474716
  0.4657860503554298  0.8326160062980851  0.7193062404749118
  0.4010731527706865  0.8569958697580532  0.7395601508980576
 
  0.00000000E+00  0.00000000E+00  0.00000000E+00
  0.00000000E+00  0.00000000E+00  0.00000000E+00
  0.00000000E+00  0.00000000E+00  0.00000000E+00
  0.00000000E+00  0.00000000E+00  0.00000000E+00
  0.00000000E+00  0.00000000E+00  0.00000000E+00
  0.00000000E+00  0.00000000E+00  0.00000000E+00
  0.00000000E+00  0.00000000E+00  0.00000000E+00
  0.00000000E+00  0.00000000E+00  0.00000000E+00
  0.00000000E+00  0.00000000E+00  0.00000000E+00
  0.00000000E+00  0.00000000E+00  0.00000000E+00
  0.00000000E+00  0.00000000E+00  0.00000000E+00
  0.00000000E+00  0.00000000E+00  0.00000000E+00
  0.00000000E+00  0.00000000E+00  0.00000000E+00
  0.00000000E+00  0.00000000E+00  0.00000000E+00
  0.00000000E+00  0.00000000E+00  0.00000000E+00
  0.00000000E+00  0.00000000E+00  0.00000000E+00
  0.00000000E+00  0.00000000E+00  0.00000000E+00
  0.00000000E+00  0.00000000E+00  0.00000000E+00
  0.00000000E+00  0.00000000E+00  0.00000000E+00
  0.00000000E+00  0.00000000E+00  0.00000000E+00
  0.00000000E+00  0.00000000E+00  0.00000000E+00
  0.00000000E+00  0.00000000E+00  0.00000000E+00
  0.00000000E+00  0.00000000E+00  0.00000000E+00
  0.00000000E+00  0.00000000E+00  0.00000000E+00
  0.00000000E+00  0.00000000E+00  0.00000000E+00
  0.00000000E+00  0.00000000E+00  0.00000000E+00
  0.00000000E+00  0.00000000E+00  0.00000000E+00
  0.00000000E+00  0.00000000E+00  0.00000000E+00
  0.00000000E+00  0.00000000E+00  0.00000000E+00
  0.00000000E+00  0.00000000E+00  0.00000000E+00
  0.00000000E+00  0.00000000E+00  0.00000000E+00
  0.00000000E+00  0.00000000E+00  0.00000000E+00
  0.00000000E+00  0.00000000E+00  0.00000000E+00
  0.00000000E+00  0.00000000E+00  0.00000000E+00
  0.00000000E+00  0.00000000E+00  0.00000000E+00
  0.00000000E+00  0.00000000E+00  0.00000000E+00
  0.00000000E+00  0.00000000E+00  0.00000000E+00
  0.00000000E+00  0.00000000E+00  0.00000000E+00
  0.00000000E+00  0.00000000E+00  0.00000000E+00
  0.00000000E+00  0.00000000E+00  0.00000000E+00
  0.00000000E+00  0.00000000E+00  0.00000000E+00
  0.00000000E+00  0.00000000E+00  0.00000000E+00
  0.00000000E+00  0.00000000E+00  0.00000000E+00
  0.00000000E+00  0.00000000E+00  0.00000000E+00
  0.00000000E+00  0.00000000E+00  0.00000000E+00
  0.00000000E+00  0.00000000E+00  0.00000000E+00
  0.00000000E+00  0.00000000E+00  0.00000000E+00
  0.00000000E+00  0.00000000E+00  0.00000000E+00
  0.00000000E+00  0.00000000E+00  0.00000000E+00
  0.00000000E+00  0.00000000E+00  0.00000000E+00
  0.00000000E+00  0.00000000E+00  0.00000000E+00
  0.00000000E+00  0.00000000E+00  0.00000000E+00
  0.00000000E+00  0.00000000E+00  0.00000000E+00
  0.00000000E+00  0.00000000E+00  0.00000000E+00
  0.00000000E+00  0.00000000E+00  0.00000000E+00
  0.00000000E+00  0.00000000E+00  0.00000000E+00
  0.00000000E+00  0.00000000E+00  0.00000000E+00
  0.00000000E+00  0.00000000E+00  0.00000000E+00
  0.00000000E+00  0.00000000E+00  0.00000000E+00
  0.00000000E+00  0.00000000E+00  0.00000000E+00
  0.00000000E+00  0.00000000E+00  0.00000000E+00
  0.00000000E+00  0.00000000E+00  0.00000000E+00
  0.00000000E+00  0.00000000E+00  0.00000000E+00
