 Li1 Ni1 P2 S6                          
   1.00000000000000     
     5.8194224926794256    0.0000000000000000    0.0000000000000000
     2.9097112463397128    5.0679015599382158    0.0000000000000000
     0.0000000000000000    0.0000000000000000   18.1698677257400050
   Li   Ni   P    S 
     1     1     2     6
Direct
  0.6664496528204609  0.6671011657222152  0.4999999176874965
  0.3346630411104670  0.3306740962333947  0.5000000644159215
  0.9986941549957393  0.9989111208722932  0.5599984638262967
  0.0023944842328021  0.9989109587495122  0.4400015218192692
  0.0274114350256198  0.6472249698562607  0.5872175213803317
  0.6428139006518947  0.3246935582047286  0.5854226413046462
  0.0324928429727436  0.3246931950615632  0.4145772234313512
  0.3253633382998160  0.6472248812405255  0.4127823973370042
  0.6477712935839222  0.0302832683654657  0.4125191131807497
  0.3219448563065299  0.0302837856940315  0.5874811356169332
 
  0.00000000E+00  0.00000000E+00  0.00000000E+00
  0.00000000E+00  0.00000000E+00  0.00000000E+00
  0.00000000E+00  0.00000000E+00  0.00000000E+00
  0.00000000E+00  0.00000000E+00  0.00000000E+00
  0.00000000E+00  0.00000000E+00  0.00000000E+00
  0.00000000E+00  0.00000000E+00  0.00000000E+00
  0.00000000E+00  0.00000000E+00  0.00000000E+00
  0.00000000E+00  0.00000000E+00  0.00000000E+00
  0.00000000E+00  0.00000000E+00  0.00000000E+00
  0.00000000E+00  0.00000000E+00  0.00000000E+00
