G   42   41    1    0.005     # Parameters to Generate KPOINTS (Don't Edit This Line)
     862
Reciprocal lattice
    0.000000000000    0.000000000000    0.000000000000       1
    0.023809523810    0.000000000000    0.000000000000       2
    0.047619047619    0.000000000000    0.000000000000       2
    0.071428571429    0.000000000000    0.000000000000       2
    0.095238095238    0.000000000000    0.000000000000       2
    0.119047619048    0.000000000000    0.000000000000       2
    0.142857142857    0.000000000000    0.000000000000       2
    0.166666666667    0.000000000000    0.000000000000       2
    0.190476190476    0.000000000000    0.000000000000       2
    0.214285714286    0.000000000000    0.000000000000       2
    0.238095238095    0.000000000000    0.000000000000       2
    0.261904761905    0.000000000000    0.000000000000       2
    0.285714285714    0.000000000000    0.000000000000       2
    0.309523809524    0.000000000000    0.000000000000       2
    0.333333333333    0.000000000000    0.000000000000       2
    0.357142857143    0.000000000000    0.000000000000       2
    0.380952380952    0.000000000000    0.000000000000       2
    0.404761904762    0.000000000000    0.000000000000       2
    0.428571428571    0.000000000000    0.000000000000       2
    0.452380952381    0.000000000000    0.000000000000       2
    0.476190476190    0.000000000000    0.000000000000       2
    0.500000000000    0.000000000000    0.000000000000       1
    0.000000000000    0.024390243902    0.000000000000       2
    0.023809523810    0.024390243902    0.000000000000       2
    0.047619047619    0.024390243902    0.000000000000       2
    0.071428571429    0.024390243902    0.000000000000       2
    0.095238095238    0.024390243902    0.000000000000       2
    0.119047619048    0.024390243902    0.000000000000       2
    0.142857142857    0.024390243902    0.000000000000       2
    0.166666666667    0.024390243902    0.000000000000       2
    0.190476190476    0.024390243902    0.000000000000       2
    0.214285714286    0.024390243902    0.000000000000       2
    0.238095238095    0.024390243902    0.000000000000       2
    0.261904761905    0.024390243902    0.000000000000       2
    0.285714285714    0.024390243902    0.000000000000       2
    0.309523809524    0.024390243902    0.000000000000       2
    0.333333333333    0.024390243902    0.000000000000       2
    0.357142857143    0.024390243902    0.000000000000       2
    0.380952380952    0.024390243902    0.000000000000       2
    0.404761904762    0.024390243902    0.000000000000       2
    0.428571428571    0.024390243902    0.000000000000       2
    0.452380952381    0.024390243902    0.000000000000       2
    0.476190476190    0.024390243902    0.000000000000       2
    0.500000000000    0.024390243902    0.000000000000       2
   -0.476190476190    0.024390243902    0.000000000000       2
   -0.452380952381    0.024390243902    0.000000000000       2
   -0.428571428571    0.024390243902    0.000000000000       2
   -0.404761904762    0.024390243902    0.000000000000       2
   -0.380952380952    0.024390243902    0.000000000000       2
   -0.357142857143    0.024390243902    0.000000000000       2
   -0.333333333333    0.024390243902    0.000000000000       2
   -0.309523809524    0.024390243902    0.000000000000       2
   -0.285714285714    0.024390243902    0.000000000000       2
   -0.261904761905    0.024390243902    0.000000000000       2
   -0.238095238095    0.024390243902    0.000000000000       2
   -0.214285714286    0.024390243902    0.000000000000       2
   -0.190476190476    0.024390243902    0.000000000000       2
   -0.166666666667    0.024390243902    0.000000000000       2
   -0.142857142857    0.024390243902    0.000000000000       2
   -0.119047619048    0.024390243902    0.000000000000       2
   -0.095238095238    0.024390243902    0.000000000000       2
   -0.071428571429    0.024390243902    0.000000000000       2
   -0.047619047619    0.024390243902    0.000000000000       2
   -0.023809523810    0.024390243902    0.000000000000       2
    0.000000000000    0.048780487805    0.000000000000       2
    0.023809523810    0.048780487805    0.000000000000       2
    0.047619047619    0.048780487805    0.000000000000       2
    0.071428571429    0.048780487805    0.000000000000       2
    0.095238095238    0.048780487805    0.000000000000       2
    0.119047619048    0.048780487805    0.000000000000       2
    0.142857142857    0.048780487805    0.000000000000       2
    0.166666666667    0.048780487805    0.000000000000       2
    0.190476190476    0.048780487805    0.000000000000       2
    0.214285714286    0.048780487805    0.000000000000       2
    0.238095238095    0.048780487805    0.000000000000       2
    0.261904761905    0.048780487805    0.000000000000       2
    0.285714285714    0.048780487805    0.000000000000       2
    0.309523809524    0.048780487805    0.000000000000       2
    0.333333333333    0.048780487805    0.000000000000       2
    0.357142857143    0.048780487805    0.000000000000       2
    0.380952380952    0.048780487805    0.000000000000       2
    0.404761904762    0.048780487805    0.000000000000       2
    0.428571428571    0.048780487805    0.000000000000       2
    0.452380952381    0.048780487805    0.000000000000       2
    0.476190476190    0.048780487805    0.000000000000       2
    0.500000000000    0.048780487805    0.000000000000       2
   -0.476190476190    0.048780487805    0.000000000000       2
   -0.452380952381    0.048780487805    0.000000000000       2
   -0.428571428571    0.048780487805    0.000000000000       2
   -0.404761904762    0.048780487805    0.000000000000       2
   -0.380952380952    0.048780487805    0.000000000000       2
   -0.357142857143    0.048780487805    0.000000000000       2
   -0.333333333333    0.048780487805    0.000000000000       2
   -0.309523809524    0.048780487805    0.000000000000       2
   -0.285714285714    0.048780487805    0.000000000000       2
   -0.261904761905    0.048780487805    0.000000000000       2
   -0.238095238095    0.048780487805    0.000000000000       2
   -0.214285714286    0.048780487805    0.000000000000       2
   -0.190476190476    0.048780487805    0.000000000000       2
   -0.166666666667    0.048780487805    0.000000000000       2
   -0.142857142857    0.048780487805    0.000000000000       2
   -0.119047619048    0.048780487805    0.000000000000       2
   -0.095238095238    0.048780487805    0.000000000000       2
   -0.071428571429    0.048780487805    0.000000000000       2
   -0.047619047619    0.048780487805    0.000000000000       2
   -0.023809523810    0.048780487805    0.000000000000       2
    0.000000000000    0.073170731707    0.000000000000       2
    0.023809523810    0.073170731707    0.000000000000       2
    0.047619047619    0.073170731707    0.000000000000       2
    0.071428571429    0.073170731707    0.000000000000       2
    0.095238095238    0.073170731707    0.000000000000       2
    0.119047619048    0.073170731707    0.000000000000       2
    0.142857142857    0.073170731707    0.000000000000       2
    0.166666666667    0.073170731707    0.000000000000       2
    0.190476190476    0.073170731707    0.000000000000       2
    0.214285714286    0.073170731707    0.000000000000       2
    0.238095238095    0.073170731707    0.000000000000       2
    0.261904761905    0.073170731707    0.000000000000       2
    0.285714285714    0.073170731707    0.000000000000       2
    0.309523809524    0.073170731707    0.000000000000       2
    0.333333333333    0.073170731707    0.000000000000       2
    0.357142857143    0.073170731707    0.000000000000       2
    0.380952380952    0.073170731707    0.000000000000       2
    0.404761904762    0.073170731707    0.000000000000       2
    0.428571428571    0.073170731707    0.000000000000       2
    0.452380952381    0.073170731707    0.000000000000       2
    0.476190476190    0.073170731707    0.000000000000       2
    0.500000000000    0.073170731707    0.000000000000       2
   -0.476190476190    0.073170731707    0.000000000000       2
   -0.452380952381    0.073170731707    0.000000000000       2
   -0.428571428571    0.073170731707    0.000000000000       2
   -0.404761904762    0.073170731707    0.000000000000       2
   -0.380952380952    0.073170731707    0.000000000000       2
   -0.357142857143    0.073170731707    0.000000000000       2
   -0.333333333333    0.073170731707    0.000000000000       2
   -0.309523809524    0.073170731707    0.000000000000       2
   -0.285714285714    0.073170731707    0.000000000000       2
   -0.261904761905    0.073170731707    0.000000000000       2
   -0.238095238095    0.073170731707    0.000000000000       2
   -0.214285714286    0.073170731707    0.000000000000       2
   -0.190476190476    0.073170731707    0.000000000000       2
   -0.166666666667    0.073170731707    0.000000000000       2
   -0.142857142857    0.073170731707    0.000000000000       2
   -0.119047619048    0.073170731707    0.000000000000       2
   -0.095238095238    0.073170731707    0.000000000000       2
   -0.071428571429    0.073170731707    0.000000000000       2
   -0.047619047619    0.073170731707    0.000000000000       2
   -0.023809523810    0.073170731707    0.000000000000       2
    0.000000000000    0.097560975610    0.000000000000       2
    0.023809523810    0.097560975610    0.000000000000       2
    0.047619047619    0.097560975610    0.000000000000       2
    0.071428571429    0.097560975610    0.000000000000       2
    0.095238095238    0.097560975610    0.000000000000       2
    0.119047619048    0.097560975610    0.000000000000       2
    0.142857142857    0.097560975610    0.000000000000       2
    0.166666666667    0.097560975610    0.000000000000       2
    0.190476190476    0.097560975610    0.000000000000       2
    0.214285714286    0.097560975610    0.000000000000       2
    0.238095238095    0.097560975610    0.000000000000       2
    0.261904761905    0.097560975610    0.000000000000       2
    0.285714285714    0.097560975610    0.000000000000       2
    0.309523809524    0.097560975610    0.000000000000       2
    0.333333333333    0.097560975610    0.000000000000       2
    0.357142857143    0.097560975610    0.000000000000       2
    0.380952380952    0.097560975610    0.000000000000       2
    0.404761904762    0.097560975610    0.000000000000       2
    0.428571428571    0.097560975610    0.000000000000       2
    0.452380952381    0.097560975610    0.000000000000       2
    0.476190476190    0.097560975610    0.000000000000       2
    0.500000000000    0.097560975610    0.000000000000       2
   -0.476190476190    0.097560975610    0.000000000000       2
   -0.452380952381    0.097560975610    0.000000000000       2
   -0.428571428571    0.097560975610    0.000000000000       2
   -0.404761904762    0.097560975610    0.000000000000       2
   -0.380952380952    0.097560975610    0.000000000000       2
   -0.357142857143    0.097560975610    0.000000000000       2
   -0.333333333333    0.097560975610    0.000000000000       2
   -0.309523809524    0.097560975610    0.000000000000       2
   -0.285714285714    0.097560975610    0.000000000000       2
   -0.261904761905    0.097560975610    0.000000000000       2
   -0.238095238095    0.097560975610    0.000000000000       2
   -0.214285714286    0.097560975610    0.000000000000       2
   -0.190476190476    0.097560975610    0.000000000000       2
   -0.166666666667    0.097560975610    0.000000000000       2
   -0.142857142857    0.097560975610    0.000000000000       2
   -0.119047619048    0.097560975610    0.000000000000       2
   -0.095238095238    0.097560975610    0.000000000000       2
   -0.071428571429    0.097560975610    0.000000000000       2
   -0.047619047619    0.097560975610    0.000000000000       2
   -0.023809523810    0.097560975610    0.000000000000       2
    0.000000000000    0.121951219512    0.000000000000       2
    0.023809523810    0.121951219512    0.000000000000       2
    0.047619047619    0.121951219512    0.000000000000       2
    0.071428571429    0.121951219512    0.000000000000       2
    0.095238095238    0.121951219512    0.000000000000       2
    0.119047619048    0.121951219512    0.000000000000       2
    0.142857142857    0.121951219512    0.000000000000       2
    0.166666666667    0.121951219512    0.000000000000       2
    0.190476190476    0.121951219512    0.000000000000       2
    0.214285714286    0.121951219512    0.000000000000       2
    0.238095238095    0.121951219512    0.000000000000       2
    0.261904761905    0.121951219512    0.000000000000       2
    0.285714285714    0.121951219512    0.000000000000       2
    0.309523809524    0.121951219512    0.000000000000       2
    0.333333333333    0.121951219512    0.000000000000       2
    0.357142857143    0.121951219512    0.000000000000       2
    0.380952380952    0.121951219512    0.000000000000       2
    0.404761904762    0.121951219512    0.000000000000       2
    0.428571428571    0.121951219512    0.000000000000       2
    0.452380952381    0.121951219512    0.000000000000       2
    0.476190476190    0.121951219512    0.000000000000       2
    0.500000000000    0.121951219512    0.000000000000       2
   -0.476190476190    0.121951219512    0.000000000000       2
   -0.452380952381    0.121951219512    0.000000000000       2
   -0.428571428571    0.121951219512    0.000000000000       2
   -0.404761904762    0.121951219512    0.000000000000       2
   -0.380952380952    0.121951219512    0.000000000000       2
   -0.357142857143    0.121951219512    0.000000000000       2
   -0.333333333333    0.121951219512    0.000000000000       2
   -0.309523809524    0.121951219512    0.000000000000       2
   -0.285714285714    0.121951219512    0.000000000000       2
   -0.261904761905    0.121951219512    0.000000000000       2
   -0.238095238095    0.121951219512    0.000000000000       2
   -0.214285714286    0.121951219512    0.000000000000       2
   -0.190476190476    0.121951219512    0.000000000000       2
   -0.166666666667    0.121951219512    0.000000000000       2
   -0.142857142857    0.121951219512    0.000000000000       2
   -0.119047619048    0.121951219512    0.000000000000       2
   -0.095238095238    0.121951219512    0.000000000000       2
   -0.071428571429    0.121951219512    0.000000000000       2
   -0.047619047619    0.121951219512    0.000000000000       2
   -0.023809523810    0.121951219512    0.000000000000       2
    0.000000000000    0.146341463415    0.000000000000       2
    0.023809523810    0.146341463415    0.000000000000       2
    0.047619047619    0.146341463415    0.000000000000       2
    0.071428571429    0.146341463415    0.000000000000       2
    0.095238095238    0.146341463415    0.000000000000       2
    0.119047619048    0.146341463415    0.000000000000       2
    0.142857142857    0.146341463415    0.000000000000       2
    0.166666666667    0.146341463415    0.000000000000       2
    0.190476190476    0.146341463415    0.000000000000       2
    0.214285714286    0.146341463415    0.000000000000       2
    0.238095238095    0.146341463415    0.000000000000       2
    0.261904761905    0.146341463415    0.000000000000       2
    0.285714285714    0.146341463415    0.000000000000       2
    0.309523809524    0.146341463415    0.000000000000       2
    0.333333333333    0.146341463415    0.000000000000       2
    0.357142857143    0.146341463415    0.000000000000       2
    0.380952380952    0.146341463415    0.000000000000       2
    0.404761904762    0.146341463415    0.000000000000       2
    0.428571428571    0.146341463415    0.000000000000       2
    0.452380952381    0.146341463415    0.000000000000       2
    0.476190476190    0.146341463415    0.000000000000       2
    0.500000000000    0.146341463415    0.000000000000       2
   -0.476190476190    0.146341463415    0.000000000000       2
   -0.452380952381    0.146341463415    0.000000000000       2
   -0.428571428571    0.146341463415    0.000000000000       2
   -0.404761904762    0.146341463415    0.000000000000       2
   -0.380952380952    0.146341463415    0.000000000000       2
   -0.357142857143    0.146341463415    0.000000000000       2
   -0.333333333333    0.146341463415    0.000000000000       2
   -0.309523809524    0.146341463415    0.000000000000       2
   -0.285714285714    0.146341463415    0.000000000000       2
   -0.261904761905    0.146341463415    0.000000000000       2
   -0.238095238095    0.146341463415    0.000000000000       2
   -0.214285714286    0.146341463415    0.000000000000       2
   -0.190476190476    0.146341463415    0.000000000000       2
   -0.166666666667    0.146341463415    0.000000000000       2
   -0.142857142857    0.146341463415    0.000000000000       2
   -0.119047619048    0.146341463415    0.000000000000       2
   -0.095238095238    0.146341463415    0.000000000000       2
   -0.071428571429    0.146341463415    0.000000000000       2
   -0.047619047619    0.146341463415    0.000000000000       2
   -0.023809523810    0.146341463415    0.000000000000       2
    0.000000000000    0.170731707317    0.000000000000       2
    0.023809523810    0.170731707317    0.000000000000       2
    0.047619047619    0.170731707317    0.000000000000       2
    0.071428571429    0.170731707317    0.000000000000       2
    0.095238095238    0.170731707317    0.000000000000       2
    0.119047619048    0.170731707317    0.000000000000       2
    0.142857142857    0.170731707317    0.000000000000       2
    0.166666666667    0.170731707317    0.000000000000       2
    0.190476190476    0.170731707317    0.000000000000       2
    0.214285714286    0.170731707317    0.000000000000       2
    0.238095238095    0.170731707317    0.000000000000       2
    0.261904761905    0.170731707317    0.000000000000       2
    0.285714285714    0.170731707317    0.000000000000       2
    0.309523809524    0.170731707317    0.000000000000       2
    0.333333333333    0.170731707317    0.000000000000       2
    0.357142857143    0.170731707317    0.000000000000       2
    0.380952380952    0.170731707317    0.000000000000       2
    0.404761904762    0.170731707317    0.000000000000       2
    0.428571428571    0.170731707317    0.000000000000       2
    0.452380952381    0.170731707317    0.000000000000       2
    0.476190476190    0.170731707317    0.000000000000       2
    0.500000000000    0.170731707317    0.000000000000       2
   -0.476190476190    0.170731707317    0.000000000000       2
   -0.452380952381    0.170731707317    0.000000000000       2
   -0.428571428571    0.170731707317    0.000000000000       2
   -0.404761904762    0.170731707317    0.000000000000       2
   -0.380952380952    0.170731707317    0.000000000000       2
   -0.357142857143    0.170731707317    0.000000000000       2
   -0.333333333333    0.170731707317    0.000000000000       2
   -0.309523809524    0.170731707317    0.000000000000       2
   -0.285714285714    0.170731707317    0.000000000000       2
   -0.261904761905    0.170731707317    0.000000000000       2
   -0.238095238095    0.170731707317    0.000000000000       2
   -0.214285714286    0.170731707317    0.000000000000       2
   -0.190476190476    0.170731707317    0.000000000000       2
   -0.166666666667    0.170731707317    0.000000000000       2
   -0.142857142857    0.170731707317    0.000000000000       2
   -0.119047619048    0.170731707317    0.000000000000       2
   -0.095238095238    0.170731707317    0.000000000000       2
   -0.071428571429    0.170731707317    0.000000000000       2
   -0.047619047619    0.170731707317    0.000000000000       2
   -0.023809523810    0.170731707317    0.000000000000       2
    0.000000000000    0.195121951220    0.000000000000       2
    0.023809523810    0.195121951220    0.000000000000       2
    0.047619047619    0.195121951220    0.000000000000       2
    0.071428571429    0.195121951220    0.000000000000       2
    0.095238095238    0.195121951220    0.000000000000       2
    0.119047619048    0.195121951220    0.000000000000       2
    0.142857142857    0.195121951220    0.000000000000       2
    0.166666666667    0.195121951220    0.000000000000       2
    0.190476190476    0.195121951220    0.000000000000       2
    0.214285714286    0.195121951220    0.000000000000       2
    0.238095238095    0.195121951220    0.000000000000       2
    0.261904761905    0.195121951220    0.000000000000       2
    0.285714285714    0.195121951220    0.000000000000       2
    0.309523809524    0.195121951220    0.000000000000       2
    0.333333333333    0.195121951220    0.000000000000       2
    0.357142857143    0.195121951220    0.000000000000       2
    0.380952380952    0.195121951220    0.000000000000       2
    0.404761904762    0.195121951220    0.000000000000       2
    0.428571428571    0.195121951220    0.000000000000       2
    0.452380952381    0.195121951220    0.000000000000       2
    0.476190476190    0.195121951220    0.000000000000       2
    0.500000000000    0.195121951220    0.000000000000       2
   -0.476190476190    0.195121951220    0.000000000000       2
   -0.452380952381    0.195121951220    0.000000000000       2
   -0.428571428571    0.195121951220    0.000000000000       2
   -0.404761904762    0.195121951220    0.000000000000       2
   -0.380952380952    0.195121951220    0.000000000000       2
   -0.357142857143    0.195121951220    0.000000000000       2
   -0.333333333333    0.195121951220    0.000000000000       2
   -0.309523809524    0.195121951220    0.000000000000       2
   -0.285714285714    0.195121951220    0.000000000000       2
   -0.261904761905    0.195121951220    0.000000000000       2
   -0.238095238095    0.195121951220    0.000000000000       2
   -0.214285714286    0.195121951220    0.000000000000       2
   -0.190476190476    0.195121951220    0.000000000000       2
   -0.166666666667    0.195121951220    0.000000000000       2
   -0.142857142857    0.195121951220    0.000000000000       2
   -0.119047619048    0.195121951220    0.000000000000       2
   -0.095238095238    0.195121951220    0.000000000000       2
   -0.071428571429    0.195121951220    0.000000000000       2
   -0.047619047619    0.195121951220    0.000000000000       2
   -0.023809523810    0.195121951220    0.000000000000       2
    0.000000000000    0.219512195122    0.000000000000       2
    0.023809523810    0.219512195122    0.000000000000       2
    0.047619047619    0.219512195122    0.000000000000       2
    0.071428571429    0.219512195122    0.000000000000       2
    0.095238095238    0.219512195122    0.000000000000       2
    0.119047619048    0.219512195122    0.000000000000       2
    0.142857142857    0.219512195122    0.000000000000       2
    0.166666666667    0.219512195122    0.000000000000       2
    0.190476190476    0.219512195122    0.000000000000       2
    0.214285714286    0.219512195122    0.000000000000       2
    0.238095238095    0.219512195122    0.000000000000       2
    0.261904761905    0.219512195122    0.000000000000       2
    0.285714285714    0.219512195122    0.000000000000       2
    0.309523809524    0.219512195122    0.000000000000       2
    0.333333333333    0.219512195122    0.000000000000       2
    0.357142857143    0.219512195122    0.000000000000       2
    0.380952380952    0.219512195122    0.000000000000       2
    0.404761904762    0.219512195122    0.000000000000       2
    0.428571428571    0.219512195122    0.000000000000       2
    0.452380952381    0.219512195122    0.000000000000       2
    0.476190476190    0.219512195122    0.000000000000       2
    0.500000000000    0.219512195122    0.000000000000       2
   -0.476190476190    0.219512195122    0.000000000000       2
   -0.452380952381    0.219512195122    0.000000000000       2
   -0.428571428571    0.219512195122    0.000000000000       2
   -0.404761904762    0.219512195122    0.000000000000       2
   -0.380952380952    0.219512195122    0.000000000000       2
   -0.357142857143    0.219512195122    0.000000000000       2
   -0.333333333333    0.219512195122    0.000000000000       2
   -0.309523809524    0.219512195122    0.000000000000       2
   -0.285714285714    0.219512195122    0.000000000000       2
   -0.261904761905    0.219512195122    0.000000000000       2
   -0.238095238095    0.219512195122    0.000000000000       2
   -0.214285714286    0.219512195122    0.000000000000       2
   -0.190476190476    0.219512195122    0.000000000000       2
   -0.166666666667    0.219512195122    0.000000000000       2
   -0.142857142857    0.219512195122    0.000000000000       2
   -0.119047619048    0.219512195122    0.000000000000       2
   -0.095238095238    0.219512195122    0.000000000000       2
   -0.071428571429    0.219512195122    0.000000000000       2
   -0.047619047619    0.219512195122    0.000000000000       2
   -0.023809523810    0.219512195122    0.000000000000       2
    0.000000000000    0.243902439024    0.000000000000       2
    0.023809523810    0.243902439024    0.000000000000       2
    0.047619047619    0.243902439024    0.000000000000       2
    0.071428571429    0.243902439024    0.000000000000       2
    0.095238095238    0.243902439024    0.000000000000       2
    0.119047619048    0.243902439024    0.000000000000       2
    0.142857142857    0.243902439024    0.000000000000       2
    0.166666666667    0.243902439024    0.000000000000       2
    0.190476190476    0.243902439024    0.000000000000       2
    0.214285714286    0.243902439024    0.000000000000       2
    0.238095238095    0.243902439024    0.000000000000       2
    0.261904761905    0.243902439024    0.000000000000       2
    0.285714285714    0.243902439024    0.000000000000       2
    0.309523809524    0.243902439024    0.000000000000       2
    0.333333333333    0.243902439024    0.000000000000       2
    0.357142857143    0.243902439024    0.000000000000       2
    0.380952380952    0.243902439024    0.000000000000       2
    0.404761904762    0.243902439024    0.000000000000       2
    0.428571428571    0.243902439024    0.000000000000       2
    0.452380952381    0.243902439024    0.000000000000       2
    0.476190476190    0.243902439024    0.000000000000       2
    0.500000000000    0.243902439024    0.000000000000       2
   -0.476190476190    0.243902439024    0.000000000000       2
   -0.452380952381    0.243902439024    0.000000000000       2
   -0.428571428571    0.243902439024    0.000000000000       2
   -0.404761904762    0.243902439024    0.000000000000       2
   -0.380952380952    0.243902439024    0.000000000000       2
   -0.357142857143    0.243902439024    0.000000000000       2
   -0.333333333333    0.243902439024    0.000000000000       2
   -0.309523809524    0.243902439024    0.000000000000       2
   -0.285714285714    0.243902439024    0.000000000000       2
   -0.261904761905    0.243902439024    0.000000000000       2
   -0.238095238095    0.243902439024    0.000000000000       2
   -0.214285714286    0.243902439024    0.000000000000       2
   -0.190476190476    0.243902439024    0.000000000000       2
   -0.166666666667    0.243902439024    0.000000000000       2
   -0.142857142857    0.243902439024    0.000000000000       2
   -0.119047619048    0.243902439024    0.000000000000       2
   -0.095238095238    0.243902439024    0.000000000000       2
   -0.071428571429    0.243902439024    0.000000000000       2
   -0.047619047619    0.243902439024    0.000000000000       2
   -0.023809523810    0.243902439024    0.000000000000       2
    0.000000000000    0.268292682927    0.000000000000       2
    0.023809523810    0.268292682927    0.000000000000       2
    0.047619047619    0.268292682927    0.000000000000       2
    0.071428571429    0.268292682927    0.000000000000       2
    0.095238095238    0.268292682927    0.000000000000       2
    0.119047619048    0.268292682927    0.000000000000       2
    0.142857142857    0.268292682927    0.000000000000       2
    0.166666666667    0.268292682927    0.000000000000       2
    0.190476190476    0.268292682927    0.000000000000       2
    0.214285714286    0.268292682927    0.000000000000       2
    0.238095238095    0.268292682927    0.000000000000       2
    0.261904761905    0.268292682927    0.000000000000       2
    0.285714285714    0.268292682927    0.000000000000       2
    0.309523809524    0.268292682927    0.000000000000       2
    0.333333333333    0.268292682927    0.000000000000       2
    0.357142857143    0.268292682927    0.000000000000       2
    0.380952380952    0.268292682927    0.000000000000       2
    0.404761904762    0.268292682927    0.000000000000       2
    0.428571428571    0.268292682927    0.000000000000       2
    0.452380952381    0.268292682927    0.000000000000       2
    0.476190476190    0.268292682927    0.000000000000       2
    0.500000000000    0.268292682927    0.000000000000       2
   -0.476190476190    0.268292682927    0.000000000000       2
   -0.452380952381    0.268292682927    0.000000000000       2
   -0.428571428571    0.268292682927    0.000000000000       2
   -0.404761904762    0.268292682927    0.000000000000       2
   -0.380952380952    0.268292682927    0.000000000000       2
   -0.357142857143    0.268292682927    0.000000000000       2
   -0.333333333333    0.268292682927    0.000000000000       2
   -0.309523809524    0.268292682927    0.000000000000       2
   -0.285714285714    0.268292682927    0.000000000000       2
   -0.261904761905    0.268292682927    0.000000000000       2