CONTCAR\(2)                             
   1.00000000000000     
    10.0141000748000000    0.0000000000000000    0.0000000000000000
    -5.0070500374000000    8.6724650608000005    0.0000000000000000
     0.0000000000000000    0.0000000000000000   20.7465000153000005
   Sc   N    Cl   O 
    18     9    18     1
Direct
  0.2221937147168262  0.1111255320504448  0.4427801261275373
  0.1114415399105331  0.2228946790035137  0.5578140951405682
  0.5554708008103268  0.1110778845636335  0.4427687929169559
  0.4447322704132745  0.2228571215170768  0.5578457669647638
  0.8889169696300774  0.1110638890322838  0.4427463575229662
  0.7777681913425762  0.2222141237800190  0.5575745488942515
  0.2223320793389733  0.4444940805005920  0.4427855338968642
  0.1114736575643748  0.5552245582375515  0.5578029521618315
  0.5554733637771867  0.4445067044205573  0.4428341091115166
  0.4444271240780925  0.5555549713255202  0.5581299894903256
  0.8889072759422626  0.4445156859518163  0.4427660060230970
  0.7771360132748384  0.5552578127722706  0.5578402067647270
  0.2222135088861363  0.7777641044976490  0.4427682832863147
  0.1110981224695170  0.8888825474143481  0.5576842669055226
  0.5554854516001937  0.7776466073589572  0.4427878100375590
  0.4447525654959411  0.8885138459610109  0.5578052386424777
  0.8888622692925836  0.7777885048432517  0.4427743598656605
  0.7771012516967781  0.8885418435078656  0.5578144902599678
 -0.0000289991817944  0.0000245964434647  0.5000101690013540
  0.3333321796235548  0.9999847931201191  0.5000096295660397
  0.6668361317701734  0.0003470314083165  0.4998687735949378
  0.9996373132385622  0.3331508441028371  0.4998695371101339
  0.3331813838063301  0.3330863507066846  0.4999701242312180
  0.6668486383548383  0.3331392558196482  0.4998847589422079
  0.0000049774042927  0.6666446639351139  0.5000080820621376
  0.3331914464986924  0.6667847519863990  0.4999395513054676
  0.6668969821827561  0.6667974300091877  0.4999692581363037
  0.2222396705463682  0.1112045295950955  0.6387015346918488
  0.1112242578820924  0.2223013757364387  0.3613114849271131
  0.5555863497390398  0.1110480478744762  0.6387055376621216
  0.4444449223741435  0.2223605942831540  0.3613410193407346
  0.8888399994533478  0.1111504266548088  0.6387073534714983
  0.7777285538243225  0.2222439047533259  0.3612494595561268
  0.2221180852104251  0.4443694951949739  0.6379782784033213
  0.1111334380105563  0.5555244184938549  0.3613144053469494
  0.5556100927556120  0.4444006574736551  0.6379416892138259
  0.4444754574934452  0.5555111981393640  0.3613246670094613
  0.8889341069780069  0.4443930712890913  0.6387018907505413
  0.7776228483390953  0.5555487580644103  0.3613391337869631
  0.2222746033962748  0.7777064439781759  0.6387078476268165
  0.1110760636450406  0.8889112558341490  0.3613049188763047
  0.5556285445212356  0.7778903935903870  0.6379553032399728
  0.4444680028516586  0.8888553506955230  0.3613153763065520
  0.8887897581557351  0.7777475200112876  0.6386989453012258
  0.7776814975289006  0.8887547082508570  0.3613104832042505
  0.4464883883568260  0.5549546838168496  0.7436782553216338
 
  0.00000000E+00  0.00000000E+00  0.00000000E+00
  0.00000000E+00  0.00000000E+00  0.00000000E+00
  0.00000000E+00  0.00000000E+00  0.00000000E+00
  0.00000000E+00  0.00000000E+00  0.00000000E+00
  0.00000000E+00  0.00000000E+00  0.00000000E+00
  0.00000000E+00  0.00000000E+00  0.00000000E+00
  0.00000000E+00  0.00000000E+00  0.00000000E+00
  0.00000000E+00  0.00000000E+00  0.00000000E+00
  0.00000000E+00  0.00000000E+00  0.00000000E+00
  0.00000000E+00  0.00000000E+00  0.00000000E+00
  0.00000000E+00  0.00000000E+00  0.00000000E+00
  0.00000000E+00  0.00000000E+00  0.00000000E+00
  0.00000000E+00  0.00000000E+00  0.00000000E+00
  0.00000000E+00  0.00000000E+00  0.00000000E+00
  0.00000000E+00  0.00000000E+00  0.00000000E+00
  0.00000000E+00  0.00000000E+00  0.00000000E+00
  0.00000000E+00  0.00000000E+00  0.00000000E+00
  0.00000000E+00  0.00000000E+00  0.00000000E+00
  0.00000000E+00  0.00000000E+00  0.00000000E+00
  0.00000000E+00  0.00000000E+00  0.00000000E+00
  0.00000000E+00  0.00000000E+00  0.00000000E+00
  0.00000000E+00  0.00000000E+00  0.00000000E+00
  0.00000000E+00  0.00000000E+00  0.00000000E+00
  0.00000000E+00  0.00000000E+00  0.00000000E+00
  0.00000000E+00  0.00000000E+00  0.00000000E+00
  0.00000000E+00  0.00000000E+00  0.00000000E+00
  0.00000000E+00  0.00000000E+00  0.00000000E+00
  0.00000000E+00  0.00000000E+00  0.00000000E+00
  0.00000000E+00  0.00000000E+00  0.00000000E+00
  0.00000000E+00  0.00000000E+00  0.00000000E+00
  0.00000000E+00  0.00000000E+00  0.00000000E+00
  0.00000000E+00  0.00000000E+00  0.00000000E+00
  0.00000000E+00  0.00000000E+00  0.00000000E+00
  0.00000000E+00  0.00000000E+00  0.00000000E+00
  0.00000000E+00  0.00000000E+00  0.00000000E+00
  0.00000000E+00  0.00000000E+00  0.00000000E+00
  0.00000000E+00  0.00000000E+00  0.00000000E+00
  0.00000000E+00  0.00000000E+00  0.00000000E+00
  0.00000000E+00  0.00000000E+00  0.00000000E+00
  0.00000000E+00  0.00000000E+00  0.00000000E+00
  0.00000000E+00  0.00000000E+00  0.00000000E+00
  0.00000000E+00  0.00000000E+00  0.00000000E+00
  0.00000000E+00  0.00000000E+00  0.00000000E+00
  0.00000000E+00  0.00000000E+00  0.00000000E+00
  0.00000000E+00  0.00000000E+00  0.00000000E+00
  0.00000000E+00  0.00000000E+00  0.00000000E+00
