SYSTEM =Ru_double_gra
PREC=Normal
ENCUT = 400
ISTART = 0
ICHARG = 2
EDIFF = 1E-05
LREAL = Auto
EDIFFG = -2E-02
NSW =1
IBRION =5
NFREE = 2
ISIF = 2
ISMEAR = 0
MAGMOM = 18*3 54*-0.5 2*1
SIGMA =0.2
GGA = PE
ALGO=Normal
ISPIN = 2
#NCORE=4
NELM=150
LWAVE=.FALSE.
LCHARG=.FALSE.
#NPAR=4
IVDW=11
AMIX=0.2
BMIX=0.0001
LMAXMIX=6
