 Hf2 Se6                                
   1.00000000000000     
     3.7207545646385363    0.0000000000000000    0.0000000000000000
     0.0000000000000000    5.3714814390842598    0.0000000000000000
     0.0000000000000000    0.0000000000000000   21.1924109907199956
   Hf   Se
     2     6
Direct
  0.2499999991575024  0.6530575040524340  0.5702541944476138
  0.7500000007564012  0.1530623772088902  0.4297521366701531
  0.2499999931134482  0.9301082925845776  0.3537611341455786
  0.7500000053298024  0.8759719868557028  0.6462362785180602
  0.7500000006685426  0.6530753656716044  0.4764406507442871
  0.2499999994264854  0.1530042711694293  0.5235566205960325
  0.7499999932196530  0.4299128152642808  0.6461730030262132
  0.2500000083281719  0.3761533871930780  0.3538259818520615
 
  0.00000000E+00  0.00000000E+00  0.00000000E+00
  0.00000000E+00  0.00000000E+00  0.00000000E+00
  0.00000000E+00  0.00000000E+00  0.00000000E+00
  0.00000000E+00  0.00000000E+00  0.00000000E+00
  0.00000000E+00  0.00000000E+00  0.00000000E+00
  0.00000000E+00  0.00000000E+00  0.00000000E+00
  0.00000000E+00  0.00000000E+00  0.00000000E+00
  0.00000000E+00  0.00000000E+00  0.00000000E+00
