G   54   37    1    0.005     # Parameters to Generate KPOINTS (Don't Edit This Line)
     532
Reciprocal lattice
    0.000000000000    0.000000000000    0.000000000000       1
    0.018518518519    0.000000000000    0.000000000000       2
    0.037037037037    0.000000000000    0.000000000000       2
    0.055555555556    0.000000000000    0.000000000000       2
    0.074074074074    0.000000000000    0.000000000000       2
    0.092592592593    0.000000000000    0.000000000000       2
    0.111111111111    0.000000000000    0.000000000000       2
    0.129629629630    0.000000000000    0.000000000000       2
    0.148148148148    0.000000000000    0.000000000000       2
    0.166666666667    0.000000000000    0.000000000000       2
    0.185185185185    0.000000000000    0.000000000000       2
    0.203703703704    0.000000000000    0.000000000000       2
    0.222222222222    0.000000000000    0.000000000000       2
    0.240740740741    0.000000000000    0.000000000000       2
    0.259259259259    0.000000000000    0.000000000000       2
    0.277777777778    0.000000000000    0.000000000000       2
    0.296296296296    0.000000000000    0.000000000000       2
    0.314814814815    0.000000000000    0.000000000000       2
    0.333333333333    0.000000000000    0.000000000000       2
    0.351851851852    0.000000000000    0.000000000000       2
    0.370370370370    0.000000000000    0.000000000000       2
    0.388888888889    0.000000000000    0.000000000000       2
    0.407407407407    0.000000000000    0.000000000000       2
    0.425925925926    0.000000000000    0.000000000000       2
    0.444444444444    0.000000000000    0.000000000000       2
    0.462962962963    0.000000000000    0.000000000000       2
    0.481481481481    0.000000000000    0.000000000000       2
    0.500000000000    0.000000000000    0.000000000000       1
    0.000000000000    0.027027027027    0.000000000000       2
    0.018518518519    0.027027027027    0.000000000000       4
    0.037037037037    0.027027027027    0.000000000000       4
    0.055555555556    0.027027027027    0.000000000000       4
    0.074074074074    0.027027027027    0.000000000000       4
    0.092592592593    0.027027027027    0.000000000000       4
    0.111111111111    0.027027027027    0.000000000000       4
    0.129629629630    0.027027027027    0.000000000000       4
    0.148148148148    0.027027027027    0.000000000000       4
    0.166666666667    0.027027027027    0.000000000000       4
    0.185185185185    0.027027027027    0.000000000000       4
    0.203703703704    0.027027027027    0.000000000000       4
    0.222222222222    0.027027027027    0.000000000000       4
    0.240740740741    0.027027027027    0.000000000000       4
    0.259259259259    0.027027027027    0.000000000000       4
    0.277777777778    0.027027027027    0.000000000000       4
    0.296296296296    0.027027027027    0.000000000000       4
    0.314814814815    0.027027027027    0.000000000000       4
    0.333333333333    0.027027027027    0.000000000000       4
    0.351851851852    0.027027027027    0.000000000000       4
    0.370370370370    0.027027027027    0.000000000000       4
    0.388888888889    0.027027027027    0.000000000000       4
    0.407407407407    0.027027027027    0.000000000000       4
    0.425925925926    0.027027027027    0.000000000000       4
    0.444444444444    0.027027027027    0.000000000000       4
    0.462962962963    0.027027027027    0.000000000000       4
    0.481481481481    0.027027027027    0.000000000000       4
    0.500000000000    0.027027027027    0.000000000000       2
    0.000000000000    0.054054054054    0.000000000000       2
    0.018518518519    0.054054054054    0.000000000000       4
    0.037037037037    0.054054054054    0.000000000000       4
    0.055555555556    0.054054054054    0.000000000000       4
    0.074074074074    0.054054054054    0.000000000000       4
    0.092592592593    0.054054054054    0.000000000000       4
    0.111111111111    0.054054054054    0.000000000000       4
    0.129629629630    0.054054054054    0.000000000000       4
    0.148148148148    0.054054054054    0.000000000000       4
    0.166666666667    0.054054054054    0.000000000000       4
    0.185185185185    0.054054054054    0.000000000000       4
    0.203703703704    0.054054054054    0.000000000000       4
    0.222222222222    0.054054054054    0.000000000000       4
    0.240740740741    0.054054054054    0.000000000000       4
    0.259259259259    0.054054054054    0.000000000000       4
    0.277777777778    0.054054054054    0.000000000000       4
    0.296296296296    0.054054054054    0.000000000000       4
    0.314814814815    0.054054054054    0.000000000000       4
    0.333333333333    0.054054054054    0.000000000000       4
    0.351851851852    0.054054054054    0.000000000000       4
    0.370370370370    0.054054054054    0.000000000000       4
    0.388888888889    0.054054054054    0.000000000000       4
    0.407407407407    0.054054054054    0.000000000000       4
    0.425925925926    0.054054054054    0.000000000000       4
    0.444444444444    0.054054054054    0.000000000000       4
    0.462962962963    0.054054054054    0.000000000000       4
    0.481481481481    0.054054054054    0.000000000000       4
    0.500000000000    0.054054054054    0.000000000000       2
    0.000000000000    0.081081081081    0.000000000000       2
    0.018518518519    0.081081081081    0.000000000000       4
    0.037037037037    0.081081081081    0.000000000000       4
    0.055555555556    0.081081081081    0.000000000000       4
    0.074074074074    0.081081081081    0.000000000000       4
    0.092592592593    0.081081081081    0.000000000000       4
    0.111111111111    0.081081081081    0.000000000000       4
    0.129629629630    0.081081081081    0.000000000000       4
    0.148148148148    0.081081081081    0.000000000000       4
    0.166666666667    0.081081081081    0.000000000000       4
    0.185185185185    0.081081081081    0.000000000000       4
    0.203703703704    0.081081081081    0.000000000000       4
    0.222222222222    0.081081081081    0.000000000000       4
    0.240740740741    0.081081081081    0.000000000000       4
    0.259259259259    0.081081081081    0.000000000000       4
    0.277777777778    0.081081081081    0.000000000000       4
    0.296296296296    0.081081081081    0.000000000000       4
    0.314814814815    0.081081081081    0.000000000000       4
    0.333333333333    0.081081081081    0.000000000000       4
    0.351851851852    0.081081081081    0.000000000000       4
    0.370370370370    0.081081081081    0.000000000000       4
    0.388888888889    0.081081081081    0.000000000000       4
    0.407407407407    0.081081081081    0.000000000000       4
    0.425925925926    0.081081081081    0.000000000000       4
    0.444444444444    0.081081081081    0.000000000000       4
    0.462962962963    0.081081081081    0.000000000000       4
    0.481481481481    0.081081081081    0.000000000000       4
    0.500000000000    0.081081081081    0.000000000000       2
    0.000000000000    0.108108108108    0.000000000000       2
    0.018518518519    0.108108108108    0.000000000000       4
    0.037037037037    0.108108108108    0.000000000000       4
    0.055555555556    0.108108108108    0.000000000000       4
    0.074074074074    0.108108108108    0.000000000000       4
    0.092592592593    0.108108108108    0.000000000000       4
    0.111111111111    0.108108108108    0.000000000000       4
    0.129629629630    0.108108108108    0.000000000000       4
    0.148148148148    0.108108108108    0.000000000000       4
    0.166666666667    0.108108108108    0.000000000000       4
    0.185185185185    0.108108108108    0.000000000000       4
    0.203703703704    0.108108108108    0.000000000000       4
    0.222222222222    0.108108108108    0.000000000000       4
    0.240740740741    0.108108108108    0.000000000000       4
    0.259259259259    0.108108108108    0.000000000000       4
    0.277777777778    0.108108108108    0.000000000000       4
    0.296296296296    0.108108108108    0.000000000000       4
    0.314814814815    0.108108108108    0.000000000000       4
    0.333333333333    0.108108108108    0.000000000000       4
    0.351851851852    0.108108108108    0.000000000000       4
    0.370370370370    0.108108108108    0.000000000000       4
    0.388888888889    0.108108108108    0.000000000000       4
    0.407407407407    0.108108108108    0.000000000000       4
    0.425925925926    0.108108108108    0.000000000000       4
    0.444444444444    0.108108108108    0.000000000000       4
    0.462962962963    0.108108108108    0.000000000000       4
    0.481481481481    0.108108108108    0.000000000000       4
    0.500000000000    0.108108108108    0.000000000000       2
    0.000000000000    0.135135135135    0.000000000000       2
    0.018518518519    0.135135135135    0.000000000000       4
    0.037037037037    0.135135135135    0.000000000000       4
    0.055555555556    0.135135135135    0.000000000000       4
    0.074074074074    0.135135135135    0.000000000000       4
    0.092592592593    0.135135135135    0.000000000000       4
    0.111111111111    0.135135135135    0.000000000000       4
    0.129629629630    0.135135135135    0.000000000000       4
    0.148148148148    0.135135135135    0.000000000000       4
    0.166666666667    0.135135135135    0.000000000000       4
    0.185185185185    0.135135135135    0.000000000000       4
    0.203703703704    0.135135135135    0.000000000000       4
    0.222222222222    0.135135135135    0.000000000000       4
    0.240740740741    0.135135135135    0.000000000000       4
    0.259259259259    0.135135135135    0.000000000000       4
    0.277777777778    0.135135135135    0.000000000000       4
    0.296296296296    0.135135135135    0.000000000000       4
    0.314814814815    0.135135135135    0.000000000000       4
    0.333333333333    0.135135135135    0.000000000000       4
    0.351851851852    0.135135135135    0.000000000000       4
    0.370370370370    0.135135135135    0.000000000000       4
    0.388888888889    0.135135135135    0.000000000000       4
    0.407407407407    0.135135135135    0.000000000000       4
    0.425925925926    0.135135135135    0.000000000000       4
    0.444444444444    0.135135135135    0.000000000000       4
    0.462962962963    0.135135135135    0.000000000000       4
    0.481481481481    0.135135135135    0.000000000000       4
    0.500000000000    0.135135135135    0.000000000000       2
    0.000000000000    0.162162162162    0.000000000000       2
    0.018518518519    0.162162162162    0.000000000000       4
    0.037037037037    0.162162162162    0.000000000000       4
    0.055555555556    0.162162162162    0.000000000000       4
    0.074074074074    0.162162162162    0.000000000000       4
    0.092592592593    0.162162162162    0.000000000000       4
    0.111111111111    0.162162162162    0.000000000000       4
    0.129629629630    0.162162162162    0.000000000000       4
    0.148148148148    0.162162162162    0.000000000000       4
    0.166666666667    0.162162162162    0.000000000000       4
    0.185185185185    0.162162162162    0.000000000000       4
    0.203703703704    0.162162162162    0.000000000000       4
    0.222222222222    0.162162162162    0.000000000000       4
    0.240740740741    0.162162162162    0.000000000000       4
    0.259259259259    0.162162162162    0.000000000000       4
    0.277777777778    0.162162162162    0.000000000000       4
    0.296296296296    0.162162162162    0.000000000000       4
    0.314814814815    0.162162162162    0.000000000000       4
    0.333333333333    0.162162162162    0.000000000000       4
    0.351851851852    0.162162162162    0.000000000000       4
    0.370370370370    0.162162162162    0.000000000000       4
    0.388888888889    0.162162162162    0.000000000000       4
    0.407407407407    0.162162162162    0.000000000000       4
    0.425925925926    0.162162162162    0.000000000000       4
    0.444444444444    0.162162162162    0.000000000000       4
    0.462962962963    0.162162162162    0.000000000000       4
    0.481481481481    0.162162162162    0.000000000000       4
    0.500000000000    0.162162162162    0.000000000000       2
    0.000000000000    0.189189189189    0.000000000000       2
    0.018518518519    0.189189189189    0.000000000000       4
    0.037037037037    0.189189189189    0.000000000000       4
    0.055555555556    0.189189189189    0.000000000000       4
    0.074074074074    0.189189189189    0.000000000000       4
    0.092592592593    0.189189189189    0.000000000000       4
    0.111111111111    0.189189189189    0.000000000000       4
    0.129629629630    0.189189189189    0.000000000000       4
    0.148148148148    0.189189189189    0.000000000000       4
    0.166666666667    0.189189189189    0.000000000000       4
    0.185185185185    0.189189189189    0.000000000000       4
    0.203703703704    0.189189189189    0.000000000000       4
    0.222222222222    0.189189189189    0.000000000000       4
    0.240740740741    0.189189189189    0.000000000000       4
    0.259259259259    0.189189189189    0.000000000000       4
    0.277777777778    0.189189189189    0.000000000000       4
    0.296296296296    0.189189189189    0.000000000000       4
    0.314814814815    0.189189189189    0.000000000000       4
    0.333333333333    0.189189189189    0.000000000000       4
    0.351851851852    0.189189189189    0.000000000000       4
    0.370370370370    0.189189189189    0.000000000000       4
    0.388888888889    0.189189189189    0.000000000000       4
    0.407407407407    0.189189189189    0.000000000000       4
    0.425925925926    0.189189189189    0.000000000000       4
    0.444444444444    0.189189189189    0.000000000000       4
    0.462962962963    0.189189189189    0.000000000000       4
    0.481481481481    0.189189189189    0.000000000000       4
    0.500000000000    0.189189189189    0.000000000000       2
    0.000000000000    0.216216216216    0.000000000000       2
    0.018518518519    0.216216216216    0.000000000000       4
    0.037037037037    0.216216216216    0.000000000000       4
    0.055555555556    0.216216216216    0.000000000000       4
    0.074074074074    0.216216216216    0.000000000000       4
    0.092592592593    0.216216216216    0.000000000000       4
    0.111111111111    0.216216216216    0.000000000000       4
    0.129629629630    0.216216216216    0.000000000000       4
    0.148148148148    0.216216216216    0.000000000000       4
    0.166666666667    0.216216216216    0.000000000000       4
    0.185185185185    0.216216216216    0.000000000000       4
    0.203703703704    0.216216216216    0.000000000000       4
    0.222222222222    0.216216216216    0.000000000000       4
    0.240740740741    0.216216216216    0.000000000000       4
    0.259259259259    0.216216216216    0.000000000000       4
    0.277777777778    0.216216216216    0.000000000000       4
    0.296296296296    0.216216216216    0.000000000000       4
    0.314814814815    0.216216216216    0.000000000000       4
    0.333333333333    0.216216216216    0.000000000000       4
    0.351851851852    0.216216216216    0.000000000000       4
    0.370370370370    0.216216216216    0.000000000000       4
    0.388888888889    0.216216216216    0.000000000000       4
    0.407407407407    0.216216216216    0.000000000000       4
    0.425925925926    0.216216216216    0.000000000000       4
    0.444444444444    0.216216216216    0.000000000000       4
    0.462962962963    0.216216216216    0.000000000000       4
    0.481481481481    0.216216216216    0.000000000000       4
    0.500000000000    0.216216216216    0.000000000000       2
    0.000000000000    0.243243243243    0.000000000000       2
    0.018518518519    0.243243243243    0.000000000000       4
    0.037037037037    0.243243243243    0.000000000000       4
    0.055555555556    0.243243243243    0.000000000000       4
    0.074074074074    0.243243243243    0.000000000000       4
    0.092592592593    0.243243243243    0.000000000000       4
    0.111111111111    0.243243243243    0.000000000000       4
    0.129629629630    0.243243243243    0.000000000000       4
    0.148148148148    0.243243243243    0.000000000000       4
    0.166666666667    0.243243243243    0.000000000000       4
    0.185185185185    0.243243243243    0.000000000000       4
    0.203703703704    0.243243243243    0.000000000000       4
    0.222222222222    0.243243243243    0.000000000000       4
    0.240740740741    0.243243243243    0.000000000000       4
    0.259259259259    0.243243243243    0.000000000000       4
    0.277777777778    0.243243243243    0.000000000000       4
    0.296296296296    0.243243243243    0.000000000000       4
    0.314814814815    0.243243243243    0.000000000000       4
    0.333333333333    0.243243243243    0.000000000000       4
    0.351851851852    0.243243243243    0.000000000000       4
    0.370370370370    0.243243243243    0.000000000000       4
    0.388888888889    0.243243243243    0.000000000000       4
    0.407407407407    0.243243243243    0.000000000000       4
    0.425925925926    0.243243243243    0.000000000000       4
    0.444444444444    0.243243243243    0.000000000000       4
    0.462962962963    0.243243243243    0.000000000000       4
    0.481481481481    0.243243243243    0.000000000000       4
    0.500000000000    0.243243243243    0.000000000000       2
    0.000000000000    0.270270270270    0.000000000000       2
    0.018518518519    0.270270270270    0.000000000000       4
    0.037037037037    0.270270270270    0.000000000000       4
    0.055555555556    0.270270270270    0.000000000000       4
    0.074074074074    0.270270270270    0.000000000000       4
    0.092592592593    0.270270270270    0.000000000000       4
    0.111111111111    0.270270270270    0.000000000000       4
    0.129629629630    0.270270270270    0.000000000000       4
    0.148148148148    0.270270270270    0.000000000000       4
    0.166666666667    0.270270270270    0.000000000000       4
    0.185185185185    0.270270270270    0.000000000000       4
    0.203703703704    0.270270270270    0.000000000000       4
    0.222222222222    0.270270270270    0.000000000000       4
    0.240740740741    0.270270270270    0.000000000000       4
    0.259259259259    0.270270270270    0.000000000000       4
    0.277777777778    0.270270270270    0.000000000000       4
    0.296296296296    0.270270270270    0.000000000000       4
    0.314814814815    0.270270270270    0.000000000000       4
    0.333333333333    0.270270270270    0.000000000000       4
    0.351851851852    0.270270270270    0.000000000000       4
    0.370370370370    0.270270270270    0.000000000000       4
    0.388888888889    0.270270270270    0.000000000000       4
    0.407407407407    0.270270270270    0.000000000000       4
    0.425925925926    0.270270270270    0.000000000000       4
    0.444444444444    0.270270270270    0.000000000000       4
    0.462962962963    0.270270270270    0.000000000000       4
    0.481481481481    0.270270270270    0.000000000000       4
    0.500000000000    0.270270270270    0.000000000000       2
    0.000000000000    0.297297297297    0.000000000000       2
    0.018518518519    0.297297297297    0.000000000000       4
    0.037037037037    0.297297297297    0.000000000000       4
    0.055555555556    0.297297297297    0.000000000000       4
    0.074074074074    0.297297297297    0.000000000000       4
    0.092592592593    0.297297297297    0.000000000000       4
    0.111111111111    0.297297297297    0.000000000000       4
    0.129629629630    0.297297297297    0.000000000000       4
    0.148148148148    0.297297297297    0.000000000000       4
    0.166666666667    0.297297297297    0.000000000000       4
    0.185185185185    0.297297297297    0.000000000000       4
    0.203703703704    0.297297297297    0.000000000000       4
    0.222222222222    0.297297297297    0.000000000000       4
    0.240740740741    0.297297297297    0.000000000000       4
    0.259259259259    0.297297297297    0.000000000000       4
    0.277777777778    0.297297297297    0.000000000000       4
    0.296296296296    0.297297297297    0.000000000000       4
    0.314814814815    0.297297297297    0.000000000000       4
    0.333333333333    0.297297297297    0.000000000000       4
    0.351851851852    0.297297297297    0.000000000000       4
    0.370370370370    0.297297297297    0.000000000000       4
    0.388888888889    0.297297297297    0.000000000000       4
    0.407407407407    0.297297297297    0.000000000000       4
    0.425925925926    0.297297297297    0.000000000000       4
    0.444444444444    0.297297297297    0.000000000000       4
    0.462962962963    0.297297297297    0.000000000000       4
    0.481481481481    0.297297297297    0.000000000000       4
    0.500000000000    0.297297297297    0.000000000000       2
    0.000000000000    0.324324324324    0.000000000000       2
    0.018518518519    0.324324324324    0.000000000000       4
    0.037037037037    0.324324324324    0.000000000000       4
    0.055555555556    0.324324324324    0.000000000000       4
    0.074074074074    0.324324324324    0.000000000000       4
    0.092592592593    0.324324324324    0.000000000000       4
    0.111111111111    0.324324324324    0.000000000000       4
    0.129629629630    0.324324324324    0.000000000000       4
    0.148148148148    0.324324324324    0.000000000000       4
    0.166666666667    0.324324324324    0.000000000000       4
    0.185185185185    0.324324324324    0.000000000000       4
    0.203703703704    0.324324324324    0.000000000000       4
    0.222222222222    0.324324324324    0.000000000000       4
    0.240740740741    0.324324324324    0.000000000000       4
    0.259259259259    0.324324324324    0.000000000000       4
    0.277777777778    0.324324324324    0.000000000000       4
    0.296296296296    0.324324324324    0.000000000000       4
    0.314814814815    0.324324324324    0.000000000000       4
    0.333333333333    0.324324324324    0.000000000000       4
    0.351851851852    0.324324324324    0.000000000000       4
    0.370370370370    0.324324324324    0.000000000000       4
    0.388888888889    0.324324324324    0.000000000000       4
    0.407407407407    0.324324324324    0.000000000000       4
    0.425925925926    0.324324324324    0.000000000000       4
    0.444444444444    0.324324324324    0.000000000000       4
    0.462962962963    0.324324324324    0.000000000000       4
    0.481481481481    0.324324324324    0.000000000000       4
    0.500000000000    0.324324324324    0.000000000000       2
    0.000000000000    0.351351351351    0.000000000000       2
    0.018518518519    0.351351351351    0.000000000000       4
    0.037037037037    0.351351351351    0.000000000000       4
    0.055555555556    0.351351351351    0.000000000000       4
    0.074074074074    0.351351351351    0.000000000000       4
    0.092592592593    0.351351351351    0.000000000000       4
    0.111111111111    0.351351351351    0.000000000000       4
    0.129629629630    0.351351351351    0.000000000000       4
    0.148148148148    0.351351351351    0.000000000000       4
    0.166666666667    0.351351351351    0.000000000000       4
    0.185185185185    0.351351351351    0.000000000000       4
    0.203703703704    0.351351351351    0.000000000000       4
    0.222222222222    0.351351351351    0.000000000000       4
    0.240740740741    0.351351351351    0.000000000000       4
    0.259259259259    0.351351351351    0.000000000000       4
    0.277777777778    0.351351351351    0.000000000000       4
    0.296296296296    0.351351351351    0.000000000000       4
    0.314814814815    0.351351351351    0.000000000000       4
    0.333333333333    0.351351351351    0.000000000000       4
    0.351851851852    0.351351351351    0.000000000000       4
    0.370370370370    0.351351351351    0.000000000000       4
    0.388888888889    0.351351351351    0.000000000000       4
    0.407407407407    0.351351351351    0.000000000000       4
    0.425925925926    0.351351351351    0.000000000000       4
    0.444444444444    0.351351351351    0.000000000000       4
    0.462962962963    0.351351351351    0.000000000000       4
    0.481481481481    0.351351351351    0.000000000000       4
    0.500000000000    0.351351351351    0.000000000000       2
    0.000000000000    0.378378378378    0.000000000000       2
    0.018518518519    0.378378378378    0.000000000000       4
    0.037037037037    0.378378378378    0.000000000000       4
    0.055555555556    0.378378378378    0.000000000000       4
    0.074074074074    0.378378378378    0.000000000000       4
    0.092592592593    0.378378378378    0.000000000000       4
    0.111111111111    0.378378378378    0.000000000000       4
    0.129629629630    0.378378378378    0.000000000000       4
    0.148148148148    0.378378378378    0.000000000000       4
    0.166666666667    0.378378378378    0.000000000000       4
    0.185185185185    0.378378378378    0.000000000000       4
    0.203703703704    0.378378378378    0.000000000000       4
    0.222222222222    0.378378378378    0.000000000000       4
    0.240740740741    0.378378378378    0.000000000000       4
    0.259259259259    0.378378378378    0.000000000000       4
    0.277777777778    0.378378378378    0.000000000000       4
    0.296296296296    0.378378378378    0.000000000000       4
    0.314814814815    0.378378378378    0.000000000000       4
    0.333333333333    0.378378378378    0.000000000000       4
    0.351851851852    0.378378378378    0.000000000000       4
    0.370370370370    0.378378378378    0.000000000000       4
    0.388888888889    0.378378378378    0.000000000000       4
    0.407407407407    0.378378378378    0.000000000000       4
    0.425925925926    0.378378378378    0.000000000000       4
    0.444444444444    0.378378378378    0.000000000000       4
    0.462962962963    0.378378378378    0.000000000000       4
    0.481481481481    0.378378378378    0.000000000000       4
    0.500000000000    0.378378378378    0.000000000000       2
    0.000000000000    0.405405405405    0.000000000000       2
    0.018518518519    0.405405405405    0.000000000000       4
    0.037037037037    0.405405405405    0.000000000000       4
    0.055555555556    0.405405405405    0.000000000000       4
    0.074074074074    0.405405405405    0.000000000000       4
    0.092592592593    0.405405405405    0.000000000000       4
    0.111111111111    0.405405405405    0.000000000000       4
    0.129629629630    0.405405405405    0.000000000000       4
    0.148148148148    0.405405405405    0.000000000000       4
    0.166666666667    0.405405405405    0.000000000000       4
    0.185185185185    0.405405405405    0.000000000000       4
    0.203703703704    0.405405405405    0.000000000000       4
    0.222222222222    0.405405405405    0.000000000000       4
    0.240740740741    0.405405405405    0.000000000000       4
    0.259259259259    0.405405405405    0.000000000000       4
    0.277777777778    0.405405405405    0.000000000000       4
    0.296296296296    0.405405405405    0.000000000000       4
    0.314814814815    0.405405405405    0.000000000000       4
    0.333333333333    0.405405405405    0.000000000000       4
    0.351851851852    0.405405405405    0.000000000000       4
    0.370370370370    0.405405405405    0.000000000000       4
    0.388888888889    0.405405405405    0.000000000000       4
    0.407407407407    0.405405405405    0.000000000000       4
    0.425925925926    0.405405405405    0.000000000000       4
    0.444444444444    0.405405405405    0.000000000000       4
    0.462962962963    0.405405405405    0.000000000000       4
    0.481481481481    0.405405405405    0.000000000000       4
    0.500000000000    0.405405405405    0.000000000000       2
    0.000000000000    0.432432432432    0.000000000000       2
    0.018518518519    0.432432432432    0.000000000000       4
    0.037037037037    0.432432432432    0.000000000000       4
    0.055555555556    0.432432432432    0.000000000000       4
    0.074074074074    0.432432432432    0.000000000000       4
    0.092592592593    0.432432432432    0.000000000000       4
    0.111111111111    0.432432432432    0.000000000000       4
    0.129629629630    0.432432432432    0.000000000000       4
    0.148148148148    0.432432432432    0.000000000000       4
    0.166666666667    0.432432432432    0.000000000000       4
    0.185185185185    0.432432432432    0.000000000000       4
    0.203703703704    0.432432432432    0.000000000000       4
    0.222222222222    0.432432432432    0.000000000000       4
    0.240740740741    0.432432432432    0.000000000000       4
    0.259259259259    0.432432432432    0.000000000000       4
    0.277777777778    0.432432432432    0.000000000000       4
    0.296296296296    0.432432432432    0.000000000000       4
    0.314814814815    0.432432432432    0.000000000000       4
    0.333333333333    0.432432432432    0.000000000000       4
    0.351851851852    0.432432432432    0.000000000000       4
    0.370370370370    0.432432432432    0.000000000000       4
    0.388888888889    0.432432432432    0.000000000000       4
    0.407407407407    0.432432432432    0.000000000000       4
    0.425925925926    0.432432432432    0.000000000000       4
    0.444444444444    0.432432432432    0.000000000000       4
    0.462962962963    0.432432432432    0.000000000000       4