CONTCAR\(6)                             
   1.00000000000000     
    13.7187995910999998    0.0000000000000000    0.0000000000000000
    -4.5729412920000003   17.9978325079000001    0.0000000000000000
     0.0000000000000000    0.0000000000000000   21.4340000153000005
   Ag   Te   Mo   O 
     6    36    36     1
Selective dynamics
Direct
  0.9956825132919889  0.9972820634179485  0.5013734233776930   F   F   F
  0.3157044751623914  0.9987611791019830  0.4998623629630146   F   F   F
  0.6945618195495129  0.9974603713453334  0.4997477162231547   F   F   F
  0.0011985621920161  0.4979946414992611  0.5004362282576125   F   F   F
  0.3137712352348174  0.5001139744463501  0.5060257576378078   F   F   F
  0.6968899544633231  0.4952390294490172  0.4953322021876900   F   F   F
  0.2550476571552167  0.2685986076074443  0.6509927888332498   F   F   F
  0.1341069230532455  0.4110303778450941  0.5702284066568026   F   F   F
  0.1922503236904731  0.0851466853397085  0.4331451820881256   F   F   F
  0.0337865315645871  0.1040607077830416  0.5965484789223652   F   F   F
  0.2966942448931675  0.3927895798745809  0.4073078877769305   F   F   F
  0.0750986847752202  0.2289817203428370  0.3513723257991828   F   F   F
  0.5884530567847435  0.2690395768934764  0.6506415512148536   F   F   F
  0.4700390026788170  0.4129628507455081  0.5635130827850858   F   F   F
  0.5262878363854995  0.0829194187099702  0.4378759879055920   F   F   F
  0.3671674489289956  0.1050667160351253  0.5969236540986600   F   F   F
  0.6269056409984302  0.3897139604830144  0.4035847552237399   F   F   F
  0.4075012454885041  0.2263996985588079  0.3514919202835500   F   F   F
  0.9207997773965886  0.2664860520029819  0.6508917631445783   F   F   F
  0.8053892781549621  0.4099784027629951  0.5703518994094949   F   F   F
  0.8636059837720822  0.0849402653969662  0.4311362050660534   F   F   F
  0.6986078528021551  0.1032208609015939  0.5960407325792971   F   F   F
  0.9617330493944181  0.3914879450736635  0.4056641388047737   F   F   F
  0.7407275066358778  0.2265607676734405  0.3514578586336299   F   F   F
  0.2541541155344547  0.7717048931446655  0.6494927781295132   F   F   F
  0.1345065055369119  0.9116489414969280  0.5672689973597684   F   F   F
  0.1951085771068364  0.5849085433399921  0.4332350901740085   F   F   F
  0.0354074331980527  0.6043393489706830  0.5953562769120140   F   F   F
  0.2968954636323815  0.8917766677478411  0.4034731321560656   F   F   F
  0.0767190344215933  0.7281272627491759  0.3496846044690187   F   F   F
  0.5700771846148882  0.8108615994316324  0.6532244273851759   F   F   F
  0.4708050184434924  0.9181029466969548  0.5605793880019831   F   F   F
  0.5261493456401567  0.5843763293847601  0.4415124335680147   F   F   F
  0.3729065645153966  0.6112368601079154  0.6001339342197483   F   F   F
  0.6297016920300678  0.8913627457031978  0.4028980727222233   F   F   F
  0.4090870867746119  0.7256735725648085  0.3514599302939629   F   F   F
  0.9229280925189940  0.7647587544952756  0.6493156990631732   F   F   F
  0.8057347617139214  0.9077160470346826  0.5710088540838925   F   F   F
  0.8653315649525908  0.5857036647758420  0.4281219069460462   F   F   F
  0.7027141231085992  0.5971064628973934  0.5910646620585567   F   F   F
  0.9630247079757837  0.8920361297661117  0.4046241807994022   F   F   F
  0.7410621135570281  0.7285881153486784  0.3502174430346727   F   F   F
  0.1045067834794366  0.3172982467014265  0.4593327430291012   F   F   F
  0.2253081831796990  0.1794450910155518  0.5433208923792847   F   F   F
  0.0556545026927253  0.1698075011002658  0.4732330664782367   F   F   F
  0.2745601578354737  0.3269874858294983  0.5292720434895699   F   F   F
  0.0844057112961991  0.2570688571673259  0.5724529857487894   F   F   F
  0.2450895321639095  0.2391349668714327  0.4300439149390272   F   F   F
  0.4376229244691174  0.3167700494325842  0.4582951819462124   F   F   F
  0.5580818897552930  0.1788634238854669  0.5438214714879805   F   F   F
  0.3883967751275605  0.1692813439503595  0.4735630877561832   F   F   F
  0.6075221583873329  0.3265149328892889  0.5285676122282084   F   F   F
  0.4180339535546480  0.2583314246847195  0.5720978094784499   F   F   F
  0.5779649560695432  0.2373736483803128  0.4301425709030440   F   F   F
  0.7706982650683543  0.3161147758572014  0.4589485308815071   F   F   F
  0.8916261772082663  0.1782663110357134  0.5429973955694436   F   F   F
  0.7214517270308392  0.1684658754977164  0.4732099455550696   F   F   F
  0.9405828890769001  0.3258070199063710  0.5291766100509818   F   F   F
  0.7508512836372887  0.2562964401818917  0.5721964917851068   F   F   F
  0.9115300143999718  0.2386483023510664  0.4299549836210375   F   F   F
  0.1050844860957554  0.8172652048640430  0.4572134151759215   F   F   F
  0.2265840968345998  0.6802348361810004  0.5429989048562334   F   F   F
  0.0568265108733286  0.6695260818149933  0.4715219925186815   F   F   F
  0.2744646063059548  0.8279133085959458  0.5270236814823974   F   F   F
  0.0852827240259657  0.7573550976460766  0.5703236671031888   F   F   F
  0.2464615227869231  0.7389101282695592  0.4292298179147878   F   F   F
  0.4392121828950835  0.8179637987121637  0.4567017868791865   F   F   F
  0.5617175066162190  0.6812859673056622  0.5460721195363476   F   F   F
  0.3907974002956109  0.6706481625080585  0.4744976458534680   F   F   F
  0.6102403175005051  0.8305782306184923  0.5263540412198111   F   F   F
  0.4174173620154846  0.7632153432245516  0.5715037212534639   F   F   F
  0.5791601127376254  0.7383060685926992  0.4302194989720718   F   F   F
  0.7724413908676411  0.8167562123038365  0.4583803104327373   F   F   F
  0.8931712043719671  0.6779256264232600  0.5407021546178044   F   F   F
  0.7229826719067489  0.6692947197402361  0.4712467335723645   F   F   F
  0.9412946535752411  0.8256420062763112  0.5276935301789010   F   F   F
  0.7508925215466817  0.7520248078239291  0.5717742955276535   F   F   F
  0.9128033913491720  0.7390466740589190  0.4279662651240344   F   F   F
  0.6328141142441552  0.7227895953553869  0.6373710764924606   T   T   T
 
  0.00000000E+00  0.00000000E+00  0.00000000E+00
  0.00000000E+00  0.00000000E+00  0.00000000E+00
  0.00000000E+00  0.00000000E+00  0.00000000E+00
  0.00000000E+00  0.00000000E+00  0.00000000E+00
  0.00000000E+00  0.00000000E+00  0.00000000E+00
  0.00000000E+00  0.00000000E+00  0.00000000E+00
  0.00000000E+00  0.00000000E+00  0.00000000E+00
  0.00000000E+00  0.00000000E+00  0.00000000E+00
  0.00000000E+00  0.00000000E+00  0.00000000E+00
  0.00000000E+00  0.00000000E+00  0.00000000E+00
  0.00000000E+00  0.00000000E+00  0.00000000E+00
  0.00000000E+00  0.00000000E+00  0.00000000E+00
  0.00000000E+00  0.00000000E+00  0.00000000E+00
  0.00000000E+00  0.00000000E+00  0.00000000E+00
  0.00000000E+00  0.00000000E+00  0.00000000E+00
  0.00000000E+00  0.00000000E+00  0.00000000E+00
  0.00000000E+00  0.00000000E+00  0.00000000E+00
  0.00000000E+00  0.00000000E+00  0.00000000E+00
  0.00000000E+00  0.00000000E+00  0.00000000E+00
  0.00000000E+00  0.00000000E+00  0.00000000E+00
  0.00000000E+00  0.00000000E+00  0.00000000E+00
  0.00000000E+00  0.00000000E+00  0.00000000E+00
  0.00000000E+00  0.00000000E+00  0.00000000E+00
  0.00000000E+00  0.00000000E+00  0.00000000E+00
  0.00000000E+00  0.00000000E+00  0.00000000E+00
  0.00000000E+00  0.00000000E+00  0.00000000E+00
  0.00000000E+00  0.00000000E+00  0.00000000E+00
  0.00000000E+00  0.00000000E+00  0.00000000E+00
  0.00000000E+00  0.00000000E+00  0.00000000E+00
  0.00000000E+00  0.00000000E+00  0.00000000E+00
  0.00000000E+00  0.00000000E+00  0.00000000E+00
  0.00000000E+00  0.00000000E+00  0.00000000E+00
  0.00000000E+00  0.00000000E+00  0.00000000E+00
  0.00000000E+00  0.00000000E+00  0.00000000E+00
  0.00000000E+00  0.00000000E+00  0.00000000E+00
  0.00000000E+00  0.00000000E+00  0.00000000E+00
  0.00000000E+00  0.00000000E+00  0.00000000E+00
  0.00000000E+00  0.00000000E+00  0.00000000E+00
  0.00000000E+00  0.00000000E+00  0.00000000E+00
  0.00000000E+00  0.00000000E+00  0.00000000E+00
  0.00000000E+00  0.00000000E+00  0.00000000E+00
  0.00000000E+00  0.00000000E+00  0.00000000E+00
  0.00000000E+00  0.00000000E+00  0.00000000E+00
  0.00000000E+00  0.00000000E+00  0.00000000E+00
  0.00000000E+00  0.00000000E+00  0.00000000E+00
  0.00000000E+00  0.00000000E+00  0.00000000E+00
  0.00000000E+00  0.00000000E+00  0.00000000E+00
  0.00000000E+00  0.00000000E+00  0.00000000E+00
  0.00000000E+00  0.00000000E+00  0.00000000E+00
  0.00000000E+00  0.00000000E+00  0.00000000E+00
  0.00000000E+00  0.00000000E+00  0.00000000E+00
  0.00000000E+00  0.00000000E+00  0.00000000E+00
  0.00000000E+00  0.00000000E+00  0.00000000E+00
  0.00000000E+00  0.00000000E+00  0.00000000E+00
  0.00000000E+00  0.00000000E+00  0.00000000E+00
  0.00000000E+00  0.00000000E+00  0.00000000E+00
  0.00000000E+00  0.00000000E+00  0.00000000E+00
  0.00000000E+00  0.00000000E+00  0.00000000E+00
  0.00000000E+00  0.00000000E+00  0.00000000E+00
  0.00000000E+00  0.00000000E+00  0.00000000E+00
  0.00000000E+00  0.00000000E+00  0.00000000E+00
  0.00000000E+00  0.00000000E+00  0.00000000E+00
  0.00000000E+00  0.00000000E+00  0.00000000E+00
  0.00000000E+00  0.00000000E+00  0.00000000E+00
  0.00000000E+00  0.00000000E+00  0.00000000E+00
  0.00000000E+00  0.00000000E+00  0.00000000E+00
  0.00000000E+00  0.00000000E+00  0.00000000E+00
  0.00000000E+00  0.00000000E+00  0.00000000E+00
  0.00000000E+00  0.00000000E+00  0.00000000E+00
  0.00000000E+00  0.00000000E+00  0.00000000E+00
  0.00000000E+00  0.00000000E+00  0.00000000E+00
  0.00000000E+00  0.00000000E+00  0.00000000E+00
  0.00000000E+00  0.00000000E+00  0.00000000E+00
  0.00000000E+00  0.00000000E+00  0.00000000E+00
  0.00000000E+00  0.00000000E+00  0.00000000E+00
  0.00000000E+00  0.00000000E+00  0.00000000E+00
  0.00000000E+00  0.00000000E+00  0.00000000E+00
  0.00000000E+00  0.00000000E+00  0.00000000E+00
  0.00000000E+00  0.00000000E+00  0.00000000E+00
