CONTCAR\(3)                             
   1.00000000000000     
    12.8629999160999997    0.0000000000000000    0.0000000000000000
     0.0000000000000000   14.3196001052999993    0.0000000000000000
     0.0000000000000000    0.0000000000000000   19.5569992064999987
   Ag   Au   S    O    H 
    12    24    24     1     1
Direct
  0.1017889290499880  0.3388562772316206  0.6013669800415826
  0.2517894803313041  0.0587351913243950  0.5963322527300647
  0.4222698939188376  0.2940109153193262  0.5990525380826810
  0.5717574073123544  0.0644295388051717  0.5965936108110910
  0.7446602261964657  0.3421160271730344  0.5967808902605327
  0.9094378622593737  0.1094207282843271  0.6006400821611209
  0.0758904279410331  0.8458778957433637  0.5923583480975623
  0.2637107712727129  0.5803931714547659  0.6122107788841333
  0.4149632865461612  0.8010920717357592  0.6152835888672925
  0.5599744717347050  0.5817351040604493  0.6197638035095494
  0.7594212775694587  0.8411743152149782  0.5941137425246765
  0.9130604718290414  0.5792444330439892  0.6026160275228492
  0.0348727109525626  0.5006173254521755  0.4897816098429431
  0.2967782020069407  0.2293707876396667  0.4881213921697309
  0.1693533241786156  0.3675895765588848  0.4067160391358797
  0.1639659686474317  0.1154704281789378  0.4044813318253517
  0.3667053222183299  0.4837040633580401  0.4949436228576616
  0.6467100014738776  0.2368533078007076  0.4820315675455404
  0.5023869601650048  0.3611093110909493  0.4119325330897041
  0.5023897077621413  0.1124707217086112  0.4051233746574994
  0.6857170784954079  0.5022195476593865  0.5090637279775265
  0.9686620397098196  0.2609967681772858  0.4922214370238507
  0.8349948864428285  0.3681263117509985  0.3976634018725989
  0.8362425768613733  0.1179379393231272  0.3938673965590951
  0.0201890578005646  0.0033085683629253  0.4938222947957556
  0.2947696269235394  0.7439439779681507  0.4894613511378907
  0.1664246275252808  0.8647144822880009  0.3911239910740605
  0.1690750615649392  0.6166645410054201  0.4004596580782405
  0.3633057692601440  0.9767853145538865  0.4821468080342584
  0.6339405366628483  0.7400739694687033  0.4940192252874169
  0.5052960022939175  0.8629030846807311  0.4046729933501751
  0.5021196770169638  0.6120608457943604  0.4125264437516876
  0.7057980117952596  0.0003608198511742  0.4860539469505269
  0.9719668567443449  0.7437633131150747  0.4789639351350274
  0.8320416750881279  0.8689674045320928  0.4052772862013470
  0.8293138784380290  0.6189881051769035  0.4074243456903019
  0.2826709640445770  0.4916672888087206  0.3898701512091804
  0.2445900182228371  0.2312974172682800  0.6027173350351589
  0.0924751366042855  0.5086056851244933  0.6027569067134877
  0.0558433368542168  0.2435124850966162  0.3887516690926418
  0.6159438991311958  0.4866423186658579  0.4010132674042595
  0.5960983159809814  0.2343206695141831  0.5967726129666957
  0.4171255248889949  0.4635677457191321  0.6079516060299355
  0.3916992839359281  0.2375373425552638  0.3867928321255008
  0.9424110827672934  0.4962280949858311  0.3875811814584722
  0.9188719663038114  0.2768768904996222  0.6064247084203842
  0.7418605654204029  0.5106338211027506  0.6216676915770520
  0.7259134122838447  0.2432524607630313  0.3749474144416141
  0.2748119661209998  0.9918166272792845  0.3791412036224102
  0.2280751988152261  0.7519116595764928  0.5992708975711167
  0.0699531643890836  0.0127113869868793  0.6083684061762469
  0.0571857409482917  0.7390239304384494  0.3737887443332610
  0.6141797614858362  0.9887431780044906  0.3833964545610371
  0.6001930670648576  0.7520764975874954  0.6104721542685354
  0.4172134761564976  0.9677292588837005  0.5959099159322605
  0.3937311632944329  0.7369975718583532  0.3902841098650285
  0.9483095951224243  0.9913605897206068  0.3856610439323873
  0.9172838031754011  0.7515455240264544  0.5928645557766785
  0.7591517874104738  0.0092848121467100  0.6002873432375466
  0.7183742344319839  0.7441996207489652  0.3882707555809830
  0.4103642091680655  0.6544205972385271  0.6548311802353126
  0.4080454769883275  0.6550306975124371  0.7050041368955533
 
  0.00000000E+00  0.00000000E+00  0.00000000E+00
  0.00000000E+00  0.00000000E+00  0.00000000E+00
  0.00000000E+00  0.00000000E+00  0.00000000E+00
  0.00000000E+00  0.00000000E+00  0.00000000E+00
  0.00000000E+00  0.00000000E+00  0.00000000E+00
  0.00000000E+00  0.00000000E+00  0.00000000E+00
  0.00000000E+00  0.00000000E+00  0.00000000E+00
  0.00000000E+00  0.00000000E+00  0.00000000E+00
  0.00000000E+00  0.00000000E+00  0.00000000E+00
  0.00000000E+00  0.00000000E+00  0.00000000E+00
  0.00000000E+00  0.00000000E+00  0.00000000E+00
  0.00000000E+00  0.00000000E+00  0.00000000E+00
  0.00000000E+00  0.00000000E+00  0.00000000E+00
  0.00000000E+00  0.00000000E+00  0.00000000E+00
  0.00000000E+00  0.00000000E+00  0.00000000E+00
  0.00000000E+00  0.00000000E+00  0.00000000E+00
  0.00000000E+00  0.00000000E+00  0.00000000E+00
  0.00000000E+00  0.00000000E+00  0.00000000E+00
  0.00000000E+00  0.00000000E+00  0.00000000E+00
  0.00000000E+00  0.00000000E+00  0.00000000E+00
  0.00000000E+00  0.00000000E+00  0.00000000E+00
  0.00000000E+00  0.00000000E+00  0.00000000E+00
  0.00000000E+00  0.00000000E+00  0.00000000E+00
  0.00000000E+00  0.00000000E+00  0.00000000E+00
  0.00000000E+00  0.00000000E+00  0.00000000E+00
  0.00000000E+00  0.00000000E+00  0.00000000E+00
  0.00000000E+00  0.00000000E+00  0.00000000E+00
  0.00000000E+00  0.00000000E+00  0.00000000E+00
  0.00000000E+00  0.00000000E+00  0.00000000E+00
  0.00000000E+00  0.00000000E+00  0.00000000E+00
  0.00000000E+00  0.00000000E+00  0.00000000E+00
  0.00000000E+00  0.00000000E+00  0.00000000E+00
  0.00000000E+00  0.00000000E+00  0.00000000E+00
  0.00000000E+00  0.00000000E+00  0.00000000E+00
  0.00000000E+00  0.00000000E+00  0.00000000E+00
  0.00000000E+00  0.00000000E+00  0.00000000E+00
  0.00000000E+00  0.00000000E+00  0.00000000E+00
  0.00000000E+00  0.00000000E+00  0.00000000E+00
  0.00000000E+00  0.00000000E+00  0.00000000E+00
  0.00000000E+00  0.00000000E+00  0.00000000E+00
  0.00000000E+00  0.00000000E+00  0.00000000E+00
  0.00000000E+00  0.00000000E+00  0.00000000E+00
  0.00000000E+00  0.00000000E+00  0.00000000E+00
  0.00000000E+00  0.00000000E+00  0.00000000E+00
  0.00000000E+00  0.00000000E+00  0.00000000E+00
  0.00000000E+00  0.00000000E+00  0.00000000E+00
  0.00000000E+00  0.00000000E+00  0.00000000E+00
  0.00000000E+00  0.00000000E+00  0.00000000E+00
  0.00000000E+00  0.00000000E+00  0.00000000E+00
  0.00000000E+00  0.00000000E+00  0.00000000E+00
  0.00000000E+00  0.00000000E+00  0.00000000E+00
  0.00000000E+00  0.00000000E+00  0.00000000E+00
  0.00000000E+00  0.00000000E+00  0.00000000E+00
  0.00000000E+00  0.00000000E+00  0.00000000E+00
  0.00000000E+00  0.00000000E+00  0.00000000E+00
  0.00000000E+00  0.00000000E+00  0.00000000E+00
  0.00000000E+00  0.00000000E+00  0.00000000E+00
  0.00000000E+00  0.00000000E+00  0.00000000E+00
  0.00000000E+00  0.00000000E+00  0.00000000E+00
  0.00000000E+00  0.00000000E+00  0.00000000E+00
  0.00000000E+00  0.00000000E+00  0.00000000E+00
  0.00000000E+00  0.00000000E+00  0.00000000E+00
