CONTCAR\(6)                             
   1.00000000000000     
    12.9184999466000008    0.0000000000000000    0.0000000000000000
     0.0000000000000000   12.9184999466000008    0.0000000000000000
     0.0000000000000000    0.0000000000000000   24.0865993500000002
   Ho   Te   O    H 
    18    54     2     1
Direct
  0.1633587860592752  0.0030115713878758  0.5861182750610613
  0.9987153927610699  0.1695421447006402  0.4160707294836962
  0.4978323350105192  0.0028264171362428  0.5853214388160618
  0.3313646725528039  0.1687299761106846  0.4151677840593197
  0.8327441850426818  0.0031407547117136  0.5859438776534501
  0.6657942946635718  0.1685392710317228  0.4150236683367001
  0.1645522761437938  0.3364742169166947  0.5866883806639486
  0.9987184556150064  0.5026454295124507  0.4163343065630148
  0.4995973226003304  0.3266986716927568  0.5817483836045207
  0.3325861950165089  0.5026638019847697  0.4156893997425119
  0.8322415623826159  0.3366945743201131  0.5861797682240992
  0.6651801561756164  0.5026061596904671  0.4154793648270479
  0.1639130537885984  0.6692571253480045  0.5864598139226671
  0.9987657142395524  0.8357410485913090  0.4160619746264311
  0.4996165567334452  0.6787182578458986  0.5821683801593320
  0.3314474668788297  0.8365267263177715  0.4152380660399195
  0.8321647073048331  0.6691553580412053  0.5862221934554188
  0.6659033961730685  0.8365307728154405  0.4150632351816957
  0.9987026836257941  0.0022828426985150  0.3129422794821656
  0.1652053961013993  0.1698392239178188  0.6895018004877785
  0.9963495788368490  0.0036300232484334  0.6894228819453092
  0.1647693821621693  0.1692318007602257  0.3129994072233203
  0.1644501245074133  0.0028742082986579  0.4545201652537287
  0.9984862796190733  0.1703309692542621  0.5475292512305383
  0.3317745592849639  0.0028700342004245  0.3123732017463345
  0.4987961152646859  0.1696117315935658  0.6874366162380040
  0.3301065233126759  0.0035956758588843  0.6889423432584899
  0.4987148666098105  0.1693350547717426  0.3123023494084611
  0.4984738975145355  0.0023797926214579  0.4540368898569278
  0.3300346530829882  0.1681485049603266  0.5466554894655477
  0.6654176556128811  0.0025883839489372  0.3121833854146829
  0.8314240595771989  0.1704834601704174  0.6893028274977310
  0.6645645692418810  0.0035264799398360  0.6886784692411432
  0.8322539757647577  0.1689930974149812  0.3129698320868136
  0.8328930576280629  0.0027311885083584  0.4543783231565956
  0.6667901524813710  0.1673649592111075  0.5463390477020026
  0.9984731580579457  0.3362441153638298  0.3135423369264655
  0.1638267591308307  0.5028069496965705  0.6897459927849795
  0.9982278981691406  0.3363209326753771  0.6900018449764695
  0.1655731954202317  0.5025342127100124  0.3133462306466743
  0.1664509860421973  0.3370871861981918  0.4551390555445324
  0.9985504506862301  0.5026541972642667  0.5478100636513429
  0.3318437266735306  0.3358257598342876  0.3126529512200837
  0.4946118166196162  0.5036585278189876  0.6779483316507512
  0.3320698138537199  0.3361166724417731  0.6892807566565698
  0.4987284924138894  0.5022444651921225  0.3127604019204833
  0.4985324059299671  0.3346900171109180  0.4528238682238191
  0.3346457231503814  0.5026903422142900  0.5489028490335115
  0.6656593125064083  0.3357626893189204  0.3124659037027284
  0.8296758803827740  0.5032328870447359  0.6892174798621278
  0.6645283711990208  0.3370172986902120  0.6879929135716227
  0.8320036657019388  0.5027930915873193  0.3132183007468006
  0.8312578018919597  0.3364209068982968  0.4547567410326160
  0.6630785216438171  0.5028691479140824  0.5477700328932973
  0.9988461344409921  0.6691832595482569  0.3135774579053767
  0.1640078512265435  0.8377808904544723  0.6895063760062209
  0.9981868823395840  0.6695752526093472  0.6896393296129165
  0.1653515174884969  0.8358226560135757  0.3131454100297789
  0.1664941489775648  0.6682922459771725  0.4551614734048165
  0.9982707294942473  0.8356123520850262  0.5473983170532345
  0.3320131387876930  0.6690355011634278  0.3127098445560957
  0.4987932032318429  0.8371938587646933  0.6875779631704564
  0.3306313098642741  0.6717782732693882  0.6881188724476428
  0.4982815680577072  0.8362252504758714  0.3123664624039910
  0.4988469140166757  0.6705971510842424  0.4530040282203847
  0.3300122861354582  0.8374345417101628  0.5467142770178086
  0.6650604226950615  0.6691869385292094  0.3125548404792594
  0.8321927372335891  0.8372468646280349  0.6892322917515719
  0.6648480621443762  0.6699496583675606  0.6881393185537046
  0.8321742598709220  0.8357259687640890  0.3129312595851351
  0.8313153810521556  0.6686038183013999  0.4548596407900662
  0.6668853315998561  0.8381037362407805  0.5464646868296568
  0.4197734073323512  0.5007657988466528  0.7987366397159367
  0.5125962101950571  0.5180542557068225  0.7678566775277348
  0.3883960039712914  0.5703821929519104  0.7991540597769642
 
  0.00000000E+00  0.00000000E+00  0.00000000E+00
  0.00000000E+00  0.00000000E+00  0.00000000E+00
  0.00000000E+00  0.00000000E+00  0.00000000E+00
  0.00000000E+00  0.00000000E+00  0.00000000E+00
  0.00000000E+00  0.00000000E+00  0.00000000E+00
  0.00000000E+00  0.00000000E+00  0.00000000E+00
  0.00000000E+00  0.00000000E+00  0.00000000E+00
  0.00000000E+00  0.00000000E+00  0.00000000E+00
  0.00000000E+00  0.00000000E+00  0.00000000E+00
  0.00000000E+00  0.00000000E+00  0.00000000E+00
  0.00000000E+00  0.00000000E+00  0.00000000E+00
  0.00000000E+00  0.00000000E+00  0.00000000E+00
  0.00000000E+00  0.00000000E+00  0.00000000E+00
  0.00000000E+00  0.00000000E+00  0.00000000E+00
  0.00000000E+00  0.00000000E+00  0.00000000E+00
  0.00000000E+00  0.00000000E+00  0.00000000E+00
  0.00000000E+00  0.00000000E+00  0.00000000E+00
  0.00000000E+00  0.00000000E+00  0.00000000E+00
  0.00000000E+00  0.00000000E+00  0.00000000E+00
  0.00000000E+00  0.00000000E+00  0.00000000E+00
  0.00000000E+00  0.00000000E+00  0.00000000E+00
  0.00000000E+00  0.00000000E+00  0.00000000E+00
  0.00000000E+00  0.00000000E+00  0.00000000E+00
  0.00000000E+00  0.00000000E+00  0.00000000E+00
  0.00000000E+00  0.00000000E+00  0.00000000E+00
  0.00000000E+00  0.00000000E+00  0.00000000E+00
  0.00000000E+00  0.00000000E+00  0.00000000E+00
  0.00000000E+00  0.00000000E+00  0.00000000E+00
  0.00000000E+00  0.00000000E+00  0.00000000E+00
  0.00000000E+00  0.00000000E+00  0.00000000E+00
  0.00000000E+00  0.00000000E+00  0.00000000E+00
  0.00000000E+00  0.00000000E+00  0.00000000E+00
  0.00000000E+00  0.00000000E+00  0.00000000E+00
  0.00000000E+00  0.00000000E+00  0.00000000E+00
  0.00000000E+00  0.00000000E+00  0.00000000E+00
  0.00000000E+00  0.00000000E+00  0.00000000E+00
  0.00000000E+00  0.00000000E+00  0.00000000E+00
  0.00000000E+00  0.00000000E+00  0.00000000E+00
  0.00000000E+00  0.00000000E+00  0.00000000E+00
  0.00000000E+00  0.00000000E+00  0.00000000E+00
  0.00000000E+00  0.00000000E+00  0.00000000E+00
  0.00000000E+00  0.00000000E+00  0.00000000E+00
  0.00000000E+00  0.00000000E+00  0.00000000E+00
  0.00000000E+00  0.00000000E+00  0.00000000E+00
  0.00000000E+00  0.00000000E+00  0.00000000E+00
  0.00000000E+00  0.00000000E+00  0.00000000E+00
  0.00000000E+00  0.00000000E+00  0.00000000E+00
  0.00000000E+00  0.00000000E+00  0.00000000E+00
  0.00000000E+00  0.00000000E+00  0.00000000E+00
  0.00000000E+00  0.00000000E+00  0.00000000E+00
  0.00000000E+00  0.00000000E+00  0.00000000E+00
  0.00000000E+00  0.00000000E+00  0.00000000E+00
  0.00000000E+00  0.00000000E+00  0.00000000E+00
  0.00000000E+00  0.00000000E+00  0.00000000E+00
  0.00000000E+00  0.00000000E+00  0.00000000E+00
  0.00000000E+00  0.00000000E+00  0.00000000E+00
  0.00000000E+00  0.00000000E+00  0.00000000E+00
  0.00000000E+00  0.00000000E+00  0.00000000E+00
  0.00000000E+00  0.00000000E+00  0.00000000E+00
  0.00000000E+00  0.00000000E+00  0.00000000E+00
  0.00000000E+00  0.00000000E+00  0.00000000E+00
  0.00000000E+00  0.00000000E+00  0.00000000E+00
  0.00000000E+00  0.00000000E+00  0.00000000E+00
  0.00000000E+00  0.00000000E+00  0.00000000E+00
  0.00000000E+00  0.00000000E+00  0.00000000E+00
  0.00000000E+00  0.00000000E+00  0.00000000E+00
  0.00000000E+00  0.00000000E+00  0.00000000E+00
  0.00000000E+00  0.00000000E+00  0.00000000E+00
  0.00000000E+00  0.00000000E+00  0.00000000E+00
  0.00000000E+00  0.00000000E+00  0.00000000E+00
  0.00000000E+00  0.00000000E+00  0.00000000E+00
  0.00000000E+00  0.00000000E+00  0.00000000E+00
  0.00000000E+00  0.00000000E+00  0.00000000E+00
  0.00000000E+00  0.00000000E+00  0.00000000E+00
  0.00000000E+00  0.00000000E+00  0.00000000E+00
