CONTCAR\(2)                             
   1.00000000000000     
    14.4230003356999994    0.0000000000000000    0.0000000000000000
     0.0000000000000000   16.5291004181000005    0.0000000000000000
     0.0000000000000000    0.0000000000000000   17.8572998046999984
   Cu   Te   O    H 
    16    16    50     1
Direct
  0.3422987095331612  0.2664386527714093  0.5301421379747251
  0.8407502951088259  0.2661145079047785  0.5301545887423770
  0.3410960935275103  0.7639483163986626  0.5295549694524180
  0.8415149287957481  0.7652078005660694  0.5313843375646321
  0.0905869685977824  0.4842884768015288  0.5293160029173216
  0.5911633960100663  0.4843910237645213  0.5304656053383264
  0.0927000204436231  0.9836676534151952  0.5306636093500240
  0.5909597114454105  0.9839160637045858  0.5308819787103054
  0.1593580423097470  0.2340479976918916  0.4684344287535618
  0.6601292615704550  0.2345170989074097  0.4698684762887794
  0.1610245910655676  0.7329942239630179  0.4687175373240118
  0.6605066473281439  0.7338993478039747  0.4716079944121725
  0.4106902630357897  0.0151091416253378  0.4700773751242528
  0.9092886346140399  0.0161188380959287  0.4694615049157140
  0.4096648504050271  0.5172098652923135  0.4700420819629484
  0.9103440629118090  0.5163493825957087  0.4697426714909764
  0.2816497956984285  0.1033242052418447  0.5908830084410731
  0.7811911032090597  0.1030082719170918  0.5912933541331835
  0.2808567859966108  0.6022750463518982  0.5932966116657494
  0.7822262485820733  0.6025320807606945  0.5918859404918501
  0.2196239439329734  0.3974352179240697  0.4084859867935891
  0.7195588579361760  0.3973883999957119  0.4087239716572742
  0.2204006517832329  0.8966012303143704  0.4083620309344490
  0.7195903257865927  0.8963913565640963  0.4096153362622314
  0.4700121989873172  0.3541136614949009  0.4085234902940839
  0.9690816047632302  0.3530766223401007  0.4084676262536140
  0.4699148913459397  0.8522354670915934  0.4091414243827485
  0.9698504866791651  0.8523820404327279  0.4095523844086518
  0.0313429494664240  0.1472494938518312  0.5906524962500628
  0.5314659335818597  0.1472464725856216  0.5913870827179620
  0.0332888427794330  0.6467784267834551  0.5918943847214737
  0.5307360835862971  0.6462697021427104  0.5927872796183432
  0.3040738748140517  0.0774936019367513  0.4899832463824135
  0.8024774732700535  0.0779799798852237  0.4900443900633920
  0.3041504827108328  0.5794185312786454  0.4893428028496223
  0.8032715622106218  0.5782174914399475  0.4904567687589492
  0.2714989109239879  0.2918286245299428  0.4355830424517227
  0.7722780532926100  0.2916483820324040  0.4346726192425642
  0.2729338564240305  0.7908200100767169  0.4336362477046627
  0.7726019696411880  0.7910623526299683  0.4360485015275742
  0.3995354026767964  0.1883488676916439  0.5973234342358169
  0.8993941816453209  0.1879268838634142  0.5965762687391474
  0.3985482743644843  0.6872098216896019  0.5981279793421090
  0.8999329980394062  0.6870424206507919  0.5976640211102088
  0.4787837857261960  0.0415095021930389  0.5654823703374888
  0.9797683998326991  0.0416395191588525  0.5633080811781146
  0.4791576196263864  0.5407561108515421  0.5655155699253757
  0.9790216857310575  0.5415710499127270  0.5648363886602429
  0.3515814139056396  0.4382251258870856  0.4042592727673742
  0.8520669721876318  0.4380117752042361  0.4032663499534491
  0.3525385796974567  0.9375781464661316  0.4027489230214484
  0.8518596162383706  0.9373108533245057  0.4038725353566363
  0.1496823841686963  0.0624614164065186  0.5970327060787043
  0.6493603437759596  0.0621629969522007  0.5974135542170345
  0.1486177023167239  0.5614146252443217  0.5954536484252078
  0.6495464142262758  0.5620876861796446  0.5974928295445167
  0.4490973166129028  0.3280663641123215  0.5095130115566397
  0.9476924231861674  0.3283386275094478  0.5097171960075970
  0.4472137296011389  0.8273973483736097  0.5101384633668063
  0.9482680208982803  0.8271526012830240  0.5106618692366964
  0.1971244403144128  0.4220181305714320  0.5095396207985969
  0.6979671219835312  0.4221076634986752  0.5099264678677740
  0.1993698314326622  0.9218903322383724  0.5094964768010416
  0.6979605017650277  0.9217091945584470  0.5107242556034191
  0.0220962466866893  0.4586669384578645  0.4342305123489379
  0.5222030236125980  0.4596452911548276  0.4349278033354777
  0.0214952082826118  0.9580346684720257  0.4367211721191758
  0.5227054937567016  0.9578394942387621  0.4354567983765144
  0.2296729942400712  0.2085095223868707  0.5626006599398549
  0.7286324556239961  0.2087081001557726  0.5653019967775452
  0.2295981086092794  0.7074384670000894  0.5618254585924248
  0.7293873249001115  0.7083968387104543  0.5664627667740468
  0.0527122049326986  0.1725860156861285  0.4894756846885668
  0.5535298035778137  0.1718607399137337  0.4901864353226760
  0.0536406156577347  0.6719838647811975  0.4904171570886107
  0.5530547357382216  0.6724883697600783  0.4920032674708263
  0.1016433172008441  0.3125022422712395  0.4025339536010914
  0.6019945214130428  0.3125777263483988  0.4030122047213386
  0.1018956934503213  0.8118830774392813  0.4036899797500993
  0.6024283158067519  0.8114780242356168  0.4045157060590246
  0.2304362980295909  0.6415000973159877  0.7134509713260017
  0.2762698519717515  0.7085701264066628  0.7448061460918235
  0.3002913334510613  0.6860079905387751  0.7919148001547018
 
  0.00000000E+00  0.00000000E+00  0.00000000E+00
  0.00000000E+00  0.00000000E+00  0.00000000E+00
  0.00000000E+00  0.00000000E+00  0.00000000E+00
  0.00000000E+00  0.00000000E+00  0.00000000E+00
  0.00000000E+00  0.00000000E+00  0.00000000E+00
  0.00000000E+00  0.00000000E+00  0.00000000E+00
  0.00000000E+00  0.00000000E+00  0.00000000E+00
  0.00000000E+00  0.00000000E+00  0.00000000E+00
  0.00000000E+00  0.00000000E+00  0.00000000E+00
  0.00000000E+00  0.00000000E+00  0.00000000E+00
  0.00000000E+00  0.00000000E+00  0.00000000E+00
  0.00000000E+00  0.00000000E+00  0.00000000E+00
  0.00000000E+00  0.00000000E+00  0.00000000E+00
  0.00000000E+00  0.00000000E+00  0.00000000E+00
  0.00000000E+00  0.00000000E+00  0.00000000E+00
  0.00000000E+00  0.00000000E+00  0.00000000E+00
  0.00000000E+00  0.00000000E+00  0.00000000E+00
  0.00000000E+00  0.00000000E+00  0.00000000E+00
  0.00000000E+00  0.00000000E+00  0.00000000E+00
  0.00000000E+00  0.00000000E+00  0.00000000E+00
  0.00000000E+00  0.00000000E+00  0.00000000E+00
  0.00000000E+00  0.00000000E+00  0.00000000E+00
  0.00000000E+00  0.00000000E+00  0.00000000E+00
  0.00000000E+00  0.00000000E+00  0.00000000E+00
  0.00000000E+00  0.00000000E+00  0.00000000E+00
  0.00000000E+00  0.00000000E+00  0.00000000E+00
  0.00000000E+00  0.00000000E+00  0.00000000E+00
  0.00000000E+00  0.00000000E+00  0.00000000E+00
  0.00000000E+00  0.00000000E+00  0.00000000E+00
  0.00000000E+00  0.00000000E+00  0.00000000E+00
  0.00000000E+00  0.00000000E+00  0.00000000E+00
  0.00000000E+00  0.00000000E+00  0.00000000E+00
  0.00000000E+00  0.00000000E+00  0.00000000E+00
  0.00000000E+00  0.00000000E+00  0.00000000E+00
  0.00000000E+00  0.00000000E+00  0.00000000E+00
  0.00000000E+00  0.00000000E+00  0.00000000E+00
  0.00000000E+00  0.00000000E+00  0.00000000E+00
  0.00000000E+00  0.00000000E+00  0.00000000E+00
  0.00000000E+00  0.00000000E+00  0.00000000E+00
  0.00000000E+00  0.00000000E+00  0.00000000E+00
  0.00000000E+00  0.00000000E+00  0.00000000E+00
  0.00000000E+00  0.00000000E+00  0.00000000E+00
  0.00000000E+00  0.00000000E+00  0.00000000E+00
  0.00000000E+00  0.00000000E+00  0.00000000E+00
  0.00000000E+00  0.00000000E+00  0.00000000E+00
  0.00000000E+00  0.00000000E+00  0.00000000E+00
  0.00000000E+00  0.00000000E+00  0.00000000E+00
  0.00000000E+00  0.00000000E+00  0.00000000E+00
  0.00000000E+00  0.00000000E+00  0.00000000E+00
  0.00000000E+00  0.00000000E+00  0.00000000E+00
  0.00000000E+00  0.00000000E+00  0.00000000E+00
  0.00000000E+00  0.00000000E+00  0.00000000E+00
  0.00000000E+00  0.00000000E+00  0.00000000E+00
  0.00000000E+00  0.00000000E+00  0.00000000E+00
  0.00000000E+00  0.00000000E+00  0.00000000E+00
  0.00000000E+00  0.00000000E+00  0.00000000E+00
  0.00000000E+00  0.00000000E+00  0.00000000E+00
  0.00000000E+00  0.00000000E+00  0.00000000E+00
  0.00000000E+00  0.00000000E+00  0.00000000E+00
  0.00000000E+00  0.00000000E+00  0.00000000E+00
  0.00000000E+00  0.00000000E+00  0.00000000E+00
  0.00000000E+00  0.00000000E+00  0.00000000E+00
  0.00000000E+00  0.00000000E+00  0.00000000E+00
  0.00000000E+00  0.00000000E+00  0.00000000E+00
  0.00000000E+00  0.00000000E+00  0.00000000E+00
  0.00000000E+00  0.00000000E+00  0.00000000E+00
  0.00000000E+00  0.00000000E+00  0.00000000E+00
  0.00000000E+00  0.00000000E+00  0.00000000E+00
  0.00000000E+00  0.00000000E+00  0.00000000E+00
  0.00000000E+00  0.00000000E+00  0.00000000E+00
  0.00000000E+00  0.00000000E+00  0.00000000E+00
  0.00000000E+00  0.00000000E+00  0.00000000E+00
  0.00000000E+00  0.00000000E+00  0.00000000E+00
  0.00000000E+00  0.00000000E+00  0.00000000E+00
  0.00000000E+00  0.00000000E+00  0.00000000E+00
  0.00000000E+00  0.00000000E+00  0.00000000E+00
  0.00000000E+00  0.00000000E+00  0.00000000E+00
  0.00000000E+00  0.00000000E+00  0.00000000E+00
  0.00000000E+00  0.00000000E+00  0.00000000E+00
  0.00000000E+00  0.00000000E+00  0.00000000E+00
  0.00000000E+00  0.00000000E+00  0.00000000E+00
  0.00000000E+00  0.00000000E+00  0.00000000E+00
  0.00000000E+00  0.00000000E+00  0.00000000E+00
