CONTCAR\(4)                             
   1.00000000000000     
    11.5852003097999994    0.0000000000000000    0.0000000000000000
     0.0000000000000000   11.5630998610999995    0.0000000000000000
     0.0000000000000000    0.0000000000000000   21.2658996581999986
   Eu   I    O 
    18    18    19
Direct
  0.1667504638655314 -0.0000356208262034  0.4399972820853362
  0.0003310099777649  0.1666890393481990  0.5597125248822008
  0.4999500541497217  0.9999693260531376  0.4399883490898216
  0.3333407619077107  0.1667089676269517  0.5598831432877687
  0.8333645413970320  0.0008343246379116  0.4390776010889202
  0.6663329970740043  0.1666828932208793  0.5597092217723029
  0.1667028710331024  0.3334234309448395  0.4400041743163082
  0.9978490067800420  0.4954305295595910  0.5583999894541496
  0.4999401829335419  0.3334204049966282  0.4400090512518583
  0.3333307434686530  0.4941266630520634  0.5594125991766983
  0.8333263303370895  0.3325134049947094  0.4390659919317025
  0.6688216600725477  0.4954298678127108  0.5583983967153490
  0.1676872109636059  0.6666995392193928  0.4432363778797515
  0.9978949982907961  0.8379475694692307  0.5584421497011000
  0.4989898473928924  0.6667051364355586  0.4432369460786703
  0.3333427207914045  0.8392996217708277  0.5594301393188662
  0.8333301487885426  0.6667262583343676  0.4421093757597352
  0.6687866726513829  0.8379618665457580  0.5584384799078326
  0.1648426165376576  0.0006192943892233  0.6623646995246288
  0.0008758987501941  0.1666869606728669  0.3357834193248811
  0.5018509021285162  0.0005469575075611  0.6623398640245858
  0.3333349398958023  0.1666846101148851  0.3359407298235548
  0.8333240209190713  0.0032284500893552  0.6636701085070807
  0.6658227814437063  0.1667765195846455  0.3357722149425267
  0.1645565173128099  0.3331070677505063  0.6623595518874269
  0.0006853825154208  0.5015100400572517  0.3364301798530569
  0.5021181096353641  0.3331182835355387  0.6623660418554165
  0.3333288913044563  0.5013397559589527  0.3367017449727290
  0.8332603533761265  0.3302466343981637  0.6636644853222509
  0.6660646122162336  0.5014630993157614  0.3364547879691816
  0.1714025022413704  0.6666684317604891  0.6860774251267361
  0.0006229812654975  0.8318508681940306  0.3364480481954004
  0.4949119098658699  0.6666560843649439  0.6860471954047699
  0.3333364299867779  0.8320028905617547  0.3366983302157309
  0.8333726271250590  0.6666492782831807  0.6640951501898624
  0.6660772750793409  0.8318841011346013  0.3364502937280821
  0.9995917812955227  0.0024550642386866  0.4986249815331065
  0.1667294211704465  0.1666940735227312  0.4997577332932018
  0.3333503655338369  0.0018593664878420  0.4990936111541405
  0.4999459097103211  0.1666849188719491  0.4997562114391109
  0.6671172277095969  0.0024518210702238  0.4986093136147716
  0.8333303744779009  0.1666711299189890  0.4999603467310835
  0.9995311607777679  0.3308986705950062  0.4986190000719655
  0.1665316702484473  0.4987852921289990  0.5013610812466506
  0.3333082312150867  0.3315510597155586  0.4990892561834494
  0.5001331831959276  0.4987865948665341  0.5013628940804444
  0.6671207801079935  0.3309026213277072  0.4986212531119594
  0.8333329266776091  0.4979900122213154  0.4991061088328101
  0.0006598893192144  0.6667029490724850  0.5026786205458018
  0.1665474145683216  0.8345992216118732  0.5013744192026887
  0.3333397428253054  0.6667028723473745  0.5050973293272919
  0.5001368289246996  0.8346168673448348  0.5013675801459152
  0.6660047088619372  0.6667135025371211  0.5026889620373420
  0.8333384538215529  0.8354022603257090  0.4991655577713056
  0.3332192330839015  0.6677991369248094  0.7261792591107155
 
  0.00000000E+00  0.00000000E+00  0.00000000E+00
  0.00000000E+00  0.00000000E+00  0.00000000E+00
  0.00000000E+00  0.00000000E+00  0.00000000E+00
  0.00000000E+00  0.00000000E+00  0.00000000E+00
  0.00000000E+00  0.00000000E+00  0.00000000E+00
  0.00000000E+00  0.00000000E+00  0.00000000E+00
  0.00000000E+00  0.00000000E+00  0.00000000E+00
  0.00000000E+00  0.00000000E+00  0.00000000E+00
  0.00000000E+00  0.00000000E+00  0.00000000E+00
  0.00000000E+00  0.00000000E+00  0.00000000E+00
  0.00000000E+00  0.00000000E+00  0.00000000E+00
  0.00000000E+00  0.00000000E+00  0.00000000E+00
  0.00000000E+00  0.00000000E+00  0.00000000E+00
  0.00000000E+00  0.00000000E+00  0.00000000E+00
  0.00000000E+00  0.00000000E+00  0.00000000E+00
  0.00000000E+00  0.00000000E+00  0.00000000E+00
  0.00000000E+00  0.00000000E+00  0.00000000E+00
  0.00000000E+00  0.00000000E+00  0.00000000E+00
  0.00000000E+00  0.00000000E+00  0.00000000E+00
  0.00000000E+00  0.00000000E+00  0.00000000E+00
  0.00000000E+00  0.00000000E+00  0.00000000E+00
  0.00000000E+00  0.00000000E+00  0.00000000E+00
  0.00000000E+00  0.00000000E+00  0.00000000E+00
  0.00000000E+00  0.00000000E+00  0.00000000E+00
  0.00000000E+00  0.00000000E+00  0.00000000E+00
  0.00000000E+00  0.00000000E+00  0.00000000E+00
  0.00000000E+00  0.00000000E+00  0.00000000E+00
  0.00000000E+00  0.00000000E+00  0.00000000E+00
  0.00000000E+00  0.00000000E+00  0.00000000E+00
  0.00000000E+00  0.00000000E+00  0.00000000E+00
  0.00000000E+00  0.00000000E+00  0.00000000E+00
  0.00000000E+00  0.00000000E+00  0.00000000E+00
  0.00000000E+00  0.00000000E+00  0.00000000E+00
  0.00000000E+00  0.00000000E+00  0.00000000E+00
  0.00000000E+00  0.00000000E+00  0.00000000E+00
  0.00000000E+00  0.00000000E+00  0.00000000E+00
  0.00000000E+00  0.00000000E+00  0.00000000E+00
  0.00000000E+00  0.00000000E+00  0.00000000E+00
  0.00000000E+00  0.00000000E+00  0.00000000E+00
  0.00000000E+00  0.00000000E+00  0.00000000E+00
  0.00000000E+00  0.00000000E+00  0.00000000E+00
  0.00000000E+00  0.00000000E+00  0.00000000E+00
  0.00000000E+00  0.00000000E+00  0.00000000E+00
  0.00000000E+00  0.00000000E+00  0.00000000E+00
  0.00000000E+00  0.00000000E+00  0.00000000E+00
  0.00000000E+00  0.00000000E+00  0.00000000E+00
  0.00000000E+00  0.00000000E+00  0.00000000E+00
  0.00000000E+00  0.00000000E+00  0.00000000E+00
  0.00000000E+00  0.00000000E+00  0.00000000E+00
  0.00000000E+00  0.00000000E+00  0.00000000E+00
  0.00000000E+00  0.00000000E+00  0.00000000E+00
  0.00000000E+00  0.00000000E+00  0.00000000E+00
  0.00000000E+00  0.00000000E+00  0.00000000E+00
  0.00000000E+00  0.00000000E+00  0.00000000E+00
  0.00000000E+00  0.00000000E+00  0.00000000E+00
