CONTCAR\(2)                             
   1.00000000000000     
    11.6243000031000001    0.0000000000000000    0.0000000000000000
     5.8121268334999998   10.8927857352000004    0.0000000000000000
     0.0000000000000000    0.0000000000000000   21.9750003814999992
   Y    C    I    O 
    18    18    18     1
Direct
  0.1004265892385856  0.1336841547274177  0.4358086093667690
  0.0206558934770923  0.2926594312645741  0.5665671843457927
  0.4403824948580290  0.1192237174211077  0.4394750590301100
  0.3509531576777964  0.2959697664008894  0.5647054560490954
  0.7745224009044339  0.1192740611188026  0.4394505000477517
  0.6867013051591124  0.2962836392549003  0.5647021218023205
  0.1074781015988493  0.4491876277384413  0.4407597164728443
  0.0185316273504701  0.6298434617048771  0.5666519789792992
  0.4379535572272141  0.4571080158862635  0.4433948217874014
  0.3330535400799235  0.6670002443396905  0.5708766008699397
  0.7758786825053647  0.4494364777728476  0.4408578590789976
  0.6836200438587279  0.6296269518878116  0.5667791406939047
  0.1002345875723028  0.7862357504390716  0.4360112270026775
  0.0354765008383615  0.9572286924509695  0.5719402642955058
  0.4448847782858160  0.7865213593364591  0.4360807937934158
  0.3424570839837501  0.9575143724440123  0.5723024206343692
  0.7740401587092235  0.7836608343437326  0.4406219827951542
  0.6866098126336301  0.9613284237732687  0.5651583755725269
  0.2552351172677729  0.1514667776859189  0.5194342035493298
  0.2063780317126140  0.2557248395256974  0.4875833655158174
  0.5902888441045141  0.1538446398535368  0.5167491764388209
  0.5357934872696768  0.2619859180655193  0.4885244344371487
  0.9280141294928700  0.1514259485037128  0.5192978279367917
  0.8716413684904780  0.2558128012222871  0.4876002794308491
  0.2528972124029890  0.4894154223643349  0.5175879259051003
  0.2016584349430321  0.5965922837898237  0.4892829686867349
  0.5903622080160087  0.4896422965232082  0.5176033521369793
  0.5334400114698266  0.5970833361774763  0.4894801092815018
  0.9241433042350959  0.4845286475590421  0.5170654016830326
  0.8691670985656730  0.5933717421669957  0.4895826084510185
  0.2535443926372358  0.8241938049002394  0.4957001999056750
  0.1996076212482924  0.9334723927655871  0.4719457867915282
  0.5855604140910063  0.8231113729167049  0.5191781468269938
  0.5355482754046388  0.9255651006903949  0.4867844847735618
  0.9237967792806753  0.8229518848603509  0.5188422675200749
  0.8722291825998983  0.9256450114412674  0.4866122074145521
  0.1187194787465549  0.0990677281585511  0.6713174368881076
  0.3278244895037704  0.0143825478790997  0.3420460769964920
  0.4655500328015711  0.0715200292016930  0.6598522306466504
  0.6623041398004984  0.0092924840861188  0.3451416414676604
  0.7985604363821591  0.0712630653394500  0.6594375640531268
  0.9919646811065862  0.0142952437556711  0.3419886832262270
  0.1308583991532725  0.4058144298795641  0.6597673147687915
  0.3288212338368134  0.3448552750279629  0.3460817977249488
  0.4610593222527574  0.4113837794333269  0.6561152198912517
  0.6597484478824236  0.3444854087968696  0.3461602882924336
  0.7977479897476273  0.4049545884310206  0.6597779339979778
  0.9919593190950554  0.3491903821250436  0.3424495027452487
  0.1234666624886814  0.7226763387215198  0.6708208304622049
  0.3289318631796718  0.6742921914781984  0.3424948186619527
  0.4875185409322470  0.7212815176423166  0.6716204085190367
  0.6652743620670234  0.6738379568473841  0.3436152009380242
  0.7960467377988093  0.7407026992544946  0.6601860204791090
  0.9929216477580073  0.6740769412940151  0.3433601132532405
  0.2374548752754460  0.8606267513304262  0.5968171556840725
 
  0.00000000E+00  0.00000000E+00  0.00000000E+00
  0.00000000E+00  0.00000000E+00  0.00000000E+00
  0.00000000E+00  0.00000000E+00  0.00000000E+00
  0.00000000E+00  0.00000000E+00  0.00000000E+00
  0.00000000E+00  0.00000000E+00  0.00000000E+00
  0.00000000E+00  0.00000000E+00  0.00000000E+00
  0.00000000E+00  0.00000000E+00  0.00000000E+00
  0.00000000E+00  0.00000000E+00  0.00000000E+00
  0.00000000E+00  0.00000000E+00  0.00000000E+00
  0.00000000E+00  0.00000000E+00  0.00000000E+00
  0.00000000E+00  0.00000000E+00  0.00000000E+00
  0.00000000E+00  0.00000000E+00  0.00000000E+00
  0.00000000E+00  0.00000000E+00  0.00000000E+00
  0.00000000E+00  0.00000000E+00  0.00000000E+00
  0.00000000E+00  0.00000000E+00  0.00000000E+00
  0.00000000E+00  0.00000000E+00  0.00000000E+00
  0.00000000E+00  0.00000000E+00  0.00000000E+00
  0.00000000E+00  0.00000000E+00  0.00000000E+00
  0.00000000E+00  0.00000000E+00  0.00000000E+00
  0.00000000E+00  0.00000000E+00  0.00000000E+00
  0.00000000E+00  0.00000000E+00  0.00000000E+00
  0.00000000E+00  0.00000000E+00  0.00000000E+00
  0.00000000E+00  0.00000000E+00  0.00000000E+00
  0.00000000E+00  0.00000000E+00  0.00000000E+00
  0.00000000E+00  0.00000000E+00  0.00000000E+00
  0.00000000E+00  0.00000000E+00  0.00000000E+00
  0.00000000E+00  0.00000000E+00  0.00000000E+00
  0.00000000E+00  0.00000000E+00  0.00000000E+00
  0.00000000E+00  0.00000000E+00  0.00000000E+00
  0.00000000E+00  0.00000000E+00  0.00000000E+00
  0.00000000E+00  0.00000000E+00  0.00000000E+00
  0.00000000E+00  0.00000000E+00  0.00000000E+00
  0.00000000E+00  0.00000000E+00  0.00000000E+00
  0.00000000E+00  0.00000000E+00  0.00000000E+00
  0.00000000E+00  0.00000000E+00  0.00000000E+00
  0.00000000E+00  0.00000000E+00  0.00000000E+00
  0.00000000E+00  0.00000000E+00  0.00000000E+00
  0.00000000E+00  0.00000000E+00  0.00000000E+00
  0.00000000E+00  0.00000000E+00  0.00000000E+00
  0.00000000E+00  0.00000000E+00  0.00000000E+00
  0.00000000E+00  0.00000000E+00  0.00000000E+00
  0.00000000E+00  0.00000000E+00  0.00000000E+00
  0.00000000E+00  0.00000000E+00  0.00000000E+00
  0.00000000E+00  0.00000000E+00  0.00000000E+00
  0.00000000E+00  0.00000000E+00  0.00000000E+00
  0.00000000E+00  0.00000000E+00  0.00000000E+00
  0.00000000E+00  0.00000000E+00  0.00000000E+00
  0.00000000E+00  0.00000000E+00  0.00000000E+00
  0.00000000E+00  0.00000000E+00  0.00000000E+00
  0.00000000E+00  0.00000000E+00  0.00000000E+00
  0.00000000E+00  0.00000000E+00  0.00000000E+00
  0.00000000E+00  0.00000000E+00  0.00000000E+00
  0.00000000E+00  0.00000000E+00  0.00000000E+00
  0.00000000E+00  0.00000000E+00  0.00000000E+00
  0.00000000E+00  0.00000000E+00  0.00000000E+00
