CONTCAR\(5)                             
   1.00000000000000     
    11.7456998825000003    0.0000000000000000    0.0000000000000000
     0.0000000000000000   17.6870002747000008    0.0000000000000000
     0.0000000000000000    0.0000000000000000   19.5771007537999999
   Ti   Ge   Te   O    H 
     6     6    36     1     1
Direct
  0.0874242814383084  0.4768052154207620  0.5135132593727204
  0.2518604162966144  0.9517798284785256  0.4863181974331818
  0.4229640018724731  0.4755179834312416  0.5128642952782437
  0.5853600813753209  0.9515758261876062  0.4856823776500699
  0.7515885126496750  0.4751851971061218  0.5127655634178867
  0.9183863196245808  0.9516731569382662  0.4863489860476285
  0.2525168466979245  0.8010470708841707  0.4781860721179302
  0.0862416949454030  0.6277445615033954  0.5224118290129446
  0.5856238258347820  0.8007746025200028  0.4784293900338716
  0.4199894867745400  0.6269408422555557  0.5225405379617023
  0.9182395261698496  0.8008215783531284  0.4781440971627197
  0.7524481288583540  0.6266504684405309  0.5225190430884044
  0.0849630659828207  0.9221140183539096  0.3800879617543280
  0.2534143674806490  0.2543877742128751  0.5753210414131329
  0.2517027921747970  0.0611016462290692  0.3796749801097814
  0.0849906978078497  0.8966574464898138  0.5831309621524570
  0.2535967911941839  0.5058748110729885  0.6199136234697302
  0.0875919663291515  0.3669203214035722  0.6194087238474451
  0.0850828834760412  0.1735367646348309  0.4225301890759362
  0.2519657840419010  0.7066383223037055  0.5903644128164141
  0.0857105781113092  0.7228622334483905  0.4102663693842472
  0.2541759654544329  0.3778544068449112  0.4582764603087929
  0.0850013037469873  0.0507185230589415  0.5410914721456422
  0.2548218746071411  0.5318880076587703  0.4166986716914987
  0.4185313305041186  0.9218331664866770  0.3796266020600995
  0.5866111786876452  0.2519360734637771  0.5829152944869934
  0.5852050119980030  0.0609999162136335  0.3789520655043516
  0.4187731459697838  0.8976274475931308  0.5833368593431889
  0.5872106228591799  0.5050463064077768  0.6199457879374010
  0.4176930849074185  0.3676036766661609  0.6199080586600871
  0.4197539539792997  0.1741110036643059  0.4217484908871399
  0.5864413192835214  0.7054058890841092  0.5904757521128542
  0.4194105758266952  0.7218444339355435  0.4108615398811121
  0.5873507397043902  0.3737189730026754  0.4553545994093381
  0.4190521229205585  0.0510933653933921  0.5401748235479202
  0.5870953736447049  0.5374204527049762  0.4207980267380472
  0.7522886762634260  0.9217801144575009  0.3795493397864763
  0.9214440518280402  0.2541386107665836  0.5757786261351725
  0.9184860891429949  0.0609704967021589  0.3796588117506277
  0.7516410387592193  0.8975922713516429  0.5834071313746821
  0.9204139678906343  0.5055365301291151  0.6198734872990073
  0.7573154819685572  0.3673167975307572  0.6200643014961514
  0.7508795860372278  0.1742298300896404  0.4217130811504657
  0.9203831952018405  0.7063306373403174  0.5904002950100576
  0.7519216779703846  0.7214131997375702  0.4108322696461419
  0.9213871204030768  0.3775779742572769  0.4584117817187136
  0.7512200042462454  0.0512064510467402  0.5401707717573989
  0.9197973669429921  0.5311734915709978  0.4165287198505189
  0.5833249268188432  0.1976611714872702  0.6751700665508922
  0.5870074742961328  0.2349409696851609  0.7120252751584351
 
  0.00000000E+00  0.00000000E+00  0.00000000E+00
  0.00000000E+00  0.00000000E+00  0.00000000E+00
  0.00000000E+00  0.00000000E+00  0.00000000E+00
  0.00000000E+00  0.00000000E+00  0.00000000E+00
  0.00000000E+00  0.00000000E+00  0.00000000E+00
  0.00000000E+00  0.00000000E+00  0.00000000E+00
  0.00000000E+00  0.00000000E+00  0.00000000E+00
  0.00000000E+00  0.00000000E+00  0.00000000E+00
  0.00000000E+00  0.00000000E+00  0.00000000E+00
  0.00000000E+00  0.00000000E+00  0.00000000E+00
  0.00000000E+00  0.00000000E+00  0.00000000E+00
  0.00000000E+00  0.00000000E+00  0.00000000E+00
  0.00000000E+00  0.00000000E+00  0.00000000E+00
  0.00000000E+00  0.00000000E+00  0.00000000E+00
  0.00000000E+00  0.00000000E+00  0.00000000E+00
  0.00000000E+00  0.00000000E+00  0.00000000E+00
  0.00000000E+00  0.00000000E+00  0.00000000E+00
  0.00000000E+00  0.00000000E+00  0.00000000E+00
  0.00000000E+00  0.00000000E+00  0.00000000E+00
  0.00000000E+00  0.00000000E+00  0.00000000E+00
  0.00000000E+00  0.00000000E+00  0.00000000E+00
  0.00000000E+00  0.00000000E+00  0.00000000E+00
  0.00000000E+00  0.00000000E+00  0.00000000E+00
  0.00000000E+00  0.00000000E+00  0.00000000E+00
  0.00000000E+00  0.00000000E+00  0.00000000E+00
  0.00000000E+00  0.00000000E+00  0.00000000E+00
  0.00000000E+00  0.00000000E+00  0.00000000E+00
  0.00000000E+00  0.00000000E+00  0.00000000E+00
  0.00000000E+00  0.00000000E+00  0.00000000E+00
  0.00000000E+00  0.00000000E+00  0.00000000E+00
  0.00000000E+00  0.00000000E+00  0.00000000E+00
  0.00000000E+00  0.00000000E+00  0.00000000E+00
  0.00000000E+00  0.00000000E+00  0.00000000E+00
  0.00000000E+00  0.00000000E+00  0.00000000E+00
  0.00000000E+00  0.00000000E+00  0.00000000E+00
  0.00000000E+00  0.00000000E+00  0.00000000E+00
  0.00000000E+00  0.00000000E+00  0.00000000E+00
  0.00000000E+00  0.00000000E+00  0.00000000E+00
  0.00000000E+00  0.00000000E+00  0.00000000E+00
  0.00000000E+00  0.00000000E+00  0.00000000E+00
  0.00000000E+00  0.00000000E+00  0.00000000E+00
  0.00000000E+00  0.00000000E+00  0.00000000E+00
  0.00000000E+00  0.00000000E+00  0.00000000E+00
  0.00000000E+00  0.00000000E+00  0.00000000E+00
  0.00000000E+00  0.00000000E+00  0.00000000E+00
  0.00000000E+00  0.00000000E+00  0.00000000E+00
  0.00000000E+00  0.00000000E+00  0.00000000E+00
  0.00000000E+00  0.00000000E+00  0.00000000E+00
  0.00000000E+00  0.00000000E+00  0.00000000E+00
  0.00000000E+00  0.00000000E+00  0.00000000E+00
