CONTCAR\(2)                             
   1.00000000000000     
    11.7135000228999999    0.0000000000000000    0.0000000000000000
     0.0000000000000000   10.5269002914000005    0.0000000000000000
     0.0000000000000000    0.0000000000000000   20.5844001769999991
   Mn   Sb   Se   I    O    H 
     6     6    12     6     1     1
Direct
  0.3299639851881295  0.9959153356868597  0.5041527246221023
  0.9983515098340021  0.4900603588610721  0.5043746622926264
  0.6668419091210112  0.9857968302610303  0.4978835633384477
  0.3315061262036707  0.4944634692498298  0.5047900717671112
  0.0043291477226148  0.0013642512651941  0.5000493497715723
  0.6668088803623604  0.4852928536685823  0.5036669951388433
  0.1790532894932397  0.2976675373687101  0.6283353375757059
  0.1658948280886179  0.7001146947402788  0.3888222263649439
  0.4948426325440991  0.2864866841655811  0.6239615466211390
  0.4938083551328063  0.7065679121056192  0.3863921148200475
  0.8330065917759129  0.2699427254057198  0.6111862619933817
  0.8380865670111675  0.7095006749116806  0.3860878241239760
  0.0019331272221237  0.2425987332634776  0.5288744281322622
  0.1656114415795003  0.4617788557556750  0.4154954530245547
  0.9999246886977886  0.7504710985669760  0.4752084614177505
  0.1641129972431798  0.5314276436811127  0.5928577413400973
  0.3326355307828166  0.2405344088030432  0.5353177960557787
  0.5066670748162565  0.4690750046299144  0.4185081205547192
  0.3323195014885840  0.7493049848129374  0.4749828351428320
  0.5097264345142420  0.5230698459570036  0.5892082254352928
  0.6650767194676774  0.2266116573722954  0.5273187546245381
  0.8234953243570189  0.4717558907176453  0.4170870479752011
  0.6664994371722130  0.7719849099582774  0.4734955592543031
  0.8248719382916434  0.5159245527543348  0.5881197469769717
  0.1653420641179153  0.9346633845533106  0.5995349514384714
  0.1689105871046976  0.0531127644347649  0.4030826348269940
  0.5085215077258027  0.9387879119203077  0.5923449831639758
  0.5059860746176028  0.0453206880759112  0.4108587506746986
  0.8262578320227689  0.9434114502237989  0.5904234659137586
  0.8241135469519918  0.0403629567510393  0.4075529017950217
  0.3350632008612635  0.3447019774822095  0.6837871316059463
  0.3369571104872833  0.4372978425957825  0.6890883612169603
 
  0.00000000E+00  0.00000000E+00  0.00000000E+00
  0.00000000E+00  0.00000000E+00  0.00000000E+00
  0.00000000E+00  0.00000000E+00  0.00000000E+00
  0.00000000E+00  0.00000000E+00  0.00000000E+00
  0.00000000E+00  0.00000000E+00  0.00000000E+00
  0.00000000E+00  0.00000000E+00  0.00000000E+00
  0.00000000E+00  0.00000000E+00  0.00000000E+00
  0.00000000E+00  0.00000000E+00  0.00000000E+00
  0.00000000E+00  0.00000000E+00  0.00000000E+00
  0.00000000E+00  0.00000000E+00  0.00000000E+00
  0.00000000E+00  0.00000000E+00  0.00000000E+00
  0.00000000E+00  0.00000000E+00  0.00000000E+00
  0.00000000E+00  0.00000000E+00  0.00000000E+00
  0.00000000E+00  0.00000000E+00  0.00000000E+00
  0.00000000E+00  0.00000000E+00  0.00000000E+00
  0.00000000E+00  0.00000000E+00  0.00000000E+00
  0.00000000E+00  0.00000000E+00  0.00000000E+00
  0.00000000E+00  0.00000000E+00  0.00000000E+00
  0.00000000E+00  0.00000000E+00  0.00000000E+00
  0.00000000E+00  0.00000000E+00  0.00000000E+00
  0.00000000E+00  0.00000000E+00  0.00000000E+00
  0.00000000E+00  0.00000000E+00  0.00000000E+00
  0.00000000E+00  0.00000000E+00  0.00000000E+00
  0.00000000E+00  0.00000000E+00  0.00000000E+00
  0.00000000E+00  0.00000000E+00  0.00000000E+00
  0.00000000E+00  0.00000000E+00  0.00000000E+00
  0.00000000E+00  0.00000000E+00  0.00000000E+00
  0.00000000E+00  0.00000000E+00  0.00000000E+00
  0.00000000E+00  0.00000000E+00  0.00000000E+00
  0.00000000E+00  0.00000000E+00  0.00000000E+00
  0.00000000E+00  0.00000000E+00  0.00000000E+00
  0.00000000E+00  0.00000000E+00  0.00000000E+00
