CONTCAR\(11)                            
   1.00000000000000     
    15.5289001464999998    0.0000000000000000    0.0000000000000000
     0.0000000000000000   11.7992000580000003    0.0000000000000000
     0.0000000000000000    0.0000000000000000   21.8141002654999987
   Hf   Te   O    H 
    16    48     1     1
Direct
  0.1888530434937212  0.3271869864495698  0.4225611188331397
  0.0644177606361621  0.0796384068745678  0.5773743620967496
  0.4394080313747600  0.3287013866140344  0.4265082265456430
  0.3142392516544475  0.0815653640286594  0.5796868195462656
  0.6877987195946793  0.3297623537869519  0.4263584832826928
  0.5627379372710550  0.0810579289479614  0.5797770668687697
  0.9380988111220658  0.3278366984100475  0.4230093180974622
  0.8144519573617852  0.0796582082588763  0.5781775975472672
  0.1902226045944699  0.8296081996435846  0.4228551870575870
  0.0632676361249801  0.5772212667615699  0.5717321426562055
  0.4396578832351118  0.8302586906546422  0.4259937383088973
  0.3088082505280255  0.5770115985165302  0.5747806181717622
  0.6900086947181887  0.8305565718905258  0.4254320867146307
  0.5668555146550356  0.5918233912691839  0.5851076460414892
  0.9400959257066513  0.8290177921311138  0.4237984711978635
  0.8177354416963678  0.5790712253939801  0.5755526648459277
  0.1897582076372056  0.0790425859823820  0.4765027763896517
  0.0636351236385797  0.3266903059700123  0.5232953707578708
  0.1823368610215875  0.4545406773720069  0.6503721416962996
  0.0634661161384243  0.4492900973979044  0.3451842160081242
  0.1878066543361886  0.1983176515690424  0.6592827714942217
  0.0634586705889407  0.2089240581403328  0.3432825629713898
  0.4386800639183674  0.0800257732678373  0.4780883016286725
  0.3117597949369620  0.3276565771164930  0.5246117378680455
  0.4313028529823307  0.4626185461667592  0.6540953839503111
  0.3156980346248719  0.4503180975055062  0.3479776923820567
  0.4395270823944587  0.2046795837646114  0.6575958040542719
  0.3159914065394862  0.2098785779818644  0.3446564824813977
  0.6885430344334591  0.0813441886536602  0.4782979491368363
  0.5635278750652852  0.3284999493868903  0.5281483130476710
  0.6865242690297586  0.4638490465758757  0.6579029844524510
  0.5628799970280139  0.4516788718398550  0.3496665101707442
  0.6921686801617785  0.1975389770357946  0.6592987209136812
  0.5642227282848190  0.2111196671853207  0.3465375172250966
  0.9387948085487080  0.0790908653063096  0.4765435678016766
  0.8148208943932349  0.3286009203312734  0.5256327613909325
  0.9369823214976867  0.4585534706199655  0.6538164044670340
  0.8111831735684109  0.4502852501046455  0.3470992376097495
  0.9415127897431376  0.1979757571242290  0.6572441793851889
  0.8119587373367408  0.2096118338819491  0.3460660958364511
  0.1887633171234405  0.5795224482050678  0.4735723299136316
  0.0659725307276293  0.8280245467875859  0.5241581124378712
  0.1876691877542261  0.9577229865925143  0.6536537807334970
  0.0646131100135939  0.9501889161553164  0.3463708919309081
  0.1838406118912184  0.6970693079076810  0.6718902017462347
  0.0646625010944543  0.7100211694448767  0.3432549485574217
  0.4420547374188584  0.5828593003355660  0.4811539820156935
  0.3123494554070092  0.8283135176473535  0.5252690601324714
  0.4351556517763572  0.9603482507738005  0.6570874252795864
  0.3157742282692298  0.9503884525146080  0.3466588076572355
  0.3658043632043513  0.7043163730026845  0.6805178973132804
  0.3170022508495274  0.7099271364486838  0.3452752402195302
  0.6887040870995021  0.5817682611572303  0.4795145239586407
  0.5660399598945220  0.8344542319028566  0.5260936770955109
  0.6877811085841896  0.9585582810263695  0.6565751762244053
  0.5645791382812105  0.9514581754569466  0.3479230694446302
  0.7215045744585480  0.6974917346070449  0.6664187166652656
  0.5648875278327811  0.7112907379477933  0.3470911675078133
  0.9393605683402657  0.5778977315397894  0.4739861057004403
  0.8165955786478047  0.8293235427267563  0.5255305775028817
  0.9383798397421804  0.9578458149939965  0.6550139822863017
  0.8142363483779018  0.9503029474013440  0.3471860396875215
  0.9567235132815735  0.6968473345166410  0.6578902709881367
  0.8140086214350427  0.7095159566692015  0.3458443455268253
  0.5227686063794375  0.6930728735087069  0.6528009979796698
  0.5466409554991807  0.7688625988172181  0.6594529395623884
 
  0.00000000E+00  0.00000000E+00  0.00000000E+00
  0.00000000E+00  0.00000000E+00  0.00000000E+00
  0.00000000E+00  0.00000000E+00  0.00000000E+00
  0.00000000E+00  0.00000000E+00  0.00000000E+00
  0.00000000E+00  0.00000000E+00  0.00000000E+00
  0.00000000E+00  0.00000000E+00  0.00000000E+00
  0.00000000E+00  0.00000000E+00  0.00000000E+00
  0.00000000E+00  0.00000000E+00  0.00000000E+00
  0.00000000E+00  0.00000000E+00  0.00000000E+00
  0.00000000E+00  0.00000000E+00  0.00000000E+00
  0.00000000E+00  0.00000000E+00  0.00000000E+00
  0.00000000E+00  0.00000000E+00  0.00000000E+00
  0.00000000E+00  0.00000000E+00  0.00000000E+00
  0.00000000E+00  0.00000000E+00  0.00000000E+00
  0.00000000E+00  0.00000000E+00  0.00000000E+00
  0.00000000E+00  0.00000000E+00  0.00000000E+00
  0.00000000E+00  0.00000000E+00  0.00000000E+00
  0.00000000E+00  0.00000000E+00  0.00000000E+00
  0.00000000E+00  0.00000000E+00  0.00000000E+00
  0.00000000E+00  0.00000000E+00  0.00000000E+00
  0.00000000E+00  0.00000000E+00  0.00000000E+00
  0.00000000E+00  0.00000000E+00  0.00000000E+00
  0.00000000E+00  0.00000000E+00  0.00000000E+00
  0.00000000E+00  0.00000000E+00  0.00000000E+00
  0.00000000E+00  0.00000000E+00  0.00000000E+00
  0.00000000E+00  0.00000000E+00  0.00000000E+00
  0.00000000E+00  0.00000000E+00  0.00000000E+00
  0.00000000E+00  0.00000000E+00  0.00000000E+00
  0.00000000E+00  0.00000000E+00  0.00000000E+00
  0.00000000E+00  0.00000000E+00  0.00000000E+00
  0.00000000E+00  0.00000000E+00  0.00000000E+00
  0.00000000E+00  0.00000000E+00  0.00000000E+00
  0.00000000E+00  0.00000000E+00  0.00000000E+00
  0.00000000E+00  0.00000000E+00  0.00000000E+00
  0.00000000E+00  0.00000000E+00  0.00000000E+00
  0.00000000E+00  0.00000000E+00  0.00000000E+00
  0.00000000E+00  0.00000000E+00  0.00000000E+00
  0.00000000E+00  0.00000000E+00  0.00000000E+00
  0.00000000E+00  0.00000000E+00  0.00000000E+00
  0.00000000E+00  0.00000000E+00  0.00000000E+00
  0.00000000E+00  0.00000000E+00  0.00000000E+00
  0.00000000E+00  0.00000000E+00  0.00000000E+00
  0.00000000E+00  0.00000000E+00  0.00000000E+00
  0.00000000E+00  0.00000000E+00  0.00000000E+00
  0.00000000E+00  0.00000000E+00  0.00000000E+00
  0.00000000E+00  0.00000000E+00  0.00000000E+00
  0.00000000E+00  0.00000000E+00  0.00000000E+00
  0.00000000E+00  0.00000000E+00  0.00000000E+00
  0.00000000E+00  0.00000000E+00  0.00000000E+00
  0.00000000E+00  0.00000000E+00  0.00000000E+00
  0.00000000E+00  0.00000000E+00  0.00000000E+00
  0.00000000E+00  0.00000000E+00  0.00000000E+00
  0.00000000E+00  0.00000000E+00  0.00000000E+00
  0.00000000E+00  0.00000000E+00  0.00000000E+00
  0.00000000E+00  0.00000000E+00  0.00000000E+00
  0.00000000E+00  0.00000000E+00  0.00000000E+00
  0.00000000E+00  0.00000000E+00  0.00000000E+00
  0.00000000E+00  0.00000000E+00  0.00000000E+00
  0.00000000E+00  0.00000000E+00  0.00000000E+00
  0.00000000E+00  0.00000000E+00  0.00000000E+00
  0.00000000E+00  0.00000000E+00  0.00000000E+00
  0.00000000E+00  0.00000000E+00  0.00000000E+00
  0.00000000E+00  0.00000000E+00  0.00000000E+00
  0.00000000E+00  0.00000000E+00  0.00000000E+00
  0.00000000E+00  0.00000000E+00  0.00000000E+00
  0.00000000E+00  0.00000000E+00  0.00000000E+00
