CONTCAR\(5)                             
   1.00000000000000     
    13.3212995528999993    0.0000000000000000    0.0000000000000000
    -6.6606497764999997   11.5365838241999992    0.0000000000000000
     0.0000000000000000    0.0000000000000000   18.1305007935000013
   Ta   S    O 
    16    32     1
Direct
  0.1708869061329255  0.0854098216657681  0.5012465706738360
  0.4145814479770205  0.0853898769069600  0.5012543384383907
  0.6695078464521298  0.0873767000998855  0.5015570948312039
  0.9178484328919903  0.0873065233215867  0.5015523351034843
  0.1676398726434975  0.3363167709389582  0.5011346464654545
  0.4119728346519727  0.3239200621360708  0.5003040319060268
  0.6686958972129176  0.3362852446477989  0.5011298614197366
  0.9177180259810281  0.3354518607603589  0.5015125395734661
  0.1707084957622027  0.5904561908450005  0.5009551484700152
  0.4119446691490936  0.5931555918602703  0.4999777178501162
  0.6811687486873694  0.5931382316882802  0.5000532691686036
  0.9196959282913536  0.5904068629954071  0.5010105535551618
  0.1683673566618597  0.8366078617889676  0.5011109439583500
  0.4145477226969976  0.8343711765010473  0.5009894822175788
  0.6687208240643528  0.8374709254263810  0.5009818401608184
  0.9197147754941691  0.8342879011267113  0.5011253002090255
  0.0017547884538018  0.0031826352339931  0.5865442753261192
  0.0017243226946819  0.0035140050223382  0.4160416714112219
  0.2509766026493140  0.0019431053554209  0.5886337524494504
  0.2511620968050518  0.0022777214293141  0.4137320337123560
  0.5014489000286609  0.0031637463003444  0.5865276227625931
  0.5019119653361505  0.0036297587876081  0.4159954952735294
  0.7514783621797615  0.0029813694986751  0.5879350366285703
  0.7519673035688386  0.0039158254479369  0.4149077793760517
  0.0020341805197959  0.2534862066644842  0.5880113430377500
  0.0013860169550271  0.2531595530134390  0.4148846090017508
  0.2503753376918337  0.2530388765605516  0.5879828349197913
  0.2487158636339837  0.2521450363778156  0.4140411888271529
  0.5026679119520511  0.2530430742491627  0.5879819887146379
  0.5034420414539008  0.2521254940871550  0.4140427798015938
  0.7515017450051964  0.2535304145965407  0.5880483330076858
  0.7518374517651646  0.2531839320787867  0.4148584315852826
  0.0017875007771035  0.5035470963334890  0.5864148324959836
  0.0014633151648347  0.5029554449218590  0.4158756009832869
  0.2504319066460658  0.5026118160102114  0.5877420803293437
  0.2486015660669546  0.5014292377426288  0.4138465037921491
  0.5017769838220431  0.5037669147798975  0.5780780745142777
  0.5016593536907329  0.5032611057037870  0.4244435444499840
  0.7520776250753151  0.5025293728974967  0.5877685652973295
  0.7528138830195200  0.5014285400378459  0.4139004946003481
  0.0029400862204551  0.7538813090419516  0.5884975449354586
  0.0028471951250816  0.7539664684778420  0.4136316138622874
  0.2509891281382276  0.7538763979441361  0.5884654475679820
  0.2510928543668403  0.7539280129627078  0.4135276764416489
  0.5025065097355018  0.7547581838243239  0.5876785743775778
  0.5035616978440753  0.7564914104329648  0.4138115161861246
  0.7519897986675081  0.7546703556241724  0.5877777105699340
  0.7529783581662260  0.7564868631048997  0.4138841542796971
  0.5018976230294042  0.5041891497467627  0.6608108224798399
 
  0.00000000E+00  0.00000000E+00  0.00000000E+00
  0.00000000E+00  0.00000000E+00  0.00000000E+00
  0.00000000E+00  0.00000000E+00  0.00000000E+00
  0.00000000E+00  0.00000000E+00  0.00000000E+00
  0.00000000E+00  0.00000000E+00  0.00000000E+00
  0.00000000E+00  0.00000000E+00  0.00000000E+00
  0.00000000E+00  0.00000000E+00  0.00000000E+00
  0.00000000E+00  0.00000000E+00  0.00000000E+00
  0.00000000E+00  0.00000000E+00  0.00000000E+00
  0.00000000E+00  0.00000000E+00  0.00000000E+00
  0.00000000E+00  0.00000000E+00  0.00000000E+00
  0.00000000E+00  0.00000000E+00  0.00000000E+00
  0.00000000E+00  0.00000000E+00  0.00000000E+00
  0.00000000E+00  0.00000000E+00  0.00000000E+00
  0.00000000E+00  0.00000000E+00  0.00000000E+00
  0.00000000E+00  0.00000000E+00  0.00000000E+00
  0.00000000E+00  0.00000000E+00  0.00000000E+00
  0.00000000E+00  0.00000000E+00  0.00000000E+00
  0.00000000E+00  0.00000000E+00  0.00000000E+00
  0.00000000E+00  0.00000000E+00  0.00000000E+00
  0.00000000E+00  0.00000000E+00  0.00000000E+00
  0.00000000E+00  0.00000000E+00  0.00000000E+00
  0.00000000E+00  0.00000000E+00  0.00000000E+00
  0.00000000E+00  0.00000000E+00  0.00000000E+00
  0.00000000E+00  0.00000000E+00  0.00000000E+00
  0.00000000E+00  0.00000000E+00  0.00000000E+00
  0.00000000E+00  0.00000000E+00  0.00000000E+00
  0.00000000E+00  0.00000000E+00  0.00000000E+00
  0.00000000E+00  0.00000000E+00  0.00000000E+00
  0.00000000E+00  0.00000000E+00  0.00000000E+00
  0.00000000E+00  0.00000000E+00  0.00000000E+00
  0.00000000E+00  0.00000000E+00  0.00000000E+00
  0.00000000E+00  0.00000000E+00  0.00000000E+00
  0.00000000E+00  0.00000000E+00  0.00000000E+00
  0.00000000E+00  0.00000000E+00  0.00000000E+00
  0.00000000E+00  0.00000000E+00  0.00000000E+00
  0.00000000E+00  0.00000000E+00  0.00000000E+00
  0.00000000E+00  0.00000000E+00  0.00000000E+00
  0.00000000E+00  0.00000000E+00  0.00000000E+00
  0.00000000E+00  0.00000000E+00  0.00000000E+00
  0.00000000E+00  0.00000000E+00  0.00000000E+00
  0.00000000E+00  0.00000000E+00  0.00000000E+00
  0.00000000E+00  0.00000000E+00  0.00000000E+00
  0.00000000E+00  0.00000000E+00  0.00000000E+00
  0.00000000E+00  0.00000000E+00  0.00000000E+00
  0.00000000E+00  0.00000000E+00  0.00000000E+00
  0.00000000E+00  0.00000000E+00  0.00000000E+00
  0.00000000E+00  0.00000000E+00  0.00000000E+00
  0.00000000E+00  0.00000000E+00  0.00000000E+00
