CONTCAR\(10)                            
   1.00000000000000     
    12.0179996490000001    0.0000000000000000    0.0000000000000000
     5.5443836140000000   17.3830097696000010    0.0000000000000000
     0.0000000000000000    0.0000000000000000   18.4081001282000010
   Nb   Ir   Se   O    H 
    16     4    40     1     1
Selective dynamics
Direct
  0.3168585628802560  0.4157776798591613  0.5023590647299727   F   F   F
  0.3778187222859870  0.2005662852088363  0.5030726828732952   F   F   F
  0.0482116553351517  0.0021533320023579  0.4997550994668885   F   F   F
  0.0939180270905737  0.3186835299668971  0.4984883644553193   F   F   F
  0.8201172573496578  0.4138114932098347  0.5038387169790823   F   F   F
  0.8757136936124681  0.2051481031337801  0.5056212257009705   F   F   F
  0.5480900829615720  0.9992623465115926  0.5019938690972481   F   F   F
  0.5861100716672212  0.3110927663400957  0.5016783374894871   F   F   F
  0.3182562092391166  0.9192353725934836  0.4994621366420731   F   F   F
  0.3751667251222983  0.6982910943921610  0.5079904368203287   F   F   F
  0.0453501618288996  0.4951022413712138  0.5056334393861661   F   F   F
  0.0826751204960132  0.8102571287472529  0.4986135323360585   F   F   F
  0.8162622916758977  0.9183264671986535  0.4995249406217965   F   F   F
  0.8803111877590268  0.6919272012095732  0.5035985636632816   F   F   F
  0.5474912669642436  0.4920009560834160  0.5088525992056603   F   F   F
  0.5869304198038421  0.8128114150056049  0.4991395505309555   F   F   F
  0.2154784402747580  0.0955999385863748  0.5007864643422124   F   F   F
  0.7166351986664949  0.0942646602495216  0.5025689286685378   F   F   F
  0.2168199479390580  0.5921985376317380  0.5044622891084671   F   F   F
  0.7157607575562466  0.5909766445920113  0.5046459000247339   F   F   F
  0.1889385935051067  0.0065194781642433  0.5995227342632106   F   F   F
  0.0475355721334978  0.1059336711586525  0.4133430164314191   F   F   F
  0.2725310376888146  0.3041624796167710  0.5891667684425173   F   F   F
  0.1556789543029495  0.4033080612331830  0.4059216654668489   F   F   F
  0.3808423373743395  0.0953262060469768  0.5887192265000465   F   F   F
  0.2275901019288042  0.2015716218989496  0.4107694015817032   F   F   F
  0.4766164641915935  0.4061965740716360  0.5946718952775782   F   F   F
  0.3581968854332445  0.0084045550433203  0.4105912136370904   F   F   F
  0.0750479669790991  0.1997378340626241  0.5751015085937468   F   F   F
  0.4321198352366480  0.3044765601842769  0.4121543575565312   F   F   F
  0.6896267875092903  0.0046939479650518  0.6008085673371610   F   F   F
  0.5475745067557938  0.1053866026030761  0.4152945288125096   F   F   F
  0.7712193747680374  0.3030267127010404  0.5925652085157864   F   F   F
  0.6560844054593034  0.4000372897917117  0.4122458194333873   F   F   F
  0.8849123477830005  0.0938584807029983  0.5876774622637555   F   F   F
  0.7254028858654706  0.2013107873552755  0.4125783584954092   F   F   F
  0.9817147176434418  0.4039954883617369  0.5999196584456925   F   F   F
  0.8574936546907210  0.0089000805147776  0.4110266766760446   F   F   F
  0.5750301762414267  0.1959193229287592  0.5796583392376888   F   F   F
  0.9349348685164784  0.3027203809103156  0.4139422522508340   F   F   F
  0.1854807780497509  0.5037432248492948  0.6032665975872575   F   F   F
  0.0476910111707696  0.6021710267957232  0.4169891142233340   F   F   F
  0.2701299503495065  0.8076194528158851  0.5865545153003495   F   F   F
  0.1563211054898943  0.8975922674939554  0.4113236767584638   F   F   F
  0.3782708562741846  0.5956812076282532  0.5944424597776745   F   F   F
  0.2284685368882933  0.6961816795065374  0.4129740715709076   F   F   F
  0.4816259643969900  0.9060303907440641  0.5959572826868822   F   F   F
  0.3582307333721388  0.5064091385511986  0.4144361175230742   F   F   F
  0.0737191113258717  0.6958202458640557  0.5785578111548446   F   F   F
  0.4316132087452473  0.8026973729357039  0.4129924339535975   F   F   F
  0.6916209815579251  0.5018028904431588  0.6048552191314513   F   F   F
  0.5424365568023930  0.6022896123965538  0.4216655697248797   F   F   F
  0.7750559023265282  0.8037022906298787  0.5836214343994683   F   F   F
  0.6553759037518958  0.8993951671483202  0.4088631616905616   F   F   F
  0.8790253289659589  0.5932533600064787  0.5936852328006310   F   F   F
  0.7262946432605162  0.6947401952842611  0.4123693702426721   F   F   F
  0.9816008696002996  0.9054608883697313  0.5941909692693983   F   F   F
  0.8566561957244119  0.5045188481628102  0.4149791795022679   F   F   F
  0.5744095048751063  0.6964577092819795  0.5780351585794037   F   F   F
  0.9290835314457198  0.8029591704173811  0.4110687718382451   F   F   F
  0.4545056390156432  0.4063877086169825  0.6971987880981771   T   T   T
  0.3695169250950983  0.4269911898488417  0.7029628521542401   T   T   T
 
  0.00000000E+00  0.00000000E+00  0.00000000E+00
  0.00000000E+00  0.00000000E+00  0.00000000E+00
  0.00000000E+00  0.00000000E+00  0.00000000E+00
  0.00000000E+00  0.00000000E+00  0.00000000E+00
  0.00000000E+00  0.00000000E+00  0.00000000E+00
  0.00000000E+00  0.00000000E+00  0.00000000E+00
  0.00000000E+00  0.00000000E+00  0.00000000E+00
  0.00000000E+00  0.00000000E+00  0.00000000E+00
  0.00000000E+00  0.00000000E+00  0.00000000E+00
  0.00000000E+00  0.00000000E+00  0.00000000E+00
  0.00000000E+00  0.00000000E+00  0.00000000E+00
  0.00000000E+00  0.00000000E+00  0.00000000E+00
  0.00000000E+00  0.00000000E+00  0.00000000E+00
  0.00000000E+00  0.00000000E+00  0.00000000E+00
  0.00000000E+00  0.00000000E+00  0.00000000E+00
  0.00000000E+00  0.00000000E+00  0.00000000E+00
  0.00000000E+00  0.00000000E+00  0.00000000E+00
  0.00000000E+00  0.00000000E+00  0.00000000E+00
  0.00000000E+00  0.00000000E+00  0.00000000E+00
  0.00000000E+00  0.00000000E+00  0.00000000E+00
  0.00000000E+00  0.00000000E+00  0.00000000E+00
  0.00000000E+00  0.00000000E+00  0.00000000E+00
  0.00000000E+00  0.00000000E+00  0.00000000E+00
  0.00000000E+00  0.00000000E+00  0.00000000E+00
  0.00000000E+00  0.00000000E+00  0.00000000E+00
  0.00000000E+00  0.00000000E+00  0.00000000E+00
  0.00000000E+00  0.00000000E+00  0.00000000E+00
  0.00000000E+00  0.00000000E+00  0.00000000E+00
  0.00000000E+00  0.00000000E+00  0.00000000E+00
  0.00000000E+00  0.00000000E+00  0.00000000E+00
  0.00000000E+00  0.00000000E+00  0.00000000E+00
  0.00000000E+00  0.00000000E+00  0.00000000E+00
  0.00000000E+00  0.00000000E+00  0.00000000E+00
  0.00000000E+00  0.00000000E+00  0.00000000E+00
  0.00000000E+00  0.00000000E+00  0.00000000E+00
  0.00000000E+00  0.00000000E+00  0.00000000E+00
  0.00000000E+00  0.00000000E+00  0.00000000E+00
  0.00000000E+00  0.00000000E+00  0.00000000E+00
  0.00000000E+00  0.00000000E+00  0.00000000E+00
  0.00000000E+00  0.00000000E+00  0.00000000E+00
  0.00000000E+00  0.00000000E+00  0.00000000E+00
  0.00000000E+00  0.00000000E+00  0.00000000E+00
  0.00000000E+00  0.00000000E+00  0.00000000E+00
  0.00000000E+00  0.00000000E+00  0.00000000E+00
  0.00000000E+00  0.00000000E+00  0.00000000E+00
  0.00000000E+00  0.00000000E+00  0.00000000E+00
  0.00000000E+00  0.00000000E+00  0.00000000E+00
  0.00000000E+00  0.00000000E+00  0.00000000E+00
  0.00000000E+00  0.00000000E+00  0.00000000E+00
  0.00000000E+00  0.00000000E+00  0.00000000E+00
  0.00000000E+00  0.00000000E+00  0.00000000E+00
  0.00000000E+00  0.00000000E+00  0.00000000E+00
  0.00000000E+00  0.00000000E+00  0.00000000E+00
  0.00000000E+00  0.00000000E+00  0.00000000E+00
  0.00000000E+00  0.00000000E+00  0.00000000E+00
  0.00000000E+00  0.00000000E+00  0.00000000E+00
  0.00000000E+00  0.00000000E+00  0.00000000E+00
  0.00000000E+00  0.00000000E+00  0.00000000E+00
  0.00000000E+00  0.00000000E+00  0.00000000E+00
  0.00000000E+00  0.00000000E+00  0.00000000E+00
  0.00000000E+00  0.00000000E+00  0.00000000E+00
  0.00000000E+00  0.00000000E+00  0.00000000E+00
