CONTCAR\(3)                             
   1.00000000000000     
    14.3262996674000007    0.0000000000000000    0.0000000000000000
     0.0000000000000000   12.4329004288000000    0.0000000000000000
     0.0000000000000000    0.0000000000000000   21.7000007629000002
   Cu   I    O 
    12    24    73
Direct
  0.1659462685606047  0.2500518295559767  0.4996483112419164
  0.1665482035237305  0.9995356595831951  0.5001121633218993
  0.5022058860435727  0.2508547483518043  0.5015554904238038
  0.5007818503432299  0.0003345089649957  0.5016328458306250
  0.8299244397230532  0.2542950169964794  0.5005886041491778
  0.8347569197548977  0.0008210529992750  0.5008629804772327
  0.1665404419326506  0.7504568797784690  0.5001130183808434
  0.1659475078812545  0.4999464484962744  0.4996443782245285
  0.5007837598349943  0.7496663931188894  0.5016285530244152
  0.5022102587830687  0.4991464568730011  0.5015542639781210
  0.8347628372085926  0.7491957468510241  0.5008563255559291
  0.8299248172841456  0.4957203336805972  0.5005881192937400
  0.1867344127438063  0.3749919806157539  0.3681676421864788
  0.0146144294322325  0.1249899665971305  0.3956306992572895
  0.3174792805115048  0.3749959870002473  0.6050730884179245
  0.1498129374893396  0.1250273477003130  0.6311531424243437
  0.5184236418920808  0.3750079512444717  0.3698250574261729
  0.3498259230956334  0.1255331325651623  0.3965594003383485
  0.6502307291140905  0.3750041101365150  0.6096758847640800
  0.4811605174139463  0.1282639904106185  0.6332823386169297
  0.8504545362666038  0.3750075051448564  0.3677851784436293
  0.6817124241100652  0.1251148860805191  0.3958600811581047
  0.9861174606932834  0.3750089064174514  0.6043872320852801
  0.8137733446492963  0.1301695429169452  0.6308470292411509
  0.1865688257610907  0.8749978196358882  0.3684477945156105
  0.0146073535028181  0.6250136858073454  0.3956310631870301
  0.3195583225058632  0.8749905943327039  0.6050451599063204
  0.1498150413325282  0.6249671660434892  0.6311506908844908
  0.5186295652716970  0.8750066117933387  0.3700402969378480
  0.3498289626932926  0.6244607338707909  0.3965593991385409
  0.6519554579617467  0.8749993054921726  0.6053756193755908
  0.4811616728431024  0.6217333940206056  0.6332803944728607
  0.8513009735478030  0.8750328416554406  0.3694612555486967
  0.6817209998574953  0.6249114199630661  0.3958595664542022
  0.9847042321314778  0.8749999694008019  0.6062196252865920
  0.8137754491881390  0.6198511524133953  0.6308453248054479
  0.2420648416770806  0.4876737077665591  0.5743028035527434
  0.0911670560754317  0.0123593487276291  0.4245401030613732
  0.1121308742909203  0.1243104649556563  0.5460391013655814
  0.2217904363830817  0.3749971991821019  0.4535821202709516
  0.2662049694839448  0.1251550079401938  0.4585161046715965
  0.0754086976020063  0.2365516041615670  0.6567920485582899
  0.0913854211845895  0.2379508623319980  0.4240234852081858
  0.0754497483512423  0.0138461613689478  0.6573439728103392
  0.2616540405872916  0.2638076504967635  0.3429050857136441
  0.2616897988745721  0.4861367310347191  0.3429008377751896
  0.2420674454929302  0.2623175722186555  0.5743053343389803
  0.0678407489850432  0.3750032920040158  0.5412531472729460
  0.5793774797316790  0.4891202884220586  0.5761067808847782
  0.4250910751282893  0.0124063838256566  0.4263814635478439
  0.4473528257778762  0.1262420145999595  0.5473109315085817
  0.5569096149980224  0.3750003850056181  0.4547993968965201
  0.5995654025643438  0.1245988053528862  0.4586745971703365
  0.3995839392132255  0.2335437025034801  0.6570854502353365
  0.4251039102858136  0.2384867726583492  0.4265624688781893
  0.4100839227896166  0.0127823214344662  0.6574827395041369
  0.5923229508162744  0.2636321709619572  0.3433566070398912
  0.5923023712102111  0.4863900689092421  0.3433550580201432
  0.5793867146469993  0.2608803510425518  0.5761074411665925
  0.4022499014948858  0.3749984157641393  0.5436690023072598
  0.9104969250491355  0.4879204947067899  0.5743714285914315
  0.7591031640214774  0.0135875581826558  0.4254636494555302
  0.7785067147187457  0.1265602502928953  0.5458521632245570
  0.8878377313908271  0.3750096094808397  0.4532193510061462
  0.9332334173501394  0.1259932245706526  0.4588791286955724
  0.7414849354217835  0.2466708798272705  0.6551198333951530
  0.7559682683012484  0.2397821743438335  0.4250756652727247
  0.7368032199527615  0.0231750917102836  0.6582480045006294
  0.9246252963092635  0.2635793923250205  0.3421919853332006
  0.9246374138081039  0.4864228506626313  0.3421932984904903
  0.9105002396060495  0.2620826075331161  0.5743675147510372
  0.7389152025417456  0.3750128157426541  0.5473448565939607
  0.2430410548220052  0.9874029593365949  0.5753371626602740
  0.0913956718374946  0.5120686263130925  0.4240134932766256
  0.1121220156053609  0.6256786180270588  0.5460380724754003
  0.2215498821889134  0.8749948897768430  0.4540804776207727
  0.2662080287508348  0.6248393552807947  0.4585119004722628
  0.0754567594585358  0.7361533548007215  0.6573455940616642
  0.0911440860437063  0.7376603288154423  0.4245473233174805
  0.0754078171386715  0.5134451982302214  0.6567913757931257
  0.2613606147244850  0.7638178204920444  0.3431870956866245
  0.2613939893432732  0.9861352416750397  0.3431909075595244
  0.2430528287973044  0.7625637257130526  0.5753301951640357
  0.0646288346679209  0.8749980173848679  0.5421672766579175
  0.5767957741987869  0.9880462923397743  0.5766574156762692
  0.4251118476061621  0.5115166326821113  0.4265644465382074
  0.4473533891393728  0.6237565817975844  0.5473089436167152
  0.5557147289421542  0.8750028027677703  0.4551533223471164
  0.5995712127813517  0.6254176914664161  0.4586707140123911
  0.4100761698749992  0.7372000302896966  0.6574797838387264
  0.4250865308318899  0.7375947415580065  0.4263730651091873
  0.3995916459723646  0.5164399716086733  0.6570857586215350
  0.5930807688595843  0.7639286904918323  0.3438248341309200
  0.5930711619398565  0.9860933383877633  0.3438275104403352
  0.5768084516782911  0.7619463236126595  0.5766569308518690
  0.4015492300023260  0.8749899062631185  0.5420206188266551
  0.9072277250336033  0.9879590982026689  0.5778620603263899
  0.7559741441817078  0.5102501497225506  0.4250707891694422
  0.7785087616571261  0.6234627634496684  0.5458503304307032
  0.8885951999777748  0.8750172883943951  0.4546982758432959
  0.9332296340062420  0.6239984953910892  0.4588783592963057
  0.7368328124196907  0.7268827758267598  0.6582468159563493
  0.7590973308435550  0.7364595460432334  0.4254607824405008
  0.7414671685794662  0.5033852905111094  0.6551213075836858
  0.9255592003363328  0.7638929742388498  0.3432818308148836
  0.9255888382284218  0.9861524873524943  0.3432804927956618
  0.9072353039936086  0.7620428992920094  0.5778542252345028
  0.7353052352077720  0.8750071193798693  0.5431292001585667
  0.5982199783296925  0.3750044565273277  0.6849605673488671
 
  0.00000000E+00  0.00000000E+00  0.00000000E+00
  0.00000000E+00  0.00000000E+00  0.00000000E+00
  0.00000000E+00  0.00000000E+00  0.00000000E+00
  0.00000000E+00  0.00000000E+00  0.00000000E+00
  0.00000000E+00  0.00000000E+00  0.00000000E+00
  0.00000000E+00  0.00000000E+00  0.00000000E+00
  0.00000000E+00  0.00000000E+00  0.00000000E+00
  0.00000000E+00  0.00000000E+00  0.00000000E+00
  0.00000000E+00  0.00000000E+00  0.00000000E+00
  0.00000000E+00  0.00000000E+00  0.00000000E+00
  0.00000000E+00  0.00000000E+00  0.00000000E+00
  0.00000000E+00  0.00000000E+00  0.00000000E+00
  0.00000000E+00  0.00000000E+00  0.00000000E+00
  0.00000000E+00  0.00000000E+00  0.00000000E+00
  0.00000000E+00  0.00000000E+00  0.00000000E+00
  0.00000000E+00  0.00000000E+00  0.00000000E+00
  0.00000000E+00  0.00000000E+00  0.00000000E+00
  0.00000000E+00  0.00000000E+00  0.00000000E+00
  0.00000000E+00  0.00000000E+00  0.00000000E+00
  0.00000000E+00  0.00000000E+00  0.00000000E+00
  0.00000000E+00  0.00000000E+00  0.00000000E+00
  0.00000000E+00  0.00000000E+00  0.00000000E+00
  0.00000000E+00  0.00000000E+00  0.00000000E+00
  0.00000000E+00  0.00000000E+00  0.00000000E+00
  0.00000000E+00  0.00000000E+00  0.00000000E+00
  0.00000000E+00  0.00000000E+00  0.00000000E+00
  0.00000000E+00  0.00000000E+00  0.00000000E+00
  0.00000000E+00  0.00000000E+00  0.00000000E+00
  0.00000000E+00  0.00000000E+00  0.00000000E+00
  0.00000000E+00  0.00000000E+00  0.00000000E+00
  0.00000000E+00  0.00000000E+00  0.00000000E+00
  0.00000000E+00  0.00000000E+00  0.00000000E+00
  0.00000000E+00  0.00000000E+00  0.00000000E+00
  0.00000000E+00  0.00000000E+00  0.00000000E+00
  0.00000000E+00  0.00000000E+00  0.00000000E+00
  0.00000000E+00  0.00000000E+00  0.00000000E+00
  0.00000000E+00  0.00000000E+00  0.00000000E+00
  0.00000000E+00  0.00000000E+00  0.00000000E+00
  0.00000000E+00  0.00000000E+00  0.00000000E+00
  0.00000000E+00  0.00000000E+00  0.00000000E+00
  0.00000000E+00  0.00000000E+00  0.00000000E+00
  0.00000000E+00  0.00000000E+00  0.00000000E+00
  0.00000000E+00  0.00000000E+00  0.00000000E+00
  0.00000000E+00  0.00000000E+00  0.00000000E+00
  0.00000000E+00  0.00000000E+00  0.00000000E+00
  0.00000000E+00  0.00000000E+00  0.00000000E+00
  0.00000000E+00  0.00000000E+00  0.00000000E+00
  0.00000000E+00  0.00000000E+00  0.00000000E+00
  0.00000000E+00  0.00000000E+00  0.00000000E+00
  0.00000000E+00  0.00000000E+00  0.00000000E+00
  0.00000000E+00  0.00000000E+00  0.00000000E+00
  0.00000000E+00  0.00000000E+00  0.00000000E+00
  0.00000000E+00  0.00000000E+00  0.00000000E+00
  0.00000000E+00  0.00000000E+00  0.00000000E+00
  0.00000000E+00  0.00000000E+00  0.00000000E+00
  0.00000000E+00  0.00000000E+00  0.00000000E+00
  0.00000000E+00  0.00000000E+00  0.00000000E+00
  0.00000000E+00  0.00000000E+00  0.00000000E+00
  0.00000000E+00  0.00000000E+00  0.00000000E+00
  0.00000000E+00  0.00000000E+00  0.00000000E+00
  0.00000000E+00  0.00000000E+00  0.00000000E+00
  0.00000000E+00  0.00000000E+00  0.00000000E+00
  0.00000000E+00  0.00000000E+00  0.00000000E+00
  0.00000000E+00  0.00000000E+00  0.00000000E+00
  0.00000000E+00  0.00000000E+00  0.00000000E+00
  0.00000000E+00  0.00000000E+00  0.00000000E+00
  0.00000000E+00  0.00000000E+00  0.00000000E+00
  0.00000000E+00  0.00000000E+00  0.00000000E+00
  0.00000000E+00  0.00000000E+00  0.00000000E+00
  0.00000000E+00  0.00000000E+00  0.00000000E+00
  0.00000000E+00  0.00000000E+00  0.00000000E+00
  0.00000000E+00  0.00000000E+00  0.00000000E+00
  0.00000000E+00  0.00000000E+00  0.00000000E+00
  0.00000000E+00  0.00000000E+00  0.00000000E+00
  0.00000000E+00  0.00000000E+00  0.00000000E+00
  0.00000000E+00  0.00000000E+00  0.00000000E+00
  0.00000000E+00  0.00000000E+00  0.00000000E+00
  0.00000000E+00  0.00000000E+00  0.00000000E+00
  0.00000000E+00  0.00000000E+00  0.00000000E+00
  0.00000000E+00  0.00000000E+00  0.00000000E+00
  0.00000000E+00  0.00000000E+00  0.00000000E+00
  0.00000000E+00  0.00000000E+00  0.00000000E+00
  0.00000000E+00  0.00000000E+00  0.00000000E+00
  0.00000000E+00  0.00000000E+00  0.00000000E+00
  0.00000000E+00  0.00000000E+00  0.00000000E+00
  0.00000000E+00  0.00000000E+00  0.00000000E+00
  0.00000000E+00  0.00000000E+00  0.00000000E+00
  0.00000000E+00  0.00000000E+00  0.00000000E+00
  0.00000000E+00  0.00000000E+00  0.00000000E+00
  0.00000000E+00  0.00000000E+00  0.00000000E+00
  0.00000000E+00  0.00000000E+00  0.00000000E+00
  0.00000000E+00  0.00000000E+00  0.00000000E+00
  0.00000000E+00  0.00000000E+00  0.00000000E+00
  0.00000000E+00  0.00000000E+00  0.00000000E+00
  0.00000000E+00  0.00000000E+00  0.00000000E+00
  0.00000000E+00  0.00000000E+00  0.00000000E+00
  0.00000000E+00  0.00000000E+00  0.00000000E+00
  0.00000000E+00  0.00000000E+00  0.00000000E+00
  0.00000000E+00  0.00000000E+00  0.00000000E+00
  0.00000000E+00  0.00000000E+00  0.00000000E+00
  0.00000000E+00  0.00000000E+00  0.00000000E+00
  0.00000000E+00  0.00000000E+00  0.00000000E+00
  0.00000000E+00  0.00000000E+00  0.00000000E+00
  0.00000000E+00  0.00000000E+00  0.00000000E+00
  0.00000000E+00  0.00000000E+00  0.00000000E+00
  0.00000000E+00  0.00000000E+00  0.00000000E+00
  0.00000000E+00  0.00000000E+00  0.00000000E+00
  0.00000000E+00  0.00000000E+00  0.00000000E+00
  0.00000000E+00  0.00000000E+00  0.00000000E+00
