CONTCAR\(4)                             
   1.00000000000000     
    11.1612997054999994    0.0000000000000000    0.0000000000000000
     0.0000000000000000   15.5193004608000003    0.0000000000000000
     0.0000000000000000    0.0000000000000000   19.4729003905999996
   Nb   Te   Pd   O 
     6    30     6     1
Direct
  0.1667607231944853  0.8412624716668720  0.4950663646293190
  0.1661485281282467  0.3389868486437986  0.5061793682766623
  0.4999166659582879  0.8402645198914791  0.4959265070810008
  0.4999902099899548  0.3384870781984288  0.5087473687367663
  0.8331993882657454  0.8412963062907087  0.4951263594545078
  0.8338036532148116  0.3391170690964908  0.5061689152543632
  0.0000514574196050  0.9409309098265057  0.5729677966370758
  0.0000519954308559  0.4399002311424193  0.4286060767860003
  0.1679864549891722  0.0063021904367599  0.4233492821848263
  0.1656568254650735  0.5039858483517056  0.5783758034364055
 -0.0000489487926458  0.3363624110844931  0.6178047903291674
 -0.0000702453656032  0.8413191260042341  0.3832440624627657
 -0.0000221770029087  0.7424149810305195  0.5734705459965652
  0.9999071924127479  0.2414623146413847  0.4262225955931216
  0.1643414561002159  0.6762169101125726  0.4239677691690761
  0.1658647887280968  0.1729102347688991  0.5757730125106859
  0.3332082658254649  0.9398151619112975  0.5742991088886596
  0.3341951030040867  0.4389102004915612  0.4287862135724592
  0.5001115054883792  0.0048598941582654  0.4236413481714717
  0.4998253475392753  0.5118738145379872  0.5708884986846083
  0.3307352648724630  0.3366004558917824  0.6186338910851087
  0.3341030721423195  0.8396988223162083  0.3834761792413688
  0.3318827288279787  0.7419269041223072  0.5742724345319750
  0.3349596964129538  0.2404551805277555  0.4281531196329103
  0.4999494966211284  0.6738477796227321  0.4267611339257485
  0.5001657174430145  0.1727694626448664  0.5780614199132335
  0.6666983777872054  0.9399084669739652  0.5742219241406866
  0.6657114019120193  0.4391489101518826  0.4288036344989348
  0.8324554312933727  0.0062441021431537  0.4232631670362062
  0.8342859071555609  0.5042178907204228  0.5783211655607948
  0.6691648171113467  0.3367243038999725  0.6185587608430373
  0.6658326272424241  0.8397859367317005  0.3835302305622423
  0.6680351786329893  0.7419504320428476  0.5743310956263504
  0.6651754865705272  0.2405666956892285  0.4281585384134225
  0.8354380065470726  0.6762601622478073  0.4241466966241105
  0.8344254677914766  0.1729231004578450  0.5756618375025608
  0.0000384390589078  0.5903592659965236  0.5014653043754249
  0.0001714521686743  0.0903184403465171  0.4986438003502628
  0.3273971093650049  0.5918510465852599  0.5018579901041023
  0.3344491315152202  0.0898366459208627  0.5004309872749173
  0.6723821880011857  0.5919519954095999  0.5019542723344848
  0.6657830085490994  0.0899066139123140  0.5002440852402721
  0.4997118969847190  0.5351889083580754  0.6639768723263466
 
  0.00000000E+00  0.00000000E+00  0.00000000E+00
  0.00000000E+00  0.00000000E+00  0.00000000E+00
  0.00000000E+00  0.00000000E+00  0.00000000E+00
  0.00000000E+00  0.00000000E+00  0.00000000E+00
  0.00000000E+00  0.00000000E+00  0.00000000E+00
  0.00000000E+00  0.00000000E+00  0.00000000E+00
  0.00000000E+00  0.00000000E+00  0.00000000E+00
  0.00000000E+00  0.00000000E+00  0.00000000E+00
  0.00000000E+00  0.00000000E+00  0.00000000E+00
  0.00000000E+00  0.00000000E+00  0.00000000E+00
  0.00000000E+00  0.00000000E+00  0.00000000E+00
  0.00000000E+00  0.00000000E+00  0.00000000E+00
  0.00000000E+00  0.00000000E+00  0.00000000E+00
  0.00000000E+00  0.00000000E+00  0.00000000E+00
  0.00000000E+00  0.00000000E+00  0.00000000E+00
  0.00000000E+00  0.00000000E+00  0.00000000E+00
  0.00000000E+00  0.00000000E+00  0.00000000E+00
  0.00000000E+00  0.00000000E+00  0.00000000E+00
  0.00000000E+00  0.00000000E+00  0.00000000E+00
  0.00000000E+00  0.00000000E+00  0.00000000E+00
  0.00000000E+00  0.00000000E+00  0.00000000E+00
  0.00000000E+00  0.00000000E+00  0.00000000E+00
  0.00000000E+00  0.00000000E+00  0.00000000E+00
  0.00000000E+00  0.00000000E+00  0.00000000E+00
  0.00000000E+00  0.00000000E+00  0.00000000E+00
  0.00000000E+00  0.00000000E+00  0.00000000E+00
  0.00000000E+00  0.00000000E+00  0.00000000E+00
  0.00000000E+00  0.00000000E+00  0.00000000E+00
  0.00000000E+00  0.00000000E+00  0.00000000E+00
  0.00000000E+00  0.00000000E+00  0.00000000E+00
  0.00000000E+00  0.00000000E+00  0.00000000E+00
  0.00000000E+00  0.00000000E+00  0.00000000E+00
  0.00000000E+00  0.00000000E+00  0.00000000E+00
  0.00000000E+00  0.00000000E+00  0.00000000E+00
  0.00000000E+00  0.00000000E+00  0.00000000E+00
  0.00000000E+00  0.00000000E+00  0.00000000E+00
  0.00000000E+00  0.00000000E+00  0.00000000E+00
  0.00000000E+00  0.00000000E+00  0.00000000E+00
  0.00000000E+00  0.00000000E+00  0.00000000E+00
  0.00000000E+00  0.00000000E+00  0.00000000E+00
  0.00000000E+00  0.00000000E+00  0.00000000E+00
  0.00000000E+00  0.00000000E+00  0.00000000E+00
  0.00000000E+00  0.00000000E+00  0.00000000E+00
