CONTCAR\(15)                            
   1.00000000000000     
    10.1940002440999997    0.0000000000000000    0.0000000000000000
     0.0000000000000000   11.6065998077000003    0.0000000000000000
     0.0000000000000000    0.0000000000000000   16.7478008269999989
   Cu   H    C    O 
     8     8     4    21
Direct
  0.7421494768183088  0.2909367411471234  0.5264021692964191
  0.2779567461238130  0.7935482312051800  0.4831602095907265
  0.7851471210712669  0.7086441774207943  0.4718897325266949
  0.2591230650620787  0.2264397791417315  0.5246735150680488
  0.4783062111917393  0.3915615813270875  0.5206049206105440
  0.5386881678722288  0.8918910866901959  0.4584145094926225
  0.0471839910916117  0.6145338027204451  0.4874564042955515
  0.9732535395487008  0.1179724301627870  0.5358330356893040
  0.2572308376797223  0.4112138888264877  0.4680703103754690
  0.7663403159514499  0.9042168185286034  0.5089659227857332
  0.2706190364381251  0.6085847752623700  0.5405125237340518
  0.7617366025729210  0.1103756369709526  0.4633477580400329
  0.6723430409460500  0.4833000826032457  0.5707887428174937
  0.3381765526752364  0.9882980649949912  0.4330716809995855
  0.8551216146775215  0.5081293629013887  0.4533356678781713
  0.1392117213314349 -0.0070789458111046  0.5811862854083852
  0.5122767279547098  0.1346421669238372  0.4803868113655253
  0.5105184361186902  0.6308122382379855  0.4970091096012382
  0.0088745505172339  0.8763402071888013  0.5030778009202528
  0.0194194803386905  0.3712258037600003  0.5221249094255621
  0.3879460406752250  0.1208449883501409  0.4771382100157324
  0.6335709724173483  0.6091755348360945  0.4918816210690017
  0.1327218350818123  0.8971141750308543  0.5116518550086088
  0.8967687263675364  0.3901750210706762  0.5309589875718049
  0.5607284285899677  0.2326247474585302  0.5065393688775637
  0.4614480714486027  0.7295849086402704  0.4741027599350907
  0.9687486964021501  0.7772470144687779  0.4760683097912317
  0.0694916388929570  0.2669770189461979  0.5322876818644464
  0.5933727907624986  0.0546953340184057  0.4594228505016487
  0.4296783370858498  0.5540779447377673  0.5237967169775033
  0.9242272158610808  0.9547210357279222  0.5207037723288480
  0.0996756374633669  0.4530907753054805  0.5048434873864475
  0.3255251860994786  0.3512175922721411  0.4633804168373964
  0.6984374800116622  0.8441986163689629  0.5011097192782239
  0.2010390628771878  0.6681883199416426  0.5378843903421984
  0.8290164280641593  0.1698075011126975  0.4744998825566118
  0.6383554567745762  0.4051010893992522  0.5788443588234882
  0.3637918160878376  0.9080332515775499  0.4210786569084609
  0.8870567673451610  0.5825177403327655  0.4331854353956561
  0.1143222325110546  0.0663204495471515  0.6111743285474831
  0.2356700701989412  0.1276389386537874  0.6124053270611373
 
  0.00000000E+00  0.00000000E+00  0.00000000E+00
  0.00000000E+00  0.00000000E+00  0.00000000E+00
  0.00000000E+00  0.00000000E+00  0.00000000E+00
  0.00000000E+00  0.00000000E+00  0.00000000E+00
  0.00000000E+00  0.00000000E+00  0.00000000E+00
  0.00000000E+00  0.00000000E+00  0.00000000E+00
  0.00000000E+00  0.00000000E+00  0.00000000E+00
  0.00000000E+00  0.00000000E+00  0.00000000E+00
  0.00000000E+00  0.00000000E+00  0.00000000E+00
  0.00000000E+00  0.00000000E+00  0.00000000E+00
  0.00000000E+00  0.00000000E+00  0.00000000E+00
  0.00000000E+00  0.00000000E+00  0.00000000E+00
  0.00000000E+00  0.00000000E+00  0.00000000E+00
  0.00000000E+00  0.00000000E+00  0.00000000E+00
  0.00000000E+00  0.00000000E+00  0.00000000E+00
  0.00000000E+00  0.00000000E+00  0.00000000E+00
  0.00000000E+00  0.00000000E+00  0.00000000E+00
  0.00000000E+00  0.00000000E+00  0.00000000E+00
  0.00000000E+00  0.00000000E+00  0.00000000E+00
  0.00000000E+00  0.00000000E+00  0.00000000E+00
  0.00000000E+00  0.00000000E+00  0.00000000E+00
  0.00000000E+00  0.00000000E+00  0.00000000E+00
  0.00000000E+00  0.00000000E+00  0.00000000E+00
  0.00000000E+00  0.00000000E+00  0.00000000E+00
  0.00000000E+00  0.00000000E+00  0.00000000E+00
  0.00000000E+00  0.00000000E+00  0.00000000E+00
  0.00000000E+00  0.00000000E+00  0.00000000E+00
  0.00000000E+00  0.00000000E+00  0.00000000E+00
  0.00000000E+00  0.00000000E+00  0.00000000E+00
  0.00000000E+00  0.00000000E+00  0.00000000E+00
  0.00000000E+00  0.00000000E+00  0.00000000E+00
  0.00000000E+00  0.00000000E+00  0.00000000E+00
  0.00000000E+00  0.00000000E+00  0.00000000E+00
  0.00000000E+00  0.00000000E+00  0.00000000E+00
  0.00000000E+00  0.00000000E+00  0.00000000E+00
  0.00000000E+00  0.00000000E+00  0.00000000E+00
  0.00000000E+00  0.00000000E+00  0.00000000E+00
  0.00000000E+00  0.00000000E+00  0.00000000E+00
  0.00000000E+00  0.00000000E+00  0.00000000E+00
  0.00000000E+00  0.00000000E+00  0.00000000E+00
  0.00000000E+00  0.00000000E+00  0.00000000E+00
