 Ca3 Cu2 Cl2 O4                         
   1.00000000000000     
     3.8086410516963691    0.0000000000000000    0.0000000000000000
     0.0000000000000000    3.8086410380028166    0.0000000000000000
     0.0000000000000000    0.0000000000000000   23.7810525762959983
   Ca   Cu   Cl   O 
     3     2     2     4
Direct
  0.0000000053758527  0.9999999971749176  0.5000008401095641
  0.0000000130020794  0.0000000092682626  0.3669216762692571
  0.0000000045608672  0.9999999972037372  0.6330761286050901
  0.4999999754323738  0.4999999826257948  0.5632770898282757
  0.4999999832738027  0.4999999887925313  0.4367243045491946
  0.5000000078126305  0.5000000001578400  0.6859403117469611
  0.4999999946399782  0.5000000126316309  0.3140633228139009
  0.0000000206255066  0.4999999973019200  0.5676702448026063
  0.4999999911467299  0.0000000102851061  0.5676702477345827
  0.4999999909785870  0.0000000069542239  0.4323279175310688
  0.0000000131515918  0.4999999976040357  0.4323279160094984
 
  0.00000000E+00  0.00000000E+00  0.00000000E+00
  0.00000000E+00  0.00000000E+00  0.00000000E+00
  0.00000000E+00  0.00000000E+00  0.00000000E+00
  0.00000000E+00  0.00000000E+00  0.00000000E+00
  0.00000000E+00  0.00000000E+00  0.00000000E+00
  0.00000000E+00  0.00000000E+00  0.00000000E+00
  0.00000000E+00  0.00000000E+00  0.00000000E+00
  0.00000000E+00  0.00000000E+00  0.00000000E+00
  0.00000000E+00  0.00000000E+00  0.00000000E+00
  0.00000000E+00  0.00000000E+00  0.00000000E+00
  0.00000000E+00  0.00000000E+00  0.00000000E+00
