CONTCAR                                 
   1.00000000000000     
    10.4560003281000000    0.0000000000000000    0.0000000000000000
     1.7426699834999999   13.6526291618000002    0.0000000000000000
     0.0000000000000000    0.0000000000000000   22.6816005706999988
   Sc   C    Cl   O 
    21     6    30     1
Direct
  0.2578092851935270  0.4540456998977197  0.4472570696970114
  0.0757136257968819  0.5462900968498242  0.5479351848907832
  0.2198973445593649  0.6816117463583060  0.4551100703130285
  0.1136464201855067  0.3183107136690395  0.5404793660623066
  0.0702247606658021  0.5791486618027587  0.3528768304394939
  0.2633200849951378  0.4213170643254796  0.6424798693701155
  0.9863193057861507  0.0004097756562548  0.4948545414008180
  0.5909333624109404  0.4540880456891760  0.4471051051936333
  0.4089605677941762  0.5467713950867421  0.5478956809282773
  0.5572476077860048  0.6836388754839394  0.4549462728415340
  0.4468643665145623  0.3196127818725257  0.5403497386718172
  0.4038239727651322  0.5792763504864306  0.3528305976954089
  0.5965603439239446  0.4210720563176858  0.6425465950455053
  0.3457417717197561  0.9998558222843713  0.4959415342425853
  0.9247589182983112  0.4538640758100765  0.4471788587274552
  0.7425465289183358  0.5459788352408853  0.5480605427488381
  0.8819923826647617  0.6835183628829060  0.4549744952529842
  0.7799966858498111  0.3194172235311989  0.5403206463096044
  0.7373334855694879  0.5780567278760296  0.3524070598136777
  0.9297744594481011  0.4211654451123589  0.6424688185971537
  0.6584418135464964  0.0416257371769358  0.6117369142753049
  0.0715372138975995  0.5714974586712341  0.4466559332391601
  0.2616243349433738  0.4291199214446548  0.5483989854074816
  0.4050013247577403  0.5717426406006022  0.4466208429820002
  0.5950317538819018  0.4296863807869662  0.5483918825784593
  0.7385683690011315  0.5699574566539990  0.4464769610604731
  0.9290195791830685  0.4287489580391536  0.5483850427971600
  0.1725923356549455  0.9550746805092484  0.5648428988091942
  0.1596197617026860  0.0456198457267006  0.4278706830671599
  0.2149673617710754  0.7111456068922172  0.3364345439348058
  0.1185515110957774  0.2892973963786518  0.6586047569228153
  0.0289721246532020  0.8233306212179148  0.4524805884362298
  0.0756970624199387  0.5465653190181607  0.6701754615495547
  0.2577966506798733  0.4540853585438814  0.3250427943779908
  0.1149000631157259  0.3130325461260238  0.4302452651079045
  0.2188711754248243  0.6871285419328467  0.5651843963515016
  0.3053777031298336  0.1756631621855094  0.5431423170955335
  0.4830045822116114  0.9416010752370459  0.5821321727394783
  0.4904162486442926  0.0445436004854346  0.4278268474237266
  0.5489165667397768  0.7098604303469517  0.3352664433659142
  0.4517331999725170  0.2903240228591816  0.6577095910528289
  0.3632909135451526  0.8233310539339997  0.4527741041181894
  0.4088927415313651  0.5468768966385310  0.6698940703712666
  0.5909338350968721  0.4533311364440379  0.3250899904839591
  0.4469860244224328  0.3140356637837791  0.4298732614422261
  0.5526178313138055  0.6858760244305679  0.5653789265610749
  0.6366663196231865  0.1795785618735075  0.5348069484744603
  0.8657072713465384  0.9418420480482952  0.5800376501919152
  0.8292302124815534  0.0456221099794134  0.4256714367283811
  0.8817775055141627  0.7097836658505744  0.3352025136907786
  0.7850375155730257  0.2902073732941322  0.6576748180507728
  0.6972244583710759  0.8180878574049749  0.4546399487477668
  0.7423096135893263  0.5467429553591268  0.6699305135345085
  0.9252718014152548  0.4531302992743137  0.3251496349346107
  0.7815067768838023  0.3139169045269504  0.4298693240290897
  0.8860457148234958  0.6856524612845399  0.5654452094196605
  0.9693980384451750  0.1756183581953793  0.5427139062240223
  0.6513173957506959  0.0926652466108163  0.6807835311806445
 
  0.00000000E+00  0.00000000E+00  0.00000000E+00
  0.00000000E+00  0.00000000E+00  0.00000000E+00
  0.00000000E+00  0.00000000E+00  0.00000000E+00
  0.00000000E+00  0.00000000E+00  0.00000000E+00
  0.00000000E+00  0.00000000E+00  0.00000000E+00
  0.00000000E+00  0.00000000E+00  0.00000000E+00
  0.00000000E+00  0.00000000E+00  0.00000000E+00
  0.00000000E+00  0.00000000E+00  0.00000000E+00
  0.00000000E+00  0.00000000E+00  0.00000000E+00
  0.00000000E+00  0.00000000E+00  0.00000000E+00
  0.00000000E+00  0.00000000E+00  0.00000000E+00
  0.00000000E+00  0.00000000E+00  0.00000000E+00
  0.00000000E+00  0.00000000E+00  0.00000000E+00
  0.00000000E+00  0.00000000E+00  0.00000000E+00
  0.00000000E+00  0.00000000E+00  0.00000000E+00
  0.00000000E+00  0.00000000E+00  0.00000000E+00
  0.00000000E+00  0.00000000E+00  0.00000000E+00
  0.00000000E+00  0.00000000E+00  0.00000000E+00
  0.00000000E+00  0.00000000E+00  0.00000000E+00
  0.00000000E+00  0.00000000E+00  0.00000000E+00
  0.00000000E+00  0.00000000E+00  0.00000000E+00
  0.00000000E+00  0.00000000E+00  0.00000000E+00
  0.00000000E+00  0.00000000E+00  0.00000000E+00
  0.00000000E+00  0.00000000E+00  0.00000000E+00
  0.00000000E+00  0.00000000E+00  0.00000000E+00
  0.00000000E+00  0.00000000E+00  0.00000000E+00
  0.00000000E+00  0.00000000E+00  0.00000000E+00
  0.00000000E+00  0.00000000E+00  0.00000000E+00
  0.00000000E+00  0.00000000E+00  0.00000000E+00
  0.00000000E+00  0.00000000E+00  0.00000000E+00
  0.00000000E+00  0.00000000E+00  0.00000000E+00
  0.00000000E+00  0.00000000E+00  0.00000000E+00
  0.00000000E+00  0.00000000E+00  0.00000000E+00
  0.00000000E+00  0.00000000E+00  0.00000000E+00
  0.00000000E+00  0.00000000E+00  0.00000000E+00
  0.00000000E+00  0.00000000E+00  0.00000000E+00
  0.00000000E+00  0.00000000E+00  0.00000000E+00
  0.00000000E+00  0.00000000E+00  0.00000000E+00
  0.00000000E+00  0.00000000E+00  0.00000000E+00
  0.00000000E+00  0.00000000E+00  0.00000000E+00
  0.00000000E+00  0.00000000E+00  0.00000000E+00
  0.00000000E+00  0.00000000E+00  0.00000000E+00
  0.00000000E+00  0.00000000E+00  0.00000000E+00
  0.00000000E+00  0.00000000E+00  0.00000000E+00
  0.00000000E+00  0.00000000E+00  0.00000000E+00
  0.00000000E+00  0.00000000E+00  0.00000000E+00
  0.00000000E+00  0.00000000E+00  0.00000000E+00
  0.00000000E+00  0.00000000E+00  0.00000000E+00
  0.00000000E+00  0.00000000E+00  0.00000000E+00
  0.00000000E+00  0.00000000E+00  0.00000000E+00
  0.00000000E+00  0.00000000E+00  0.00000000E+00
  0.00000000E+00  0.00000000E+00  0.00000000E+00
  0.00000000E+00  0.00000000E+00  0.00000000E+00
  0.00000000E+00  0.00000000E+00  0.00000000E+00
  0.00000000E+00  0.00000000E+00  0.00000000E+00
  0.00000000E+00  0.00000000E+00  0.00000000E+00
  0.00000000E+00  0.00000000E+00  0.00000000E+00
  0.00000000E+00  0.00000000E+00  0.00000000E+00
