CONTCAR                                 
   1.00000000000000     
    12.9062995910999998    0.0000000000000000    0.0000000000000000
     6.4531410738000003   11.1773039768999993    0.0000000000000000
     0.0000000000000000    0.0000000000000000   25.2430000304999993
   Bi   Se   O    H 
    27    36     1     1
Direct
  0.9999514188156541  0.0000258694281437  0.4984777586375473
  0.1107568576453761  0.1109781381150606  0.3541351948334504
  0.2214257527446416  0.2228648655604581  0.6440614930207060
  0.3344202716471856  0.9974497715425950  0.4991184048234504
  0.4444172803461083  0.1113960261866842  0.3548668345708652
  0.5558835485976739  0.2219082231309540  0.6426504575327014
  0.6661436231621497  0.0010146911421303  0.4983496106307594
  0.7783851451350283  0.1109209788086934  0.3536843724902361
  0.8894623256899514  0.2213912163588273  0.6429972977427146
  0.9971967781487298  0.3348658739142156  0.4990328687290684
  0.1113390211922719  0.4445082367153185  0.3548652530766257
  0.2219179606567112  0.5564183032440864  0.6427941316390403
  0.3349806450254375  0.3352999585121732  0.4989644785247710
  0.4445900847494196  0.4445297370096450  0.3545171781970968
  0.5598864070210362  0.5584271987660052  0.6854604755619530
  0.6661298498527692  0.3351549067342386  0.5004016903454728
  0.7781380312073040  0.4443829678086472  0.3548677653049763
  0.8893855493666983  0.5581714174163099  0.6430436288800528
  0.0006573726343124  0.6665826270023111  0.4983110831687945
  0.1106684853106585  0.7785457321395679  0.3536680856625491
  0.2212906927566875  0.8894326677881995  0.6429893617289647
  0.3351214847490429  0.6662092101245154  0.5003725077855865
  0.4442204157464667  0.7783503101391307  0.3549745558558236
  0.5564186470064688  0.8911264331780422  0.6427024956645579
  0.6661615363049991  0.6662553545724123  0.5013992341209174
  0.7771490090267311  0.7778811642732958  0.3544298949565763
  0.8894307913516839  0.8895445800128799  0.6426930415122589
  0.0000621271757660  0.0004189895068233  0.2970634684695181
  0.0008697038062949  0.0007560263447943  0.6990369104431962
  0.1104019551541678  0.1109870664752319  0.5641367370165101
  0.2219211883203754  0.2222300434695473  0.4333782552872381
  0.3345364290402337  0.9994302902010073  0.2981562544801110
  0.3337935949078772  0.9997329318839282  0.6991216389296603
  0.4434991310026407  0.1121423792886281  0.5633933464489169
  0.5554330636463262  0.2239834160951182  0.4328448037440686
  0.6652535807938373  0.0002493407964150  0.2979620453375746
  0.6667865490688631  0.0015641305712927  0.6987261013977587
  0.7780829317635286  0.1110825511711157  0.5638306257320498
  0.8888595571564237  0.2221269319902821  0.4329038329905546
  0.9995359456891019  0.3346650659927612  0.2981466659880291
  0.9984313354340683  0.3347906394987645  0.6992025042584230
  0.1113328844796717  0.4443127395552626  0.5635038135034527
  0.2236928954922958  0.5557965259894118  0.4329129616605313
  0.3338792170016803  0.3338610889292850  0.2980947597590045
  0.3334529898432086  0.3341183108220372  0.6992892517030042
  0.4454809707955282  0.4457067822584883  0.5645590164468611
  0.5562185640221635  0.5560344987057265  0.4337784498986073
  0.6674792692424605  0.3329010123332529  0.2980356809850192
  0.6802026618501068  0.3026585972637387  0.7057802113011081
  0.7765257783709185  0.4453659649718041  0.5651317522654026
  0.8881780634192571  0.5558285795540747  0.4333255390278437
 -0.0001329335070498  0.6655178316692942  0.2980307854164673
  0.0013663649470112  0.6671200652843304  0.6988124677936151
  0.1110360310686952  0.7782192929849244  0.5638048506219463
  0.2219940447443847  0.8890755487635082  0.4329240373610202
  0.3327523970903419  0.6677461018360445  0.2981447616051064
  0.3038474971079468  0.6803957798951654  0.7057599444814615
  0.4453239686707883  0.7766949036029090  0.5650978377287279
  0.5555954379006268  0.8884431834510200  0.4334110740405208
  0.6665826525966466  0.6668069769141857  0.2984135474584473
  0.6850827932931663  0.6879892860585192  0.7065105823171639
  0.7786637652408821  0.7792835457186537  0.5638117533290917
  0.8886128354821758  0.8891390902663721  0.4331719408633687
  0.5696364917087849  0.5651684903791719  0.7686443826849126
  0.5405696082876270  0.5159107058825250  0.7851082452262625
 
  0.00000000E+00  0.00000000E+00  0.00000000E+00
  0.00000000E+00  0.00000000E+00  0.00000000E+00
  0.00000000E+00  0.00000000E+00  0.00000000E+00
  0.00000000E+00  0.00000000E+00  0.00000000E+00
  0.00000000E+00  0.00000000E+00  0.00000000E+00
  0.00000000E+00  0.00000000E+00  0.00000000E+00
  0.00000000E+00  0.00000000E+00  0.00000000E+00
  0.00000000E+00  0.00000000E+00  0.00000000E+00
  0.00000000E+00  0.00000000E+00  0.00000000E+00
  0.00000000E+00  0.00000000E+00  0.00000000E+00
  0.00000000E+00  0.00000000E+00  0.00000000E+00
  0.00000000E+00  0.00000000E+00  0.00000000E+00
  0.00000000E+00  0.00000000E+00  0.00000000E+00
  0.00000000E+00  0.00000000E+00  0.00000000E+00
  0.00000000E+00  0.00000000E+00  0.00000000E+00
  0.00000000E+00  0.00000000E+00  0.00000000E+00
  0.00000000E+00  0.00000000E+00  0.00000000E+00
  0.00000000E+00  0.00000000E+00  0.00000000E+00
  0.00000000E+00  0.00000000E+00  0.00000000E+00
  0.00000000E+00  0.00000000E+00  0.00000000E+00
  0.00000000E+00  0.00000000E+00  0.00000000E+00
  0.00000000E+00  0.00000000E+00  0.00000000E+00
  0.00000000E+00  0.00000000E+00  0.00000000E+00
  0.00000000E+00  0.00000000E+00  0.00000000E+00
  0.00000000E+00  0.00000000E+00  0.00000000E+00
  0.00000000E+00  0.00000000E+00  0.00000000E+00
  0.00000000E+00  0.00000000E+00  0.00000000E+00
  0.00000000E+00  0.00000000E+00  0.00000000E+00
  0.00000000E+00  0.00000000E+00  0.00000000E+00
  0.00000000E+00  0.00000000E+00  0.00000000E+00
  0.00000000E+00  0.00000000E+00  0.00000000E+00
  0.00000000E+00  0.00000000E+00  0.00000000E+00
  0.00000000E+00  0.00000000E+00  0.00000000E+00
  0.00000000E+00  0.00000000E+00  0.00000000E+00
  0.00000000E+00  0.00000000E+00  0.00000000E+00
  0.00000000E+00  0.00000000E+00  0.00000000E+00
  0.00000000E+00  0.00000000E+00  0.00000000E+00
  0.00000000E+00  0.00000000E+00  0.00000000E+00
  0.00000000E+00  0.00000000E+00  0.00000000E+00
  0.00000000E+00  0.00000000E+00  0.00000000E+00
  0.00000000E+00  0.00000000E+00  0.00000000E+00
  0.00000000E+00  0.00000000E+00  0.00000000E+00
  0.00000000E+00  0.00000000E+00  0.00000000E+00
  0.00000000E+00  0.00000000E+00  0.00000000E+00
  0.00000000E+00  0.00000000E+00  0.00000000E+00
  0.00000000E+00  0.00000000E+00  0.00000000E+00
  0.00000000E+00  0.00000000E+00  0.00000000E+00
  0.00000000E+00  0.00000000E+00  0.00000000E+00
  0.00000000E+00  0.00000000E+00  0.00000000E+00
  0.00000000E+00  0.00000000E+00  0.00000000E+00
  0.00000000E+00  0.00000000E+00  0.00000000E+00
  0.00000000E+00  0.00000000E+00  0.00000000E+00
  0.00000000E+00  0.00000000E+00  0.00000000E+00
  0.00000000E+00  0.00000000E+00  0.00000000E+00
  0.00000000E+00  0.00000000E+00  0.00000000E+00
  0.00000000E+00  0.00000000E+00  0.00000000E+00
  0.00000000E+00  0.00000000E+00  0.00000000E+00
  0.00000000E+00  0.00000000E+00  0.00000000E+00
  0.00000000E+00  0.00000000E+00  0.00000000E+00
  0.00000000E+00  0.00000000E+00  0.00000000E+00
  0.00000000E+00  0.00000000E+00  0.00000000E+00
  0.00000000E+00  0.00000000E+00  0.00000000E+00
  0.00000000E+00  0.00000000E+00  0.00000000E+00
  0.00000000E+00  0.00000000E+00  0.00000000E+00
  0.00000000E+00  0.00000000E+00  0.00000000E+00
