 V1 Te2                                 
   1.00000000000000     
     3.5302086849068233    0.0000000000000000    0.0000000000000000
    -1.7615617901349454    3.0571484351004350    0.0000000000000000
     0.0000000000000000    0.0000000000000000   18.4215740925280009
   V    Te
     1     2
Direct
 -0.0000951369770448 -0.0001564916274519  0.4999994918422758
  0.3333604190443522  0.6665026210160346  0.4045212381519025
  0.6665181214711154  0.3332198065246205  0.5954792700058217
 
  0.00000000E+00  0.00000000E+00  0.00000000E+00
  0.00000000E+00  0.00000000E+00  0.00000000E+00
  0.00000000E+00  0.00000000E+00  0.00000000E+00
