G   49   49    1    0.005     # Parameters to Generate KPOINTS (Don't Edit This Line)
     325
Reciprocal lattice
    0.000000000000    0.000000000000    0.000000000000       1
    0.020408163265    0.000000000000    0.000000000000       4
    0.040816326531    0.000000000000    0.000000000000       4
    0.061224489796    0.000000000000    0.000000000000       4
    0.081632653061    0.000000000000    0.000000000000       4
    0.102040816327    0.000000000000    0.000000000000       4
    0.122448979592    0.000000000000    0.000000000000       4
    0.142857142857    0.000000000000    0.000000000000       4
    0.163265306122    0.000000000000    0.000000000000       4
    0.183673469388    0.000000000000    0.000000000000       4
    0.204081632653    0.000000000000    0.000000000000       4
    0.224489795918    0.000000000000    0.000000000000       4
    0.244897959184    0.000000000000    0.000000000000       4
    0.265306122449    0.000000000000    0.000000000000       4
    0.285714285714    0.000000000000    0.000000000000       4
    0.306122448980    0.000000000000    0.000000000000       4
    0.326530612245    0.000000000000    0.000000000000       4
    0.346938775510    0.000000000000    0.000000000000       4
    0.367346938776    0.000000000000    0.000000000000       4
    0.387755102041    0.000000000000    0.000000000000       4
    0.408163265306    0.000000000000    0.000000000000       4
    0.428571428571    0.000000000000    0.000000000000       4
    0.448979591837    0.000000000000    0.000000000000       4
    0.469387755102    0.000000000000    0.000000000000       4
    0.489795918367    0.000000000000    0.000000000000       4
    0.020408163265    0.020408163265    0.000000000000       4
    0.040816326531    0.020408163265    0.000000000000       8
    0.061224489796    0.020408163265    0.000000000000       8
    0.081632653061    0.020408163265    0.000000000000       8
    0.102040816327    0.020408163265    0.000000000000       8
    0.122448979592    0.020408163265    0.000000000000       8
    0.142857142857    0.020408163265    0.000000000000       8
    0.163265306122    0.020408163265    0.000000000000       8
    0.183673469388    0.020408163265    0.000000000000       8
    0.204081632653    0.020408163265    0.000000000000       8
    0.224489795918    0.020408163265    0.000000000000       8
    0.244897959184    0.020408163265    0.000000000000       8
    0.265306122449    0.020408163265    0.000000000000       8
    0.285714285714    0.020408163265    0.000000000000       8
    0.306122448980    0.020408163265    0.000000000000       8
    0.326530612245    0.020408163265    0.000000000000       8
    0.346938775510    0.020408163265    0.000000000000       8
    0.367346938776    0.020408163265    0.000000000000       8
    0.387755102041    0.020408163265    0.000000000000       8
    0.408163265306    0.020408163265    0.000000000000       8
    0.428571428571    0.020408163265    0.000000000000       8
    0.448979591837    0.020408163265    0.000000000000       8
    0.469387755102    0.020408163265    0.000000000000       8
    0.489795918367    0.020408163265    0.000000000000       8
    0.040816326531    0.040816326531    0.000000000000       4
    0.061224489796    0.040816326531    0.000000000000       8
    0.081632653061    0.040816326531    0.000000000000       8
    0.102040816327    0.040816326531    0.000000000000       8
    0.122448979592    0.040816326531    0.000000000000       8
    0.142857142857    0.040816326531    0.000000000000       8
    0.163265306122    0.040816326531    0.000000000000       8
    0.183673469388    0.040816326531    0.000000000000       8
    0.204081632653    0.040816326531    0.000000000000       8
    0.224489795918    0.040816326531    0.000000000000       8
    0.244897959184    0.040816326531    0.000000000000       8
    0.265306122449    0.040816326531    0.000000000000       8
    0.285714285714    0.040816326531    0.000000000000       8
    0.306122448980    0.040816326531    0.000000000000       8
    0.326530612245    0.040816326531    0.000000000000       8
    0.346938775510    0.040816326531    0.000000000000       8
    0.367346938776    0.040816326531    0.000000000000       8
    0.387755102041    0.040816326531    0.000000000000       8
    0.408163265306    0.040816326531    0.000000000000       8
    0.428571428571    0.040816326531    0.000000000000       8
    0.448979591837    0.040816326531    0.000000000000       8
    0.469387755102    0.040816326531    0.000000000000       8
    0.489795918367    0.040816326531    0.000000000000       8
    0.061224489796    0.061224489796    0.000000000000       4
    0.081632653061    0.061224489796    0.000000000000       8
    0.102040816327    0.061224489796    0.000000000000       8
    0.122448979592    0.061224489796    0.000000000000       8
    0.142857142857    0.061224489796    0.000000000000       8
    0.163265306122    0.061224489796    0.000000000000       8
    0.183673469388    0.061224489796    0.000000000000       8
    0.204081632653    0.061224489796    0.000000000000       8
    0.224489795918    0.061224489796    0.000000000000       8
    0.244897959184    0.061224489796    0.000000000000       8
    0.265306122449    0.061224489796    0.000000000000       8
    0.285714285714    0.061224489796    0.000000000000       8
    0.306122448980    0.061224489796    0.000000000000       8
    0.326530612245    0.061224489796    0.000000000000       8
    0.346938775510    0.061224489796    0.000000000000       8
    0.367346938776    0.061224489796    0.000000000000       8
    0.387755102041    0.061224489796    0.000000000000       8
    0.408163265306    0.061224489796    0.000000000000       8
    0.428571428571    0.061224489796    0.000000000000       8
    0.448979591837    0.061224489796    0.000000000000       8
    0.469387755102    0.061224489796    0.000000000000       8
    0.489795918367    0.061224489796    0.000000000000       8
    0.081632653061    0.081632653061    0.000000000000       4
    0.102040816327    0.081632653061    0.000000000000       8
    0.122448979592    0.081632653061    0.000000000000       8
    0.142857142857    0.081632653061    0.000000000000       8
    0.163265306122    0.081632653061    0.000000000000       8
    0.183673469388    0.081632653061    0.000000000000       8
    0.204081632653    0.081632653061    0.000000000000       8
    0.224489795918    0.081632653061    0.000000000000       8
    0.244897959184    0.081632653061    0.000000000000       8
    0.265306122449    0.081632653061    0.000000000000       8
    0.285714285714    0.081632653061    0.000000000000       8
    0.306122448980    0.081632653061    0.000000000000       8
    0.326530612245    0.081632653061    0.000000000000       8
    0.346938775510    0.081632653061    0.000000000000       8
    0.367346938776    0.081632653061    0.000000000000       8
    0.387755102041    0.081632653061    0.000000000000       8
    0.408163265306    0.081632653061    0.000000000000       8
    0.428571428571    0.081632653061    0.000000000000       8
    0.448979591837    0.081632653061    0.000000000000       8
    0.469387755102    0.081632653061    0.000000000000       8
    0.489795918367    0.081632653061    0.000000000000       8
    0.102040816327    0.102040816327    0.000000000000       4
    0.122448979592    0.102040816327    0.000000000000       8
    0.142857142857    0.102040816327    0.000000000000       8
    0.163265306122    0.102040816327    0.000000000000       8
    0.183673469388    0.102040816327    0.000000000000       8
    0.204081632653    0.102040816327    0.000000000000       8
    0.224489795918    0.102040816327    0.000000000000       8
    0.244897959184    0.102040816327    0.000000000000       8
    0.265306122449    0.102040816327    0.000000000000       8
    0.285714285714    0.102040816327    0.000000000000       8
    0.306122448980    0.102040816327    0.000000000000       8
    0.326530612245    0.102040816327    0.000000000000       8
    0.346938775510    0.102040816327    0.000000000000       8
    0.367346938776    0.102040816327    0.000000000000       8
    0.387755102041    0.102040816327    0.000000000000       8
    0.408163265306    0.102040816327    0.000000000000       8
    0.428571428571    0.102040816327    0.000000000000       8
    0.448979591837    0.102040816327    0.000000000000       8
    0.469387755102    0.102040816327    0.000000000000       8
    0.489795918367    0.102040816327    0.000000000000       8
    0.122448979592    0.122448979592    0.000000000000       4
    0.142857142857    0.122448979592    0.000000000000       8
    0.163265306122    0.122448979592    0.000000000000       8
    0.183673469388    0.122448979592    0.000000000000       8
    0.204081632653    0.122448979592    0.000000000000       8
    0.224489795918    0.122448979592    0.000000000000       8
    0.244897959184    0.122448979592    0.000000000000       8
    0.265306122449    0.122448979592    0.000000000000       8
    0.285714285714    0.122448979592    0.000000000000       8
    0.306122448980    0.122448979592    0.000000000000       8
    0.326530612245    0.122448979592    0.000000000000       8
    0.346938775510    0.122448979592    0.000000000000       8
    0.367346938776    0.122448979592    0.000000000000       8
    0.387755102041    0.122448979592    0.000000000000       8
    0.408163265306    0.122448979592    0.000000000000       8
    0.428571428571    0.122448979592    0.000000000000       8
    0.448979591837    0.122448979592    0.000000000000       8
    0.469387755102    0.122448979592    0.000000000000       8
    0.489795918367    0.122448979592    0.000000000000       8
    0.142857142857    0.142857142857    0.000000000000       4
    0.163265306122    0.142857142857    0.000000000000       8
    0.183673469388    0.142857142857    0.000000000000       8
    0.204081632653    0.142857142857    0.000000000000       8
    0.224489795918    0.142857142857    0.000000000000       8
    0.244897959184    0.142857142857    0.000000000000       8
    0.265306122449    0.142857142857    0.000000000000       8
    0.285714285714    0.142857142857    0.000000000000       8
    0.306122448980    0.142857142857    0.000000000000       8
    0.326530612245    0.142857142857    0.000000000000       8
    0.346938775510    0.142857142857    0.000000000000       8
    0.367346938776    0.142857142857    0.000000000000       8
    0.387755102041    0.142857142857    0.000000000000       8
    0.408163265306    0.142857142857    0.000000000000       8
    0.428571428571    0.142857142857    0.000000000000       8
    0.448979591837    0.142857142857    0.000000000000       8
    0.469387755102    0.142857142857    0.000000000000       8
    0.489795918367    0.142857142857    0.000000000000       8
    0.163265306122    0.163265306122    0.000000000000       4
    0.183673469388    0.163265306122    0.000000000000       8
    0.204081632653    0.163265306122    0.000000000000       8
    0.224489795918    0.163265306122    0.000000000000       8
    0.244897959184    0.163265306122    0.000000000000       8
    0.265306122449    0.163265306122    0.000000000000       8
    0.285714285714    0.163265306122    0.000000000000       8
    0.306122448980    0.163265306122    0.000000000000       8
    0.326530612245    0.163265306122    0.000000000000       8
    0.346938775510    0.163265306122    0.000000000000       8
    0.367346938776    0.163265306122    0.000000000000       8
    0.387755102041    0.163265306122    0.000000000000       8
    0.408163265306    0.163265306122    0.000000000000       8
    0.428571428571    0.163265306122    0.000000000000       8
    0.448979591837    0.163265306122    0.000000000000       8
    0.469387755102    0.163265306122    0.000000000000       8
    0.489795918367    0.163265306122    0.000000000000       8
    0.183673469388    0.183673469388    0.000000000000       4
    0.204081632653    0.183673469388    0.000000000000       8
    0.224489795918    0.183673469388    0.000000000000       8
    0.244897959184    0.183673469388    0.000000000000       8
    0.265306122449    0.183673469388    0.000000000000       8
    0.285714285714    0.183673469388    0.000000000000       8
    0.306122448980    0.183673469388    0.000000000000       8
    0.326530612245    0.183673469388    0.000000000000       8
    0.346938775510    0.183673469388    0.000000000000       8
    0.367346938776    0.183673469388    0.000000000000       8
    0.387755102041    0.183673469388    0.000000000000       8
    0.408163265306    0.183673469388    0.000000000000       8
    0.428571428571    0.183673469388    0.000000000000       8
    0.448979591837    0.183673469388    0.000000000000       8
    0.469387755102    0.183673469388    0.000000000000       8
    0.489795918367    0.183673469388    0.000000000000       8
    0.204081632653    0.204081632653    0.000000000000       4
    0.224489795918    0.204081632653    0.000000000000       8
    0.244897959184    0.204081632653    0.000000000000       8
    0.265306122449    0.204081632653    0.000000000000       8
    0.285714285714    0.204081632653    0.000000000000       8
    0.306122448980    0.204081632653    0.000000000000       8
    0.326530612245    0.204081632653    0.000000000000       8
    0.346938775510    0.204081632653    0.000000000000       8
    0.367346938776    0.204081632653    0.000000000000       8
    0.387755102041    0.204081632653    0.000000000000       8
    0.408163265306    0.204081632653    0.000000000000       8
    0.428571428571    0.204081632653    0.000000000000       8
    0.448979591837    0.204081632653    0.000000000000       8
    0.469387755102    0.204081632653    0.000000000000       8
    0.489795918367    0.204081632653    0.000000000000       8
    0.224489795918    0.224489795918    0.000000000000       4
    0.244897959184    0.224489795918    0.000000000000       8
    0.265306122449    0.224489795918    0.000000000000       8
    0.285714285714    0.224489795918    0.000000000000       8
    0.306122448980    0.224489795918    0.000000000000       8
    0.326530612245    0.224489795918    0.000000000000       8
    0.346938775510    0.224489795918    0.000000000000       8
    0.367346938776    0.224489795918    0.000000000000       8
    0.387755102041    0.224489795918    0.000000000000       8
    0.408163265306    0.224489795918    0.000000000000       8
    0.428571428571    0.224489795918    0.000000000000       8
    0.448979591837    0.224489795918    0.000000000000       8
    0.469387755102    0.224489795918    0.000000000000       8
    0.489795918367    0.224489795918    0.000000000000       8
    0.244897959184    0.244897959184    0.000000000000       4
    0.265306122449    0.244897959184    0.000000000000       8
    0.285714285714    0.244897959184    0.000000000000       8
    0.306122448980    0.244897959184    0.000000000000       8
    0.326530612245    0.244897959184    0.000000000000       8
    0.346938775510    0.244897959184    0.000000000000       8
    0.367346938776    0.244897959184    0.000000000000       8
    0.387755102041    0.244897959184    0.000000000000       8
    0.408163265306    0.244897959184    0.000000000000       8
    0.428571428571    0.244897959184    0.000000000000       8
    0.448979591837    0.244897959184    0.000000000000       8
    0.469387755102    0.244897959184    0.000000000000       8
    0.489795918367    0.244897959184    0.000000000000       8
    0.265306122449    0.265306122449    0.000000000000       4
    0.285714285714    0.265306122449    0.000000000000       8
    0.306122448980    0.265306122449    0.000000000000       8
    0.326530612245    0.265306122449    0.000000000000       8
    0.346938775510    0.265306122449    0.000000000000       8
    0.367346938776    0.265306122449    0.000000000000       8
    0.387755102041    0.265306122449    0.000000000000       8
    0.408163265306    0.265306122449    0.000000000000       8
    0.428571428571    0.265306122449    0.000000000000       8
    0.448979591837    0.265306122449    0.000000000000       8
    0.469387755102    0.265306122449    0.000000000000       8
    0.489795918367    0.265306122449    0.000000000000       8
    0.285714285714    0.285714285714    0.000000000000       4
    0.306122448980    0.285714285714    0.000000000000       8
    0.326530612245    0.285714285714    0.000000000000       8
    0.346938775510    0.285714285714    0.000000000000       8
    0.367346938776    0.285714285714    0.000000000000       8
    0.387755102041    0.285714285714    0.000000000000       8
    0.408163265306    0.285714285714    0.000000000000       8
    0.428571428571    0.285714285714    0.000000000000       8
    0.448979591837    0.285714285714    0.000000000000       8
    0.469387755102    0.285714285714    0.000000000000       8
    0.489795918367    0.285714285714    0.000000000000       8
    0.306122448980    0.306122448980    0.000000000000       4
    0.326530612245    0.306122448980    0.000000000000       8
    0.346938775510    0.306122448980    0.000000000000       8
    0.367346938776    0.306122448980    0.000000000000       8
    0.387755102041    0.306122448980    0.000000000000       8
    0.408163265306    0.306122448980    0.000000000000       8
    0.428571428571    0.306122448980    0.000000000000       8
    0.448979591837    0.306122448980    0.000000000000       8
    0.469387755102    0.306122448980    0.000000000000       8
    0.489795918367    0.306122448980    0.000000000000       8
    0.326530612245    0.326530612245    0.000000000000       4
    0.346938775510    0.326530612245    0.000000000000       8
    0.367346938776    0.326530612245    0.000000000000       8
    0.387755102041    0.326530612245    0.000000000000       8
    0.408163265306    0.326530612245    0.000000000000       8
    0.428571428571    0.326530612245    0.000000000000       8
    0.448979591837    0.326530612245    0.000000000000       8
    0.469387755102    0.326530612245    0.000000000000       8
    0.489795918367    0.326530612245    0.000000000000       8
    0.346938775510    0.346938775510    0.000000000000       4
    0.367346938776    0.346938775510    0.000000000000       8
    0.387755102041    0.346938775510    0.000000000000       8
    0.408163265306    0.346938775510    0.000000000000       8
    0.428571428571    0.346938775510    0.000000000000       8
    0.448979591837    0.346938775510    0.000000000000       8
    0.469387755102    0.346938775510    0.000000000000       8
    0.489795918367    0.346938775510    0.000000000000       8
    0.367346938776    0.367346938776    0.000000000000       4
    0.387755102041    0.367346938776    0.000000000000       8
    0.408163265306    0.367346938776    0.000000000000       8
    0.428571428571    0.367346938776    0.000000000000       8
    0.448979591837    0.367346938776    0.000000000000       8
    0.469387755102    0.367346938776    0.000000000000       8
    0.489795918367    0.367346938776    0.000000000000       8
    0.387755102041    0.387755102041    0.000000000000       4
    0.408163265306    0.387755102041    0.000000000000       8
    0.428571428571    0.387755102041    0.000000000000       8
    0.448979591837    0.387755102041    0.000000000000       8
    0.469387755102    0.387755102041    0.000000000000       8
    0.489795918367    0.387755102041    0.000000000000       8
    0.408163265306    0.408163265306    0.000000000000       4
    0.428571428571    0.408163265306    0.000000000000       8
    0.448979591837    0.408163265306    0.000000000000       8
    0.469387755102    0.408163265306    0.000000000000       8
    0.489795918367    0.408163265306    0.000000000000       8
    0.428571428571    0.428571428571    0.000000000000       4
    0.448979591837    0.428571428571    0.000000000000       8
    0.469387755102    0.428571428571    0.000000000000       8
    0.489795918367    0.428571428571    0.000000000000       8
    0.448979591837    0.448979591837    0.000000000000       4
    0.469387755102    0.448979591837    0.000000000000       8
    0.489795918367    0.448979591837    0.000000000000       8
    0.469387755102    0.469387755102    0.000000000000       4
    0.489795918367    0.469387755102    0.000000000000       8
    0.489795918367    0.489795918367    0.000000000000       4
