CONTCAR\(3)                             
   1.00000000000000     
    15.9806995391999997    0.0000000000000000    0.0000000000000000
     5.6024719189000001   15.1421999817999993    0.0000000000000000
     0.0000000000000000    0.0000000000000000   20.5363998412999997
   Cu   Se   Cl   O 
    27    18    18    55
Direct
  0.2847709373617922  0.2861973704909859  0.4497473278549894
  0.1669694282947379  0.1669905907164194  0.5004783574792038
  0.0496817072514693  0.0473187607026178  0.5518298873364074
  0.6283214626239279  0.2948749897075256  0.4271930729175083
  0.5013986597104526  0.1675637070766891  0.5053126168440908
  0.3716392432693060  0.0376947710971489  0.5744416968902597
  0.9626868535145916  0.2965924436908436  0.4269693236895071
  0.8333952512084850  0.1687937830743902  0.4965124560436115
  0.7063612112371043  0.0402677472865031  0.5686924070004921
  0.2952431036904904  0.6285889175444567  0.4254127065594799
  0.1643984122477124  0.5011882861155464  0.5042951274876967
  0.0377896761981663  0.3712988360810435  0.5736715606323636
  0.6185835219806348  0.6195081626459082  0.4471328453735022
  0.5010392157930198  0.5001825919813816  0.4971822703013843
  0.3785881616017703  0.3791682495577699  0.5590802686559176
  0.9623349206352101  0.6289803404694927  0.4300706436558541
  0.8356158003541064  0.4984048015089151  0.5006135485773616
  0.7054404679218136  0.3698744537756197  0.5702115346831123
  0.2968665473161223  0.9628287827052650  0.4296936698497520
  0.1698185013173031  0.8325706540760842  0.4956940484446906
  0.0376716796102798  0.7069537524398434  0.5726868229493018
  0.6269811568773032  0.9627978951717356  0.4327109775418918
  0.4982863105468943  0.8342663720189872  0.5035996855416199
  0.3724426595216381  0.7035992118133584  0.5691697085128293
  0.9519512389838009  0.9526465519760777  0.4424234505927782
  0.8335120786379197  0.8341041446077747  0.5002528835825996
  0.7157354306005832  0.7145982158873024  0.5562932235215665
  0.0896030617057385  0.0895748167757339  0.4011373075519907
  0.2440976722024935  0.2436174213328018  0.6004584500784239
  0.4209709620729447  0.0906014144165285  0.4066941070266045
  0.5847022606876439  0.2479833726941093  0.6006525970504978
  0.7538715111504858  0.0866494877869805  0.4013692984548925
  0.9145390314745145  0.2437615040624162  0.5957950399830070
  0.0893291192526934  0.4214243084627165  0.4046447269597052
  0.2449864807466675  0.5838115806188462  0.5980525141189635
  0.4195119127793793  0.4198893865123335  0.4037334683258932
  0.5796958781246784  0.5747664271054658  0.5971621058852939
  0.7536163243302221  0.4235210019046639  0.4018363984855629
  0.9122721301384353  0.5802979424461484  0.5981816563566092
  0.0855695144676913  0.7545057694960546  0.4011817510762122
  0.2454543132912000  0.9109950286946776  0.5959503851972583
  0.4225049688506989  0.7550521482162966  0.4035023578080017
  0.5815578546986258  0.9124520237425184  0.5991098450050411
  0.7540067713135332  0.7550368137441286  0.4039245775023901
  0.9127803576142679  0.9148725476774788  0.5958951472140815
  0.0932374443391129  0.0887058696758887  0.6448909058223020
  0.2420934607600969  0.2440011387228297  0.3569987557796807
  0.4348503945076135  0.1029131826528316  0.6431471618443395
  0.5601930769249818  0.2333987974630417  0.3590466601065127
  0.7756877057125688  0.0970201251451207  0.6397702873382585
  0.9002151746864896  0.2321639104785411  0.3572475157404758
  0.1048785807585009  0.4313928359216134  0.6436496346611591
  0.2309268871175426  0.5626345385800026  0.3580566986823854
  0.4153493890643499  0.4124810593928938  0.6617399426626170
  0.5737119219113836  0.5776459214744815  0.3547929627121707
  0.7687235353347853  0.4356730106689279  0.6383407006483461
  0.8966841571478112  0.5678276215483968  0.3601146909548826
  0.1045947787555437  0.7693214159058580  0.6413995098734604
  0.2321998128829768  0.9010953470871013  0.3592673518924436
  0.4365414777675163  0.7639358976000928  0.6409230537924869
  0.5615545108918665  0.9028670413301638  0.3614479485113629
  0.7632679461132749  0.7573182139395355  0.6472387257030700
  0.9048045566373993  0.9064475741504465  0.3527714043495919
  0.1380762171850294  0.2653546996786093  0.5625725815604965
  0.1959210182466633  0.0685052821193924  0.4388671589040969
  0.0408403945460762  0.0373121673509359  0.4521017348600589
  0.2931693890320011  0.2962713139835130  0.5496609796117280
  0.0663438702085426  0.1941908124324230  0.4400580695798859
  0.2675874439117138  0.1396017715695614  0.5611050236096029
  0.4790836612206049  0.2714251808340227  0.5609886811091870
  0.5261162755727333  0.0675599189956857  0.4458868293018393
  0.3731626026509905  0.0336213015199405  0.4539410775255083
  0.6343494164714768  0.2960612125484255  0.5463848639266851
  0.3945265226067408  0.1898621613025597  0.4535487144142955
  0.6064753426910753  0.1432099747323483  0.5573928057103563
  0.8086775912607558  0.2673489762392039  0.5575981866197777
  0.8580007316797771  0.0641448378177638  0.4421263438566540
  0.7047611601901170  0.0351467194034577  0.4524252833396013
  0.9610734272854885  0.3018510063734823  0.5484702527386994
  0.7300956561688124  0.1912878674161698  0.4398737622010070
  0.9407045869537534  0.1453002893991832  0.5485763614797149
  0.1394563659515662  0.6035181465077161  0.5613774864477888
  0.1901975812856307  0.3967521921071263  0.4506924696555032
  0.0363260127121997  0.3692527311345977  0.4516735772386899
  0.2935111314743316  0.6344803037940205  0.5461402532253228
  0.0633394045845351  0.5248141532797087  0.4453523960404430
  0.2709003304967072  0.4790577641510036  0.5585945913570646
  0.4715041172024451  0.5952282788637194  0.5618261680548448
  0.5280277897993036  0.4005790613440046  0.4371561492926895
  0.3736498324517917  0.3704793921539752  0.4589885506102887
  0.6253133947637993  0.6308836106042430  0.5470529231340940
  0.3980802565280164  0.5259928729566731  0.4397384851862468
  0.6044878245092198  0.4732530295746987  0.5539276076913540
  0.8101025839539028  0.6034379471573386  0.5546410625608788
  0.8595492572783971  0.3990942269286136  0.4403691400855876
  0.7064738899190903  0.3654842267678696  0.4483688663602275
  0.9632110738603760  0.6332861359452771  0.5498759163863050
  0.7281197959504483  0.5221809727160546  0.4491604241132203
  0.9386106821133272  0.4765682051993384  0.5576585969913116
  0.1443337666233064  0.9361228387319417  0.5506676555099047
  0.1928133224674458  0.7320327927151398  0.4372563124126473
  0.0392873285439947  0.7002570245190767  0.4521122822543733
  0.2976353249656103  0.9650706632950127  0.5498006309590064
  0.0617560207618272  0.8558020102315310  0.4446821704425085
  0.2723701368063040  0.8086723279972495  0.5535022582420059
  0.4746742485670452  0.9348212684493570  0.5624970511852498
  0.5235254269433232  0.7303022152943214  0.4487319690024538
  0.3707800415947469  0.7004778604363960  0.4497779927814788
  0.6287576678984524  0.9670491885586013  0.5491656210876162
  0.3960499235224013  0.8576597834591546  0.4456989071253329
  0.6059443757008285  0.8115114022391366  0.5551363067819859
  0.8059253683262418  0.9341254726922611  0.5599574332809528
  0.8612128329454176  0.7344806617911298  0.4399872704760692
  0.7059555201027148  0.7042348011978052  0.4565953159258802
  0.9608411992281009  0.9644135048599465  0.5422873396476769
  0.7314995433419971  0.8600768753313822  0.4418552117087399
  0.9351086833478730  0.8089484791665323  0.5591286327122238
  0.5227945560725367  0.3854797064840354  0.6544184600071553
 
  0.00000000E+00  0.00000000E+00  0.00000000E+00
  0.00000000E+00  0.00000000E+00  0.00000000E+00
  0.00000000E+00  0.00000000E+00  0.00000000E+00
  0.00000000E+00  0.00000000E+00  0.00000000E+00
  0.00000000E+00  0.00000000E+00  0.00000000E+00
  0.00000000E+00  0.00000000E+00  0.00000000E+00
  0.00000000E+00  0.00000000E+00  0.00000000E+00
  0.00000000E+00  0.00000000E+00  0.00000000E+00
  0.00000000E+00  0.00000000E+00  0.00000000E+00
  0.00000000E+00  0.00000000E+00  0.00000000E+00
  0.00000000E+00  0.00000000E+00  0.00000000E+00
  0.00000000E+00  0.00000000E+00  0.00000000E+00
  0.00000000E+00  0.00000000E+00  0.00000000E+00
  0.00000000E+00  0.00000000E+00  0.00000000E+00
  0.00000000E+00  0.00000000E+00  0.00000000E+00
  0.00000000E+00  0.00000000E+00  0.00000000E+00
  0.00000000E+00  0.00000000E+00  0.00000000E+00
  0.00000000E+00  0.00000000E+00  0.00000000E+00
  0.00000000E+00  0.00000000E+00  0.00000000E+00
  0.00000000E+00  0.00000000E+00  0.00000000E+00
  0.00000000E+00  0.00000000E+00  0.00000000E+00
  0.00000000E+00  0.00000000E+00  0.00000000E+00
  0.00000000E+00  0.00000000E+00  0.00000000E+00
  0.00000000E+00  0.00000000E+00  0.00000000E+00
  0.00000000E+00  0.00000000E+00  0.00000000E+00
  0.00000000E+00  0.00000000E+00  0.00000000E+00
  0.00000000E+00  0.00000000E+00  0.00000000E+00
  0.00000000E+00  0.00000000E+00  0.00000000E+00
  0.00000000E+00  0.00000000E+00  0.00000000E+00
  0.00000000E+00  0.00000000E+00  0.00000000E+00
  0.00000000E+00  0.00000000E+00  0.00000000E+00
  0.00000000E+00  0.00000000E+00  0.00000000E+00
  0.00000000E+00  0.00000000E+00  0.00000000E+00
  0.00000000E+00  0.00000000E+00  0.00000000E+00
  0.00000000E+00  0.00000000E+00  0.00000000E+00
  0.00000000E+00  0.00000000E+00  0.00000000E+00
  0.00000000E+00  0.00000000E+00  0.00000000E+00
  0.00000000E+00  0.00000000E+00  0.00000000E+00
  0.00000000E+00  0.00000000E+00  0.00000000E+00
  0.00000000E+00  0.00000000E+00  0.00000000E+00
  0.00000000E+00  0.00000000E+00  0.00000000E+00
  0.00000000E+00  0.00000000E+00  0.00000000E+00
  0.00000000E+00  0.00000000E+00  0.00000000E+00
  0.00000000E+00  0.00000000E+00  0.00000000E+00
  0.00000000E+00  0.00000000E+00  0.00000000E+00
  0.00000000E+00  0.00000000E+00  0.00000000E+00
  0.00000000E+00  0.00000000E+00  0.00000000E+00
  0.00000000E+00  0.00000000E+00  0.00000000E+00
  0.00000000E+00  0.00000000E+00  0.00000000E+00
  0.00000000E+00  0.00000000E+00  0.00000000E+00
  0.00000000E+00  0.00000000E+00  0.00000000E+00
  0.00000000E+00  0.00000000E+00  0.00000000E+00
  0.00000000E+00  0.00000000E+00  0.00000000E+00
  0.00000000E+00  0.00000000E+00  0.00000000E+00
  0.00000000E+00  0.00000000E+00  0.00000000E+00
  0.00000000E+00  0.00000000E+00  0.00000000E+00
  0.00000000E+00  0.00000000E+00  0.00000000E+00
  0.00000000E+00  0.00000000E+00  0.00000000E+00
  0.00000000E+00  0.00000000E+00  0.00000000E+00
  0.00000000E+00  0.00000000E+00  0.00000000E+00
  0.00000000E+00  0.00000000E+00  0.00000000E+00
  0.00000000E+00  0.00000000E+00  0.00000000E+00
  0.00000000E+00  0.00000000E+00  0.00000000E+00
  0.00000000E+00  0.00000000E+00  0.00000000E+00
  0.00000000E+00  0.00000000E+00  0.00000000E+00
  0.00000000E+00  0.00000000E+00  0.00000000E+00
  0.00000000E+00  0.00000000E+00  0.00000000E+00
  0.00000000E+00  0.00000000E+00  0.00000000E+00
  0.00000000E+00  0.00000000E+00  0.00000000E+00
  0.00000000E+00  0.00000000E+00  0.00000000E+00
  0.00000000E+00  0.00000000E+00  0.00000000E+00
  0.00000000E+00  0.00000000E+00  0.00000000E+00
  0.00000000E+00  0.00000000E+00  0.00000000E+00
  0.00000000E+00  0.00000000E+00  0.00000000E+00
  0.00000000E+00  0.00000000E+00  0.00000000E+00
  0.00000000E+00  0.00000000E+00  0.00000000E+00
  0.00000000E+00  0.00000000E+00  0.00000000E+00
  0.00000000E+00  0.00000000E+00  0.00000000E+00
  0.00000000E+00  0.00000000E+00  0.00000000E+00
  0.00000000E+00  0.00000000E+00  0.00000000E+00
  0.00000000E+00  0.00000000E+00  0.00000000E+00
  0.00000000E+00  0.00000000E+00  0.00000000E+00
  0.00000000E+00  0.00000000E+00  0.00000000E+00
  0.00000000E+00  0.00000000E+00  0.00000000E+00
  0.00000000E+00  0.00000000E+00  0.00000000E+00
  0.00000000E+00  0.00000000E+00  0.00000000E+00
  0.00000000E+00  0.00000000E+00  0.00000000E+00
  0.00000000E+00  0.00000000E+00  0.00000000E+00
  0.00000000E+00  0.00000000E+00  0.00000000E+00
  0.00000000E+00  0.00000000E+00  0.00000000E+00
  0.00000000E+00  0.00000000E+00  0.00000000E+00
  0.00000000E+00  0.00000000E+00  0.00000000E+00
  0.00000000E+00  0.00000000E+00  0.00000000E+00
  0.00000000E+00  0.00000000E+00  0.00000000E+00
  0.00000000E+00  0.00000000E+00  0.00000000E+00
  0.00000000E+00  0.00000000E+00  0.00000000E+00
  0.00000000E+00  0.00000000E+00  0.00000000E+00
  0.00000000E+00  0.00000000E+00  0.00000000E+00
  0.00000000E+00  0.00000000E+00  0.00000000E+00
  0.00000000E+00  0.00000000E+00  0.00000000E+00
  0.00000000E+00  0.00000000E+00  0.00000000E+00
  0.00000000E+00  0.00000000E+00  0.00000000E+00
  0.00000000E+00  0.00000000E+00  0.00000000E+00
  0.00000000E+00  0.00000000E+00  0.00000000E+00
  0.00000000E+00  0.00000000E+00  0.00000000E+00
  0.00000000E+00  0.00000000E+00  0.00000000E+00
  0.00000000E+00  0.00000000E+00  0.00000000E+00
  0.00000000E+00  0.00000000E+00  0.00000000E+00
  0.00000000E+00  0.00000000E+00  0.00000000E+00
  0.00000000E+00  0.00000000E+00  0.00000000E+00
  0.00000000E+00  0.00000000E+00  0.00000000E+00
  0.00000000E+00  0.00000000E+00  0.00000000E+00
  0.00000000E+00  0.00000000E+00  0.00000000E+00
  0.00000000E+00  0.00000000E+00  0.00000000E+00
  0.00000000E+00  0.00000000E+00  0.00000000E+00
  0.00000000E+00  0.00000000E+00  0.00000000E+00
  0.00000000E+00  0.00000000E+00  0.00000000E+00
  0.00000000E+00  0.00000000E+00  0.00000000E+00
