 Pt2 Pb8                                
   1.00000000000000     
     6.7863545763997424    0.0000000000000000    0.0000000000000000
     0.0000000000000000    6.7863513973668894    0.0000000000000000
     0.0000000000000000    0.0000000000000000   18.0848778823679979
   Pt   Pb
     2     8
Direct
 -0.0000000289894864  0.0000000130874088  0.4999999991452326
  0.5000000126919690  0.4999999844586074  0.5000000003737874
  0.6676930173435053  0.8323070112854096  0.4195988397662386
  0.1676929867435878  0.6676929838661038  0.4195988787985096
  0.1676929844040853  0.3323069812559747  0.5804011551479887
  0.8323069874230776  0.6676929776053613  0.5804011563208007
  0.3323070178920761  0.8323070274978712  0.5804011163656094
  0.6676929930782505  0.1676929963424237  0.5804011882892203
  0.3323070156624082  0.1676930113691494  0.4195988486019445
  0.8323070137505270  0.3323070132316921  0.4195988171906675
 
  0.00000000E+00  0.00000000E+00  0.00000000E+00
  0.00000000E+00  0.00000000E+00  0.00000000E+00
  0.00000000E+00  0.00000000E+00  0.00000000E+00
  0.00000000E+00  0.00000000E+00  0.00000000E+00
  0.00000000E+00  0.00000000E+00  0.00000000E+00
  0.00000000E+00  0.00000000E+00  0.00000000E+00
  0.00000000E+00  0.00000000E+00  0.00000000E+00
  0.00000000E+00  0.00000000E+00  0.00000000E+00
  0.00000000E+00  0.00000000E+00  0.00000000E+00
  0.00000000E+00  0.00000000E+00  0.00000000E+00
