 Ce2 Si2 I2                             
   1.00000000000000     
     4.1167898931236664    0.0000000000000000    0.0000000000000000
    -2.0583949465618332    3.5652465806953537    0.0000000000000000
     0.0000000000000000    0.0000000000000000   23.1849232981200046
   Ce   Si   I 
     2     2     2
Direct
  0.9999999974557596  0.0000000350243283  0.5831610461870866
  0.9999999713793883  0.9999998431701442  0.4168384892337897
  0.3333333013008399  0.6666667504174413  0.5020054018014903
  0.6666666810276141  0.3333333479511680  0.4979939619867508
  0.3333331141565310  0.6666669173740871  0.3236549289633501
  0.6666669346798599  0.3333331060628382  0.6763461718275252
 
  0.00000000E+00  0.00000000E+00  0.00000000E+00
  0.00000000E+00  0.00000000E+00  0.00000000E+00
  0.00000000E+00  0.00000000E+00  0.00000000E+00
  0.00000000E+00  0.00000000E+00  0.00000000E+00
  0.00000000E+00  0.00000000E+00  0.00000000E+00
  0.00000000E+00  0.00000000E+00  0.00000000E+00
