CONTCAR\(8)                             
   1.00000000000000     
    18.0454998015999983    0.0000000000000000    0.0000000000000000
    -9.0227856342999999   15.5459183949999993    0.0000000000000000
     0.0000000000000000    0.0000000000000000   17.8997001647999987
   Ti   Cl   O    H 
    18    54     2     1
Direct
  0.3005867291382048  0.2646712385208297  0.4976712591218952
  0.0720182662425046  0.1447128290418220  0.4986984026145633
  0.6320252444378838  0.2639453730586764  0.4979840112913786
  0.4053190158188753  0.1445714925032611  0.4985868537126930
  0.9659160922908379  0.2644772974350311  0.4981396154172523
  0.7390728291814570  0.1448166040422704  0.4980672846294949
  0.2990885567019663  0.5974395938403240  0.4970871234727969
  0.0723401281201552  0.4779137201632945  0.4971874658960144
  0.6308322470826181  0.5981545679167314  0.4967880944615459
  0.4063026006029612  0.4781155606477573  0.4969739042110478
  0.9648634483671910  0.5975920119326604  0.4976570750267026
  0.7392708294477368  0.4774862564628341  0.4971355409675480
  0.2983252219390418  0.9306152927063398  0.4985211656939054
  0.0724028183386663  0.8113063445366717  0.4981747813439495
  0.6319836733621726  0.9310750027333315  0.4976066908166884
  0.4059119124350316  0.8111854458134804  0.4972336923012561
  0.9653889562320142  0.9311119751098831  0.4985297300216221
  0.7395113459759776  0.8116993832950881  0.4970606068141703
  0.0709296360079964  0.0378293543808399  0.5802550523868147
  0.2997391914435995  0.0376422383005884  0.4171197529838170
  0.1852685674249144  0.1523962940459891  0.4213863879894946
  0.0708665219966854  0.2565360243299892  0.4206402136522860
  0.3011037301003487  0.1529644119949831  0.5764321731736809
  0.1869223709746250  0.2567295866956674  0.5753785876807772
  0.4042161831649974  0.0374124280466223  0.5798428240386599
  0.6335770271298170  0.0381926714338314  0.4162731542614654
  0.5183785702816249  0.1518596810922347  0.4210352709170682
  0.4038732042430241  0.2556026372619830  0.4193994570560164
  0.6342948785953786  0.1526722552262314  0.5759494679844382
  0.5192225410236639  0.2563627424078917  0.5756812078016397
  0.7377161928468796  0.0377328975510064  0.5793203618221320
  0.9670024722861961  0.0382345787025674  0.4169302080911871
  0.8522344567466570  0.1526162682819223  0.4206743837062409
  0.7372562720737849  0.2564633083508657  0.4203854610827010
  0.9677700107126644  0.1531571765069676  0.5765922562149217
  0.8527075297452346  0.2566413875900710  0.5755479388789413
  0.0714303693064139  0.3716689897213279  0.5793103396337238
  0.3002809919809597  0.3707172649322398  0.4159516400566436
  0.1849660826736163  0.4860135159271174  0.4193380372597803
  0.0701019724005317  0.5896346197291641  0.4199256499917006
  0.3011780362061420  0.4860804612211219  0.5739443414388707
  0.1861636791846767  0.5896167025036136  0.5746904943740511
  0.4059225602359698  0.3715476029350895  0.5776356364609609
  0.6330488235469283  0.3703889377188859  0.4160998844105641
  0.5185814112492537  0.4863515814904978  0.4183054253183574
  0.4035187077886701  0.5894180702868096  0.4189819560067380
  0.6340589529320820  0.4866100023707122  0.5737720619786485
  0.5195733004719781  0.5904052433472439  0.5736003636987433
  0.7373835131830632  0.3713581408496559  0.5795240232474188
  0.9665830744632001  0.3708764635271771  0.4160778434671721
  0.8516986198258477  0.4858491984819067  0.4193483353511481
  0.7366998030425473  0.5891668676050882  0.4199498666607129
  0.9672726940042178  0.4858734246441676  0.5749169382132441
  0.8522458390130283  0.5895146912458823  0.5752475584032801
  0.0707241162979532  0.7041413320963616  0.5793286155357698
  0.3002111375182921  0.7044730376860714  0.4157146756780074
  0.1849816006960915  0.8191107786204527  0.4204024610229166
  0.0708188679434561  0.9234435921130809  0.4210464412722854
  0.3006997632825540  0.8187277710586930  0.5752376610931217
  0.1856926520493450  0.9225898166030463  0.5763751404417896
  0.4045663357958668  0.7042419194466620  0.5785045691628018
  0.6343452305459764  0.7051557281242075  0.4144863261550217
  0.5187382117781608  0.8196540445073396  0.4193789567765520
  0.4034049309922085  0.9229926020417333  0.4203911168251713
  0.6338515249765646  0.8190386993353806  0.5743861745607302
  0.5191703185485246  0.9228393783426848  0.5752496088461063
  0.7373611187244701  0.7045827063757105  0.5782286556191599
  0.9665570864371671  0.7046984111731539  0.4163409557029034
  0.8525634018317100  0.8199172110962812  0.4197971965200626
  0.7374981773883872  0.9236465065992538  0.4199142103463275
  0.9670151536105479  0.8190874469947665  0.5756647033297230
  0.8522142739181980  0.9230757949831916  0.5756174808105633
  0.4166417307237422  0.5022436496623568  0.7262225697992504
  0.3862136407760106  0.4198350751109052  0.7506860691578069
  0.3313139791422090  0.4043768855303998  0.7753095358354752
 
  0.00000000E+00  0.00000000E+00  0.00000000E+00
  0.00000000E+00  0.00000000E+00  0.00000000E+00
  0.00000000E+00  0.00000000E+00  0.00000000E+00
  0.00000000E+00  0.00000000E+00  0.00000000E+00
  0.00000000E+00  0.00000000E+00  0.00000000E+00
  0.00000000E+00  0.00000000E+00  0.00000000E+00
  0.00000000E+00  0.00000000E+00  0.00000000E+00
  0.00000000E+00  0.00000000E+00  0.00000000E+00
  0.00000000E+00  0.00000000E+00  0.00000000E+00
  0.00000000E+00  0.00000000E+00  0.00000000E+00
  0.00000000E+00  0.00000000E+00  0.00000000E+00
  0.00000000E+00  0.00000000E+00  0.00000000E+00
  0.00000000E+00  0.00000000E+00  0.00000000E+00
  0.00000000E+00  0.00000000E+00  0.00000000E+00
  0.00000000E+00  0.00000000E+00  0.00000000E+00
  0.00000000E+00  0.00000000E+00  0.00000000E+00
  0.00000000E+00  0.00000000E+00  0.00000000E+00
  0.00000000E+00  0.00000000E+00  0.00000000E+00
  0.00000000E+00  0.00000000E+00  0.00000000E+00
  0.00000000E+00  0.00000000E+00  0.00000000E+00
  0.00000000E+00  0.00000000E+00  0.00000000E+00
  0.00000000E+00  0.00000000E+00  0.00000000E+00
  0.00000000E+00  0.00000000E+00  0.00000000E+00
  0.00000000E+00  0.00000000E+00  0.00000000E+00
  0.00000000E+00  0.00000000E+00  0.00000000E+00
  0.00000000E+00  0.00000000E+00  0.00000000E+00
  0.00000000E+00  0.00000000E+00  0.00000000E+00
  0.00000000E+00  0.00000000E+00  0.00000000E+00
  0.00000000E+00  0.00000000E+00  0.00000000E+00
  0.00000000E+00  0.00000000E+00  0.00000000E+00
  0.00000000E+00  0.00000000E+00  0.00000000E+00
  0.00000000E+00  0.00000000E+00  0.00000000E+00
  0.00000000E+00  0.00000000E+00  0.00000000E+00
  0.00000000E+00  0.00000000E+00  0.00000000E+00
  0.00000000E+00  0.00000000E+00  0.00000000E+00
  0.00000000E+00  0.00000000E+00  0.00000000E+00
  0.00000000E+00  0.00000000E+00  0.00000000E+00
  0.00000000E+00  0.00000000E+00  0.00000000E+00
  0.00000000E+00  0.00000000E+00  0.00000000E+00
  0.00000000E+00  0.00000000E+00  0.00000000E+00
  0.00000000E+00  0.00000000E+00  0.00000000E+00
  0.00000000E+00  0.00000000E+00  0.00000000E+00
  0.00000000E+00  0.00000000E+00  0.00000000E+00
  0.00000000E+00  0.00000000E+00  0.00000000E+00
  0.00000000E+00  0.00000000E+00  0.00000000E+00
  0.00000000E+00  0.00000000E+00  0.00000000E+00
  0.00000000E+00  0.00000000E+00  0.00000000E+00
  0.00000000E+00  0.00000000E+00  0.00000000E+00
  0.00000000E+00  0.00000000E+00  0.00000000E+00
  0.00000000E+00  0.00000000E+00  0.00000000E+00
  0.00000000E+00  0.00000000E+00  0.00000000E+00
  0.00000000E+00  0.00000000E+00  0.00000000E+00
  0.00000000E+00  0.00000000E+00  0.00000000E+00
  0.00000000E+00  0.00000000E+00  0.00000000E+00
  0.00000000E+00  0.00000000E+00  0.00000000E+00
  0.00000000E+00  0.00000000E+00  0.00000000E+00
  0.00000000E+00  0.00000000E+00  0.00000000E+00
  0.00000000E+00  0.00000000E+00  0.00000000E+00
  0.00000000E+00  0.00000000E+00  0.00000000E+00
  0.00000000E+00  0.00000000E+00  0.00000000E+00
  0.00000000E+00  0.00000000E+00  0.00000000E+00
  0.00000000E+00  0.00000000E+00  0.00000000E+00
  0.00000000E+00  0.00000000E+00  0.00000000E+00
  0.00000000E+00  0.00000000E+00  0.00000000E+00
  0.00000000E+00  0.00000000E+00  0.00000000E+00
  0.00000000E+00  0.00000000E+00  0.00000000E+00
  0.00000000E+00  0.00000000E+00  0.00000000E+00
  0.00000000E+00  0.00000000E+00  0.00000000E+00
  0.00000000E+00  0.00000000E+00  0.00000000E+00
  0.00000000E+00  0.00000000E+00  0.00000000E+00
  0.00000000E+00  0.00000000E+00  0.00000000E+00
  0.00000000E+00  0.00000000E+00  0.00000000E+00
  0.00000000E+00  0.00000000E+00  0.00000000E+00
  0.00000000E+00  0.00000000E+00  0.00000000E+00
  0.00000000E+00  0.00000000E+00  0.00000000E+00
