CONTCAR\(6)                             
   1.00000000000000     
    12.8154001235999999    0.0000000000000000    0.0000000000000000
     6.4077083683999998   11.0983416437999995    0.0000000000000000
     0.0000000000000000    0.0000000000000000   33.6823997497999983
   Ge   Bi   Te   O 
    27    18    54     1
Direct
  0.1112095554906429  0.1114037705717478  0.2646035438492423
  0.2217552995830385  0.2216227200087384  0.7376690196987349
  0.2227666037075638  0.2228905080314354  0.3740770314981546
  0.4447968144365864  0.1111275821320929  0.2647089176368417
  0.5540682505968978  0.2181418458865588  0.7390422825242897
  0.5557022006087513  0.2227028634472302  0.3739696495434448
  0.7781737309434251  0.1112172421867017  0.2645756522593424
  0.8898206100579816  0.2259466655970254  0.7386786066384936
  0.8892391619479592  0.2228463242467415  0.3740062662205939
  0.1110321562284186  0.4449075749022714  0.2647125880646703
  0.2184565692054733  0.5556923116248397  0.7389492080550085
  0.2225004592191702  0.5559614611360252  0.3739720518492797
  0.4447939579890110  0.4448127210306957  0.2647159661515920
  0.5581029805797244  0.5548074605346394  0.7462062567574991
  0.5555793067511162  0.5558212055893476  0.3740343757661253
  0.7779917698846994  0.4449968058194750  0.2649151909529736
  0.8898465779398834  0.5591842823066703  0.7374300351176746
  0.8898124226767445  0.5559223578127857  0.3741635983222746
  0.1112044146671008  0.7782118738252644  0.2645789787612950
  0.2260242299957224  0.8893624030728555  0.7387412370827462
  0.2226145642994660  0.8894683952450010  0.3740375425079980
  0.4449168730165597  0.7781048335644052  0.2649308778760466
  0.5585192857851949  0.8886649387666817  0.7374715631399935
  0.5558122824064088  0.8899024003089545  0.3741738760894541
  0.7777852010060555  0.7778799009236790  0.2649227323564220
  0.8910378944936248  0.8919442212258413  0.7389418611977697
  0.8893378026023854  0.8894637493034425  0.3741156371818992
  0.0008893494570925  0.0009039189713880  0.4939702733783037
  0.1120828877891919  0.1121400607432198  0.6183155625735289
  0.3338827105647382  0.0012354149727536  0.4937598248030489
  0.4460422222209934  0.1120736408873152  0.6184735079537808
  0.6681030806734203  0.0005769082845789  0.4941875356337990
  0.7788152264745828  0.1134250317074619  0.6190556314336431
  0.0009114222990616  0.3340425104751343  0.4937563905418914
  0.1116473294351602  0.4466492148555813  0.6184553071711234
  0.3338491472398326  0.3343528028940005  0.4937434356735296
  0.4455551524666124  0.4459156064069846  0.6190448693055679
  0.6671327070015820  0.3339565958861020  0.4937686771944473
  0.7779235596595848  0.4445767678909106  0.6184724799359813
  0.0003428059055515  0.6680021147799388  0.4942481055420068
  0.1133992047584884  0.7790596400946630  0.6189811713558133
  0.3340200857732342  0.6671175050095721  0.4937788376611760
  0.4447060475239822  0.7781114113878047  0.6183864027923274
  0.6671383365818460  0.6673892967514540  0.4935595168142130
  0.7788475580257669  0.7790487310856988  0.6181809043585571
  0.0005053110284611  0.0006073746585190  0.3319820348962533
  0.1120194381461564  0.1119300717708247  0.7801768202499980
  0.1119155210840232  0.1120013340235321  0.4398668835575457
  0.2232563760309503  0.2236066114930784  0.5561484110800270
  0.2225167924633969  0.2225940592276174  0.2232799934530192
  0.0015895030230033  0.0014890154967566  0.6722968594574192
  0.3337593910453654  0.0006158134447731  0.3318479688478089
  0.4441925121120572  0.1094701945699286  0.7798762442856981
  0.4456002246762982  0.1118866274555492  0.4400634079967135
  0.5564064856499291  0.2235257711618596  0.5559958565688060
  0.5556495851921500  0.2226094814488989  0.2232402682415930
  0.3343272831355775  0.0006846968834966  0.6716260068966019
  0.6672570644745327  0.0005847474796653  0.3318233475750680
  0.7775987109266439  0.1143119282291515  0.7808009836509526
  0.7787897412438010  0.1115467565432707  0.4400291389176865
  0.8898042973003865  0.2232902123893686  0.5556536380342721
  0.8886402879265907  0.2233622118184612  0.2232066532840130
  0.6688547882936824  0.0008917145899798  0.6718716579292041
  0.0004962236439691  0.3339299148326069  0.3318329798703856
  0.1107262059506435  0.4445146863471872  0.7798698573441925
  0.1116415912614550  0.4455402737900032  0.4399591791260987
  0.2233883328644808  0.5566588780455676  0.5560019381703547
  0.2225944056210854  0.5556709928350733  0.2232396240445901
  0.0005840343113849  0.3344017561278625  0.6716153423710636
  0.3337567667701237  0.3339269675380175  0.3316954892087980
  0.4146225336790631  0.4148469003551533  0.7902327955968531
  0.4449837996140287  0.4451838317530351  0.4398156595634860
  0.5562044834154101  0.5563782369184320  0.5558046200745125
  0.5560615670789044  0.5561165766851773  0.2233445223710059
  0.3340713461069501  0.3344397237553079  0.6720183125634266
  0.6669054546644254  0.3336533372123501  0.3317869233764572
  0.7900783277018869  0.4466633013431457  0.7811394210399929
  0.7784678823999109  0.4449356410968278  0.4399558984112400
  0.8890778128499705  0.5564253452662894  0.5561496471829762
  0.8886623784979113  0.5561155459634020  0.2232725005650466
  0.6669049510525115  0.3354452328610844  0.6727996944595727
  0.0004276821490425  0.6673716692290093  0.3318068868128670
  0.1137620085440372  0.7785734499729250  0.7809103570693054
  0.1114750639392215  0.7785952394080822  0.4401306623958655
  0.2231333746386612  0.8901245573214369  0.5556849023238342
  0.2232796335954328  0.8889172407098637  0.2232412805771120
  0.0009078934270308  0.6692685663707882  0.6718615276517871
  0.3333906798030767  0.6673478520830436  0.3318180299921446
  0.4467413793479679  0.7880609621684399  0.7811904289561227
  0.4448145367308358  0.7787926827120284  0.4399965326983207
  0.5564497072144536  0.8894403111516621  0.5560941724200217
  0.5560763241822975  0.8886733439052525  0.2232780067182220
  0.3353241746142075  0.6672291298999725  0.6727834551395476
  0.6670051431484563  0.6672856152775440  0.3322016490827868
  0.7796867270054680  0.7799683057229567  0.7799616094106406
  0.7785632167612895  0.7785738035982722  0.4400420643336943
  0.8901574167519589  0.8903400421440461  0.5556604030848888
  0.8886327186410256  0.8886247652698975  0.2232044493263595
  0.6676844074146913  0.6677177062642285  0.6714678729956681
  0.5079451288833252  0.4989659051936074  0.7895719205255028
 
  0.00000000E+00  0.00000000E+00  0.00000000E+00
  0.00000000E+00  0.00000000E+00  0.00000000E+00
  0.00000000E+00  0.00000000E+00  0.00000000E+00
  0.00000000E+00  0.00000000E+00  0.00000000E+00
  0.00000000E+00  0.00000000E+00  0.00000000E+00
  0.00000000E+00  0.00000000E+00  0.00000000E+00
  0.00000000E+00  0.00000000E+00  0.00000000E+00
  0.00000000E+00  0.00000000E+00  0.00000000E+00
  0.00000000E+00  0.00000000E+00  0.00000000E+00
  0.00000000E+00  0.00000000E+00  0.00000000E+00
  0.00000000E+00  0.00000000E+00  0.00000000E+00
  0.00000000E+00  0.00000000E+00  0.00000000E+00
  0.00000000E+00  0.00000000E+00  0.00000000E+00
  0.00000000E+00  0.00000000E+00  0.00000000E+00
  0.00000000E+00  0.00000000E+00  0.00000000E+00
  0.00000000E+00  0.00000000E+00  0.00000000E+00
  0.00000000E+00  0.00000000E+00  0.00000000E+00
  0.00000000E+00  0.00000000E+00  0.00000000E+00
  0.00000000E+00  0.00000000E+00  0.00000000E+00
  0.00000000E+00  0.00000000E+00  0.00000000E+00
  0.00000000E+00  0.00000000E+00  0.00000000E+00
  0.00000000E+00  0.00000000E+00  0.00000000E+00
  0.00000000E+00  0.00000000E+00  0.00000000E+00
  0.00000000E+00  0.00000000E+00  0.00000000E+00
  0.00000000E+00  0.00000000E+00  0.00000000E+00
  0.00000000E+00  0.00000000E+00  0.00000000E+00
  0.00000000E+00  0.00000000E+00  0.00000000E+00
  0.00000000E+00  0.00000000E+00  0.00000000E+00
  0.00000000E+00  0.00000000E+00  0.00000000E+00
  0.00000000E+00  0.00000000E+00  0.00000000E+00
  0.00000000E+00  0.00000000E+00  0.00000000E+00
  0.00000000E+00  0.00000000E+00  0.00000000E+00
  0.00000000E+00  0.00000000E+00  0.00000000E+00
  0.00000000E+00  0.00000000E+00  0.00000000E+00
  0.00000000E+00  0.00000000E+00  0.00000000E+00
  0.00000000E+00  0.00000000E+00  0.00000000E+00
  0.00000000E+00  0.00000000E+00  0.00000000E+00
  0.00000000E+00  0.00000000E+00  0.00000000E+00
  0.00000000E+00  0.00000000E+00  0.00000000E+00
  0.00000000E+00  0.00000000E+00  0.00000000E+00
  0.00000000E+00  0.00000000E+00  0.00000000E+00
  0.00000000E+00  0.00000000E+00  0.00000000E+00
  0.00000000E+00  0.00000000E+00  0.00000000E+00
  0.00000000E+00  0.00000000E+00  0.00000000E+00
  0.00000000E+00  0.00000000E+00  0.00000000E+00
  0.00000000E+00  0.00000000E+00  0.00000000E+00
  0.00000000E+00  0.00000000E+00  0.00000000E+00
  0.00000000E+00  0.00000000E+00  0.00000000E+00
  0.00000000E+00  0.00000000E+00  0.00000000E+00
  0.00000000E+00  0.00000000E+00  0.00000000E+00
  0.00000000E+00  0.00000000E+00  0.00000000E+00
  0.00000000E+00  0.00000000E+00  0.00000000E+00
  0.00000000E+00  0.00000000E+00  0.00000000E+00
  0.00000000E+00  0.00000000E+00  0.00000000E+00
  0.00000000E+00  0.00000000E+00  0.00000000E+00
  0.00000000E+00  0.00000000E+00  0.00000000E+00
  0.00000000E+00  0.00000000E+00  0.00000000E+00
  0.00000000E+00  0.00000000E+00  0.00000000E+00
  0.00000000E+00  0.00000000E+00  0.00000000E+00
  0.00000000E+00  0.00000000E+00  0.00000000E+00
  0.00000000E+00  0.00000000E+00  0.00000000E+00
  0.00000000E+00  0.00000000E+00  0.00000000E+00
  0.00000000E+00  0.00000000E+00  0.00000000E+00
  0.00000000E+00  0.00000000E+00  0.00000000E+00
  0.00000000E+00  0.00000000E+00  0.00000000E+00
  0.00000000E+00  0.00000000E+00  0.00000000E+00
  0.00000000E+00  0.00000000E+00  0.00000000E+00
  0.00000000E+00  0.00000000E+00  0.00000000E+00
  0.00000000E+00  0.00000000E+00  0.00000000E+00
  0.00000000E+00  0.00000000E+00  0.00000000E+00
  0.00000000E+00  0.00000000E+00  0.00000000E+00
  0.00000000E+00  0.00000000E+00  0.00000000E+00
  0.00000000E+00  0.00000000E+00  0.00000000E+00
  0.00000000E+00  0.00000000E+00  0.00000000E+00
  0.00000000E+00  0.00000000E+00  0.00000000E+00
  0.00000000E+00  0.00000000E+00  0.00000000E+00
  0.00000000E+00  0.00000000E+00  0.00000000E+00
  0.00000000E+00  0.00000000E+00  0.00000000E+00
  0.00000000E+00  0.00000000E+00  0.00000000E+00
  0.00000000E+00  0.00000000E+00  0.00000000E+00
  0.00000000E+00  0.00000000E+00  0.00000000E+00
  0.00000000E+00  0.00000000E+00  0.00000000E+00
  0.00000000E+00  0.00000000E+00  0.00000000E+00
  0.00000000E+00  0.00000000E+00  0.00000000E+00
  0.00000000E+00  0.00000000E+00  0.00000000E+00
  0.00000000E+00  0.00000000E+00  0.00000000E+00
  0.00000000E+00  0.00000000E+00  0.00000000E+00
  0.00000000E+00  0.00000000E+00  0.00000000E+00
  0.00000000E+00  0.00000000E+00  0.00000000E+00
  0.00000000E+00  0.00000000E+00  0.00000000E+00
  0.00000000E+00  0.00000000E+00  0.00000000E+00
  0.00000000E+00  0.00000000E+00  0.00000000E+00
  0.00000000E+00  0.00000000E+00  0.00000000E+00
  0.00000000E+00  0.00000000E+00  0.00000000E+00
  0.00000000E+00  0.00000000E+00  0.00000000E+00
  0.00000000E+00  0.00000000E+00  0.00000000E+00
  0.00000000E+00  0.00000000E+00  0.00000000E+00
  0.00000000E+00  0.00000000E+00  0.00000000E+00
  0.00000000E+00  0.00000000E+00  0.00000000E+00
  0.00000000E+00  0.00000000E+00  0.00000000E+00
