CONTCAR                                 
   1.00000000000000     
    10.7850999832000003    0.0000000000000000    0.0000000000000000
     0.0000000000000000   11.5594997405999997    0.0000000000000000
     0.0000000000000000    0.0000000000000000   23.1807994842999996
   V    O    H 
    36    79     1
Direct
  0.0004340290650464  0.3526934003035696  0.6568405827488873
  0.1690702553114815  0.8509204715291196  0.3414290179509845
  0.1663712578882517  0.8527222653721720  0.6565681915022702
  0.0012442371103346  0.6477897670483405  0.3430238400147915
  0.1669221059054981  0.1477088141292601  0.3425964205243124
  0.1667867834730050  0.1467106964010085  0.6564340879396310
  0.9997181479070948  0.3524487822344052  0.3426863166350396
 -0.0006647398247636  0.6480387236461541  0.6573720375893726
  0.1683524680431368  0.8503191768580521  0.4964789830226372
  0.0021598792909027  0.6496720546020910  0.5002988337171905
  0.0005276126296994  0.3518318690727912  0.4996629011783723
  0.1681684811477155  0.1488188202074005  0.4997302626575925
  0.3334410261658853  0.3528340913229032  0.6569864994681620
  0.4979147542103807  0.8509731106162621  0.3414772358943995
  0.5005972013591629  0.8528423586161051  0.6567681104260144
  0.3334909992029639  0.6435357933183397  0.3369371472198179
  0.4999093596809017  0.1476782028272508  0.3426155507579647
  0.5001909638738352  0.1468635886080313  0.6564486297019902
  0.3334152899729993  0.3530316428076365  0.3418740572739436
  0.3334666814040793  0.6499631117189605  0.6915225002604769
  0.4989187757422585  0.8503441756521546  0.4965575476520755
  0.3337369585328770  0.6518410905056369  0.5270232113691851
  0.3334448412368028  0.3597077300556474  0.4994859939421355
  0.4988331920508072  0.1488478111338534  0.4997564221425930
  0.6665171157751830  0.3527940835969043  0.6568574276982845
  0.8335278289982968  0.8525938289871908  0.3433819683096003
  0.8335345843609565  0.8541774055614312  0.6568455867859189
  0.6658293306877668  0.6478303687267482  0.3430944979980508
  0.8334094814525858  0.1470827364983165  0.3424284034432682
  0.8334724670967379  0.1487167257040079  0.6563013475738574
  0.6671164297682711  0.3524921533258684  0.3427209571335328
  0.6674908067501520  0.6482678634748372  0.6575449849952519
  0.8336355521791394  0.8506148234133806  0.5009241013656534
  0.6650990031901869  0.6496990773127417  0.5004447773314268
  0.6664014158937247  0.3518528317598025  0.4996957514815230
  0.8335193140557686  0.1487330479447102  0.4991224510164125
  0.1753866780439540  0.8505331964894489  0.4132853328632244
  0.1636631596167139  0.8580546411553162  0.5859328069136659
  0.9993552439030178  0.3548542065335629  0.4139254878109752
  0.0005291162168174  0.3549529156357134  0.5856510475174673
  0.9985578303977495  0.6464144506041603  0.5860574696225895
  0.0051596144685083  0.6453577996243322  0.4143345758982336
  0.1670366942702629  0.1437260403157546  0.5851163289663993
  0.1679251076291962  0.1463393992849709  0.4137641631882633
  0.0012974132049001  0.1760811283912023  0.4996084098342841
  0.0022311204701038  0.8247790874490030  0.4980245576898988
  0.1712089072051046  0.6762357483150101  0.5033505260883432
  0.1674043059064035  0.3262973341597040  0.4992422485415298
  0.0001123400918179  0.1812696033547773  0.3224037366922115
  0.1650197803878381  0.6805690398579795  0.3189183697843258
  0.1663467254842334  0.3183182397590274  0.3228916251175467
  0.0007641666762730  0.8188519589166182  0.3240496920851951
  0.9989035866721200  0.8204609387514626  0.6767372135110858
  0.0001323749468534  0.1819969626488192  0.6764535424889193
  0.1667391626483530  0.3166135792303896  0.6769808335633886
  0.1629184275990027  0.6843363065359863  0.6786876869810748
  0.1675394310114673  0.9991584056872929  0.3201511639142635
  0.1661635251416467  0.0007911402092557  0.6806370584656756
  0.0006753372159713  0.5001996322974565  0.6802562425494835
  0.9995261187665816  0.4997786047320865  0.3198402510259689
  0.1736560655320327  0.9999120445748856  0.4978613117199602
 -0.0003599443394123  0.5002848076208855  0.5001755880781790
  0.4915970765901182  0.8507258517360082  0.4133322609117449
  0.5034876711415833  0.8577845794642005  0.5861115809073220
  0.3334111576534167  0.3624238657058496  0.4132157563144276
  0.3334530409499444  0.3598277073988644  0.5854578271256284
  0.3341134511798105  0.6417821791236877  0.5975410293549092
  0.3333963036296665  0.6358995179166799  0.4055490327103962
  0.4999775569577682  0.1438371030884568  0.5851399662406356
  0.4989408300782457  0.1462409784530439  0.4137876640185760
  0.3334987398548718  0.1844334812931869  0.4999153028038916
  0.3336149623955398  0.8183895901309067  0.5068131937908650
  0.4959861868100159  0.6761998715940037  0.5031040553452555
  0.4995392374091265  0.3263760345630149  0.4992690826528551
  0.3334158837846463  0.1826480190757120  0.3219548664998474
  0.5020048449030317  0.6806319889371686  0.3190009564835079
  0.5005060255472986  0.3182830808223425  0.3229252831869434
  0.3334917341911038  0.8163486714598139  0.3188095773613410
  0.3334060051112667  0.8217414873857986  0.6777106319941354
  0.3334461500594504  0.1809125932980996  0.6759329150470803
  0.5002010184289127  0.3166601413220776  0.6769100600319169
  0.5039118132784211  0.6846420290950039  0.6795080016343665
  0.4993500709814192  0.9991744160449795  0.3201161863150556
  0.5006966286649671  0.0008663955707872  0.6807182095680466
  0.3332066830496641  0.4944236582813712  0.6849582692951358
  0.3334682293538887  0.4950228188539847  0.3123028072375183
  0.4935087163349255  0.9999138668503698  0.4980136040122246
  0.3334489843464498  0.5079628546980903  0.5018458564057841
  0.8336233897666334  0.8558607078358337  0.4143237443126646
  0.8335397551274165  0.8548293265491848  0.5853807276547898
  0.6675201121237587  0.3549455873522184  0.4139622048233678
  0.6664995980284020  0.3549090867408929  0.5856546592450856
  0.6678603844177491  0.6467325460552581  0.5861964334513210
  0.6621271139508068  0.6453018674319905  0.4143872260663465
  0.8334857226056387  0.1462525494817536  0.5851673264534624
  0.8334631275666788  0.1449223472246176  0.4137457550621026
  0.6656940928473581  0.1760982959911241  0.4996080743102612
  0.6649890163182164  0.8247948131458223  0.4980361206893408
  0.8336059910371368  0.6755522297546979  0.4995861341859743
  0.8334864677016072  0.3239937223930791  0.4996893408994790
  0.6667168888558779  0.1812486593598568  0.3224466747102643
  0.8335107509970157  0.6820909120305002  0.3240284531341749
  0.8333959394288866  0.3176800842346791  0.3221852714533445
  0.6662386189957499  0.8189096328137692  0.3241581517183417
  0.6681518944611806  0.8205890123385955  0.6768075303584038
  0.6668594574201031  0.1819937168903882  0.6764796311867232
  0.8334829749309909  0.3185918141873132  0.6770358935700698
  0.8334591102789267  0.6825651038599211  0.6778520069971877
  0.8334601079175559  0.9998505399196634  0.3191796024809672
  0.8335451990307031  0.0012767865772423  0.6797362581863263
  0.6663135065000156  0.5002507290680070  0.6801758417221314
  0.6673342759379882  0.4998031170367850  0.3198818131073391
  0.8335836707058211  0.0002173312040314  0.4999962436521515
  0.6675354721466827  0.5003158886232627  0.5003001948317813
  0.3312896259775023  0.6535586767580910  0.7685776930112657
  0.3176521404814212  0.5813026199497099  0.7893827868412826
 
  0.00000000E+00  0.00000000E+00  0.00000000E+00
  0.00000000E+00  0.00000000E+00  0.00000000E+00
  0.00000000E+00  0.00000000E+00  0.00000000E+00
  0.00000000E+00  0.00000000E+00  0.00000000E+00
  0.00000000E+00  0.00000000E+00  0.00000000E+00
  0.00000000E+00  0.00000000E+00  0.00000000E+00
  0.00000000E+00  0.00000000E+00  0.00000000E+00
  0.00000000E+00  0.00000000E+00  0.00000000E+00
  0.00000000E+00  0.00000000E+00  0.00000000E+00
  0.00000000E+00  0.00000000E+00  0.00000000E+00
  0.00000000E+00  0.00000000E+00  0.00000000E+00
  0.00000000E+00  0.00000000E+00  0.00000000E+00
  0.00000000E+00  0.00000000E+00  0.00000000E+00
  0.00000000E+00  0.00000000E+00  0.00000000E+00
  0.00000000E+00  0.00000000E+00  0.00000000E+00
  0.00000000E+00  0.00000000E+00  0.00000000E+00
  0.00000000E+00  0.00000000E+00  0.00000000E+00
  0.00000000E+00  0.00000000E+00  0.00000000E+00
  0.00000000E+00  0.00000000E+00  0.00000000E+00
  0.00000000E+00  0.00000000E+00  0.00000000E+00
  0.00000000E+00  0.00000000E+00  0.00000000E+00
  0.00000000E+00  0.00000000E+00  0.00000000E+00
  0.00000000E+00  0.00000000E+00  0.00000000E+00
  0.00000000E+00  0.00000000E+00  0.00000000E+00
  0.00000000E+00  0.00000000E+00  0.00000000E+00
  0.00000000E+00  0.00000000E+00  0.00000000E+00
  0.00000000E+00  0.00000000E+00  0.00000000E+00
  0.00000000E+00  0.00000000E+00  0.00000000E+00
  0.00000000E+00  0.00000000E+00  0.00000000E+00
  0.00000000E+00  0.00000000E+00  0.00000000E+00
  0.00000000E+00  0.00000000E+00  0.00000000E+00
  0.00000000E+00  0.00000000E+00  0.00000000E+00
  0.00000000E+00  0.00000000E+00  0.00000000E+00
  0.00000000E+00  0.00000000E+00  0.00000000E+00
  0.00000000E+00  0.00000000E+00  0.00000000E+00
  0.00000000E+00  0.00000000E+00  0.00000000E+00
  0.00000000E+00  0.00000000E+00  0.00000000E+00
  0.00000000E+00  0.00000000E+00  0.00000000E+00
  0.00000000E+00  0.00000000E+00  0.00000000E+00
  0.00000000E+00  0.00000000E+00  0.00000000E+00
  0.00000000E+00  0.00000000E+00  0.00000000E+00
  0.00000000E+00  0.00000000E+00  0.00000000E+00
  0.00000000E+00  0.00000000E+00  0.00000000E+00
  0.00000000E+00  0.00000000E+00  0.00000000E+00
  0.00000000E+00  0.00000000E+00  0.00000000E+00
  0.00000000E+00  0.00000000E+00  0.00000000E+00
  0.00000000E+00  0.00000000E+00  0.00000000E+00
  0.00000000E+00  0.00000000E+00  0.00000000E+00
  0.00000000E+00  0.00000000E+00  0.00000000E+00
  0.00000000E+00  0.00000000E+00  0.00000000E+00
  0.00000000E+00  0.00000000E+00  0.00000000E+00
  0.00000000E+00  0.00000000E+00  0.00000000E+00
  0.00000000E+00  0.00000000E+00  0.00000000E+00
  0.00000000E+00  0.00000000E+00  0.00000000E+00
  0.00000000E+00  0.00000000E+00  0.00000000E+00
  0.00000000E+00  0.00000000E+00  0.00000000E+00
  0.00000000E+00  0.00000000E+00  0.00000000E+00
  0.00000000E+00  0.00000000E+00  0.00000000E+00
  0.00000000E+00  0.00000000E+00  0.00000000E+00
  0.00000000E+00  0.00000000E+00  0.00000000E+00
  0.00000000E+00  0.00000000E+00  0.00000000E+00
  0.00000000E+00  0.00000000E+00  0.00000000E+00
  0.00000000E+00  0.00000000E+00  0.00000000E+00
  0.00000000E+00  0.00000000E+00  0.00000000E+00
  0.00000000E+00  0.00000000E+00  0.00000000E+00
  0.00000000E+00  0.00000000E+00  0.00000000E+00
  0.00000000E+00  0.00000000E+00  0.00000000E+00
  0.00000000E+00  0.00000000E+00  0.00000000E+00
  0.00000000E+00  0.00000000E+00  0.00000000E+00
  0.00000000E+00  0.00000000E+00  0.00000000E+00
  0.00000000E+00  0.00000000E+00  0.00000000E+00
  0.00000000E+00  0.00000000E+00  0.00000000E+00
  0.00000000E+00  0.00000000E+00  0.00000000E+00
  0.00000000E+00  0.00000000E+00  0.00000000E+00
  0.00000000E+00  0.00000000E+00  0.00000000E+00
  0.00000000E+00  0.00000000E+00  0.00000000E+00
  0.00000000E+00  0.00000000E+00  0.00000000E+00
  0.00000000E+00  0.00000000E+00  0.00000000E+00
  0.00000000E+00  0.00000000E+00  0.00000000E+00
  0.00000000E+00  0.00000000E+00  0.00000000E+00
  0.00000000E+00  0.00000000E+00  0.00000000E+00
  0.00000000E+00  0.00000000E+00  0.00000000E+00
  0.00000000E+00  0.00000000E+00  0.00000000E+00
  0.00000000E+00  0.00000000E+00  0.00000000E+00
  0.00000000E+00  0.00000000E+00  0.00000000E+00
  0.00000000E+00  0.00000000E+00  0.00000000E+00
  0.00000000E+00  0.00000000E+00  0.00000000E+00
  0.00000000E+00  0.00000000E+00  0.00000000E+00
  0.00000000E+00  0.00000000E+00  0.00000000E+00
  0.00000000E+00  0.00000000E+00  0.00000000E+00
  0.00000000E+00  0.00000000E+00  0.00000000E+00
  0.00000000E+00  0.00000000E+00  0.00000000E+00
  0.00000000E+00  0.00000000E+00  0.00000000E+00
  0.00000000E+00  0.00000000E+00  0.00000000E+00
  0.00000000E+00  0.00000000E+00  0.00000000E+00
  0.00000000E+00  0.00000000E+00  0.00000000E+00
  0.00000000E+00  0.00000000E+00  0.00000000E+00
  0.00000000E+00  0.00000000E+00  0.00000000E+00
  0.00000000E+00  0.00000000E+00  0.00000000E+00
  0.00000000E+00  0.00000000E+00  0.00000000E+00
  0.00000000E+00  0.00000000E+00  0.00000000E+00
  0.00000000E+00  0.00000000E+00  0.00000000E+00
  0.00000000E+00  0.00000000E+00  0.00000000E+00
  0.00000000E+00  0.00000000E+00  0.00000000E+00
  0.00000000E+00  0.00000000E+00  0.00000000E+00
  0.00000000E+00  0.00000000E+00  0.00000000E+00
  0.00000000E+00  0.00000000E+00  0.00000000E+00
  0.00000000E+00  0.00000000E+00  0.00000000E+00
  0.00000000E+00  0.00000000E+00  0.00000000E+00
  0.00000000E+00  0.00000000E+00  0.00000000E+00
  0.00000000E+00  0.00000000E+00  0.00000000E+00
  0.00000000E+00  0.00000000E+00  0.00000000E+00
  0.00000000E+00  0.00000000E+00  0.00000000E+00
  0.00000000E+00  0.00000000E+00  0.00000000E+00
  0.00000000E+00  0.00000000E+00  0.00000000E+00
  0.00000000E+00  0.00000000E+00  0.00000000E+00
