CONTCAR\(3)                             
   1.00000000000000     
    13.5726995467999991    0.0000000000000000    0.0000000000000000
     0.0000000000000000   13.5726995467999991    0.0000000000000000
     0.0000000000000000    0.0000000000000000   18.0848999022999983
   Pt   Pb   O    H 
     8    32     1     1
Direct
 -0.0000803931427910  0.0000115323230850  0.5020898927900768
  0.2490712736579870  0.2480733647338863  0.4987694845487404
  0.5000003800463697  0.9999785155946189  0.5004911993485408
  0.7517973589444250  0.2491378015882514  0.4988413732817865
  0.9999190302112351  0.4999816633331531  0.5005069032231195
  0.2479198780302575  0.7509161934955860  0.4986609481499212
  0.5001541706678897  0.4997154356622756  0.4913402072131829
  0.7509863470445641  0.7519874281191435  0.4986508523192725
  0.3326907813127991  0.4123877349281616  0.4194643167605641
  0.0824635900466289  0.3351770597058418  0.4183715917886484
  0.0832923758841152  0.1670191230234601  0.5809444076535429
  0.4199656152193688  0.3400596561609669  0.5848672391308011
  0.1652703022504288  0.4136276626910706  0.5804454829771963
  0.3351474293419054  0.0871536658975327  0.5803358026019220
  0.1638016703074102  0.0830983562355839  0.4182496289326901
  0.4162116068488629  0.1654537030028423  0.4177496202943318
  0.8342083880033282  0.4163407250579530  0.4177539481925816
  0.5879211504987071  0.3327758821880007  0.4189395800055863
  0.5865033727487038  0.1649117799697683  0.5804713739824741
  0.9128305357394861  0.3352456613854536  0.5803733835572013
  0.6599440770037712  0.4196076346472373  0.5845093843984082
  0.8329855907864788  0.0832739830308598  0.5809702341128563
  0.6649173515064628  0.0824658945852737  0.4183100459386874
  0.9167315681394510  0.1639662849310752  0.4183663405330555
  0.3350900554869142  0.9175816083082454  0.4182846705677075
  0.0831653564223792  0.8362621185534883  0.4181155348823684
  0.0872622493577159  0.6647711738890479  0.5803390614948452
  0.4134432268619626  0.8348707040812983  0.5804200471447847
  0.1669646233906472  0.9167293067832769  0.5809085640834331
  0.3421933726472239  0.5796234647282750  0.5864598338210486
  0.1654038832373753  0.5836969684912903  0.4177206975265001
  0.4124108610751731  0.6670711013677048  0.4198084936781316
  0.8362106790787476  0.9167487830623803  0.4181656383007988
  0.5836869655287973  0.8344306866067831  0.4176725454850483
  0.5805386029213211  0.6599418979156765  0.5847026176365954
  0.9167183784699324  0.8329987764230071  0.5809640892938095
  0.6647806218061371  0.9128583318805240  0.5803506960065805
  0.8349148384252180  0.5865342177225644  0.5803856780739913
  0.6671169972064745  0.5879556155585142  0.4189788504110911
  0.9175832926137155  0.6649244356579321  0.4182707500921185
  0.4976862115539407  0.5006886483687223  0.6635111194458262
  0.4976160438184771  0.5007051123101766  0.7176878303201211
 
  0.00000000E+00  0.00000000E+00  0.00000000E+00
  0.00000000E+00  0.00000000E+00  0.00000000E+00
  0.00000000E+00  0.00000000E+00  0.00000000E+00
  0.00000000E+00  0.00000000E+00  0.00000000E+00
  0.00000000E+00  0.00000000E+00  0.00000000E+00
  0.00000000E+00  0.00000000E+00  0.00000000E+00
  0.00000000E+00  0.00000000E+00  0.00000000E+00
  0.00000000E+00  0.00000000E+00  0.00000000E+00
  0.00000000E+00  0.00000000E+00  0.00000000E+00
  0.00000000E+00  0.00000000E+00  0.00000000E+00
  0.00000000E+00  0.00000000E+00  0.00000000E+00
  0.00000000E+00  0.00000000E+00  0.00000000E+00
  0.00000000E+00  0.00000000E+00  0.00000000E+00
  0.00000000E+00  0.00000000E+00  0.00000000E+00
  0.00000000E+00  0.00000000E+00  0.00000000E+00
  0.00000000E+00  0.00000000E+00  0.00000000E+00
  0.00000000E+00  0.00000000E+00  0.00000000E+00
  0.00000000E+00  0.00000000E+00  0.00000000E+00
  0.00000000E+00  0.00000000E+00  0.00000000E+00
  0.00000000E+00  0.00000000E+00  0.00000000E+00
  0.00000000E+00  0.00000000E+00  0.00000000E+00
  0.00000000E+00  0.00000000E+00  0.00000000E+00
  0.00000000E+00  0.00000000E+00  0.00000000E+00
  0.00000000E+00  0.00000000E+00  0.00000000E+00
  0.00000000E+00  0.00000000E+00  0.00000000E+00
  0.00000000E+00  0.00000000E+00  0.00000000E+00
  0.00000000E+00  0.00000000E+00  0.00000000E+00
  0.00000000E+00  0.00000000E+00  0.00000000E+00
  0.00000000E+00  0.00000000E+00  0.00000000E+00
  0.00000000E+00  0.00000000E+00  0.00000000E+00
  0.00000000E+00  0.00000000E+00  0.00000000E+00
  0.00000000E+00  0.00000000E+00  0.00000000E+00
  0.00000000E+00  0.00000000E+00  0.00000000E+00
  0.00000000E+00  0.00000000E+00  0.00000000E+00
  0.00000000E+00  0.00000000E+00  0.00000000E+00
  0.00000000E+00  0.00000000E+00  0.00000000E+00
  0.00000000E+00  0.00000000E+00  0.00000000E+00
  0.00000000E+00  0.00000000E+00  0.00000000E+00
  0.00000000E+00  0.00000000E+00  0.00000000E+00
  0.00000000E+00  0.00000000E+00  0.00000000E+00
  0.00000000E+00  0.00000000E+00  0.00000000E+00
  0.00000000E+00  0.00000000E+00  0.00000000E+00
