CONTCAR\(8)                             
   1.00000000000000     
    11.5721998214999999    0.0000000000000000    0.0000000000000000
     0.0000000000000000   11.5721998214999999    0.0000000000000000
     0.0000000000000000    0.0000000000000000   18.7880992888999998
   Nd   I    O 
     9    18     1
Direct
  0.9997892238140768  0.0110262529658987  0.5070772291520236
  0.3342848526284111  0.0031600933527358  0.5068189977957129
  0.6656248375419263  0.0032321793098977  0.5060197216826562
  0.0000219909402728  0.3445302595651518  0.5085426403720027
  0.3459981043585753  0.3439629021704774  0.5095476645536455
  0.6537392307820225  0.3442877821350542  0.5093614031913946
  0.0000374767820397  0.6745798501899957  0.5073402671352932
  0.3361955960233541  0.6752659836557368  0.5081882228141043
  0.6640592001134347  0.6754423820987022  0.5064781366983222
  0.1669580833784161  0.1776596104542844  0.4083453467817375
  0.1678499627501931  0.1766012154044924  0.6080957194807637
  0.4989807512136900  0.1529161140942867  0.4076480421372164
  0.5010022244065060  0.1514477792283500  0.6048268635068801
  0.8318052673143798  0.1777914770369109  0.4081942423227363
  0.8325396602107334  0.1765440096117800  0.6078756563808468
  0.1690750728197441  0.5098411139566466  0.4083656718296672
  0.1676579654279481  0.5108746131293306  0.6084337905453208
  0.5022367651992071  0.4517679816980527  0.3747206146575164
  0.4982417034616719  0.4427479730760165  0.6474125265054380
  0.8331282172250586  0.5100070280432709  0.4081405511970264
  0.8303654672519700  0.5110001343672128  0.6081899415919816
  0.1641880195894790  0.8432916551325327  0.4054448339741902
  0.1648351020043935  0.8434753528464980  0.6084440563645586
  0.4993908996692997  0.8337720258252177  0.4015301057997299
  0.5000409942295226  0.8383238148375389  0.6122163098588275
  0.8358557112438824  0.8438120345072991  0.4045243133514638
  0.8343658401167473  0.8432305681465667  0.6077506420385069
  0.5003416965030899  0.5956577511600839  0.5130166762804655
 
  0.00000000E+00  0.00000000E+00  0.00000000E+00
  0.00000000E+00  0.00000000E+00  0.00000000E+00
  0.00000000E+00  0.00000000E+00  0.00000000E+00
  0.00000000E+00  0.00000000E+00  0.00000000E+00
  0.00000000E+00  0.00000000E+00  0.00000000E+00
  0.00000000E+00  0.00000000E+00  0.00000000E+00
  0.00000000E+00  0.00000000E+00  0.00000000E+00
  0.00000000E+00  0.00000000E+00  0.00000000E+00
  0.00000000E+00  0.00000000E+00  0.00000000E+00
  0.00000000E+00  0.00000000E+00  0.00000000E+00
  0.00000000E+00  0.00000000E+00  0.00000000E+00
  0.00000000E+00  0.00000000E+00  0.00000000E+00
  0.00000000E+00  0.00000000E+00  0.00000000E+00
  0.00000000E+00  0.00000000E+00  0.00000000E+00
  0.00000000E+00  0.00000000E+00  0.00000000E+00
  0.00000000E+00  0.00000000E+00  0.00000000E+00
  0.00000000E+00  0.00000000E+00  0.00000000E+00
  0.00000000E+00  0.00000000E+00  0.00000000E+00
  0.00000000E+00  0.00000000E+00  0.00000000E+00
  0.00000000E+00  0.00000000E+00  0.00000000E+00
  0.00000000E+00  0.00000000E+00  0.00000000E+00
  0.00000000E+00  0.00000000E+00  0.00000000E+00
  0.00000000E+00  0.00000000E+00  0.00000000E+00
  0.00000000E+00  0.00000000E+00  0.00000000E+00
  0.00000000E+00  0.00000000E+00  0.00000000E+00
  0.00000000E+00  0.00000000E+00  0.00000000E+00
  0.00000000E+00  0.00000000E+00  0.00000000E+00
  0.00000000E+00  0.00000000E+00  0.00000000E+00
