 Ta1 S2                                 
   1.00000000000000     
     3.4464617441373582    0.0000000000000000    0.0000000000000000
    -1.7232303568946443    2.9847215271435914    0.0000000000000000
     0.0000000000000000    0.0000000000000000   18.1304856478160019
   Ru   Se
     1     2
Direct
  0.6666667392298724  0.3333331281190692  0.5000000001543964
  0.0000001344305515  0.9999999407934658  0.5831977741537605
  0.0000001263395730  0.9999999310874681  0.4168022256918432
 
  0.00000000E+00  0.00000000E+00  0.00000000E+00
  0.00000000E+00  0.00000000E+00  0.00000000E+00
  0.00000000E+00  0.00000000E+00  0.00000000E+00
