CONTCAR\(3)                             
   1.00000000000000     
    13.8212003707999997    0.0000000000000000    0.0000000000000000
     2.2957132678000001   11.9646463987999994    0.0000000000000000
     0.0000000000000000    0.0000000000000000   19.5161991119000007
   Li   Cr   C    O    H 
     6     9    18    56     1
Selective dynamics
Direct
  0.0040025756357238  0.9942412887350827  0.6002950184298044   F   F   F
  0.2591666097946685  0.4422173559586469  0.4012938286758612   F   F   F
  0.3360514157665264  0.9928386235780167  0.6105349342454645   F   F   F
  0.5925779338263908  0.4421782932278191  0.4015011768146124   F   F   F
  0.6684078301609020  0.9941518854856071  0.6004459819870149   F   F   F
  0.9257552918824956  0.4423582787513283  0.4015286139817320   F   F   F
  0.1885595259421962  0.8836223677072752  0.5011939492962298   F   F   F
  0.2979148676520111  0.2173177535708319  0.5003502352883089   F   F   F
  0.0741171329841848  0.5536883954778062  0.4982621943062995   F   F   F
  0.5207490230671894  0.8833472304358025  0.5014298521142280   F   F   F
  0.6306272141659335  0.2179850825268801  0.5008991399951839   F   F   F
  0.4073343826166038  0.5540203059458193  0.4984637625334258   F   F   F
  0.8547076443700803  0.8831692479962356  0.5027342807069601   F   F   F
  0.9645703572377045  0.2178828218482707  0.5005862508867125   F   F   F
  0.7406713872908455  0.5536525421338752  0.4986584044447966   F   F   F
  0.1503965699904057  0.1091795477041089  0.5612867565623745   F   F   F
  0.2594716332446438  0.4411145082878178  0.5539111835230415   F   F   F
  0.1127335461147680  0.3263548984941096  0.4379641186879226   F   F   F
  0.0395036985377430  0.7710361356428521  0.5601377244705290   F   F   F
  0.2231355291443080  0.6660628209321473  0.4395327163654983   F   F   F
  0.0022845126902240  0.9950292554320583  0.4461991037650108   F   F   F
  0.4819642187516067  0.1090307800278225  0.5618259265849090   F   F   F
  0.5926372829583570  0.4415554173750706  0.5544029173423368   F   F   F
  0.4460746411399583  0.3264905814856291  0.4381575585749431   F   F   F
  0.3720761593352506  0.7717313797815208  0.5589781413141424   F   F   F
  0.5566380967044111  0.6659413587328515  0.4396768102175344   F   F   F
  0.3359793351710110  0.9953500847041212  0.4452984788876932   F   F   F
  0.8161288113754992  0.1097386049759592  0.5630835643655061   F   F   F
  0.9264205081806409  0.4415327957427451  0.5542496022301719   F   F   F
  0.7792913536870500  0.3263819420662628  0.4385454882271276   F   F   F
  0.7050371619968629  0.7708542369537525  0.5604461175046893   F   F   F
  0.8897158514773764  0.6661814979926106  0.4402453092075689   F   F   F
  0.6694485372375425  0.9951476616332400  0.4464805572869324   F   F   F
  0.1648040296686091  0.4496837509600482  0.5524039676912196   F   F   F
  0.0968725338468417  0.9866854757401953  0.4468549299290814   F   F   F
  0.0746085042004552  0.2393786319348266  0.4417574497016616   F   F   F
  0.0579548754477841  0.4262253709914958  0.4328316131888883   F   F   F
  0.2055903166469761  0.0101276481978019  0.5646985003174265   F   F   F
  0.3155892157421576  0.3435145853146508  0.5553315072113492   F   F   F
  0.1875448066816716  0.1970680722178884  0.5580112070028562   F   F   F
  0.2977799908432530  0.5300063872511913  0.5533105847517845   F   F   F
  0.2776261831922326  0.7830497026029732  0.5600107691998417   F   F   F
  0.2079310430969272  0.3182343240810539  0.4359467822819667   F   F   F
  0.1822144132271220  0.5774025315574391  0.4343912026964603   F   F   F
  0.2971049759758273  0.9068941655238376  0.4452371771092132   F   F   F
  0.1674260597045034  0.7623545387849688  0.4434620609080824   F   F   F
  0.2802029353535147  0.0931992701951287  0.4439030640992243   F   F   F
  0.0953067841623039  0.6747596983239532  0.5556371579875048   F   F   F
  0.0802645759877407  0.8596899740099460  0.5650528760353950   F   F   F
  0.0548945469048903  0.1174312239500068  0.5640522463989797   F   F   F
  0.3176340695102908  0.6534381310924857  0.4383086878135742   F   F   F
  0.4979914175190387  0.4502157949202612  0.5527496128798717   F   F   F
  0.4306044862224923  0.9865027460699807  0.4465703849864653   F   F   F
  0.4081610962130426  0.2394382501264971  0.4418235469092124   F   F   F
  0.3914019638782733  0.4263116349301797  0.4328883752932953   F   F   F
  0.5375641848706465  0.0095715728718204  0.5662515696624837   F   F   F
  0.6485691464476560  0.3438258825217275  0.5561153967322170   F   F   F
  0.5201311172628138  0.1964037763464219  0.5588135288087130   F   F   F
  0.6312052752853106  0.5302326836716063  0.5537651485311912   F   F   F
  0.6106394034226454  0.7830619325550643  0.5609955941702651   F   F   F
  0.5413549846004457  0.3184593933691033  0.4364234426414413   F   F   F
  0.5158242243687852  0.5771968657039679  0.4346786538831893   F   F   F
  0.6309787187214368  0.9064658582831200  0.4466449672274280   F   F   F
  0.5008263408932265  0.7622106997418996  0.4432643097727365   F   F   F
  0.6133767966757802  0.0928316888797980  0.4448879850140699   F   F   F
  0.4280332691092212  0.6750140070550970  0.5556216048458467   F   F   F
  0.4120869732379191  0.8604861382018996  0.5629719158996380   F   F   F
  0.3871351613699403  0.1163538492877692  0.5633364544620250   F   F   F
  0.6511126889428951  0.6534283105879837  0.4385844723374177   F   F   F
  0.8317820243877279  0.4499836564404731  0.5527890409930762   F   F   F
  0.7640476423888529  0.9868402663254159  0.4484240017025414   F   F   F
  0.7413297188079468  0.2394063882113926  0.4426608895741282   F   F   F
  0.7245521438314029  0.4262050918617248  0.4332685091112651   F   F   F
  0.8710419522261077  0.0100237850199818  0.5684191401178822   F   F   F
  0.9825482608959817  0.3439283808568874  0.5556813019484252   F   F   F
  0.8540919652879779  0.1968249446648969  0.5591007100134959   F   F   F
  0.9647427829152520  0.5303996562068463  0.5535911408836398   F   F   F
  0.9450412803843733  0.7831704034491409  0.5621260161178583   F   F   F
  0.8745349748280873  0.3183129618907756  0.4363612537645736   F   F   F
  0.8489161810974082  0.5774928961312256  0.4349020569089390   F   F   F
  0.9639589722184567  0.9061951227811278  0.4471247592814223   F   F   F
  0.8338216324357717  0.7623184226716546  0.4448431283219492   F   F   F
  0.9460068211377575  0.0925888338235765  0.4451963353335131   F   F   F
  0.7610684305912727  0.6745680721930611  0.5564621334380888   F   F   F
  0.7459724534040006  0.8593716406302505  0.5662401694940726   F   F   F
  0.7208447347689173  0.1177699480255896  0.5650423970279022   F   F   F
  0.9841506257697787  0.6538478621504211  0.4385699240668899   F   F   F
  0.3264594045534963  0.9750565354006895  0.7093931637338216   T   T   T
  0.3772494569132689  0.8683144627670458  0.7248788542207905   T   T   T
  0.3616404937903468  0.8595510072997499  0.7728478684577389   T   T   T
 
  0.00000000E+00  0.00000000E+00  0.00000000E+00
  0.00000000E+00  0.00000000E+00  0.00000000E+00
  0.00000000E+00  0.00000000E+00  0.00000000E+00
  0.00000000E+00  0.00000000E+00  0.00000000E+00
  0.00000000E+00  0.00000000E+00  0.00000000E+00
  0.00000000E+00  0.00000000E+00  0.00000000E+00
  0.00000000E+00  0.00000000E+00  0.00000000E+00
  0.00000000E+00  0.00000000E+00  0.00000000E+00
  0.00000000E+00  0.00000000E+00  0.00000000E+00
  0.00000000E+00  0.00000000E+00  0.00000000E+00
  0.00000000E+00  0.00000000E+00  0.00000000E+00
  0.00000000E+00  0.00000000E+00  0.00000000E+00
  0.00000000E+00  0.00000000E+00  0.00000000E+00
  0.00000000E+00  0.00000000E+00  0.00000000E+00
  0.00000000E+00  0.00000000E+00  0.00000000E+00
  0.00000000E+00  0.00000000E+00  0.00000000E+00
  0.00000000E+00  0.00000000E+00  0.00000000E+00
  0.00000000E+00  0.00000000E+00  0.00000000E+00
  0.00000000E+00  0.00000000E+00  0.00000000E+00
  0.00000000E+00  0.00000000E+00  0.00000000E+00
  0.00000000E+00  0.00000000E+00  0.00000000E+00
  0.00000000E+00  0.00000000E+00  0.00000000E+00
  0.00000000E+00  0.00000000E+00  0.00000000E+00
  0.00000000E+00  0.00000000E+00  0.00000000E+00
  0.00000000E+00  0.00000000E+00  0.00000000E+00
  0.00000000E+00  0.00000000E+00  0.00000000E+00
  0.00000000E+00  0.00000000E+00  0.00000000E+00
  0.00000000E+00  0.00000000E+00  0.00000000E+00
  0.00000000E+00  0.00000000E+00  0.00000000E+00
  0.00000000E+00  0.00000000E+00  0.00000000E+00
  0.00000000E+00  0.00000000E+00  0.00000000E+00
  0.00000000E+00  0.00000000E+00  0.00000000E+00
  0.00000000E+00  0.00000000E+00  0.00000000E+00
  0.00000000E+00  0.00000000E+00  0.00000000E+00
  0.00000000E+00  0.00000000E+00  0.00000000E+00
  0.00000000E+00  0.00000000E+00  0.00000000E+00
  0.00000000E+00  0.00000000E+00  0.00000000E+00
  0.00000000E+00  0.00000000E+00  0.00000000E+00
  0.00000000E+00  0.00000000E+00  0.00000000E+00
  0.00000000E+00  0.00000000E+00  0.00000000E+00
  0.00000000E+00  0.00000000E+00  0.00000000E+00
  0.00000000E+00  0.00000000E+00  0.00000000E+00
  0.00000000E+00  0.00000000E+00  0.00000000E+00
  0.00000000E+00  0.00000000E+00  0.00000000E+00
  0.00000000E+00  0.00000000E+00  0.00000000E+00
  0.00000000E+00  0.00000000E+00  0.00000000E+00
  0.00000000E+00  0.00000000E+00  0.00000000E+00
  0.00000000E+00  0.00000000E+00  0.00000000E+00
  0.00000000E+00  0.00000000E+00  0.00000000E+00
  0.00000000E+00  0.00000000E+00  0.00000000E+00
  0.00000000E+00  0.00000000E+00  0.00000000E+00
  0.00000000E+00  0.00000000E+00  0.00000000E+00
  0.00000000E+00  0.00000000E+00  0.00000000E+00
  0.00000000E+00  0.00000000E+00  0.00000000E+00
  0.00000000E+00  0.00000000E+00  0.00000000E+00
  0.00000000E+00  0.00000000E+00  0.00000000E+00
  0.00000000E+00  0.00000000E+00  0.00000000E+00
  0.00000000E+00  0.00000000E+00  0.00000000E+00
  0.00000000E+00  0.00000000E+00  0.00000000E+00
  0.00000000E+00  0.00000000E+00  0.00000000E+00
  0.00000000E+00  0.00000000E+00  0.00000000E+00
  0.00000000E+00  0.00000000E+00  0.00000000E+00
  0.00000000E+00  0.00000000E+00  0.00000000E+00
  0.00000000E+00  0.00000000E+00  0.00000000E+00
  0.00000000E+00  0.00000000E+00  0.00000000E+00
  0.00000000E+00  0.00000000E+00  0.00000000E+00
  0.00000000E+00  0.00000000E+00  0.00000000E+00
  0.00000000E+00  0.00000000E+00  0.00000000E+00
  0.00000000E+00  0.00000000E+00  0.00000000E+00
  0.00000000E+00  0.00000000E+00  0.00000000E+00
  0.00000000E+00  0.00000000E+00  0.00000000E+00
  0.00000000E+00  0.00000000E+00  0.00000000E+00
  0.00000000E+00  0.00000000E+00  0.00000000E+00
  0.00000000E+00  0.00000000E+00  0.00000000E+00
  0.00000000E+00  0.00000000E+00  0.00000000E+00
  0.00000000E+00  0.00000000E+00  0.00000000E+00
  0.00000000E+00  0.00000000E+00  0.00000000E+00
  0.00000000E+00  0.00000000E+00  0.00000000E+00
  0.00000000E+00  0.00000000E+00  0.00000000E+00
  0.00000000E+00  0.00000000E+00  0.00000000E+00
  0.00000000E+00  0.00000000E+00  0.00000000E+00
  0.00000000E+00  0.00000000E+00  0.00000000E+00
  0.00000000E+00  0.00000000E+00  0.00000000E+00
  0.00000000E+00  0.00000000E+00  0.00000000E+00
  0.00000000E+00  0.00000000E+00  0.00000000E+00
  0.00000000E+00  0.00000000E+00  0.00000000E+00
  0.00000000E+00  0.00000000E+00  0.00000000E+00
  0.00000000E+00  0.00000000E+00  0.00000000E+00
  0.00000000E+00  0.00000000E+00  0.00000000E+00
  0.00000000E+00  0.00000000E+00  0.00000000E+00
