CONTCAR                                 
   1.00000000000000     
    12.0352001190000006    0.0000000000000000    0.0000000000000000
     0.0000000000000000   12.2138004302999992    0.0000000000000000
     0.0000000000000000    0.0000000000000000   16.9626007080000001
   Cu   Se   O 
     8     8    25
Selective dynamics
Direct
  0.0855066977987988  0.9119033499204363  0.4622856754573235   F   F   F
  0.3319690294012432  0.5976808263969460  0.4974538761952800   F   F   F
  0.4135984109386825  0.0923779324115586  0.5182444008896425   F   F   F
  0.1609243523775632  0.4176917887732969  0.4643854708268549   F   F   F
  0.5778387409041983  0.9032777055114138  0.5074296859745431   F   F   F
  0.8411066263776377  0.5884805502796340  0.5453868555798635   F   F   F
  0.9192746200286237  0.0907166727800899  0.4926699136270400   F   F   F
  0.6745760437857200  0.4028463803486844  0.5371576900772084   F   F   F
  0.1969344598810494  0.1486026352062453  0.4568049657205080   F   F   F
  0.4273261677023541  0.3508855597546301  0.5121087199518186   F   F   F
  0.3042645123926988  0.8493966268239035  0.5172452045787708   F   F   F
  0.0487518140931869  0.6493039371350235  0.4737330789097669   F   F   F
  0.6857855721139359  0.1548087959237492  0.4926479685032561   F   F   F
  0.9511132456372522  0.3463561328402207  0.5301971643780519   F   F   F
  0.8130474682475253  0.8535246255207056  0.5184497670837729   F   F   F
  0.5731859334069185  0.6481405786114607  0.5091772983598304   F   F   F
  0.4637850441325995  0.5926712830533560  0.5609777159286224   F   F   F
  0.2425027862027846  0.9171698546278151  0.4387163420910625   F   F   F
  0.0012238449051196  0.4243374343600692  0.4521150546944668   F   F   F
  0.2575782228860675  0.0995178777787302  0.5417014124614781   F   F   F
  0.1778948851435516  0.5748179307606804  0.4641995137397359   F   F   F
  0.4241101990133345  0.9340029205916380  0.5332427401806754   F   F   F
  0.3226121919743434  0.4372597775836198  0.4759803020862563   F   F   F
  0.0700370331529996  0.0711283477672779  0.4539650233057770   F   F   F
  0.1433929990174647  0.2684610762366333  0.4941943329208556   F   F   F
  0.4077605681628498  0.2322275363912567  0.4613440053060884   F   F   F
  0.3674950486423469  0.7446695034434470  0.4661812927574474   F   F   F
  0.1059721151942128  0.7698371245699249  0.5073225634276923   F   F   F
  0.9994672096543766  0.5979894557120460  0.5618764414118971   F   F   F
  0.7138449276293741  0.8888179260947382  0.4499898998671839   F   F   F
  0.5422830096203128  0.4089861921924296  0.4719011944697726   F   F   F
  0.7794283654672398  0.0751356828255823  0.5454172287933545   F   F   F
  0.6815485937529786  0.5631317010811472  0.5490461208946940   F   F   F
  0.9266564184163499  0.9314067158322175  0.4776693346053307   F   F   F
  0.8328601561053972  0.4268094887652438  0.5574819735700274   F   F   F
  0.5697569004196694  0.0638585141668031  0.5024845775464613   F   F   F
  0.6500561705196759  0.2510738872882925  0.5613183355862077   F   F   F
  0.8861667626417287  0.2439754293179561  0.4777516222568465   F   F   F
  0.8495560857204012  0.7246269763321251  0.4849877172235963   F   F   F
  0.6027061300358199  0.7654168437911011  0.5615820103819402   F   F   F
  0.4220707985015721  0.3380463621978365  0.6062514740182329   T   T   T
 
  0.00000000E+00  0.00000000E+00  0.00000000E+00
  0.00000000E+00  0.00000000E+00  0.00000000E+00
  0.00000000E+00  0.00000000E+00  0.00000000E+00
  0.00000000E+00  0.00000000E+00  0.00000000E+00
  0.00000000E+00  0.00000000E+00  0.00000000E+00
  0.00000000E+00  0.00000000E+00  0.00000000E+00
  0.00000000E+00  0.00000000E+00  0.00000000E+00
  0.00000000E+00  0.00000000E+00  0.00000000E+00
  0.00000000E+00  0.00000000E+00  0.00000000E+00
  0.00000000E+00  0.00000000E+00  0.00000000E+00
  0.00000000E+00  0.00000000E+00  0.00000000E+00
  0.00000000E+00  0.00000000E+00  0.00000000E+00
  0.00000000E+00  0.00000000E+00  0.00000000E+00
  0.00000000E+00  0.00000000E+00  0.00000000E+00
  0.00000000E+00  0.00000000E+00  0.00000000E+00
  0.00000000E+00  0.00000000E+00  0.00000000E+00
  0.00000000E+00  0.00000000E+00  0.00000000E+00
  0.00000000E+00  0.00000000E+00  0.00000000E+00
  0.00000000E+00  0.00000000E+00  0.00000000E+00
  0.00000000E+00  0.00000000E+00  0.00000000E+00
  0.00000000E+00  0.00000000E+00  0.00000000E+00
  0.00000000E+00  0.00000000E+00  0.00000000E+00
  0.00000000E+00  0.00000000E+00  0.00000000E+00
  0.00000000E+00  0.00000000E+00  0.00000000E+00
  0.00000000E+00  0.00000000E+00  0.00000000E+00
  0.00000000E+00  0.00000000E+00  0.00000000E+00
  0.00000000E+00  0.00000000E+00  0.00000000E+00
  0.00000000E+00  0.00000000E+00  0.00000000E+00
  0.00000000E+00  0.00000000E+00  0.00000000E+00
  0.00000000E+00  0.00000000E+00  0.00000000E+00
  0.00000000E+00  0.00000000E+00  0.00000000E+00
  0.00000000E+00  0.00000000E+00  0.00000000E+00
  0.00000000E+00  0.00000000E+00  0.00000000E+00
  0.00000000E+00  0.00000000E+00  0.00000000E+00
  0.00000000E+00  0.00000000E+00  0.00000000E+00
  0.00000000E+00  0.00000000E+00  0.00000000E+00
  0.00000000E+00  0.00000000E+00  0.00000000E+00
  0.00000000E+00  0.00000000E+00  0.00000000E+00
  0.00000000E+00  0.00000000E+00  0.00000000E+00
  0.00000000E+00  0.00000000E+00  0.00000000E+00
  0.00000000E+00  0.00000000E+00  0.00000000E+00
