CONTCAR\(4)                             
   1.00000000000000     
    11.5852003097999994    0.0000000000000000    0.0000000000000000
     0.0000000000000000   11.5630998610999995    0.0000000000000000
     0.0000000000000000    0.0000000000000000   21.2658996581999986
   Eu   I    O 
    18    18    19
Direct
  0.1717055322909629  0.9585772184746442  0.4305834684754274
  0.9972072367522282  0.2079484870200396  0.5657719010908545
  0.4963896156124534  0.9614891808564128  0.4350824599544799
  0.3296442717280612  0.1168532024320958  0.5486902608924276
  0.8333847464564175  0.0522408391785052  0.4521115626559959
  0.6760292417555145  0.2121015200865380  0.5692487171013971
  0.1708827950239138  0.2923851229754008  0.4291499146541540
  0.9905644583992333  0.5353321810084732  0.5643817535226587
  0.4945177245456458  0.2944648347147632  0.4335064746295703
  0.3298342124458857  0.4507894582762699  0.5490798432244094
  0.8288280907885387  0.3864963244372451  0.4492968242299510
  0.6692323631091015  0.5390192169178298  0.5712804283208841
  0.1685327817546020  0.6249299810074697  0.4287780829284349
  0.9977734505179676  0.8748871442674968  0.5684307633269666
  0.4978770063288124  0.6300182907408348  0.4329793946797887
  0.3247129607239289  0.7765724684367724  0.5472247849617922
  0.8307405866073422  0.7201972240072450  0.4531114940049689
  0.6747678224947111  0.8767455028031688  0.5716393360261597
  0.2014823704133291  0.9826352164479053  0.6603723360506843
  0.9985033160680759  0.1420379295789781  0.3354212004596076
  0.5728418124035549  0.9311829397383079  0.7163465669441353
  0.3359309167375032  0.1207214000581666  0.3364468434265346
  0.8439717394109211  0.0513835687864224  0.6611974682702072
  0.6695700083315241  0.1530026949938524  0.3396111588462042
  0.1800251054121986  0.3212484617622121  0.6614408222501953
  0.9961695412029684  0.4767293644551622  0.3339590318864481
  0.5023609033912877  0.3512543379917294  0.6620941217517050
  0.3352604112349624  0.4552197243672791  0.3354193297528674
  0.8405046498605968  0.3798024048551468  0.6636348989156814
  0.6669469178904356  0.4875346878396122  0.3355113931190954
  0.1458327349947749  0.6556962524453804  0.6703617478952951
  0.9974815538372102  0.8101914381964196  0.3368048663444017
  0.4451084941167149  0.7338094222533453  0.6825529103803742
  0.3351084686540909  0.7891524863745556  0.3365006454340799
  0.8479897093172182  0.7103591308341606  0.6666885680556975
  0.6686336345408076  0.8188448024064460  0.3395165020004829
  0.0336845169061756  0.0415954028469914  0.5016558693241118
  0.1338662042646379  0.1235894199930891  0.4959073975377403
  0.3323943414637517  0.9487907517157811  0.4915867028161767
  0.5305502491175189  0.1249644444312731  0.5040617745938750
  0.6315626215310333  0.0433424029795004  0.5087325813679512
  0.8334915490450553  0.2205519740790949  0.5072870280137742
  0.0306845213569071  0.3749852164267552  0.4987720231773846
  0.1315721897574306  0.4566796218313313  0.4952252645670372
  0.3307504498756678  0.2812729115353523  0.4902982057667879
  0.5325991309625598  0.4601580101626889  0.4986931716849627
  0.6330142693344092  0.3783030928018234  0.5034800339331001
  0.8264118979510103  0.5512129292960335  0.5090290215066783
  0.0312155732099140  0.7072052975218982  0.5027700169151637
  0.1316649357973881  0.7883856035046996  0.4969413281628980
  0.3316322231362931  0.6136171938522620  0.4872774933034116
  0.5294929132489878  0.7926015238375065  0.5041642883461739
  0.6297974063109864  0.7102300155054603  0.5096993610416930
  0.8325405382311484  0.8855755687762296  0.5108224305333425
  0.2998575603456738  0.6162141568759483  0.6330777529437548
 
  0.00000000E+00  0.00000000E+00  0.00000000E+00
  0.00000000E+00  0.00000000E+00  0.00000000E+00
  0.00000000E+00  0.00000000E+00  0.00000000E+00
  0.00000000E+00  0.00000000E+00  0.00000000E+00
  0.00000000E+00  0.00000000E+00  0.00000000E+00
  0.00000000E+00  0.00000000E+00  0.00000000E+00
  0.00000000E+00  0.00000000E+00  0.00000000E+00
  0.00000000E+00  0.00000000E+00  0.00000000E+00
  0.00000000E+00  0.00000000E+00  0.00000000E+00
  0.00000000E+00  0.00000000E+00  0.00000000E+00
  0.00000000E+00  0.00000000E+00  0.00000000E+00
  0.00000000E+00  0.00000000E+00  0.00000000E+00
  0.00000000E+00  0.00000000E+00  0.00000000E+00
  0.00000000E+00  0.00000000E+00  0.00000000E+00
  0.00000000E+00  0.00000000E+00  0.00000000E+00
  0.00000000E+00  0.00000000E+00  0.00000000E+00
  0.00000000E+00  0.00000000E+00  0.00000000E+00
  0.00000000E+00  0.00000000E+00  0.00000000E+00
  0.00000000E+00  0.00000000E+00  0.00000000E+00
  0.00000000E+00  0.00000000E+00  0.00000000E+00
  0.00000000E+00  0.00000000E+00  0.00000000E+00
  0.00000000E+00  0.00000000E+00  0.00000000E+00
  0.00000000E+00  0.00000000E+00  0.00000000E+00
  0.00000000E+00  0.00000000E+00  0.00000000E+00
  0.00000000E+00  0.00000000E+00  0.00000000E+00
  0.00000000E+00  0.00000000E+00  0.00000000E+00
  0.00000000E+00  0.00000000E+00  0.00000000E+00
  0.00000000E+00  0.00000000E+00  0.00000000E+00
  0.00000000E+00  0.00000000E+00  0.00000000E+00
  0.00000000E+00  0.00000000E+00  0.00000000E+00
  0.00000000E+00  0.00000000E+00  0.00000000E+00
  0.00000000E+00  0.00000000E+00  0.00000000E+00
  0.00000000E+00  0.00000000E+00  0.00000000E+00
  0.00000000E+00  0.00000000E+00  0.00000000E+00
  0.00000000E+00  0.00000000E+00  0.00000000E+00
  0.00000000E+00  0.00000000E+00  0.00000000E+00
  0.00000000E+00  0.00000000E+00  0.00000000E+00
  0.00000000E+00  0.00000000E+00  0.00000000E+00
  0.00000000E+00  0.00000000E+00  0.00000000E+00
  0.00000000E+00  0.00000000E+00  0.00000000E+00
  0.00000000E+00  0.00000000E+00  0.00000000E+00
  0.00000000E+00  0.00000000E+00  0.00000000E+00
  0.00000000E+00  0.00000000E+00  0.00000000E+00
  0.00000000E+00  0.00000000E+00  0.00000000E+00
  0.00000000E+00  0.00000000E+00  0.00000000E+00
  0.00000000E+00  0.00000000E+00  0.00000000E+00
  0.00000000E+00  0.00000000E+00  0.00000000E+00
  0.00000000E+00  0.00000000E+00  0.00000000E+00
  0.00000000E+00  0.00000000E+00  0.00000000E+00
  0.00000000E+00  0.00000000E+00  0.00000000E+00
  0.00000000E+00  0.00000000E+00  0.00000000E+00
  0.00000000E+00  0.00000000E+00  0.00000000E+00
  0.00000000E+00  0.00000000E+00  0.00000000E+00
  0.00000000E+00  0.00000000E+00  0.00000000E+00
  0.00000000E+00  0.00000000E+00  0.00000000E+00
