CONTCAR\(7)                             
   1.00000000000000     
    11.3970003127999995    0.0000000000000000    0.0000000000000000
    -5.6736486034000002    9.8767870360999996    0.0000000000000000
     0.0000000000000000    0.0000000000000000   16.9332008362000010
   Mn   Cu   O 
    12     4    33
Direct
  0.0013670310929013  0.2489999356812991  0.5002360237855290
  0.2276424854158780  0.9901379812937716  0.4988547820830856
  0.0125567433613365  0.9902060429894262  0.4987099538822845
  0.4974637576020663  0.2488437860861334  0.5006303456245577
  0.7542321399057190  0.0023146932915074  0.4976192116910305
  0.4980577676256474  0.0023519567912925  0.4978129722099376
  0.0114876155717461  0.7728876009076425  0.5013160063906694
  0.2471016163884099  0.5066120765557053  0.5040690050297060
 -0.0002227946649367  0.5049066695084367  0.5011484147615162
  0.5019180056049273  0.7538716975717991  0.5033012389728906
  0.7552334439226356  0.5049393046560812  0.5012347125466837
  0.5095546365475205  0.5066744647224282  0.5041423795838841
  0.2505392754259184  0.2511910457081263  0.4993456351266560
  0.7508331396292252  0.2517351755858374  0.5006505511773781
  0.2515546049380384  0.7535529512164920  0.4988497974135456
  0.7520713524118428  0.7536155882788717  0.4988905358516767
  0.0834319054042906  0.4200156543228571  0.5606874913769164
  0.3476620140781584  0.4451328271806440  0.5817243333821168
  0.0839137779525391  0.1586863840415087  0.5529775854096582
  0.4105842755880473  0.0843191404078873  0.4422051871650220
  0.3245140023465564  0.1586137980309918  0.5531875678606366
  0.1562512174681040  0.0624868734134379  0.4324788230142515
  0.4185631997536567  0.3424160763261750  0.4489663245327579
  0.1739229941870706  0.3425095983690618  0.4487211849090369
  0.5868052084410604  0.4201119745026622  0.5608269051323952
  0.8388153564900048  0.4272840651627676  0.5584430957905587
  0.5754145135173343  0.1642494471195433  0.5567849047340823
  0.9235827097474916  0.0843573059186937  0.4419664532362997
  0.8387409818088758  0.1646619613564264  0.5564164365330058
  0.6643151572397790  0.0791102996677051  0.4420943474257572
  0.9258523947977736  0.3396264976672854  0.4443793739388105
  0.6637487473646292  0.3391588100311800  0.4447030039071516
  0.0843805216488509  0.9187555641218275  0.5726782912799345
  0.3291192488096005  0.9264211604847526  0.5526976235007464
  0.0795639139600174  0.6742812954992273  0.5547316608747596
  0.4159193148901875  0.5820620338023025  0.4492819965730775
  0.3370040066402581  0.6709302662647197  0.5605460812660663
  0.1660653913993012  0.5792042265605125  0.4436630100767933
  0.4226549825734361  0.8371315867303059  0.4427777769266159
  0.1618045828858812  0.8350306874208577  0.4377071563891839
  0.5859237066900363  0.9215779337296722  0.5576247640403782
  0.8475695023644724  0.9266295520283848  0.5525704234573365
  0.5836510205799716  0.6706856541750758  0.5606341622677394
  0.9204044836458544  0.5908958613739053  0.4437389906967742
  0.8449110793833891  0.6746787846967068  0.5546883089170390
  0.6629890356031546  0.5792269049335814  0.4437422254524977
  0.9237278104158123  0.8354455395756487  0.4375824494666232
  0.6644283451960219  0.8367757917503927  0.4427986204629346
  0.3483536513495198  0.4465757914884466  0.6576619318720116
 
  0.00000000E+00  0.00000000E+00  0.00000000E+00
  0.00000000E+00  0.00000000E+00  0.00000000E+00
  0.00000000E+00  0.00000000E+00  0.00000000E+00
  0.00000000E+00  0.00000000E+00  0.00000000E+00
  0.00000000E+00  0.00000000E+00  0.00000000E+00
  0.00000000E+00  0.00000000E+00  0.00000000E+00
  0.00000000E+00  0.00000000E+00  0.00000000E+00
  0.00000000E+00  0.00000000E+00  0.00000000E+00
  0.00000000E+00  0.00000000E+00  0.00000000E+00
  0.00000000E+00  0.00000000E+00  0.00000000E+00
  0.00000000E+00  0.00000000E+00  0.00000000E+00
  0.00000000E+00  0.00000000E+00  0.00000000E+00
  0.00000000E+00  0.00000000E+00  0.00000000E+00
  0.00000000E+00  0.00000000E+00  0.00000000E+00
  0.00000000E+00  0.00000000E+00  0.00000000E+00
  0.00000000E+00  0.00000000E+00  0.00000000E+00
  0.00000000E+00  0.00000000E+00  0.00000000E+00
  0.00000000E+00  0.00000000E+00  0.00000000E+00
  0.00000000E+00  0.00000000E+00  0.00000000E+00
  0.00000000E+00  0.00000000E+00  0.00000000E+00
  0.00000000E+00  0.00000000E+00  0.00000000E+00
  0.00000000E+00  0.00000000E+00  0.00000000E+00
  0.00000000E+00  0.00000000E+00  0.00000000E+00
  0.00000000E+00  0.00000000E+00  0.00000000E+00
  0.00000000E+00  0.00000000E+00  0.00000000E+00
  0.00000000E+00  0.00000000E+00  0.00000000E+00
  0.00000000E+00  0.00000000E+00  0.00000000E+00
  0.00000000E+00  0.00000000E+00  0.00000000E+00
  0.00000000E+00  0.00000000E+00  0.00000000E+00
  0.00000000E+00  0.00000000E+00  0.00000000E+00
  0.00000000E+00  0.00000000E+00  0.00000000E+00
  0.00000000E+00  0.00000000E+00  0.00000000E+00
  0.00000000E+00  0.00000000E+00  0.00000000E+00
  0.00000000E+00  0.00000000E+00  0.00000000E+00
  0.00000000E+00  0.00000000E+00  0.00000000E+00
  0.00000000E+00  0.00000000E+00  0.00000000E+00
  0.00000000E+00  0.00000000E+00  0.00000000E+00
  0.00000000E+00  0.00000000E+00  0.00000000E+00
  0.00000000E+00  0.00000000E+00  0.00000000E+00
  0.00000000E+00  0.00000000E+00  0.00000000E+00
  0.00000000E+00  0.00000000E+00  0.00000000E+00
  0.00000000E+00  0.00000000E+00  0.00000000E+00
  0.00000000E+00  0.00000000E+00  0.00000000E+00
  0.00000000E+00  0.00000000E+00  0.00000000E+00
  0.00000000E+00  0.00000000E+00  0.00000000E+00
  0.00000000E+00  0.00000000E+00  0.00000000E+00
  0.00000000E+00  0.00000000E+00  0.00000000E+00
  0.00000000E+00  0.00000000E+00  0.00000000E+00
  0.00000000E+00  0.00000000E+00  0.00000000E+00
