CONTCAR                                 
   1.00000000000000     
    11.3364000320000002    0.0000000000000000    0.0000000000000000
     0.0000000000000000   11.1918001174999997    0.0000000000000000
     0.0000000000000000    0.0000000000000000   20.5198993682999991
   Mn   Sb   Se   Br   O    H 
     6     6    12     6     1     1
Selective dynamics
Direct
  0.1575461472084356  0.5130874944937034  0.5093667232720591   F   F   F
  0.1571401840306592  0.9976256154592278  0.4950963722471968   F   F   F
  0.4903166663778222  0.5087401447474136  0.5140170874782868   F   F   F
  0.4897224929239030  0.0031412965077919  0.4984892693982630   F   F   F
  0.8229491322641636  0.5132993744577874  0.5094514632904108   F   F   F
  0.8221620655177944  0.9974261729295009  0.4952991894479410   F   F   F
  0.9894903059245408  0.7831561811386365  0.5983638252293417   F   F   F
  0.3234542485142953  0.2902965808857516  0.4023967890641629   F   F   F
  0.3261270918760175  0.7958481222731209  0.6151493373927366   F   F   F
  0.6569257659757426  0.2902383134998914  0.4029237758599464   F   F   F
  0.6521743592627729  0.7956348192880043  0.6158987640120088   F   F   F
  0.9885888340145641  0.2871491790727561  0.4014965478823953   F   F   F
  0.3257596294062495  0.5173780902173490  0.4206305154706627   F   F   F
  0.1562516137239882  0.2459094083886058  0.4898643274057477   F   F   F
  0.1580460829652637  0.7508453094336858  0.5127852168374929   F   F   F
  0.9898438485884284  0.0150973732483806  0.5833493879405367   F   F   F
  0.6544829251447126  0.5172999546992259  0.4207647479978718   F   F   F
  0.4897680731889196  0.2472012738131681  0.4912446657929692   F   F   F
  0.4898943797059943  0.7496098124106823  0.5248792287646040   F   F   F
  0.3202264420740519  0.0208795769325434  0.5862245819513348   F   F   F
  0.9898909254468862  0.5142960654241406  0.4185227801561808   F   F   F
  0.8231417515489952  0.2459344394665095  0.4910115362931293   F   F   F
  0.8203299675582159  0.7506343994084688  0.5131086995334684   F   F   F
  0.6590876860887747  0.0203926618216457  0.5865176177662619   F   F   F
  0.9902311047611647  0.4808255426645118  0.5970537836168006   F   F   F
  0.9896406075246134  0.9821542448026079  0.4055184054425141   F   F   F
  0.3217106091192576  0.4770706467146368  0.5994054509357483   F   F   F
  0.3254543820125377  0.9777294216706309  0.4081813216833936   F   F   F
  0.6588015179418321  0.4772005874639476  0.5994525019113865   F   F   F
  0.6537857576761326  0.9774929088490794  0.4083598287722552   F   F   F
  0.4892202803886008  0.8304273226402685  0.6760536769587802   T   T   T
  0.4889452772447030  0.7817777011763526  0.7149018794571574   T   T   T
 
  0.00000000E+00  0.00000000E+00  0.00000000E+00
  0.00000000E+00  0.00000000E+00  0.00000000E+00
  0.00000000E+00  0.00000000E+00  0.00000000E+00
  0.00000000E+00  0.00000000E+00  0.00000000E+00
  0.00000000E+00  0.00000000E+00  0.00000000E+00
  0.00000000E+00  0.00000000E+00  0.00000000E+00
  0.00000000E+00  0.00000000E+00  0.00000000E+00
  0.00000000E+00  0.00000000E+00  0.00000000E+00
  0.00000000E+00  0.00000000E+00  0.00000000E+00
  0.00000000E+00  0.00000000E+00  0.00000000E+00
  0.00000000E+00  0.00000000E+00  0.00000000E+00
  0.00000000E+00  0.00000000E+00  0.00000000E+00
  0.00000000E+00  0.00000000E+00  0.00000000E+00
  0.00000000E+00  0.00000000E+00  0.00000000E+00
  0.00000000E+00  0.00000000E+00  0.00000000E+00
  0.00000000E+00  0.00000000E+00  0.00000000E+00
  0.00000000E+00  0.00000000E+00  0.00000000E+00
  0.00000000E+00  0.00000000E+00  0.00000000E+00
  0.00000000E+00  0.00000000E+00  0.00000000E+00
  0.00000000E+00  0.00000000E+00  0.00000000E+00
  0.00000000E+00  0.00000000E+00  0.00000000E+00
  0.00000000E+00  0.00000000E+00  0.00000000E+00
  0.00000000E+00  0.00000000E+00  0.00000000E+00
  0.00000000E+00  0.00000000E+00  0.00000000E+00
  0.00000000E+00  0.00000000E+00  0.00000000E+00
  0.00000000E+00  0.00000000E+00  0.00000000E+00
  0.00000000E+00  0.00000000E+00  0.00000000E+00
  0.00000000E+00  0.00000000E+00  0.00000000E+00
  0.00000000E+00  0.00000000E+00  0.00000000E+00
  0.00000000E+00  0.00000000E+00  0.00000000E+00
  0.00000000E+00  0.00000000E+00  0.00000000E+00
  0.00000000E+00  0.00000000E+00  0.00000000E+00
