CONTCAR\(18)                            
   1.00000000000000     
    13.8212003707999997    0.0000000000000000    0.0000000000000000
     2.2957132678000001   11.9646463987999994    0.0000000000000000
     0.0000000000000000    0.0000000000000000   19.5161991119000007
   Li   Cr   C    O 
     6     9    18    55
Direct
  0.0023257569579423 -0.0002252627259488  0.5982530315553947
  0.2596742114340180  0.4476526040943004  0.3991528739323992
  0.3357590636744112  0.9995637854210985  0.5981566731920482
  0.5917692393782312  0.4476440269219242  0.3888164955501628
  0.6689936398911477  0.9996244948720944  0.5983321396983451
  0.9242837294683417  0.4474191252473801  0.3991774878612850
  0.1874419964899914  0.8882776096073572  0.5009880183270805
  0.2975549764665126  0.2236933149801445  0.4988448347514410
  0.0734374616708360  0.5585607959022308  0.4976799142966474
  0.5208416481458160  0.8877073685038114  0.5009341864908503
  0.6302657458700130  0.2242583596827052  0.4993940863535814
  0.4074345920582736  0.5581158323668691  0.4982338117132321
  0.8540612019980263  0.8882967973542591  0.5011338741203318
  0.9635368186632476  0.2239008779292139  0.4991309049759787
  0.7396537514601530  0.5580907351462362  0.4983136643055282
  0.1488740775662909  0.1154854714854438  0.5610988521757596
  0.2587799653408447  0.4464418682707871  0.5536097519616644
  0.1119560183360102  0.3320176679041384  0.4371073249877159
  0.0384288780901569  0.7759066767785658  0.5595880906344139
  0.2228789217499593  0.6708327285854990  0.4396757216129980
  0.0019124196943775  0.0002900801772324  0.4453746388939665
  0.4821668023338927  0.1151709290782347  0.5614462424895784
  0.5922218867407866  0.4464005464120240  0.5543483505469343
  0.4461202726779902  0.3323688055974179  0.4382273534330172
  0.3715451088172881  0.7758186941633851  0.5598174555830111
  0.5561152001669800  0.6697133455954299  0.4404094083968561
  0.3354561422779583  0.0001167104471039  0.4451908540723388
  0.8154504174795726  0.1153777649115807  0.5615401227315714
  0.9255994588474057  0.4467459063746046  0.5537543660947950
  0.7776628633550313  0.3324839681753902  0.4384260612797434
  0.7050709148135559  0.7758446061239564  0.5598462017362896
  0.8889452750886450  0.6707015016334497  0.4397763882250380
  0.6686394839240772  0.0004219294319279  0.4456228279681207
  0.1641241888733518  0.4551050217419708  0.5521307684124908
  0.0965458580843862  0.9919130886970295  0.4468215056053668
  0.0741588542543676  0.2447472635758800  0.4408258563370793
  0.0568479416885192  0.4316434586636476  0.4322628298526285
  0.2036498905443403  0.0156785825321548  0.5663154276868445
  0.3147622500920496  0.3486726412227942  0.5549792034387574
  0.1867750062150805  0.2025008503348238  0.5570505245406239
  0.2973974494529828  0.5350450276616731  0.5532493408449489
  0.2770587581177223  0.7885358694945087  0.5610222327257570
  0.2071912697199244  0.3242618171661333  0.4350771169554603
  0.1820689804253550  0.5821695277683527  0.4342263958658132
  0.2969499935583975  0.9113701428862631  0.4459124789399892
  0.1668043469105008  0.7671001529164545  0.4435685133417909
  0.2795047302461292  0.0978503483482382  0.4437183542589408
  0.0942089499248573  0.6796144924137560  0.5554058411009559
  0.0793189280544590  0.8645309627278277  0.5648867038247837
  0.0536244143427154  0.1235902053128558  0.5633468858877194
  0.3172630880713292  0.6586584591915599  0.4389899194319765
  0.4975765934866095  0.4553823456738936  0.5533233721164278
  0.4300934683205954  0.9914264823585575  0.4467844132513167
  0.4079905719188265  0.2448960501669146  0.4411086568447158
  0.3904286930761540  0.4317467825780932  0.4338721541374642
  0.5368244561576455  0.0153125184107135  0.5664480301841639
  0.6480032800584258  0.3485220993564388  0.5557384408294501
  0.5201346093803534  0.2022120067965629  0.5580684146725094
  0.6310847909020852  0.5348860212700823  0.5541897542495148
  0.6105669501073360  0.7885170822925632  0.5611048931172677
  0.5408626793695617  0.3251250805845549  0.4370412858032511
  0.5160067811428161  0.5809913164209338  0.4361555542254269
  0.6305130865215972  0.9113794418436275  0.4461923006377628
  0.5001655184973787  0.7663980288104643  0.4440008604707947
  0.6123787641643513  0.0979405199791270  0.4445746605224638
  0.4272532608569490  0.6794634960386469  0.5561513764274962
  0.4124996562201275  0.8644387242310114  0.5648003727657541
  0.3868641635335797  0.1233346268933125  0.5632636776140619
  0.6505913475197967  0.6583730495427187  0.4393234155342245
  0.8309920801922592  0.4553671701974490  0.5529491093749355
  0.7633071102960038  0.9920300793898683  0.4470738797532012
  0.7405706923039665  0.2445320610531470  0.4417331030284604
  0.7224694530540692  0.4315047075738561  0.4350886886191643
  0.8702950270627141  0.0155554280968444  0.5665195473222522
  0.9817198879434309  0.3490713426777035  0.5547216278086763
  0.8534902269067896  0.2024215074284617  0.5578927270338216
  0.9641291594049005  0.5354659354542827  0.5531423073651007
  0.9439805388742973  0.7884325659899561  0.5609529031614457
  0.8731811429185754  0.3243787383323540  0.4357760995493414
  0.8482958525894319  0.5819727379867781  0.4348816564896089
  0.9637034733523814  0.9113252783452539  0.4460802767659967
  0.8331177028390359  0.7670287226413323  0.4439122277142403
  0.9457016220177992  0.0978337712135356  0.4441040072004593
  0.7607393727002022  0.6795249838089147  0.5558536516403948
  0.7460327815311359  0.8644421249861807  0.5650629389076800
  0.7202706735909814  0.1234674286549300  0.5636529560655885
  0.9834075134028035  0.6585891565556573  0.4382923341665032
  0.5911339812807954  0.4439428932595274  0.2894762616290340
 
  0.00000000E+00  0.00000000E+00  0.00000000E+00
  0.00000000E+00  0.00000000E+00  0.00000000E+00
  0.00000000E+00  0.00000000E+00  0.00000000E+00
  0.00000000E+00  0.00000000E+00  0.00000000E+00
  0.00000000E+00  0.00000000E+00  0.00000000E+00
  0.00000000E+00  0.00000000E+00  0.00000000E+00
  0.00000000E+00  0.00000000E+00  0.00000000E+00
  0.00000000E+00  0.00000000E+00  0.00000000E+00
  0.00000000E+00  0.00000000E+00  0.00000000E+00
  0.00000000E+00  0.00000000E+00  0.00000000E+00
  0.00000000E+00  0.00000000E+00  0.00000000E+00
  0.00000000E+00  0.00000000E+00  0.00000000E+00
  0.00000000E+00  0.00000000E+00  0.00000000E+00
  0.00000000E+00  0.00000000E+00  0.00000000E+00
  0.00000000E+00  0.00000000E+00  0.00000000E+00
  0.00000000E+00  0.00000000E+00  0.00000000E+00
  0.00000000E+00  0.00000000E+00  0.00000000E+00
  0.00000000E+00  0.00000000E+00  0.00000000E+00
  0.00000000E+00  0.00000000E+00  0.00000000E+00
  0.00000000E+00  0.00000000E+00  0.00000000E+00
  0.00000000E+00  0.00000000E+00  0.00000000E+00
  0.00000000E+00  0.00000000E+00  0.00000000E+00
  0.00000000E+00  0.00000000E+00  0.00000000E+00
  0.00000000E+00  0.00000000E+00  0.00000000E+00
  0.00000000E+00  0.00000000E+00  0.00000000E+00
  0.00000000E+00  0.00000000E+00  0.00000000E+00
  0.00000000E+00  0.00000000E+00  0.00000000E+00
  0.00000000E+00  0.00000000E+00  0.00000000E+00
  0.00000000E+00  0.00000000E+00  0.00000000E+00
  0.00000000E+00  0.00000000E+00  0.00000000E+00
  0.00000000E+00  0.00000000E+00  0.00000000E+00
  0.00000000E+00  0.00000000E+00  0.00000000E+00
  0.00000000E+00  0.00000000E+00  0.00000000E+00
  0.00000000E+00  0.00000000E+00  0.00000000E+00
  0.00000000E+00  0.00000000E+00  0.00000000E+00
  0.00000000E+00  0.00000000E+00  0.00000000E+00
  0.00000000E+00  0.00000000E+00  0.00000000E+00
  0.00000000E+00  0.00000000E+00  0.00000000E+00
  0.00000000E+00  0.00000000E+00  0.00000000E+00
  0.00000000E+00  0.00000000E+00  0.00000000E+00
  0.00000000E+00  0.00000000E+00  0.00000000E+00
  0.00000000E+00  0.00000000E+00  0.00000000E+00
  0.00000000E+00  0.00000000E+00  0.00000000E+00
  0.00000000E+00  0.00000000E+00  0.00000000E+00
  0.00000000E+00  0.00000000E+00  0.00000000E+00
  0.00000000E+00  0.00000000E+00  0.00000000E+00
  0.00000000E+00  0.00000000E+00  0.00000000E+00
  0.00000000E+00  0.00000000E+00  0.00000000E+00
  0.00000000E+00  0.00000000E+00  0.00000000E+00
  0.00000000E+00  0.00000000E+00  0.00000000E+00
  0.00000000E+00  0.00000000E+00  0.00000000E+00
  0.00000000E+00  0.00000000E+00  0.00000000E+00
  0.00000000E+00  0.00000000E+00  0.00000000E+00
  0.00000000E+00  0.00000000E+00  0.00000000E+00
  0.00000000E+00  0.00000000E+00  0.00000000E+00
  0.00000000E+00  0.00000000E+00  0.00000000E+00
  0.00000000E+00  0.00000000E+00  0.00000000E+00
  0.00000000E+00  0.00000000E+00  0.00000000E+00
  0.00000000E+00  0.00000000E+00  0.00000000E+00
  0.00000000E+00  0.00000000E+00  0.00000000E+00
  0.00000000E+00  0.00000000E+00  0.00000000E+00
  0.00000000E+00  0.00000000E+00  0.00000000E+00
  0.00000000E+00  0.00000000E+00  0.00000000E+00
  0.00000000E+00  0.00000000E+00  0.00000000E+00
  0.00000000E+00  0.00000000E+00  0.00000000E+00
  0.00000000E+00  0.00000000E+00  0.00000000E+00
  0.00000000E+00  0.00000000E+00  0.00000000E+00
  0.00000000E+00  0.00000000E+00  0.00000000E+00
  0.00000000E+00  0.00000000E+00  0.00000000E+00
  0.00000000E+00  0.00000000E+00  0.00000000E+00
  0.00000000E+00  0.00000000E+00  0.00000000E+00
  0.00000000E+00  0.00000000E+00  0.00000000E+00
  0.00000000E+00  0.00000000E+00  0.00000000E+00
  0.00000000E+00  0.00000000E+00  0.00000000E+00
  0.00000000E+00  0.00000000E+00  0.00000000E+00
  0.00000000E+00  0.00000000E+00  0.00000000E+00
  0.00000000E+00  0.00000000E+00  0.00000000E+00
  0.00000000E+00  0.00000000E+00  0.00000000E+00
  0.00000000E+00  0.00000000E+00  0.00000000E+00
  0.00000000E+00  0.00000000E+00  0.00000000E+00
  0.00000000E+00  0.00000000E+00  0.00000000E+00
  0.00000000E+00  0.00000000E+00  0.00000000E+00
  0.00000000E+00  0.00000000E+00  0.00000000E+00
  0.00000000E+00  0.00000000E+00  0.00000000E+00
  0.00000000E+00  0.00000000E+00  0.00000000E+00
  0.00000000E+00  0.00000000E+00  0.00000000E+00
  0.00000000E+00  0.00000000E+00  0.00000000E+00
  0.00000000E+00  0.00000000E+00  0.00000000E+00
