CONTCAR\(10)                            
   1.00000000000000     
    12.7571001052999993    0.0000000000000000    0.0000000000000000
     0.0000000000000000   15.8464002608999994    0.0000000000000000
     0.0000000000000000    0.0000000000000000   20.2327003478999998
   Ti   Cl   O 
    32    32    33
Direct
  0.1256454756610591 -0.0015258281542108  0.5355175930600231
  0.0057630986222108  0.1291641212372617  0.4606198972529995
  0.3779451867025552  0.0000192306433272  0.5320274076221334
  0.2632399180879933  0.1243149877570180  0.4593515104746386
  0.6443345942866860  0.0001619883446823  0.5411317711293193
  0.4879127894703772  0.1192105123172069  0.4572661665342326
  0.8575129556416995 -0.0002289381188592  0.5424993467170488
  0.7490023608957097  0.1212833721202107  0.4614734798976574
  0.1106223736772693  0.2480554084725005  0.5416744429741212
  0.9987302012329947  0.3726000042261614  0.4670237585507743
  0.3743140249308479  0.2436055127921631  0.5330678220131970
  0.2542752904803036  0.3756283541609978  0.4671826546492935
  0.6283713213384182  0.2513222465930702  0.5339981507459769
  0.5082943552911940  0.3814305382158527  0.4594073284614215
  0.8946216558923502  0.2497627262135869  0.5415969555150807
  0.7419297535756878  0.3705160351556057  0.4587787970075566
  0.1196471403457855  0.5073191934992621  0.5571077049271670
  0.9871115019378408  0.6245354019294150  0.4696347257100055
  0.3346903914606296  0.5481571143956622  0.5716215791046775
  0.2768077076208592  0.6249689537380526  0.4508486739189698
  0.6225782139807724  0.4977556522430175  0.5307897694231631
  0.5257809496412877  0.6213148979221026  0.4526502920082382
  0.8717648389717512  0.5034344653938462  0.5409789230159352
  0.7723085012778216  0.6249767412265149  0.4593719956542269
  0.1308730412214644  0.7494151070017762  0.5589922705045567
  0.0041862139405700  0.8746614646435161  0.4588539244049593
  0.3441412791584644  0.7372873234837124  0.5608816096551634
  0.2443950146240231  0.8687242320227742  0.4649680623555429
  0.6250242537480765  0.7442939698056741  0.5374362084246571
  0.4966745385438590  0.8721150774736653  0.4606138163502219
  0.8780692594198823  0.7459678097051747  0.5418020678728501
  0.7512275829952504  0.8801230837936016  0.4626242731395274
  0.1286383502226504  0.1216200347048362  0.3718268764779353
 -0.0000609694321894  0.0033731275240317  0.6241961632678485
  0.3752058363966556  0.1253895765557667  0.3656521195467833
  0.2506053588814766  0.0063594239078599  0.6228166619895262
  0.6253752155035475  0.1259782297249803  0.3718234913459791
  0.5018413462481920  0.9911023592957117  0.6218537326792695
  0.8771102859455571  0.1257771158395707  0.3716994673376764
  0.7499517411570896  0.0024420246404629  0.6355478533046076
  0.1283130244231997  0.3900016535634562  0.3783976724639632
  0.0022025628643356  0.2467368021838434  0.6352611503498108
  0.3710289006128090  0.3823772191086405  0.3733685333566331
  0.2518884309523367  0.2482021949779794  0.6235318602728974
  0.6258048715661130  0.3671264434892426  0.3676116330813618
  0.5015757423459427  0.2502640176176679  0.6233928103993046
  0.8779351307345499  0.3817820789032143  0.3750461726797527
  0.7521732530800370  0.2410606601057588  0.6234528367487858
  0.1315958466611067  0.6199938226950782  0.3814226515379667
  0.9853455639618427  0.4877275788854110  0.6369060639154859
  0.3914695125554993  0.6268912367315950  0.3621766976950268
  0.2332262465216201  0.4644721007185853  0.6456352481522488
  0.6485922230748361  0.6318864463846415  0.3660525263786199
  0.4914844010889310  0.5040596009058942  0.6225257405519509
  0.8906471467198729  0.6252455159937396  0.3705806883231187
  0.7389803545750362  0.4931665313413383  0.6263211697597753
  0.1272953960466577  0.8615730974033219  0.3723482080929932
  0.9912742374857253  0.7559386185514049  0.6378300531949485
  0.3732065446155867  0.8610808505605040  0.3733729337007211
  0.2392785774316923  0.8029253000308278  0.6459899877587546
  0.6259833168517164  0.8758797208147340  0.3715907657690091
  0.4997866388885169  0.7526574515256209  0.6273143840837525
  0.8763608517906751  0.8644257794286451  0.3725655376572869
  0.7448806428164569  0.7648331611095880  0.6284560977126066
  0.0025170528993234  0.9973504406663555  0.4726724427376389
  0.1307701190451137  0.1250541469954441  0.5232402443967312
  0.2499995142981868  0.9954133935299003  0.4700371869875651
  0.3794501181051906  0.1220240181400693  0.5347553501686303
  0.5010485749524057  0.9952780798111074  0.4673445479165103
  0.6202448987045266  0.1218835038862860  0.5210016463304936
  0.7547563333822692  0.9997036206927312  0.4592834235998348
  0.8788446722365542  0.1235486634049463  0.5208407944970729
  0.0035542174532868  0.2509750243001628  0.4603620240933861
  0.1277897837831818  0.3773669956680953  0.5250904964665588
  0.2479138493477925  0.2533965793208169  0.4717287723519429
  0.3791632742412840  0.3746154308265523  0.5169269343655830
  0.5027914168243844  0.2477540859069715  0.4737172578811446
  0.6228353621806985  0.3732243001857970  0.5319613651296007
  0.7552077160421046  0.2479354312279907  0.4733755490540518
  0.8708582709122803  0.3726552466871850  0.5254976012082436
  0.0034266120596549  0.5002037815857522  0.4840532790417026
  0.1000057567197223  0.6244483919991075  0.5450055785188251
  0.2462964835786615  0.5145896019881812  0.4927597866635377
  0.4076655966694728  0.6306975124529566  0.5122586085754838
  0.5141182122235497  0.5012429645831480  0.4575860357551147
  0.6353889361295546  0.6253346206870135  0.5276427948346077
  0.7522775827276745  0.4994135534571514  0.4739369227699985
  0.8708438037382767  0.6249195302063941  0.5457612023369161
  0.0036587756906787  0.7505749987507321  0.4828428810718789
  0.1204356268192874  0.8705223081257140  0.5303273096609271
  0.2395968860291982  0.7347425565620848  0.4830719318504251
  0.3732897495622328  0.8614855564292127  0.5217714355357841
  0.5231826315453684  0.7508277997753759  0.4685676016314203
  0.6235724134882517  0.8754086439108669  0.5213079038608979
  0.7535380857255495  0.7498806687652847  0.4794558479697172
  0.8775528083650687  0.8770005107377528  0.5235147068096260
  0.2854723802553637  0.6428875892545987  0.6063196902663718
 
  0.00000000E+00  0.00000000E+00  0.00000000E+00
  0.00000000E+00  0.00000000E+00  0.00000000E+00
  0.00000000E+00  0.00000000E+00  0.00000000E+00
  0.00000000E+00  0.00000000E+00  0.00000000E+00
  0.00000000E+00  0.00000000E+00  0.00000000E+00
  0.00000000E+00  0.00000000E+00  0.00000000E+00
  0.00000000E+00  0.00000000E+00  0.00000000E+00
  0.00000000E+00  0.00000000E+00  0.00000000E+00
  0.00000000E+00  0.00000000E+00  0.00000000E+00
  0.00000000E+00  0.00000000E+00  0.00000000E+00
  0.00000000E+00  0.00000000E+00  0.00000000E+00
  0.00000000E+00  0.00000000E+00  0.00000000E+00
  0.00000000E+00  0.00000000E+00  0.00000000E+00
  0.00000000E+00  0.00000000E+00  0.00000000E+00
  0.00000000E+00  0.00000000E+00  0.00000000E+00
  0.00000000E+00  0.00000000E+00  0.00000000E+00
  0.00000000E+00  0.00000000E+00  0.00000000E+00
  0.00000000E+00  0.00000000E+00  0.00000000E+00
  0.00000000E+00  0.00000000E+00  0.00000000E+00
  0.00000000E+00  0.00000000E+00  0.00000000E+00
  0.00000000E+00  0.00000000E+00  0.00000000E+00
  0.00000000E+00  0.00000000E+00  0.00000000E+00
  0.00000000E+00  0.00000000E+00  0.00000000E+00
  0.00000000E+00  0.00000000E+00  0.00000000E+00
  0.00000000E+00  0.00000000E+00  0.00000000E+00
  0.00000000E+00  0.00000000E+00  0.00000000E+00
  0.00000000E+00  0.00000000E+00  0.00000000E+00
  0.00000000E+00  0.00000000E+00  0.00000000E+00
  0.00000000E+00  0.00000000E+00  0.00000000E+00
  0.00000000E+00  0.00000000E+00  0.00000000E+00
  0.00000000E+00  0.00000000E+00  0.00000000E+00
  0.00000000E+00  0.00000000E+00  0.00000000E+00
  0.00000000E+00  0.00000000E+00  0.00000000E+00
  0.00000000E+00  0.00000000E+00  0.00000000E+00
  0.00000000E+00  0.00000000E+00  0.00000000E+00
  0.00000000E+00  0.00000000E+00  0.00000000E+00
  0.00000000E+00  0.00000000E+00  0.00000000E+00
  0.00000000E+00  0.00000000E+00  0.00000000E+00
  0.00000000E+00  0.00000000E+00  0.00000000E+00
  0.00000000E+00  0.00000000E+00  0.00000000E+00
  0.00000000E+00  0.00000000E+00  0.00000000E+00
  0.00000000E+00  0.00000000E+00  0.00000000E+00
  0.00000000E+00  0.00000000E+00  0.00000000E+00
  0.00000000E+00  0.00000000E+00  0.00000000E+00
  0.00000000E+00  0.00000000E+00  0.00000000E+00
  0.00000000E+00  0.00000000E+00  0.00000000E+00
  0.00000000E+00  0.00000000E+00  0.00000000E+00
  0.00000000E+00  0.00000000E+00  0.00000000E+00
  0.00000000E+00  0.00000000E+00  0.00000000E+00
  0.00000000E+00  0.00000000E+00  0.00000000E+00
  0.00000000E+00  0.00000000E+00  0.00000000E+00
  0.00000000E+00  0.00000000E+00  0.00000000E+00
  0.00000000E+00  0.00000000E+00  0.00000000E+00
  0.00000000E+00  0.00000000E+00  0.00000000E+00
  0.00000000E+00  0.00000000E+00  0.00000000E+00
  0.00000000E+00  0.00000000E+00  0.00000000E+00
  0.00000000E+00  0.00000000E+00  0.00000000E+00
  0.00000000E+00  0.00000000E+00  0.00000000E+00
  0.00000000E+00  0.00000000E+00  0.00000000E+00
  0.00000000E+00  0.00000000E+00  0.00000000E+00
  0.00000000E+00  0.00000000E+00  0.00000000E+00
  0.00000000E+00  0.00000000E+00  0.00000000E+00
  0.00000000E+00  0.00000000E+00  0.00000000E+00
  0.00000000E+00  0.00000000E+00  0.00000000E+00
  0.00000000E+00  0.00000000E+00  0.00000000E+00
  0.00000000E+00  0.00000000E+00  0.00000000E+00
  0.00000000E+00  0.00000000E+00  0.00000000E+00
  0.00000000E+00  0.00000000E+00  0.00000000E+00
  0.00000000E+00  0.00000000E+00  0.00000000E+00
  0.00000000E+00  0.00000000E+00  0.00000000E+00
  0.00000000E+00  0.00000000E+00  0.00000000E+00
  0.00000000E+00  0.00000000E+00  0.00000000E+00
  0.00000000E+00  0.00000000E+00  0.00000000E+00
  0.00000000E+00  0.00000000E+00  0.00000000E+00
  0.00000000E+00  0.00000000E+00  0.00000000E+00
  0.00000000E+00  0.00000000E+00  0.00000000E+00
  0.00000000E+00  0.00000000E+00  0.00000000E+00
  0.00000000E+00  0.00000000E+00  0.00000000E+00
  0.00000000E+00  0.00000000E+00  0.00000000E+00
  0.00000000E+00  0.00000000E+00  0.00000000E+00
  0.00000000E+00  0.00000000E+00  0.00000000E+00
  0.00000000E+00  0.00000000E+00  0.00000000E+00
  0.00000000E+00  0.00000000E+00  0.00000000E+00
  0.00000000E+00  0.00000000E+00  0.00000000E+00
  0.00000000E+00  0.00000000E+00  0.00000000E+00
  0.00000000E+00  0.00000000E+00  0.00000000E+00
  0.00000000E+00  0.00000000E+00  0.00000000E+00
  0.00000000E+00  0.00000000E+00  0.00000000E+00
  0.00000000E+00  0.00000000E+00  0.00000000E+00
  0.00000000E+00  0.00000000E+00  0.00000000E+00
  0.00000000E+00  0.00000000E+00  0.00000000E+00
  0.00000000E+00  0.00000000E+00  0.00000000E+00
  0.00000000E+00  0.00000000E+00  0.00000000E+00
  0.00000000E+00  0.00000000E+00  0.00000000E+00
  0.00000000E+00  0.00000000E+00  0.00000000E+00
  0.00000000E+00  0.00000000E+00  0.00000000E+00
  0.00000000E+00  0.00000000E+00  0.00000000E+00
