CONTCAR\(2)                             
   1.00000000000000     
    10.8359003066999993    0.0000000000000000    0.0000000000000000
    -5.4179501533999996    9.3841649384999997    0.0000000000000000
     0.0000000000000000    0.0000000000000000   23.8684997559000003
   Ga   Ni   S    O    H 
    18     9    36     2     1
Direct
  0.1108827894015854  0.2227086373598204  0.6403606541284786
  0.2222304625455865  0.1111559803904604  0.3580301302858385
  0.4450037898379209  0.2226411009492646  0.6403666800076888
  0.5555605841730031  0.1111184427067589  0.3580866644916866
  0.7774921897949812  0.2219855384847524  0.6407019841200536
  0.8888252029914941  0.1111192728498278  0.3581030688131583
  0.1116361742864162  0.5561557923120666  0.6406794891837655
  0.2223074853907861  0.4445988762712056  0.3581146203334554
  0.4450231122172008  0.5569853121503813  0.6405010547858937
  0.5555633905441847  0.4446151999178224  0.3581147627377722
  0.7776019742294666  0.5560439234722844  0.6406778607235357
  0.8889004117646895  0.4445557713395085  0.3581864391276056
  0.1108556972098976  0.8885055255976199  0.6404079574545025
  0.2223700776514402  0.7779297573918599  0.3581188205766873
  0.4449177187349360  0.8888228094998881  0.6404059641927475
  0.5555601605748289  0.7778840610323692  0.3581395938782865
  0.7767947952718457  0.8887417697827028  0.6404267922800160
  0.8888103878379945  0.7778960563468754  0.3581261608466692
 -0.0000106752358575  0.0003643924593456  0.4991520442375416
  0.3332849308961667  0.0003395771114293  0.4991819589012730
  0.6666533817863646  0.0004258284997342  0.4995353450846406
 -0.0000172820054846  0.3337549311788794  0.4996534267216514
  0.3333402832987973  0.3336861841510174  0.4991555316814347
  0.6668320260709144  0.3337976531872471  0.4995973957622147
 -0.0000775707730803  0.6670097119444628  0.4995940957048144
  0.3333248017559430  0.6669538290969406  0.4995543962538893
  0.6666536115496088  0.6671580246600324  0.4995304745338164
  0.2221783331436264  0.1114248478254357  0.4510246012330196
  0.1110723884285834  0.2224761625250588  0.5472469172253592
  0.2222075526267241  0.1112971725179489  0.6843535832442510
  0.1110981098692588  0.2223095362723550  0.3136435421795077
  0.5557918081739645  0.1115328770591140  0.4511123197082878
  0.4443808375576543  0.2225328897212787  0.5472273716131254
  0.5553254640045854  0.1111385298083152  0.6847329985176013
  0.4445069542212187  0.2223472906482145  0.3136346164288757
  0.8888681609086148  0.1115405723187263  0.4511281941363134
  0.7777972594756768  0.2225511827296811  0.5475005721391779
  0.8889181057800120  0.1111625076505959  0.6846844665983118
  0.7778421447371771  0.2223969724611418  0.3136581686441024
  0.2220728935317805  0.4448102211467985  0.4511358070436703
  0.1111918733363408  0.5559632821046526  0.5475206724151235
  0.2225407469356461  0.4447517855642580  0.6846913753569511
  0.1110699781815880  0.5556308886667368  0.3136768279643275
  0.5557913870367538  0.4449122613629667  0.4511187559069329
  0.4442024808054004  0.5553385934559024  0.5472567782560801
  0.5553507952121386  0.4447546360049863  0.6846853892926479
  0.4444961840191350  0.5557186189992300  0.3136322226332887
  0.8890016174186065  0.4447919337070060  0.4512708469177674
  0.7777074628447507  0.5559298471979335  0.5475207210740591
  0.8888865562347674  0.4446718080453730  0.6846883298816322
  0.7778308429647180  0.5556360393887458  0.3136724068159920
  0.2220933384741134  0.7779416658328883  0.4511236475785443
  0.1111535712311279  0.8892365372622004  0.5472514212856014
  0.2225089296108408  0.7782335078271716  0.6847351028620368
  0.1110617146583289  0.8888856107885538  0.3136479422517497
  0.5554762679115298  0.7781165011219250  0.4511787770888869
  0.4441666648705848  0.8894967668428956  0.5472086349519633
  0.5555239918674639  0.7782515218389741  0.6842304004390821
  0.4444981737697435  0.8889306804117731  0.3136085196746280
  0.8887782297370694  0.7779768897253163  0.4511224209950152
  0.7783918474594040  0.8896132469781384  0.5472132549049196
  0.8888054107695269  0.7782228921442821  0.6846815995660357
  0.7777005983539217  0.8889230121093477  0.3136269833362325
  0.5547890644212443  0.7714953534772291  0.8048860637842344
  0.5556935396944359  0.7697622413264593  0.8627880992575664
  0.5553586889203473  0.6808191639859283  0.8719359139480184
 
  0.00000000E+00  0.00000000E+00  0.00000000E+00
  0.00000000E+00  0.00000000E+00  0.00000000E+00
  0.00000000E+00  0.00000000E+00  0.00000000E+00
  0.00000000E+00  0.00000000E+00  0.00000000E+00
  0.00000000E+00  0.00000000E+00  0.00000000E+00
  0.00000000E+00  0.00000000E+00  0.00000000E+00
  0.00000000E+00  0.00000000E+00  0.00000000E+00
  0.00000000E+00  0.00000000E+00  0.00000000E+00
  0.00000000E+00  0.00000000E+00  0.00000000E+00
  0.00000000E+00  0.00000000E+00  0.00000000E+00
  0.00000000E+00  0.00000000E+00  0.00000000E+00
  0.00000000E+00  0.00000000E+00  0.00000000E+00
  0.00000000E+00  0.00000000E+00  0.00000000E+00
  0.00000000E+00  0.00000000E+00  0.00000000E+00
  0.00000000E+00  0.00000000E+00  0.00000000E+00
  0.00000000E+00  0.00000000E+00  0.00000000E+00
  0.00000000E+00  0.00000000E+00  0.00000000E+00
  0.00000000E+00  0.00000000E+00  0.00000000E+00
  0.00000000E+00  0.00000000E+00  0.00000000E+00
  0.00000000E+00  0.00000000E+00  0.00000000E+00
  0.00000000E+00  0.00000000E+00  0.00000000E+00
  0.00000000E+00  0.00000000E+00  0.00000000E+00
  0.00000000E+00  0.00000000E+00  0.00000000E+00
  0.00000000E+00  0.00000000E+00  0.00000000E+00
  0.00000000E+00  0.00000000E+00  0.00000000E+00
  0.00000000E+00  0.00000000E+00  0.00000000E+00
  0.00000000E+00  0.00000000E+00  0.00000000E+00
  0.00000000E+00  0.00000000E+00  0.00000000E+00
  0.00000000E+00  0.00000000E+00  0.00000000E+00
  0.00000000E+00  0.00000000E+00  0.00000000E+00
  0.00000000E+00  0.00000000E+00  0.00000000E+00
  0.00000000E+00  0.00000000E+00  0.00000000E+00
  0.00000000E+00  0.00000000E+00  0.00000000E+00
  0.00000000E+00  0.00000000E+00  0.00000000E+00
  0.00000000E+00  0.00000000E+00  0.00000000E+00
  0.00000000E+00  0.00000000E+00  0.00000000E+00
  0.00000000E+00  0.00000000E+00  0.00000000E+00
  0.00000000E+00  0.00000000E+00  0.00000000E+00
  0.00000000E+00  0.00000000E+00  0.00000000E+00
  0.00000000E+00  0.00000000E+00  0.00000000E+00
  0.00000000E+00  0.00000000E+00  0.00000000E+00
  0.00000000E+00  0.00000000E+00  0.00000000E+00
  0.00000000E+00  0.00000000E+00  0.00000000E+00
  0.00000000E+00  0.00000000E+00  0.00000000E+00
  0.00000000E+00  0.00000000E+00  0.00000000E+00
  0.00000000E+00  0.00000000E+00  0.00000000E+00
  0.00000000E+00  0.00000000E+00  0.00000000E+00
  0.00000000E+00  0.00000000E+00  0.00000000E+00
  0.00000000E+00  0.00000000E+00  0.00000000E+00
  0.00000000E+00  0.00000000E+00  0.00000000E+00
  0.00000000E+00  0.00000000E+00  0.00000000E+00
  0.00000000E+00  0.00000000E+00  0.00000000E+00
  0.00000000E+00  0.00000000E+00  0.00000000E+00
  0.00000000E+00  0.00000000E+00  0.00000000E+00
  0.00000000E+00  0.00000000E+00  0.00000000E+00
  0.00000000E+00  0.00000000E+00  0.00000000E+00
  0.00000000E+00  0.00000000E+00  0.00000000E+00
  0.00000000E+00  0.00000000E+00  0.00000000E+00
  0.00000000E+00  0.00000000E+00  0.00000000E+00
  0.00000000E+00  0.00000000E+00  0.00000000E+00
  0.00000000E+00  0.00000000E+00  0.00000000E+00
  0.00000000E+00  0.00000000E+00  0.00000000E+00
  0.00000000E+00  0.00000000E+00  0.00000000E+00
  0.00000000E+00  0.00000000E+00  0.00000000E+00
  0.00000000E+00  0.00000000E+00  0.00000000E+00
  0.00000000E+00  0.00000000E+00  0.00000000E+00
