 Ag4 Ru4 F28                            
   1.00000000000000     
     4.1272917770191686    0.0000000000000000    0.0000000000000000
     0.0000000000000000    8.0694958098680143    0.0000000000000000
     0.0000000000000000    0.0000000000000000   23.5561933936160024
   Ag   Ru   F 
     4     4    28
Direct
  0.2534064932732392  0.6159057681889095  0.4618186463314373
  0.7531638049777030  0.8680722978706825  0.5523115762265789
  0.7387353337726239  0.3511692776366360  0.5528593241548947
  0.2331915278282963  0.1173512686982363  0.4546776848574936
  0.2602128341983914  0.5989046120645796  0.6746074792676353
  0.7474554252661676  0.8888892957273811  0.3253959073288470
  0.7482290071736628  0.3902089889622502  0.3254380105750414
  0.2499498767817059  0.0987636142535919  0.6765668159519862
  0.7534607867672705  0.6193459126853398  0.4778520562381914
  0.2569965320303922  0.8630018411391660  0.5035430670907317
  0.2282927299894055  0.3639670881889714  0.5030515478083970
  0.7334295719801958  0.1220678708477152  0.4847216603680096
  0.5038123254998723  0.7536277165674861  0.7125055071845310
  0.9915626915298859  0.7340271051163469  0.2876069764175142
  0.5035744550128385  0.2351189370065043  0.2877456464563437
  0.0053056196565748  0.2541518562902993  0.7139402829368962
  0.4989351124407975  0.9426493205655504  0.6360496058196006
  0.9933877025149087  0.5453467874500006  0.3659185474686737
  0.5055515848078684  0.0462322668543891  0.3659229812369986
  0.0141350643390012  0.4411341283823518  0.6343988984786648
  0.0047657435144259  0.9422087350468971  0.7132519562061432
  0.5023743449888087  0.5453934356376919  0.2881775307023702
  0.9920613752428054  0.0445724688257982  0.2879289830277543
  0.5034123742224352  0.4441244963930444  0.7126390242915974
  0.0038375023263200  0.1003016079422423  0.6071909111084537
  0.4896110856150884  0.3885822224002951  0.3920749018760503
  0.0072950727227479  0.8882681915429700  0.3920751391187451
  0.5115374173125744  0.5986309321214023  0.6055584091049866
  0.5137296364712682  0.0977539815928097  0.7394450997496378
  0.0141385741731241  0.3905087495167407  0.2627712409046126
  0.4797913198826365  0.8892600624315534  0.2629681565279540
  0.9933694405478803  0.5993402895956876  0.7370740560211431
  0.5018181018854904  0.2537717227277199  0.6362558785087273
  0.9940434784244090  0.2344777832874669  0.3657099040236318
  0.5024973848591827  0.7352042404329495  0.3663683669199358
  0.0129286679700229  0.7544291260083256  0.6335782197097828
 
  0.00000000E+00  0.00000000E+00  0.00000000E+00
  0.00000000E+00  0.00000000E+00  0.00000000E+00
  0.00000000E+00  0.00000000E+00  0.00000000E+00
  0.00000000E+00  0.00000000E+00  0.00000000E+00
  0.00000000E+00  0.00000000E+00  0.00000000E+00
  0.00000000E+00  0.00000000E+00  0.00000000E+00
  0.00000000E+00  0.00000000E+00  0.00000000E+00
  0.00000000E+00  0.00000000E+00  0.00000000E+00
  0.00000000E+00  0.00000000E+00  0.00000000E+00
  0.00000000E+00  0.00000000E+00  0.00000000E+00
  0.00000000E+00  0.00000000E+00  0.00000000E+00
  0.00000000E+00  0.00000000E+00  0.00000000E+00
  0.00000000E+00  0.00000000E+00  0.00000000E+00
  0.00000000E+00  0.00000000E+00  0.00000000E+00
  0.00000000E+00  0.00000000E+00  0.00000000E+00
  0.00000000E+00  0.00000000E+00  0.00000000E+00
  0.00000000E+00  0.00000000E+00  0.00000000E+00
  0.00000000E+00  0.00000000E+00  0.00000000E+00
  0.00000000E+00  0.00000000E+00  0.00000000E+00
  0.00000000E+00  0.00000000E+00  0.00000000E+00
  0.00000000E+00  0.00000000E+00  0.00000000E+00
  0.00000000E+00  0.00000000E+00  0.00000000E+00
  0.00000000E+00  0.00000000E+00  0.00000000E+00
  0.00000000E+00  0.00000000E+00  0.00000000E+00
  0.00000000E+00  0.00000000E+00  0.00000000E+00
  0.00000000E+00  0.00000000E+00  0.00000000E+00
  0.00000000E+00  0.00000000E+00  0.00000000E+00
  0.00000000E+00  0.00000000E+00  0.00000000E+00
  0.00000000E+00  0.00000000E+00  0.00000000E+00
  0.00000000E+00  0.00000000E+00  0.00000000E+00
  0.00000000E+00  0.00000000E+00  0.00000000E+00
  0.00000000E+00  0.00000000E+00  0.00000000E+00
  0.00000000E+00  0.00000000E+00  0.00000000E+00
  0.00000000E+00  0.00000000E+00  0.00000000E+00
  0.00000000E+00  0.00000000E+00  0.00000000E+00
  0.00000000E+00  0.00000000E+00  0.00000000E+00
