G   48   25    1    0.005     # Parameters to Generate KPOINTS (Don't Edit This Line)
     601
Reciprocal lattice
    0.000000000000    0.000000000000    0.000000000000       1
    0.020833333333    0.000000000000    0.000000000000       2
    0.041666666667    0.000000000000    0.000000000000       2
    0.062500000000    0.000000000000    0.000000000000       2
    0.083333333333    0.000000000000    0.000000000000       2
    0.104166666667    0.000000000000    0.000000000000       2
    0.125000000000    0.000000000000    0.000000000000       2
    0.145833333333    0.000000000000    0.000000000000       2
    0.166666666667    0.000000000000    0.000000000000       2
    0.187500000000    0.000000000000    0.000000000000       2
    0.208333333333    0.000000000000    0.000000000000       2
    0.229166666667    0.000000000000    0.000000000000       2
    0.250000000000    0.000000000000    0.000000000000       2
    0.270833333333    0.000000000000    0.000000000000       2
    0.291666666667    0.000000000000    0.000000000000       2
    0.312500000000    0.000000000000    0.000000000000       2
    0.333333333333    0.000000000000    0.000000000000       2
    0.354166666667    0.000000000000    0.000000000000       2
    0.375000000000    0.000000000000    0.000000000000       2
    0.395833333333    0.000000000000    0.000000000000       2
    0.416666666667    0.000000000000    0.000000000000       2
    0.437500000000    0.000000000000    0.000000000000       2
    0.458333333333    0.000000000000    0.000000000000       2
    0.479166666667    0.000000000000    0.000000000000       2
    0.500000000000    0.000000000000    0.000000000000       1
    0.000000000000    0.040000000000    0.000000000000       2
    0.020833333333    0.040000000000    0.000000000000       2
    0.041666666667    0.040000000000    0.000000000000       2
    0.062500000000    0.040000000000    0.000000000000       2
    0.083333333333    0.040000000000    0.000000000000       2
    0.104166666667    0.040000000000    0.000000000000       2
    0.125000000000    0.040000000000    0.000000000000       2
    0.145833333333    0.040000000000    0.000000000000       2
    0.166666666667    0.040000000000    0.000000000000       2
    0.187500000000    0.040000000000    0.000000000000       2
    0.208333333333    0.040000000000    0.000000000000       2
    0.229166666667    0.040000000000    0.000000000000       2
    0.250000000000    0.040000000000    0.000000000000       2
    0.270833333333    0.040000000000    0.000000000000       2
    0.291666666667    0.040000000000    0.000000000000       2
    0.312500000000    0.040000000000    0.000000000000       2
    0.333333333333    0.040000000000    0.000000000000       2
    0.354166666667    0.040000000000    0.000000000000       2
    0.375000000000    0.040000000000    0.000000000000       2
    0.395833333333    0.040000000000    0.000000000000       2
    0.416666666667    0.040000000000    0.000000000000       2
    0.437500000000    0.040000000000    0.000000000000       2
    0.458333333333    0.040000000000    0.000000000000       2
    0.479166666667    0.040000000000    0.000000000000       2
    0.500000000000    0.040000000000    0.000000000000       2
   -0.479166666667    0.040000000000    0.000000000000       2
   -0.458333333333    0.040000000000    0.000000000000       2
   -0.437500000000    0.040000000000    0.000000000000       2
   -0.416666666667    0.040000000000    0.000000000000       2
   -0.395833333333    0.040000000000    0.000000000000       2
   -0.375000000000    0.040000000000    0.000000000000       2
   -0.354166666667    0.040000000000    0.000000000000       2
   -0.333333333333    0.040000000000    0.000000000000       2
   -0.312500000000    0.040000000000    0.000000000000       2
   -0.291666666667    0.040000000000    0.000000000000       2
   -0.270833333333    0.040000000000    0.000000000000       2
   -0.250000000000    0.040000000000    0.000000000000       2
   -0.229166666667    0.040000000000    0.000000000000       2
   -0.208333333333    0.040000000000    0.000000000000       2
   -0.187500000000    0.040000000000    0.000000000000       2
   -0.166666666667    0.040000000000    0.000000000000       2
   -0.145833333333    0.040000000000    0.000000000000       2
   -0.125000000000    0.040000000000    0.000000000000       2
   -0.104166666667    0.040000000000    0.000000000000       2
   -0.083333333333    0.040000000000    0.000000000000       2
   -0.062500000000    0.040000000000    0.000000000000       2
   -0.041666666667    0.040000000000    0.000000000000       2
   -0.020833333333    0.040000000000    0.000000000000       2
    0.000000000000    0.080000000000    0.000000000000       2
    0.020833333333    0.080000000000    0.000000000000       2
    0.041666666667    0.080000000000    0.000000000000       2
    0.062500000000    0.080000000000    0.000000000000       2
    0.083333333333    0.080000000000    0.000000000000       2
    0.104166666667    0.080000000000    0.000000000000       2
    0.125000000000    0.080000000000    0.000000000000       2
    0.145833333333    0.080000000000    0.000000000000       2
    0.166666666667    0.080000000000    0.000000000000       2
    0.187500000000    0.080000000000    0.000000000000       2
    0.208333333333    0.080000000000    0.000000000000       2
    0.229166666667    0.080000000000    0.000000000000       2
    0.250000000000    0.080000000000    0.000000000000       2
    0.270833333333    0.080000000000    0.000000000000       2
    0.291666666667    0.080000000000    0.000000000000       2
    0.312500000000    0.080000000000    0.000000000000       2
    0.333333333333    0.080000000000    0.000000000000       2
    0.354166666667    0.080000000000    0.000000000000       2
    0.375000000000    0.080000000000    0.000000000000       2
    0.395833333333    0.080000000000    0.000000000000       2
    0.416666666667    0.080000000000    0.000000000000       2
    0.437500000000    0.080000000000    0.000000000000       2
    0.458333333333    0.080000000000    0.000000000000       2
    0.479166666667    0.080000000000    0.000000000000       2
    0.500000000000    0.080000000000    0.000000000000       2
   -0.479166666667    0.080000000000    0.000000000000       2
   -0.458333333333    0.080000000000    0.000000000000       2
   -0.437500000000    0.080000000000    0.000000000000       2
   -0.416666666667    0.080000000000    0.000000000000       2
   -0.395833333333    0.080000000000    0.000000000000       2
   -0.375000000000    0.080000000000    0.000000000000       2
   -0.354166666667    0.080000000000    0.000000000000       2
   -0.333333333333    0.080000000000    0.000000000000       2
   -0.312500000000    0.080000000000    0.000000000000       2
   -0.291666666667    0.080000000000    0.000000000000       2
   -0.270833333333    0.080000000000    0.000000000000       2
   -0.250000000000    0.080000000000    0.000000000000       2
   -0.229166666667    0.080000000000    0.000000000000       2
   -0.208333333333    0.080000000000    0.000000000000       2
   -0.187500000000    0.080000000000    0.000000000000       2
   -0.166666666667    0.080000000000    0.000000000000       2
   -0.145833333333    0.080000000000    0.000000000000       2
   -0.125000000000    0.080000000000    0.000000000000       2
   -0.104166666667    0.080000000000    0.000000000000       2
   -0.083333333333    0.080000000000    0.000000000000       2
   -0.062500000000    0.080000000000    0.000000000000       2
   -0.041666666667    0.080000000000    0.000000000000       2
   -0.020833333333    0.080000000000    0.000000000000       2
    0.000000000000    0.120000000000    0.000000000000       2
    0.020833333333    0.120000000000    0.000000000000       2
    0.041666666667    0.120000000000    0.000000000000       2
    0.062500000000    0.120000000000    0.000000000000       2
    0.083333333333    0.120000000000    0.000000000000       2
    0.104166666667    0.120000000000    0.000000000000       2
    0.125000000000    0.120000000000    0.000000000000       2
    0.145833333333    0.120000000000    0.000000000000       2
    0.166666666667    0.120000000000    0.000000000000       2
    0.187500000000    0.120000000000    0.000000000000       2
    0.208333333333    0.120000000000    0.000000000000       2
    0.229166666667    0.120000000000    0.000000000000       2
    0.250000000000    0.120000000000    0.000000000000       2
    0.270833333333    0.120000000000    0.000000000000       2
    0.291666666667    0.120000000000    0.000000000000       2
    0.312500000000    0.120000000000    0.000000000000       2
    0.333333333333    0.120000000000    0.000000000000       2
    0.354166666667    0.120000000000    0.000000000000       2
    0.375000000000    0.120000000000    0.000000000000       2
    0.395833333333    0.120000000000    0.000000000000       2
    0.416666666667    0.120000000000    0.000000000000       2
    0.437500000000    0.120000000000    0.000000000000       2
    0.458333333333    0.120000000000    0.000000000000       2
    0.479166666667    0.120000000000    0.000000000000       2
    0.500000000000    0.120000000000    0.000000000000       2
   -0.479166666667    0.120000000000    0.000000000000       2
   -0.458333333333    0.120000000000    0.000000000000       2
   -0.437500000000    0.120000000000    0.000000000000       2
   -0.416666666667    0.120000000000    0.000000000000       2
   -0.395833333333    0.120000000000    0.000000000000       2
   -0.375000000000    0.120000000000    0.000000000000       2
   -0.354166666667    0.120000000000    0.000000000000       2
   -0.333333333333    0.120000000000    0.000000000000       2
   -0.312500000000    0.120000000000    0.000000000000       2
   -0.291666666667    0.120000000000    0.000000000000       2
   -0.270833333333    0.120000000000    0.000000000000       2
   -0.250000000000    0.120000000000    0.000000000000       2
   -0.229166666667    0.120000000000    0.000000000000       2
   -0.208333333333    0.120000000000    0.000000000000       2
   -0.187500000000    0.120000000000    0.000000000000       2
   -0.166666666667    0.120000000000    0.000000000000       2
   -0.145833333333    0.120000000000    0.000000000000       2
   -0.125000000000    0.120000000000    0.000000000000       2
   -0.104166666667    0.120000000000    0.000000000000       2
   -0.083333333333    0.120000000000    0.000000000000       2
   -0.062500000000    0.120000000000    0.000000000000       2
   -0.041666666667    0.120000000000    0.000000000000       2
   -0.020833333333    0.120000000000    0.000000000000       2
    0.000000000000    0.160000000000    0.000000000000       2
    0.020833333333    0.160000000000    0.000000000000       2
    0.041666666667    0.160000000000    0.000000000000       2
    0.062500000000    0.160000000000    0.000000000000       2
    0.083333333333    0.160000000000    0.000000000000       2
    0.104166666667    0.160000000000    0.000000000000       2
    0.125000000000    0.160000000000    0.000000000000       2
    0.145833333333    0.160000000000    0.000000000000       2
    0.166666666667    0.160000000000    0.000000000000       2
    0.187500000000    0.160000000000    0.000000000000       2
    0.208333333333    0.160000000000    0.000000000000       2
    0.229166666667    0.160000000000    0.000000000000       2
    0.250000000000    0.160000000000    0.000000000000       2
    0.270833333333    0.160000000000    0.000000000000       2
    0.291666666667    0.160000000000    0.000000000000       2
    0.312500000000    0.160000000000    0.000000000000       2
    0.333333333333    0.160000000000    0.000000000000       2
    0.354166666667    0.160000000000    0.000000000000       2
    0.375000000000    0.160000000000    0.000000000000       2
    0.395833333333    0.160000000000    0.000000000000       2
    0.416666666667    0.160000000000    0.000000000000       2
    0.437500000000    0.160000000000    0.000000000000       2
    0.458333333333    0.160000000000    0.000000000000       2
    0.479166666667    0.160000000000    0.000000000000       2
    0.500000000000    0.160000000000    0.000000000000       2
   -0.479166666667    0.160000000000    0.000000000000       2
   -0.458333333333    0.160000000000    0.000000000000       2
   -0.437500000000    0.160000000000    0.000000000000       2
   -0.416666666667    0.160000000000    0.000000000000       2
   -0.395833333333    0.160000000000    0.000000000000       2
   -0.375000000000    0.160000000000    0.000000000000       2
   -0.354166666667    0.160000000000    0.000000000000       2
   -0.333333333333    0.160000000000    0.000000000000       2
   -0.312500000000    0.160000000000    0.000000000000       2
   -0.291666666667    0.160000000000    0.000000000000       2
   -0.270833333333    0.160000000000    0.000000000000       2
   -0.250000000000    0.160000000000    0.000000000000       2
   -0.229166666667    0.160000000000    0.000000000000       2
   -0.208333333333    0.160000000000    0.000000000000       2
   -0.187500000000    0.160000000000    0.000000000000       2
   -0.166666666667    0.160000000000    0.000000000000       2
   -0.145833333333    0.160000000000    0.000000000000       2
   -0.125000000000    0.160000000000    0.000000000000       2
   -0.104166666667    0.160000000000    0.000000000000       2
   -0.083333333333    0.160000000000    0.000000000000       2
   -0.062500000000    0.160000000000    0.000000000000       2
   -0.041666666667    0.160000000000    0.000000000000       2
   -0.020833333333    0.160000000000    0.000000000000       2
    0.000000000000    0.200000000000    0.000000000000       2
    0.020833333333    0.200000000000    0.000000000000       2
    0.041666666667    0.200000000000    0.000000000000       2
    0.062500000000    0.200000000000    0.000000000000       2
    0.083333333333    0.200000000000    0.000000000000       2
    0.104166666667    0.200000000000    0.000000000000       2
    0.125000000000    0.200000000000    0.000000000000       2
    0.145833333333    0.200000000000    0.000000000000       2
    0.166666666667    0.200000000000    0.000000000000       2
    0.187500000000    0.200000000000    0.000000000000       2
    0.208333333333    0.200000000000    0.000000000000       2
    0.229166666667    0.200000000000    0.000000000000       2
    0.250000000000    0.200000000000    0.000000000000       2
    0.270833333333    0.200000000000    0.000000000000       2
    0.291666666667    0.200000000000    0.000000000000       2
    0.312500000000    0.200000000000    0.000000000000       2
    0.333333333333    0.200000000000    0.000000000000       2
    0.354166666667    0.200000000000    0.000000000000       2
    0.375000000000    0.200000000000    0.000000000000       2
    0.395833333333    0.200000000000    0.000000000000       2
    0.416666666667    0.200000000000    0.000000000000       2
    0.437500000000    0.200000000000    0.000000000000       2
    0.458333333333    0.200000000000    0.000000000000       2
    0.479166666667    0.200000000000    0.000000000000       2
    0.500000000000    0.200000000000    0.000000000000       2
   -0.479166666667    0.200000000000    0.000000000000       2
   -0.458333333333    0.200000000000    0.000000000000       2
   -0.437500000000    0.200000000000    0.000000000000       2
   -0.416666666667    0.200000000000    0.000000000000       2
   -0.395833333333    0.200000000000    0.000000000000       2
   -0.375000000000    0.200000000000    0.000000000000       2
   -0.354166666667    0.200000000000    0.000000000000       2
   -0.333333333333    0.200000000000    0.000000000000       2
   -0.312500000000    0.200000000000    0.000000000000       2
   -0.291666666667    0.200000000000    0.000000000000       2
   -0.270833333333    0.200000000000    0.000000000000       2
   -0.250000000000    0.200000000000    0.000000000000       2
   -0.229166666667    0.200000000000    0.000000000000       2
   -0.208333333333    0.200000000000    0.000000000000       2
   -0.187500000000    0.200000000000    0.000000000000       2
   -0.166666666667    0.200000000000    0.000000000000       2
   -0.145833333333    0.200000000000    0.000000000000       2
   -0.125000000000    0.200000000000    0.000000000000       2
   -0.104166666667    0.200000000000    0.000000000000       2
   -0.083333333333    0.200000000000    0.000000000000       2
   -0.062500000000    0.200000000000    0.000000000000       2
   -0.041666666667    0.200000000000    0.000000000000       2
   -0.020833333333    0.200000000000    0.000000000000       2
    0.000000000000    0.240000000000    0.000000000000       2
    0.020833333333    0.240000000000    0.000000000000       2
    0.041666666667    0.240000000000    0.000000000000       2
    0.062500000000    0.240000000000    0.000000000000       2
    0.083333333333    0.240000000000    0.000000000000       2
    0.104166666667    0.240000000000    0.000000000000       2
    0.125000000000    0.240000000000    0.000000000000       2
    0.145833333333    0.240000000000    0.000000000000       2
    0.166666666667    0.240000000000    0.000000000000       2
    0.187500000000    0.240000000000    0.000000000000       2
    0.208333333333    0.240000000000    0.000000000000       2
    0.229166666667    0.240000000000    0.000000000000       2
    0.250000000000    0.240000000000    0.000000000000       2
    0.270833333333    0.240000000000    0.000000000000       2
    0.291666666667    0.240000000000    0.000000000000       2
    0.312500000000    0.240000000000    0.000000000000       2
    0.333333333333    0.240000000000    0.000000000000       2
    0.354166666667    0.240000000000    0.000000000000       2
    0.375000000000    0.240000000000    0.000000000000       2
    0.395833333333    0.240000000000    0.000000000000       2
    0.416666666667    0.240000000000    0.000000000000       2
    0.437500000000    0.240000000000    0.000000000000       2
    0.458333333333    0.240000000000    0.000000000000       2
    0.479166666667    0.240000000000    0.000000000000       2
    0.500000000000    0.240000000000    0.000000000000       2
   -0.479166666667    0.240000000000    0.000000000000       2
   -0.458333333333    0.240000000000    0.000000000000       2
   -0.437500000000    0.240000000000    0.000000000000       2
   -0.416666666667    0.240000000000    0.000000000000       2
   -0.395833333333    0.240000000000    0.000000000000       2
   -0.375000000000    0.240000000000    0.000000000000       2
   -0.354166666667    0.240000000000    0.000000000000       2
   -0.333333333333    0.240000000000    0.000000000000       2
   -0.312500000000    0.240000000000    0.000000000000       2
   -0.291666666667    0.240000000000    0.000000000000       2
   -0.270833333333    0.240000000000    0.000000000000       2
   -0.250000000000    0.240000000000    0.000000000000       2
   -0.229166666667    0.240000000000    0.000000000000       2
   -0.208333333333    0.240000000000    0.000000000000       2
   -0.187500000000    0.240000000000    0.000000000000       2
   -0.166666666667    0.240000000000    0.000000000000       2
   -0.145833333333    0.240000000000    0.000000000000       2
   -0.125000000000    0.240000000000    0.000000000000       2
   -0.104166666667    0.240000000000    0.000000000000       2
   -0.083333333333    0.240000000000    0.000000000000       2
   -0.062500000000    0.240000000000    0.000000000000       2
   -0.041666666667    0.240000000000    0.000000000000       2
   -0.020833333333    0.240000000000    0.000000000000       2
    0.000000000000    0.280000000000    0.000000000000       2
    0.020833333333    0.280000000000    0.000000000000       2
    0.041666666667    0.280000000000    0.000000000000       2
    0.062500000000    0.280000000000    0.000000000000       2
    0.083333333333    0.280000000000    0.000000000000       2
    0.104166666667    0.280000000000    0.000000000000       2
    0.125000000000    0.280000000000    0.000000000000       2
    0.145833333333    0.280000000000    0.000000000000       2
    0.166666666667    0.280000000000    0.000000000000       2
    0.187500000000    0.280000000000    0.000000000000       2
    0.208333333333    0.280000000000    0.000000000000       2
    0.229166666667    0.280000000000    0.000000000000       2
    0.250000000000    0.280000000000    0.000000000000       2
    0.270833333333    0.280000000000    0.000000000000       2
    0.291666666667    0.280000000000    0.000000000000       2
    0.312500000000    0.280000000000    0.000000000000       2
    0.333333333333    0.280000000000    0.000000000000       2
    0.354166666667    0.280000000000    0.000000000000       2
    0.375000000000    0.280000000000    0.000000000000       2
    0.395833333333    0.280000000000    0.000000000000       2
    0.416666666667    0.280000000000    0.000000000000       2
    0.437500000000    0.280000000000    0.000000000000       2
    0.458333333333    0.280000000000    0.000000000000       2
    0.479166666667    0.280000000000    0.000000000000       2
    0.500000000000    0.280000000000    0.000000000000       2
   -0.479166666667    0.280000000000    0.000000000000       2
   -0.458333333333    0.280000000000    0.000000000000       2
   -0.437500000000    0.280000000000    0.000000000000       2
   -0.416666666667    0.280000000000    0.000000000000       2
   -0.395833333333    0.280000000000    0.000000000000       2
   -0.375000000000    0.280000000000    0.000000000000       2
   -0.354166666667    0.280000000000    0.000000000000       2
   -0.333333333333    0.280000000000    0.000000000000       2
   -0.312500000000    0.280000000000    0.000000000000       2
   -0.291666666667    0.280000000000    0.000000000000       2
   -0.270833333333    0.280000000000    0.000000000000       2
   -0.250000000000    0.280000000000    0.000000000000       2
   -0.229166666667    0.280000000000    0.000000000000       2
   -0.208333333333    0.280000000000    0.000000000000       2
   -0.187500000000    0.280000000000    0.000000000000       2
   -0.166666666667    0.280000000000    0.000000000000       2
   -0.145833333333    0.280000000000    0.000000000000       2
   -0.125000000000    0.280000000000    0.000000000000       2
   -0.104166666667    0.280000000000    0.000000000000       2
   -0.083333333333    0.280000000000    0.000000000000       2
   -0.062500000000    0.280000000000    0.000000000000       2
   -0.041666666667    0.280000000000    0.000000000000       2
   -0.020833333333    0.280000000000    0.000000000000       2
    0.000000000000    0.320000000000    0.000000000000       2
    0.020833333333    0.320000000000    0.000000000000       2
    0.041666666667    0.320000000000    0.000000000000       2
    0.062500000000    0.320000000000    0.000000000000       2
    0.083333333333    0.320000000000    0.000000000000       2
    0.104166666667    0.320000000000    0.000000000000       2
    0.125000000000    0.320000000000    0.000000000000       2
    0.145833333333    0.320000000000    0.000000000000       2
    0.166666666667    0.320000000000    0.000000000000       2
    0.187500000000    0.320000000000    0.000000000000       2
    0.208333333333    0.320000000000    0.000000000000       2
    0.229166666667    0.320000000000    0.000000000000       2
    0.250000000000    0.320000000000    0.000000000000       2
    0.270833333333    0.320000000000    0.000000000000       2
    0.291666666667    0.320000000000    0.000000000000       2
    0.312500000000    0.320000000000    0.000000000000       2
    0.333333333333    0.320000000000    0.000000000000       2
    0.354166666667    0.320000000000    0.000000000000       2
    0.375000000000    0.320000000000    0.000000000000       2
    0.395833333333    0.320000000000    0.000000000000       2
    0.416666666667    0.320000000000    0.000000000000       2
    0.437500000000    0.320000000000    0.000000000000       2
    0.458333333333    0.320000000000    0.000000000000       2
    0.479166666667    0.320000000000    0.000000000000       2
    0.500000000000    0.320000000000    0.000000000000       2
   -0.479166666667    0.320000000000    0.000000000000       2
   -0.458333333333    0.320000000000    0.000000000000       2
   -0.437500000000    0.320000000000    0.000000000000       2
   -0.416666666667    0.320000000000    0.000000000000       2
   -0.395833333333    0.320000000000    0.000000000000       2
   -0.375000000000    0.320000000000    0.000000000000       2
   -0.354166666667    0.320000000000    0.000000000000       2
   -0.333333333333    0.320000000000    0.000000000000       2
   -0.312500000000    0.320000000000    0.000000000000       2
   -0.291666666667    0.320000000000    0.000000000000       2
   -0.270833333333    0.320000000000    0.000000000000       2
   -0.250000000000    0.320000000000    0.000000000000       2
   -0.229166666667    0.320000000000    0.000000000000       2
   -0.208333333333    0.320000000000    0.000000000000       2
   -0.187500000000    0.320000000000    0.000000000000       2
   -0.166666666667    0.320000000000    0.000000000000       2
   -0.145833333333    0.320000000000    0.000000000000       2
   -0.125000000000    0.320000000000    0.000000000000       2
   -0.104166666667    0.320000000000    0.000000000000       2
   -0.083333333333    0.320000000000    0.000000000000       2
   -0.062500000000    0.320000000000    0.000000000000       2
   -0.041666666667    0.320000000000    0.000000000000       2
   -0.020833333333    0.320000000000    0.000000000000       2
    0.000000000000    0.360000000000    0.000000000000       2
    0.020833333333    0.360000000000    0.000000000000       2
    0.041666666667    0.360000000000    0.000000000000       2
    0.062500000000    0.360000000000    0.000000000000       2
    0.083333333333    0.360000000000    0.000000000000       2
    0.104166666667    0.360000000000    0.000000000000       2
    0.125000000000    0.360000000000    0.000000000000       2
    0.145833333333    0.360000000000    0.000000000000       2
    0.166666666667    0.360000000000    0.000000000000       2
    0.187500000000    0.360000000000    0.000000000000       2
    0.208333333333    0.360000000000    0.000000000000       2
    0.229166666667    0.360000000000    0.000000000000       2
    0.250000000000    0.360000000000    0.000000000000       2
    0.270833333333    0.360000000000    0.000000000000       2
    0.291666666667    0.360000000000    0.000000000000       2
    0.312500000000    0.360000000000    0.000000000000       2
    0.333333333333    0.360000000000    0.000000000000       2
    0.354166666667    0.360000000000    0.000000000000       2
    0.375000000000    0.360000000000    0.000000000000       2
    0.395833333333    0.360000000000    0.000000000000       2
    0.416666666667    0.360000000000    0.000000000000       2
    0.437500000000    0.360000000000    0.000000000000       2
    0.458333333333    0.360000000000    0.000000000000       2
    0.479166666667    0.360000000000    0.000000000000       2
    0.500000000000    0.360000000000    0.000000000000       2
   -0.479166666667    0.360000000000    0.000000000000       2
   -0.458333333333    0.360000000000    0.000000000000       2
   -0.437500000000    0.360000000000    0.000000000000       2
   -0.416666666667    0.360000000000    0.000000000000       2
   -0.395833333333    0.360000000000    0.000000000000       2
   -0.375000000000    0.360000000000    0.000000000000       2
   -0.354166666667    0.360000000000    0.000000000000       2
   -0.333333333333    0.360000000000    0.000000000000       2
   -0.312500000000    0.360000000000    0.000000000000       2
   -0.291666666667    0.360000000000    0.000000000000       2
   -0.270833333333    0.360000000000    0.000000000000       2
   -0.250000000000    0.360000000000    0.000000000000       2
   -0.229166666667    0.360000000000    0.000000000000       2
   -0.208333333333    0.360000000000    0.000000000000       2
   -0.187500000000    0.360000000000    0.000000000000       2
   -0.166666666667    0.360000000000    0.000000000000       2
   -0.145833333333    0.360000000000    0.000000000000       2
   -0.125000000000    0.360000000000    0.000000000000       2
   -0.104166666667    0.360000000000    0.000000000000       2
   -0.083333333333    0.360000000000    0.000000000000       2
   -0.062500000000    0.360000000000    0.000000000000       2
   -0.041666666667    0.360000000000    0.000000000000       2
   -0.020833333333    0.360000000000    0.000000000000       2
    0.000000000000    0.400000000000    0.000000000000       2
    0.020833333333    0.400000000000    0.000000000000       2
    0.041666666667    0.400000000000    0.000000000000       2
    0.062500000000    0.400000000000    0.000000000000       2
    0.083333333333    0.400000000000    0.000000000000       2
    0.104166666667    0.400000000000    0.000000000000       2
    0.125000000000    0.400000000000    0.000000000000       2
    0.145833333333    0.400000000000    0.000000000000       2
    0.166666666667    0.400000000000    0.000000000000       2
    0.187500000000    0.400000000000    0.000000000000       2
    0.208333333333    0.400000000000    0.000000000000       2
    0.229166666667    0.400000000000    0.000000000000       2
    0.250000000000    0.400000000000    0.000000000000       2
    0.270833333333    0.400000000000    0.000000000000       2
    0.291666666667    0.400000000000    0.000000000000       2
    0.312500000000    0.400000000000    0.000000000000       2
    0.333333333333    0.400000000000    0.000000000000       2