CONTCAR\(5)                             
   1.00000000000000     
    11.4651002884000004    0.0000000000000000    0.0000000000000000
     0.0000000000000000   11.4651002884000004    0.0000000000000000
     0.0000000000000000    0.0000000000000000   29.1504001616999986
   Sr   Mn   Cl   O 
    36    27    18    72
Direct
  0.0000000000000000  0.0000000000000000  0.2996626959912660
  0.0000000000000000  0.0000000000000000  0.7003373040087340
  0.0000000000000000  0.0000000000000000  0.4354982287772131
  0.0000000000000000  0.0000000000000000  0.5645018042227861
  0.3333300059999971  0.0000000000000000  0.2996626959912660
  0.3333300059999971  0.0000000000000000  0.7003373040087340
  0.3333300059999971  0.0000000000000000  0.4354982287772131
  0.3333300059999971  0.0000000000000000  0.5645018042227861
  0.6666700350000028  0.0000000000000000  0.2996626959912660
  0.6666700350000028  0.0000000000000000  0.7003373040087340
  0.6666700350000028  0.0000000000000000  0.4354982287772131
  0.6666700350000028  0.0000000000000000  0.5645018042227861
  0.0000000000000000  0.3333300059999971  0.2996626959912660
  0.0000000000000000  0.3333300059999971  0.7003373040087340
  0.0000000000000000  0.3333300059999971  0.4354982287772131
  0.0000000000000000  0.3333300059999971  0.5645018042227861
  0.3333300059999971  0.3333300059999971  0.2996626959912660
  0.3333300059999971  0.3333300059999971  0.7003373040087340
  0.3333300059999971  0.3333300059999971  0.4354982287772131
  0.3333300059999971  0.3333300059999971  0.5645018042227861
  0.6666700350000028  0.3333300059999971  0.2996626959912660
  0.6666700350000028  0.3333300059999971  0.7003373040087340
  0.6666700350000028  0.3333300059999971  0.4354982287772131
  0.6666700350000028  0.3333300059999971  0.5645018042227861
  0.0000000000000000  0.6666700350000028  0.2996626959912660
  0.0000000000000000  0.6666700350000028  0.7003373040087340
  0.0000000000000000  0.6666700350000028  0.4354982287772131
  0.0000000000000000  0.6666700350000028  0.5645018042227861
  0.3333300059999971  0.6666700350000028  0.2996626959912660
  0.3333300059999971  0.6666700350000028  0.7003373040087340
  0.3333300059999971  0.6666700350000028  0.4354982287772131
  0.3333300059999971  0.6666700350000028  0.5645018042227861
  0.6666700350000028  0.6666700350000028  0.2996626959912660
  0.6666700350000028  0.6666700350000028  0.7003373040087340
  0.6666700350000028  0.6666700350000028  0.4354982287772131
  0.6666700350000028  0.6666700350000028  0.5645018042227861
  0.1666699940000029  0.1666699940000029  0.5000100110000005
  0.1666699940000029  0.1666699940000029  0.6331756666160189
  0.1666699940000029  0.1666699940000029  0.3668143223839806
  0.5000000000000000  0.1666699940000029  0.5000100110000005
  0.5000000000000000  0.1666699940000029  0.6331756666160189
  0.5000000000000000  0.1666699940000029  0.3668143223839806
  0.8333299649999972  0.1666699940000029  0.5000100110000005
  0.8333299649999972  0.1666699940000029  0.6331756666160189
  0.8333299649999972  0.1666699940000029  0.3668143223839806
  0.1666699940000029  0.5000000000000000  0.5000100110000005
  0.1666699940000029  0.5000000000000000  0.6331756666160189
  0.1666699940000029  0.5000000000000000  0.3668143223839806
  0.5000000000000000  0.5000000000000000  0.5000100110000005
  0.5000000000000000  0.5000000000000000  0.6331756666160189
  0.5000000000000000  0.5000000000000000  0.3668143223839806
  0.8333299649999972  0.5000000000000000  0.5000100110000005
  0.8333299649999972  0.5000000000000000  0.6331756666160189
  0.8333299649999972  0.5000000000000000  0.3668143223839806
  0.1666699940000029  0.8333299649999972  0.5000100110000005
  0.1666699940000029  0.8333299649999972  0.6331756666160189
  0.1666699940000029  0.8333299649999972  0.3668143223839806
  0.5000000000000000  0.8333299649999972  0.5000100110000005
  0.5000000000000000  0.8333299649999972  0.6331756666160189
  0.5000000000000000  0.8333299649999972  0.3668143223839806
  0.8333299649999972  0.8333299649999972  0.5000100110000005
  0.8333299649999972  0.8333299649999972  0.6331756666160189
  0.8333299649999972  0.8333299649999972  0.3668143223839806
  0.1666699940000029  0.1666699940000029  0.2552289948781521
  0.1666699940000029  0.1666699940000029  0.7447709561218474
  0.5000000000000000  0.1666699940000029  0.2552289948781521
  0.5000000000000000  0.1666699940000029  0.7447709561218474
  0.8333299649999972  0.1666699940000029  0.2552289948781521
  0.8333299649999972  0.1666699940000029  0.7447709561218474
  0.1666699940000029  0.5000000000000000  0.2552289948781521
  0.1666699940000029  0.5000000000000000  0.7447709561218474
  0.5000000000000000  0.5000000000000000  0.2552289948781521
  0.5000000000000000  0.5000000000000000  0.7447709561218474
  0.8333299649999972  0.5000000000000000  0.2552289948781521
  0.8333299649999972  0.5000000000000000  0.7447709561218474
  0.1666699940000029  0.8333299649999972  0.2552289948781521
  0.1666699940000029  0.8333299649999972  0.7447709561218474
  0.5000000000000000  0.8333299649999972  0.2552289948781521
  0.5000000000000000  0.8333299649999972  0.7447709561218474
  0.8333299649999972  0.8333299649999972  0.2552289948781521
  0.8333299649999972  0.8333299649999972  0.7447709561218474
  0.1666699940000029  0.0000000000000000  0.3560576389181946
  0.0000000000000000  0.1666699940000029  0.6439423610818054
  0.1666699940000029  0.0000000000000000  0.5000000000000000
  0.0000000000000000  0.1666699940000029  0.5000000000000000
  0.0000000000000000  0.1666699940000029  0.3560576389181946
  0.1666699940000029  0.1666699940000029  0.4317288236736090
  0.1666699940000029  0.0000000000000000  0.6439423610818054
  0.1666699940000029  0.1666699940000029  0.5682711763263910
  0.5000000000000000  0.0000000000000000  0.3560576389181946
  0.3333300059999971  0.1666699940000029  0.6439423610818054
  0.5000000000000000  0.0000000000000000  0.5000000000000000
  0.3333300059999971  0.1666699940000029  0.5000000000000000
  0.3333300059999971  0.1666699940000029  0.3560576389181946
  0.5000000000000000  0.1666699940000029  0.4317288236736090
  0.5000000000000000  0.0000000000000000  0.6439423610818054
  0.5000000000000000  0.1666699940000029  0.5682711763263910
  0.8333299649999972  0.0000000000000000  0.3560576389181946
  0.6666700350000028  0.1666699940000029  0.6439423610818054
  0.8333299649999972  0.0000000000000000  0.5000000000000000
  0.6666700350000028  0.1666699940000029  0.5000000000000000
  0.6666700350000028  0.1666699940000029  0.3560576389181946
  0.8333299649999972  0.1666699940000029  0.4317288236736090
  0.8333299649999972  0.0000000000000000  0.6439423610818054
  0.8333299649999972  0.1666699940000029  0.5682711763263910
  0.1666699940000029  0.3333300059999971  0.3560576389181946
  0.0000000000000000  0.5000000000000000  0.6439423610818054
  0.1666699940000029  0.3333300059999971  0.5000000000000000
  0.0000000000000000  0.5000000000000000  0.5000000000000000
  0.0000000000000000  0.5000000000000000  0.3560576389181946
  0.1666699940000029  0.5000000000000000  0.4317288236736090
  0.1666699940000029  0.3333300059999971  0.6439423610818054
  0.1666699940000029  0.5000000000000000  0.5682711763263910
  0.5000000000000000  0.3333300059999971  0.3560576389181946
  0.3333300059999971  0.5000000000000000  0.6439423610818054
  0.5000000000000000  0.3333300059999971  0.5000000000000000
  0.3333300059999971  0.5000000000000000  0.5000000000000000
  0.3333300059999971  0.5000000000000000  0.3560576389181946
  0.5000000000000000  0.5000000000000000  0.4317288236736090
  0.5000000000000000  0.3333300059999971  0.6439423610818054
  0.5000000000000000  0.5000000000000000  0.5682711763263910
  0.8333299649999972  0.3333300059999971  0.3560576389181946
  0.6666700350000028  0.5000000000000000  0.6439423610818054
  0.8333299649999972  0.3333300059999971  0.5000000000000000
  0.6666700350000028  0.5000000000000000  0.5000000000000000
  0.6666700350000028  0.5000000000000000  0.3560576389181946
  0.8333299649999972  0.5000000000000000  0.4317288236736090
  0.8333299649999972  0.3333300059999971  0.6439423610818054
  0.8333299649999972  0.5000000000000000  0.5682711763263910
  0.1666699940000029  0.6666700350000028  0.3560576389181946
  0.0000000000000000  0.8333299649999972  0.6439423610818054
  0.1666699940000029  0.6666700350000028  0.5000000000000000
  0.0000000000000000  0.8333299649999972  0.5000000000000000
  0.0000000000000000  0.8333299649999972  0.3560576389181946
  0.1666699940000029  0.8333299649999972  0.4317288236736090
  0.1666699940000029  0.6666700350000028  0.6439423610818054
  0.1666699940000029  0.8333299649999972  0.5682711763263910
  0.5000000000000000  0.6666700350000028  0.3560576389181946
  0.3333300059999971  0.8333299649999972  0.6439423610818054
  0.5000000000000000  0.6666700350000028  0.5000000000000000
  0.3333300059999971  0.8333299649999972  0.5000000000000000
  0.3333300059999971  0.8333299649999972  0.3560576389181946
  0.5000000000000000  0.8333299649999972  0.4317288236736090
  0.5000000000000000  0.6666700350000028  0.6439423610818054
  0.5000000000000000  0.8333299649999972  0.5682711763263910
  0.8333299649999972  0.6666700350000028  0.3560576389181946
  0.6666700350000028  0.8333299649999972  0.6439423610818054
  0.8333299649999972  0.6666700350000028  0.5000000000000000
  0.6666700350000028  0.8333299649999972  0.5000000000000000
  0.6666700350000028  0.8333299649999972  0.3560576389181946
  0.8333299649999972  0.8333299649999972  0.4317288236736090
  0.8333299649999972  0.6666700350000028  0.6439423610818054
  0.8333299649999972  0.8333299649999972  0.5682711763263910
 
  0.00000000E+00  0.00000000E+00  0.00000000E+00
  0.00000000E+00  0.00000000E+00  0.00000000E+00
  0.00000000E+00  0.00000000E+00  0.00000000E+00
  0.00000000E+00  0.00000000E+00  0.00000000E+00
  0.00000000E+00  0.00000000E+00  0.00000000E+00
  0.00000000E+00  0.00000000E+00  0.00000000E+00
  0.00000000E+00  0.00000000E+00  0.00000000E+00
  0.00000000E+00  0.00000000E+00  0.00000000E+00
  0.00000000E+00  0.00000000E+00  0.00000000E+00
  0.00000000E+00  0.00000000E+00  0.00000000E+00
  0.00000000E+00  0.00000000E+00  0.00000000E+00
  0.00000000E+00  0.00000000E+00  0.00000000E+00
  0.00000000E+00  0.00000000E+00  0.00000000E+00
  0.00000000E+00  0.00000000E+00  0.00000000E+00
  0.00000000E+00  0.00000000E+00  0.00000000E+00
  0.00000000E+00  0.00000000E+00  0.00000000E+00
  0.00000000E+00  0.00000000E+00  0.00000000E+00
  0.00000000E+00  0.00000000E+00  0.00000000E+00
  0.00000000E+00  0.00000000E+00  0.00000000E+00
  0.00000000E+00  0.00000000E+00  0.00000000E+00
  0.00000000E+00  0.00000000E+00  0.00000000E+00
  0.00000000E+00  0.00000000E+00  0.00000000E+00
  0.00000000E+00  0.00000000E+00  0.00000000E+00
  0.00000000E+00  0.00000000E+00  0.00000000E+00
  0.00000000E+00  0.00000000E+00  0.00000000E+00
  0.00000000E+00  0.00000000E+00  0.00000000E+00
  0.00000000E+00  0.00000000E+00  0.00000000E+00
  0.00000000E+00  0.00000000E+00  0.00000000E+00
  0.00000000E+00  0.00000000E+00  0.00000000E+00
  0.00000000E+00  0.00000000E+00  0.00000000E+00
  0.00000000E+00  0.00000000E+00  0.00000000E+00
  0.00000000E+00  0.00000000E+00  0.00000000E+00
  0.00000000E+00  0.00000000E+00  0.00000000E+00
  0.00000000E+00  0.00000000E+00  0.00000000E+00
  0.00000000E+00  0.00000000E+00  0.00000000E+00
  0.00000000E+00  0.00000000E+00  0.00000000E+00
  0.00000000E+00  0.00000000E+00  0.00000000E+00
  0.00000000E+00  0.00000000E+00  0.00000000E+00
  0.00000000E+00  0.00000000E+00  0.00000000E+00
  0.00000000E+00  0.00000000E+00  0.00000000E+00
  0.00000000E+00  0.00000000E+00  0.00000000E+00
  0.00000000E+00  0.00000000E+00  0.00000000E+00
  0.00000000E+00  0.00000000E+00  0.00000000E+00
  0.00000000E+00  0.00000000E+00  0.00000000E+00
  0.00000000E+00  0.00000000E+00  0.00000000E+00
  0.00000000E+00  0.00000000E+00  0.00000000E+00
  0.00000000E+00  0.00000000E+00  0.00000000E+00
  0.00000000E+00  0.00000000E+00  0.00000000E+00
  0.00000000E+00  0.00000000E+00  0.00000000E+00
  0.00000000E+00  0.00000000E+00  0.00000000E+00
  0.00000000E+00  0.00000000E+00  0.00000000E+00
  0.00000000E+00  0.00000000E+00  0.00000000E+00
  0.00000000E+00  0.00000000E+00  0.00000000E+00
  0.00000000E+00  0.00000000E+00  0.00000000E+00
  0.00000000E+00  0.00000000E+00  0.00000000E+00
  0.00000000E+00  0.00000000E+00  0.00000000E+00
  0.00000000E+00  0.00000000E+00  0.00000000E+00
  0.00000000E+00  0.00000000E+00  0.00000000E+00
  0.00000000E+00  0.00000000E+00  0.00000000E+00
  0.00000000E+00  0.00000000E+00  0.00000000E+00
  0.00000000E+00  0.00000000E+00  0.00000000E+00
  0.00000000E+00  0.00000000E+00  0.00000000E+00
  0.00000000E+00  0.00000000E+00  0.00000000E+00
  0.00000000E+00  0.00000000E+00  0.00000000E+00
  0.00000000E+00  0.00000000E+00  0.00000000E+00
  0.00000000E+00  0.00000000E+00  0.00000000E+00
  0.00000000E+00  0.00000000E+00  0.00000000E+00
  0.00000000E+00  0.00000000E+00  0.00000000E+00
  0.00000000E+00  0.00000000E+00  0.00000000E+00
  0.00000000E+00  0.00000000E+00  0.00000000E+00
  0.00000000E+00  0.00000000E+00  0.00000000E+00
  0.00000000E+00  0.00000000E+00  0.00000000E+00
  0.00000000E+00  0.00000000E+00  0.00000000E+00
  0.00000000E+00  0.00000000E+00  0.00000000E+00
  0.00000000E+00  0.00000000E+00  0.00000000E+00
  0.00000000E+00  0.00000000E+00  0.00000000E+00
  0.00000000E+00  0.00000000E+00  0.00000000E+00
  0.00000000E+00  0.00000000E+00  0.00000000E+00
  0.00000000E+00  0.00000000E+00  0.00000000E+00
  0.00000000E+00  0.00000000E+00  0.00000000E+00
  0.00000000E+00  0.00000000E+00  0.00000000E+00
  0.00000000E+00  0.00000000E+00  0.00000000E+00
  0.00000000E+00  0.00000000E+00  0.00000000E+00
  0.00000000E+00  0.00000000E+00  0.00000000E+00
  0.00000000E+00  0.00000000E+00  0.00000000E+00
  0.00000000E+00  0.00000000E+00  0.00000000E+00
  0.00000000E+00  0.00000000E+00  0.00000000E+00
  0.00000000E+00  0.00000000E+00  0.00000000E+00
  0.00000000E+00  0.00000000E+00  0.00000000E+00
  0.00000000E+00  0.00000000E+00  0.00000000E+00
  0.00000000E+00  0.00000000E+00  0.00000000E+00
  0.00000000E+00  0.00000000E+00  0.00000000E+00
  0.00000000E+00  0.00000000E+00  0.00000000E+00
  0.00000000E+00  0.00000000E+00  0.00000000E+00
  0.00000000E+00  0.00000000E+00  0.00000000E+00
  0.00000000E+00  0.00000000E+00  0.00000000E+00
  0.00000000E+00  0.00000000E+00  0.00000000E+00
  0.00000000E+00  0.00000000E+00  0.00000000E+00
  0.00000000E+00  0.00000000E+00  0.00000000E+00
  0.00000000E+00  0.00000000E+00  0.00000000E+00
  0.00000000E+00  0.00000000E+00  0.00000000E+00
  0.00000000E+00  0.00000000E+00  0.00000000E+00
  0.00000000E+00  0.00000000E+00  0.00000000E+00
  0.00000000E+00  0.00000000E+00  0.00000000E+00
  0.00000000E+00  0.00000000E+00  0.00000000E+00
  0.00000000E+00  0.00000000E+00  0.00000000E+00
  0.00000000E+00  0.00000000E+00  0.00000000E+00
  0.00000000E+00  0.00000000E+00  0.00000000E+00
  0.00000000E+00  0.00000000E+00  0.00000000E+00
  0.00000000E+00  0.00000000E+00  0.00000000E+00
  0.00000000E+00  0.00000000E+00  0.00000000E+00
  0.00000000E+00  0.00000000E+00  0.00000000E+00
  0.00000000E+00  0.00000000E+00  0.00000000E+00
  0.00000000E+00  0.00000000E+00  0.00000000E+00
  0.00000000E+00  0.00000000E+00  0.00000000E+00
  0.00000000E+00  0.00000000E+00  0.00000000E+00
  0.00000000E+00  0.00000000E+00  0.00000000E+00
  0.00000000E+00  0.00000000E+00  0.00000000E+00
  0.00000000E+00  0.00000000E+00  0.00000000E+00
  0.00000000E+00  0.00000000E+00  0.00000000E+00
  0.00000000E+00  0.00000000E+00  0.00000000E+00
  0.00000000E+00  0.00000000E+00  0.00000000E+00
  0.00000000E+00  0.00000000E+00  0.00000000E+00
  0.00000000E+00  0.00000000E+00  0.00000000E+00
  0.00000000E+00  0.00000000E+00  0.00000000E+00
  0.00000000E+00  0.00000000E+00  0.00000000E+00
  0.00000000E+00  0.00000000E+00  0.00000000E+00
  0.00000000E+00  0.00000000E+00  0.00000000E+00
  0.00000000E+00  0.00000000E+00  0.00000000E+00
  0.00000000E+00  0.00000000E+00  0.00000000E+00
  0.00000000E+00  0.00000000E+00  0.00000000E+00
  0.00000000E+00  0.00000000E+00  0.00000000E+00
  0.00000000E+00  0.00000000E+00  0.00000000E+00
  0.00000000E+00  0.00000000E+00  0.00000000E+00
  0.00000000E+00  0.00000000E+00  0.00000000E+00
  0.00000000E+00  0.00000000E+00  0.00000000E+00
  0.00000000E+00  0.00000000E+00  0.00000000E+00
  0.00000000E+00  0.00000000E+00  0.00000000E+00
  0.00000000E+00  0.00000000E+00  0.00000000E+00
  0.00000000E+00  0.00000000E+00  0.00000000E+00
  0.00000000E+00  0.00000000E+00  0.00000000E+00
  0.00000000E+00  0.00000000E+00  0.00000000E+00
  0.00000000E+00  0.00000000E+00  0.00000000E+00
  0.00000000E+00  0.00000000E+00  0.00000000E+00
  0.00000000E+00  0.00000000E+00  0.00000000E+00
  0.00000000E+00  0.00000000E+00  0.00000000E+00
  0.00000000E+00  0.00000000E+00  0.00000000E+00
  0.00000000E+00  0.00000000E+00  0.00000000E+00
  0.00000000E+00  0.00000000E+00  0.00000000E+00
  0.00000000E+00  0.00000000E+00  0.00000000E+00
  0.00000000E+00  0.00000000E+00  0.00000000E+00
  0.00000000E+00  0.00000000E+00  0.00000000E+00
  0.00000000E+00  0.00000000E+00  0.00000000E+00
