CONTCAR\(5)                             
   1.00000000000000     
    14.8924999237000009    0.0000000000000000    0.0000000000000000
    -4.2028990813000000   18.5849939345999999    0.0000000000000000
     0.0000000000000000    0.0000000000000000   18.6902999877999996
   Mn   F 
    24    84
Direct
  0.0939615520401815  0.2875807424558219  0.5210746160656121
  0.2393372136167002  0.4625984270534519  0.5209907997628204
  0.0939610377812751  0.0375842057924679  0.4789279064636106
  0.2393442313579762  0.2125953664170302  0.4790018900570249
  0.4272989779625380  0.2874932214819909  0.5210279163613389
  0.5726864206120300  0.4625039638905240  0.5210416216480711
  0.4272980800877410  0.0374943062006285  0.4789743194642018
  0.5726855935961984  0.2125005201427775  0.4789529590555409
  0.7606464597564294  0.2873912749998565  0.5209779441383471
  0.9060291976206025  0.4624065590805951  0.5210929428577931
  0.7606500243509471  0.0373933741196801  0.4790295218957471
  0.9060244971816200  0.2124079985352525  0.4789085129731591
  0.0939615895256898  0.7875807065551901  0.5210746311362278
  0.2393371138256380  0.9625983936066914  0.5209907448207485
  0.0939606906136853  0.5375839190647413  0.4789279796734810
  0.2393439226260023  0.7125951158652923  0.4790018471523029
  0.4272986839461458  0.7874930329440197  0.5210277791563459
  0.5726862466516792  0.9625038606993360  0.5210418257673649
  0.4272981761205292  0.5374943315545355  0.4789742852109389
  0.5726858025092232  0.7125005603894377  0.4789530233408357
  0.7606466190891910  0.7873913391295494  0.5209779232047205
  0.9060294859409512  0.9624067020408782  0.5210927515837519
  0.7606501963387894  0.5373934581970844  0.4790295379834530
  0.9060245144769732  0.7124080175567191  0.4789084750044424
  0.0071487633781625  0.1967041643780504  0.5355265878070814
  0.1666443473196021  0.3750335860116096  0.4881579749739138
  0.1372761867911380  0.4946315468997783  0.5620650527603495
  0.3264304558929597  0.0534048753173154  0.5355261865954946
  0.0634459227276832  0.0745289516096998  0.4004957177921405
  0.0634469620533469  0.3245259361175399  0.5995007912156649
  0.1372697213936285  0.2446328155191577  0.4379351831331068
  0.1959777079373506  0.2554534140436389  0.5621253503535885
  0.2700633811150385  0.1756054073003128  0.4006730524103955
  0.2700637180602047  0.4256096081546592  0.5993210208446684
  0.0071485291860210  0.4467036270177303  0.4644757643040539
  0.1959744230621380  0.0054587240387421  0.4378711700736109
  0.1666405111090902  0.1250345303829993  0.5118478732798971
  0.3264312061427589  0.3034108704952462  0.4644759188896347
  0.3404610223048232  0.1967240637312443  0.5355947575554446
  0.5000018916848201  0.3749850449155510  0.4881843020862718
  0.4708052202776009  0.4946287625941678  0.5621333829352597
  0.6595789594117788  0.0532999306045588  0.5355746350746693
  0.3965636928745723  0.0744345412575220  0.4006216845501238
  0.3965610208920922  0.3244384721835638  0.5993836714373753
  0.4707985844820536  0.2446340241523607  0.4378701555463551
  0.5291695683717119  0.2553624834422927  0.5621145895045705
  0.6034472890228100  0.1755604135421070  0.4006090293279566
  0.6034434640743607  0.4255666642267270  0.5993861925323408
  0.3404522034810072  0.4467209149518990  0.4644073254442683
  0.5291655982799947  0.0053683057525498  0.4378819075904541
  0.4999935930626915  0.1249825931090356  0.5118211424191252
  0.6595810231078870  0.3033052097340219  0.4644288643840843
  0.6736056494744869  0.1966180165891349  0.5355487909323253
  0.8333556759816227  0.3749312227158893  0.4881557524700949
  0.8039929557003387  0.4945384381290815  0.5621476206982904
  0.9928897542853059  0.0533197291033230  0.5355025523676277
  0.7299501140093854  0.0743901164990555  0.4006901910127934
  0.7299443130148454  0.3243935426904495  0.5993176286709556
  0.8039887658352914  0.2445427715038105  0.4378554525947169
  0.8626912020530696  0.2553594401293683  0.5620449413447737
  0.9365669071581367  0.1754693593663535  0.4004819765829445
  0.9365646839172197  0.4254736749954905  0.5995129524105945
  0.6736003613707989  0.4466161765308657  0.4644578674249084
  0.8626885402305923  0.0053627722708137  0.4379529716927060
  0.8333503549803494  0.1249317482339252  0.5118491955311829
  0.9928922956071773  0.3033229727236602  0.4645012395089148
  0.0071486609905649  0.6967042378615497  0.5355265089588659
  0.1666442051024495  0.8750334233256524  0.4881580048479299
  0.1372762540028659  0.9946316594640610  0.5620650661289336
  0.3264303357342299  0.5534048930309138  0.5355262817218761
  0.0634459923675402  0.5745288165685838  0.4004958489388574
  0.0634469664063866  0.8245259675574726  0.5995008691853146
  0.1372693398954877  0.7446330513000291  0.4379351154650988
  0.1959775942414195  0.7554532725755652  0.5621253015327090
  0.2700636502981031  0.6756053117366491  0.4006730098074616
  0.2700637907335288  0.9256095780259235  0.5993210221719040
  0.0071476780435960  0.9467033089347514  0.4644760424804159
  0.1959740153703522  0.5054588323366030  0.4378714257643755
  0.1666399025852034  0.6250336778010450  0.5118477169385272
  0.3264322254662946  0.8034112276517449  0.4644762139615633
  0.3404623009698766  0.6967245067806133  0.5355950404478640
  0.5000014106628115  0.8749844147546891  0.4881845471723821
  0.4708048795242147  0.9946289012694277  0.5621334386563771
  0.6595783312466823  0.5532997266828530  0.5355748169861004
  0.3965636281279370  0.5744345922547809  0.4006216295808531
  0.3965608419621340  0.8244384202214535  0.5993833815975460
  0.4707991078936832  0.7446339180266182  0.4378700442886810
  0.5291687844440592  0.7553625677208790  0.5621145796759829
  0.6034473930311002  0.6755604346746027  0.4006092487964874
  0.6034435462863289  0.9255665489609084  0.5993863715094203
  0.3404524609098028  0.9467210610071158  0.4644072732357253
  0.5291657639044762  0.5053683839128759  0.4378818090429774
  0.4999939105950125  0.6249829126130674  0.5118210859041564
  0.6595802737914784  0.8033049745817044  0.4644287354722890
  0.6736048919554387  0.6966176518751673  0.5355487082656175
  0.8333560642067777  0.8749317446475821  0.4881557656747688
  0.8039935084703752  0.9945383560125264  0.5621474493095392
  0.9928906961690678  0.5533200643210783  0.5355022499180083
  0.7299500624362050  0.5743900920063463  0.4006901517892280
  0.7299441724583573  0.8243935389664278  0.5993176878661338
  0.8039888235804470  0.7445427374508354  0.4378554910143509
  0.8626914212791293  0.7553592474758239  0.5620449193918967
  0.9365668349265163  0.6754693105644769  0.4004819416883961
  0.9365646290005505  0.9254737680514173  0.5995127013874912
  0.6736009013216550  0.9466164271435564  0.4644577756748531
  0.8626887368877214  0.5053626315822152  0.4379530236820485
  0.8333506425251818  0.6249320766903214  0.5118492960550575
  0.9928922504503058  0.8033227888412169  0.4645013231692688
 
  0.00000000E+00  0.00000000E+00  0.00000000E+00
  0.00000000E+00  0.00000000E+00  0.00000000E+00
  0.00000000E+00  0.00000000E+00  0.00000000E+00
  0.00000000E+00  0.00000000E+00  0.00000000E+00
  0.00000000E+00  0.00000000E+00  0.00000000E+00
  0.00000000E+00  0.00000000E+00  0.00000000E+00
  0.00000000E+00  0.00000000E+00  0.00000000E+00
  0.00000000E+00  0.00000000E+00  0.00000000E+00
  0.00000000E+00  0.00000000E+00  0.00000000E+00
  0.00000000E+00  0.00000000E+00  0.00000000E+00
  0.00000000E+00  0.00000000E+00  0.00000000E+00
  0.00000000E+00  0.00000000E+00  0.00000000E+00
  0.00000000E+00  0.00000000E+00  0.00000000E+00
  0.00000000E+00  0.00000000E+00  0.00000000E+00
  0.00000000E+00  0.00000000E+00  0.00000000E+00
  0.00000000E+00  0.00000000E+00  0.00000000E+00
  0.00000000E+00  0.00000000E+00  0.00000000E+00
  0.00000000E+00  0.00000000E+00  0.00000000E+00
  0.00000000E+00  0.00000000E+00  0.00000000E+00
  0.00000000E+00  0.00000000E+00  0.00000000E+00
  0.00000000E+00  0.00000000E+00  0.00000000E+00
  0.00000000E+00  0.00000000E+00  0.00000000E+00
  0.00000000E+00  0.00000000E+00  0.00000000E+00
  0.00000000E+00  0.00000000E+00  0.00000000E+00
  0.00000000E+00  0.00000000E+00  0.00000000E+00
  0.00000000E+00  0.00000000E+00  0.00000000E+00
  0.00000000E+00  0.00000000E+00  0.00000000E+00
  0.00000000E+00  0.00000000E+00  0.00000000E+00
  0.00000000E+00  0.00000000E+00  0.00000000E+00
  0.00000000E+00  0.00000000E+00  0.00000000E+00
  0.00000000E+00  0.00000000E+00  0.00000000E+00
  0.00000000E+00  0.00000000E+00  0.00000000E+00
  0.00000000E+00  0.00000000E+00  0.00000000E+00
  0.00000000E+00  0.00000000E+00  0.00000000E+00
  0.00000000E+00  0.00000000E+00  0.00000000E+00
  0.00000000E+00  0.00000000E+00  0.00000000E+00
  0.00000000E+00  0.00000000E+00  0.00000000E+00
  0.00000000E+00  0.00000000E+00  0.00000000E+00
  0.00000000E+00  0.00000000E+00  0.00000000E+00
  0.00000000E+00  0.00000000E+00  0.00000000E+00
  0.00000000E+00  0.00000000E+00  0.00000000E+00
  0.00000000E+00  0.00000000E+00  0.00000000E+00
  0.00000000E+00  0.00000000E+00  0.00000000E+00
  0.00000000E+00  0.00000000E+00  0.00000000E+00
  0.00000000E+00  0.00000000E+00  0.00000000E+00
  0.00000000E+00  0.00000000E+00  0.00000000E+00
  0.00000000E+00  0.00000000E+00  0.00000000E+00
  0.00000000E+00  0.00000000E+00  0.00000000E+00
  0.00000000E+00  0.00000000E+00  0.00000000E+00
  0.00000000E+00  0.00000000E+00  0.00000000E+00
  0.00000000E+00  0.00000000E+00  0.00000000E+00
  0.00000000E+00  0.00000000E+00  0.00000000E+00
  0.00000000E+00  0.00000000E+00  0.00000000E+00
  0.00000000E+00  0.00000000E+00  0.00000000E+00
  0.00000000E+00  0.00000000E+00  0.00000000E+00
  0.00000000E+00  0.00000000E+00  0.00000000E+00
  0.00000000E+00  0.00000000E+00  0.00000000E+00
  0.00000000E+00  0.00000000E+00  0.00000000E+00
  0.00000000E+00  0.00000000E+00  0.00000000E+00
  0.00000000E+00  0.00000000E+00  0.00000000E+00
  0.00000000E+00  0.00000000E+00  0.00000000E+00
  0.00000000E+00  0.00000000E+00  0.00000000E+00
  0.00000000E+00  0.00000000E+00  0.00000000E+00
  0.00000000E+00  0.00000000E+00  0.00000000E+00
  0.00000000E+00  0.00000000E+00  0.00000000E+00
  0.00000000E+00  0.00000000E+00  0.00000000E+00
  0.00000000E+00  0.00000000E+00  0.00000000E+00
  0.00000000E+00  0.00000000E+00  0.00000000E+00
  0.00000000E+00  0.00000000E+00  0.00000000E+00
  0.00000000E+00  0.00000000E+00  0.00000000E+00
  0.00000000E+00  0.00000000E+00  0.00000000E+00
  0.00000000E+00  0.00000000E+00  0.00000000E+00
  0.00000000E+00  0.00000000E+00  0.00000000E+00
  0.00000000E+00  0.00000000E+00  0.00000000E+00
  0.00000000E+00  0.00000000E+00  0.00000000E+00
  0.00000000E+00  0.00000000E+00  0.00000000E+00
  0.00000000E+00  0.00000000E+00  0.00000000E+00
  0.00000000E+00  0.00000000E+00  0.00000000E+00
  0.00000000E+00  0.00000000E+00  0.00000000E+00
  0.00000000E+00  0.00000000E+00  0.00000000E+00
  0.00000000E+00  0.00000000E+00  0.00000000E+00
  0.00000000E+00  0.00000000E+00  0.00000000E+00
  0.00000000E+00  0.00000000E+00  0.00000000E+00
  0.00000000E+00  0.00000000E+00  0.00000000E+00
  0.00000000E+00  0.00000000E+00  0.00000000E+00
  0.00000000E+00  0.00000000E+00  0.00000000E+00
  0.00000000E+00  0.00000000E+00  0.00000000E+00
  0.00000000E+00  0.00000000E+00  0.00000000E+00
  0.00000000E+00  0.00000000E+00  0.00000000E+00
  0.00000000E+00  0.00000000E+00  0.00000000E+00
  0.00000000E+00  0.00000000E+00  0.00000000E+00
  0.00000000E+00  0.00000000E+00  0.00000000E+00
  0.00000000E+00  0.00000000E+00  0.00000000E+00
  0.00000000E+00  0.00000000E+00  0.00000000E+00
  0.00000000E+00  0.00000000E+00  0.00000000E+00
  0.00000000E+00  0.00000000E+00  0.00000000E+00
  0.00000000E+00  0.00000000E+00  0.00000000E+00
  0.00000000E+00  0.00000000E+00  0.00000000E+00
  0.00000000E+00  0.00000000E+00  0.00000000E+00
  0.00000000E+00  0.00000000E+00  0.00000000E+00
  0.00000000E+00  0.00000000E+00  0.00000000E+00
  0.00000000E+00  0.00000000E+00  0.00000000E+00
  0.00000000E+00  0.00000000E+00  0.00000000E+00
  0.00000000E+00  0.00000000E+00  0.00000000E+00
  0.00000000E+00  0.00000000E+00  0.00000000E+00
  0.00000000E+00  0.00000000E+00  0.00000000E+00
  0.00000000E+00  0.00000000E+00  0.00000000E+00
  0.00000000E+00  0.00000000E+00  0.00000000E+00
