 Er2 Te6                                
   1.00000000000000     
     4.3045565163063504    0.0000000000000000    0.0000000000000000
     0.0000000000000000    4.3045529732582191    0.0000000000000000
     0.0000000000000000    0.0000000000000000   24.0200785936799974
   Er   Te
     2     6
Direct
  0.4999985067539612  0.9999996265929738  0.5844475192691121
  0.0000002485918316  0.5000022312096064  0.4155523191751627
  0.0000003011420020  0.9999995645619535  0.3121218255735840
  0.5000003715024945  0.4999996230892165  0.6878782882503813
  0.0000001431204595  0.9999994240147672  0.6878770302775052
  0.5000000914619065  0.4999996440311705  0.3121229820235527
  0.5000003328946576  0.9999997658096262  0.4536360679772784
  0.0000000045326871  0.5000001206906788  0.5463639674534235
 
  0.00000000E+00  0.00000000E+00  0.00000000E+00
  0.00000000E+00  0.00000000E+00  0.00000000E+00
  0.00000000E+00  0.00000000E+00  0.00000000E+00
  0.00000000E+00  0.00000000E+00  0.00000000E+00
  0.00000000E+00  0.00000000E+00  0.00000000E+00
  0.00000000E+00  0.00000000E+00  0.00000000E+00
  0.00000000E+00  0.00000000E+00  0.00000000E+00
  0.00000000E+00  0.00000000E+00  0.00000000E+00
