G   46   46    1    0.005     # Parameters to Generate KPOINTS (Don't Edit This Line)
    1060
Reciprocal lattice
    0.000000000000    0.000000000000    0.000000000000       1
    0.021739130435    0.000000000000    0.000000000000       2
    0.043478260870    0.000000000000    0.000000000000       2
    0.065217391304    0.000000000000    0.000000000000       2
    0.086956521739    0.000000000000    0.000000000000       2
    0.108695652174    0.000000000000    0.000000000000       2
    0.130434782609    0.000000000000    0.000000000000       2
    0.152173913043    0.000000000000    0.000000000000       2
    0.173913043478    0.000000000000    0.000000000000       2
    0.195652173913    0.000000000000    0.000000000000       2
    0.217391304348    0.000000000000    0.000000000000       2
    0.239130434783    0.000000000000    0.000000000000       2
    0.260869565217    0.000000000000    0.000000000000       2
    0.282608695652    0.000000000000    0.000000000000       2
    0.304347826087    0.000000000000    0.000000000000       2
    0.326086956522    0.000000000000    0.000000000000       2
    0.347826086957    0.000000000000    0.000000000000       2
    0.369565217391    0.000000000000    0.000000000000       2
    0.391304347826    0.000000000000    0.000000000000       2
    0.413043478261    0.000000000000    0.000000000000       2
    0.434782608696    0.000000000000    0.000000000000       2
    0.456521739130    0.000000000000    0.000000000000       2
    0.478260869565    0.000000000000    0.000000000000       2
    0.500000000000    0.000000000000    0.000000000000       1
    0.000000000000    0.021739130435    0.000000000000       2
    0.021739130435    0.021739130435    0.000000000000       2
    0.043478260870    0.021739130435    0.000000000000       2
    0.065217391304    0.021739130435    0.000000000000       2
    0.086956521739    0.021739130435    0.000000000000       2
    0.108695652174    0.021739130435    0.000000000000       2
    0.130434782609    0.021739130435    0.000000000000       2
    0.152173913043    0.021739130435    0.000000000000       2
    0.173913043478    0.021739130435    0.000000000000       2
    0.195652173913    0.021739130435    0.000000000000       2
    0.217391304348    0.021739130435    0.000000000000       2
    0.239130434783    0.021739130435    0.000000000000       2
    0.260869565217    0.021739130435    0.000000000000       2
    0.282608695652    0.021739130435    0.000000000000       2
    0.304347826087    0.021739130435    0.000000000000       2
    0.326086956522    0.021739130435    0.000000000000       2
    0.347826086957    0.021739130435    0.000000000000       2
    0.369565217391    0.021739130435    0.000000000000       2
    0.391304347826    0.021739130435    0.000000000000       2
    0.413043478261    0.021739130435    0.000000000000       2
    0.434782608696    0.021739130435    0.000000000000       2
    0.456521739130    0.021739130435    0.000000000000       2
    0.478260869565    0.021739130435    0.000000000000       2
    0.500000000000    0.021739130435    0.000000000000       2
   -0.478260869565    0.021739130435    0.000000000000       2
   -0.456521739130    0.021739130435    0.000000000000       2
   -0.434782608696    0.021739130435    0.000000000000       2
   -0.413043478261    0.021739130435    0.000000000000       2
   -0.391304347826    0.021739130435    0.000000000000       2
   -0.369565217391    0.021739130435    0.000000000000       2
   -0.347826086957    0.021739130435    0.000000000000       2
   -0.326086956522    0.021739130435    0.000000000000       2
   -0.304347826087    0.021739130435    0.000000000000       2
   -0.282608695652    0.021739130435    0.000000000000       2
   -0.260869565217    0.021739130435    0.000000000000       2
   -0.239130434783    0.021739130435    0.000000000000       2
   -0.217391304348    0.021739130435    0.000000000000       2
   -0.195652173913    0.021739130435    0.000000000000       2
   -0.173913043478    0.021739130435    0.000000000000       2
   -0.152173913043    0.021739130435    0.000000000000       2
   -0.130434782609    0.021739130435    0.000000000000       2
   -0.108695652174    0.021739130435    0.000000000000       2
   -0.086956521739    0.021739130435    0.000000000000       2
   -0.065217391304    0.021739130435    0.000000000000       2
   -0.043478260870    0.021739130435    0.000000000000       2
   -0.021739130435    0.021739130435    0.000000000000       2
    0.000000000000    0.043478260870    0.000000000000       2
    0.021739130435    0.043478260870    0.000000000000       2
    0.043478260870    0.043478260870    0.000000000000       2
    0.065217391304    0.043478260870    0.000000000000       2
    0.086956521739    0.043478260870    0.000000000000       2
    0.108695652174    0.043478260870    0.000000000000       2
    0.130434782609    0.043478260870    0.000000000000       2
    0.152173913043    0.043478260870    0.000000000000       2
    0.173913043478    0.043478260870    0.000000000000       2
    0.195652173913    0.043478260870    0.000000000000       2
    0.217391304348    0.043478260870    0.000000000000       2
    0.239130434783    0.043478260870    0.000000000000       2
    0.260869565217    0.043478260870    0.000000000000       2
    0.282608695652    0.043478260870    0.000000000000       2
    0.304347826087    0.043478260870    0.000000000000       2
    0.326086956522    0.043478260870    0.000000000000       2
    0.347826086957    0.043478260870    0.000000000000       2
    0.369565217391    0.043478260870    0.000000000000       2
    0.391304347826    0.043478260870    0.000000000000       2
    0.413043478261    0.043478260870    0.000000000000       2
    0.434782608696    0.043478260870    0.000000000000       2
    0.456521739130    0.043478260870    0.000000000000       2
    0.478260869565    0.043478260870    0.000000000000       2
    0.500000000000    0.043478260870    0.000000000000       2
   -0.478260869565    0.043478260870    0.000000000000       2
   -0.456521739130    0.043478260870    0.000000000000       2
   -0.434782608696    0.043478260870    0.000000000000       2
   -0.413043478261    0.043478260870    0.000000000000       2
   -0.391304347826    0.043478260870    0.000000000000       2
   -0.369565217391    0.043478260870    0.000000000000       2
   -0.347826086957    0.043478260870    0.000000000000       2
   -0.326086956522    0.043478260870    0.000000000000       2
   -0.304347826087    0.043478260870    0.000000000000       2
   -0.282608695652    0.043478260870    0.000000000000       2
   -0.260869565217    0.043478260870    0.000000000000       2
   -0.239130434783    0.043478260870    0.000000000000       2
   -0.217391304348    0.043478260870    0.000000000000       2
   -0.195652173913    0.043478260870    0.000000000000       2
   -0.173913043478    0.043478260870    0.000000000000       2
   -0.152173913043    0.043478260870    0.000000000000       2
   -0.130434782609    0.043478260870    0.000000000000       2
   -0.108695652174    0.043478260870    0.000000000000       2
   -0.086956521739    0.043478260870    0.000000000000       2
   -0.065217391304    0.043478260870    0.000000000000       2
   -0.043478260870    0.043478260870    0.000000000000       2
   -0.021739130435    0.043478260870    0.000000000000       2
    0.000000000000    0.065217391304    0.000000000000       2
    0.021739130435    0.065217391304    0.000000000000       2
    0.043478260870    0.065217391304    0.000000000000       2
    0.065217391304    0.065217391304    0.000000000000       2
    0.086956521739    0.065217391304    0.000000000000       2
    0.108695652174    0.065217391304    0.000000000000       2
    0.130434782609    0.065217391304    0.000000000000       2
    0.152173913043    0.065217391304    0.000000000000       2
    0.173913043478    0.065217391304    0.000000000000       2
    0.195652173913    0.065217391304    0.000000000000       2
    0.217391304348    0.065217391304    0.000000000000       2
    0.239130434783    0.065217391304    0.000000000000       2
    0.260869565217    0.065217391304    0.000000000000       2
    0.282608695652    0.065217391304    0.000000000000       2
    0.304347826087    0.065217391304    0.000000000000       2
    0.326086956522    0.065217391304    0.000000000000       2
    0.347826086957    0.065217391304    0.000000000000       2
    0.369565217391    0.065217391304    0.000000000000       2
    0.391304347826    0.065217391304    0.000000000000       2
    0.413043478261    0.065217391304    0.000000000000       2
    0.434782608696    0.065217391304    0.000000000000       2
    0.456521739130    0.065217391304    0.000000000000       2
    0.478260869565    0.065217391304    0.000000000000       2
    0.500000000000    0.065217391304    0.000000000000       2
   -0.478260869565    0.065217391304    0.000000000000       2
   -0.456521739130    0.065217391304    0.000000000000       2
   -0.434782608696    0.065217391304    0.000000000000       2
   -0.413043478261    0.065217391304    0.000000000000       2
   -0.391304347826    0.065217391304    0.000000000000       2
   -0.369565217391    0.065217391304    0.000000000000       2
   -0.347826086957    0.065217391304    0.000000000000       2
   -0.326086956522    0.065217391304    0.000000000000       2
   -0.304347826087    0.065217391304    0.000000000000       2
   -0.282608695652    0.065217391304    0.000000000000       2
   -0.260869565217    0.065217391304    0.000000000000       2
   -0.239130434783    0.065217391304    0.000000000000       2
   -0.217391304348    0.065217391304    0.000000000000       2
   -0.195652173913    0.065217391304    0.000000000000       2
   -0.173913043478    0.065217391304    0.000000000000       2
   -0.152173913043    0.065217391304    0.000000000000       2
   -0.130434782609    0.065217391304    0.000000000000       2
   -0.108695652174    0.065217391304    0.000000000000       2
   -0.086956521739    0.065217391304    0.000000000000       2
   -0.065217391304    0.065217391304    0.000000000000       2
   -0.043478260870    0.065217391304    0.000000000000       2
   -0.021739130435    0.065217391304    0.000000000000       2
    0.000000000000    0.086956521739    0.000000000000       2
    0.021739130435    0.086956521739    0.000000000000       2
    0.043478260870    0.086956521739    0.000000000000       2
    0.065217391304    0.086956521739    0.000000000000       2
    0.086956521739    0.086956521739    0.000000000000       2
    0.108695652174    0.086956521739    0.000000000000       2
    0.130434782609    0.086956521739    0.000000000000       2
    0.152173913043    0.086956521739    0.000000000000       2
    0.173913043478    0.086956521739    0.000000000000       2
    0.195652173913    0.086956521739    0.000000000000       2
    0.217391304348    0.086956521739    0.000000000000       2
    0.239130434783    0.086956521739    0.000000000000       2
    0.260869565217    0.086956521739    0.000000000000       2
    0.282608695652    0.086956521739    0.000000000000       2
    0.304347826087    0.086956521739    0.000000000000       2
    0.326086956522    0.086956521739    0.000000000000       2
    0.347826086957    0.086956521739    0.000000000000       2
    0.369565217391    0.086956521739    0.000000000000       2
    0.391304347826    0.086956521739    0.000000000000       2
    0.413043478261    0.086956521739    0.000000000000       2
    0.434782608696    0.086956521739    0.000000000000       2
    0.456521739130    0.086956521739    0.000000000000       2
    0.478260869565    0.086956521739    0.000000000000       2
    0.500000000000    0.086956521739    0.000000000000       2
   -0.478260869565    0.086956521739    0.000000000000       2
   -0.456521739130    0.086956521739    0.000000000000       2
   -0.434782608696    0.086956521739    0.000000000000       2
   -0.413043478261    0.086956521739    0.000000000000       2
   -0.391304347826    0.086956521739    0.000000000000       2
   -0.369565217391    0.086956521739    0.000000000000       2
   -0.347826086957    0.086956521739    0.000000000000       2
   -0.326086956522    0.086956521739    0.000000000000       2
   -0.304347826087    0.086956521739    0.000000000000       2
   -0.282608695652    0.086956521739    0.000000000000       2
   -0.260869565217    0.086956521739    0.000000000000       2
   -0.239130434783    0.086956521739    0.000000000000       2
   -0.217391304348    0.086956521739    0.000000000000       2
   -0.195652173913    0.086956521739    0.000000000000       2
   -0.173913043478    0.086956521739    0.000000000000       2
   -0.152173913043    0.086956521739    0.000000000000       2
   -0.130434782609    0.086956521739    0.000000000000       2
   -0.108695652174    0.086956521739    0.000000000000       2
   -0.086956521739    0.086956521739    0.000000000000       2
   -0.065217391304    0.086956521739    0.000000000000       2
   -0.043478260870    0.086956521739    0.000000000000       2
   -0.021739130435    0.086956521739    0.000000000000       2
    0.000000000000    0.108695652174    0.000000000000       2
    0.021739130435    0.108695652174    0.000000000000       2
    0.043478260870    0.108695652174    0.000000000000       2
    0.065217391304    0.108695652174    0.000000000000       2
    0.086956521739    0.108695652174    0.000000000000       2
    0.108695652174    0.108695652174    0.000000000000       2
    0.130434782609    0.108695652174    0.000000000000       2
    0.152173913043    0.108695652174    0.000000000000       2
    0.173913043478    0.108695652174    0.000000000000       2
    0.195652173913    0.108695652174    0.000000000000       2
    0.217391304348    0.108695652174    0.000000000000       2
    0.239130434783    0.108695652174    0.000000000000       2
    0.260869565217    0.108695652174    0.000000000000       2
    0.282608695652    0.108695652174    0.000000000000       2
    0.304347826087    0.108695652174    0.000000000000       2
    0.326086956522    0.108695652174    0.000000000000       2
    0.347826086957    0.108695652174    0.000000000000       2
    0.369565217391    0.108695652174    0.000000000000       2
    0.391304347826    0.108695652174    0.000000000000       2
    0.413043478261    0.108695652174    0.000000000000       2
    0.434782608696    0.108695652174    0.000000000000       2
    0.456521739130    0.108695652174    0.000000000000       2
    0.478260869565    0.108695652174    0.000000000000       2
    0.500000000000    0.108695652174    0.000000000000       2
   -0.478260869565    0.108695652174    0.000000000000       2
   -0.456521739130    0.108695652174    0.000000000000       2
   -0.434782608696    0.108695652174    0.000000000000       2
   -0.413043478261    0.108695652174    0.000000000000       2
   -0.391304347826    0.108695652174    0.000000000000       2
   -0.369565217391    0.108695652174    0.000000000000       2
   -0.347826086957    0.108695652174    0.000000000000       2
   -0.326086956522    0.108695652174    0.000000000000       2
   -0.304347826087    0.108695652174    0.000000000000       2
   -0.282608695652    0.108695652174    0.000000000000       2
   -0.260869565217    0.108695652174    0.000000000000       2
   -0.239130434783    0.108695652174    0.000000000000       2
   -0.217391304348    0.108695652174    0.000000000000       2
   -0.195652173913    0.108695652174    0.000000000000       2
   -0.173913043478    0.108695652174    0.000000000000       2
   -0.152173913043    0.108695652174    0.000000000000       2
   -0.130434782609    0.108695652174    0.000000000000       2
   -0.108695652174    0.108695652174    0.000000000000       2
   -0.086956521739    0.108695652174    0.000000000000       2
   -0.065217391304    0.108695652174    0.000000000000       2
   -0.043478260870    0.108695652174    0.000000000000       2
   -0.021739130435    0.108695652174    0.000000000000       2
    0.000000000000    0.130434782609    0.000000000000       2
    0.021739130435    0.130434782609    0.000000000000       2
    0.043478260870    0.130434782609    0.000000000000       2
    0.065217391304    0.130434782609    0.000000000000       2
    0.086956521739    0.130434782609    0.000000000000       2
    0.108695652174    0.130434782609    0.000000000000       2
    0.130434782609    0.130434782609    0.000000000000       2
    0.152173913043    0.130434782609    0.000000000000       2
    0.173913043478    0.130434782609    0.000000000000       2
    0.195652173913    0.130434782609    0.000000000000       2
    0.217391304348    0.130434782609    0.000000000000       2
    0.239130434783    0.130434782609    0.000000000000       2
    0.260869565217    0.130434782609    0.000000000000       2
    0.282608695652    0.130434782609    0.000000000000       2
    0.304347826087    0.130434782609    0.000000000000       2
    0.326086956522    0.130434782609    0.000000000000       2
    0.347826086957    0.130434782609    0.000000000000       2
    0.369565217391    0.130434782609    0.000000000000       2
    0.391304347826    0.130434782609    0.000000000000       2
    0.413043478261    0.130434782609    0.000000000000       2
    0.434782608696    0.130434782609    0.000000000000       2
    0.456521739130    0.130434782609    0.000000000000       2
    0.478260869565    0.130434782609    0.000000000000       2
    0.500000000000    0.130434782609    0.000000000000       2
   -0.478260869565    0.130434782609    0.000000000000       2
   -0.456521739130    0.130434782609    0.000000000000       2
   -0.434782608696    0.130434782609    0.000000000000       2
   -0.413043478261    0.130434782609    0.000000000000       2
   -0.391304347826    0.130434782609    0.000000000000       2
   -0.369565217391    0.130434782609    0.000000000000       2
   -0.347826086957    0.130434782609    0.000000000000       2
   -0.326086956522    0.130434782609    0.000000000000       2
   -0.304347826087    0.130434782609    0.000000000000       2
   -0.282608695652    0.130434782609    0.000000000000       2
   -0.260869565217    0.130434782609    0.000000000000       2
   -0.239130434783    0.130434782609    0.000000000000       2
   -0.217391304348    0.130434782609    0.000000000000       2
   -0.195652173913    0.130434782609    0.000000000000       2
   -0.173913043478    0.130434782609    0.000000000000       2
   -0.152173913043    0.130434782609    0.000000000000       2
   -0.130434782609    0.130434782609    0.000000000000       2
   -0.108695652174    0.130434782609    0.000000000000       2
   -0.086956521739    0.130434782609    0.000000000000       2
   -0.065217391304    0.130434782609    0.000000000000       2
   -0.043478260870    0.130434782609    0.000000000000       2
   -0.021739130435    0.130434782609    0.000000000000       2
    0.000000000000    0.152173913043    0.000000000000       2
    0.021739130435    0.152173913043    0.000000000000       2
    0.043478260870    0.152173913043    0.000000000000       2
    0.065217391304    0.152173913043    0.000000000000       2
    0.086956521739    0.152173913043    0.000000000000       2
    0.108695652174    0.152173913043    0.000000000000       2
    0.130434782609    0.152173913043    0.000000000000       2
    0.152173913043    0.152173913043    0.000000000000       2
    0.173913043478    0.152173913043    0.000000000000       2
    0.195652173913    0.152173913043    0.000000000000       2
    0.217391304348    0.152173913043    0.000000000000       2
    0.239130434783    0.152173913043    0.000000000000       2
    0.260869565217    0.152173913043    0.000000000000       2
    0.282608695652    0.152173913043    0.000000000000       2
    0.304347826087    0.152173913043    0.000000000000       2
    0.326086956522    0.152173913043    0.000000000000       2
    0.347826086957    0.152173913043    0.000000000000       2
    0.369565217391    0.152173913043    0.000000000000       2
    0.391304347826    0.152173913043    0.000000000000       2
    0.413043478261    0.152173913043    0.000000000000       2
    0.434782608696    0.152173913043    0.000000000000       2
    0.456521739130    0.152173913043    0.000000000000       2
    0.478260869565    0.152173913043    0.000000000000       2
    0.500000000000    0.152173913043    0.000000000000       2
   -0.478260869565    0.152173913043    0.000000000000       2
   -0.456521739130    0.152173913043    0.000000000000       2
   -0.434782608696    0.152173913043    0.000000000000       2
   -0.413043478261    0.152173913043    0.000000000000       2
   -0.391304347826    0.152173913043    0.000000000000       2
   -0.369565217391    0.152173913043    0.000000000000       2
   -0.347826086957    0.152173913043    0.000000000000       2
   -0.326086956522    0.152173913043    0.000000000000       2
   -0.304347826087    0.152173913043    0.000000000000       2
   -0.282608695652    0.152173913043    0.000000000000       2
   -0.260869565217    0.152173913043    0.000000000000       2
   -0.239130434783    0.152173913043    0.000000000000       2
   -0.217391304348    0.152173913043    0.000000000000       2
   -0.195652173913    0.152173913043    0.000000000000       2
   -0.173913043478    0.152173913043    0.000000000000       2
   -0.152173913043    0.152173913043    0.000000000000       2
   -0.130434782609    0.152173913043    0.000000000000       2
   -0.108695652174    0.152173913043    0.000000000000       2
   -0.086956521739    0.152173913043    0.000000000000       2
   -0.065217391304    0.152173913043    0.000000000000       2
   -0.043478260870    0.152173913043    0.000000000000       2
   -0.021739130435    0.152173913043    0.000000000000       2
    0.000000000000    0.173913043478    0.000000000000       2
    0.021739130435    0.173913043478    0.000000000000       2
    0.043478260870    0.173913043478    0.000000000000       2
    0.065217391304    0.173913043478    0.000000000000       2
    0.086956521739    0.173913043478    0.000000000000       2
    0.108695652174    0.173913043478    0.000000000000       2
    0.130434782609    0.173913043478    0.000000000000       2
    0.152173913043    0.173913043478    0.000000000000       2
    0.173913043478    0.173913043478    0.000000000000       2
    0.195652173913    0.173913043478    0.000000000000       2
    0.217391304348    0.173913043478    0.000000000000       2
    0.239130434783    0.173913043478    0.000000000000       2
    0.260869565217    0.173913043478    0.000000000000       2
    0.282608695652    0.173913043478    0.000000000000       2
    0.304347826087    0.173913043478    0.000000000000       2
    0.326086956522    0.173913043478    0.000000000000       2
    0.347826086957    0.173913043478    0.000000000000       2
    0.369565217391    0.173913043478    0.000000000000       2
    0.391304347826    0.173913043478    0.000000000000       2
    0.413043478261    0.173913043478    0.000000000000       2
    0.434782608696    0.173913043478    0.000000000000       2
    0.456521739130    0.173913043478    0.000000000000       2
    0.478260869565    0.173913043478    0.000000000000       2
    0.500000000000    0.173913043478    0.000000000000       2
   -0.478260869565    0.173913043478    0.000000000000       2
   -0.456521739130    0.173913043478    0.000000000000       2
   -0.434782608696    0.173913043478    0.000000000000       2
   -0.413043478261    0.173913043478    0.000000000000       2
   -0.391304347826    0.173913043478    0.000000000000       2
   -0.369565217391    0.173913043478    0.000000000000       2
   -0.347826086957    0.173913043478    0.000000000000       2
   -0.326086956522    0.173913043478    0.000000000000       2
   -0.304347826087    0.173913043478    0.000000000000       2
   -0.282608695652    0.173913043478    0.000000000000       2
   -0.260869565217    0.173913043478    0.000000000000       2
   -0.239130434783    0.173913043478    0.000000000000       2
   -0.217391304348    0.173913043478    0.000000000000       2
   -0.195652173913    0.173913043478    0.000000000000       2
   -0.173913043478    0.173913043478    0.000000000000       2
   -0.152173913043    0.173913043478    0.000000000000       2
   -0.130434782609    0.173913043478    0.000000000000       2
   -0.108695652174    0.173913043478    0.000000000000       2
   -0.086956521739    0.173913043478    0.000000000000       2
   -0.065217391304    0.173913043478    0.000000000000       2
   -0.043478260870    0.173913043478    0.000000000000       2
   -0.021739130435    0.173913043478    0.000000000000       2
    0.000000000000    0.195652173913    0.000000000000       2
    0.021739130435    0.195652173913    0.000000000000       2
    0.043478260870    0.195652173913    0.000000000000       2
    0.065217391304    0.195652173913    0.000000000000       2
    0.086956521739    0.195652173913    0.000000000000       2
    0.108695652174    0.195652173913    0.000000000000       2
    0.130434782609    0.195652173913    0.000000000000       2
    0.152173913043    0.195652173913    0.000000000000       2
    0.173913043478    0.195652173913    0.000000000000       2
    0.195652173913    0.195652173913    0.000000000000       2
    0.217391304348    0.195652173913    0.000000000000       2
    0.239130434783    0.195652173913    0.000000000000       2
    0.260869565217    0.195652173913    0.000000000000       2
    0.282608695652    0.195652173913    0.000000000000       2
    0.304347826087    0.195652173913    0.000000000000       2
    0.326086956522    0.195652173913    0.000000000000       2
    0.347826086957    0.195652173913    0.000000000000       2
    0.369565217391    0.195652173913    0.000000000000       2
    0.391304347826    0.195652173913    0.000000000000       2
    0.413043478261    0.195652173913    0.000000000000       2
    0.434782608696    0.195652173913    0.000000000000       2
    0.456521739130    0.195652173913    0.000000000000       2
    0.478260869565    0.195652173913    0.000000000000       2
    0.500000000000    0.195652173913    0.000000000000       2
   -0.478260869565    0.195652173913    0.000000000000       2
   -0.456521739130    0.195652173913    0.000000000000       2
   -0.434782608696    0.195652173913    0.000000000000       2
   -0.413043478261    0.195652173913    0.000000000000       2
   -0.391304347826    0.195652173913    0.000000000000       2
   -0.369565217391    0.195652173913    0.000000000000       2
   -0.347826086957    0.195652173913    0.000000000000       2
   -0.326086956522    0.195652173913    0.000000000000       2
   -0.304347826087    0.195652173913    0.000000000000       2
   -0.282608695652    0.195652173913    0.000000000000       2
   -0.260869565217    0.195652173913    0.000000000000       2
   -0.239130434783    0.195652173913    0.000000000000       2
   -0.217391304348    0.195652173913    0.000000000000       2
   -0.195652173913    0.195652173913    0.000000000000       2
   -0.173913043478    0.195652173913    0.000000000000       2
   -0.152173913043    0.195652173913    0.000000000000       2
   -0.130434782609    0.195652173913    0.000000000000       2
   -0.108695652174    0.195652173913    0.000000000000       2
   -0.086956521739    0.195652173913    0.000000000000       2
   -0.065217391304    0.195652173913    0.000000000000       2
   -0.043478260870    0.195652173913    0.000000000000       2
   -0.021739130435    0.195652173913    0.000000000000       2
    0.000000000000    0.217391304348    0.000000000000       2
    0.021739130435    0.217391304348    0.000000000000       2
    0.043478260870    0.217391304348    0.000000000000       2
    0.065217391304    0.217391304348    0.000000000000       2
    0.086956521739    0.217391304348    0.000000000000       2
    0.108695652174    0.217391304348    0.000000000000       2
    0.130434782609    0.217391304348    0.000000000000       2
    0.152173913043    0.217391304348    0.000000000000       2
    0.173913043478    0.217391304348    0.000000000000       2
    0.195652173913    0.217391304348    0.000000000000       2
    0.217391304348    0.217391304348    0.000000000000       2
    0.239130434783    0.217391304348    0.000000000000       2
    0.260869565217    0.217391304348    0.000000000000       2
    0.282608695652    0.217391304348    0.000000000000       2
    0.304347826087    0.217391304348    0.000000000000       2
    0.326086956522    0.217391304348    0.000000000000       2
    0.347826086957    0.217391304348    0.000000000000       2
    0.369565217391    0.217391304348    0.000000000000       2
    0.391304347826    0.217391304348    0.000000000000       2
    0.413043478261    0.217391304348    0.000000000000       2
    0.434782608696    0.217391304348    0.000000000000       2
    0.456521739130    0.217391304348    0.000000000000       2
    0.478260869565    0.217391304348    0.000000000000       2
    0.500000000000    0.217391304348    0.000000000000       2
   -0.478260869565    0.217391304348    0.000000000000       2
   -0.456521739130    0.217391304348    0.000000000000       2
   -0.434782608696    0.217391304348    0.000000000000       2
   -0.413043478261    0.217391304348    0.000000000000       2
   -0.391304347826    0.217391304348    0.000000000000       2
   -0.369565217391    0.217391304348    0.000000000000       2
   -0.347826086957    0.217391304348    0.000000000000       2
   -0.326086956522    0.217391304348    0.000000000000       2
   -0.304347826087    0.217391304348    0.000000000000       2
   -0.282608695652    0.217391304348    0.000000000000       2
   -0.260869565217    0.217391304348    0.000000000000       2
   -0.239130434783    0.217391304348    0.000000000000       2