 Ce2 Zn2 P2 O2                          
   1.00000000000000     
     3.9584284714315925    0.0000000000000000    0.0000000000000000
     1.9792147358736696    3.4280958478379300    0.0000000000000000
     0.0000000000000000    0.0000000000000000   23.2442476518479992
   Ce   Zn   P    O 
     2     2     2     2
Direct
  0.3333332977973313  0.3333333813982264  0.5641824029407232
  0.0000000783983651  0.9999999494590526  0.4358278716299237
  0.9999998808392618  0.9999996156858089  0.6756683115843386
  0.3333332968029552  0.3333337002631467  0.3243160026246353
  0.6666669408405284  0.6666667421411461  0.3433175925967203
  0.6666663904208576  0.6666666990789381  0.6566747752189239
  0.3333332411069136  0.3333330160347998  0.4620854829126262
  0.9999998737937972  0.9999998959388847  0.5379275604921016
 
  0.00000000E+00  0.00000000E+00  0.00000000E+00
  0.00000000E+00  0.00000000E+00  0.00000000E+00
  0.00000000E+00  0.00000000E+00  0.00000000E+00
  0.00000000E+00  0.00000000E+00  0.00000000E+00
  0.00000000E+00  0.00000000E+00  0.00000000E+00
  0.00000000E+00  0.00000000E+00  0.00000000E+00
  0.00000000E+00  0.00000000E+00  0.00000000E+00
  0.00000000E+00  0.00000000E+00  0.00000000E+00
