CONTCAR\(7)                             
   1.00000000000000     
    12.3037004471000007    0.0000000000000000    0.0000000000000000
     6.1518502235000003   10.6553171476999999    0.0000000000000000
     0.0000000000000000    0.0000000000000000   24.8090991973999984
   Mn   In   Se
     9    18    36
Direct
  0.2222200009999966  0.2222199979999999  0.3276101565876466
  0.5555600010000035  0.2222199979999999  0.3276101565876466
  0.8888900789999994  0.2222199979999999  0.3276101565876466
  0.2222199899999993  0.5555600189999979  0.3276101565876466
  0.5555599509999993  0.5555600189999979  0.3276101565876466
  0.8888900290000024  0.5555600189999979  0.3276101565876466
  0.2222200309999991  0.8888900159999977  0.3276101565876466
  0.5555600300000023  0.8888900159999977  0.3276101565876466
  0.8888900310000025  0.8888900159999977  0.3276101565876466
  0.0000000000000000  0.0000000000000000  0.4859885344075841
  0.1111100010000001  0.1111099990000000  0.6537062764490084
  0.3333299999999966 -0.0000000000000000  0.4859885344075841
  0.4444400400000035  0.1111099990000000  0.6537062764490084
  0.6666700000000034  0.0000000000000000  0.4859885344075841
  0.7777799999999999  0.1111099990000000  0.6537062764490084
  0.9999999910000028  0.3333300190000017  0.4859885344075841
  0.1111100019999967  0.4444399959999998  0.6537062764490084
  0.3333299909999994  0.3333300190000017  0.4859885344075841
  0.4444400029999969  0.4444399959999998  0.6537062764490084
  0.6666699900000026  0.3333300190000017  0.4859885344075841
  0.7777800799999994  0.4444399959999998  0.6537062764490084
  0.9999999910000028  0.6666700179999978  0.4859885344075841
  0.1111100299999990  0.7777800169999978  0.6537062764490084
  0.3333299519999997  0.6666700179999978  0.4859885344075841
  0.4444400309999992  0.7777800169999978  0.6537062764490084
  0.6666700290000023  0.6666700179999978  0.4859885344075841
  0.7777800300000024  0.7777800169999978  0.6537062764490084
  0.0000000000000000  0.0000000000000000  0.2995992762363065
  0.0000000000000000  0.0000000000000000  0.7024724486083769
  0.2222200009999966  0.2222199979999999  0.4304122039765114
  0.1111100010000001  0.1111099990000000  0.5502211287345639
  0.3333299999999966  0.0000000000000000  0.2995992762363065
  0.3333299999999966  0.0000000000000000  0.7024724486083769
  0.5555600010000035  0.2222199979999999  0.4304122039765114
  0.4444400400000035  0.1111099990000000  0.5502211287345639
  0.6666700000000034  0.0000000000000000  0.2995992762363065
  0.6666700000000034 -0.0000000000000000  0.7024724486083769
  0.8888900789999994  0.2222199979999999  0.4304122039765114
  0.7777799999999999  0.1111099990000000  0.5502211287345639
  0.9999999910000028  0.3333300190000017  0.2995992762363065
  0.9999999910000028  0.3333300190000017  0.7024724486083769
  0.2222199899999993  0.5555600189999979  0.4304122039765114
  0.1111100019999967  0.4444399959999998  0.5502211287345639
  0.3333299909999994  0.3333300190000017  0.2995992762363065
  0.3333299909999994  0.3333300190000017  0.7024724486083769
  0.5555599509999993  0.5555600189999979  0.4304122039765114
  0.4444400029999969  0.4444399959999998  0.5502211287345639
  0.6666699900000026  0.3333300190000017  0.2995992762363065
  0.6666699900000026  0.3333300190000017  0.7024724486083769
  0.8888900290000024  0.5555600189999979  0.4304122039765114
  0.7777800799999994  0.4444399959999998  0.5502211287345639
  0.9999999910000028  0.6666700179999978  0.2995992762363065
  0.9999999910000028  0.6666700179999978  0.7024724486083769
  0.2222200309999991  0.8888900159999977  0.4304122039765114
  0.1111100299999990  0.7777800169999978  0.5502211287345639
  0.3333299519999997  0.6666700179999978  0.2995992762363065
  0.3333299519999997  0.6666700179999978  0.7024724486083769
  0.5555600300000023  0.8888900159999977  0.4304122039765114
  0.4444400309999992  0.7777800169999978  0.5502211287345639
  0.6666700290000023  0.6666700179999978  0.2995992762363065
  0.6666700290000023  0.6666700179999978  0.7024724486083769
  0.8888900310000025  0.8888900159999977  0.4304122039765114
  0.7777800300000024  0.7777800169999978  0.5502211287345639
 
  0.00000000E+00  0.00000000E+00  0.00000000E+00
  0.00000000E+00  0.00000000E+00  0.00000000E+00
  0.00000000E+00  0.00000000E+00  0.00000000E+00
  0.00000000E+00  0.00000000E+00  0.00000000E+00
  0.00000000E+00  0.00000000E+00  0.00000000E+00
  0.00000000E+00  0.00000000E+00  0.00000000E+00
  0.00000000E+00  0.00000000E+00  0.00000000E+00
  0.00000000E+00  0.00000000E+00  0.00000000E+00
  0.00000000E+00  0.00000000E+00  0.00000000E+00
  0.00000000E+00  0.00000000E+00  0.00000000E+00
  0.00000000E+00  0.00000000E+00  0.00000000E+00
  0.00000000E+00  0.00000000E+00  0.00000000E+00
  0.00000000E+00  0.00000000E+00  0.00000000E+00
  0.00000000E+00  0.00000000E+00  0.00000000E+00
  0.00000000E+00  0.00000000E+00  0.00000000E+00
  0.00000000E+00  0.00000000E+00  0.00000000E+00
  0.00000000E+00  0.00000000E+00  0.00000000E+00
  0.00000000E+00  0.00000000E+00  0.00000000E+00
  0.00000000E+00  0.00000000E+00  0.00000000E+00
  0.00000000E+00  0.00000000E+00  0.00000000E+00
  0.00000000E+00  0.00000000E+00  0.00000000E+00
  0.00000000E+00  0.00000000E+00  0.00000000E+00
  0.00000000E+00  0.00000000E+00  0.00000000E+00
  0.00000000E+00  0.00000000E+00  0.00000000E+00
  0.00000000E+00  0.00000000E+00  0.00000000E+00
  0.00000000E+00  0.00000000E+00  0.00000000E+00
  0.00000000E+00  0.00000000E+00  0.00000000E+00
  0.00000000E+00  0.00000000E+00  0.00000000E+00
  0.00000000E+00  0.00000000E+00  0.00000000E+00
  0.00000000E+00  0.00000000E+00  0.00000000E+00
  0.00000000E+00  0.00000000E+00  0.00000000E+00
  0.00000000E+00  0.00000000E+00  0.00000000E+00
  0.00000000E+00  0.00000000E+00  0.00000000E+00
  0.00000000E+00  0.00000000E+00  0.00000000E+00
  0.00000000E+00  0.00000000E+00  0.00000000E+00
  0.00000000E+00  0.00000000E+00  0.00000000E+00
  0.00000000E+00  0.00000000E+00  0.00000000E+00
  0.00000000E+00  0.00000000E+00  0.00000000E+00
  0.00000000E+00  0.00000000E+00  0.00000000E+00
  0.00000000E+00  0.00000000E+00  0.00000000E+00
  0.00000000E+00  0.00000000E+00  0.00000000E+00
  0.00000000E+00  0.00000000E+00  0.00000000E+00
  0.00000000E+00  0.00000000E+00  0.00000000E+00
  0.00000000E+00  0.00000000E+00  0.00000000E+00
  0.00000000E+00  0.00000000E+00  0.00000000E+00
  0.00000000E+00  0.00000000E+00  0.00000000E+00
  0.00000000E+00  0.00000000E+00  0.00000000E+00
  0.00000000E+00  0.00000000E+00  0.00000000E+00
  0.00000000E+00  0.00000000E+00  0.00000000E+00
  0.00000000E+00  0.00000000E+00  0.00000000E+00
  0.00000000E+00  0.00000000E+00  0.00000000E+00
  0.00000000E+00  0.00000000E+00  0.00000000E+00
  0.00000000E+00  0.00000000E+00  0.00000000E+00
  0.00000000E+00  0.00000000E+00  0.00000000E+00
  0.00000000E+00  0.00000000E+00  0.00000000E+00
  0.00000000E+00  0.00000000E+00  0.00000000E+00
  0.00000000E+00  0.00000000E+00  0.00000000E+00
  0.00000000E+00  0.00000000E+00  0.00000000E+00
  0.00000000E+00  0.00000000E+00  0.00000000E+00
  0.00000000E+00  0.00000000E+00  0.00000000E+00
  0.00000000E+00  0.00000000E+00  0.00000000E+00
  0.00000000E+00  0.00000000E+00  0.00000000E+00
  0.00000000E+00  0.00000000E+00  0.00000000E+00
