CONTCAR\(5)                             
   1.00000000000000     
    11.7456998825000003    0.0000000000000000    0.0000000000000000
     0.0000000000000000   17.6870002747000008    0.0000000000000000
     0.0000000000000000    0.0000000000000000   19.5771007537999999
   Ti   Ge   Te   O 
     6     6    36     1
Direct
  0.0832724731504229  0.4808066271657339  0.5102362536125256
  0.2495556867275042  0.9526105475252677  0.4895507378436079
  0.4169235870231986  0.4783018825668890  0.5167580781868253
  0.5851061534960351  0.9554775509649573  0.4833248302171995
  0.7518952182341110  0.4828414393596319  0.5147537876191421
  0.9185721010318844  0.9554150169257696  0.4871999821252899
  0.2591593439124651  0.8014292856746295  0.4817910031436199
  0.0881382196849856  0.6308167471888879  0.5259699989573363
  0.5867676377688227  0.8059458666389929  0.4721780665273627
  0.4274120893345597  0.6162276536572477  0.5749124841018372
  0.9198360442449953  0.8044730952943979  0.4798870619260072
  0.7502413897608875  0.6334979774406833  0.5235749523724351
  0.0834871178371017  0.9217887396747955  0.3832721966618351
  0.2499105205023966  0.2518751717031407  0.5652574319833406
  0.2577139533724733  0.0572207542870444  0.3794980061727955
  0.0826333263007371  0.8975405436972963  0.5852789307347663
  0.2403247131662809  0.4968450762411933  0.6231050969340330
  0.0802399933167592  0.3606252506918608  0.6069651137101104
  0.0761383133855844  0.1842158255169792  0.4392963843262123
  0.2506097089147374  0.7115579390067737  0.5975061919415623
  0.0882914773574583  0.7265058460236986  0.4139898757897598
  0.2524649478194547  0.3866769567381994  0.4503251877544869
  0.0851263214836564  0.0517890247360455  0.5448523816691875
  0.2582595995445871  0.5422156328875900  0.4219222463934287
  0.4051689142760750  0.9189330618690263  0.3788245541821169
  0.5874763370798917  0.2554763706022243  0.5726506632169475
  0.5846718179703387  0.0626380364766135  0.3747095942754157
  0.4223612993717580  0.9003955978860247  0.5831442558570359
  0.5824952421207144  0.4990940082420678  0.6373988286185792
  0.4122789364774633  0.3611349483301183  0.6170942655791052
  0.4161699530568868  0.1750393369140539  0.4209067945885252
  0.5916559911669594  0.7239569124275747  0.5875631799753833
  0.4206910132057686  0.7366683752560235  0.4024919859536382
  0.5855326472856035  0.3833376685992462  0.4608905798952421
  0.4188157317322521  0.0535623154551814  0.5385880846909501
  0.5794689162921998  0.5398185355008636  0.4243788191672451
  0.7531072377518271  0.9279005991408837  0.3772859286891901
  0.9179626961940954  0.2507718547690487  0.5403615769104633
  0.9235217533198394  0.0663562772523250  0.3815981002625648
  0.7493903617427264  0.9039913674623605  0.5829628682436834
  0.9179348491663362  0.5078595075992638  0.6179850976953531
  0.7570956111481024  0.3666613683757731  0.6173546786831352
  0.7457924996332110  0.1754133026315259  0.4137776305330618
  0.9192081572089137  0.7090770771809574  0.5918439907680693
  0.7552229845192286  0.7254160905483644  0.4095955424823430
  0.9130767591609157  0.3901163968448884  0.4471670645961154
  0.7493694298400797  0.0552221600351928  0.5393681676260798
  0.9177676883815238  0.5478959213253418  0.4185734904972946
  0.4818435115261792  0.5912022136672945  0.6613881483077506
 
  0.00000000E+00  0.00000000E+00  0.00000000E+00
  0.00000000E+00  0.00000000E+00  0.00000000E+00
  0.00000000E+00  0.00000000E+00  0.00000000E+00
  0.00000000E+00  0.00000000E+00  0.00000000E+00
  0.00000000E+00  0.00000000E+00  0.00000000E+00
  0.00000000E+00  0.00000000E+00  0.00000000E+00
  0.00000000E+00  0.00000000E+00  0.00000000E+00
  0.00000000E+00  0.00000000E+00  0.00000000E+00
  0.00000000E+00  0.00000000E+00  0.00000000E+00
  0.00000000E+00  0.00000000E+00  0.00000000E+00
  0.00000000E+00  0.00000000E+00  0.00000000E+00
  0.00000000E+00  0.00000000E+00  0.00000000E+00
  0.00000000E+00  0.00000000E+00  0.00000000E+00
  0.00000000E+00  0.00000000E+00  0.00000000E+00
  0.00000000E+00  0.00000000E+00  0.00000000E+00
  0.00000000E+00  0.00000000E+00  0.00000000E+00
  0.00000000E+00  0.00000000E+00  0.00000000E+00
  0.00000000E+00  0.00000000E+00  0.00000000E+00
  0.00000000E+00  0.00000000E+00  0.00000000E+00
  0.00000000E+00  0.00000000E+00  0.00000000E+00
  0.00000000E+00  0.00000000E+00  0.00000000E+00
  0.00000000E+00  0.00000000E+00  0.00000000E+00
  0.00000000E+00  0.00000000E+00  0.00000000E+00
  0.00000000E+00  0.00000000E+00  0.00000000E+00
  0.00000000E+00  0.00000000E+00  0.00000000E+00
  0.00000000E+00  0.00000000E+00  0.00000000E+00
  0.00000000E+00  0.00000000E+00  0.00000000E+00
  0.00000000E+00  0.00000000E+00  0.00000000E+00
  0.00000000E+00  0.00000000E+00  0.00000000E+00
  0.00000000E+00  0.00000000E+00  0.00000000E+00
  0.00000000E+00  0.00000000E+00  0.00000000E+00
  0.00000000E+00  0.00000000E+00  0.00000000E+00
  0.00000000E+00  0.00000000E+00  0.00000000E+00
  0.00000000E+00  0.00000000E+00  0.00000000E+00
  0.00000000E+00  0.00000000E+00  0.00000000E+00
  0.00000000E+00  0.00000000E+00  0.00000000E+00
  0.00000000E+00  0.00000000E+00  0.00000000E+00
  0.00000000E+00  0.00000000E+00  0.00000000E+00
  0.00000000E+00  0.00000000E+00  0.00000000E+00
  0.00000000E+00  0.00000000E+00  0.00000000E+00
  0.00000000E+00  0.00000000E+00  0.00000000E+00
  0.00000000E+00  0.00000000E+00  0.00000000E+00
  0.00000000E+00  0.00000000E+00  0.00000000E+00
  0.00000000E+00  0.00000000E+00  0.00000000E+00
  0.00000000E+00  0.00000000E+00  0.00000000E+00
  0.00000000E+00  0.00000000E+00  0.00000000E+00
  0.00000000E+00  0.00000000E+00  0.00000000E+00
  0.00000000E+00  0.00000000E+00  0.00000000E+00
  0.00000000E+00  0.00000000E+00  0.00000000E+00
