Repeated-UnitCell:     1    2    1      
   1.00000000000000     
    13.8203001021999992    0.0000000000000000    0.0000000000000000
     3.4150798847999999   30.0147414417999983    0.0000000000000000
     0.0000000000000000    0.0000000000000000   18.4675998688000007
   Nb   Ir   Se
    36     4    80
Direct
  0.0856664482569442  0.0917003345953731  0.5029634825966056
  0.0856664482569442  0.5917003345953731  0.5029634825966056
  0.0052389879523673  0.4892364491732621  0.4959394775172399
  0.0052389879523673  0.9892364491732621  0.4959394775172399
  0.4002703625763644  0.4008904461920508  0.4990428677550582
  0.4002703625763644  0.9008904461920508  0.4990428677550582
  0.2942167952859194  0.3116580837130698  0.5014569456953524
  0.2942167952859194  0.8116580837130698  0.5014569456953524
  0.2509135990153837  0.4914496499057606  0.4978783062305752
  0.2509135990153837  0.9914496499057606  0.4978783062305752
  0.1901569567543788  0.2122543525994303  0.5060799256072812
  0.1901569567543788  0.7122543525994303  0.5060799256072812
  0.1495399844720353  0.4018850024615119  0.4992312038516431
  0.1495399844720353  0.9018850024615119  0.4992312038516431
  0.0458271282825677  0.3110372548535238  0.5010468124173926
  0.0458271282825677  0.8110372548535238  0.5010468124173926
  0.4449463382207597  0.1912775667133531  0.4987875390486778
  0.4449463382207597  0.6912775667133531  0.4987875390486778
  0.5856664302569428  0.0917003345953731  0.5029634825966056
  0.5856664302569428  0.5917003345953731  0.5029634825966056
  0.5052389969523716  0.4892364491732621  0.4959394775172399
  0.5052389969523716  0.9892364491732621  0.4959394775172399
  0.9002703625763644  0.4008904461920508  0.4990428677550582
  0.9002703625763644  0.9008904461920508  0.4990428677550582
  0.7942168292859151  0.3116580837130698  0.5014569456953524
  0.7942168292859151  0.8116580837130698  0.5014569456953524
  0.7509136330153865  0.4914496499057606  0.4978783062305752
  0.7509136330153865  0.9914496499057606  0.4978783062305752
  0.6901569567543788  0.2122543525994303  0.5060799256072812
  0.6901569567543788  0.7122543525994303  0.5060799256072812
  0.6495300304720359  0.4018850024615119  0.4992312038516431
  0.6495300304720359  0.9018850024615119  0.4992312038516431
  0.5458271022825727  0.3110372548535238  0.5010468124173926
  0.5458271022825727  0.8110372548535238  0.5010468124173926
  0.9449463382207597  0.1912775667133531  0.4987875390486778
  0.9449463382207597  0.6912775667133531  0.4987875390486778
  0.3688843964849724  0.1049706710283687  0.4988118743248222
  0.3688843964849724  0.6049706710283687  0.4988118743248222
  0.8688843614849731  0.1049706710283687  0.4988118743248222
  0.8688843614849731  0.6049706710283687  0.4988118743248222
  0.4705464340793526  0.1329947368533198  0.5981151093678534
  0.4705464340793526  0.6329947368533198  0.5981151093678534
  0.0836607941034089  0.1675515469315272  0.4157277140544622
  0.0836607941034089  0.6675515469315201  0.4157277140544622
  0.3674722576326914  0.0354179122622682  0.5751926438943968
  0.3674722576326914  0.5354179122622611  0.5751926438943968
  0.4836143103733406  0.0641240606513449  0.4069713999193922
  0.4836143103733406  0.5641240606513520  0.4069713999193922
  0.2678405164892510  0.4328453396837091  0.5948984840218472
  0.2678405164892510  0.9328453396837091  0.5948984840218472
  0.2212443684249337  0.1334273730367670  0.5730635726472855
  0.2212443684249337  0.6334273730367670  0.5730635726472855
  0.3816896783206261  0.4663242955531075  0.4024562220593637
  0.3816896783206261  0.9663242955531075  0.4024562220593637
  0.3268668775949308  0.1680433314316261  0.4102854596083674
  0.3268668775949308  0.6680433314316190  0.4102854596083674
  0.1638731464867504  0.3369255637985589  0.5965737884285218
  0.1638731464867504  0.8369255637985589  0.5965737884285218
  0.1138252762699921  0.0287129726212214  0.5906875450563618
  0.1138252762699921  0.5287129726212214  0.5906875450563618
  0.2412160142700372  0.0699040004214737  0.4240264302440551
  0.2412160142700372  0.5699040004214737  0.4240264302440551
  0.2822603774527153  0.3699535803536733  0.4040600916217372
  0.2822603774527153  0.8699535803536733  0.4040600916217372
  0.0585047648744847  0.2372721754515581  0.5906742871296302
  0.0585047648744847  0.7372721754515581  0.5906742871296302
  0.0161166664853951  0.4319185377552159  0.5949721715088003
  0.0161166664853951  0.9319185377552159  0.5949721715088003
  0.1798004925793038  0.2716452876495978  0.4102524406785975
  0.1798004925793038  0.7716452876495978  0.4102524406785975
  0.1348904259786750  0.4666262971857407  0.4003503193318920
  0.1348904259786750  0.9666262971857407  0.4003503193318920
  0.4142405108086109  0.3363380533996221  0.5962340635869907
  0.4142405108086109  0.8363380533996221  0.5962340635869907
  0.0317429609088506  0.3697703766710561  0.4040221510523097
  0.0317429609088506  0.8697703766710561  0.4040221510523097
  0.3180813583218480  0.2370222843988117  0.5880726322005572
  0.3180813583218480  0.7370222843988117  0.5880726322005572
  0.4303016292431039  0.2676375111541134  0.4221050265429156
  0.4303016292431039  0.7676375111541205  0.4221050265429156
  0.9705463990793461  0.1329947368533198  0.5981151093678534
  0.9705463990793461  0.6329947368533198  0.5981151093678534
  0.5836607941034089  0.1675515469315272  0.4157277140544622
  0.5836607941034089  0.6675515469315201  0.4157277140544622
  0.8674723266326936  0.0354179122622682  0.5751926438943968
  0.8674723266326936  0.5354179122622611  0.5751926438943968
  0.9836143453733399  0.0641240606513449  0.4069713999193922
  0.9836143453733399  0.5641240606513520  0.4069713999193922
  0.7678405164892510  0.4328453396837091  0.5948984840218472
  0.7678405164892510  0.9328453396837091  0.5948984840218472
  0.7212442994249386  0.1334273730367670  0.5730635726472855
  0.7212442994249386  0.6334273730367670  0.5730635726472855
  0.8816897123206289  0.4663242955531075  0.4024562220593637
  0.8816897123206289  0.9663242955531075  0.4024562220593637
  0.8268669125949302  0.1680433314316261  0.4102854596083674
  0.8268669125949302  0.6680433314316190  0.4102854596083674
  0.6638732504867519  0.3369255637985589  0.5965737884285218
  0.6638732504867519  0.8369255637985589  0.5965737884285218
  0.6138253192699921  0.0287129726212214  0.5906875450563618
  0.6138253192699921  0.5287129726212214  0.5906875450563618
  0.7412160142700372  0.0699040004214737  0.4240264302440551
  0.7412160142700372  0.5699040004214737  0.4240264302440551
  0.7822604124527146  0.3699535803536733  0.4040600916217372
  0.7822604124527146  0.8699535803536733  0.4040600916217372
  0.5585047558744876  0.2372721754515581  0.5906742871296302
  0.5585047558744876  0.7372721754515581  0.5906742871296302
  0.5161166494853973  0.4319185377552159  0.5949721715088003
  0.5161166494853973  0.9319185377552159  0.5949721715088003
  0.6798004925793038  0.2716452876495978  0.4102524406785975
  0.6798004925793038  0.7716452876495978  0.4102524406785975
  0.6348904259786750  0.4666262971857407  0.4003503193318920
  0.6348904259786750  0.9666262971857407  0.4003503193318920
  0.9142404768086081  0.3363380533996221  0.5962340635869907
  0.9142404768086081  0.8363380533996221  0.5962340635869907
  0.5317429269088478  0.3697703766710561  0.4040221510523097
  0.5317429269088478  0.8697703766710561  0.4040221510523097
  0.8180813583218480  0.2370222843988117  0.5880726322005572
  0.8180813583218480  0.7370222843988117  0.5880726322005572
  0.9303016292431039  0.2676375111541134  0.4221050265429156
  0.9303016292431039  0.7676375111541205  0.4221050265429156
 
  0.00000000E+00  0.00000000E+00  0.00000000E+00
  0.00000000E+00  0.00000000E+00  0.00000000E+00
  0.00000000E+00  0.00000000E+00  0.00000000E+00
  0.00000000E+00  0.00000000E+00  0.00000000E+00
  0.00000000E+00  0.00000000E+00  0.00000000E+00
  0.00000000E+00  0.00000000E+00  0.00000000E+00
  0.00000000E+00  0.00000000E+00  0.00000000E+00
  0.00000000E+00  0.00000000E+00  0.00000000E+00
  0.00000000E+00  0.00000000E+00  0.00000000E+00
  0.00000000E+00  0.00000000E+00  0.00000000E+00
  0.00000000E+00  0.00000000E+00  0.00000000E+00
  0.00000000E+00  0.00000000E+00  0.00000000E+00
  0.00000000E+00  0.00000000E+00  0.00000000E+00
  0.00000000E+00  0.00000000E+00  0.00000000E+00
  0.00000000E+00  0.00000000E+00  0.00000000E+00
  0.00000000E+00  0.00000000E+00  0.00000000E+00
  0.00000000E+00  0.00000000E+00  0.00000000E+00
  0.00000000E+00  0.00000000E+00  0.00000000E+00
  0.00000000E+00  0.00000000E+00  0.00000000E+00
  0.00000000E+00  0.00000000E+00  0.00000000E+00
  0.00000000E+00  0.00000000E+00  0.00000000E+00
  0.00000000E+00  0.00000000E+00  0.00000000E+00
  0.00000000E+00  0.00000000E+00  0.00000000E+00
  0.00000000E+00  0.00000000E+00  0.00000000E+00
  0.00000000E+00  0.00000000E+00  0.00000000E+00
  0.00000000E+00  0.00000000E+00  0.00000000E+00
  0.00000000E+00  0.00000000E+00  0.00000000E+00
  0.00000000E+00  0.00000000E+00  0.00000000E+00
  0.00000000E+00  0.00000000E+00  0.00000000E+00
  0.00000000E+00  0.00000000E+00  0.00000000E+00
  0.00000000E+00  0.00000000E+00  0.00000000E+00
  0.00000000E+00  0.00000000E+00  0.00000000E+00
  0.00000000E+00  0.00000000E+00  0.00000000E+00
  0.00000000E+00  0.00000000E+00  0.00000000E+00
  0.00000000E+00  0.00000000E+00  0.00000000E+00
  0.00000000E+00  0.00000000E+00  0.00000000E+00
  0.00000000E+00  0.00000000E+00  0.00000000E+00
  0.00000000E+00  0.00000000E+00  0.00000000E+00
  0.00000000E+00  0.00000000E+00  0.00000000E+00
  0.00000000E+00  0.00000000E+00  0.00000000E+00
  0.00000000E+00  0.00000000E+00  0.00000000E+00
  0.00000000E+00  0.00000000E+00  0.00000000E+00
  0.00000000E+00  0.00000000E+00  0.00000000E+00
  0.00000000E+00  0.00000000E+00  0.00000000E+00
  0.00000000E+00  0.00000000E+00  0.00000000E+00
  0.00000000E+00  0.00000000E+00  0.00000000E+00
  0.00000000E+00  0.00000000E+00  0.00000000E+00
  0.00000000E+00  0.00000000E+00  0.00000000E+00
  0.00000000E+00  0.00000000E+00  0.00000000E+00
  0.00000000E+00  0.00000000E+00  0.00000000E+00
  0.00000000E+00  0.00000000E+00  0.00000000E+00
  0.00000000E+00  0.00000000E+00  0.00000000E+00
  0.00000000E+00  0.00000000E+00  0.00000000E+00
  0.00000000E+00  0.00000000E+00  0.00000000E+00
  0.00000000E+00  0.00000000E+00  0.00000000E+00
  0.00000000E+00  0.00000000E+00  0.00000000E+00
  0.00000000E+00  0.00000000E+00  0.00000000E+00
  0.00000000E+00  0.00000000E+00  0.00000000E+00
  0.00000000E+00  0.00000000E+00  0.00000000E+00
  0.00000000E+00  0.00000000E+00  0.00000000E+00
  0.00000000E+00  0.00000000E+00  0.00000000E+00
  0.00000000E+00  0.00000000E+00  0.00000000E+00
  0.00000000E+00  0.00000000E+00  0.00000000E+00
  0.00000000E+00  0.00000000E+00  0.00000000E+00
  0.00000000E+00  0.00000000E+00  0.00000000E+00
  0.00000000E+00  0.00000000E+00  0.00000000E+00
  0.00000000E+00  0.00000000E+00  0.00000000E+00
  0.00000000E+00  0.00000000E+00  0.00000000E+00
  0.00000000E+00  0.00000000E+00  0.00000000E+00
  0.00000000E+00  0.00000000E+00  0.00000000E+00
  0.00000000E+00  0.00000000E+00  0.00000000E+00
  0.00000000E+00  0.00000000E+00  0.00000000E+00
  0.00000000E+00  0.00000000E+00  0.00000000E+00
  0.00000000E+00  0.00000000E+00  0.00000000E+00
  0.00000000E+00  0.00000000E+00  0.00000000E+00
  0.00000000E+00  0.00000000E+00  0.00000000E+00
  0.00000000E+00  0.00000000E+00  0.00000000E+00
  0.00000000E+00  0.00000000E+00  0.00000000E+00
  0.00000000E+00  0.00000000E+00  0.00000000E+00
  0.00000000E+00  0.00000000E+00  0.00000000E+00
  0.00000000E+00  0.00000000E+00  0.00000000E+00
  0.00000000E+00  0.00000000E+00  0.00000000E+00
  0.00000000E+00  0.00000000E+00  0.00000000E+00
  0.00000000E+00  0.00000000E+00  0.00000000E+00
  0.00000000E+00  0.00000000E+00  0.00000000E+00
  0.00000000E+00  0.00000000E+00  0.00000000E+00
  0.00000000E+00  0.00000000E+00  0.00000000E+00
  0.00000000E+00  0.00000000E+00  0.00000000E+00
  0.00000000E+00  0.00000000E+00  0.00000000E+00
  0.00000000E+00  0.00000000E+00  0.00000000E+00
  0.00000000E+00  0.00000000E+00  0.00000000E+00
  0.00000000E+00  0.00000000E+00  0.00000000E+00
  0.00000000E+00  0.00000000E+00  0.00000000E+00
  0.00000000E+00  0.00000000E+00  0.00000000E+00
  0.00000000E+00  0.00000000E+00  0.00000000E+00
  0.00000000E+00  0.00000000E+00  0.00000000E+00
  0.00000000E+00  0.00000000E+00  0.00000000E+00
  0.00000000E+00  0.00000000E+00  0.00000000E+00
  0.00000000E+00  0.00000000E+00  0.00000000E+00
  0.00000000E+00  0.00000000E+00  0.00000000E+00
  0.00000000E+00  0.00000000E+00  0.00000000E+00
  0.00000000E+00  0.00000000E+00  0.00000000E+00
  0.00000000E+00  0.00000000E+00  0.00000000E+00
  0.00000000E+00  0.00000000E+00  0.00000000E+00
  0.00000000E+00  0.00000000E+00  0.00000000E+00
  0.00000000E+00  0.00000000E+00  0.00000000E+00
  0.00000000E+00  0.00000000E+00  0.00000000E+00
  0.00000000E+00  0.00000000E+00  0.00000000E+00
  0.00000000E+00  0.00000000E+00  0.00000000E+00
  0.00000000E+00  0.00000000E+00  0.00000000E+00
  0.00000000E+00  0.00000000E+00  0.00000000E+00
  0.00000000E+00  0.00000000E+00  0.00000000E+00
  0.00000000E+00  0.00000000E+00  0.00000000E+00
  0.00000000E+00  0.00000000E+00  0.00000000E+00
  0.00000000E+00  0.00000000E+00  0.00000000E+00
  0.00000000E+00  0.00000000E+00  0.00000000E+00
  0.00000000E+00  0.00000000E+00  0.00000000E+00
  0.00000000E+00  0.00000000E+00  0.00000000E+00
  0.00000000E+00  0.00000000E+00  0.00000000E+00
  0.00000000E+00  0.00000000E+00  0.00000000E+00
