CONTCAR\(2)                             
   1.00000000000000     
    11.1906995773000002    0.0000000000000000    0.0000000000000000
     0.0000000000000000   11.1906995773000002    0.0000000000000000
     0.0000000000000000    0.0000000000000000   22.0060005188000005
   Zr   Ge   Te   O    H 
    18    18    18     1     1
Direct
  0.1666733805064951  0.9999016378089536  0.4017352152604730
  0.9968158545758001  0.1640611755206862  0.5979675149469657
  0.4987862369204166  0.9998478861309792  0.4018876597608951
  0.3322710372261284  0.1673786900688441  0.5999021449734130
  0.8327145672708625  0.9998615446206642  0.4007943715030535
  0.6685845265118289  0.1641493750704157  0.5980931758347552
  0.1668594716905218  0.3339246826424258  0.4031494221379788
  0.0007644062637695  0.4998258752362545  0.6001620653481652
  0.4986761669265647  0.3338959602332636  0.4032009476130511
  0.3331596397637000  0.4998459684668504  0.6101763147272408
  0.8327040724951758  0.3338940718900503  0.4019059374534706
  0.6652151066389678  0.4995201768772404  0.6000364750566547
  0.1667866680137351  0.6658643465199603  0.4031395551072663
  0.9967988576771845  0.8356778211631095  0.5979974113709474
  0.4985803275983756  0.6658178090377618  0.4032647895963919
  0.3318210115800184  0.8324470978394132  0.5998976034682286
  0.8326716534008298  0.6658884208062972  0.4019487126420387
  0.6684500683353747  0.8355238654865786  0.5981038377881376
  0.1661799552025087  0.1662944993487159  0.5005813990296275
  0.9994385018388385  0.9998853160501966  0.4991879758644089
  0.4990001623677500  0.1663205637857459  0.5007785682879486
  0.3326654466534151  0.9998562643143885  0.5008024872892420
  0.8326761541823373  0.1667118632146440  0.4992838276183420
  0.6658877714585287  0.9998135335700411  0.4993799727998365
  0.1670648661703851  0.4998275395082317  0.5029660232109663
  0.9992833929775031  0.3336694393813389  0.5007401173441792
  0.4979677678775190  0.4998275334712261  0.5031785165090241
  0.3326378416635976  0.3338187281709253  0.5027892706225501
  0.8328104955361297  0.4998517018427222  0.5009909276151916
  0.6661169574876595  0.3336177742107509  0.5007678509417985
  0.1661124475383318  0.8335081718032100  0.5005832788870492
  0.9992356412836756  0.6660885033043940  0.5007873069996265
  0.4988759249199433  0.8334013304782601  0.5008066453085434
  0.3325721961172761  0.6658648370024309  0.5028582738092808
  0.8326335182859950  0.8330474211403569  0.4993212090881158
  0.6660429381533675  0.6660486728763715  0.5008069913209781
  0.1656259141714145  0.9999234657923637  0.6598803694191702
  0.0000997266487630  0.1674917925211545  0.3407674575377229
  0.4992438515642661  0.9997608562421689  0.6599754281726433
  0.3329443879946368  0.1673524778324236  0.3410470999022408
  0.8324650851492947  0.9997633645158359  0.6615878878283041
  0.6654829004244220  0.1672727147344375  0.3407247177213719
  0.1572853087416490  0.3239424929396790  0.6600932495735421
  0.0001347630641675  0.4999347755890469  0.3410784226917301
  0.5076777769530949  0.3241105494727421  0.6601581788466504
  0.3327640051066041  0.4998984537067841  0.3416576718427535
  0.8328128761556854  0.3332692659514507  0.6600264421038347
  0.6651364789733520  0.4999229842279789  0.3412954292186328
  0.1569947455783307  0.6757555921953582  0.6603028857623983
  0.0000843593310051  0.8323039872272702  0.3407780384065759
  0.5074036989031327  0.6752663834647876  0.6598780339870629
  0.3328882789591177  0.8323944118080391  0.3410512078354984
  0.8326853346050527  0.6664184789926679  0.6600003853225971
  0.6654010960849419  0.8324512290948292  0.3407135928266882
  0.3243840836865459  0.4968697100200430  0.7046661317082155
  0.3866803147939990  0.5149368267772161  0.7340739101565532
 
  0.00000000E+00  0.00000000E+00  0.00000000E+00
  0.00000000E+00  0.00000000E+00  0.00000000E+00
  0.00000000E+00  0.00000000E+00  0.00000000E+00
  0.00000000E+00  0.00000000E+00  0.00000000E+00
  0.00000000E+00  0.00000000E+00  0.00000000E+00
  0.00000000E+00  0.00000000E+00  0.00000000E+00
  0.00000000E+00  0.00000000E+00  0.00000000E+00
  0.00000000E+00  0.00000000E+00  0.00000000E+00
  0.00000000E+00  0.00000000E+00  0.00000000E+00
  0.00000000E+00  0.00000000E+00  0.00000000E+00
  0.00000000E+00  0.00000000E+00  0.00000000E+00
  0.00000000E+00  0.00000000E+00  0.00000000E+00
  0.00000000E+00  0.00000000E+00  0.00000000E+00
  0.00000000E+00  0.00000000E+00  0.00000000E+00
  0.00000000E+00  0.00000000E+00  0.00000000E+00
  0.00000000E+00  0.00000000E+00  0.00000000E+00
  0.00000000E+00  0.00000000E+00  0.00000000E+00
  0.00000000E+00  0.00000000E+00  0.00000000E+00
  0.00000000E+00  0.00000000E+00  0.00000000E+00
  0.00000000E+00  0.00000000E+00  0.00000000E+00
  0.00000000E+00  0.00000000E+00  0.00000000E+00
  0.00000000E+00  0.00000000E+00  0.00000000E+00
  0.00000000E+00  0.00000000E+00  0.00000000E+00
  0.00000000E+00  0.00000000E+00  0.00000000E+00
  0.00000000E+00  0.00000000E+00  0.00000000E+00
  0.00000000E+00  0.00000000E+00  0.00000000E+00
  0.00000000E+00  0.00000000E+00  0.00000000E+00
  0.00000000E+00  0.00000000E+00  0.00000000E+00
  0.00000000E+00  0.00000000E+00  0.00000000E+00
  0.00000000E+00  0.00000000E+00  0.00000000E+00
  0.00000000E+00  0.00000000E+00  0.00000000E+00
  0.00000000E+00  0.00000000E+00  0.00000000E+00
  0.00000000E+00  0.00000000E+00  0.00000000E+00
  0.00000000E+00  0.00000000E+00  0.00000000E+00
  0.00000000E+00  0.00000000E+00  0.00000000E+00
  0.00000000E+00  0.00000000E+00  0.00000000E+00
  0.00000000E+00  0.00000000E+00  0.00000000E+00
  0.00000000E+00  0.00000000E+00  0.00000000E+00
  0.00000000E+00  0.00000000E+00  0.00000000E+00
  0.00000000E+00  0.00000000E+00  0.00000000E+00
  0.00000000E+00  0.00000000E+00  0.00000000E+00
  0.00000000E+00  0.00000000E+00  0.00000000E+00
  0.00000000E+00  0.00000000E+00  0.00000000E+00
  0.00000000E+00  0.00000000E+00  0.00000000E+00
  0.00000000E+00  0.00000000E+00  0.00000000E+00
  0.00000000E+00  0.00000000E+00  0.00000000E+00
  0.00000000E+00  0.00000000E+00  0.00000000E+00
  0.00000000E+00  0.00000000E+00  0.00000000E+00
  0.00000000E+00  0.00000000E+00  0.00000000E+00
  0.00000000E+00  0.00000000E+00  0.00000000E+00
  0.00000000E+00  0.00000000E+00  0.00000000E+00
  0.00000000E+00  0.00000000E+00  0.00000000E+00
  0.00000000E+00  0.00000000E+00  0.00000000E+00
  0.00000000E+00  0.00000000E+00  0.00000000E+00
  0.00000000E+00  0.00000000E+00  0.00000000E+00
  0.00000000E+00  0.00000000E+00  0.00000000E+00
