This file is generated by VASPKIT code  
   1.00000000000000     
    11.6057996750000001    0.0000000000000000    0.0000000000000000
     5.8028893088000002   10.0513859331000006    0.0000000000000000
     0.0000000000000000    0.0000000000000000   18.0372009276999989
   Ni   P    S    O 
     8     8    23     8
Direct
  0.1715182105311105  0.1631371783962588  0.5028462975383683
  0.1510723306642367  0.6749131004965756  0.4977724356391528
  0.6677932247834342  0.1580507694675999  0.5053765839876164
  0.6749039884737750  0.6597589858605304  0.5082021548378037
  0.3401831391928735  0.3248647420143793  0.5083322652767741
  0.3249991222016788  0.8489128200399493  0.4978752347930860
  0.8417761079471844  0.3322724358960452  0.5053506255994211
  0.8367859820038426  0.8284211112473298  0.5027109903453769
  0.0024289760074359 -0.0026273663954702  0.6096781930773183
  0.0095373998438408  0.4988486763585114  0.6132599176459276
  0.5011524732925209 -0.0097232531948367  0.6132920297768404
  0.4987885122808221  0.5010114913525261  0.5487930275683456
 -0.0009960590274467  0.0010154522784037  0.3983711734603103
  0.0027385749364022  0.4962056082245248  0.3936098930597974
  0.5037581636611564 -0.0027425819666008  0.3936659381980244
  0.4944438228493128  0.5056300410768784  0.3837580445082250
  0.3238718592549210  0.1719595638196977  0.5816164920829892
  0.8218837777502627  0.1779406985480438  0.5761429060064962
  0.8278561538820894  0.6760125168259890  0.5814771620532445
  0.0005094521733714  0.1818323437020154  0.4287746719953430
  0.9907824166180488  0.6808517478229175  0.4183442056412365
  0.5024124221040399  0.1762048877979461  0.4271950674077140
  0.4981484566765251  0.6726920241795655  0.4383954844515234
  0.3191357313660521  0.0091906967455898  0.4185392349157513
  0.3275495303804760  0.5017755182213267  0.4384827187563636
  0.8181459520900620 -0.0004798261479465  0.4287573555912620
  0.8236938582901636  0.4976776055283086  0.4269934113493738
  0.1834900645145680 -0.0034764645537068  0.5780865508385807
  0.1829061233132523  0.5071765443909921  0.5767043748901677
  0.6817261546413930 -0.0101907266553165  0.5816678777820877
  0.6899538126845169  0.4886943699371054  0.5800505150577238
  0.0098086697560223  0.3183624792712428  0.5816118210003247
  0.0033129115378519  0.8162387880247660  0.5779962597495679
  0.5113051427082794  0.3098922121730208  0.5801443093909842
  0.4927206902120845  0.8169729795752709  0.5767678928562516
  0.1851092243091962  0.3205345958719671  0.4302457034890075
  0.1810914761767111  0.8189014554449322  0.4334672947430252
  0.6669507741030005  0.3330517441490400  0.4281083383458920
  0.6794026827657000  0.8148545390500705  0.4301524671643902
  0.5037885568178889 -0.0131834319590681  0.6956694842180177
  0.3930662366285997  0.6068287915129029  0.5966014065497010
  0.0031027856178492 -0.0032998144726569  0.6920756500895607
  0.0131929935714274  0.4960753211429716  0.6956325688555350
  0.0096713743917122  0.4818450521956082  0.3114898104840373
  0.0042909040630220  0.9956134963799402  0.3161066219023175
  0.4857648702176895  0.5143892452764672  0.3021175096570762
  0.5178484397410580  0.9905397050484308  0.3115293783720446
 
  0.00000000E+00  0.00000000E+00  0.00000000E+00
  0.00000000E+00  0.00000000E+00  0.00000000E+00
  0.00000000E+00  0.00000000E+00  0.00000000E+00
  0.00000000E+00  0.00000000E+00  0.00000000E+00
  0.00000000E+00  0.00000000E+00  0.00000000E+00
  0.00000000E+00  0.00000000E+00  0.00000000E+00
  0.00000000E+00  0.00000000E+00  0.00000000E+00
  0.00000000E+00  0.00000000E+00  0.00000000E+00
  0.00000000E+00  0.00000000E+00  0.00000000E+00
  0.00000000E+00  0.00000000E+00  0.00000000E+00
  0.00000000E+00  0.00000000E+00  0.00000000E+00
  0.00000000E+00  0.00000000E+00  0.00000000E+00
  0.00000000E+00  0.00000000E+00  0.00000000E+00
  0.00000000E+00  0.00000000E+00  0.00000000E+00
  0.00000000E+00  0.00000000E+00  0.00000000E+00
  0.00000000E+00  0.00000000E+00  0.00000000E+00
  0.00000000E+00  0.00000000E+00  0.00000000E+00
  0.00000000E+00  0.00000000E+00  0.00000000E+00
  0.00000000E+00  0.00000000E+00  0.00000000E+00
  0.00000000E+00  0.00000000E+00  0.00000000E+00
  0.00000000E+00  0.00000000E+00  0.00000000E+00
  0.00000000E+00  0.00000000E+00  0.00000000E+00
  0.00000000E+00  0.00000000E+00  0.00000000E+00
  0.00000000E+00  0.00000000E+00  0.00000000E+00
  0.00000000E+00  0.00000000E+00  0.00000000E+00
  0.00000000E+00  0.00000000E+00  0.00000000E+00
  0.00000000E+00  0.00000000E+00  0.00000000E+00
  0.00000000E+00  0.00000000E+00  0.00000000E+00
  0.00000000E+00  0.00000000E+00  0.00000000E+00
  0.00000000E+00  0.00000000E+00  0.00000000E+00
  0.00000000E+00  0.00000000E+00  0.00000000E+00
  0.00000000E+00  0.00000000E+00  0.00000000E+00
  0.00000000E+00  0.00000000E+00  0.00000000E+00
  0.00000000E+00  0.00000000E+00  0.00000000E+00
  0.00000000E+00  0.00000000E+00  0.00000000E+00
  0.00000000E+00  0.00000000E+00  0.00000000E+00
  0.00000000E+00  0.00000000E+00  0.00000000E+00
  0.00000000E+00  0.00000000E+00  0.00000000E+00
  0.00000000E+00  0.00000000E+00  0.00000000E+00
  0.00000000E+00  0.00000000E+00  0.00000000E+00
  0.00000000E+00  0.00000000E+00  0.00000000E+00
  0.00000000E+00  0.00000000E+00  0.00000000E+00
  0.00000000E+00  0.00000000E+00  0.00000000E+00
  0.00000000E+00  0.00000000E+00  0.00000000E+00
  0.00000000E+00  0.00000000E+00  0.00000000E+00
  0.00000000E+00  0.00000000E+00  0.00000000E+00
  0.00000000E+00  0.00000000E+00  0.00000000E+00
