CONTCAR                                 
   1.00000000000000     
    10.0122995377000006    0.0000000000000000    0.0000000000000000
    -5.0061497688000003    8.6709057498999993    0.0000000000000000
     0.0000000000000000    0.0000000000000000   15.0000000000000000
   B    N    H 
    16    16     1
Direct
  0.1666195862592669  0.0832231943231925  0.4954485490317227
  0.4165935886930164  0.0832057099903827  0.4959969133908176
  0.6666120517259140  0.0832513193081284  0.4962920345966955
  0.9165826861005067  0.0832311881080146  0.4960126475304427
  0.1666041239036746  0.3331899480184524  0.4942002056736894
  0.4165849723637976  0.3331562041659081  0.4941457434908885
  0.6666117864445296  0.3332689959408927  0.4959305645275145
  0.9166385207540051  0.3332300881107320  0.4959817836091175
  0.1666600281969842  0.5832158981134088  0.4954459010931453
  0.4165752848109707  0.5831619479524784  0.4941283180791610
  0.6666033296241023  0.5832199968748408  0.4953616501301201
  0.9166243938357521  0.5832678771452392  0.4963103726558202
  0.1666069781276578  0.8331982573822322  0.4963733132191808
  0.4165994531409378  0.8331647789612361  0.4960162165068153
  0.6665680216994589  0.8331856063300016  0.4959658147182204
  0.9165990579946006  0.8332127546160834  0.4963403939976475
  0.0832767913919032  0.1665590939533958  0.4950992271683376
  0.3332659534135214  0.1665433736550175  0.4950731714078928
  0.5832775476839335  0.1665924419589808  0.4961296225078612
  0.8332729753074497  0.1665767845351601  0.4961494583938981
  0.0833265711609501  0.4165447904948611  0.4950746856704279
  0.3332561400006927  0.4164932189833090  0.4928563430718764
  0.5832303048367340  0.4165566441583861  0.4949888380745418
  0.8333045584619156  0.4165990027734315  0.4963330578683903
  0.0833108150142534  0.6665367534015902  0.4962157908088556
  0.3332949336061151  0.6664957880565745  0.4950936769381385
  0.5832145241185849  0.6664907139301638  0.4950038228129665
  0.8332435042614715  0.6665529379032989  0.4961564315756839
  0.0832879019327060  0.9165599487034676  0.4962345791645314
  0.3332637392124523  0.9165196126317045  0.4964337274519357
  0.5832707204864656  0.9165583277300589  0.4961380695111757
  0.8332533182111468  0.9165394732511449  0.4963886587431546
  0.3383259722245281  0.4300179625382245  0.6847603845793183
 
  0.00000000E+00  0.00000000E+00  0.00000000E+00
  0.00000000E+00  0.00000000E+00  0.00000000E+00
  0.00000000E+00  0.00000000E+00  0.00000000E+00
  0.00000000E+00  0.00000000E+00  0.00000000E+00
  0.00000000E+00  0.00000000E+00  0.00000000E+00
  0.00000000E+00  0.00000000E+00  0.00000000E+00
  0.00000000E+00  0.00000000E+00  0.00000000E+00
  0.00000000E+00  0.00000000E+00  0.00000000E+00
  0.00000000E+00  0.00000000E+00  0.00000000E+00
  0.00000000E+00  0.00000000E+00  0.00000000E+00
  0.00000000E+00  0.00000000E+00  0.00000000E+00
  0.00000000E+00  0.00000000E+00  0.00000000E+00
  0.00000000E+00  0.00000000E+00  0.00000000E+00
  0.00000000E+00  0.00000000E+00  0.00000000E+00
  0.00000000E+00  0.00000000E+00  0.00000000E+00
  0.00000000E+00  0.00000000E+00  0.00000000E+00
  0.00000000E+00  0.00000000E+00  0.00000000E+00
  0.00000000E+00  0.00000000E+00  0.00000000E+00
  0.00000000E+00  0.00000000E+00  0.00000000E+00
  0.00000000E+00  0.00000000E+00  0.00000000E+00
  0.00000000E+00  0.00000000E+00  0.00000000E+00
  0.00000000E+00  0.00000000E+00  0.00000000E+00
  0.00000000E+00  0.00000000E+00  0.00000000E+00
  0.00000000E+00  0.00000000E+00  0.00000000E+00
  0.00000000E+00  0.00000000E+00  0.00000000E+00
  0.00000000E+00  0.00000000E+00  0.00000000E+00
  0.00000000E+00  0.00000000E+00  0.00000000E+00
  0.00000000E+00  0.00000000E+00  0.00000000E+00
  0.00000000E+00  0.00000000E+00  0.00000000E+00
  0.00000000E+00  0.00000000E+00  0.00000000E+00
  0.00000000E+00  0.00000000E+00  0.00000000E+00
  0.00000000E+00  0.00000000E+00  0.00000000E+00
  0.00000000E+00  0.00000000E+00  0.00000000E+00
