CONTCAR                                 
   1.00000000000000     
    10.9576997757000001    0.0000000000000000    0.0000000000000000
     0.0000000000000000   18.6480007171999986    0.0000000000000000
     0.0000000000000000    0.0000000000000000   19.2721004485999998
   Ta   Te   Pd   O    H 
    12    30    18     1     1
Selective dynamics
Direct
  0.9990061034122775  0.9219218273738434  0.4974959242523695   F   F   F
  0.1667516082205154  0.4224452216266030  0.5003792066931467   F   F   F
  0.9997812020664156  0.1740884051230864  0.4973669001588021   F   F   F
  0.1670706404336642  0.6747078898856387  0.5004716454541196   F   F   F
  0.3351958637626211  0.9218657543786222  0.4973255909102647   F   F   F
  0.5002041330975686  0.4223783422746621  0.5000966322105356   F   F   F
  0.3338817614621448  0.1740938848874052  0.4973152961835936   F   F   F
  0.5026754337131862  0.6752448013712495  0.5022054827407274   F   F   F
  0.6668803613490653  0.9208193923212633  0.4983771155812704   F   F   F
  0.8333846885804519  0.4223957731275050  0.5001330131000188   F   F   F
  0.6668430540323698  0.1745487337129532  0.4974376686005613   F   F   F
  0.8310768701565436  0.6752458160529642  0.5021037308844569   F   F   F
  0.0006158139361787  0.7253792241700339  0.6047154839575128   F   F   F
  0.1669887909960792  0.8704718696083802  0.3944761049318544   F   F   F
  0.1667637358919123  0.2251083592099192  0.3937724565636245   F   F   F
  0.0003430555068391  0.3709188265167640  0.6039431147789784   F   F   F
  0.9991059241618316  0.6521482995871537  0.3892417588786827   F   F   F
  0.1667527529028661  0.1519584957477775  0.6090489319615884   F   F   F
  0.1667071537806919  0.5485749825047321  0.5826977005630098   F   F   F
  0.9991193368127966  0.0481860003541001  0.4153081105649079   F   F   F
  0.0001436642422874  0.4440523317123493  0.3878335239821169   F   F   F
  0.1673023518037198  0.9441908057925161  0.6093085180386666   F   F   F
  0.3330987571078055  0.7251322022941977  0.6048896173848988   F   F   F
  0.5017388062958119  0.8718885764649826  0.3932013450102687   F   F   F
  0.5001753911050102  0.2256446293276113  0.3937782597231987   F   F   F
  0.3332208734637234  0.3708827957584973  0.6039030951331412   F   F   F
  0.3346778651792448  0.6521458293273952  0.3892422460361544   F   F   F
  0.5000391813336691  0.1528584848302614  0.6097144045437304   F   F   F
  0.4991675676003808  0.5478047113836979  0.5829921681256067   F   F   F
  0.3348447411667976  0.0481746191319985  0.4151859725930862   F   F   F
  0.3335054970760680  0.4440085761997636  0.3878067638083422   F   F   F
  0.5002222905028262  0.9448508524219648  0.6106492763497258   F   F   F
  0.6668150656420337  0.7217859781352871  0.6100346938437653   F   F   F
  0.8325067860563351  0.8718153475231887  0.3934776438223224   F   F   F
  0.8333660251318591  0.2255624396157145  0.3938205412258213   F   F   F
  0.6667395511698047  0.3714660193824599  0.6041345113509280   F   F   F
  0.6669533924724931  0.6522683482386498  0.3889369648111227   F   F   F
  0.8333720642012139  0.1528056817749786  0.6097517302594682   F   F   F
  0.8341459312966037  0.5479254484247917  0.5829908376114119   F   F   F
  0.6668873967974207  0.0489841555952069  0.4162597290013892   F   F   F
  0.6668717859836804  0.4445364840025547  0.3879656503462385   F   F   F
  0.8336009381960068  0.9448152758003729  0.6106790487540081   F   F   F
  0.0001371820957274  0.3167336902643925  0.4505419810501721   F   F   F
  0.9989337806712939  0.7796127443647265  0.4509932914298318   F   F   F
  0.1667458988337671  0.2795982859131669  0.5467058249533707   F   F   F
  0.1672333808957305  0.8169157292574951  0.5466900362522154   F   F   F
  0.0002354835355476  0.5474154200194405  0.4816108549790172   F   F   F
  0.1671187231322548  0.0476519531124993  0.5158363769105279   F   F   F
  0.3333399235788050  0.3167555736593499  0.4505885365846467   F   F   F
  0.3354725071095999  0.7796647263723955  0.4509264012320386   F   F   F
  0.5001828390515897  0.2802062003229437  0.5467754798891633   F   F   F
  0.4972423318213330  0.8176772971077213  0.5494220371541658   F   F   F
  0.3332348702822969  0.5473574969087878  0.4815443744044146   F   F   F
  0.5001905843961794  0.0481814041552227  0.5170729817937669   F   F   F
  0.6667600056391692  0.3170419063250947  0.4506078790159620   F   F   F
  0.6667934856180580  0.7793207572538350  0.4545862617569725   F   F   F
  0.8334669836356383  0.2802153708819546  0.5468189269568526   F   F   F
  0.8364160555618412  0.8177831629387953  0.5492157605961268   F   F   F
  0.6666563137694155  0.5482411081854579  0.4818386581923662   F   F   F
  0.8336486865626540  0.0480898296583092  0.5171329900424695   F   F   F
  0.6668849177697425  0.6598803089652776  0.7012350007631554   T   T   T
  0.6617624299384772  0.6088458703600351  0.6885895361163630   T   T   T
 
  0.00000000E+00  0.00000000E+00  0.00000000E+00
  0.00000000E+00  0.00000000E+00  0.00000000E+00
  0.00000000E+00  0.00000000E+00  0.00000000E+00
  0.00000000E+00  0.00000000E+00  0.00000000E+00
  0.00000000E+00  0.00000000E+00  0.00000000E+00
  0.00000000E+00  0.00000000E+00  0.00000000E+00
  0.00000000E+00  0.00000000E+00  0.00000000E+00
  0.00000000E+00  0.00000000E+00  0.00000000E+00
  0.00000000E+00  0.00000000E+00  0.00000000E+00
  0.00000000E+00  0.00000000E+00  0.00000000E+00
  0.00000000E+00  0.00000000E+00  0.00000000E+00
  0.00000000E+00  0.00000000E+00  0.00000000E+00
  0.00000000E+00  0.00000000E+00  0.00000000E+00
  0.00000000E+00  0.00000000E+00  0.00000000E+00
  0.00000000E+00  0.00000000E+00  0.00000000E+00
  0.00000000E+00  0.00000000E+00  0.00000000E+00
  0.00000000E+00  0.00000000E+00  0.00000000E+00
  0.00000000E+00  0.00000000E+00  0.00000000E+00
  0.00000000E+00  0.00000000E+00  0.00000000E+00
  0.00000000E+00  0.00000000E+00  0.00000000E+00
  0.00000000E+00  0.00000000E+00  0.00000000E+00
  0.00000000E+00  0.00000000E+00  0.00000000E+00
  0.00000000E+00  0.00000000E+00  0.00000000E+00
  0.00000000E+00  0.00000000E+00  0.00000000E+00
  0.00000000E+00  0.00000000E+00  0.00000000E+00
  0.00000000E+00  0.00000000E+00  0.00000000E+00
  0.00000000E+00  0.00000000E+00  0.00000000E+00
  0.00000000E+00  0.00000000E+00  0.00000000E+00
  0.00000000E+00  0.00000000E+00  0.00000000E+00
  0.00000000E+00  0.00000000E+00  0.00000000E+00
  0.00000000E+00  0.00000000E+00  0.00000000E+00
  0.00000000E+00  0.00000000E+00  0.00000000E+00
  0.00000000E+00  0.00000000E+00  0.00000000E+00
  0.00000000E+00  0.00000000E+00  0.00000000E+00
  0.00000000E+00  0.00000000E+00  0.00000000E+00
  0.00000000E+00  0.00000000E+00  0.00000000E+00
  0.00000000E+00  0.00000000E+00  0.00000000E+00
  0.00000000E+00  0.00000000E+00  0.00000000E+00
  0.00000000E+00  0.00000000E+00  0.00000000E+00
  0.00000000E+00  0.00000000E+00  0.00000000E+00
  0.00000000E+00  0.00000000E+00  0.00000000E+00
  0.00000000E+00  0.00000000E+00  0.00000000E+00
  0.00000000E+00  0.00000000E+00  0.00000000E+00
  0.00000000E+00  0.00000000E+00  0.00000000E+00
  0.00000000E+00  0.00000000E+00  0.00000000E+00
  0.00000000E+00  0.00000000E+00  0.00000000E+00
  0.00000000E+00  0.00000000E+00  0.00000000E+00
  0.00000000E+00  0.00000000E+00  0.00000000E+00
  0.00000000E+00  0.00000000E+00  0.00000000E+00
  0.00000000E+00  0.00000000E+00  0.00000000E+00
  0.00000000E+00  0.00000000E+00  0.00000000E+00
  0.00000000E+00  0.00000000E+00  0.00000000E+00
  0.00000000E+00  0.00000000E+00  0.00000000E+00
  0.00000000E+00  0.00000000E+00  0.00000000E+00
  0.00000000E+00  0.00000000E+00  0.00000000E+00
  0.00000000E+00  0.00000000E+00  0.00000000E+00
  0.00000000E+00  0.00000000E+00  0.00000000E+00
  0.00000000E+00  0.00000000E+00  0.00000000E+00
  0.00000000E+00  0.00000000E+00  0.00000000E+00
  0.00000000E+00  0.00000000E+00  0.00000000E+00
  0.00000000E+00  0.00000000E+00  0.00000000E+00
  0.00000000E+00  0.00000000E+00  0.00000000E+00
