CONTCAR\(10)                            
   1.00000000000000     
    21.4713001251000009    0.0000000000000000    0.0000000000000000
    10.7356067371999995   19.1142855119999986    0.0000000000000000
     0.0000000000000000    0.0000000000000000   19.1464004516999999
   Ta   Te
    36    72
Direct
  0.4030321253003160  0.3566459952542766  0.5010252655977724
  0.2596781575545921  0.1433540027457232  0.4989847464022317
  0.0969678626996830  0.1433540027457232  0.4989847464022317
  0.2403218974454089  0.3566459952542766  0.5010252655977724
  0.4282779334500676  0.1434340520998656  0.4963560356446840
  0.0717220195499321  0.3565659719001364  0.5036439643553159
  0.0986044106274391  0.0000000000000000  0.5000000000000000
  0.4013956003725582 -0.0000000000000000  0.5000000000000000
  0.2500000000000000  0.0000000000000000  0.5000000000000000
  0.9030321693003197  0.3566459952542766  0.5010252655977724
  0.7596781125545919  0.1433540027457232  0.4989847464022317
  0.5969678846996848  0.1433540027457232  0.4989847464022317
  0.7403218524454087  0.3566459952542766  0.5010252655977724
  0.9282780224500714  0.1434340520998656  0.4963560356446840
  0.5717220195499321  0.3565659719001364  0.5036439643553159
  0.5986044436274383 -0.0000000000000000  0.5000000000000000
  0.9013955563725617 -0.0000000000000000  0.5000000000000000
  0.7500000220000018  0.0000000000000000  0.5000000000000000
  0.4030321353003168  0.8566459942542729  0.5010252655977724
  0.2596781545545954  0.6433540267457253  0.4989847464022317
  0.0969678376996845  0.6433540267457253  0.4989847464022317
  0.2403219074454097  0.8566459942542729  0.5010252655977724
  0.4282779754500711  0.6434340760998604  0.4963560356446840
  0.0717219925499334  0.8565660459001355  0.5036439643553159
  0.0986043966274380  0.5000000240000020  0.5000000000000000
  0.4013955983725581  0.5000000240000020  0.5000000000000000
  0.2499999750000015  0.5000000240000020  0.5000000000000000
  0.9030320913003133  0.8566459942542729  0.5010252655977724
  0.7596781995545956  0.6433540267457253  0.4989847464022317
  0.5969678826996846  0.6433540267457253  0.4989847464022317
  0.7403219514454062  0.8566459942542729  0.5010252655977724
  0.9282780194500676  0.6434340760998604  0.4963560356446840
  0.5717219925499334  0.8565660459001355  0.5036439643553159
  0.5986044856274417  0.5000000240000020  0.5000000000000000
  0.9013955543725616  0.5000000240000020  0.5000000000000000
  0.7500000200000017  0.5000000240000020  0.5000000000000000
  0.4711580893406698  0.2238797859608125  0.5787320813394365
  0.1950378703014855  0.2761202130391839  0.4212679186605636
  0.0288419436593293  0.2761202130391839  0.4212679186605636
  0.3049621396985154  0.2238797859608125  0.5787320813394365
  0.3622969367708515  0.2754161214582962  0.4188169333266937
  0.1377030682291454  0.2245938805417071  0.5811930286733064
  0.3572659893251490  0.4466380432015519  0.3915894508095911
  0.3039140425267049  0.0533619797984464  0.6084105741904076
  0.1427339746748480  0.0533619797984464  0.6084105741904076
  0.1956980211197216  0.1086139917605558  0.3933637750244994
  0.3043019608802770  0.3913860202394381  0.6066362499754991
  0.3607997976674290  0.1075075992588361  0.3946030830616583
  0.4683073659262662  0.3924924117411613  0.6053969169383419
  0.1392002063325713  0.3924924117411613  0.6053969169383419
  0.0316926380737342  0.1075075992588361  0.3946030830616583
  0.0234202192137220  0.4531595695725494  0.4042049553394697
  0.4765798027862727  0.0468304564274495  0.5957950446605302
  0.1960859554732949  0.4466380432015519  0.3915894508095911
  0.9711580443406697  0.2238797859608125  0.5787320813394365
  0.6950378703014854  0.2761202130391839  0.4212679186605636
  0.5288419216593346  0.2761202130391839  0.4212679186605636
  0.8049621836985190  0.2238797859608125  0.5787320813394365
  0.8622969367708515  0.2754161214582962  0.4188169333266937
  0.6377030912291437  0.2245938805417071  0.5811930286733064
  0.8572660343251491  0.4466380432015519  0.3915894508095911
  0.8039040935267024  0.0533619797984464  0.6084105741904076
  0.6427339636748507  0.0533619797984464  0.6084105741904076
  0.6956980431197234  0.1086139917605558  0.3933637750244994
  0.8043020048802806  0.3913860202394381  0.6066362499754991
  0.8607997976674291  0.1075075992588361  0.3946030830616583
  0.9683073219262694  0.3924924117411613  0.6053969169383419
  0.6392002513325714  0.3924924117411613  0.6053969169383419
  0.5316926380737343  0.1075075992588361  0.3946030830616583
  0.5234202632137257  0.4531595695725494  0.4042049553394697
  0.9765797137862759  0.0468304564274495  0.5957950446605302
  0.6960859104733018  0.4466380432015519  0.3915894508095911
  0.4711580863406660  0.7238798099608145  0.5787320813394365
  0.1950378113014842  0.7761202610391807  0.4212679186605636
  0.0288419066593298  0.7761202610391807  0.4212679186605636
  0.3049621366985187  0.7238798099608145  0.5787320813394365
  0.3622969537708564  0.7754161954582953  0.4188169333266937
  0.1377030442291434  0.7245939045417090  0.5811930286733064
  0.3572659873251488  0.9466380672015540  0.3915894508095911
  0.3039140845267013  0.5533620037984484  0.6084105741904076
  0.1427339606748468  0.5533620037984484  0.6084105741904076
  0.1956979901197226  0.6086140277605588  0.3933637750244994
  0.3043019338802783  0.8913860932394405  0.6066362499754991
  0.3607997696674267  0.6075075852588420  0.3946030830616583
  0.4683074529262698  0.8924924357411633  0.6053969169383419
  0.1392002483325676  0.8924924357411633  0.6053969169383419
  0.0316926540737284  0.6075075852588420  0.3946030830616583
  0.0234201912137268  0.9531596435725485  0.4042049553394697
  0.4765797717862736  0.5468304494274454  0.5957950446605302
  0.1960859524732982  0.9466380672015540  0.3915894508095911
  0.9711580423406695  0.7238798099608145  0.5787320813394365
  0.6950377673014805  0.7761202610391807  0.4212679186605636
  0.5288419066593298  0.7761202610391807  0.4212679186605636
  0.8049621816985189  0.7238798099608145  0.5787320813394365
  0.8622969097708528  0.7754161954582953  0.4188169333266937
  0.6377029992291503  0.7245939045417090  0.5811930286733064
  0.8572660323251490  0.9466380672015540  0.3915894508095911
  0.8039040905266986  0.5533620037984484  0.6084105741904076
  0.6427340056748471  0.5533620037984484  0.6084105741904076
  0.6956980341197191  0.6086140277605588  0.3933637750244994
  0.8043020668802786  0.8913860932394405  0.6066362499754991
  0.8607998136674304  0.6075075852588420  0.3946030830616583
  0.9683074079262695  0.8924924357411633  0.6053969169383419
  0.6392002483325676  0.8924924357411633  0.6053969169383419
  0.5316926540737286  0.6075075852588420  0.3946030830616583
  0.5234202362137270  0.9531596435725485  0.4042049553394697
  0.9765797267862735  0.5468304494274454  0.5957950446605302
  0.6960859084733017  0.9466380672015540  0.3915894508095911
 
  0.00000000E+00  0.00000000E+00  0.00000000E+00
  0.00000000E+00  0.00000000E+00  0.00000000E+00
  0.00000000E+00  0.00000000E+00  0.00000000E+00
  0.00000000E+00  0.00000000E+00  0.00000000E+00
  0.00000000E+00  0.00000000E+00  0.00000000E+00
  0.00000000E+00  0.00000000E+00  0.00000000E+00
  0.00000000E+00  0.00000000E+00  0.00000000E+00
  0.00000000E+00  0.00000000E+00  0.00000000E+00
  0.00000000E+00  0.00000000E+00  0.00000000E+00
  0.00000000E+00  0.00000000E+00  0.00000000E+00
  0.00000000E+00  0.00000000E+00  0.00000000E+00
  0.00000000E+00  0.00000000E+00  0.00000000E+00
  0.00000000E+00  0.00000000E+00  0.00000000E+00
  0.00000000E+00  0.00000000E+00  0.00000000E+00
  0.00000000E+00  0.00000000E+00  0.00000000E+00
  0.00000000E+00  0.00000000E+00  0.00000000E+00
  0.00000000E+00  0.00000000E+00  0.00000000E+00
  0.00000000E+00  0.00000000E+00  0.00000000E+00
  0.00000000E+00  0.00000000E+00  0.00000000E+00
  0.00000000E+00  0.00000000E+00  0.00000000E+00
  0.00000000E+00  0.00000000E+00  0.00000000E+00
  0.00000000E+00  0.00000000E+00  0.00000000E+00
  0.00000000E+00  0.00000000E+00  0.00000000E+00
  0.00000000E+00  0.00000000E+00  0.00000000E+00
  0.00000000E+00  0.00000000E+00  0.00000000E+00
  0.00000000E+00  0.00000000E+00  0.00000000E+00
  0.00000000E+00  0.00000000E+00  0.00000000E+00
  0.00000000E+00  0.00000000E+00  0.00000000E+00
  0.00000000E+00  0.00000000E+00  0.00000000E+00
  0.00000000E+00  0.00000000E+00  0.00000000E+00
  0.00000000E+00  0.00000000E+00  0.00000000E+00
  0.00000000E+00  0.00000000E+00  0.00000000E+00
  0.00000000E+00  0.00000000E+00  0.00000000E+00
  0.00000000E+00  0.00000000E+00  0.00000000E+00
  0.00000000E+00  0.00000000E+00  0.00000000E+00
  0.00000000E+00  0.00000000E+00  0.00000000E+00
  0.00000000E+00  0.00000000E+00  0.00000000E+00
  0.00000000E+00  0.00000000E+00  0.00000000E+00
  0.00000000E+00  0.00000000E+00  0.00000000E+00
  0.00000000E+00  0.00000000E+00  0.00000000E+00
  0.00000000E+00  0.00000000E+00  0.00000000E+00
  0.00000000E+00  0.00000000E+00  0.00000000E+00
  0.00000000E+00  0.00000000E+00  0.00000000E+00
  0.00000000E+00  0.00000000E+00  0.00000000E+00
  0.00000000E+00  0.00000000E+00  0.00000000E+00
  0.00000000E+00  0.00000000E+00  0.00000000E+00
  0.00000000E+00  0.00000000E+00  0.00000000E+00
  0.00000000E+00  0.00000000E+00  0.00000000E+00
  0.00000000E+00  0.00000000E+00  0.00000000E+00
  0.00000000E+00  0.00000000E+00  0.00000000E+00
  0.00000000E+00  0.00000000E+00  0.00000000E+00
  0.00000000E+00  0.00000000E+00  0.00000000E+00
  0.00000000E+00  0.00000000E+00  0.00000000E+00
  0.00000000E+00  0.00000000E+00  0.00000000E+00
  0.00000000E+00  0.00000000E+00  0.00000000E+00
  0.00000000E+00  0.00000000E+00  0.00000000E+00
  0.00000000E+00  0.00000000E+00  0.00000000E+00
  0.00000000E+00  0.00000000E+00  0.00000000E+00
  0.00000000E+00  0.00000000E+00  0.00000000E+00
  0.00000000E+00  0.00000000E+00  0.00000000E+00
  0.00000000E+00  0.00000000E+00  0.00000000E+00
  0.00000000E+00  0.00000000E+00  0.00000000E+00
  0.00000000E+00  0.00000000E+00  0.00000000E+00
  0.00000000E+00  0.00000000E+00  0.00000000E+00
  0.00000000E+00  0.00000000E+00  0.00000000E+00
  0.00000000E+00  0.00000000E+00  0.00000000E+00
  0.00000000E+00  0.00000000E+00  0.00000000E+00
  0.00000000E+00  0.00000000E+00  0.00000000E+00
  0.00000000E+00  0.00000000E+00  0.00000000E+00
  0.00000000E+00  0.00000000E+00  0.00000000E+00
  0.00000000E+00  0.00000000E+00  0.00000000E+00
  0.00000000E+00  0.00000000E+00  0.00000000E+00
  0.00000000E+00  0.00000000E+00  0.00000000E+00
  0.00000000E+00  0.00000000E+00  0.00000000E+00
  0.00000000E+00  0.00000000E+00  0.00000000E+00
  0.00000000E+00  0.00000000E+00  0.00000000E+00
  0.00000000E+00  0.00000000E+00  0.00000000E+00
  0.00000000E+00  0.00000000E+00  0.00000000E+00
  0.00000000E+00  0.00000000E+00  0.00000000E+00
  0.00000000E+00  0.00000000E+00  0.00000000E+00
  0.00000000E+00  0.00000000E+00  0.00000000E+00
  0.00000000E+00  0.00000000E+00  0.00000000E+00
  0.00000000E+00  0.00000000E+00  0.00000000E+00
  0.00000000E+00  0.00000000E+00  0.00000000E+00
  0.00000000E+00  0.00000000E+00  0.00000000E+00
  0.00000000E+00  0.00000000E+00  0.00000000E+00
  0.00000000E+00  0.00000000E+00  0.00000000E+00
  0.00000000E+00  0.00000000E+00  0.00000000E+00
  0.00000000E+00  0.00000000E+00  0.00000000E+00
  0.00000000E+00  0.00000000E+00  0.00000000E+00
  0.00000000E+00  0.00000000E+00  0.00000000E+00
  0.00000000E+00  0.00000000E+00  0.00000000E+00
  0.00000000E+00  0.00000000E+00  0.00000000E+00
  0.00000000E+00  0.00000000E+00  0.00000000E+00
  0.00000000E+00  0.00000000E+00  0.00000000E+00
  0.00000000E+00  0.00000000E+00  0.00000000E+00
  0.00000000E+00  0.00000000E+00  0.00000000E+00
  0.00000000E+00  0.00000000E+00  0.00000000E+00
  0.00000000E+00  0.00000000E+00  0.00000000E+00
  0.00000000E+00  0.00000000E+00  0.00000000E+00
  0.00000000E+00  0.00000000E+00  0.00000000E+00
  0.00000000E+00  0.00000000E+00  0.00000000E+00
  0.00000000E+00  0.00000000E+00  0.00000000E+00
  0.00000000E+00  0.00000000E+00  0.00000000E+00
  0.00000000E+00  0.00000000E+00  0.00000000E+00
  0.00000000E+00  0.00000000E+00  0.00000000E+00
  0.00000000E+00  0.00000000E+00  0.00000000E+00
  0.00000000E+00  0.00000000E+00  0.00000000E+00
