CONTCAR                                 
   1.00000000000000     
    14.0314998627000005    0.0000000000000000    0.0000000000000000
     0.0000000000000000   12.8740997313999994    0.0000000000000000
     0.0000000000000000    0.0000000000000000   20.5195999146000005
   Ta   Ni   Te   O 
    16    32    32     1
Selective dynamics
Direct
  0.9998705025609809  0.2043543006712412  0.4791424275501228   F   F   F
  0.0000268229573948  0.4542827033000947  0.5218743022753927   F   F   F
  0.2488285780583226  0.2020871382527929  0.4786879468651364   F   F   F
  0.2509337333825599  0.4538501642016470  0.5215932942126784   F   F   F
  0.5000033821706538  0.2022702343574849  0.4784104496768933   F   F   F
  0.4961339582155020  0.4515548240843898  0.5218789632912859   F   F   F
  0.7496738365829430  0.2049297203058416  0.4788376700065271   F   F   F
  0.7484336965174450  0.4540398850683047  0.5225359974572896   F   F   F
  0.9983305743241147  0.7038906029294623  0.4789482746466120   F   F   F
  0.9985624526799697  0.9531840199058479  0.5215198620924326   F   F   F
  0.2488246051766225  0.7046642876773674  0.4792726195550046   F   F   F
  0.2490613403600364  0.9523225987944528  0.5223835395987209   F   F   F
  0.4997491769322835  0.7038137452000797  0.4814787074771871   F   F   F
  0.5012444175801392  0.9520961947275310  0.5214746450049219   F   F   F
  0.7491041609089777  0.7006442207217844  0.4785240778724429   F   F   F
  0.7496401363744027  0.9560540321145226  0.5200832929301100   F   F   F
  0.1254922704425283  0.1062228225200172  0.5564317140028834   F   F   F
  0.1256062601728587  0.3559822050950601  0.4445910748982271   F   F   F
  0.1247017137173074  0.3019272810657725  0.5564699628566814   F   F   F
  0.1231182583223216  0.0510617493650116  0.4447363219975458   F   F   F
  0.3751808182909144  0.1048657921599414  0.5565031847493742   F   F   F
  0.3746957529952724  0.3554958871899672  0.4430535255919850   F   F   F
  0.3717274795594037  0.2998526990218195  0.5538986911989454   F   F   F
  0.3739175586982739  0.0506631777203452  0.4449552280633213   F   F   F
  0.6241534299952463  0.1055002317482945  0.5561228008256407   F   F   F
  0.6234947909548296  0.3556152821691043  0.4445226959899600   F   F   F
  0.6233739326701198  0.3019881368307367  0.5562046446379298   F   F   F
  0.6239648655085617  0.0523174025826521  0.4437732594441783   F   F   F
  0.8747143680516842  0.1063830796725185  0.5555350085422361   F   F   F
  0.8745570281927044  0.3565120627760763  0.4449359818485092   F   F   F
  0.8753017689049400  0.3015691258561475  0.5564430393232414   F   F   F
  0.8749867579276227  0.0520129380302450  0.4436448041018650   F   F   F
  0.1233493472439093  0.6064032752202095  0.5559173631054932   F   F   F
  0.1232530688230469  0.8552900578098388  0.4442562035964883   F   F   F
  0.1238880147472301  0.8024012020748685  0.5560167009033705   F   F   F
  0.1263864801059640  0.5515867026211367  0.4446050524311786   F   F   F
  0.3706399434268235  0.6047975232428513  0.5542168100029414   F   F   F
  0.3735273127073313  0.8558176636045189  0.4465900429167533   F   F   F
  0.3826035866167956  0.7983353910244730  0.5591017075384102   F   F   F
  0.3769251015143951  0.5507940205004616  0.4432874411529326   F   F   F
  0.6115486086324893  0.6084990067782741  0.5601710853367265   F   F   F
  0.6231527465063849  0.8561433430811505  0.4427613808828141   F   F   F
  0.6347230344829740  0.8031780547369607  0.5534854870882953   F   F   F
  0.6234173290184657  0.5510484702152993  0.4470950399096694   F   F   F
  0.8715419514517464  0.6049881570977291  0.5562055186675892   F   F   F
  0.8739438549816327  0.8557719743694747  0.4440088027825837   F   F   F
  0.8694346713910051  0.8010359221534600  0.5557165939673467   F   F   F
  0.8761928914197483  0.5518630975906405  0.4444753641083707   F   F   F
  0.1269197936750786  0.4546566116564819  0.6338878233451268   F   F   F
  0.1240656548225232  0.2036421710313689  0.3667312424091946   F   F   F
  0.0002620742437713  0.4534902945001775  0.3776823327268914   F   F   F
  0.9998218111385739  0.2031592405404439  0.6233973002522859   F   F   F
  0.3829974767151612  0.4549894606000535  0.6372673495038157   F   F   F
  0.3741059520869854  0.2021465785883905  0.3665733223691632   F   F   F
  0.2501483753092444  0.4542415954237597  0.3768264052968107   F   F   F
  0.2508146063852266  0.2050224143997639  0.6237500340465445   F   F   F
  0.6277371802913123  0.4532010252855798  0.6343917780669912   F   F   F
  0.6247759424714090  0.2042962413951201  0.3662358190972128   F   F   F
  0.5008007519936299  0.4524205150401315  0.3764402192233547   F   F   F
  0.4979714317708144  0.2059568350345629  0.6222529220334465   F   F   F
  0.8764208755024683  0.4530813410902752  0.6342520309074686   F   F   F
  0.8746116316208727  0.2049443619325544  0.3667177460928741   F   F   F
  0.7493644472589125  0.4549225944657209  0.3787792953230777   F   F   F
  0.7495572522029619  0.2041041976299240  0.6226020442439335   F   F   F
  0.1221903016861248  0.9541382884086076  0.6341522745670005   F   F   F
  0.1238016993508211  0.7032695053558555  0.3667838106970365   F   F   F
  0.9991016392090231  0.9533240537631045  0.3766375939133155   F   F   F
  0.9973637927388737  0.7043426890627202  0.6221158873537789   F   F   F
  0.3719698889540837  0.9539761006525467  0.6340090927665898   F   F   F
  0.3748367421535264  0.7048319563965109  0.3677393660491717   F   F   F
  0.2488053585113121  0.9529989977581010  0.3782524089471906   F   F   F
  0.2493101168847076  0.7053226643381478  0.6220482696602332   F   F   F
  0.6220749388605213  0.9516484385300075  0.6337794881522569   F   F   F
  0.6225461428566774  0.7017951706558563  0.3672473983469544   F   F   F
  0.4979915362050775  0.9539322706545192  0.3771374568205914   F   F   F
  0.4990347095518644  0.7073139312001970  0.6375245740473687   F   F   F
  0.8726867966782876  0.9541190585378416  0.6331941566060593   F   F   F
  0.8733608409222100  0.7035491896034358  0.3662781474906396   F   F   F
  0.7489967875904924  0.9541061129176640  0.3765621117240272   F   F   F
  0.7464669678822489  0.6987031132870882  0.6238578135689608   F   F   F
  0.4323696252183353  0.6006209480255649  0.6887534559695372   T   T   T
 
  0.00000000E+00  0.00000000E+00  0.00000000E+00
  0.00000000E+00  0.00000000E+00  0.00000000E+00
  0.00000000E+00  0.00000000E+00  0.00000000E+00
  0.00000000E+00  0.00000000E+00  0.00000000E+00
  0.00000000E+00  0.00000000E+00  0.00000000E+00
  0.00000000E+00  0.00000000E+00  0.00000000E+00
  0.00000000E+00  0.00000000E+00  0.00000000E+00
  0.00000000E+00  0.00000000E+00  0.00000000E+00
  0.00000000E+00  0.00000000E+00  0.00000000E+00
  0.00000000E+00  0.00000000E+00  0.00000000E+00
  0.00000000E+00  0.00000000E+00  0.00000000E+00
  0.00000000E+00  0.00000000E+00  0.00000000E+00
  0.00000000E+00  0.00000000E+00  0.00000000E+00
  0.00000000E+00  0.00000000E+00  0.00000000E+00
  0.00000000E+00  0.00000000E+00  0.00000000E+00
  0.00000000E+00  0.00000000E+00  0.00000000E+00
  0.00000000E+00  0.00000000E+00  0.00000000E+00
  0.00000000E+00  0.00000000E+00  0.00000000E+00
  0.00000000E+00  0.00000000E+00  0.00000000E+00
  0.00000000E+00  0.00000000E+00  0.00000000E+00
  0.00000000E+00  0.00000000E+00  0.00000000E+00
  0.00000000E+00  0.00000000E+00  0.00000000E+00
  0.00000000E+00  0.00000000E+00  0.00000000E+00
  0.00000000E+00  0.00000000E+00  0.00000000E+00
  0.00000000E+00  0.00000000E+00  0.00000000E+00
  0.00000000E+00  0.00000000E+00  0.00000000E+00
  0.00000000E+00  0.00000000E+00  0.00000000E+00
  0.00000000E+00  0.00000000E+00  0.00000000E+00
  0.00000000E+00  0.00000000E+00  0.00000000E+00
  0.00000000E+00  0.00000000E+00  0.00000000E+00
  0.00000000E+00  0.00000000E+00  0.00000000E+00
  0.00000000E+00  0.00000000E+00  0.00000000E+00
  0.00000000E+00  0.00000000E+00  0.00000000E+00
  0.00000000E+00  0.00000000E+00  0.00000000E+00
  0.00000000E+00  0.00000000E+00  0.00000000E+00
  0.00000000E+00  0.00000000E+00  0.00000000E+00
  0.00000000E+00  0.00000000E+00  0.00000000E+00
  0.00000000E+00  0.00000000E+00  0.00000000E+00
  0.00000000E+00  0.00000000E+00  0.00000000E+00
  0.00000000E+00  0.00000000E+00  0.00000000E+00
  0.00000000E+00  0.00000000E+00  0.00000000E+00
  0.00000000E+00  0.00000000E+00  0.00000000E+00
  0.00000000E+00  0.00000000E+00  0.00000000E+00
  0.00000000E+00  0.00000000E+00  0.00000000E+00
  0.00000000E+00  0.00000000E+00  0.00000000E+00
  0.00000000E+00  0.00000000E+00  0.00000000E+00
  0.00000000E+00  0.00000000E+00  0.00000000E+00
  0.00000000E+00  0.00000000E+00  0.00000000E+00
  0.00000000E+00  0.00000000E+00  0.00000000E+00
  0.00000000E+00  0.00000000E+00  0.00000000E+00
  0.00000000E+00  0.00000000E+00  0.00000000E+00
  0.00000000E+00  0.00000000E+00  0.00000000E+00
  0.00000000E+00  0.00000000E+00  0.00000000E+00
  0.00000000E+00  0.00000000E+00  0.00000000E+00
  0.00000000E+00  0.00000000E+00  0.00000000E+00
  0.00000000E+00  0.00000000E+00  0.00000000E+00
  0.00000000E+00  0.00000000E+00  0.00000000E+00
  0.00000000E+00  0.00000000E+00  0.00000000E+00
  0.00000000E+00  0.00000000E+00  0.00000000E+00
  0.00000000E+00  0.00000000E+00  0.00000000E+00
  0.00000000E+00  0.00000000E+00  0.00000000E+00
  0.00000000E+00  0.00000000E+00  0.00000000E+00
  0.00000000E+00  0.00000000E+00  0.00000000E+00
  0.00000000E+00  0.00000000E+00  0.00000000E+00
  0.00000000E+00  0.00000000E+00  0.00000000E+00
  0.00000000E+00  0.00000000E+00  0.00000000E+00
  0.00000000E+00  0.00000000E+00  0.00000000E+00
  0.00000000E+00  0.00000000E+00  0.00000000E+00
  0.00000000E+00  0.00000000E+00  0.00000000E+00
  0.00000000E+00  0.00000000E+00  0.00000000E+00
  0.00000000E+00  0.00000000E+00  0.00000000E+00
  0.00000000E+00  0.00000000E+00  0.00000000E+00
  0.00000000E+00  0.00000000E+00  0.00000000E+00
  0.00000000E+00  0.00000000E+00  0.00000000E+00
  0.00000000E+00  0.00000000E+00  0.00000000E+00
  0.00000000E+00  0.00000000E+00  0.00000000E+00
  0.00000000E+00  0.00000000E+00  0.00000000E+00
  0.00000000E+00  0.00000000E+00  0.00000000E+00
  0.00000000E+00  0.00000000E+00  0.00000000E+00
  0.00000000E+00  0.00000000E+00  0.00000000E+00
  0.00000000E+00  0.00000000E+00  0.00000000E+00
