CONTCAR\(18)                            
   1.00000000000000     
    13.8212003707999997    0.0000000000000000    0.0000000000000000
     2.2957132678000001   11.9646463987999994    0.0000000000000000
     0.0000000000000000    0.0000000000000000   19.5161991119000007
   Li   Cr   C    O 
     6     9    18    55
Direct
  0.0025842366553001  0.9989704609102485  0.5990066470068401
  0.2586913136288012  0.4476551958324907  0.4011188584402171
  0.3363317874521820  0.9986597919168175  0.5996329637013837
  0.5921932952155187  0.4476285194759719  0.4009748079074970
  0.6697304011207182  0.9987921636207350  0.5989320383965594
  0.9258633741500694  0.4474326949027252  0.4010270863167850
  0.1880956953605495  0.8878752287894639  0.5017913395306057
  0.2975642372963564  0.2231097884123775  0.5001603064354743
  0.0739024187572107  0.5584631441191281  0.4983339360628485
  0.5213125737302146  0.8878869904735839  0.5019100667857538
  0.6307265761529623  0.2230320853817561  0.4996002496699625
  0.4071978832521408  0.5584766302266202  0.4982808548031246
  0.8547296319328608  0.8878668368444105  0.5016542082708754
  0.9643053710794073  0.2230913806630069  0.4998981764795327
  0.7405735956360805  0.5582942184428328  0.4980994755667234
  0.1493508474341958  0.1147679901271256  0.5622851851017899
  0.2593120635075585  0.4463488624288318  0.5542471922629644
  0.1127056874355113  0.3313500560270100  0.4378044922302883
  0.0388905218040510  0.7755232876243776  0.5602271276354371
  0.2228892162031955  0.6709910055848277  0.4398056430686057
  0.0027083400192383 -0.0002160632719082  0.4459495874206487
  0.4825659144994487  0.1147873040816380  0.5621460983126196
  0.5928109767125940  0.4462213631387011  0.5537790508936478
  0.4456741474365470  0.3314352331261347  0.4376076073467486
  0.3721371937286334  0.7753180809025388  0.5603138921581781
  0.5563324675202276  0.6709688759436659  0.4397354745554766
  0.3358225635068466 -0.0001724296462631  0.4461170834367499
  0.8157130310131989  0.1149631028467766  0.5619651219561160
  0.9260388326038556  0.4462615351619613  0.5539626869628531
  0.7792314186481598  0.3312578927489925  0.4375186512221986
  0.7056546165545848  0.7752989609819272  0.5601365312094443
  0.8897851718494652  0.6708403496515807  0.4396338999059025
  0.6692863964149592 -0.0002812841489363  0.4458155485874828
  0.1646956658415830  0.4547230105769071  0.5526461091932402
  0.0973197151610397  0.9916685454637924  0.4474945546633998
  0.0749372561326488  0.2441387466619257  0.4416140026518017
  0.0578810124668676  0.4310995270313719  0.4326496341594385
  0.2042988442521403  0.0150917050947046  0.5673922161984624
  0.3155907335848706  0.3489590682341900  0.5554873608774624
  0.1870990879312537  0.2020078761386945  0.5584308825237787
  0.2974278666149188  0.5355293981494871  0.5535662245183526
  0.2777362920411635  0.7877122454733190  0.5614343496817698
  0.2079433988369770  0.3234629525889334  0.4358346371454279
  0.1819992593651895  0.5823738841298532  0.4345013020478777
  0.2977333684607714  0.9107688120837036  0.4465765176523273
  0.1669349852386266  0.7671885372699129  0.4440228434061058
  0.2795293339831916  0.0973063002789118  0.4446932992576947
  0.0947357426415327  0.6792744266093236  0.5560200714271759
  0.0797513780160651  0.8641225814292082  0.5655310565294115
  0.0540826789630950  0.1227542100558079  0.5642773979954520
  0.3173098999941130  0.6585905725690414  0.4384345895579440
  0.4981876906233726  0.4546608448901801  0.5522085317837099
  0.4304386790799368  0.9916879516907916  0.4477098525136537
  0.4078563421787000  0.2442856006352581  0.4415262340316177
  0.3909129355272816  0.4312478183523481  0.4325693156899585
  0.5374346236163732  0.0150500779959993  0.5673914725605188
  0.6489437822693706  0.3486346217602412  0.5550679662189223
  0.5203773765170449  0.2018937284876967  0.5579355699311270
  0.6311409344497764  0.5350939896676226  0.5532919073957286
  0.6112286796349382  0.7877347730877350  0.5615502930715017
  0.5409413944613173  0.3234594934832122  0.4354156572551204
  0.5154069669657103  0.5823719645950901  0.4344290737273011
  0.6311247507449516  0.9107352531947494  0.4467010869091686
  0.5004749111781283  0.7672145888361184  0.4439793739849844
  0.6129978046272203  0.0972234044336626  0.4440852629160659
  0.4281708437226218  0.6791971862239451  0.5557628976082172
  0.4130730248652969  0.8638769180318060  0.5657330478584115
  0.3873410609387959  0.1227912644996648  0.5644124702443194
  0.6507719593464585  0.6584776864800607  0.4382940496139640
  0.8314306837334717  0.4545857404517132  0.5523382769584648
  0.7639087571792301  0.9915900931129746  0.4473572044359593
  0.7414105859620710  0.2440720139042275  0.4412447962932431
  0.7243535778243239  0.4310143697565521  0.4324880726152582
  0.8705607583714358  0.0152320447390140  0.5672205589743433
  0.9822130825972740  0.3486991689031501  0.5554628119068610
  0.8535714728425885  0.2020867155402704  0.5580575115967500
  0.9642631079984403  0.5351929272228143  0.5533858895957263
  0.9444497487525925  0.7879393896664704  0.5615463564180191
  0.8744954144221970  0.3233808907104512  0.4355245338356957
  0.8488852133192498  0.5822274770878506  0.4343125728420539
  0.9645713920971171  0.9107878315811124  0.4465844523530332
  0.8339015457834041  0.7670778160512414  0.4438201745789295
  0.9464279004697189  0.0972767142450479  0.4444404691519046
  0.7615331245618007  0.6790760061047114  0.5558118594634732
  0.7465817183498449  0.8638827083212438  0.5654585161696152
  0.7204644905718002  0.1229528458938380  0.5639698732792390
  0.9842139722426122  0.6584430552587233  0.4383147979431410
  0.3643611943348392  0.5779532039421498  0.6859281311455765
 
  0.00000000E+00  0.00000000E+00  0.00000000E+00
  0.00000000E+00  0.00000000E+00  0.00000000E+00
  0.00000000E+00  0.00000000E+00  0.00000000E+00
  0.00000000E+00  0.00000000E+00  0.00000000E+00
  0.00000000E+00  0.00000000E+00  0.00000000E+00
  0.00000000E+00  0.00000000E+00  0.00000000E+00
  0.00000000E+00  0.00000000E+00  0.00000000E+00
  0.00000000E+00  0.00000000E+00  0.00000000E+00
  0.00000000E+00  0.00000000E+00  0.00000000E+00
  0.00000000E+00  0.00000000E+00  0.00000000E+00
  0.00000000E+00  0.00000000E+00  0.00000000E+00
  0.00000000E+00  0.00000000E+00  0.00000000E+00
  0.00000000E+00  0.00000000E+00  0.00000000E+00
  0.00000000E+00  0.00000000E+00  0.00000000E+00
  0.00000000E+00  0.00000000E+00  0.00000000E+00
  0.00000000E+00  0.00000000E+00  0.00000000E+00
  0.00000000E+00  0.00000000E+00  0.00000000E+00
  0.00000000E+00  0.00000000E+00  0.00000000E+00
  0.00000000E+00  0.00000000E+00  0.00000000E+00
  0.00000000E+00  0.00000000E+00  0.00000000E+00
  0.00000000E+00  0.00000000E+00  0.00000000E+00
  0.00000000E+00  0.00000000E+00  0.00000000E+00
  0.00000000E+00  0.00000000E+00  0.00000000E+00
  0.00000000E+00  0.00000000E+00  0.00000000E+00
  0.00000000E+00  0.00000000E+00  0.00000000E+00
  0.00000000E+00  0.00000000E+00  0.00000000E+00
  0.00000000E+00  0.00000000E+00  0.00000000E+00
  0.00000000E+00  0.00000000E+00  0.00000000E+00
  0.00000000E+00  0.00000000E+00  0.00000000E+00
  0.00000000E+00  0.00000000E+00  0.00000000E+00
  0.00000000E+00  0.00000000E+00  0.00000000E+00
  0.00000000E+00  0.00000000E+00  0.00000000E+00
  0.00000000E+00  0.00000000E+00  0.00000000E+00
  0.00000000E+00  0.00000000E+00  0.00000000E+00
  0.00000000E+00  0.00000000E+00  0.00000000E+00
  0.00000000E+00  0.00000000E+00  0.00000000E+00
  0.00000000E+00  0.00000000E+00  0.00000000E+00
  0.00000000E+00  0.00000000E+00  0.00000000E+00
  0.00000000E+00  0.00000000E+00  0.00000000E+00
  0.00000000E+00  0.00000000E+00  0.00000000E+00
  0.00000000E+00  0.00000000E+00  0.00000000E+00
  0.00000000E+00  0.00000000E+00  0.00000000E+00
  0.00000000E+00  0.00000000E+00  0.00000000E+00
  0.00000000E+00  0.00000000E+00  0.00000000E+00
  0.00000000E+00  0.00000000E+00  0.00000000E+00
  0.00000000E+00  0.00000000E+00  0.00000000E+00
  0.00000000E+00  0.00000000E+00  0.00000000E+00
  0.00000000E+00  0.00000000E+00  0.00000000E+00
  0.00000000E+00  0.00000000E+00  0.00000000E+00
  0.00000000E+00  0.00000000E+00  0.00000000E+00
  0.00000000E+00  0.00000000E+00  0.00000000E+00
  0.00000000E+00  0.00000000E+00  0.00000000E+00
  0.00000000E+00  0.00000000E+00  0.00000000E+00
  0.00000000E+00  0.00000000E+00  0.00000000E+00
  0.00000000E+00  0.00000000E+00  0.00000000E+00
  0.00000000E+00  0.00000000E+00  0.00000000E+00
  0.00000000E+00  0.00000000E+00  0.00000000E+00
  0.00000000E+00  0.00000000E+00  0.00000000E+00
  0.00000000E+00  0.00000000E+00  0.00000000E+00
  0.00000000E+00  0.00000000E+00  0.00000000E+00
  0.00000000E+00  0.00000000E+00  0.00000000E+00
  0.00000000E+00  0.00000000E+00  0.00000000E+00
  0.00000000E+00  0.00000000E+00  0.00000000E+00
  0.00000000E+00  0.00000000E+00  0.00000000E+00
  0.00000000E+00  0.00000000E+00  0.00000000E+00
  0.00000000E+00  0.00000000E+00  0.00000000E+00
  0.00000000E+00  0.00000000E+00  0.00000000E+00
  0.00000000E+00  0.00000000E+00  0.00000000E+00
  0.00000000E+00  0.00000000E+00  0.00000000E+00
  0.00000000E+00  0.00000000E+00  0.00000000E+00
  0.00000000E+00  0.00000000E+00  0.00000000E+00
  0.00000000E+00  0.00000000E+00  0.00000000E+00
  0.00000000E+00  0.00000000E+00  0.00000000E+00
  0.00000000E+00  0.00000000E+00  0.00000000E+00
  0.00000000E+00  0.00000000E+00  0.00000000E+00
  0.00000000E+00  0.00000000E+00  0.00000000E+00
  0.00000000E+00  0.00000000E+00  0.00000000E+00
  0.00000000E+00  0.00000000E+00  0.00000000E+00
  0.00000000E+00  0.00000000E+00  0.00000000E+00
  0.00000000E+00  0.00000000E+00  0.00000000E+00
  0.00000000E+00  0.00000000E+00  0.00000000E+00
  0.00000000E+00  0.00000000E+00  0.00000000E+00
  0.00000000E+00  0.00000000E+00  0.00000000E+00
  0.00000000E+00  0.00000000E+00  0.00000000E+00
  0.00000000E+00  0.00000000E+00  0.00000000E+00
  0.00000000E+00  0.00000000E+00  0.00000000E+00
  0.00000000E+00  0.00000000E+00  0.00000000E+00
  0.00000000E+00  0.00000000E+00  0.00000000E+00
