CONTCAR\(7)                             
   1.00000000000000     
    12.4780998230000009    0.0000000000000000    0.0000000000000000
     0.0000000000000000   15.4434003830000002    0.0000000000000000
     0.0000000000000000    0.0000000000000000   19.6900997161999989
   Nb   Co   Te   O 
    16    16    32     1
Direct
  0.2388050665864441  0.1259250643232050  0.4925163759674263
  0.2528717787110679  0.3212987104999030  0.5037800125889049
  0.4901550585164003  0.0760991566737701  0.5053486423154254
  0.0061479077876925  0.3760056847081614  0.4922397162750585
  0.7386432770826801  0.1280803013332488  0.4918136398783304
  0.7553278462530386  0.3274149784975222  0.5061070356666093
  0.9892749585924889  0.0757060243132415  0.5034404606426577
  0.5058256251381721  0.3762700799063836  0.4955224647511258
  0.2436036717328491  0.6279393738366821  0.4995283468338201
  0.2563284907953971  0.8276462473798958  0.5069748071553235
  0.4903003190348301  0.5725622755154660  0.5245214607136717
  0.0078525068363575  0.8774495707076184  0.4934481484867632
  0.7388176200445642  0.6289870658081256  0.4916585365824275
  0.7593466240045217  0.8280016200747440  0.5062898839906111
  0.9912306723526143  0.5748136678667777  0.5068301091432019
  0.5085954771296528  0.8782427090423468  0.4962155949276763
  0.4248370685358012  0.2287605024810730  0.4586908473025773
  0.1728441125877040  0.4725816529462676  0.5428831681516044
  0.3277798103706147  0.4812243536937686  0.4666008771904231
  0.0680758848944620  0.2223796020743833  0.5398483914283574
  0.9221753454158303  0.2289819339523405  0.4573943502408184
  0.6823145458552062  0.4777270989307709  0.5454741850028526
  0.8232688102964758  0.4790142576561394  0.4596408724436287
  0.5695289431495141  0.2247388003684421  0.5415960543802072
  0.4312937500122871  0.7270575386110565  0.4650216687928861
  0.1762917576260463  0.9743880277011172  0.5408987480988756
  0.3225748469559448  0.9791426280126387  0.4588790299005510
  0.0712340720419391  0.7231282964759131  0.5429975898355295
  0.9251240723977574  0.7286647502379466  0.4595381844286095
  0.6776066776531167  0.9756591752858768  0.5404171422506110
  0.8215259694953048  0.9796250302475329  0.4573724226511970
  0.5804840518934853  0.7242785016142150  0.5438685311664386
  0.1312618057933790  0.4922532474343768  0.4151080012660202
  0.3674739284216884  0.3569295168044206  0.3833342496843315
  0.1156825751307622  0.3450210047820335  0.6179214746038468
  0.3742096687564853  0.2060170155627290  0.5869048660951393
  0.3757397743343134  0.1047558723344437  0.3804153882063090
  0.1234568285888500  0.0977396498160914  0.6175982597908458
  0.1157410048691361  0.2394863305222614  0.4106037513047482
  0.3591287533570267  0.4378427545146195  0.5923203711123151
  0.6250840354415601  0.4959899346320711  0.4194618804601831
  0.8689486820645413  0.3560660620627729  0.3803656866790561
  0.6206829284731228  0.3498119928593511  0.6194105582287506
  0.8738204486075958  0.2094285480895266  0.5865535765665868
  0.8739682613828563  0.1050336935356952  0.3789856449185507
  0.6265521278359927  0.0988401299057315  0.6180323706180886
  0.6186791951733213  0.2451381328928264  0.4121695570571546
  0.8758308924510487  0.4576669266824496  0.5890099598389114
  0.1271243952392354  0.9912651915284698  0.4114101139074791
  0.3718851482369629  0.8512254207956218  0.3841271165938380
  0.1183841159763972  0.8495069551054399  0.6192080384851195
  0.3755428188540222  0.7198683264068819  0.5905209557978139
  0.3815104881539639  0.6050391647779207  0.3888517918988228
  0.1262959277783011  0.5964947915436483  0.6211391511706381
  0.1213569000010892  0.7402426290113624  0.4151959421954317
  0.3708602787149644  0.9614233211959586  0.5884346825483959
  0.6261349892056742  0.9933152546194393  0.4117694036057102
  0.8731993310687542  0.8549956692566099  0.3808412291950276
  0.6233102141678373  0.8520457219814688  0.6198211951747652
  0.8764112666856931  0.7101370258255884  0.5877982377597988
  0.8768542225372613  0.6044370299560455  0.3813122082171176
  0.6537192055585948  0.6074460717079120  0.6248055921486255
  0.6212150476507929  0.7471335915180433  0.4126328878449286
  0.8720107705340823  0.9608130873800391  0.5870280229061962
  0.4946873631744353  0.5642354461815486  0.6241403299351589
 
  0.00000000E+00  0.00000000E+00  0.00000000E+00
  0.00000000E+00  0.00000000E+00  0.00000000E+00
  0.00000000E+00  0.00000000E+00  0.00000000E+00
  0.00000000E+00  0.00000000E+00  0.00000000E+00
  0.00000000E+00  0.00000000E+00  0.00000000E+00
  0.00000000E+00  0.00000000E+00  0.00000000E+00
  0.00000000E+00  0.00000000E+00  0.00000000E+00
  0.00000000E+00  0.00000000E+00  0.00000000E+00
  0.00000000E+00  0.00000000E+00  0.00000000E+00
  0.00000000E+00  0.00000000E+00  0.00000000E+00
  0.00000000E+00  0.00000000E+00  0.00000000E+00
  0.00000000E+00  0.00000000E+00  0.00000000E+00
  0.00000000E+00  0.00000000E+00  0.00000000E+00
  0.00000000E+00  0.00000000E+00  0.00000000E+00
  0.00000000E+00  0.00000000E+00  0.00000000E+00
  0.00000000E+00  0.00000000E+00  0.00000000E+00
  0.00000000E+00  0.00000000E+00  0.00000000E+00
  0.00000000E+00  0.00000000E+00  0.00000000E+00
  0.00000000E+00  0.00000000E+00  0.00000000E+00
  0.00000000E+00  0.00000000E+00  0.00000000E+00
  0.00000000E+00  0.00000000E+00  0.00000000E+00
  0.00000000E+00  0.00000000E+00  0.00000000E+00
  0.00000000E+00  0.00000000E+00  0.00000000E+00
  0.00000000E+00  0.00000000E+00  0.00000000E+00
  0.00000000E+00  0.00000000E+00  0.00000000E+00
  0.00000000E+00  0.00000000E+00  0.00000000E+00
  0.00000000E+00  0.00000000E+00  0.00000000E+00
  0.00000000E+00  0.00000000E+00  0.00000000E+00
  0.00000000E+00  0.00000000E+00  0.00000000E+00
  0.00000000E+00  0.00000000E+00  0.00000000E+00
  0.00000000E+00  0.00000000E+00  0.00000000E+00
  0.00000000E+00  0.00000000E+00  0.00000000E+00
  0.00000000E+00  0.00000000E+00  0.00000000E+00
  0.00000000E+00  0.00000000E+00  0.00000000E+00
  0.00000000E+00  0.00000000E+00  0.00000000E+00
  0.00000000E+00  0.00000000E+00  0.00000000E+00
  0.00000000E+00  0.00000000E+00  0.00000000E+00
  0.00000000E+00  0.00000000E+00  0.00000000E+00
  0.00000000E+00  0.00000000E+00  0.00000000E+00
  0.00000000E+00  0.00000000E+00  0.00000000E+00
  0.00000000E+00  0.00000000E+00  0.00000000E+00
  0.00000000E+00  0.00000000E+00  0.00000000E+00
  0.00000000E+00  0.00000000E+00  0.00000000E+00
  0.00000000E+00  0.00000000E+00  0.00000000E+00
  0.00000000E+00  0.00000000E+00  0.00000000E+00
  0.00000000E+00  0.00000000E+00  0.00000000E+00
  0.00000000E+00  0.00000000E+00  0.00000000E+00
  0.00000000E+00  0.00000000E+00  0.00000000E+00
  0.00000000E+00  0.00000000E+00  0.00000000E+00
  0.00000000E+00  0.00000000E+00  0.00000000E+00
  0.00000000E+00  0.00000000E+00  0.00000000E+00
  0.00000000E+00  0.00000000E+00  0.00000000E+00
  0.00000000E+00  0.00000000E+00  0.00000000E+00
  0.00000000E+00  0.00000000E+00  0.00000000E+00
  0.00000000E+00  0.00000000E+00  0.00000000E+00
  0.00000000E+00  0.00000000E+00  0.00000000E+00
  0.00000000E+00  0.00000000E+00  0.00000000E+00
  0.00000000E+00  0.00000000E+00  0.00000000E+00
  0.00000000E+00  0.00000000E+00  0.00000000E+00
  0.00000000E+00  0.00000000E+00  0.00000000E+00
  0.00000000E+00  0.00000000E+00  0.00000000E+00
  0.00000000E+00  0.00000000E+00  0.00000000E+00
  0.00000000E+00  0.00000000E+00  0.00000000E+00
  0.00000000E+00  0.00000000E+00  0.00000000E+00
  0.00000000E+00  0.00000000E+00  0.00000000E+00
