CONTCAR\(4)                             
   1.00000000000000     
    11.0221996306999994    0.0000000000000000    0.0000000000000000
     0.0000000000000000   11.0221996306999994    0.0000000000000000
     0.0000000000000000    0.0000000000000000   21.0879001616999986
   Hf   Te   O 
    27    18     1
Direct
  0.1631593220168884  0.1632053282085742  0.5783879405557236
  0.1663079548907702  0.1663333890392762  0.4198777180849436
  0.0000777377377731  0.0001006708941579  0.4990138479394116
  0.5000761351590257  0.1675736950745067  0.5828255695922371
  0.5001137089542451  0.1680213179414563  0.4207895884826727
  0.3359516711712611  0.0001282010046279  0.5001825888899377
  0.8370652609608041  0.1632340319833923  0.5783698604870933
  0.8339580819866218  0.1663151756255283  0.4198528343525228
  0.6643295733198374  0.0001367759440019  0.5001511780616317
  0.1675389235408934  0.5000997592979805  0.5828263874928815
  0.1679908390497684  0.5001445833318078  0.4207886070042471
  0.0001016618955913  0.3359964998258808  0.5001832777286974
  0.5000679044610794  0.5000855657094938  0.5898588606964370
  0.5000834912131109  0.5001057366388962  0.4212662237828520
  0.3307777838578243  0.3308119110741621  0.5014146387652986
  0.8326340713178995  0.5001172399656756  0.5828275458441308
  0.8321996005177256  0.5001502651737645  0.4207807730135515
  0.6693908223058509  0.3308483761217716  0.5014147151273948
  0.1631917206847041  0.8370941045351334  0.5783786059082392
  0.1662761363343654  0.8339816749895100  0.4198495081147928
  0.0001074962383998  0.6643613924178712  0.5001520195895033
  0.5000901626512574  0.8326610487047919  0.5828296890142934
  0.5001241438369300  0.8322255381673820  0.4207845398869212
  0.3308157051255285  0.6694272894765346  0.5014156985999858
  0.8370193725277956  0.8370469639856718  0.5783787050227606
  0.8339745977445634  0.8339951011006400  0.4198218375267361
  0.6693617803604804  0.6693862579882899  0.5013965549624719
  0.0001145781126130  0.0001393349254069  0.6448155975881750
  0.0002138004072247  0.0002701235099448  0.3548950905758320
  0.3324131258462241  0.0001377345815120  0.6438195580783578
  0.3345238908630551  0.0001017211135806  0.3564118573006536
  0.6678665894982347  0.0001484884677276  0.6437205732304215
  0.6657487792080731  0.0001271002226169  0.3563685502723976
  0.0001102484420685  0.3324605729021672  0.6438237679995062
  0.0000800667143538  0.3345495798494969  0.3564145095743270
  0.3238216587397917  0.3238364743137696  0.6446329594158655
  0.3338084384199302  0.3338396759168526  0.3570260247768019
  0.6763371258417480  0.3238309486079280  0.6446194203171384
  0.6663777509401291  0.3338121188327596  0.3570172417807422
  0.0001219986201733  0.6679175353503902  0.6437330930894954
  0.0000985575670454  0.6657860746590630  0.3563510554242801
  0.3238129277680986  0.6763499304355494  0.6446106046890977
  0.3337697338766042  0.6664100256066307  0.3570188663054139
  0.6763199144874604  0.6763341132770515  0.6445808495712672
  0.6663936255943136  0.6664154276224099  0.3570160527170695
  0.5000616671918781  0.5000752395843645  0.6781143977657773
 
  0.00000000E+00  0.00000000E+00  0.00000000E+00
  0.00000000E+00  0.00000000E+00  0.00000000E+00
  0.00000000E+00  0.00000000E+00  0.00000000E+00
  0.00000000E+00  0.00000000E+00  0.00000000E+00
  0.00000000E+00  0.00000000E+00  0.00000000E+00
  0.00000000E+00  0.00000000E+00  0.00000000E+00
  0.00000000E+00  0.00000000E+00  0.00000000E+00
  0.00000000E+00  0.00000000E+00  0.00000000E+00
  0.00000000E+00  0.00000000E+00  0.00000000E+00
  0.00000000E+00  0.00000000E+00  0.00000000E+00
  0.00000000E+00  0.00000000E+00  0.00000000E+00
  0.00000000E+00  0.00000000E+00  0.00000000E+00
  0.00000000E+00  0.00000000E+00  0.00000000E+00
  0.00000000E+00  0.00000000E+00  0.00000000E+00
  0.00000000E+00  0.00000000E+00  0.00000000E+00
  0.00000000E+00  0.00000000E+00  0.00000000E+00
  0.00000000E+00  0.00000000E+00  0.00000000E+00
  0.00000000E+00  0.00000000E+00  0.00000000E+00
  0.00000000E+00  0.00000000E+00  0.00000000E+00
  0.00000000E+00  0.00000000E+00  0.00000000E+00
  0.00000000E+00  0.00000000E+00  0.00000000E+00
  0.00000000E+00  0.00000000E+00  0.00000000E+00
  0.00000000E+00  0.00000000E+00  0.00000000E+00
  0.00000000E+00  0.00000000E+00  0.00000000E+00
  0.00000000E+00  0.00000000E+00  0.00000000E+00
  0.00000000E+00  0.00000000E+00  0.00000000E+00
  0.00000000E+00  0.00000000E+00  0.00000000E+00
  0.00000000E+00  0.00000000E+00  0.00000000E+00
  0.00000000E+00  0.00000000E+00  0.00000000E+00
  0.00000000E+00  0.00000000E+00  0.00000000E+00
  0.00000000E+00  0.00000000E+00  0.00000000E+00
  0.00000000E+00  0.00000000E+00  0.00000000E+00
  0.00000000E+00  0.00000000E+00  0.00000000E+00
  0.00000000E+00  0.00000000E+00  0.00000000E+00
  0.00000000E+00  0.00000000E+00  0.00000000E+00
  0.00000000E+00  0.00000000E+00  0.00000000E+00
  0.00000000E+00  0.00000000E+00  0.00000000E+00
  0.00000000E+00  0.00000000E+00  0.00000000E+00
  0.00000000E+00  0.00000000E+00  0.00000000E+00
  0.00000000E+00  0.00000000E+00  0.00000000E+00
  0.00000000E+00  0.00000000E+00  0.00000000E+00
  0.00000000E+00  0.00000000E+00  0.00000000E+00
  0.00000000E+00  0.00000000E+00  0.00000000E+00
  0.00000000E+00  0.00000000E+00  0.00000000E+00
  0.00000000E+00  0.00000000E+00  0.00000000E+00
  0.00000000E+00  0.00000000E+00  0.00000000E+00
