CONTCAR                                 
   1.00000000000000     
    11.9881000519000001    0.0000000000000000    0.0000000000000000
    -5.9940500259000000   10.3819991880000000    0.0000000000000000
     0.0000000000000000    0.0000000000000000   19.4675998688000007
   Ti   C    O    H 
    32    16    32     1
Direct
  0.1666193798744812  0.0832555919893767  0.5666339549432613
  0.0833595916649810  0.1667274694682647  0.4320024026162300
  0.4166444750714919  0.0832661086333137  0.5666381805745138
  0.3333228523828781  0.1666589705205583  0.4320654164875116
  0.6667154533887161  0.0833667516964889  0.5665022466315308
  0.5833642241758143  0.1667308646410363  0.4319983537697869
  0.9166492507825492  0.0833622062357147  0.5665080580104204
  0.8333349133295124  0.1666697814663781  0.4317681139538229
  0.1667123319492738  0.3333625327005033  0.5666275601944507
  0.0833612107619312  0.4166456391152619  0.4320023730839922
  0.4166275144326620  0.3332607292485039  0.5664221919535279
  0.3334102433531438  0.4167124434107110  0.4318683154509501
  0.6666449698373720  0.3333662473807434  0.5666176933238800
  0.5832920365426053  0.4167131635754670  0.4318686309681420
  0.9166432799226971  0.3332890828592397  0.5664993004380133
  0.8332779634599968  0.4166444475434296  0.4320002253842884
  0.1666093348282047  0.5833667008288963  0.5666418711124327
  0.0832830480416065  0.6665783125000340  0.4319097579514572
  0.4166292808294734  0.5833689663199472  0.5664096676408561
  0.3333207793251659  0.6666850999301238  0.4320444046337789
  0.6667434223680578  0.5833746314438658  0.5664114250896387
  0.5832953303468190  0.6666024921999234  0.4318602857145697
  0.9167459794450113  0.5833625576390922  0.5666461395764346
  0.8333546638919337  0.6666842449872996  0.4320544702493727
  0.1666741450148140  0.8333508419666810  0.5663024790826086
  0.0832846415532250  0.9167276758387061  0.4318916003093210
  0.4166299503471801  0.8333936702107736  0.5666326757440689
  0.3334346933763145  0.9167295186621440  0.4318944090706038
  0.6666463877275761  0.8333013332881247  0.5666358621738991
  0.5833582237619988  0.9166432573751543  0.4320089540167324
  0.9167619373049668  0.8333903471834726  0.5666328667401643
  0.8332803413134914  0.9166465063450659  0.4320118326562871
  0.0000003511198398  0.0000044685262479  0.4993022647189091
  0.2500172875095885  0.0000357107506293  0.4992492688392258
  0.5000052280170380  0.0000092685159137  0.4992980624472061
  0.7499953852509520 -0.0000094798997173  0.4992416225471548
  0.0000204497828346  0.2500108087828206  0.4992394617861221
  0.2500202793676150  0.2499886620243789  0.4992329738311382
  0.4999667033891760  0.2499936415670391  0.4992304201696565
  0.7499910409150281  0.2500138201806290  0.4992388146901510
  0.0000032452945178  0.5000107899613816  0.4993005692648963
  0.2500146114066337  0.5000415400911596  0.4992225801120898
  0.4999999745723709  0.5000090925787123  0.4991529873284407
  0.7500177591628870  0.5000457231197668  0.4992274813575571
 -0.0000291431255568  0.7499906866105723  0.4992496522656337
  0.2500143470307334  0.7499913457514535  0.4992471693377286
  0.4999641285650016  0.7499942520327246  0.4992208489517086
  0.7500242008189129  0.7499924515766743  0.4992282545582177
  0.0834224014534585  0.1666895709644466  0.6140445875916218
  0.1665930672328307  0.0833193764536895  0.3844971492075314
  0.3333822606189342  0.1667681437986820  0.6140525387827427
  0.4167231885127465  0.0833197733705060  0.3844951490325826
  0.5832646081853582  0.1666937069534962  0.6140432581450241
  0.6666232612689816  0.0833185368740326  0.3844845254347498
  0.8333349726091849  0.1666740133183233  0.6140008104668938
  0.9166935683774775  0.0833174841027975  0.3844831065933350
  0.0834169323210655  0.4167431667722711  0.6140430994910602
  0.1666374424542975  0.3333210617907622  0.3845253334435635
  0.3332487561772272  0.4166434198327353  0.6139490107811957
  0.4167029564772614  0.3334022176967579  0.3844725556688581
  0.5833811589833884  0.4166403308666252  0.6139488997276690
  0.6666845160256376  0.3333236349229613  0.3845235776659773
  0.8333201092784310  0.4167454641334818  0.6140427310230013
  0.9166882573444204  0.3333792536245812  0.3844869367027915
  0.0833667237524114  0.6667592690326464  0.6140136981341616
  0.1665873509479416  0.5832879784080475  0.3844977674673959
  0.3333701209873297  0.6666364873916495  0.6140407139898366
  0.4166970393409514  0.5833008081086390  0.3844620442384420
  0.5833739566917168  0.6667700981576153  0.6139412262495776
  0.6666040144413612  0.5833001287339474  0.3844659070653907
  0.8332417739314161  0.6666284526235235  0.6140501306781900
  0.9166905106830744  0.5832861332050087  0.3844986215256122
  0.0833785459209729  0.9166335923399296  0.6140091828831233
  0.1666665820055850  0.8333420074358581  0.3844714333620700
  0.3332541351635584  0.9166465668983783  0.6140080979851281
  0.4167172367188642  0.8334174693087854  0.3844946477858585
  0.5832624537666870  0.9165939782977811  0.6140448610583130
  0.6666837662045495  0.8333705801770424  0.3845261023676597
  0.8333190248417394  0.9165873450672628  0.6140483183301961
  0.9166867087003684  0.8334126259427032  0.3844962065114096
  0.5001448910972450  0.5013364500203993  0.7281834378566461
 
  0.00000000E+00  0.00000000E+00  0.00000000E+00
  0.00000000E+00  0.00000000E+00  0.00000000E+00
  0.00000000E+00  0.00000000E+00  0.00000000E+00
  0.00000000E+00  0.00000000E+00  0.00000000E+00
  0.00000000E+00  0.00000000E+00  0.00000000E+00
  0.00000000E+00  0.00000000E+00  0.00000000E+00
  0.00000000E+00  0.00000000E+00  0.00000000E+00
  0.00000000E+00  0.00000000E+00  0.00000000E+00
  0.00000000E+00  0.00000000E+00  0.00000000E+00
  0.00000000E+00  0.00000000E+00  0.00000000E+00
  0.00000000E+00  0.00000000E+00  0.00000000E+00
  0.00000000E+00  0.00000000E+00  0.00000000E+00
  0.00000000E+00  0.00000000E+00  0.00000000E+00
  0.00000000E+00  0.00000000E+00  0.00000000E+00
  0.00000000E+00  0.00000000E+00  0.00000000E+00
  0.00000000E+00  0.00000000E+00  0.00000000E+00
  0.00000000E+00  0.00000000E+00  0.00000000E+00
  0.00000000E+00  0.00000000E+00  0.00000000E+00
  0.00000000E+00  0.00000000E+00  0.00000000E+00
  0.00000000E+00  0.00000000E+00  0.00000000E+00
  0.00000000E+00  0.00000000E+00  0.00000000E+00
  0.00000000E+00  0.00000000E+00  0.00000000E+00
  0.00000000E+00  0.00000000E+00  0.00000000E+00
  0.00000000E+00  0.00000000E+00  0.00000000E+00
  0.00000000E+00  0.00000000E+00  0.00000000E+00
  0.00000000E+00  0.00000000E+00  0.00000000E+00
  0.00000000E+00  0.00000000E+00  0.00000000E+00
  0.00000000E+00  0.00000000E+00  0.00000000E+00
  0.00000000E+00  0.00000000E+00  0.00000000E+00
  0.00000000E+00  0.00000000E+00  0.00000000E+00
  0.00000000E+00  0.00000000E+00  0.00000000E+00
  0.00000000E+00  0.00000000E+00  0.00000000E+00
  0.00000000E+00  0.00000000E+00  0.00000000E+00
  0.00000000E+00  0.00000000E+00  0.00000000E+00
  0.00000000E+00  0.00000000E+00  0.00000000E+00
  0.00000000E+00  0.00000000E+00  0.00000000E+00
  0.00000000E+00  0.00000000E+00  0.00000000E+00
  0.00000000E+00  0.00000000E+00  0.00000000E+00
  0.00000000E+00  0.00000000E+00  0.00000000E+00
  0.00000000E+00  0.00000000E+00  0.00000000E+00
  0.00000000E+00  0.00000000E+00  0.00000000E+00
  0.00000000E+00  0.00000000E+00  0.00000000E+00
  0.00000000E+00  0.00000000E+00  0.00000000E+00
  0.00000000E+00  0.00000000E+00  0.00000000E+00
  0.00000000E+00  0.00000000E+00  0.00000000E+00
  0.00000000E+00  0.00000000E+00  0.00000000E+00
  0.00000000E+00  0.00000000E+00  0.00000000E+00
  0.00000000E+00  0.00000000E+00  0.00000000E+00
  0.00000000E+00  0.00000000E+00  0.00000000E+00
  0.00000000E+00  0.00000000E+00  0.00000000E+00
  0.00000000E+00  0.00000000E+00  0.00000000E+00
  0.00000000E+00  0.00000000E+00  0.00000000E+00
  0.00000000E+00  0.00000000E+00  0.00000000E+00
  0.00000000E+00  0.00000000E+00  0.00000000E+00
  0.00000000E+00  0.00000000E+00  0.00000000E+00
  0.00000000E+00  0.00000000E+00  0.00000000E+00
  0.00000000E+00  0.00000000E+00  0.00000000E+00
  0.00000000E+00  0.00000000E+00  0.00000000E+00
  0.00000000E+00  0.00000000E+00  0.00000000E+00
  0.00000000E+00  0.00000000E+00  0.00000000E+00
  0.00000000E+00  0.00000000E+00  0.00000000E+00
  0.00000000E+00  0.00000000E+00  0.00000000E+00
  0.00000000E+00  0.00000000E+00  0.00000000E+00
  0.00000000E+00  0.00000000E+00  0.00000000E+00
  0.00000000E+00  0.00000000E+00  0.00000000E+00
  0.00000000E+00  0.00000000E+00  0.00000000E+00
  0.00000000E+00  0.00000000E+00  0.00000000E+00
  0.00000000E+00  0.00000000E+00  0.00000000E+00
  0.00000000E+00  0.00000000E+00  0.00000000E+00
  0.00000000E+00  0.00000000E+00  0.00000000E+00
  0.00000000E+00  0.00000000E+00  0.00000000E+00
  0.00000000E+00  0.00000000E+00  0.00000000E+00
  0.00000000E+00  0.00000000E+00  0.00000000E+00
  0.00000000E+00  0.00000000E+00  0.00000000E+00
  0.00000000E+00  0.00000000E+00  0.00000000E+00
  0.00000000E+00  0.00000000E+00  0.00000000E+00
  0.00000000E+00  0.00000000E+00  0.00000000E+00
  0.00000000E+00  0.00000000E+00  0.00000000E+00
  0.00000000E+00  0.00000000E+00  0.00000000E+00
  0.00000000E+00  0.00000000E+00  0.00000000E+00
  0.00000000E+00  0.00000000E+00  0.00000000E+00
