CONTCAR\(5)                             
   1.00000000000000     
    11.7456998825000003    0.0000000000000000    0.0000000000000000
     0.0000000000000000   17.6870002747000008    0.0000000000000000
     0.0000000000000000    0.0000000000000000   19.5771007537999999
   Ti   Ge   Te   O 
     6     6    36     1
Direct
  0.0839701948710555  0.4803018263943560  0.5152988841904492
  0.2488416727409508  0.9548460570265686  0.4878438232059417
  0.4151474249601259  0.4812026992461120  0.5171421543641558
  0.5821361407193547  0.9550984825777767  0.4870058337511729
  0.7514368180914476  0.4811697052435779  0.5185246632609591
  0.9148702870668209  0.9545872532775055  0.4871887916900291
  0.2483729444280827  0.8045811361758238  0.4793827190020716
  0.0829146988154828  0.6303613437444224  0.5235732896526513
  0.5826066076252961  0.8049660087714324  0.4764385730880251
  0.4136576080101448  0.6319414510658528  0.5204536702066607
  0.9162944134439889  0.8043270131981543  0.4797640653058540
  0.7520002083070183  0.6319078134194256  0.5220977150635960
  0.0822972130643510  0.9261367255034303  0.3812078236806430
  0.2529414789539041  0.2588758275393933  0.5701725557938013
  0.2478887945637267  0.0652073287687700  0.3818584547539558
  0.0820723371478984  0.8987648038431334  0.5843127934610968
  0.2496948444570094  0.5082186305692712  0.6224650665031627
  0.0866165626253529  0.3698715481368054  0.6209424206286505
  0.0798280466000154  0.1768083751095701  0.4256311376684366
  0.2503220161012012  0.7093739783275165  0.5909371113517162
  0.0820549497787601  0.7257223155201513  0.4117777931721377
  0.2509644398677897  0.3816279267390753  0.4594403075807285
  0.0810443525649558  0.0529811535631551  0.5429408261406917
  0.2494620934359423  0.5378504813231693  0.4189130513080742
  0.4139829871274873  0.9251333199335436  0.3808292733941747
  0.5846088829204319  0.2534441790536729  0.5794185918190342
  0.5813387706713266  0.0639245317853908  0.3802453861148635
  0.4163298304986860  0.8996664081757089  0.5842286915415615
  0.5828059266265969  0.5255472504206432  0.6182756366533194
  0.4226873163591857  0.3646631247436516  0.6268403938544127
  0.4169530463294746  0.1771597479582619  0.4252382888329555
  0.5822890685451670  0.7128908535773066  0.5891090609569897
  0.4143061167966912  0.7272571117363391  0.4092294589017441
  0.5841814147337112  0.3821563637797686  0.4641406678707400
  0.4155179377488426  0.0535571208455993  0.5423968720287574
  0.5836642687743834  0.5328524193394263  0.4180947677720772
  0.7489808827549718  0.9242814268061496  0.3804834663957813
  0.9137150479098995  0.2598703370933614  0.5745716920428067
  0.9161056588310651  0.0638732862716947  0.3801707987749300
  0.7482879442756621  0.9007402588987340  0.5842488013440958
  0.9189149401650953  0.5076168205143625  0.6231415122572843
  0.7470285348099052  0.3644788660373798  0.6276047668396887
  0.7477006831669563  0.1765917035961713  0.4226946553029372
  0.9158773490169806  0.7095731578878962  0.5915575480438966
  0.7505507870449635  0.7261643035626678  0.4101444960278912
  0.9161688670785105  0.3815635124272493  0.4607940558706085
  0.7489119554336430  0.0543991095369619  0.5408814952229219
  0.9159045999811968  0.5367962035338326  0.4195855488126853
  0.5763212971584883  0.4262784703997379  0.6699207464992267
 
  0.00000000E+00  0.00000000E+00  0.00000000E+00
  0.00000000E+00  0.00000000E+00  0.00000000E+00
  0.00000000E+00  0.00000000E+00  0.00000000E+00
  0.00000000E+00  0.00000000E+00  0.00000000E+00
  0.00000000E+00  0.00000000E+00  0.00000000E+00
  0.00000000E+00  0.00000000E+00  0.00000000E+00
  0.00000000E+00  0.00000000E+00  0.00000000E+00
  0.00000000E+00  0.00000000E+00  0.00000000E+00
  0.00000000E+00  0.00000000E+00  0.00000000E+00
  0.00000000E+00  0.00000000E+00  0.00000000E+00
  0.00000000E+00  0.00000000E+00  0.00000000E+00
  0.00000000E+00  0.00000000E+00  0.00000000E+00
  0.00000000E+00  0.00000000E+00  0.00000000E+00
  0.00000000E+00  0.00000000E+00  0.00000000E+00
  0.00000000E+00  0.00000000E+00  0.00000000E+00
  0.00000000E+00  0.00000000E+00  0.00000000E+00
  0.00000000E+00  0.00000000E+00  0.00000000E+00
  0.00000000E+00  0.00000000E+00  0.00000000E+00
  0.00000000E+00  0.00000000E+00  0.00000000E+00
  0.00000000E+00  0.00000000E+00  0.00000000E+00
  0.00000000E+00  0.00000000E+00  0.00000000E+00
  0.00000000E+00  0.00000000E+00  0.00000000E+00
  0.00000000E+00  0.00000000E+00  0.00000000E+00
  0.00000000E+00  0.00000000E+00  0.00000000E+00
  0.00000000E+00  0.00000000E+00  0.00000000E+00
  0.00000000E+00  0.00000000E+00  0.00000000E+00
  0.00000000E+00  0.00000000E+00  0.00000000E+00
  0.00000000E+00  0.00000000E+00  0.00000000E+00
  0.00000000E+00  0.00000000E+00  0.00000000E+00
  0.00000000E+00  0.00000000E+00  0.00000000E+00
  0.00000000E+00  0.00000000E+00  0.00000000E+00
  0.00000000E+00  0.00000000E+00  0.00000000E+00
  0.00000000E+00  0.00000000E+00  0.00000000E+00
  0.00000000E+00  0.00000000E+00  0.00000000E+00
  0.00000000E+00  0.00000000E+00  0.00000000E+00
  0.00000000E+00  0.00000000E+00  0.00000000E+00
  0.00000000E+00  0.00000000E+00  0.00000000E+00
  0.00000000E+00  0.00000000E+00  0.00000000E+00
  0.00000000E+00  0.00000000E+00  0.00000000E+00
  0.00000000E+00  0.00000000E+00  0.00000000E+00
  0.00000000E+00  0.00000000E+00  0.00000000E+00
  0.00000000E+00  0.00000000E+00  0.00000000E+00
  0.00000000E+00  0.00000000E+00  0.00000000E+00
  0.00000000E+00  0.00000000E+00  0.00000000E+00
  0.00000000E+00  0.00000000E+00  0.00000000E+00
  0.00000000E+00  0.00000000E+00  0.00000000E+00
  0.00000000E+00  0.00000000E+00  0.00000000E+00
  0.00000000E+00  0.00000000E+00  0.00000000E+00
  0.00000000E+00  0.00000000E+00  0.00000000E+00
