 Ta6 S18                                
   1.00000000000000     
     3.3517399541727002    0.0000000000000000    0.0000000000000000
     0.0000000000000000   14.7998067071976678    0.0000000000000000
     0.0000000000000000    0.0000000000000000   22.4343299946740622
   Ta   S 
     6    18
Direct
  0.7499999751045926  0.0869590787379512  0.4407793775365174
  0.2499999598210512  0.9131042478593042  0.5592216284762835
  0.7499999911394297  0.7549217183721080  0.4251610935757313
  0.2500000193279144  0.2451452944528102  0.5748405797018982
  0.7500000132266410  0.5045888259383760  0.5818698921451949
  0.2500000504090055  0.4954778538639316  0.4181278766730616
  0.7499999640162228  0.9211259985967959  0.4764005758872429
  0.2499999664920128  0.0789366062264163  0.5236002889816408
  0.7499999736625662  0.9765248546825702  0.6323044285578973
  0.2499999598507795  0.0235365942062462  0.3676961060022257
  0.7499999597646325  0.8312895206217013  0.6232129912000564
  0.2499999659505862  0.1687710600127988  0.3767893581102242
  0.7500000038949535  0.1562980541853109  0.6311941726434001
  0.2499999651551181  0.8437684198382651  0.3688061188556182
  0.7500000145233831  0.3453864529015010  0.6274160390653362
  0.2500000240656957  0.6546817489494556  0.3725825071580677
  0.7499999994089873  0.2442794051057318  0.4904204468060582
  0.2499999923869664  0.7557839229364192  0.5095800199239449
  0.7500000594570903  0.4792807441899199  0.3345034895569847
  0.2500000097463476  0.5207844670616038  0.6654954246916893
  0.7500000400161018  0.5819915878379950  0.4777912368899613
  0.2500000240417226  0.4180759049111225  0.5222072328350139
  0.7500000456579955  0.3725660529098495  0.3954919399041108
  0.2500000228802002  0.6275011611476419  0.6045071748218369
 
  0.00000000E+00  0.00000000E+00  0.00000000E+00
  0.00000000E+00  0.00000000E+00  0.00000000E+00
  0.00000000E+00  0.00000000E+00  0.00000000E+00
  0.00000000E+00  0.00000000E+00  0.00000000E+00
  0.00000000E+00  0.00000000E+00  0.00000000E+00
  0.00000000E+00  0.00000000E+00  0.00000000E+00
  0.00000000E+00  0.00000000E+00  0.00000000E+00
  0.00000000E+00  0.00000000E+00  0.00000000E+00
  0.00000000E+00  0.00000000E+00  0.00000000E+00
  0.00000000E+00  0.00000000E+00  0.00000000E+00
  0.00000000E+00  0.00000000E+00  0.00000000E+00
  0.00000000E+00  0.00000000E+00  0.00000000E+00
  0.00000000E+00  0.00000000E+00  0.00000000E+00
  0.00000000E+00  0.00000000E+00  0.00000000E+00
  0.00000000E+00  0.00000000E+00  0.00000000E+00
  0.00000000E+00  0.00000000E+00  0.00000000E+00
  0.00000000E+00  0.00000000E+00  0.00000000E+00
  0.00000000E+00  0.00000000E+00  0.00000000E+00
  0.00000000E+00  0.00000000E+00  0.00000000E+00
  0.00000000E+00  0.00000000E+00  0.00000000E+00
  0.00000000E+00  0.00000000E+00  0.00000000E+00
  0.00000000E+00  0.00000000E+00  0.00000000E+00
  0.00000000E+00  0.00000000E+00  0.00000000E+00
  0.00000000E+00  0.00000000E+00  0.00000000E+00
