CONTCAR\(15)                            
   1.00000000000000     
    13.4193000792999992    0.0000000000000000    0.0000000000000000
    -6.7096904058000000   11.6164658410000001    0.0000000000000000
     0.0000000000000000    0.0000000000000000   30.7367992401000016
   Bi   Te   Pb
    18    45    18
Direct
  0.1113252188037018  0.2226504506074011  0.4352500310731956
  0.2220047791962946  0.1106795603925928  0.5647499689268044
  0.4446552238037024  0.2226504506074011  0.4352500310731956
  0.5553447691963005  0.1106795603925928  0.5647499689268044
  0.7779952138037014  0.2226504506074011  0.4352500310731956
  0.8886747741963010  0.1106795603925928  0.5647499689268044
  0.1113252108037011  0.5559803896074034  0.4352500310731956
  0.2220047671963007  0.4440195453925949  0.5647499689268044
  0.4446551988037039  0.5559803896074034  0.4352500310731956
  0.5553447751963010  0.4440195453925949  0.5647499689268044
  0.7779952058037007  0.5559803896074034  0.4352500310731956
  0.8886747441962985  0.4440195453925949  0.5647499689268044
  0.1113252018037039  0.8893204886074006  0.4352500310731956
  0.2220047341963015  0.7773495053925952  0.5647499689268044
  0.4446552068037045  0.8893204886074006  0.4352500310731956
  0.5553447421962947  0.7773495053925952  0.5647499689268044
  0.7779952328036994  0.8893204886074006  0.4352500310731956
  0.8886747471962952  0.7773495053925952  0.5647499689268044
  0.2222404620560258  0.1111509261120552  0.7588325459048569
  0.2224153230457895  0.1115006480915824  0.3802991401147541
  0.1109146749542070  0.2218293629084115  0.6197008288852467
  0.0000000000000000  0.0000000000000000  0.5000000000000000
  0.1110895359439706  0.2221790848879388  0.2411674380951416
  0.5555804520560318  0.1111509261120552  0.7588325459048569
  0.5557553130457954  0.1115006480915824  0.3802991401147541
  0.4442446799542076  0.2218293629084115  0.6197008288852467
  0.3333300050000005 -0.0000000000000000  0.5000000000000000
  0.4444195409439712  0.2221790848879388  0.2411674380951416
  0.8889104570560323  0.1111509261120552  0.7588325459048569
  0.8890853180457959  0.1115006480915824  0.3802991401147541
  0.7775846699542065  0.2218293629084115  0.6197008288852467
  0.6666700310000024  0.0000000000000000  0.5000000000000000
  0.7777595309439701  0.2221790848879388  0.2411674380951416
  0.2222404500560319  0.4444909111120572  0.7588325459048569
  0.2224153110457956  0.4448406330915846  0.3802991401147541
  0.1109146669542063  0.5551593019084138  0.6197008288852467
  0.9999999879999990  0.3333300010000002  0.5000000000000000
  0.1110895279439700  0.5555090238879410  0.2411674380951416
  0.5555804580560323  0.4444909111120572  0.7588325459048569
  0.5557553190457959  0.4448406330915846  0.3802991401147541
  0.4442446549542091  0.5551593019084138  0.6197008288852467
  0.3333299929999995  0.3333300010000002  0.5000000000000000
  0.4444195159439727  0.5555090238879410  0.2411674380951416
  0.8889104270560299  0.4444909111120572  0.7588325459048569
  0.8890852880457935  0.4448406330915846  0.3802991401147541
  0.7775846619542058  0.5551593019084138  0.6197008288852467
  0.6666700179999978  0.3333300010000002  0.5000000000000000
  0.7777595229439694  0.5555090238879410  0.2411674380951416
  0.2222404170560327  0.7778208711120576  0.7588325459048569
  0.2224152780457964  0.7781705930915848  0.3802991401147541
  0.1109146579542091  0.8884994009084111  0.6197008288852467
  0.9999999730000013  0.6666700170000013  0.5000000000000000
  0.1110895189439728  0.8888491228879383  0.2411674380951416
  0.5555804250560260  0.7778208711120576  0.7588325459048569
  0.5557552860457896  0.7781705930915848  0.3802991401147541
  0.4442446629542097  0.8884994009084111  0.6197008288852467
  0.3333299780000019  0.6666700170000013  0.5000000000000000
  0.4444195239439733  0.8888491228879383  0.2411674380951416
  0.8889104300560265  0.7778208711120576  0.7588325459048569
  0.8890852910457901  0.7781705930915848  0.3802991401147541
  0.7775846889542045  0.8884994009084111  0.6197008288852467
  0.6666700039999967  0.6666700170000013  0.5000000000000000
  0.7777595499439681  0.8888491228879383  0.2411674380951416
 -0.0000028232575797 -0.0000056465151594  0.2937058354157490
  0.0000028232575797  0.0000056465151594  0.7063041555842500
  0.3333271817424208 -0.0000056465151594  0.2937058354157490
  0.3333328282575803  0.0000056465151594  0.7063041555842500
  0.6666672077424228 -0.0000056465151594  0.2937058354157490
  0.6666728542575820  0.0000056465151594  0.7063041555842500
 -0.0000028352575807  0.3333243544848407  0.2937058354157490
  0.0000028112575787  0.3333356475151597  0.7063041555842500
  0.3333271697424198  0.3333243544848407  0.2937058354157490
  0.3333328112575824  0.3333456215151607  0.7063041555842500
  0.6666671947424182  0.3333243544848407  0.2937058354157490
  0.6666728412575774  0.3333356475151597  0.7063041555842500
 -0.0000028472575817  0.6666543544848373  0.2937058354157490
  0.0000027962575810  0.6666756635151607  0.7063041555842500
  0.3333271577424188  0.6666543544848373  0.2937058354157490
  0.3333328012575816  0.6666756635151607  0.7063041555842500
  0.6666671827424172  0.6666543544848373  0.2937058354157490
  0.6666728272575763  0.6666756635151607  0.7063041555842500
 
  0.00000000E+00  0.00000000E+00  0.00000000E+00
  0.00000000E+00  0.00000000E+00  0.00000000E+00
  0.00000000E+00  0.00000000E+00  0.00000000E+00
  0.00000000E+00  0.00000000E+00  0.00000000E+00
  0.00000000E+00  0.00000000E+00  0.00000000E+00
  0.00000000E+00  0.00000000E+00  0.00000000E+00
  0.00000000E+00  0.00000000E+00  0.00000000E+00
  0.00000000E+00  0.00000000E+00  0.00000000E+00
  0.00000000E+00  0.00000000E+00  0.00000000E+00
  0.00000000E+00  0.00000000E+00  0.00000000E+00
  0.00000000E+00  0.00000000E+00  0.00000000E+00
  0.00000000E+00  0.00000000E+00  0.00000000E+00
  0.00000000E+00  0.00000000E+00  0.00000000E+00
  0.00000000E+00  0.00000000E+00  0.00000000E+00
  0.00000000E+00  0.00000000E+00  0.00000000E+00
  0.00000000E+00  0.00000000E+00  0.00000000E+00
  0.00000000E+00  0.00000000E+00  0.00000000E+00
  0.00000000E+00  0.00000000E+00  0.00000000E+00
  0.00000000E+00  0.00000000E+00  0.00000000E+00
  0.00000000E+00  0.00000000E+00  0.00000000E+00
  0.00000000E+00  0.00000000E+00  0.00000000E+00
  0.00000000E+00  0.00000000E+00  0.00000000E+00
  0.00000000E+00  0.00000000E+00  0.00000000E+00
  0.00000000E+00  0.00000000E+00  0.00000000E+00
  0.00000000E+00  0.00000000E+00  0.00000000E+00
  0.00000000E+00  0.00000000E+00  0.00000000E+00
  0.00000000E+00  0.00000000E+00  0.00000000E+00
  0.00000000E+00  0.00000000E+00  0.00000000E+00
  0.00000000E+00  0.00000000E+00  0.00000000E+00
  0.00000000E+00  0.00000000E+00  0.00000000E+00
  0.00000000E+00  0.00000000E+00  0.00000000E+00
  0.00000000E+00  0.00000000E+00  0.00000000E+00
  0.00000000E+00  0.00000000E+00  0.00000000E+00
  0.00000000E+00  0.00000000E+00  0.00000000E+00
  0.00000000E+00  0.00000000E+00  0.00000000E+00
  0.00000000E+00  0.00000000E+00  0.00000000E+00
  0.00000000E+00  0.00000000E+00  0.00000000E+00
  0.00000000E+00  0.00000000E+00  0.00000000E+00
  0.00000000E+00  0.00000000E+00  0.00000000E+00
  0.00000000E+00  0.00000000E+00  0.00000000E+00
  0.00000000E+00  0.00000000E+00  0.00000000E+00
  0.00000000E+00  0.00000000E+00  0.00000000E+00
  0.00000000E+00  0.00000000E+00  0.00000000E+00
  0.00000000E+00  0.00000000E+00  0.00000000E+00
  0.00000000E+00  0.00000000E+00  0.00000000E+00
  0.00000000E+00  0.00000000E+00  0.00000000E+00
  0.00000000E+00  0.00000000E+00  0.00000000E+00
  0.00000000E+00  0.00000000E+00  0.00000000E+00
  0.00000000E+00  0.00000000E+00  0.00000000E+00
  0.00000000E+00  0.00000000E+00  0.00000000E+00
  0.00000000E+00  0.00000000E+00  0.00000000E+00
  0.00000000E+00  0.00000000E+00  0.00000000E+00
  0.00000000E+00  0.00000000E+00  0.00000000E+00
  0.00000000E+00  0.00000000E+00  0.00000000E+00
  0.00000000E+00  0.00000000E+00  0.00000000E+00
  0.00000000E+00  0.00000000E+00  0.00000000E+00
  0.00000000E+00  0.00000000E+00  0.00000000E+00
  0.00000000E+00  0.00000000E+00  0.00000000E+00
  0.00000000E+00  0.00000000E+00  0.00000000E+00
  0.00000000E+00  0.00000000E+00  0.00000000E+00
  0.00000000E+00  0.00000000E+00  0.00000000E+00
  0.00000000E+00  0.00000000E+00  0.00000000E+00
  0.00000000E+00  0.00000000E+00  0.00000000E+00
  0.00000000E+00  0.00000000E+00  0.00000000E+00
  0.00000000E+00  0.00000000E+00  0.00000000E+00
  0.00000000E+00  0.00000000E+00  0.00000000E+00
  0.00000000E+00  0.00000000E+00  0.00000000E+00
  0.00000000E+00  0.00000000E+00  0.00000000E+00
  0.00000000E+00  0.00000000E+00  0.00000000E+00
  0.00000000E+00  0.00000000E+00  0.00000000E+00
  0.00000000E+00  0.00000000E+00  0.00000000E+00
  0.00000000E+00  0.00000000E+00  0.00000000E+00
  0.00000000E+00  0.00000000E+00  0.00000000E+00
  0.00000000E+00  0.00000000E+00  0.00000000E+00
  0.00000000E+00  0.00000000E+00  0.00000000E+00
  0.00000000E+00  0.00000000E+00  0.00000000E+00
  0.00000000E+00  0.00000000E+00  0.00000000E+00
  0.00000000E+00  0.00000000E+00  0.00000000E+00
  0.00000000E+00  0.00000000E+00  0.00000000E+00
  0.00000000E+00  0.00000000E+00  0.00000000E+00
  0.00000000E+00  0.00000000E+00  0.00000000E+00
