CONTCAR\(12)                            
   1.00000000000000     
    14.1683998108000004    0.0000000000000000    0.0000000000000000
     0.0000000000000000   20.5298995972000000    0.0000000000000000
     0.0000000000000000    0.0000000000000000   19.1021003723000007
   Nb   Te   O 
    32    48     1
Direct
  0.0615584506809955  0.1347291313603216  0.5486002702432982
  0.1877036173984502  0.0755140994775259  0.4508595025335337
  0.0621757305295498  0.2935019251525102  0.4986137118949255
  0.1862985215861991  0.4169581218453773  0.5011151455754796
  0.3127731522586371  0.1355474152807351  0.5483224759379223
  0.4376010220035053  0.0757693407978610  0.4509211741837779
  0.3123725229977578  0.2936534458966862  0.4987576666340860
  0.4374679838702913  0.4169604267145813  0.5009651162843172
  0.5623653776527824  0.1356538355788972  0.5483173437384536
  0.6872252466127536  0.0756171859229125  0.4508805270307640
  0.5625832674254392  0.2936666604883649  0.4988218006394000
  0.6890189995069784  0.4170246927835589  0.5010757880919970
  0.8133565427156370  0.1348191724182193  0.5486533209362333
  0.9375424212838928  0.0754781324095078  0.4512448268753971
  0.8129379051884306  0.2935451269553365  0.4986291084806184
  0.9374583724234965  0.4168444669726265  0.5008420838155073
  0.0619860432313637  0.6354783210149038  0.5491957848119988
  0.1872063150067976  0.5749905670034569  0.4514453854045263
  0.0625548981781234  0.7938445702806831  0.5004596705962303
  0.1818295300965903  0.9192935862428505  0.5001908492422013
  0.3114935465864168  0.6342738570314425  0.5492650983145438
  0.4376507773456312  0.5746263499360865  0.4513515759106732
  0.3152940019469284  0.7928058916387897  0.5015706344246514
  0.4377087815876247  0.9177913852745259  0.5021119453274284
  0.5635898262320317  0.6341768137294941  0.5492480288179110
  0.6878877461658187  0.5749622312879588  0.4513629588875245
  0.5599334993236031  0.7928710131553761  0.5016806572660200
  0.6930245370392868  0.9193322387661482  0.5001570978996416
  0.8131522071122032  0.6354509397233971  0.5492062940886268
  0.9375427390864624  0.5752402326167324  0.4514174711173238
  0.8124349277428553  0.7938860485178159  0.5005146995984606
  0.9373767573696198  0.9166544984145113  0.5014818279576381
  0.1873472863878060  0.3279439773270941  0.3923963450932190
  0.0624249296803075  0.1736179128014434  0.4096448631925339
  0.1871148202735369  0.2312270898788774  0.5994829146487800
  0.0623887977772551  0.4792118605143950  0.3999124106877668
  0.0621185312094223  0.3824587041221018  0.6074781067251450
  0.1881741110887017  0.0376239669281826  0.5906654636439349
  0.4375206223256963  0.3277308535384534  0.3923653987568202
  0.3123120209383303  0.1739453019685284  0.4094635063651259
  0.4374690566317762  0.2318719946776749  0.5997486149071881
  0.3123183870062495  0.4792227195307989  0.3999880795112986
  0.3121571509828526  0.3828099130284033  0.6072184507533681
  0.4376530778342731  0.0373440691766013  0.5900209943184724
  0.6877243267010514  0.3279076426371796  0.3924906516630633
  0.5626044705149790  0.1741802284854003  0.4094360765050781
  0.6878748987452051  0.2313996964656901  0.5996258242870592
  0.5628510625082644  0.4792070118712122  0.3999275612712807
  0.5629048051606858  0.3831193395712841  0.6071549521413602
  0.6868361102447171  0.0377167385735634  0.5906630301154924
  0.9375598836814993  0.3276128576826067  0.3920768889209245
  0.8126462073588717  0.1735900256069973  0.4096604241104778
  0.9375273580395226  0.2314194550623594  0.5998462047829169
  0.8129162247313635  0.4790981939386324  0.3997761474358369
  0.8129448859839783  0.3823325328118378  0.6075537248696596
  0.9373298066980220  0.0366190948975078  0.5904838280056924
  0.1886958580511566  0.8269678121583154  0.3950532805862049
  0.0627523858008162  0.6737348201723014  0.4101095411328832
  0.1875456174752720  0.7308516119767411  0.6008011203160213
  0.0624832783775549  0.9774239619640410  0.4003505671757073
  0.0644421913925054  0.8835003768262885  0.6086801209055874
  0.1863685772409021  0.5366071546948772  0.5906149614047926
  0.4375894067065476  0.8276402837872389  0.3940372665875100
  0.3128871419021290  0.6735183098650293  0.4105982424629077
  0.4375327286688976  0.7280291530295981  0.6010944046042261
  0.3123775056874757  0.9788887890828860  0.4014464103855746
  0.3214715560712573  0.8800779975819042  0.6130997416399954
  0.4374929429801090  0.5361479954906483  0.5903406898543961
  0.6862794389806151  0.8268928956399371  0.3950766549429958
  0.5621670828688105  0.6737509211429535  0.4106545918534422
  0.6875690674700997  0.7307533377640781  0.6008660834117460
  0.5627182574648385  0.9789425755652563  0.4013710957760928
  0.5536498357252763  0.8800983088348315  0.6133114978017615
  0.6889339641446021  0.5365232389366977  0.5904825241850061
  0.9374852576249811  0.8262516208010697  0.3935964738247186
  0.8122268592401264  0.6737098333149669  0.4102024126185785
  0.9376083221702850  0.7311270686449949  0.6016211082277000
  0.8125136454747867  0.9774966635862961  0.4004782686273098
  0.8103030204633366  0.8835274976534662  0.6087312854491802
  0.9375659440516350  0.5366502876241678  0.5903287864674878
  0.4372170512755575  0.8696245130752972  0.6783230264845179
 
  0.00000000E+00  0.00000000E+00  0.00000000E+00
  0.00000000E+00  0.00000000E+00  0.00000000E+00
  0.00000000E+00  0.00000000E+00  0.00000000E+00
  0.00000000E+00  0.00000000E+00  0.00000000E+00
  0.00000000E+00  0.00000000E+00  0.00000000E+00
  0.00000000E+00  0.00000000E+00  0.00000000E+00
  0.00000000E+00  0.00000000E+00  0.00000000E+00
  0.00000000E+00  0.00000000E+00  0.00000000E+00
  0.00000000E+00  0.00000000E+00  0.00000000E+00
  0.00000000E+00  0.00000000E+00  0.00000000E+00
  0.00000000E+00  0.00000000E+00  0.00000000E+00
  0.00000000E+00  0.00000000E+00  0.00000000E+00
  0.00000000E+00  0.00000000E+00  0.00000000E+00
  0.00000000E+00  0.00000000E+00  0.00000000E+00
  0.00000000E+00  0.00000000E+00  0.00000000E+00
  0.00000000E+00  0.00000000E+00  0.00000000E+00
  0.00000000E+00  0.00000000E+00  0.00000000E+00
  0.00000000E+00  0.00000000E+00  0.00000000E+00
  0.00000000E+00  0.00000000E+00  0.00000000E+00
  0.00000000E+00  0.00000000E+00  0.00000000E+00
  0.00000000E+00  0.00000000E+00  0.00000000E+00
  0.00000000E+00  0.00000000E+00  0.00000000E+00
  0.00000000E+00  0.00000000E+00  0.00000000E+00
  0.00000000E+00  0.00000000E+00  0.00000000E+00
  0.00000000E+00  0.00000000E+00  0.00000000E+00
  0.00000000E+00  0.00000000E+00  0.00000000E+00
  0.00000000E+00  0.00000000E+00  0.00000000E+00
  0.00000000E+00  0.00000000E+00  0.00000000E+00
  0.00000000E+00  0.00000000E+00  0.00000000E+00
  0.00000000E+00  0.00000000E+00  0.00000000E+00
  0.00000000E+00  0.00000000E+00  0.00000000E+00
  0.00000000E+00  0.00000000E+00  0.00000000E+00
  0.00000000E+00  0.00000000E+00  0.00000000E+00
  0.00000000E+00  0.00000000E+00  0.00000000E+00
  0.00000000E+00  0.00000000E+00  0.00000000E+00
  0.00000000E+00  0.00000000E+00  0.00000000E+00
  0.00000000E+00  0.00000000E+00  0.00000000E+00
  0.00000000E+00  0.00000000E+00  0.00000000E+00
  0.00000000E+00  0.00000000E+00  0.00000000E+00
  0.00000000E+00  0.00000000E+00  0.00000000E+00
  0.00000000E+00  0.00000000E+00  0.00000000E+00
  0.00000000E+00  0.00000000E+00  0.00000000E+00
  0.00000000E+00  0.00000000E+00  0.00000000E+00
  0.00000000E+00  0.00000000E+00  0.00000000E+00
  0.00000000E+00  0.00000000E+00  0.00000000E+00
  0.00000000E+00  0.00000000E+00  0.00000000E+00
  0.00000000E+00  0.00000000E+00  0.00000000E+00
  0.00000000E+00  0.00000000E+00  0.00000000E+00
  0.00000000E+00  0.00000000E+00  0.00000000E+00
  0.00000000E+00  0.00000000E+00  0.00000000E+00
  0.00000000E+00  0.00000000E+00  0.00000000E+00
  0.00000000E+00  0.00000000E+00  0.00000000E+00
  0.00000000E+00  0.00000000E+00  0.00000000E+00
  0.00000000E+00  0.00000000E+00  0.00000000E+00
  0.00000000E+00  0.00000000E+00  0.00000000E+00
  0.00000000E+00  0.00000000E+00  0.00000000E+00
  0.00000000E+00  0.00000000E+00  0.00000000E+00
  0.00000000E+00  0.00000000E+00  0.00000000E+00
  0.00000000E+00  0.00000000E+00  0.00000000E+00
  0.00000000E+00  0.00000000E+00  0.00000000E+00
  0.00000000E+00  0.00000000E+00  0.00000000E+00
  0.00000000E+00  0.00000000E+00  0.00000000E+00
  0.00000000E+00  0.00000000E+00  0.00000000E+00
  0.00000000E+00  0.00000000E+00  0.00000000E+00
  0.00000000E+00  0.00000000E+00  0.00000000E+00
  0.00000000E+00  0.00000000E+00  0.00000000E+00
  0.00000000E+00  0.00000000E+00  0.00000000E+00
  0.00000000E+00  0.00000000E+00  0.00000000E+00
  0.00000000E+00  0.00000000E+00  0.00000000E+00
  0.00000000E+00  0.00000000E+00  0.00000000E+00
  0.00000000E+00  0.00000000E+00  0.00000000E+00
  0.00000000E+00  0.00000000E+00  0.00000000E+00
  0.00000000E+00  0.00000000E+00  0.00000000E+00
  0.00000000E+00  0.00000000E+00  0.00000000E+00
  0.00000000E+00  0.00000000E+00  0.00000000E+00
  0.00000000E+00  0.00000000E+00  0.00000000E+00
  0.00000000E+00  0.00000000E+00  0.00000000E+00
  0.00000000E+00  0.00000000E+00  0.00000000E+00
  0.00000000E+00  0.00000000E+00  0.00000000E+00
  0.00000000E+00  0.00000000E+00  0.00000000E+00
  0.00000000E+00  0.00000000E+00  0.00000000E+00
