 Tm1 I2                                 
   1.00000000000000     
     4.0685309096918223    0.0000000000000000    0.0000000000000000
    -2.0342654548459111    3.5234503409994038    0.0000000000000000
     0.0000000000000000    0.0000000000000000   18.8425633068240010
   Tm   I 
     1     2
Direct
  0.0000000145457264  0.0000000020379360  0.5000000004087113
  0.6666669291909031  0.3333330507322003  0.6018113275367227
  0.3333330562633705  0.6666669472298636  0.3981886720545660
 
  0.00000000E+00  0.00000000E+00  0.00000000E+00
  0.00000000E+00  0.00000000E+00  0.00000000E+00
  0.00000000E+00  0.00000000E+00  0.00000000E+00
