CONTCAR\(3)                             
   1.00000000000000     
    13.5844001769999991    0.0000000000000000    0.0000000000000000
    -6.7922094263000004   11.7645458840000003    0.0000000000000000
     0.0000000000000000    0.0000000000000000   17.8367004394999995
   Ti   S    O    H 
    16    32     2     1
Direct
  0.9965593528156992  0.9978597057511955  0.5013646210540383
  0.2469890034882364  0.9987626802831947  0.5002021087768456
  0.4922971742994006  0.9945125412383068  0.5003377733064736
  0.7457976768995379  0.0009847933903351  0.5018884296501402
  0.9941791807212110  0.2476826345011978  0.5038681369493156
  0.2389074924270003  0.2437119556425771  0.5009434710060504
  0.4947254203382432  0.2476648382021170  0.4990321899729031
  0.7417410151626328  0.2428534528804883  0.5016647692982931
  0.9970776238294673  0.4956872722378864  0.5030555462756499
  0.2431861126959578  0.4992912746300582  0.5011439145043689
  0.4797193847673465  0.4893835849487826  0.4948414813273095
  0.7543683453590295  0.4907496640889340  0.4987070848228961
  0.9943600950363471  0.7483468131814259  0.4987594365589233
  0.2421003359769183  0.7483090460614708  0.5007056511209987
  0.4938219704620415  0.7481556198210687  0.4975961401199719
  0.7486776029395574  0.7607004398022083  0.4955179399409182
  0.0769557916389844  0.1647711827340556  0.4208705113696259
  0.1610592324944561  0.0804014603612749  0.5815875675940700
  0.3269041237877023  0.1632337623008288  0.4201741039164529
  0.4099830504728959  0.0807348179668837  0.5805146363650285
  0.5786936769379244  0.1641702670312846  0.4203680906136540
  0.6595830003226782  0.0797497126206241  0.5821127386865953
  0.8282535520516198  0.1639068569923797  0.4212419737019635
  0.9098170610200429  0.0798093491295279  0.5820533584512729
  0.0757046073773847  0.4126396985763196  0.4215528499022284
  0.1611822552242262  0.3300754055883133  0.5818165848500882
  0.3203687036489571  0.4110063914168468  0.4174979578838213
  0.4102559728247050  0.3314571103969997  0.5794161639538963
  0.5792626639107488  0.4163850768724089  0.4228355117656099
  0.6608773100893922  0.3292086177573738  0.5806165077123675
  0.8314159560999174  0.4113777304081253  0.4192587455177657
  0.9113093819725006  0.3305624761998652  0.5826763973439157
  0.0782873679156470  0.6636349168456720  0.4207633682938974
  0.1620891271101935  0.5819111286205594  0.5824558493566012
  0.3255763082717236  0.6627525031956163  0.4200264386145203
  0.4105899281546134  0.5797908042088942  0.5793914146099796
  0.5781199012879047  0.6642038958281229  0.4200630727311409
  0.6601286323551518  0.5816282791204738  0.5700402710374605
  0.8252272001783852  0.6613405872095115  0.4225065840588375
  0.9105767461911247  0.5802577212788548  0.5813440324193726
  0.0768992770917374  0.9143251063752842  0.4200093677479962
  0.1602056039139638  0.8302566918204801  0.5805750778285883
  0.3271848850293235  0.9140255022531549  0.4197335190904018
  0.4118828300711711  0.8308059784723493  0.5802397072735941
  0.5771359410137654  0.9150551020746842  0.4198449314499071
  0.6607346246579231  0.8296933771263812  0.5795283970370014
  0.8304818418506338  0.9205975257395955  0.4178872129157201
  0.9102717796565981  0.8312141976176418  0.5795921238426971
  0.6601493136808997  0.6016887042968961  0.6634466245149441
  0.6094580124974426  0.4933834228078847  0.7036793691444491
  0.5276656359790594  0.4673173900935911  0.6985402587194712
 
  0.00000000E+00  0.00000000E+00  0.00000000E+00
  0.00000000E+00  0.00000000E+00  0.00000000E+00
  0.00000000E+00  0.00000000E+00  0.00000000E+00
  0.00000000E+00  0.00000000E+00  0.00000000E+00
  0.00000000E+00  0.00000000E+00  0.00000000E+00
  0.00000000E+00  0.00000000E+00  0.00000000E+00
  0.00000000E+00  0.00000000E+00  0.00000000E+00
  0.00000000E+00  0.00000000E+00  0.00000000E+00
  0.00000000E+00  0.00000000E+00  0.00000000E+00
  0.00000000E+00  0.00000000E+00  0.00000000E+00
  0.00000000E+00  0.00000000E+00  0.00000000E+00
  0.00000000E+00  0.00000000E+00  0.00000000E+00
  0.00000000E+00  0.00000000E+00  0.00000000E+00
  0.00000000E+00  0.00000000E+00  0.00000000E+00
  0.00000000E+00  0.00000000E+00  0.00000000E+00
  0.00000000E+00  0.00000000E+00  0.00000000E+00
  0.00000000E+00  0.00000000E+00  0.00000000E+00
  0.00000000E+00  0.00000000E+00  0.00000000E+00
  0.00000000E+00  0.00000000E+00  0.00000000E+00
  0.00000000E+00  0.00000000E+00  0.00000000E+00
  0.00000000E+00  0.00000000E+00  0.00000000E+00
  0.00000000E+00  0.00000000E+00  0.00000000E+00
  0.00000000E+00  0.00000000E+00  0.00000000E+00
  0.00000000E+00  0.00000000E+00  0.00000000E+00
  0.00000000E+00  0.00000000E+00  0.00000000E+00
  0.00000000E+00  0.00000000E+00  0.00000000E+00
  0.00000000E+00  0.00000000E+00  0.00000000E+00
  0.00000000E+00  0.00000000E+00  0.00000000E+00
  0.00000000E+00  0.00000000E+00  0.00000000E+00
  0.00000000E+00  0.00000000E+00  0.00000000E+00
  0.00000000E+00  0.00000000E+00  0.00000000E+00
  0.00000000E+00  0.00000000E+00  0.00000000E+00
  0.00000000E+00  0.00000000E+00  0.00000000E+00
  0.00000000E+00  0.00000000E+00  0.00000000E+00
  0.00000000E+00  0.00000000E+00  0.00000000E+00
  0.00000000E+00  0.00000000E+00  0.00000000E+00
  0.00000000E+00  0.00000000E+00  0.00000000E+00
  0.00000000E+00  0.00000000E+00  0.00000000E+00
  0.00000000E+00  0.00000000E+00  0.00000000E+00
  0.00000000E+00  0.00000000E+00  0.00000000E+00
  0.00000000E+00  0.00000000E+00  0.00000000E+00
  0.00000000E+00  0.00000000E+00  0.00000000E+00
  0.00000000E+00  0.00000000E+00  0.00000000E+00
  0.00000000E+00  0.00000000E+00  0.00000000E+00
  0.00000000E+00  0.00000000E+00  0.00000000E+00
  0.00000000E+00  0.00000000E+00  0.00000000E+00
  0.00000000E+00  0.00000000E+00  0.00000000E+00
  0.00000000E+00  0.00000000E+00  0.00000000E+00
  0.00000000E+00  0.00000000E+00  0.00000000E+00
  0.00000000E+00  0.00000000E+00  0.00000000E+00
  0.00000000E+00  0.00000000E+00  0.00000000E+00
