 Ca3 Cu2 Br2 O4                         
   1.00000000000000     
     3.8303475365665225    0.0000000000000000    0.0000000000000000
     0.0000000000000000    3.8303475199623356    0.0000000000000000
     0.0000000000000000    0.0000000000000000   24.1817221750800044
   Ca   Cu   Br   O 
     3     2     2     4
Direct
  0.0000001032276973  0.0000000425688400  0.6303990718933501
 -0.0000000814115566 -0.0000000278721997  0.3696015390109389
 -0.0000000275237196 -0.0000000264962266  0.4999988992869597
  0.4999999581631562  0.4999999952912250  0.4366141072072505
  0.5000000250028879  0.5000000006593067  0.5633875039452599
  0.4999999775653957  0.5000000033630829  0.3095728077158534
  0.5000000662417853  0.5000000087121773  0.6904260510801346
 -0.0000000472709321  0.4999999971363307  0.4335187159594205
  0.0000000329896101  0.5000000020874440  0.5664812934283152
  0.4999999578798177 -0.0000000013594609  0.4335187032094031
  0.5000000351358580  0.0000000059094805  0.5664813072631137
 
  0.00000000E+00  0.00000000E+00  0.00000000E+00
  0.00000000E+00  0.00000000E+00  0.00000000E+00
  0.00000000E+00  0.00000000E+00  0.00000000E+00
  0.00000000E+00  0.00000000E+00  0.00000000E+00
  0.00000000E+00  0.00000000E+00  0.00000000E+00
  0.00000000E+00  0.00000000E+00  0.00000000E+00
  0.00000000E+00  0.00000000E+00  0.00000000E+00
  0.00000000E+00  0.00000000E+00  0.00000000E+00
  0.00000000E+00  0.00000000E+00  0.00000000E+00
  0.00000000E+00  0.00000000E+00  0.00000000E+00
  0.00000000E+00  0.00000000E+00  0.00000000E+00
