CONTCAR\(3)                             
   1.00000000000000     
    12.9047002792000001    0.0000000000000000    0.0000000000000000
     0.0000000000000000   17.0116996765000010    0.0000000000000000
     0.0000000000000000    0.0000000000000000   20.7707004546999983
   Pr   I    O 
    12    30     1
Direct
  0.2503572653994529  0.1324580596076991  0.5547095456225277
  0.0829009197364850  0.8711841816515815  0.4920918928236549
  0.2455004165906092  0.6466124927377804  0.5141359810361186
  0.0830677597690801  0.3672850181414578  0.4646798433013499
  0.5836594824768251  0.1506304449817641  0.5664693177710025
  0.4198111397389601  0.8700249484470224  0.4824204153795905
  0.5836396165095005  0.6250875289508631  0.4933037202584635
  0.4410040795080161  0.4160312132926369  0.4593801080175157
  0.9168710214379165  0.1325733639972607  0.5542597639528681
  0.7465948243458573  0.8700654749245296  0.4823384577294997
  0.9206396388706388  0.6461387549199283  0.5148446491419431
  0.7255777331430011  0.4154263164891084  0.4594450484489286
  0.2538500501906469  0.3696308553146838  0.3586671423616671
  0.0834222184391384  0.6149673956886079  0.6253184276875743
  0.2500212749877341 -0.0003995008469473  0.4371708075530727
  0.0832682563361146  0.0086188185507978  0.6110792049407934
  0.0827892381906209  0.5602632832458114  0.4213678861682479
  0.2551198511007955  0.4328485774699223  0.5581231313593297
  0.0834566357176308  0.2526547841180825  0.6155389277924298
  0.2421391482259416  0.7785071312377291  0.3996701327586824
  0.0836026366019661  0.1848696707646721  0.4391155504721532
  0.2557838708235171  0.8099969582490125  0.5904325919487768
  0.5831391235696650  0.3551806692646379  0.3467903578239411
  0.4260479438602374  0.6039108415330648  0.6098689388764196
  0.5831889684376917  0.0011242767754441  0.4326942307410396
  0.4235618569350149  0.0041738450211953  0.5985668728199884
  0.3910384648322529  0.5830084895816606  0.3961450732236084
  0.5835060636918609  0.3456790228504895  0.5751402134336903
  0.3935531269372963  0.2096116197078000  0.6608251779312118
  0.5836351536170152  0.7741457366710154  0.3911921001857562
  0.4163907146272442  0.2061195534344470  0.4595695255058809
  0.5830257085827896  0.7998471583251505  0.5805638362146169
  0.9125398601371996  0.3692738547713046  0.3585397364322082
  0.7401319013288754  0.6033887500412214  0.6105812171965190
  0.9163722604220408 -0.0006962672620588  0.4365002804074360
  0.7437484013848998  0.0043011777583944  0.5981259859714495
  0.7762279356669823  0.5821513133849773  0.3967977046931956
  0.9111718331071590  0.4324678032789879  0.5584191864464203
  0.7743629892204804  0.2091161408371666  0.6611267535132562
  0.9242755604292783  0.7776659352225338  0.4002347239513220
  0.7508295833228088  0.2061428471942750  0.4594286853222261
  0.9101182436918606  0.8098362810764311  0.5906943984161336
  0.5834371990568983  0.4907954145978622  0.4762925953674737
 
  0.00000000E+00  0.00000000E+00  0.00000000E+00
  0.00000000E+00  0.00000000E+00  0.00000000E+00
  0.00000000E+00  0.00000000E+00  0.00000000E+00
  0.00000000E+00  0.00000000E+00  0.00000000E+00
  0.00000000E+00  0.00000000E+00  0.00000000E+00
  0.00000000E+00  0.00000000E+00  0.00000000E+00
  0.00000000E+00  0.00000000E+00  0.00000000E+00
  0.00000000E+00  0.00000000E+00  0.00000000E+00
  0.00000000E+00  0.00000000E+00  0.00000000E+00
  0.00000000E+00  0.00000000E+00  0.00000000E+00
  0.00000000E+00  0.00000000E+00  0.00000000E+00
  0.00000000E+00  0.00000000E+00  0.00000000E+00
  0.00000000E+00  0.00000000E+00  0.00000000E+00
  0.00000000E+00  0.00000000E+00  0.00000000E+00
  0.00000000E+00  0.00000000E+00  0.00000000E+00
  0.00000000E+00  0.00000000E+00  0.00000000E+00
  0.00000000E+00  0.00000000E+00  0.00000000E+00
  0.00000000E+00  0.00000000E+00  0.00000000E+00
  0.00000000E+00  0.00000000E+00  0.00000000E+00
  0.00000000E+00  0.00000000E+00  0.00000000E+00
  0.00000000E+00  0.00000000E+00  0.00000000E+00
  0.00000000E+00  0.00000000E+00  0.00000000E+00
  0.00000000E+00  0.00000000E+00  0.00000000E+00
  0.00000000E+00  0.00000000E+00  0.00000000E+00
  0.00000000E+00  0.00000000E+00  0.00000000E+00
  0.00000000E+00  0.00000000E+00  0.00000000E+00
  0.00000000E+00  0.00000000E+00  0.00000000E+00
  0.00000000E+00  0.00000000E+00  0.00000000E+00
  0.00000000E+00  0.00000000E+00  0.00000000E+00
  0.00000000E+00  0.00000000E+00  0.00000000E+00
  0.00000000E+00  0.00000000E+00  0.00000000E+00
  0.00000000E+00  0.00000000E+00  0.00000000E+00
  0.00000000E+00  0.00000000E+00  0.00000000E+00
  0.00000000E+00  0.00000000E+00  0.00000000E+00
  0.00000000E+00  0.00000000E+00  0.00000000E+00
  0.00000000E+00  0.00000000E+00  0.00000000E+00
  0.00000000E+00  0.00000000E+00  0.00000000E+00
  0.00000000E+00  0.00000000E+00  0.00000000E+00
  0.00000000E+00  0.00000000E+00  0.00000000E+00
  0.00000000E+00  0.00000000E+00  0.00000000E+00
  0.00000000E+00  0.00000000E+00  0.00000000E+00
  0.00000000E+00  0.00000000E+00  0.00000000E+00
  0.00000000E+00  0.00000000E+00  0.00000000E+00
