 Ge5 Te8 As2                            
   1.00000000000000     
     4.1601416071536041    0.0000000000000000    0.0000000000000000
    -2.0800712975820392    3.6027841240398741    0.0000000000000000
     0.0000000000000000    0.0000000000000000   39.2775152254680080
   Ge   Te   As
     5     8     2
Direct
  0.0000000028312712  0.9999999978393959  0.5000044439928359
  0.3333330828878402  0.6666668783143734  0.6793292224862029
  0.6666667467515026  0.3333332040269781  0.5894171021500796
  0.6666669028429695  0.3333331370034713  0.3206712824843052
  0.3333332436656278  0.6666668044495623  0.4105867093464184
  0.6666667563253625  0.3333332269028375  0.7228985064492122
  0.6666667026981301  0.3333333035801260  0.4554672730411511
  0.3333332483430880  0.6666667701047828  0.2771010786951749
  0.3333333026296330  0.6666666914638526  0.5445286404185055
  0.9999999945397064  0.0000000252949306  0.3662576442009708
  0.0000000090232959  0.9999999704300535  0.6337402129539598
  0.6666667015705983  0.3333331741131929  0.1909794276677133
  0.3333333035269774  0.6666668217838918  0.8090199656992922
  0.0000000777806193  0.9999999461247313  0.2297930467455558
  0.9999999245833919  0.0000000485678129  0.7702054436686083
 
  0.00000000E+00  0.00000000E+00  0.00000000E+00
  0.00000000E+00  0.00000000E+00  0.00000000E+00
  0.00000000E+00  0.00000000E+00  0.00000000E+00
  0.00000000E+00  0.00000000E+00  0.00000000E+00
  0.00000000E+00  0.00000000E+00  0.00000000E+00
  0.00000000E+00  0.00000000E+00  0.00000000E+00
  0.00000000E+00  0.00000000E+00  0.00000000E+00
  0.00000000E+00  0.00000000E+00  0.00000000E+00
  0.00000000E+00  0.00000000E+00  0.00000000E+00
  0.00000000E+00  0.00000000E+00  0.00000000E+00
  0.00000000E+00  0.00000000E+00  0.00000000E+00
  0.00000000E+00  0.00000000E+00  0.00000000E+00
  0.00000000E+00  0.00000000E+00  0.00000000E+00
  0.00000000E+00  0.00000000E+00  0.00000000E+00
  0.00000000E+00  0.00000000E+00  0.00000000E+00
