G   57   57    1    0.005     # Parameters to Generate KPOINTS (Don't Edit This Line)
     300
Reciprocal lattice
    0.000000000000    0.000000000000    0.000000000000       1
    0.017543859649    0.000000000000    0.000000000000       6
    0.035087719298    0.000000000000    0.000000000000       6
    0.052631578947    0.000000000000    0.000000000000       6
    0.070175438596    0.000000000000    0.000000000000       6
    0.087719298246    0.000000000000    0.000000000000       6
    0.105263157895    0.000000000000    0.000000000000       6
    0.122807017544    0.000000000000    0.000000000000       6
    0.140350877193    0.000000000000    0.000000000000       6
    0.157894736842    0.000000000000    0.000000000000       6
    0.175438596491    0.000000000000    0.000000000000       6
    0.192982456140    0.000000000000    0.000000000000       6
    0.210526315789    0.000000000000    0.000000000000       6
    0.228070175439    0.000000000000    0.000000000000       6
    0.245614035088    0.000000000000    0.000000000000       6
    0.263157894737    0.000000000000    0.000000000000       6
    0.280701754386    0.000000000000    0.000000000000       6
    0.298245614035    0.000000000000    0.000000000000       6
    0.315789473684    0.000000000000    0.000000000000       6
    0.333333333333    0.000000000000    0.000000000000       6
    0.350877192982    0.000000000000    0.000000000000       6
    0.368421052632    0.000000000000    0.000000000000       6
    0.385964912281    0.000000000000    0.000000000000       6
    0.403508771930    0.000000000000    0.000000000000       6
    0.421052631579    0.000000000000    0.000000000000       6
    0.438596491228    0.000000000000    0.000000000000       6
    0.456140350877    0.000000000000    0.000000000000       6
    0.473684210526    0.000000000000    0.000000000000       6
    0.491228070175    0.000000000000    0.000000000000       6
    0.017543859649    0.017543859649    0.000000000000       6
    0.035087719298    0.017543859649    0.000000000000      12
    0.052631578947    0.017543859649    0.000000000000      12
    0.070175438596    0.017543859649    0.000000000000      12
    0.087719298246    0.017543859649    0.000000000000      12
    0.105263157895    0.017543859649    0.000000000000      12
    0.122807017544    0.017543859649    0.000000000000      12
    0.140350877193    0.017543859649    0.000000000000      12
    0.157894736842    0.017543859649    0.000000000000      12
    0.175438596491    0.017543859649    0.000000000000      12
    0.192982456140    0.017543859649    0.000000000000      12
    0.210526315789    0.017543859649    0.000000000000      12
    0.228070175439    0.017543859649    0.000000000000      12
    0.245614035088    0.017543859649    0.000000000000      12
    0.263157894737    0.017543859649    0.000000000000      12
    0.280701754386    0.017543859649    0.000000000000      12
    0.298245614035    0.017543859649    0.000000000000      12
    0.315789473684    0.017543859649    0.000000000000      12
    0.333333333333    0.017543859649    0.000000000000      12
    0.350877192982    0.017543859649    0.000000000000      12
    0.368421052632    0.017543859649    0.000000000000      12
    0.385964912281    0.017543859649    0.000000000000      12
    0.403508771930    0.017543859649    0.000000000000      12
    0.421052631579    0.017543859649    0.000000000000      12
    0.438596491228    0.017543859649    0.000000000000      12
    0.456140350877    0.017543859649    0.000000000000      12
    0.473684210526    0.017543859649    0.000000000000      12
    0.491228070175    0.017543859649    0.000000000000       6
    0.035087719298    0.035087719298    0.000000000000       6
    0.052631578947    0.035087719298    0.000000000000      12
    0.070175438596    0.035087719298    0.000000000000      12
    0.087719298246    0.035087719298    0.000000000000      12
    0.105263157895    0.035087719298    0.000000000000      12
    0.122807017544    0.035087719298    0.000000000000      12
    0.140350877193    0.035087719298    0.000000000000      12
    0.157894736842    0.035087719298    0.000000000000      12
    0.175438596491    0.035087719298    0.000000000000      12
    0.192982456140    0.035087719298    0.000000000000      12
    0.210526315789    0.035087719298    0.000000000000      12
    0.228070175439    0.035087719298    0.000000000000      12
    0.245614035088    0.035087719298    0.000000000000      12
    0.263157894737    0.035087719298    0.000000000000      12
    0.280701754386    0.035087719298    0.000000000000      12
    0.298245614035    0.035087719298    0.000000000000      12
    0.315789473684    0.035087719298    0.000000000000      12
    0.333333333333    0.035087719298    0.000000000000      12
    0.350877192982    0.035087719298    0.000000000000      12
    0.368421052632    0.035087719298    0.000000000000      12
    0.385964912281    0.035087719298    0.000000000000      12
    0.403508771930    0.035087719298    0.000000000000      12
    0.421052631579    0.035087719298    0.000000000000      12
    0.438596491228    0.035087719298    0.000000000000      12
    0.456140350877    0.035087719298    0.000000000000      12
    0.473684210526    0.035087719298    0.000000000000      12
    0.052631578947    0.052631578947    0.000000000000       6
    0.070175438596    0.052631578947    0.000000000000      12
    0.087719298246    0.052631578947    0.000000000000      12
    0.105263157895    0.052631578947    0.000000000000      12
    0.122807017544    0.052631578947    0.000000000000      12
    0.140350877193    0.052631578947    0.000000000000      12
    0.157894736842    0.052631578947    0.000000000000      12
    0.175438596491    0.052631578947    0.000000000000      12
    0.192982456140    0.052631578947    0.000000000000      12
    0.210526315789    0.052631578947    0.000000000000      12
    0.228070175439    0.052631578947    0.000000000000      12
    0.245614035088    0.052631578947    0.000000000000      12
    0.263157894737    0.052631578947    0.000000000000      12
    0.280701754386    0.052631578947    0.000000000000      12
    0.298245614035    0.052631578947    0.000000000000      12
    0.315789473684    0.052631578947    0.000000000000      12
    0.333333333333    0.052631578947    0.000000000000      12
    0.350877192982    0.052631578947    0.000000000000      12
    0.368421052632    0.052631578947    0.000000000000      12
    0.385964912281    0.052631578947    0.000000000000      12
    0.403508771930    0.052631578947    0.000000000000      12
    0.421052631579    0.052631578947    0.000000000000      12
    0.438596491228    0.052631578947    0.000000000000      12
    0.456140350877    0.052631578947    0.000000000000      12
    0.473684210526    0.052631578947    0.000000000000       6
    0.070175438596    0.070175438596    0.000000000000       6
    0.087719298246    0.070175438596    0.000000000000      12
    0.105263157895    0.070175438596    0.000000000000      12
    0.122807017544    0.070175438596    0.000000000000      12
    0.140350877193    0.070175438596    0.000000000000      12
    0.157894736842    0.070175438596    0.000000000000      12
    0.175438596491    0.070175438596    0.000000000000      12
    0.192982456140    0.070175438596    0.000000000000      12
    0.210526315789    0.070175438596    0.000000000000      12
    0.228070175439    0.070175438596    0.000000000000      12
    0.245614035088    0.070175438596    0.000000000000      12
    0.263157894737    0.070175438596    0.000000000000      12
    0.280701754386    0.070175438596    0.000000000000      12
    0.298245614035    0.070175438596    0.000000000000      12
    0.315789473684    0.070175438596    0.000000000000      12
    0.333333333333    0.070175438596    0.000000000000      12
    0.350877192982    0.070175438596    0.000000000000      12
    0.368421052632    0.070175438596    0.000000000000      12
    0.385964912281    0.070175438596    0.000000000000      12
    0.403508771930    0.070175438596    0.000000000000      12
    0.421052631579    0.070175438596    0.000000000000      12
    0.438596491228    0.070175438596    0.000000000000      12
    0.456140350877    0.070175438596    0.000000000000      12
    0.087719298246    0.087719298246    0.000000000000       6
    0.105263157895    0.087719298246    0.000000000000      12
    0.122807017544    0.087719298246    0.000000000000      12
    0.140350877193    0.087719298246    0.000000000000      12
    0.157894736842    0.087719298246    0.000000000000      12
    0.175438596491    0.087719298246    0.000000000000      12
    0.192982456140    0.087719298246    0.000000000000      12
    0.210526315789    0.087719298246    0.000000000000      12
    0.228070175439    0.087719298246    0.000000000000      12
    0.245614035088    0.087719298246    0.000000000000      12
    0.263157894737    0.087719298246    0.000000000000      12
    0.280701754386    0.087719298246    0.000000000000      12
    0.298245614035    0.087719298246    0.000000000000      12
    0.315789473684    0.087719298246    0.000000000000      12
    0.333333333333    0.087719298246    0.000000000000      12
    0.350877192982    0.087719298246    0.000000000000      12
    0.368421052632    0.087719298246    0.000000000000      12
    0.385964912281    0.087719298246    0.000000000000      12
    0.403508771930    0.087719298246    0.000000000000      12
    0.421052631579    0.087719298246    0.000000000000      12
    0.438596491228    0.087719298246    0.000000000000      12
    0.456140350877    0.087719298246    0.000000000000       6
    0.105263157895    0.105263157895    0.000000000000       6
    0.122807017544    0.105263157895    0.000000000000      12
    0.140350877193    0.105263157895    0.000000000000      12
    0.157894736842    0.105263157895    0.000000000000      12
    0.175438596491    0.105263157895    0.000000000000      12
    0.192982456140    0.105263157895    0.000000000000      12
    0.210526315789    0.105263157895    0.000000000000      12
    0.228070175439    0.105263157895    0.000000000000      12
    0.245614035088    0.105263157895    0.000000000000      12
    0.263157894737    0.105263157895    0.000000000000      12
    0.280701754386    0.105263157895    0.000000000000      12
    0.298245614035    0.105263157895    0.000000000000      12
    0.315789473684    0.105263157895    0.000000000000      12
    0.333333333333    0.105263157895    0.000000000000      12
    0.350877192982    0.105263157895    0.000000000000      12
    0.368421052632    0.105263157895    0.000000000000      12
    0.385964912281    0.105263157895    0.000000000000      12
    0.403508771930    0.105263157895    0.000000000000      12
    0.421052631579    0.105263157895    0.000000000000      12
    0.438596491228    0.105263157895    0.000000000000      12
    0.122807017544    0.122807017544    0.000000000000       6
    0.140350877193    0.122807017544    0.000000000000      12
    0.157894736842    0.122807017544    0.000000000000      12
    0.175438596491    0.122807017544    0.000000000000      12
    0.192982456140    0.122807017544    0.000000000000      12
    0.210526315789    0.122807017544    0.000000000000      12
    0.228070175439    0.122807017544    0.000000000000      12
    0.245614035088    0.122807017544    0.000000000000      12
    0.263157894737    0.122807017544    0.000000000000      12
    0.280701754386    0.122807017544    0.000000000000      12
    0.298245614035    0.122807017544    0.000000000000      12
    0.315789473684    0.122807017544    0.000000000000      12
    0.333333333333    0.122807017544    0.000000000000      12
    0.350877192982    0.122807017544    0.000000000000      12
    0.368421052632    0.122807017544    0.000000000000      12
    0.385964912281    0.122807017544    0.000000000000      12
    0.403508771930    0.122807017544    0.000000000000      12
    0.421052631579    0.122807017544    0.000000000000      12
    0.438596491228    0.122807017544    0.000000000000       6
    0.140350877193    0.140350877193    0.000000000000       6
    0.157894736842    0.140350877193    0.000000000000      12
    0.175438596491    0.140350877193    0.000000000000      12
    0.192982456140    0.140350877193    0.000000000000      12
    0.210526315789    0.140350877193    0.000000000000      12
    0.228070175439    0.140350877193    0.000000000000      12
    0.245614035088    0.140350877193    0.000000000000      12
    0.263157894737    0.140350877193    0.000000000000      12
    0.280701754386    0.140350877193    0.000000000000      12
    0.298245614035    0.140350877193    0.000000000000      12
    0.315789473684    0.140350877193    0.000000000000      12
    0.333333333333    0.140350877193    0.000000000000      12
    0.350877192982    0.140350877193    0.000000000000      12
    0.368421052632    0.140350877193    0.000000000000      12
    0.385964912281    0.140350877193    0.000000000000      12
    0.403508771930    0.140350877193    0.000000000000      12
    0.421052631579    0.140350877193    0.000000000000      12
    0.157894736842    0.157894736842    0.000000000000       6
    0.175438596491    0.157894736842    0.000000000000      12
    0.192982456140    0.157894736842    0.000000000000      12
    0.210526315789    0.157894736842    0.000000000000      12
    0.228070175439    0.157894736842    0.000000000000      12
    0.245614035088    0.157894736842    0.000000000000      12
    0.263157894737    0.157894736842    0.000000000000      12
    0.280701754386    0.157894736842    0.000000000000      12
    0.298245614035    0.157894736842    0.000000000000      12
    0.315789473684    0.157894736842    0.000000000000      12
    0.333333333333    0.157894736842    0.000000000000      12
    0.350877192982    0.157894736842    0.000000000000      12
    0.368421052632    0.157894736842    0.000000000000      12
    0.385964912281    0.157894736842    0.000000000000      12
    0.403508771930    0.157894736842    0.000000000000      12
    0.421052631579    0.157894736842    0.000000000000       6
    0.175438596491    0.175438596491    0.000000000000       6
    0.192982456140    0.175438596491    0.000000000000      12
    0.210526315789    0.175438596491    0.000000000000      12
    0.228070175439    0.175438596491    0.000000000000      12
    0.245614035088    0.175438596491    0.000000000000      12
    0.263157894737    0.175438596491    0.000000000000      12
    0.280701754386    0.175438596491    0.000000000000      12
    0.298245614035    0.175438596491    0.000000000000      12
    0.315789473684    0.175438596491    0.000000000000      12
    0.333333333333    0.175438596491    0.000000000000      12
    0.350877192982    0.175438596491    0.000000000000      12
    0.368421052632    0.175438596491    0.000000000000      12
    0.385964912281    0.175438596491    0.000000000000      12
    0.403508771930    0.175438596491    0.000000000000      12
    0.192982456140    0.192982456140    0.000000000000       6
    0.210526315789    0.192982456140    0.000000000000      12
    0.228070175439    0.192982456140    0.000000000000      12
    0.245614035088    0.192982456140    0.000000000000      12
    0.263157894737    0.192982456140    0.000000000000      12
    0.280701754386    0.192982456140    0.000000000000      12
    0.298245614035    0.192982456140    0.000000000000      12
    0.315789473684    0.192982456140    0.000000000000      12
    0.333333333333    0.192982456140    0.000000000000      12
    0.350877192982    0.192982456140    0.000000000000      12
    0.368421052632    0.192982456140    0.000000000000      12
    0.385964912281    0.192982456140    0.000000000000      12
    0.403508771930    0.192982456140    0.000000000000       6
    0.210526315789    0.210526315789    0.000000000000       6
    0.228070175439    0.210526315789    0.000000000000      12
    0.245614035088    0.210526315789    0.000000000000      12
    0.263157894737    0.210526315789    0.000000000000      12
    0.280701754386    0.210526315789    0.000000000000      12
    0.298245614035    0.210526315789    0.000000000000      12
    0.315789473684    0.210526315789    0.000000000000      12
    0.333333333333    0.210526315789    0.000000000000      12
    0.350877192982    0.210526315789    0.000000000000      12
    0.368421052632    0.210526315789    0.000000000000      12
    0.385964912281    0.210526315789    0.000000000000      12
    0.228070175439    0.228070175439    0.000000000000       6
    0.245614035088    0.228070175439    0.000000000000      12
    0.263157894737    0.228070175439    0.000000000000      12
    0.280701754386    0.228070175439    0.000000000000      12
    0.298245614035    0.228070175439    0.000000000000      12
    0.315789473684    0.228070175439    0.000000000000      12
    0.333333333333    0.228070175439    0.000000000000      12
    0.350877192982    0.228070175439    0.000000000000      12
    0.368421052632    0.228070175439    0.000000000000      12
    0.385964912281    0.228070175439    0.000000000000       6
    0.245614035088    0.245614035088    0.000000000000       6
    0.263157894737    0.245614035088    0.000000000000      12
    0.280701754386    0.245614035088    0.000000000000      12
    0.298245614035    0.245614035088    0.000000000000      12
    0.315789473684    0.245614035088    0.000000000000      12
    0.333333333333    0.245614035088    0.000000000000      12
    0.350877192982    0.245614035088    0.000000000000      12
    0.368421052632    0.245614035088    0.000000000000      12
    0.263157894737    0.263157894737    0.000000000000       6
    0.280701754386    0.263157894737    0.000000000000      12
    0.298245614035    0.263157894737    0.000000000000      12
    0.315789473684    0.263157894737    0.000000000000      12
    0.333333333333    0.263157894737    0.000000000000      12
    0.350877192982    0.263157894737    0.000000000000      12
    0.368421052632    0.263157894737    0.000000000000       6
    0.280701754386    0.280701754386    0.000000000000       6
    0.298245614035    0.280701754386    0.000000000000      12
    0.315789473684    0.280701754386    0.000000000000      12
    0.333333333333    0.280701754386    0.000000000000      12
    0.350877192982    0.280701754386    0.000000000000      12
    0.298245614035    0.298245614035    0.000000000000       6
    0.315789473684    0.298245614035    0.000000000000      12
    0.333333333333    0.298245614035    0.000000000000      12
    0.350877192982    0.298245614035    0.000000000000       6
    0.315789473684    0.315789473684    0.000000000000       6
    0.333333333333    0.315789473684    0.000000000000      12
    0.333333333333    0.333333333333    0.000000000000       2
