CONTCAR\(5)                             
   1.00000000000000     
    10.8753004073999993    0.0000000000000000    0.0000000000000000
     0.0000000000000000   10.8753004073999993    0.0000000000000000
     0.0000000000000000    0.0000000000000000   21.9909000397000014
   Hf   Si   Te   O    H 
    18    18    18     2     1
Direct
  0.1650776580733435  0.0019516609767223  0.5946929822623730
  0.0007297258804968  0.1661379647591303  0.4034283409163848
  0.5004079661321867  0.9985193758124851  0.5962895747336532
  0.3345976930745849  0.1661357337422160  0.4041705031911889
  0.8366903462803350  0.0020537010278829  0.5944695262670621
  0.6667981616028342  0.1659126476458539  0.4041576297826524
  0.1651705120350826  0.3304603118749725  0.5943400378472887
  0.0007324964697162  0.4999811980263047  0.4041501124624105
  0.5015012831458492  0.3331826055821381  0.5961881233920607
  0.3348302147349145  0.5001835863951172  0.4055963790892676
  0.8367415753997562  0.3301794231119715  0.5946047957139271
  0.6666588583769766  0.5000580197084190  0.4054722484754834
  0.1680339302890346  0.6669131968195430  0.5962166323752882
  0.0005147145237316  0.8322256678568536  0.4041781638691901
  0.4996599181232213  0.6643778069854420  0.6053061216434301
  0.3347635068984687  0.8319438225968341  0.4055299773952257
  0.8334207207885527  0.6658013870195418  0.5962208122807624
  0.6664203550321446  0.8317223502731395  0.4055703187317263
  0.0007259266072381  0.9990796737046921  0.4990363128409854
  0.1677214075227837  0.1659631904107997  0.4989537498718235
  0.3341899279506748  0.9996829449349391  0.5001649660372962
  0.5006875989682698  0.1659574418831653  0.5000686504787808
  0.6670588335649867  0.9994339006362409  0.5001132929521148
  0.8336571429933244  0.1660696136185109  0.4989958760766839
  0.0006110312179217  0.3330983189314765  0.4989529764547669
  0.1672342742018813  0.4997160449161413  0.4999753940559017
  0.3343338042583142  0.3325607512713731  0.4999953752967983
  0.5008731080347602  0.5001220703648102  0.5020227848907695
  0.6673150114169317  0.3323828439559904  0.5000927524869923
  0.8344479331259151  0.4995207392569725  0.5001189115369513
  0.0006603312770750  0.6660598718342641  0.5000492342529839
  0.1670631145360773  0.8326383930910879  0.5001348283948417
  0.3348387484898154  0.6660990687845967  0.5020323007866736
  0.5007226015986177  0.8315120253686104  0.5020817008079845
  0.6664427649664475  0.6658882098131684  0.5019943320088700
  0.8341167361754174  0.8324472914120804  0.5001025747708709
  0.0009379045586755  0.1662801858165395  0.6612461723904062
  0.1678542006648769  0.9988407961381540  0.3402740188963449
  0.3345315863955562  0.1662891212013591  0.6594415302273759
  0.5006017890669554  0.9985419509294431  0.3404581074184492
  0.6671509210638078  0.1656895249466714  0.6596788872955699
  0.8333176770788171  0.9988413412929518  0.3402216316280615
  0.0010294973706593  0.4998920885910181  0.6593179597949117
  0.1678928792379537  0.3333838308873709  0.3401247893897690
  0.3262843893922138  0.4916352656970204  0.6570144498626576
  0.5006993495377685  0.3335062180877060  0.3403920518647396
  0.6758852573238059  0.4914607326953728  0.6594706087428079
  0.8333778436896182  0.3332861654241839  0.3402077059125688
  0.0004128905040588  0.8326642612362249  0.6597110604593155
  0.1681091792863185  0.6662014970659769  0.3404931864210141
  0.3264365558286357  0.8407186654462109  0.6598193913057955
  0.5006448016588081  0.6660014984623857  0.3408248593967187
  0.6746416214132580  0.8397508447444650  0.6582234363757564
  0.8331875265524999  0.6660811532576787  0.3403451700457936
  0.4543709203946165  0.6099146396053570  0.7528084272495477
  0.5174614136297748  0.6824329392878425  0.7048536081881878
  0.4984418875836383  0.6430344587825942  0.7880750467027582
 
  0.00000000E+00  0.00000000E+00  0.00000000E+00
  0.00000000E+00  0.00000000E+00  0.00000000E+00
  0.00000000E+00  0.00000000E+00  0.00000000E+00
  0.00000000E+00  0.00000000E+00  0.00000000E+00
  0.00000000E+00  0.00000000E+00  0.00000000E+00
  0.00000000E+00  0.00000000E+00  0.00000000E+00
  0.00000000E+00  0.00000000E+00  0.00000000E+00
  0.00000000E+00  0.00000000E+00  0.00000000E+00
  0.00000000E+00  0.00000000E+00  0.00000000E+00
  0.00000000E+00  0.00000000E+00  0.00000000E+00
  0.00000000E+00  0.00000000E+00  0.00000000E+00
  0.00000000E+00  0.00000000E+00  0.00000000E+00
  0.00000000E+00  0.00000000E+00  0.00000000E+00
  0.00000000E+00  0.00000000E+00  0.00000000E+00
  0.00000000E+00  0.00000000E+00  0.00000000E+00
  0.00000000E+00  0.00000000E+00  0.00000000E+00
  0.00000000E+00  0.00000000E+00  0.00000000E+00
  0.00000000E+00  0.00000000E+00  0.00000000E+00
  0.00000000E+00  0.00000000E+00  0.00000000E+00
  0.00000000E+00  0.00000000E+00  0.00000000E+00
  0.00000000E+00  0.00000000E+00  0.00000000E+00
  0.00000000E+00  0.00000000E+00  0.00000000E+00
  0.00000000E+00  0.00000000E+00  0.00000000E+00
  0.00000000E+00  0.00000000E+00  0.00000000E+00
  0.00000000E+00  0.00000000E+00  0.00000000E+00
  0.00000000E+00  0.00000000E+00  0.00000000E+00
  0.00000000E+00  0.00000000E+00  0.00000000E+00
  0.00000000E+00  0.00000000E+00  0.00000000E+00
  0.00000000E+00  0.00000000E+00  0.00000000E+00
  0.00000000E+00  0.00000000E+00  0.00000000E+00
  0.00000000E+00  0.00000000E+00  0.00000000E+00
  0.00000000E+00  0.00000000E+00  0.00000000E+00
  0.00000000E+00  0.00000000E+00  0.00000000E+00
  0.00000000E+00  0.00000000E+00  0.00000000E+00
  0.00000000E+00  0.00000000E+00  0.00000000E+00
  0.00000000E+00  0.00000000E+00  0.00000000E+00
  0.00000000E+00  0.00000000E+00  0.00000000E+00
  0.00000000E+00  0.00000000E+00  0.00000000E+00
  0.00000000E+00  0.00000000E+00  0.00000000E+00
  0.00000000E+00  0.00000000E+00  0.00000000E+00
  0.00000000E+00  0.00000000E+00  0.00000000E+00
  0.00000000E+00  0.00000000E+00  0.00000000E+00
  0.00000000E+00  0.00000000E+00  0.00000000E+00
  0.00000000E+00  0.00000000E+00  0.00000000E+00
  0.00000000E+00  0.00000000E+00  0.00000000E+00
  0.00000000E+00  0.00000000E+00  0.00000000E+00
  0.00000000E+00  0.00000000E+00  0.00000000E+00
  0.00000000E+00  0.00000000E+00  0.00000000E+00
  0.00000000E+00  0.00000000E+00  0.00000000E+00
  0.00000000E+00  0.00000000E+00  0.00000000E+00
  0.00000000E+00  0.00000000E+00  0.00000000E+00
  0.00000000E+00  0.00000000E+00  0.00000000E+00
  0.00000000E+00  0.00000000E+00  0.00000000E+00
  0.00000000E+00  0.00000000E+00  0.00000000E+00
  0.00000000E+00  0.00000000E+00  0.00000000E+00
  0.00000000E+00  0.00000000E+00  0.00000000E+00
  0.00000000E+00  0.00000000E+00  0.00000000E+00
