CONTCAR\(4)                             
   1.00000000000000     
     6.8951997757000001    0.0000000000000000    0.0000000000000000
     3.4474999904999999    5.9712451425999999    0.0000000000000000
     0.0000000000000000    0.0000000000000000   18.3700008391999994
   Nb   Se   O 
     4     8     3
Direct
  0.1551309319900473  0.1852024476387686  0.5118277798251526
  0.6691588895788710  0.1419102661406521  0.4896976641631643
  0.1553806376973650  0.6932920194046256  0.4864609679801615
  0.6531976242598252  0.6601832828549429  0.5055215316540609
  0.3587748337371550  0.3748928492580272  0.5884414253788899
  0.3076755198298810  0.3321432444300877  0.4102294833718532
  0.7975576605678598  0.3265504088598175  0.5937486936053020
  0.8394153891807400  0.3338893667704496  0.4120723169988839
  0.3121161840492204  0.8225159543490240  0.5917330844412145
  0.3462605161316665  0.8916298948015200  0.4061952916876484
  0.8282448971874961  0.8299962867016740  0.5860907783131377
  0.8326625615392080  0.7363117699354904  0.3900533279504208
  0.2081117403918046  0.2394677294971430  0.6203959162612627
  0.7256234386420788  0.0316336144009703  0.3811501397920913
  0.1888587902167636  0.7537007719567856  0.3802017585767332
 
  0.00000000E+00  0.00000000E+00  0.00000000E+00
  0.00000000E+00  0.00000000E+00  0.00000000E+00
  0.00000000E+00  0.00000000E+00  0.00000000E+00
  0.00000000E+00  0.00000000E+00  0.00000000E+00
  0.00000000E+00  0.00000000E+00  0.00000000E+00
  0.00000000E+00  0.00000000E+00  0.00000000E+00
  0.00000000E+00  0.00000000E+00  0.00000000E+00
  0.00000000E+00  0.00000000E+00  0.00000000E+00
  0.00000000E+00  0.00000000E+00  0.00000000E+00
  0.00000000E+00  0.00000000E+00  0.00000000E+00
  0.00000000E+00  0.00000000E+00  0.00000000E+00
  0.00000000E+00  0.00000000E+00  0.00000000E+00
  0.00000000E+00  0.00000000E+00  0.00000000E+00
  0.00000000E+00  0.00000000E+00  0.00000000E+00
  0.00000000E+00  0.00000000E+00  0.00000000E+00
