CONTCAR\(5)                             
   1.00000000000000     
    13.6462001800999992    0.0000000000000000    0.0000000000000000
     1.7063387634000000   10.2396006658999994    0.0000000000000000
     0.0000000000000000    0.0000000000000000   19.9377994536999985
   Ta   Te   O 
    16    24     1
Direct
  0.1442705935497507  0.8524320594568026  0.4941014320087701
  0.1060795520806689  0.1497207952049492  0.5105697827383566
  0.2013627383142155  0.3972601889787029  0.5247953329594216
  0.0450095280503401  0.6128598757396798  0.4718526886971761
  0.3924687084732114  0.8530824680592417  0.4943798938897211
  0.3561304100713747  0.1506128564680081  0.5107701606242117
  0.4494606855719724  0.3978446337468919  0.5249863142777587
  0.2982587543693794  0.6133934849802889  0.4784942373909363
  0.6413409462603239  0.8543025180470578  0.4913710821832834
  0.6077133633049405  0.1486938348513300  0.5102241517356332
  0.7003386459459996  0.3940618069808688  0.5221629329077010
  0.5512859248317918  0.6131865866635134  0.4714516638613092
  0.8951221730470797  0.8540972659341177  0.4914237285307648
  0.8549214223113990  0.1491109620485822  0.5095867933784446
  0.9513259704175884  0.3950348330051951  0.5218004087512950
  0.7985942866996729  0.6125029640612174  0.4777589409379581
  0.1746642332766563  0.6493401520351475  0.5930644380075399
  0.0828448546875828  0.3517189934960002  0.4141919753807006
  0.1636822893096161  0.7055380943579925  0.3743706607751885
  0.0856908531092645  0.3062318769376572  0.6260804604037064
  0.0017021381416853  0.9817175981649051  0.5889768244141037
  0.2476109615660464  0.0200564010048435  0.4150603692320767
  0.4127981218898307  0.6492599518790628  0.5931195538086040
  0.3307821176866212  0.3549738317637874  0.4152675484032269
  0.4095786537844203  0.7062552727214351  0.3744957714644059
  0.3372430101651905  0.3040357405392369  0.6269737386524236
  0.2517555688133092  0.9852634774548649  0.5898592392251432
  0.4965899916371171  0.0216669043667497  0.4142661133126475
  0.6645279691498900  0.6473781742577692  0.5861793879143371
  0.5791014225634527  0.3518495455643719  0.4145824173489748
  0.6633857716145946  0.7003949825697310  0.3721689079899277
  0.5875547814991506  0.3049771065139237  0.6259882094412057
  0.5028594764284334  0.9815193994020746  0.5891828568947298
  0.7472231499187286  0.0214650160528371  0.4134174188241286
  0.9234347959923198  0.6475811614847110  0.5865331875538659
  0.8308971469852919  0.3542203952012596  0.4132952446676955
  0.9114690803943643  0.7008082339785563  0.3723903189207285
  0.8368454811893122  0.3053884642888846  0.6250760742893693
  0.7525945535689135  0.9791397729915354  0.5880123767217510
  0.9979456979462588  0.0212599345479577  0.4140178878766723
  0.2911639543822553  0.6717838021983230  0.6554395986040892
 
  0.00000000E+00  0.00000000E+00  0.00000000E+00
  0.00000000E+00  0.00000000E+00  0.00000000E+00
  0.00000000E+00  0.00000000E+00  0.00000000E+00
  0.00000000E+00  0.00000000E+00  0.00000000E+00
  0.00000000E+00  0.00000000E+00  0.00000000E+00
  0.00000000E+00  0.00000000E+00  0.00000000E+00
  0.00000000E+00  0.00000000E+00  0.00000000E+00
  0.00000000E+00  0.00000000E+00  0.00000000E+00
  0.00000000E+00  0.00000000E+00  0.00000000E+00
  0.00000000E+00  0.00000000E+00  0.00000000E+00
  0.00000000E+00  0.00000000E+00  0.00000000E+00
  0.00000000E+00  0.00000000E+00  0.00000000E+00
  0.00000000E+00  0.00000000E+00  0.00000000E+00
  0.00000000E+00  0.00000000E+00  0.00000000E+00
  0.00000000E+00  0.00000000E+00  0.00000000E+00
  0.00000000E+00  0.00000000E+00  0.00000000E+00
  0.00000000E+00  0.00000000E+00  0.00000000E+00
  0.00000000E+00  0.00000000E+00  0.00000000E+00
  0.00000000E+00  0.00000000E+00  0.00000000E+00
  0.00000000E+00  0.00000000E+00  0.00000000E+00
  0.00000000E+00  0.00000000E+00  0.00000000E+00
  0.00000000E+00  0.00000000E+00  0.00000000E+00
  0.00000000E+00  0.00000000E+00  0.00000000E+00
  0.00000000E+00  0.00000000E+00  0.00000000E+00
  0.00000000E+00  0.00000000E+00  0.00000000E+00
  0.00000000E+00  0.00000000E+00  0.00000000E+00
  0.00000000E+00  0.00000000E+00  0.00000000E+00
  0.00000000E+00  0.00000000E+00  0.00000000E+00
  0.00000000E+00  0.00000000E+00  0.00000000E+00
  0.00000000E+00  0.00000000E+00  0.00000000E+00
  0.00000000E+00  0.00000000E+00  0.00000000E+00
  0.00000000E+00  0.00000000E+00  0.00000000E+00
  0.00000000E+00  0.00000000E+00  0.00000000E+00
  0.00000000E+00  0.00000000E+00  0.00000000E+00
  0.00000000E+00  0.00000000E+00  0.00000000E+00
  0.00000000E+00  0.00000000E+00  0.00000000E+00
  0.00000000E+00  0.00000000E+00  0.00000000E+00
  0.00000000E+00  0.00000000E+00  0.00000000E+00
  0.00000000E+00  0.00000000E+00  0.00000000E+00
  0.00000000E+00  0.00000000E+00  0.00000000E+00
  0.00000000E+00  0.00000000E+00  0.00000000E+00
