CONTCAR                                 
   1.00000000000000     
    13.1028995514000002    0.0000000000000000    0.0000000000000000
     0.0000000000000000   13.0989999771000001    0.0000000000000000
     0.0000000000000000    0.0000000000000000   24.4346008300999991
   Nd   Te   O    H 
    18    54     1     1
Direct
  0.1399673308773644  0.0022071313137609  0.5859027721228264
  0.3072574994347868  0.1665025333514486  0.4129630110142974
  0.4736888239103155  0.9995141546360090  0.5877514568337130
  0.6401555917525736  0.1663321237424150  0.4127506721738848
  0.8066107629816068  0.9991891808846189  0.5864215497676484
  0.9738838118008774  0.1665623654458902  0.4126385782053123
  0.1418785514578620  0.3345745917393241  0.5876484368841929
  0.3073099360233481  0.5000954957178426  0.4143019697827117
  0.4742253280034357  0.3307850855246017  0.5872046934426740
  0.6399684405486554  0.5001028466761982  0.4139075748462421
  0.8095199745869133  0.3330185757486213  0.5861401980538673
  0.9736732349321241  0.4997993569272381  0.4129076090862332
  0.1385680851632355  0.6667003591519761  0.5872637464595631
  0.3076353820431766  0.8322982176316918  0.4139503442421484
  0.4747013917884131  0.6658471420664326  0.5927581597814330
  0.6402490210432693  0.8328853518368536  0.4136532026225858
  0.8074858396966160  0.6662955602845915  0.5880223842465530
  0.9733244190025263  0.8329983629186233  0.4126594275106008
  0.1405997658691180  0.1665999475922498  0.3083004702950964
  0.3083083773483963  0.0030381696943205  0.6918169328090600
  0.3072874039579295  0.1665446650327874  0.5477636779194965
  0.1407419691732868  0.9992021406912024  0.4519486930936940
  0.3072372275822514  0.9993918508964512  0.3089648989512103
  0.1438238473891313  0.1697132357078052  0.6915972811064123
  0.4734115028276409  0.1665765206000642  0.3083510783484532
  0.6409488305228619  0.9997104495920809  0.6917950774144636
  0.6408975295929001  0.1655247806812554  0.5473659305507426
  0.4735597888758976  0.9995395169530402  0.4529012388655366
  0.6403855587082067  0.9997203632805652  0.3085627105204090
  0.4729221300947963  0.1633209023649370  0.6922422344672234
  0.8069206910721236  0.1665052507773573  0.3082120992957247
  0.9712685809455635  0.0053588325231767  0.6908446345204041
  0.9747835856865626  0.1673108211453437  0.5468675282169035
  0.8069025149867274  0.9997688130417677  0.4522063935195318
  0.9737611045388260  0.9997541794258066  0.3081289969514045
  0.8153331871273307  0.1645425607424050  0.6912719517107234
  0.1406053684077599  0.4999690543981419  0.3087692686855718
  0.3087391671398610  0.3336384554628309  0.6932922622451325
  0.3093029915125486  0.5018026041020721  0.5507793176175509
  0.1407467275968710  0.3333623276346275  0.4527654136526235
  0.3069933816850550  0.3333490970113314  0.3088962675538877
  0.1410069957273454  0.5031261135283114  0.6933504222768835
  0.4734607563700634  0.4999215961109028  0.3095932487903836
  0.6442774218690799  0.3284998116237758  0.6874439577861310
  0.6400486492458956  0.5001346689461338  0.5495767735159082
  0.4738701460683273  0.3328430234375759  0.4531703105161573
  0.6402098353058895  0.3334334158201864  0.3088749380782544
  0.4934804492440056  0.4833367633987248  0.7006177021979825
  0.8068285312108158  0.4998174986550111  0.3089450082060463
  0.9766444602405525  0.3352711176969648  0.6917877791769239
  0.9743357171955133  0.5000138433840053  0.5477238989184203
  0.8066284951771971  0.3332889755822499  0.4522095613913255
  0.9738176776219893  0.3332527586969073  0.3082997601448826
  0.8118871188955196  0.5005100939490805  0.6918495219522237
  0.1407551851431519  0.8330150380873776  0.3088419883672355
  0.2952395239441472  0.6853566839943431  0.7051735441767085
  0.3079282280474175  0.8312389663774430  0.5500073890614744
  0.1399503648097689  0.6665123568720719  0.4530061262197531
  0.3070945376728147  0.6662072640640313  0.3095262836547392
  0.1338799202020108  0.8377485557094169  0.6868822307286657
  0.4737439245791944  0.8329031653541764  0.3091860577435451
  0.6444770765501551  0.6664507039476650  0.6954341518777820
  0.6389013134253292  0.8313100380727825  0.5491147470273936
  0.4740214024864090  0.6661348208004454  0.4553969887945024
  0.6399685603102769  0.6665651736794053  0.3093800479659408
  0.4743703513581037  0.8354912151548344  0.6960479346025052
  0.8067082598383278  0.8330110796158694  0.3085840632235087
  0.9723472707599643  0.6650469783242994  0.6923744379631230
  0.9727213153054954  0.8333255317201933  0.5471269050616228
  0.8068215851533284  0.6661992287040602  0.4531547548815486
  0.9734770519170381  0.6664681468451231  0.3083802419982604
  0.8047020147539888  0.8338520974898528  0.6921358635691629
  0.3663801403483118  0.5673600762465311  0.7558329680013038
  0.3993517745338270  0.6016005631605436  0.7868896627420231
 
  0.00000000E+00  0.00000000E+00  0.00000000E+00
  0.00000000E+00  0.00000000E+00  0.00000000E+00
  0.00000000E+00  0.00000000E+00  0.00000000E+00
  0.00000000E+00  0.00000000E+00  0.00000000E+00
  0.00000000E+00  0.00000000E+00  0.00000000E+00
  0.00000000E+00  0.00000000E+00  0.00000000E+00
  0.00000000E+00  0.00000000E+00  0.00000000E+00
  0.00000000E+00  0.00000000E+00  0.00000000E+00
  0.00000000E+00  0.00000000E+00  0.00000000E+00
  0.00000000E+00  0.00000000E+00  0.00000000E+00
  0.00000000E+00  0.00000000E+00  0.00000000E+00
  0.00000000E+00  0.00000000E+00  0.00000000E+00
  0.00000000E+00  0.00000000E+00  0.00000000E+00
  0.00000000E+00  0.00000000E+00  0.00000000E+00
  0.00000000E+00  0.00000000E+00  0.00000000E+00
  0.00000000E+00  0.00000000E+00  0.00000000E+00
  0.00000000E+00  0.00000000E+00  0.00000000E+00
  0.00000000E+00  0.00000000E+00  0.00000000E+00
  0.00000000E+00  0.00000000E+00  0.00000000E+00
  0.00000000E+00  0.00000000E+00  0.00000000E+00
  0.00000000E+00  0.00000000E+00  0.00000000E+00
  0.00000000E+00  0.00000000E+00  0.00000000E+00
  0.00000000E+00  0.00000000E+00  0.00000000E+00
  0.00000000E+00  0.00000000E+00  0.00000000E+00
  0.00000000E+00  0.00000000E+00  0.00000000E+00
  0.00000000E+00  0.00000000E+00  0.00000000E+00
  0.00000000E+00  0.00000000E+00  0.00000000E+00
  0.00000000E+00  0.00000000E+00  0.00000000E+00
  0.00000000E+00  0.00000000E+00  0.00000000E+00
  0.00000000E+00  0.00000000E+00  0.00000000E+00
  0.00000000E+00  0.00000000E+00  0.00000000E+00
  0.00000000E+00  0.00000000E+00  0.00000000E+00
  0.00000000E+00  0.00000000E+00  0.00000000E+00
  0.00000000E+00  0.00000000E+00  0.00000000E+00
  0.00000000E+00  0.00000000E+00  0.00000000E+00
  0.00000000E+00  0.00000000E+00  0.00000000E+00
  0.00000000E+00  0.00000000E+00  0.00000000E+00
  0.00000000E+00  0.00000000E+00  0.00000000E+00
  0.00000000E+00  0.00000000E+00  0.00000000E+00
  0.00000000E+00  0.00000000E+00  0.00000000E+00
  0.00000000E+00  0.00000000E+00  0.00000000E+00
  0.00000000E+00  0.00000000E+00  0.00000000E+00
  0.00000000E+00  0.00000000E+00  0.00000000E+00
  0.00000000E+00  0.00000000E+00  0.00000000E+00
  0.00000000E+00  0.00000000E+00  0.00000000E+00
  0.00000000E+00  0.00000000E+00  0.00000000E+00
  0.00000000E+00  0.00000000E+00  0.00000000E+00
  0.00000000E+00  0.00000000E+00  0.00000000E+00
  0.00000000E+00  0.00000000E+00  0.00000000E+00
  0.00000000E+00  0.00000000E+00  0.00000000E+00
  0.00000000E+00  0.00000000E+00  0.00000000E+00
  0.00000000E+00  0.00000000E+00  0.00000000E+00
  0.00000000E+00  0.00000000E+00  0.00000000E+00
  0.00000000E+00  0.00000000E+00  0.00000000E+00
  0.00000000E+00  0.00000000E+00  0.00000000E+00
  0.00000000E+00  0.00000000E+00  0.00000000E+00
  0.00000000E+00  0.00000000E+00  0.00000000E+00
  0.00000000E+00  0.00000000E+00  0.00000000E+00
  0.00000000E+00  0.00000000E+00  0.00000000E+00
  0.00000000E+00  0.00000000E+00  0.00000000E+00
  0.00000000E+00  0.00000000E+00  0.00000000E+00
  0.00000000E+00  0.00000000E+00  0.00000000E+00
  0.00000000E+00  0.00000000E+00  0.00000000E+00
  0.00000000E+00  0.00000000E+00  0.00000000E+00
  0.00000000E+00  0.00000000E+00  0.00000000E+00
  0.00000000E+00  0.00000000E+00  0.00000000E+00
  0.00000000E+00  0.00000000E+00  0.00000000E+00
  0.00000000E+00  0.00000000E+00  0.00000000E+00
  0.00000000E+00  0.00000000E+00  0.00000000E+00
  0.00000000E+00  0.00000000E+00  0.00000000E+00
  0.00000000E+00  0.00000000E+00  0.00000000E+00
  0.00000000E+00  0.00000000E+00  0.00000000E+00
  0.00000000E+00  0.00000000E+00  0.00000000E+00
  0.00000000E+00  0.00000000E+00  0.00000000E+00
