CONTCAR\(8)                             
   1.00000000000000     
    11.2503995895000006    0.0000000000000000    0.0000000000000000
     0.0000000000000000   11.4902000426999997    0.0000000000000000
     0.0000000000000000    0.0000000000000000   19.3134994507000002
   Cr   Te   O    H 
     8    24     2     1
Selective dynamics
Direct
  0.0028914541349607  0.6571210735976010  0.5028440141300763   F   F   F
  0.5276962156697564  0.8184652989519989  0.5003391037488782   F   F   F
  0.9979619715857453  0.3243875580487057  0.5021033494941207   F   F   F
  0.5023572617347227  0.1544324979608547  0.5049201188405092   F   F   F
  0.2759544051474592  0.4898529330487591  0.5113053304673798   F   F   F
  0.7661680655420895  0.9865822811417004  0.4932718956737077   F   F   F
  0.7383508859838130  0.4857804094648372  0.4949318429704022   F   F   F
  0.2198457873718453  0.0012610618394859  0.5113286895853548   F   F   F
  0.9129871092236783  0.4897483757046004  0.5899841388882550   F   F   F
  0.4094245912548686  0.9842782907808427  0.4225165435699907   F   F   F
  0.0972104969970147  0.4900105214215316  0.4175196033145525   F   F   F
  0.5960507740366552  0.9869496705427778  0.5896519319447648   F   F   F
  0.3302042452817702  0.1429267372600833  0.6033019341485470   F   F   F
  0.8319830444007081  0.3327962221661380  0.4014454052910210   F   F   F
  0.6816608553021908  0.8333406138422106  0.3971927387279024   F   F   F
  0.1704494846868414  0.6392057957841359  0.6018498010097204   F   F   F
  0.1699356208868394  0.3384452015508401  0.6010562561606321   F   F   F
  0.6658916829569534  0.1409605859271821  0.4030084498821580   F   F   F
  0.8393281108539199  0.6373038338724442  0.4016569123654534   F   F   F
  0.3303463236895112  0.8317935007984758  0.5739328897337117   F   F   F
  0.6257983216265686  0.3201986328513584  0.5767058397709590   F   F   F
  0.1165508881832835  0.1607814252761841  0.4274057332115646   F   F   F
  0.3917469008003565  0.6568417165080405  0.4297627423811150   F   F   F
  0.8778714488893300  0.8218506347697101  0.5741133001193646   F   F   F
  0.4447741243835495  0.4896276376830855  0.6097679189465524   F   F   F
  0.9351155411789378  0.9909073727691933  0.3957690391657636   F   F   F
  0.5688994489821795  0.4837793962997878  0.3969929695556402   F   F   F
  0.0550065817844398  0.9935561252635736  0.6106305092355626   F   F   F
  0.6347076473065201  0.6513440926839280  0.5782903786239473   F   F   F
  0.1210087582780730  0.8274345190953412  0.4305594482018478   F   F   F
  0.3843479926398672  0.3216018308015975  0.4313139130311257   F   F   F
  0.8732400722819804  0.1583231065400454  0.5735806428034351   F   F   F
  0.3461017774191149  0.8663764289558671  0.6797475647309312   T   T   T
  0.4036135946927217  0.7677823477512717  0.7134012538007397   T   T   T
  0.3343484178117251  0.7237622140457843  0.7294013886384388   T   T   T
 
  0.00000000E+00  0.00000000E+00  0.00000000E+00
  0.00000000E+00  0.00000000E+00  0.00000000E+00
  0.00000000E+00  0.00000000E+00  0.00000000E+00
  0.00000000E+00  0.00000000E+00  0.00000000E+00
  0.00000000E+00  0.00000000E+00  0.00000000E+00
  0.00000000E+00  0.00000000E+00  0.00000000E+00
  0.00000000E+00  0.00000000E+00  0.00000000E+00
  0.00000000E+00  0.00000000E+00  0.00000000E+00
  0.00000000E+00  0.00000000E+00  0.00000000E+00
  0.00000000E+00  0.00000000E+00  0.00000000E+00
  0.00000000E+00  0.00000000E+00  0.00000000E+00
  0.00000000E+00  0.00000000E+00  0.00000000E+00
  0.00000000E+00  0.00000000E+00  0.00000000E+00
  0.00000000E+00  0.00000000E+00  0.00000000E+00
  0.00000000E+00  0.00000000E+00  0.00000000E+00
  0.00000000E+00  0.00000000E+00  0.00000000E+00
  0.00000000E+00  0.00000000E+00  0.00000000E+00
  0.00000000E+00  0.00000000E+00  0.00000000E+00
  0.00000000E+00  0.00000000E+00  0.00000000E+00
  0.00000000E+00  0.00000000E+00  0.00000000E+00
  0.00000000E+00  0.00000000E+00  0.00000000E+00
  0.00000000E+00  0.00000000E+00  0.00000000E+00
  0.00000000E+00  0.00000000E+00  0.00000000E+00
  0.00000000E+00  0.00000000E+00  0.00000000E+00
  0.00000000E+00  0.00000000E+00  0.00000000E+00
  0.00000000E+00  0.00000000E+00  0.00000000E+00
  0.00000000E+00  0.00000000E+00  0.00000000E+00
  0.00000000E+00  0.00000000E+00  0.00000000E+00
  0.00000000E+00  0.00000000E+00  0.00000000E+00
  0.00000000E+00  0.00000000E+00  0.00000000E+00
  0.00000000E+00  0.00000000E+00  0.00000000E+00
  0.00000000E+00  0.00000000E+00  0.00000000E+00
  0.00000000E+00  0.00000000E+00  0.00000000E+00
  0.00000000E+00  0.00000000E+00  0.00000000E+00
  0.00000000E+00  0.00000000E+00  0.00000000E+00
