CONTCAR\(7)                             
   1.00000000000000     
    10.9293003082000002    0.0000000000000000    0.0000000000000000
     0.0000000000000000   10.9293003082000002    0.0000000000000000
     0.0000000000000000    0.0000000000000000   18.0813007355000011
   Cu   Se   O    H 
    18    18     2     1
Direct
 -0.0000054672015951  0.0052179208671052  0.5007941608262561
  0.1647269847323428  0.1702866435847178  0.5122138528329244
  0.3325488267714851  0.0063727446029452  0.5057410773074719
  0.5008074379245312  0.1680121430855611  0.5056355861816521
  0.6655929009800695  0.0003952562518087  0.5069482327320515
  0.8321265421392862  0.1678209687878384  0.5050174042633703
 -0.0022271681555318  0.3341184773528389  0.5100224543066294
  0.1647861818187552  0.4985326604676166  0.5115396171798099
  0.3337111436094323  0.3340697367888660  0.5053582807556015
  0.5014773737794287  0.5001767318295368  0.5057905230788649
  0.6658178473228850  0.3339006291878203  0.5048758484244833
  0.8324276902745922  0.5002694583519172  0.5062165383208683
 -0.0000740620568846  0.6641461594296747  0.5020238910860561
  0.1453748616153215  0.8341809916674067  0.4757553127075607
  0.3328176233459691  0.6620283101912381  0.5029660503816419
  0.4983815133635827  0.8339980515542370  0.5098787319781142
  0.6659976824428321  0.6676107811156409  0.5097397276852418
  0.8332296435770838  0.8343175618162995  0.4998314985182880
 -0.0060940675320243  0.1631591254006376  0.5972964184737504
  0.1739894566255422  0.0186802400731255  0.4122684880414887
  0.3360146999358967  0.1711494902711631  0.5973803423463758
  0.5008799037964424 -0.0020238304892259  0.4174034263918953
  0.6671139105501804  0.1689253285846820  0.5958711621504850
  0.8269085009562301  0.0046653893949051  0.4133373703116978
 -0.0044660258164245  0.5048709138556577  0.5977340930865910
  0.1633617220174925  0.3341648771263729  0.4189569251352360
  0.3357861955343858  0.4988207567588705  0.5966259251972238
  0.4994474354205342  0.3344109361588955  0.4151360853168360
  0.6669290697477894  0.4975123747619462  0.5969647219206209
  0.8348623500322080  0.3350059494652318  0.4160555328244308
  0.0008671303479235  0.8354159630457677  0.5872791214646877
  0.1717783432904791  0.6499319676362602  0.4116343302293177
  0.3165953309119865  0.8324201194642395  0.5879521878955896
  0.5045788264993117  0.6699623034935916  0.4174864864585178
  0.6761230668503134  0.8355710117914215  0.5962717219674546
  0.8261509244256410  0.6630101578508220  0.4145905223952216
  0.4059470825261678  0.8292900271834263  0.6812574278744188
  0.3212405681007011  0.8170356174579514  0.7416779769638466
  0.3188779974956283  0.7276559467811943  0.7483107109874521
 
  0.00000000E+00  0.00000000E+00  0.00000000E+00
  0.00000000E+00  0.00000000E+00  0.00000000E+00
  0.00000000E+00  0.00000000E+00  0.00000000E+00
  0.00000000E+00  0.00000000E+00  0.00000000E+00
  0.00000000E+00  0.00000000E+00  0.00000000E+00
  0.00000000E+00  0.00000000E+00  0.00000000E+00
  0.00000000E+00  0.00000000E+00  0.00000000E+00
  0.00000000E+00  0.00000000E+00  0.00000000E+00
  0.00000000E+00  0.00000000E+00  0.00000000E+00
  0.00000000E+00  0.00000000E+00  0.00000000E+00
  0.00000000E+00  0.00000000E+00  0.00000000E+00
  0.00000000E+00  0.00000000E+00  0.00000000E+00
  0.00000000E+00  0.00000000E+00  0.00000000E+00
  0.00000000E+00  0.00000000E+00  0.00000000E+00
  0.00000000E+00  0.00000000E+00  0.00000000E+00
  0.00000000E+00  0.00000000E+00  0.00000000E+00
  0.00000000E+00  0.00000000E+00  0.00000000E+00
  0.00000000E+00  0.00000000E+00  0.00000000E+00
  0.00000000E+00  0.00000000E+00  0.00000000E+00
  0.00000000E+00  0.00000000E+00  0.00000000E+00
  0.00000000E+00  0.00000000E+00  0.00000000E+00
  0.00000000E+00  0.00000000E+00  0.00000000E+00
  0.00000000E+00  0.00000000E+00  0.00000000E+00
  0.00000000E+00  0.00000000E+00  0.00000000E+00
  0.00000000E+00  0.00000000E+00  0.00000000E+00
  0.00000000E+00  0.00000000E+00  0.00000000E+00
  0.00000000E+00  0.00000000E+00  0.00000000E+00
  0.00000000E+00  0.00000000E+00  0.00000000E+00
  0.00000000E+00  0.00000000E+00  0.00000000E+00
  0.00000000E+00  0.00000000E+00  0.00000000E+00
  0.00000000E+00  0.00000000E+00  0.00000000E+00
  0.00000000E+00  0.00000000E+00  0.00000000E+00
  0.00000000E+00  0.00000000E+00  0.00000000E+00
  0.00000000E+00  0.00000000E+00  0.00000000E+00
  0.00000000E+00  0.00000000E+00  0.00000000E+00
  0.00000000E+00  0.00000000E+00  0.00000000E+00
  0.00000000E+00  0.00000000E+00  0.00000000E+00
  0.00000000E+00  0.00000000E+00  0.00000000E+00
  0.00000000E+00  0.00000000E+00  0.00000000E+00
