CONTCAR\(12)                            
   1.00000000000000     
    12.9555997849000004    0.0000000000000000    0.0000000000000000
     0.0000000000000000   12.9555997849000004    0.0000000000000000
     0.0000000000000000    0.0000000000000000   24.1623992919999999
   Tb   Te   O 
    18    54     1
Direct
  0.1643484784063776  0.0005637576652142  0.5844692192666678
  0.9988832495583279  0.1661910109028399  0.4144160595659072
  0.4982318497760875  0.9981970710894119  0.5858517034592485
  0.3318761530988570  0.1659407151846105  0.4148803263392964
  0.8320756306671796  0.9983075457409872  0.5846104364828555
  0.6654946660420429  0.1658680246206825  0.4145532833658899
  0.1663730202791255  0.3326505098499791  0.5857736847755795
  0.9987470422134771  0.4992957735773740  0.4148213447551133
  0.4982340158046865  0.3285962361497495  0.5845436736056093
  0.3324089185440421  0.4995075120001592  0.4157646978822075
  0.8344380763662154  0.3305308992735103  0.5845214064777243
  0.6650535335837042  0.4994525261455632  0.4156467134568027
  0.1622632299760279  0.6646661144297302  0.5846025960504951
  0.9984306104978709  0.8327543304870328  0.4145495209799637
  0.4998317502239334  0.6662598441184165  0.5873016544527691
  0.3323108900277164  0.8323618401486620  0.4156386296576650
  0.8320268387116557  0.6644566191308315  0.5858508249758976
  0.6655913690833671  0.8326792602053416  0.4152703083866819
  0.9988996205753036 -0.0004212585684952  0.3112678203843565
  0.1668700451854780  0.1656026987450644  0.6885568053255686
  0.9976671217036096  0.0028470120579871  0.6875411194166335
  0.1657224018142128  0.1664824578201766  0.3117193313118298
  0.1652903980309129  0.9986497334694948  0.4533177929617876
  0.9995843895473506  0.1661094641887088  0.5458712223587696
  0.3322995208709220 -0.0005240706565187  0.3121208337134018
  0.4975325274732709  0.1627295576147420  0.6890030076801150
  0.3319922979319203  0.9996359095763311  0.6887667296779022
  0.4985253920284933  0.1660248213121035  0.3118071197502915
  0.4987814985359443  0.9990759266140011  0.4539724063771147
  0.3319875270507702  0.1647480190987509  0.5466198527560200
  0.6654889330531895 -0.0005592484760195  0.3117481044802772
  0.8369892086437519  0.1631393841540551  0.6877951606287563
  0.6660941737646453  0.9982304927230471  0.6881693060101146
  0.8321217231418025  0.1663275319653600  0.3112549712491234
  0.8322192098187662  0.9994726225917453  0.4531905503301131
  0.6654548971849359  0.1640415633810390  0.5462686482555794
  0.9990968854222955  0.3331881744201913  0.3117145889010367
  0.1663513780251724  0.5012416511313060  0.6889374558690987
 -0.0001058261715883  0.3326665809519164  0.6886873070055971
  0.1658435768327085  0.4996233387538771  0.3120621479961831
  0.1656816176817557  0.3330000012689218  0.4539057215985035
  0.9984428970143582  0.4983113257874704  0.5466265489875974
  0.3324042443497706  0.3331671293420406  0.3120915600577619
  0.5122670457796115  0.4925157055495668  0.6951886683129281
  0.3352564170567610  0.3325436815928380  0.6886898085368085
  0.4989821064105038  0.4996716337910627  0.3123983458867660
  0.4984027350513204  0.3320257262083167  0.4536811613160930
  0.3333616058102242  0.4999648376313199  0.5484691113047268
  0.6653453498284956  0.3331500356922591  0.3120055240227786
  0.8338971059896977  0.4977650269717666  0.6887315622796083
  0.6693264336529428  0.3256213913715961  0.6854585268726798
  0.8320255966355788  0.4998182625827932  0.3120044724673542
  0.8316237404834763  0.3325575705107951  0.4532365005857041
  0.6643503396061825  0.4980723597075878  0.5481975772326575
  0.9987742764049208  0.6659519649922149  0.3117816756573275
  0.1601904441403328  0.8349189623511166  0.6855004608614848
  0.9964865432860073  0.6638748135820579  0.6890034230629659
  0.1657224552130421  0.8328031681447109  0.3120921580005825
  0.1649521928922719  0.6655783907859989  0.4536993090782766
  0.9976212353391910  0.8318608509777242  0.5461956238216065
  0.3324875901090474  0.6659423144162698  0.3124875986485429
  0.4993444676241787  0.8328741857627792  0.6910170378520606
  0.3262205168511798  0.6776423594175883  0.6956316476933080
  0.4989931321931533  0.8327658724476354  0.3125407180143552
  0.4989649231774853  0.6659981029225563  0.4550190160412774
  0.3316742937942678  0.8309563067922928  0.5481551655306620
  0.6653709033226807  0.6663330520118286  0.3125594195525018
  0.8326446499601916  0.8322424960535725  0.6883643741149329
  0.6672460472469159  0.6651749349866359  0.6907777494322950
  0.8320322061745298  0.8329503546580550  0.3116757971602097
  0.8318832416762533  0.6656036598510578  0.4540147612504163
  0.6650532725149236  0.8313924130165898  0.5473265143321829
  0.4059637324040900  0.5710087182319230  0.7398642020569874
 
  0.00000000E+00  0.00000000E+00  0.00000000E+00
  0.00000000E+00  0.00000000E+00  0.00000000E+00
  0.00000000E+00  0.00000000E+00  0.00000000E+00
  0.00000000E+00  0.00000000E+00  0.00000000E+00
  0.00000000E+00  0.00000000E+00  0.00000000E+00
  0.00000000E+00  0.00000000E+00  0.00000000E+00
  0.00000000E+00  0.00000000E+00  0.00000000E+00
  0.00000000E+00  0.00000000E+00  0.00000000E+00
  0.00000000E+00  0.00000000E+00  0.00000000E+00
  0.00000000E+00  0.00000000E+00  0.00000000E+00
  0.00000000E+00  0.00000000E+00  0.00000000E+00
  0.00000000E+00  0.00000000E+00  0.00000000E+00
  0.00000000E+00  0.00000000E+00  0.00000000E+00
  0.00000000E+00  0.00000000E+00  0.00000000E+00
  0.00000000E+00  0.00000000E+00  0.00000000E+00
  0.00000000E+00  0.00000000E+00  0.00000000E+00
  0.00000000E+00  0.00000000E+00  0.00000000E+00
  0.00000000E+00  0.00000000E+00  0.00000000E+00
  0.00000000E+00  0.00000000E+00  0.00000000E+00
  0.00000000E+00  0.00000000E+00  0.00000000E+00
  0.00000000E+00  0.00000000E+00  0.00000000E+00
  0.00000000E+00  0.00000000E+00  0.00000000E+00
  0.00000000E+00  0.00000000E+00  0.00000000E+00
  0.00000000E+00  0.00000000E+00  0.00000000E+00
  0.00000000E+00  0.00000000E+00  0.00000000E+00
  0.00000000E+00  0.00000000E+00  0.00000000E+00
  0.00000000E+00  0.00000000E+00  0.00000000E+00
  0.00000000E+00  0.00000000E+00  0.00000000E+00
  0.00000000E+00  0.00000000E+00  0.00000000E+00
  0.00000000E+00  0.00000000E+00  0.00000000E+00
  0.00000000E+00  0.00000000E+00  0.00000000E+00
  0.00000000E+00  0.00000000E+00  0.00000000E+00
  0.00000000E+00  0.00000000E+00  0.00000000E+00
  0.00000000E+00  0.00000000E+00  0.00000000E+00
  0.00000000E+00  0.00000000E+00  0.00000000E+00
  0.00000000E+00  0.00000000E+00  0.00000000E+00
  0.00000000E+00  0.00000000E+00  0.00000000E+00
  0.00000000E+00  0.00000000E+00  0.00000000E+00
  0.00000000E+00  0.00000000E+00  0.00000000E+00
  0.00000000E+00  0.00000000E+00  0.00000000E+00
  0.00000000E+00  0.00000000E+00  0.00000000E+00
  0.00000000E+00  0.00000000E+00  0.00000000E+00
  0.00000000E+00  0.00000000E+00  0.00000000E+00
  0.00000000E+00  0.00000000E+00  0.00000000E+00
  0.00000000E+00  0.00000000E+00  0.00000000E+00
  0.00000000E+00  0.00000000E+00  0.00000000E+00
  0.00000000E+00  0.00000000E+00  0.00000000E+00
  0.00000000E+00  0.00000000E+00  0.00000000E+00
  0.00000000E+00  0.00000000E+00  0.00000000E+00
  0.00000000E+00  0.00000000E+00  0.00000000E+00
  0.00000000E+00  0.00000000E+00  0.00000000E+00
  0.00000000E+00  0.00000000E+00  0.00000000E+00
  0.00000000E+00  0.00000000E+00  0.00000000E+00
  0.00000000E+00  0.00000000E+00  0.00000000E+00
  0.00000000E+00  0.00000000E+00  0.00000000E+00
  0.00000000E+00  0.00000000E+00  0.00000000E+00
  0.00000000E+00  0.00000000E+00  0.00000000E+00
  0.00000000E+00  0.00000000E+00  0.00000000E+00
  0.00000000E+00  0.00000000E+00  0.00000000E+00
  0.00000000E+00  0.00000000E+00  0.00000000E+00
  0.00000000E+00  0.00000000E+00  0.00000000E+00
  0.00000000E+00  0.00000000E+00  0.00000000E+00
  0.00000000E+00  0.00000000E+00  0.00000000E+00
  0.00000000E+00  0.00000000E+00  0.00000000E+00
  0.00000000E+00  0.00000000E+00  0.00000000E+00
  0.00000000E+00  0.00000000E+00  0.00000000E+00
  0.00000000E+00  0.00000000E+00  0.00000000E+00
  0.00000000E+00  0.00000000E+00  0.00000000E+00
  0.00000000E+00  0.00000000E+00  0.00000000E+00
  0.00000000E+00  0.00000000E+00  0.00000000E+00
  0.00000000E+00  0.00000000E+00  0.00000000E+00
  0.00000000E+00  0.00000000E+00  0.00000000E+00
  0.00000000E+00  0.00000000E+00  0.00000000E+00
