CONTCAR\(5)                             
   1.00000000000000     
    10.2070999146000005    0.0000000000000000    0.0000000000000000
    -1.7011927660999999   18.1179073708000011    0.0000000000000000
     0.0000000000000000    0.0000000000000000   20.2910003661999987
   Ta   Co   Pd   Se   O    H 
    12     6     3    36     1     1
Direct
  0.0254082183862878  0.1531843190996418  0.4654184898807598
  0.3089013895921025  0.8528840160374959  0.5288124229359614
  0.0685358371089371  0.4096923524451899  0.4719445813099190
  0.2653646490238919  0.5949059254614250  0.5305125385241389
  0.3585892731525040  0.1531760494057432  0.4656356299654626
  0.6422430292250338  0.8502227406406968  0.5299603447595624
  0.4016494383741281  0.4098401451946174  0.4716713000109795
  0.5985084758272057  0.5946544278173876  0.5275000426988075
  0.6921877172888626  0.1531093619542518  0.4652711090301747
  0.9749563632951452  0.8501899385141061  0.5298134533498510
  0.7351775100988855  0.4095069820684500  0.4711569503945506
  0.9323613067363566  0.5945434588957510  0.5276115364653456
  0.2147158898042375  0.2871773570766080  0.4404558835912744
  0.1115828445453613  0.7162497750832371  0.5588123290709127
  0.5480906504957678  0.2872137746652870  0.4401967871323533
  0.4606636185615660  0.7164664950656183  0.5589158076801148
  0.8816300697735492  0.2871594899402646  0.4403361663101294
  0.7861240873116278  0.7170217841730093  0.5562043532692219
  0.1666599115412883  0.0015446479898333  0.4969704125768415
  0.5007498175596954  0.0015535361341703  0.4972139051441175
  0.8336329746939308  0.0020267548745350  0.4969265813188944
  0.1861130326679748  0.1187683332200800  0.5581606002455721
  0.1468820499651410  0.8838933086823965  0.4362130171502628
  0.0984389515076469  0.6060290252381014  0.6227028391013628
  0.2324715669747384  0.3983972853361947  0.3783714061486568
  0.2411644765287062  0.4497742757611915  0.5633184738816263
  0.0939945022019124  0.5539637385670897  0.4380055533678447
  0.0404532231685354  0.2412484852349839  0.3693212418211358
  0.2938139877297718  0.7641255766982922  0.6270248275564589
  0.1794677438261191  0.0772559048446670  0.3956201758054987
  0.1546120722027542  0.9273367149279821  0.5989846099596646
  0.0473340003629911  0.2819722727314564  0.5246729570670013
  0.2869340484549556  0.7219880870024821  0.4779035012765029
  0.5197729454716303  0.1189760249183579  0.5580953289514110
  0.4817631081196067  0.8838542897715588  0.4364234177488572
  0.4366066591217905  0.6061543718123107  0.6225114784691103
  0.5656376017800870  0.3987012595018283  0.3780695984375414
  0.5750979264869278  0.4500945403517817  0.5624011609027758
  0.4237502947241097  0.5542215401189535  0.4379120294107924
  0.3735032486869996  0.2412466035778285  0.3694356109504724
  0.6327523529676462  0.7650095742365949  0.6284250654002890
  0.5122410959916901  0.0771075807869921  0.3957865448858726
  0.4882839921141921  0.9271992464317957  0.5991470750280573
  0.3808051268780859  0.2822478474274186  0.5245514459559206
  0.6218640859302289  0.7210127019152879  0.4712649321341380
  0.8529735084062203  0.1193407988077171  0.5580571404473900
  0.8142898342057282  0.8840040017967055  0.4368462338168079
  0.7677011397192313  0.6070227537740759  0.6206134624953139
  0.9000540000266619  0.3985861145882785  0.3781812945988057
  0.9070551687259140  0.4498988316289509  0.5626291366606213
  0.7590670855269882  0.5539408075075684  0.4366452348559685
  0.7071990260995128  0.2412487783187724  0.3692554038426228
  0.9556452236662984  0.7649573685477450  0.6282246810034027
  0.8463641900067446  0.0773816158648888  0.3952869527450771
  0.8217999457578046  0.9274969654115999  0.5986614658325163
  0.7138609407638927  0.2819509443242821  0.5244537543668526
  0.9514789066769922  0.7207835703765868  0.4712646524078731
  0.3027956786562480  0.8251102148437839  0.7041179115536962
  0.2985240285011457  0.7901539585760681  0.7409695612968111
 
  0.00000000E+00  0.00000000E+00  0.00000000E+00
  0.00000000E+00  0.00000000E+00  0.00000000E+00
  0.00000000E+00  0.00000000E+00  0.00000000E+00
  0.00000000E+00  0.00000000E+00  0.00000000E+00
  0.00000000E+00  0.00000000E+00  0.00000000E+00
  0.00000000E+00  0.00000000E+00  0.00000000E+00
  0.00000000E+00  0.00000000E+00  0.00000000E+00
  0.00000000E+00  0.00000000E+00  0.00000000E+00
  0.00000000E+00  0.00000000E+00  0.00000000E+00
  0.00000000E+00  0.00000000E+00  0.00000000E+00
  0.00000000E+00  0.00000000E+00  0.00000000E+00
  0.00000000E+00  0.00000000E+00  0.00000000E+00
  0.00000000E+00  0.00000000E+00  0.00000000E+00
  0.00000000E+00  0.00000000E+00  0.00000000E+00
  0.00000000E+00  0.00000000E+00  0.00000000E+00
  0.00000000E+00  0.00000000E+00  0.00000000E+00
  0.00000000E+00  0.00000000E+00  0.00000000E+00
  0.00000000E+00  0.00000000E+00  0.00000000E+00
  0.00000000E+00  0.00000000E+00  0.00000000E+00
  0.00000000E+00  0.00000000E+00  0.00000000E+00
  0.00000000E+00  0.00000000E+00  0.00000000E+00
  0.00000000E+00  0.00000000E+00  0.00000000E+00
  0.00000000E+00  0.00000000E+00  0.00000000E+00
  0.00000000E+00  0.00000000E+00  0.00000000E+00
  0.00000000E+00  0.00000000E+00  0.00000000E+00
  0.00000000E+00  0.00000000E+00  0.00000000E+00
  0.00000000E+00  0.00000000E+00  0.00000000E+00
  0.00000000E+00  0.00000000E+00  0.00000000E+00
  0.00000000E+00  0.00000000E+00  0.00000000E+00
  0.00000000E+00  0.00000000E+00  0.00000000E+00
  0.00000000E+00  0.00000000E+00  0.00000000E+00
  0.00000000E+00  0.00000000E+00  0.00000000E+00
  0.00000000E+00  0.00000000E+00  0.00000000E+00
  0.00000000E+00  0.00000000E+00  0.00000000E+00
  0.00000000E+00  0.00000000E+00  0.00000000E+00
  0.00000000E+00  0.00000000E+00  0.00000000E+00
  0.00000000E+00  0.00000000E+00  0.00000000E+00
  0.00000000E+00  0.00000000E+00  0.00000000E+00
  0.00000000E+00  0.00000000E+00  0.00000000E+00
  0.00000000E+00  0.00000000E+00  0.00000000E+00
  0.00000000E+00  0.00000000E+00  0.00000000E+00
  0.00000000E+00  0.00000000E+00  0.00000000E+00
  0.00000000E+00  0.00000000E+00  0.00000000E+00
  0.00000000E+00  0.00000000E+00  0.00000000E+00
  0.00000000E+00  0.00000000E+00  0.00000000E+00
  0.00000000E+00  0.00000000E+00  0.00000000E+00
  0.00000000E+00  0.00000000E+00  0.00000000E+00
  0.00000000E+00  0.00000000E+00  0.00000000E+00
  0.00000000E+00  0.00000000E+00  0.00000000E+00
  0.00000000E+00  0.00000000E+00  0.00000000E+00
  0.00000000E+00  0.00000000E+00  0.00000000E+00
  0.00000000E+00  0.00000000E+00  0.00000000E+00
  0.00000000E+00  0.00000000E+00  0.00000000E+00
  0.00000000E+00  0.00000000E+00  0.00000000E+00
  0.00000000E+00  0.00000000E+00  0.00000000E+00
  0.00000000E+00  0.00000000E+00  0.00000000E+00
  0.00000000E+00  0.00000000E+00  0.00000000E+00
  0.00000000E+00  0.00000000E+00  0.00000000E+00
  0.00000000E+00  0.00000000E+00  0.00000000E+00
