CONTCAR\(2)                             
   1.00000000000000     
    16.2672996521000002    0.0000000000000000    0.0000000000000000
     2.6171829271000000   16.2219330010999983    0.0000000000000000
     0.0000000000000000    0.0000000000000000   16.8505992888999998
   Ag   H    O 
    18    18    37
Direct
  0.1849137416810339  0.1240801683660183  0.5449531672711966
  0.0219436092469793  0.3015858701419695  0.5217649864701555
  0.5166511830967834  0.1320716635233986  0.5236716599502242
  0.3529116903345428  0.2829712795088076  0.5618376049817901
  0.8649269779736215  0.1270248315371898  0.5122379755903619
  0.6924041149355825  0.2893888229611193  0.5351849879717498
  0.1864526864544082  0.4701493948724073  0.5461944538046555
  0.0173998640614830  0.6292324683220367  0.5272654918811593
  0.5295866418038657  0.4612113785006913  0.5430091103638008
  0.3640281887610270  0.6321491128983141  0.5419952690019493
  0.8504458340860553  0.4681522902455187  0.5383118850945506
  0.6948278877077093  0.6252855618828386  0.5405192917305389
  0.1848822209542886  0.7984953048994798  0.5612870308431519
  0.0242130926915790  0.9533407644009374  0.5499210829142976
  0.5380482463370233  0.7987489774637488  0.5028314584399293
  0.3604915179284268  0.9602364674675080  0.5330719769653715
  0.8464840103457965  0.7930585365517282  0.4985726392216863
  0.6874261777766583  0.9757452639462825  0.4747886910264659
  0.1768079993130701  0.2826833485984148  0.5499458958964443
  0.2088831048524160  0.9783458620959001  0.4830206792257938
  0.5068512047326057  0.2711687242344385  0.5848142895745863
  0.5511573739149549  0.0404763004795151  0.3958357470150646
  0.8483878773539064  0.2868617560727881  0.5225724175202576
  0.9304860672121373  0.0009205469151906  0.4273881287929794
  0.1756314298160850  0.6278848340139432  0.5453904111370504
  0.2375624843871596  0.3423070295313446  0.4617092009897829
  0.5228762482873773  0.6157808502098068  0.5386475401118866
  0.5442311983319388  0.3212240785635184  0.4728651979642857
  0.8425248961067702  0.6159286519952075  0.5690136826082662
  0.8966008200918286  0.3574492437067718  0.4279442034115453
  0.1690381436499437  0.9442986792231434  0.5992252027130232
  0.2358801706679200  0.6895973738072808  0.4534006783140453
  0.5138593278648023  0.9598491494300428  0.4945992710233437
  0.5821297360838826  0.6573215701417714  0.4320465503818268
  0.8469641192084926  0.9487499504561632  0.5011657132534704
  0.8798551975503566  0.6412174705445147  0.4439262205457874
  0.1361573857076709  0.2458050247194854  0.5666539276037136
  0.0582114251804906  0.0986852597173364  0.5219803653314203
  0.2292811457835964  0.9963388071090542  0.5336323558372819
  0.3135139442123734  0.1408337389599406  0.5597355152533064
  0.4724969947034824  0.2291447112971573  0.6007667459091539
  0.3677240062891368  0.0912057591805460  0.5136151621280937
  0.5627204386822613  0.0298117185416818  0.4519433364331477
  0.6740065380711984  0.1606910257929405  0.5354832512228622
  0.8171793247644591  0.2458043709956169  0.5493110163672512
  0.7294529144489406  0.1099779221695438  0.4924269386504558
  0.9170311154910004  0.0038510351816229  0.4838838567270278
  0.9948759207044228  0.1580686771667772  0.5372467832908243
  0.1367470685078590  0.5926449236840000  0.5702323247793585
  0.0635045000064009  0.4495695252704018  0.5105576735650706
  0.2373780652241267  0.3468968423202849  0.5195091176467567
  0.3014104663927960  0.5078296500509756  0.5839021531015496
  0.4883395199710656  0.5827927966956006  0.5719112674029854
  0.3673087033918374  0.4436232885826493  0.5815188461602731
  0.5648291546085776  0.3337521196085874  0.5252990113061355
  0.6497739656029515  0.4633038074363175  0.5842665018076689
  0.8069969726792728  0.5805519844791663  0.5961339175508635
  0.7083700990637807  0.4172457301700765  0.5393012084426001
  0.9004054735473487  0.3538447290143867  0.4856153715704948
  0.0030365881915922  0.5033352317042704  0.5458059280850146
  0.1300997745606624  0.9072523206677018  0.6175884941622464
  0.0308426049086085  0.7553872558140172  0.5124518769930723
  0.2403872498897973  0.6860887426184140  0.5110936647215619
  0.3486061997674273  0.8315635329579246  0.5701388283087868
  0.4872369082860021  0.9197295349965138  0.5269106020798299
  0.4069507454924016  0.7699923941013832  0.5504716610318062
  0.5799617180792093  0.6707537060875007  0.4884614604900075
  0.6619851361343502  0.8363124605072655  0.4528277092606153
  0.8013427461228064  0.9153202277028509  0.5133382300603183
  0.7271025471190562  0.7780095925200360  0.4427202273331498
  0.8923714823762056  0.6657471387504612  0.4944458599307457
  0.9680790254401770  0.8060653748847397  0.5469745865146137
  0.4102367809942046  0.4437865210329807  0.5084049789374399
 
  0.00000000E+00  0.00000000E+00  0.00000000E+00
  0.00000000E+00  0.00000000E+00  0.00000000E+00
  0.00000000E+00  0.00000000E+00  0.00000000E+00
  0.00000000E+00  0.00000000E+00  0.00000000E+00
  0.00000000E+00  0.00000000E+00  0.00000000E+00
  0.00000000E+00  0.00000000E+00  0.00000000E+00
  0.00000000E+00  0.00000000E+00  0.00000000E+00
  0.00000000E+00  0.00000000E+00  0.00000000E+00
  0.00000000E+00  0.00000000E+00  0.00000000E+00
  0.00000000E+00  0.00000000E+00  0.00000000E+00
  0.00000000E+00  0.00000000E+00  0.00000000E+00
  0.00000000E+00  0.00000000E+00  0.00000000E+00
  0.00000000E+00  0.00000000E+00  0.00000000E+00
  0.00000000E+00  0.00000000E+00  0.00000000E+00
  0.00000000E+00  0.00000000E+00  0.00000000E+00
  0.00000000E+00  0.00000000E+00  0.00000000E+00
  0.00000000E+00  0.00000000E+00  0.00000000E+00
  0.00000000E+00  0.00000000E+00  0.00000000E+00
  0.00000000E+00  0.00000000E+00  0.00000000E+00
  0.00000000E+00  0.00000000E+00  0.00000000E+00
  0.00000000E+00  0.00000000E+00  0.00000000E+00
  0.00000000E+00  0.00000000E+00  0.00000000E+00
  0.00000000E+00  0.00000000E+00  0.00000000E+00
  0.00000000E+00  0.00000000E+00  0.00000000E+00
  0.00000000E+00  0.00000000E+00  0.00000000E+00
  0.00000000E+00  0.00000000E+00  0.00000000E+00
  0.00000000E+00  0.00000000E+00  0.00000000E+00
  0.00000000E+00  0.00000000E+00  0.00000000E+00
  0.00000000E+00  0.00000000E+00  0.00000000E+00
  0.00000000E+00  0.00000000E+00  0.00000000E+00
  0.00000000E+00  0.00000000E+00  0.00000000E+00
  0.00000000E+00  0.00000000E+00  0.00000000E+00
  0.00000000E+00  0.00000000E+00  0.00000000E+00
  0.00000000E+00  0.00000000E+00  0.00000000E+00
  0.00000000E+00  0.00000000E+00  0.00000000E+00
  0.00000000E+00  0.00000000E+00  0.00000000E+00
  0.00000000E+00  0.00000000E+00  0.00000000E+00
  0.00000000E+00  0.00000000E+00  0.00000000E+00
  0.00000000E+00  0.00000000E+00  0.00000000E+00
  0.00000000E+00  0.00000000E+00  0.00000000E+00
  0.00000000E+00  0.00000000E+00  0.00000000E+00
  0.00000000E+00  0.00000000E+00  0.00000000E+00
  0.00000000E+00  0.00000000E+00  0.00000000E+00
  0.00000000E+00  0.00000000E+00  0.00000000E+00
  0.00000000E+00  0.00000000E+00  0.00000000E+00
  0.00000000E+00  0.00000000E+00  0.00000000E+00
  0.00000000E+00  0.00000000E+00  0.00000000E+00
  0.00000000E+00  0.00000000E+00  0.00000000E+00
  0.00000000E+00  0.00000000E+00  0.00000000E+00
  0.00000000E+00  0.00000000E+00  0.00000000E+00
  0.00000000E+00  0.00000000E+00  0.00000000E+00
  0.00000000E+00  0.00000000E+00  0.00000000E+00
  0.00000000E+00  0.00000000E+00  0.00000000E+00
  0.00000000E+00  0.00000000E+00  0.00000000E+00
  0.00000000E+00  0.00000000E+00  0.00000000E+00
  0.00000000E+00  0.00000000E+00  0.00000000E+00
  0.00000000E+00  0.00000000E+00  0.00000000E+00
  0.00000000E+00  0.00000000E+00  0.00000000E+00
  0.00000000E+00  0.00000000E+00  0.00000000E+00
  0.00000000E+00  0.00000000E+00  0.00000000E+00
  0.00000000E+00  0.00000000E+00  0.00000000E+00
  0.00000000E+00  0.00000000E+00  0.00000000E+00
  0.00000000E+00  0.00000000E+00  0.00000000E+00
  0.00000000E+00  0.00000000E+00  0.00000000E+00
  0.00000000E+00  0.00000000E+00  0.00000000E+00
  0.00000000E+00  0.00000000E+00  0.00000000E+00
  0.00000000E+00  0.00000000E+00  0.00000000E+00
  0.00000000E+00  0.00000000E+00  0.00000000E+00
  0.00000000E+00  0.00000000E+00  0.00000000E+00
  0.00000000E+00  0.00000000E+00  0.00000000E+00
  0.00000000E+00  0.00000000E+00  0.00000000E+00
  0.00000000E+00  0.00000000E+00  0.00000000E+00
  0.00000000E+00  0.00000000E+00  0.00000000E+00
