CONTCAR\(6)                             
   1.00000000000000     
    12.8629999160999997    0.0000000000000000    0.0000000000000000
     0.0000000000000000   14.3196001052999993    0.0000000000000000
     0.0000000000000000    0.0000000000000000   19.5569992064999987
   Ag   Au   S    O    H 
    12    24    24     2     1
Selective dynamics
Direct
  0.1030885833490203  0.3398133555020522  0.6013178079775443   F   F   F
  0.2513706967157461  0.0597481776037370  0.5958660807242921   F   F   F
  0.4219973749632899  0.3012885917601054  0.5972853437405448   F   F   F
  0.5745314253641638  0.0642022336013142  0.5958528764849405   F   F   F
  0.7441053706240126  0.3396616963798635  0.6014568759017322   F   F   F
  0.9115030295729625  0.1094216902938001  0.5979828589312248   F   F   F
  0.0729198120359555  0.8440203279911103  0.5901292159134215   F   F   F
  0.2628604771875942  0.5851782621667851  0.6135060982211087   F   F   F
  0.4146328937625086  0.8027880828219836  0.6119853104973814   F   F   F
  0.5568274514615581  0.5858767077365101  0.6161147825681113   F   F   F
  0.7587902321684226  0.8410553392432121  0.5929033227852045   F   F   F
  0.9125481093361572  0.5769135094036528  0.6057057635675704   F   F   F
  0.0350910979690937  0.5036693901863956  0.4891551832048435   F   F   F
  0.2985223599821936  0.2322213255466821  0.4864886951259848   F   F   F
  0.1707783035172241  0.3708172508714469  0.4062843091471535   F   F   F
  0.1651681507770490  0.1191632369532130  0.4035755160445760   F   F   F
  0.3645038009527539  0.4882379734412226  0.4930079561691585   F   F   F
  0.6463970627361917  0.2390694136039500  0.4824578275537661   F   F   F
  0.5040717385037823  0.3652897353071936  0.4138989625479539   F   F   F
  0.5026873856682172  0.1158470508009870  0.4037267483460667   F   F   F
  0.6870737711129635  0.5016631574514463  0.5153671692794290   F   F   F
  0.9690327401642875  0.2632224210824958  0.4935045224763002   F   F   F
  0.8361507849921637  0.3710360413791989  0.3973078173735018   F   F   F
  0.8362908155219841  0.1205395494244073  0.3927262071940874   F   F   F
  0.0208966269753290  0.0035432571014127  0.4883382246866077   F   F   F
  0.2947591856576608  0.7459953444519414  0.4871501103136922   F   F   F
  0.1663093231336390  0.8687381710715201  0.3929571853542839   F   F   F
  0.1701332566863343  0.6196785218407825  0.3986601674878969   F   F   F
  0.3643400022369221  0.9811868460656399  0.4812310690000459   F   F   F
  0.6362724099255104  0.7437150483022350  0.4887550826382636   F   F   F
  0.5044115767574979  0.8657727518057214  0.4029092075455907   F   F   F
  0.5025503905113737  0.6149192804184338  0.4134423356568036   F   F   F
  0.7065905394605281  0.0005665933240593  0.4844432519636470   F   F   F
  0.9697828654854419  0.7429651768613539  0.4787881058952053   F   F   F
  0.8329203463602255  0.8709141340288369  0.4002680230427345   F   F   F
  0.8312704557905874  0.6219709440271330  0.4021737273377752   F   F   F
  0.2836556223167506  0.4946494006949607  0.3868529086082617   F   F   F
  0.2458961745163109  0.2319481032868183  0.6008806173686523   F   F   F
  0.0925615944182994  0.5096532632674169  0.6022849910908974   F   F   F
  0.0563538075490584  0.2472300620515426  0.3900540118914364   F   F   F
  0.6188789109899133  0.4906330332058815  0.4069392000389698   F   F   F
  0.5936184533301017  0.2345629802557951  0.5968105994811879   F   F   F
  0.4135259145131585  0.4710293180456659  0.6068787455935265   F   F   F
  0.3939121971649087  0.2423241338832938  0.3854581857490373   F   F   F
  0.9444712740897430  0.4984341726131944  0.3862677133131385   F   F   F
  0.9198359856100353  0.2764214315808360  0.6078831788146601   F   F   F
  0.7428501375366423  0.5082941729738693  0.6278916752180947   F   F   F
  0.7262686793342255  0.2465057544872096  0.3757011436357018   F   F   F
  0.2756876260849594  0.9951166742799984  0.3781153272301978   F   F   F
  0.2288255817380147  0.7540068262532316  0.5971767297513892   F   F   F
  0.0701609199111459  0.0112678501274459  0.6030964574443871   F   F   F
  0.0578936768111546  0.7425894233939445  0.3744748027305533   F   F   F
  0.6134938834450949  0.9915581491391947  0.3823797811728582   F   F   F
  0.5976378697414830  0.7531606642120394  0.6047996339120090   F   F   F
  0.4173914078489815  0.9714049898190495  0.5950531166485789   F   F   F
  0.3939953550534270  0.7391169665818893  0.3878026864626634   F   F   F
  0.9476518900857442  0.9940971419375799  0.3802631506861900   F   F   F
  0.9149002890322606  0.7489564037091156  0.5926255047486819   F   F   F
  0.7611685383096898  0.0091166001397553  0.5984087284326804   F   F   F
  0.7197061078080651  0.7462990291168978  0.3826245933084422   F   F   F
  0.4078038963768336  0.6578395176981644  0.6642061732893225   T   T   T
  0.4050982451849237  0.6722073351265720  0.7378730199195616   T   T   T
  0.4147057377787320  0.6081164132668562  0.7539572239273959   T   T   T
 
  0.00000000E+00  0.00000000E+00  0.00000000E+00
  0.00000000E+00  0.00000000E+00  0.00000000E+00
  0.00000000E+00  0.00000000E+00  0.00000000E+00
  0.00000000E+00  0.00000000E+00  0.00000000E+00
  0.00000000E+00  0.00000000E+00  0.00000000E+00
  0.00000000E+00  0.00000000E+00  0.00000000E+00
  0.00000000E+00  0.00000000E+00  0.00000000E+00
  0.00000000E+00  0.00000000E+00  0.00000000E+00
  0.00000000E+00  0.00000000E+00  0.00000000E+00
  0.00000000E+00  0.00000000E+00  0.00000000E+00
  0.00000000E+00  0.00000000E+00  0.00000000E+00
  0.00000000E+00  0.00000000E+00  0.00000000E+00
  0.00000000E+00  0.00000000E+00  0.00000000E+00
  0.00000000E+00  0.00000000E+00  0.00000000E+00
  0.00000000E+00  0.00000000E+00  0.00000000E+00
  0.00000000E+00  0.00000000E+00  0.00000000E+00
  0.00000000E+00  0.00000000E+00  0.00000000E+00
  0.00000000E+00  0.00000000E+00  0.00000000E+00
  0.00000000E+00  0.00000000E+00  0.00000000E+00
  0.00000000E+00  0.00000000E+00  0.00000000E+00
  0.00000000E+00  0.00000000E+00  0.00000000E+00
  0.00000000E+00  0.00000000E+00  0.00000000E+00
  0.00000000E+00  0.00000000E+00  0.00000000E+00
  0.00000000E+00  0.00000000E+00  0.00000000E+00
  0.00000000E+00  0.00000000E+00  0.00000000E+00
  0.00000000E+00  0.00000000E+00  0.00000000E+00
  0.00000000E+00  0.00000000E+00  0.00000000E+00
  0.00000000E+00  0.00000000E+00  0.00000000E+00
  0.00000000E+00  0.00000000E+00  0.00000000E+00
  0.00000000E+00  0.00000000E+00  0.00000000E+00
  0.00000000E+00  0.00000000E+00  0.00000000E+00
  0.00000000E+00  0.00000000E+00  0.00000000E+00
  0.00000000E+00  0.00000000E+00  0.00000000E+00
  0.00000000E+00  0.00000000E+00  0.00000000E+00
  0.00000000E+00  0.00000000E+00  0.00000000E+00
  0.00000000E+00  0.00000000E+00  0.00000000E+00
  0.00000000E+00  0.00000000E+00  0.00000000E+00
  0.00000000E+00  0.00000000E+00  0.00000000E+00
  0.00000000E+00  0.00000000E+00  0.00000000E+00
  0.00000000E+00  0.00000000E+00  0.00000000E+00
  0.00000000E+00  0.00000000E+00  0.00000000E+00
  0.00000000E+00  0.00000000E+00  0.00000000E+00
  0.00000000E+00  0.00000000E+00  0.00000000E+00
  0.00000000E+00  0.00000000E+00  0.00000000E+00
  0.00000000E+00  0.00000000E+00  0.00000000E+00
  0.00000000E+00  0.00000000E+00  0.00000000E+00
  0.00000000E+00  0.00000000E+00  0.00000000E+00
  0.00000000E+00  0.00000000E+00  0.00000000E+00
  0.00000000E+00  0.00000000E+00  0.00000000E+00
  0.00000000E+00  0.00000000E+00  0.00000000E+00
  0.00000000E+00  0.00000000E+00  0.00000000E+00
  0.00000000E+00  0.00000000E+00  0.00000000E+00
  0.00000000E+00  0.00000000E+00  0.00000000E+00
  0.00000000E+00  0.00000000E+00  0.00000000E+00
  0.00000000E+00  0.00000000E+00  0.00000000E+00
  0.00000000E+00  0.00000000E+00  0.00000000E+00
  0.00000000E+00  0.00000000E+00  0.00000000E+00
  0.00000000E+00  0.00000000E+00  0.00000000E+00
  0.00000000E+00  0.00000000E+00  0.00000000E+00
  0.00000000E+00  0.00000000E+00  0.00000000E+00
  0.00000000E+00  0.00000000E+00  0.00000000E+00
  0.00000000E+00  0.00000000E+00  0.00000000E+00
  0.00000000E+00  0.00000000E+00  0.00000000E+00
