 Cu2 F4                                 
   1.00000000000000     
     3.5495128557309510    0.0000000000000000    0.0000000000000000
     0.0000000000000000    5.1816903672075183    0.0000000000000000
     0.0000000000000000    0.0000000000000000   16.5245386317319998
   Cu   F 
     2     4
Direct
  0.5000000341070887  0.4999999931465027  0.4999999921403955
  0.0000000450556712  0.0000000136628628  0.5000000050104845
  0.1155454926056123  0.3120717648738207  0.4422989788107543
  0.6155446420445898  0.1879280042199625  0.5577003487346843
  0.3844553319265955  0.8120719615792709  0.4422996358626534
  0.8844544542604567  0.6879282625175804  0.5577010394410280
 
  0.00000000E+00  0.00000000E+00  0.00000000E+00
  0.00000000E+00  0.00000000E+00  0.00000000E+00
  0.00000000E+00  0.00000000E+00  0.00000000E+00
  0.00000000E+00  0.00000000E+00  0.00000000E+00
  0.00000000E+00  0.00000000E+00  0.00000000E+00
  0.00000000E+00  0.00000000E+00  0.00000000E+00
