CONTCAR\(3)                             
   1.00000000000000     
    14.7170000075999994    0.0000000000000000    0.0000000000000000
    -7.3585000037999997   12.7452958741000000    0.0000000000000000
     0.0000000000000000    0.0000000000000000   17.8581008911000012
   Co   Br   O    H 
    16    32     2     1
Direct
 -0.0000313446616757  0.0000321347213190  0.4988821080644722
  0.2514968201501948  0.0038234141568917  0.4995212895617693
  0.5009118831321111  0.0004910487420729  0.4991349937595737
  0.7487510159161261 -0.0024153793660911  0.4992041867175937
  0.0027192554794104  0.2513851651753376  0.4992801986919205
  0.2445716634156450  0.2448910798900089  0.4956958068087037
  0.4976342219708837  0.2448390801524041  0.4963766330584383
  0.7481772125971734  0.2518050547097045  0.4999458389585688
 -0.0004921986749045  0.4990231772895391  0.4991161169721826
  0.2455491415576603  0.5021782408213702  0.4955890133761190
  0.4992153968572864  0.5011053347845323  0.4932350345868487
  0.7547653842598887  0.5022870481820662  0.4964414855916208
 -0.0038676659188436  0.7483954877444091  0.4995290976840467
  0.2516241464803853  0.7483553870830360  0.4990140105219783
  0.4982747880992031  0.7550054551337561  0.4954633307209191
  0.7551956672294570  0.7551652144922075  0.4956623773148969
  0.0808746106629313  0.1648096479154477  0.4136392841134213
  0.1666650874751479  0.0843752697194510  0.5810720953110419
  0.3321987474837326  0.1663973194842414  0.4150714193147942
  0.4169871877359417  0.0847627980558846  0.5814072877906796
  0.5829615015295346  0.1660769307393148  0.4152522824593075
  0.6657947454544172  0.0830998150697898  0.5801143260263718
  0.8329315823009911  0.1672442632482302  0.4208547472437277
  0.9171583539932771  0.0830188339784056  0.5796103878224186
  0.0810302054572778  0.4167865030352376  0.4142183105422003
  0.1681044225093421  0.3352219525022546  0.5775447623490191
  0.3288165739361192  0.4150354365260009  0.4148585848862147
  0.4151990099382903  0.3350775278706002  0.5698800464604947
  0.5839427171976292  0.4159095585954067  0.4158118096108154
  0.6650746867121657  0.3349136866538926  0.5785743008526882
  0.8339014868708132  0.4170983934521595  0.4154015581207979
  0.9168523422206667  0.3341425495958188  0.5800533571186807
  0.0825134945491866  0.6661524780670047  0.4190324584193800
  0.1671878563286445  0.5830798874573795  0.5811614406677853
  0.3330032107939617  0.6674297475717564  0.4141868800644460
  0.4177752467372647  0.5842889887872942  0.5682857215915661
  0.5853021357331593  0.6715782522433468  0.4144907502869263
  0.6647472527267235  0.5849285808532795  0.5700664066010787
  0.8335793327607858  0.6677525566834108  0.4148709403087292
  0.9151198230243958  0.5829340556545055  0.5814108876881184
  0.0832666128665282  0.9166584600755622  0.4183924053285245
  0.1666575887746609  0.8332628437803083  0.5779866199470942
  0.3337779585018997  0.9174678348310120  0.4189063058024979
  0.4169032591266488  0.8329787904756332  0.5811486974871861
  0.5835425255957479  0.9196031691908748  0.4139562086279034
  0.6653270252705412  0.8324720401633674  0.5775258840178394
  0.8354101127971063  0.9192038697340381  0.4138901310359568
  0.9155936102353344  0.8332464758267415  0.5811492280760739
  0.4968101505551012  0.4901475065531478  0.6739867844233907
  0.5072105277555683  0.4830220940016116  0.7500142133282269
  0.5589031664984512  0.4595439428950772  0.7507515808849659
 
  0.00000000E+00  0.00000000E+00  0.00000000E+00
  0.00000000E+00  0.00000000E+00  0.00000000E+00
  0.00000000E+00  0.00000000E+00  0.00000000E+00
  0.00000000E+00  0.00000000E+00  0.00000000E+00
  0.00000000E+00  0.00000000E+00  0.00000000E+00
  0.00000000E+00  0.00000000E+00  0.00000000E+00
  0.00000000E+00  0.00000000E+00  0.00000000E+00
  0.00000000E+00  0.00000000E+00  0.00000000E+00
  0.00000000E+00  0.00000000E+00  0.00000000E+00
  0.00000000E+00  0.00000000E+00  0.00000000E+00
  0.00000000E+00  0.00000000E+00  0.00000000E+00
  0.00000000E+00  0.00000000E+00  0.00000000E+00
  0.00000000E+00  0.00000000E+00  0.00000000E+00
  0.00000000E+00  0.00000000E+00  0.00000000E+00
  0.00000000E+00  0.00000000E+00  0.00000000E+00
  0.00000000E+00  0.00000000E+00  0.00000000E+00
  0.00000000E+00  0.00000000E+00  0.00000000E+00
  0.00000000E+00  0.00000000E+00  0.00000000E+00
  0.00000000E+00  0.00000000E+00  0.00000000E+00
  0.00000000E+00  0.00000000E+00  0.00000000E+00
  0.00000000E+00  0.00000000E+00  0.00000000E+00
  0.00000000E+00  0.00000000E+00  0.00000000E+00
  0.00000000E+00  0.00000000E+00  0.00000000E+00
  0.00000000E+00  0.00000000E+00  0.00000000E+00
  0.00000000E+00  0.00000000E+00  0.00000000E+00
  0.00000000E+00  0.00000000E+00  0.00000000E+00
  0.00000000E+00  0.00000000E+00  0.00000000E+00
  0.00000000E+00  0.00000000E+00  0.00000000E+00
  0.00000000E+00  0.00000000E+00  0.00000000E+00
  0.00000000E+00  0.00000000E+00  0.00000000E+00
  0.00000000E+00  0.00000000E+00  0.00000000E+00
  0.00000000E+00  0.00000000E+00  0.00000000E+00
  0.00000000E+00  0.00000000E+00  0.00000000E+00
  0.00000000E+00  0.00000000E+00  0.00000000E+00
  0.00000000E+00  0.00000000E+00  0.00000000E+00
  0.00000000E+00  0.00000000E+00  0.00000000E+00
  0.00000000E+00  0.00000000E+00  0.00000000E+00
  0.00000000E+00  0.00000000E+00  0.00000000E+00
  0.00000000E+00  0.00000000E+00  0.00000000E+00
  0.00000000E+00  0.00000000E+00  0.00000000E+00
  0.00000000E+00  0.00000000E+00  0.00000000E+00
  0.00000000E+00  0.00000000E+00  0.00000000E+00
  0.00000000E+00  0.00000000E+00  0.00000000E+00
  0.00000000E+00  0.00000000E+00  0.00000000E+00
  0.00000000E+00  0.00000000E+00  0.00000000E+00
  0.00000000E+00  0.00000000E+00  0.00000000E+00
  0.00000000E+00  0.00000000E+00  0.00000000E+00
  0.00000000E+00  0.00000000E+00  0.00000000E+00
  0.00000000E+00  0.00000000E+00  0.00000000E+00
  0.00000000E+00  0.00000000E+00  0.00000000E+00
  0.00000000E+00  0.00000000E+00  0.00000000E+00
