CONTCAR\(3)                             
   1.00000000000000     
    15.2456998825000003    0.0000000000000000    0.0000000000000000
     7.6228095670000000   13.2074592144000000    0.0000000000000000
     0.0000000000000000    0.0000000000000000   19.0911998748999991
   Nb   I    O 
    12    32     1
Direct
  0.2049765558521842  0.3977785463003939  0.4940585423286111
  0.4029877064152255  0.3958234388450416  0.4920280003612185
  0.4016246411179181  0.2006958175594505  0.4937944202830152
  0.7032894463763303  0.3983468437984546  0.4932261582510779
  0.9012313216273431  0.3980818714895186  0.4940304975876213
  0.9012228205873191  0.2006648684387481  0.4940350830502524
  0.2049223246485363  0.8972335778564631  0.4940847676487300
  0.4016376994226273  0.8977143820975449  0.4938106101592019
  0.4029843852553630  0.7012854943309866  0.4919894070619620
  0.7041204278648103  0.8978962681612960  0.4943518052266225
  0.9013690456004495  0.8979368276864544  0.4945360310050355
  0.9013311947335529  0.7007272049169290  0.4945331912876006
  0.5014853028347290  0.2474572441225379  0.3916672175010148
  0.2526025565417606  0.2496435165856725  0.3937502322386260
  0.2526023527455830  0.4987968727027042  0.3936222771696807
  0.3333183520851300  0.0833369198008899  0.5746950718314514
  0.0872806275208736  0.0835065101121843  0.5747070834980791
  0.0873121430837663  0.3292161566699149  0.5746967233390554
  0.0025029368578573  0.4989168473386686  0.4177751809322233
  0.3370293434992266  0.3329425577383953  0.6057886857830641
  0.0015079463922978  0.2492454411204882  0.3941466895807144
  0.7530783370861988  0.2489113648627652  0.3934783538217345
  0.7529428452240278  0.4981982815552952  0.3936660465659083
  0.8322129821317830  0.0841804212306521  0.5747515020592615
  0.5871563699459700  0.0838295964371981  0.5745525018594203
  0.5840925960905681  0.3325706973441941  0.5733072951902521
  0.5030359635716607  0.4984808952234764  0.4147868329811055
  0.8343552288185038  0.3328478808779584  0.6057827843188188
  0.5013572560414239  0.7511935684894911  0.3916090366813221
  0.2525754841597970  0.7485845937906110  0.3936103594882330
  0.2525567948492969  0.9978275038860835  0.3939013852715250
  0.3331242608672908  0.5834421982235553  0.5738691372830632
  0.0873810456003481  0.5834807342024569  0.5749712318821445
  0.0873626162361627  0.8291257745352680  0.5749721948950093
  0.0024926200874256  0.9986152168088385  0.4177697083283514
  0.3370545640480372  0.8300213910037111  0.6057932249887562
  0.0009854176276520  0.7494850482233057  0.3942573096906464
  0.7528828560550243  0.7491332930646202  0.3944631854576361
  0.7529540482456418  0.9978669502842130  0.3944745539765208
  0.8322939976653784  0.5835151664398843  0.5748281081373739
  0.5840334650394973  0.5833566267503720  0.5732631001527574
  0.5871601024019923  0.8290275345013925  0.5745617990157060
  0.5024016029770900  0.9987264591752141  0.4172950531465242
  0.8353398868336159  0.8323474260397097  0.6066136585716688
  0.3971295553327147  0.5515246213770338  0.6611638791114283
 
  0.00000000E+00  0.00000000E+00  0.00000000E+00
  0.00000000E+00  0.00000000E+00  0.00000000E+00
  0.00000000E+00  0.00000000E+00  0.00000000E+00
  0.00000000E+00  0.00000000E+00  0.00000000E+00
  0.00000000E+00  0.00000000E+00  0.00000000E+00
  0.00000000E+00  0.00000000E+00  0.00000000E+00
  0.00000000E+00  0.00000000E+00  0.00000000E+00
  0.00000000E+00  0.00000000E+00  0.00000000E+00
  0.00000000E+00  0.00000000E+00  0.00000000E+00
  0.00000000E+00  0.00000000E+00  0.00000000E+00
  0.00000000E+00  0.00000000E+00  0.00000000E+00
  0.00000000E+00  0.00000000E+00  0.00000000E+00
  0.00000000E+00  0.00000000E+00  0.00000000E+00
  0.00000000E+00  0.00000000E+00  0.00000000E+00
  0.00000000E+00  0.00000000E+00  0.00000000E+00
  0.00000000E+00  0.00000000E+00  0.00000000E+00
  0.00000000E+00  0.00000000E+00  0.00000000E+00
  0.00000000E+00  0.00000000E+00  0.00000000E+00
  0.00000000E+00  0.00000000E+00  0.00000000E+00
  0.00000000E+00  0.00000000E+00  0.00000000E+00
  0.00000000E+00  0.00000000E+00  0.00000000E+00
  0.00000000E+00  0.00000000E+00  0.00000000E+00
  0.00000000E+00  0.00000000E+00  0.00000000E+00
  0.00000000E+00  0.00000000E+00  0.00000000E+00
  0.00000000E+00  0.00000000E+00  0.00000000E+00
  0.00000000E+00  0.00000000E+00  0.00000000E+00
  0.00000000E+00  0.00000000E+00  0.00000000E+00
  0.00000000E+00  0.00000000E+00  0.00000000E+00
  0.00000000E+00  0.00000000E+00  0.00000000E+00
  0.00000000E+00  0.00000000E+00  0.00000000E+00
  0.00000000E+00  0.00000000E+00  0.00000000E+00
  0.00000000E+00  0.00000000E+00  0.00000000E+00
  0.00000000E+00  0.00000000E+00  0.00000000E+00
  0.00000000E+00  0.00000000E+00  0.00000000E+00
  0.00000000E+00  0.00000000E+00  0.00000000E+00
  0.00000000E+00  0.00000000E+00  0.00000000E+00
  0.00000000E+00  0.00000000E+00  0.00000000E+00
  0.00000000E+00  0.00000000E+00  0.00000000E+00
  0.00000000E+00  0.00000000E+00  0.00000000E+00
  0.00000000E+00  0.00000000E+00  0.00000000E+00
  0.00000000E+00  0.00000000E+00  0.00000000E+00
  0.00000000E+00  0.00000000E+00  0.00000000E+00
  0.00000000E+00  0.00000000E+00  0.00000000E+00
  0.00000000E+00  0.00000000E+00  0.00000000E+00
  0.00000000E+00  0.00000000E+00  0.00000000E+00
