CONTCAR\(3)                             
   1.00000000000000     
    15.6891002655000005    0.0000000000000000    0.0000000000000000
     7.8445501328000002   13.5871593924000003    0.0000000000000000
     0.0000000000000000    0.0000000000000000   18.9503002167000005
   Te   Pt   O    H 
    32    32     2     1
Direct
  0.1640771682101413  0.1697104452122464  0.6123714542493313
  0.1642295188918937  0.1701163241613745  0.3926261498680633
  0.4142031708085672  0.1694932566922296  0.6140273917862091
  0.4162696265742974  0.1680175656028407  0.3950450954579696
  0.6643314003541111  0.1685745007021791  0.6142881369999440
  0.6644009215011585  0.1686013123532296  0.3951756931692735
  0.9148654029185522  0.1688009216736850  0.6141932468933341
  0.9136153446786945  0.1681074523885244  0.3950945294722513
  0.1635407490126912  0.4186700296744484  0.6124335261632332
  0.1642644690440332  0.4185062493515295  0.3932738247482620
  0.4145265414967280  0.4168701558014523  0.6152922850112346
  0.4150185124204334  0.4182004260110800  0.3954838741571164
  0.6672753952234166  0.4162522878941216  0.6146009221029464
  0.6651659041707110  0.4184932800642819  0.3957706588400267
  0.9159864160438174  0.4184207512446205  0.6127982598384015
  0.9148272331073772  0.4194009842613391  0.3929116219900846
  0.1625480883130548  0.6691033119405044  0.6149092789324156
  0.1639178928405073  0.6690727548418856  0.3950800335347382
  0.4136225610791994  0.6705956925359019  0.5971434540132444
  0.4141284772301532  0.6692758605710458  0.3968067404519656
  0.6669777316597124  0.6689565076956677  0.6148353889489817
  0.6648673968949028  0.6692665451247214  0.3952109231469899
  0.9151291095020956  0.6684565213793786  0.6143800953141523
  0.9143343701235862  0.6700151723862603  0.3953545697699986
  0.1615199069855059  0.9218895376029965  0.6145385734972532
  0.1634940487893173  0.9191984312467626  0.3953487389035887
  0.4145591586771059  0.9213786433925685  0.6145748884596278
  0.4146336118052901  0.9193195292450865  0.3952662346508106
  0.6651453218498511  0.9190550718098418  0.6147505026079156
  0.6651025836278934  0.9190202931940828  0.3948839776070478
  0.9137354370640918  0.9192756767259511  0.6143644581908215
  0.9134557938922988  0.9194208194337891  0.3949300862775743
  0.0799930396026148  0.0870245523787557  0.5441790491628133
  0.9971460594192851  0.0020823324309229  0.4640358678351427
  0.3311967762514779  0.0866761268187810  0.5445669334845489
  0.2464830735688353  0.0047190478431351  0.4621797222555274
  0.5810759853897249  0.0853938091103393  0.5459338299847957
  0.4985973296139182  0.0018784168871171  0.4638536607544710
  0.8310509050379363  0.0857849851096726  0.5460442313220455
  0.7477131256342837  0.0023394972598015  0.4644829619157174
  0.0813536054651582  0.3353493141606178  0.5430309118766330
  0.9975720332927660  0.2524283045021100  0.4611284154446572
  0.3308802410287752  0.3351084609927894  0.5449340465453882
  0.2485708796698442  0.2518969805005558  0.4618594496970058
  0.5808431402641197  0.3359486307564473  0.5465913837957680
  0.4983459247677945  0.2519245349425516  0.4643216396448419
  0.8327881527167723  0.3345450055834482  0.5446638945476446
  0.7476158473597528  0.2519076650832597  0.4641316543593594
  0.0805177324405421  0.5856824867735667  0.5447247987727820
  0.9977901821635353  0.5026227981240589  0.4621311544502070
  0.3281885563573051  0.5821214403219412  0.5451339471460793
  0.2469387640601546  0.5012673248652056  0.4625648757960340
  0.5875834815695699  0.5823672597690582  0.5452523823112475
  0.4981809344601035  0.5017114695998572  0.4633900904144950
  0.8324967097886190  0.5854535832752878  0.5449396276187611
  0.7500980137705963  0.5014410065251109  0.4629401159968765
  0.0810627220201905  0.8356701943829461  0.5465297749867774
  0.9976088059809913  0.7530088024307432  0.4639399651941783
  0.3271962957668033  0.8430927095659364  0.5447485380605470
  0.2467775538432216  0.7526629076970114  0.4635750029812611
  0.5813699320670790  0.8357004724809426  0.5464584625347848
  0.4982712069889908  0.7527157769306797  0.4636837659557719
  0.8313712067926408  0.8352384145821804  0.5458621901719904
  0.7478914920141841  0.7527303367009089  0.4638846155911733
  0.4085146289293178  0.6837624909235679  0.7074457770526166
  0.4599686758095898  0.5846668468328809  0.7376752874062358
  0.5244471693023264  0.5776697086421893  0.7481165408768775
 
  0.00000000E+00  0.00000000E+00  0.00000000E+00
  0.00000000E+00  0.00000000E+00  0.00000000E+00
  0.00000000E+00  0.00000000E+00  0.00000000E+00
  0.00000000E+00  0.00000000E+00  0.00000000E+00
  0.00000000E+00  0.00000000E+00  0.00000000E+00
  0.00000000E+00  0.00000000E+00  0.00000000E+00
  0.00000000E+00  0.00000000E+00  0.00000000E+00
  0.00000000E+00  0.00000000E+00  0.00000000E+00
  0.00000000E+00  0.00000000E+00  0.00000000E+00
  0.00000000E+00  0.00000000E+00  0.00000000E+00
  0.00000000E+00  0.00000000E+00  0.00000000E+00
  0.00000000E+00  0.00000000E+00  0.00000000E+00
  0.00000000E+00  0.00000000E+00  0.00000000E+00
  0.00000000E+00  0.00000000E+00  0.00000000E+00
  0.00000000E+00  0.00000000E+00  0.00000000E+00
  0.00000000E+00  0.00000000E+00  0.00000000E+00
  0.00000000E+00  0.00000000E+00  0.00000000E+00
  0.00000000E+00  0.00000000E+00  0.00000000E+00
  0.00000000E+00  0.00000000E+00  0.00000000E+00
  0.00000000E+00  0.00000000E+00  0.00000000E+00
  0.00000000E+00  0.00000000E+00  0.00000000E+00
  0.00000000E+00  0.00000000E+00  0.00000000E+00
  0.00000000E+00  0.00000000E+00  0.00000000E+00
  0.00000000E+00  0.00000000E+00  0.00000000E+00
  0.00000000E+00  0.00000000E+00  0.00000000E+00
  0.00000000E+00  0.00000000E+00  0.00000000E+00
  0.00000000E+00  0.00000000E+00  0.00000000E+00
  0.00000000E+00  0.00000000E+00  0.00000000E+00
  0.00000000E+00  0.00000000E+00  0.00000000E+00
  0.00000000E+00  0.00000000E+00  0.00000000E+00
  0.00000000E+00  0.00000000E+00  0.00000000E+00
  0.00000000E+00  0.00000000E+00  0.00000000E+00
  0.00000000E+00  0.00000000E+00  0.00000000E+00
  0.00000000E+00  0.00000000E+00  0.00000000E+00
  0.00000000E+00  0.00000000E+00  0.00000000E+00
  0.00000000E+00  0.00000000E+00  0.00000000E+00
  0.00000000E+00  0.00000000E+00  0.00000000E+00
  0.00000000E+00  0.00000000E+00  0.00000000E+00
  0.00000000E+00  0.00000000E+00  0.00000000E+00
  0.00000000E+00  0.00000000E+00  0.00000000E+00
  0.00000000E+00  0.00000000E+00  0.00000000E+00
  0.00000000E+00  0.00000000E+00  0.00000000E+00
  0.00000000E+00  0.00000000E+00  0.00000000E+00
  0.00000000E+00  0.00000000E+00  0.00000000E+00
  0.00000000E+00  0.00000000E+00  0.00000000E+00
  0.00000000E+00  0.00000000E+00  0.00000000E+00
  0.00000000E+00  0.00000000E+00  0.00000000E+00
  0.00000000E+00  0.00000000E+00  0.00000000E+00
  0.00000000E+00  0.00000000E+00  0.00000000E+00
  0.00000000E+00  0.00000000E+00  0.00000000E+00
  0.00000000E+00  0.00000000E+00  0.00000000E+00
  0.00000000E+00  0.00000000E+00  0.00000000E+00
  0.00000000E+00  0.00000000E+00  0.00000000E+00
  0.00000000E+00  0.00000000E+00  0.00000000E+00
  0.00000000E+00  0.00000000E+00  0.00000000E+00
  0.00000000E+00  0.00000000E+00  0.00000000E+00
  0.00000000E+00  0.00000000E+00  0.00000000E+00
  0.00000000E+00  0.00000000E+00  0.00000000E+00
  0.00000000E+00  0.00000000E+00  0.00000000E+00
  0.00000000E+00  0.00000000E+00  0.00000000E+00
  0.00000000E+00  0.00000000E+00  0.00000000E+00
  0.00000000E+00  0.00000000E+00  0.00000000E+00
  0.00000000E+00  0.00000000E+00  0.00000000E+00
  0.00000000E+00  0.00000000E+00  0.00000000E+00
  0.00000000E+00  0.00000000E+00  0.00000000E+00
  0.00000000E+00  0.00000000E+00  0.00000000E+00
  0.00000000E+00  0.00000000E+00  0.00000000E+00
