CONTCAR\(2)                             
   1.00000000000000     
    12.9555997849000004    0.0000000000000000    0.0000000000000000
     0.0000000000000000   12.9555997849000004    0.0000000000000000
     0.0000000000000000    0.0000000000000000   24.1623992919999999
   Tb   Te
    18    54
Direct
  0.1666700039999967  0.0000000000000000  0.5855650906205270
  0.0000000000000000  0.1666700039999967  0.4144349093794730
  0.5000000000000000  0.0000000000000000  0.5855650906205270
  0.3333299960000033  0.1666700039999967  0.4144349093794730
  0.8333299589999967  0.0000000000000000  0.5855650906205270
  0.6666700039999967  0.1666700039999967  0.4144349093794730
  0.1666700039999967  0.3333299960000033  0.5855650906205270
  0.0000000000000000  0.5000000000000000  0.4144349093794730
  0.5000000000000000  0.3333299960000033  0.5855650906205270
  0.3333299960000033  0.5000000000000000  0.4144349093794730
  0.8333299589999967  0.3333299960000033  0.5855650906205270
  0.6666700039999967  0.5000000000000000  0.4144349093794730
  0.1666700039999967  0.6666700039999967  0.5855650906205270
  0.0000000000000000  0.8333299589999967  0.4144349093794730
  0.5000000000000000  0.6666700039999967  0.5855650906205270
  0.3333299960000033  0.8333299589999967  0.4144349093794730
  0.8333299589999967  0.6666700039999967  0.5855650906205270
  0.6666700039999967  0.8333299589999967  0.4144349093794730
  0.0000000000000000  0.0000000000000000  0.3111022685018270
  0.1666700039999967  0.1666700039999967  0.6888976914981768
  0.0000000000000000  0.0000000000000000  0.6888976914981768
  0.1666700039999967  0.1666700039999967  0.3111122745018235
  0.1666700039999967  0.0000000000000000  0.4533639666880021
  0.0000000000000000  0.1666700039999967  0.5466359943119983
  0.3333299960000033  0.0000000000000000  0.3111022685018270
  0.5000000000000000  0.1666700039999967  0.6888976914981768
  0.3333299960000033  0.0000000000000000  0.6888976914981768
  0.5000000000000000  0.1666700039999967  0.3111122745018235
  0.5000000000000000  0.0000000000000000  0.4533639666880021
  0.3333299960000033  0.1666700039999967  0.5466359943119983
  0.6666700039999967  0.0000000000000000  0.3111022685018270
  0.8333299589999967  0.1666700039999967  0.6888976914981768
  0.6666700039999967  0.0000000000000000  0.6888976914981768
  0.8333299589999967  0.1666700039999967  0.3111122745018235
  0.8333299589999967  0.0000000000000000  0.4533639666880021
  0.6666700039999967  0.1666700039999967  0.5466359943119983
  0.0000000000000000  0.3333299960000033  0.3111022685018270
  0.1666700039999967  0.5000000000000000  0.6888976914981768
  0.0000000000000000  0.3333299960000033  0.6888976914981768
  0.1666700039999967  0.5000000000000000  0.3111122745018235
  0.1666700039999967  0.3333299960000033  0.4533639666880021
  0.0000000000000000  0.5000000000000000  0.5466359943119983
  0.3333299960000033  0.3333299960000033  0.3111022685018270
  0.5000000000000000  0.5000000000000000  0.6888976914981768
  0.3333299960000033  0.3333299960000033  0.6888976914981768
  0.5000000000000000  0.5000000000000000  0.3111122745018235
  0.5000000000000000  0.3333299960000033  0.4533639666880021
  0.3333299960000033  0.5000000000000000  0.5466359943119983
  0.6666700039999967  0.3333299960000033  0.3111022685018270
  0.8333299589999967  0.5000000000000000  0.6888976914981768
  0.6666700039999967  0.3333299960000033  0.6888976914981768
  0.8333299589999967  0.5000000000000000  0.3111122745018235
  0.8333299589999967  0.3333299960000033  0.4533639666880021
  0.6666700039999967  0.5000000000000000  0.5466359943119983
  0.0000000000000000  0.6666700039999967  0.3111022685018270
  0.1666700039999967  0.8333299589999967  0.6888976914981768
  0.0000000000000000  0.6666700039999967  0.6888976914981768
  0.1666700039999967  0.8333299589999967  0.3111122745018235
  0.1666700039999967  0.6666700039999967  0.4533639666880021
  0.0000000000000000  0.8333299589999967  0.5466359943119983
  0.3333299960000033  0.6666700039999967  0.3111022685018270
  0.5000000000000000  0.8333299589999967  0.6888976914981768
  0.3333299960000033  0.6666700039999967  0.6888976914981768
  0.5000000000000000  0.8333299589999967  0.3111122745018235
  0.5000000000000000  0.6666700039999967  0.4533639666880021
  0.3333299960000033  0.8333299589999967  0.5466359943119983
  0.6666700039999967  0.6666700039999967  0.3111022685018270
  0.8333299589999967  0.8333299589999967  0.6888976914981768
  0.6666700039999967  0.6666700039999967  0.6888976914981768
  0.8333299589999967  0.8333299589999967  0.3111122745018235
  0.8333299589999967  0.6666700039999967  0.4533639666880021
  0.6666700039999967  0.8333299589999967  0.5466359943119983
 
  0.00000000E+00  0.00000000E+00  0.00000000E+00
  0.00000000E+00  0.00000000E+00  0.00000000E+00
  0.00000000E+00  0.00000000E+00  0.00000000E+00
  0.00000000E+00  0.00000000E+00  0.00000000E+00
  0.00000000E+00  0.00000000E+00  0.00000000E+00
  0.00000000E+00  0.00000000E+00  0.00000000E+00
  0.00000000E+00  0.00000000E+00  0.00000000E+00
  0.00000000E+00  0.00000000E+00  0.00000000E+00
  0.00000000E+00  0.00000000E+00  0.00000000E+00
  0.00000000E+00  0.00000000E+00  0.00000000E+00
  0.00000000E+00  0.00000000E+00  0.00000000E+00
  0.00000000E+00  0.00000000E+00  0.00000000E+00
  0.00000000E+00  0.00000000E+00  0.00000000E+00
  0.00000000E+00  0.00000000E+00  0.00000000E+00
  0.00000000E+00  0.00000000E+00  0.00000000E+00
  0.00000000E+00  0.00000000E+00  0.00000000E+00
  0.00000000E+00  0.00000000E+00  0.00000000E+00
  0.00000000E+00  0.00000000E+00  0.00000000E+00
  0.00000000E+00  0.00000000E+00  0.00000000E+00
  0.00000000E+00  0.00000000E+00  0.00000000E+00
  0.00000000E+00  0.00000000E+00  0.00000000E+00
  0.00000000E+00  0.00000000E+00  0.00000000E+00
  0.00000000E+00  0.00000000E+00  0.00000000E+00
  0.00000000E+00  0.00000000E+00  0.00000000E+00
  0.00000000E+00  0.00000000E+00  0.00000000E+00
  0.00000000E+00  0.00000000E+00  0.00000000E+00
  0.00000000E+00  0.00000000E+00  0.00000000E+00
  0.00000000E+00  0.00000000E+00  0.00000000E+00
  0.00000000E+00  0.00000000E+00  0.00000000E+00
  0.00000000E+00  0.00000000E+00  0.00000000E+00
  0.00000000E+00  0.00000000E+00  0.00000000E+00
  0.00000000E+00  0.00000000E+00  0.00000000E+00
  0.00000000E+00  0.00000000E+00  0.00000000E+00
  0.00000000E+00  0.00000000E+00  0.00000000E+00
  0.00000000E+00  0.00000000E+00  0.00000000E+00
  0.00000000E+00  0.00000000E+00  0.00000000E+00
  0.00000000E+00  0.00000000E+00  0.00000000E+00
  0.00000000E+00  0.00000000E+00  0.00000000E+00
  0.00000000E+00  0.00000000E+00  0.00000000E+00
  0.00000000E+00  0.00000000E+00  0.00000000E+00
  0.00000000E+00  0.00000000E+00  0.00000000E+00
  0.00000000E+00  0.00000000E+00  0.00000000E+00
  0.00000000E+00  0.00000000E+00  0.00000000E+00
  0.00000000E+00  0.00000000E+00  0.00000000E+00
  0.00000000E+00  0.00000000E+00  0.00000000E+00
  0.00000000E+00  0.00000000E+00  0.00000000E+00
  0.00000000E+00  0.00000000E+00  0.00000000E+00
  0.00000000E+00  0.00000000E+00  0.00000000E+00
  0.00000000E+00  0.00000000E+00  0.00000000E+00
  0.00000000E+00  0.00000000E+00  0.00000000E+00
  0.00000000E+00  0.00000000E+00  0.00000000E+00
  0.00000000E+00  0.00000000E+00  0.00000000E+00
  0.00000000E+00  0.00000000E+00  0.00000000E+00
  0.00000000E+00  0.00000000E+00  0.00000000E+00
  0.00000000E+00  0.00000000E+00  0.00000000E+00
  0.00000000E+00  0.00000000E+00  0.00000000E+00
  0.00000000E+00  0.00000000E+00  0.00000000E+00
  0.00000000E+00  0.00000000E+00  0.00000000E+00
  0.00000000E+00  0.00000000E+00  0.00000000E+00
  0.00000000E+00  0.00000000E+00  0.00000000E+00
  0.00000000E+00  0.00000000E+00  0.00000000E+00
  0.00000000E+00  0.00000000E+00  0.00000000E+00
  0.00000000E+00  0.00000000E+00  0.00000000E+00
  0.00000000E+00  0.00000000E+00  0.00000000E+00
  0.00000000E+00  0.00000000E+00  0.00000000E+00
  0.00000000E+00  0.00000000E+00  0.00000000E+00
  0.00000000E+00  0.00000000E+00  0.00000000E+00
  0.00000000E+00  0.00000000E+00  0.00000000E+00
  0.00000000E+00  0.00000000E+00  0.00000000E+00
  0.00000000E+00  0.00000000E+00  0.00000000E+00
  0.00000000E+00  0.00000000E+00  0.00000000E+00
  0.00000000E+00  0.00000000E+00  0.00000000E+00
