CONTCAR\(4)                             
   1.00000000000000     
    14.0045995712000000    0.0000000000000000    0.0000000000000000
     0.0000000000000000   14.6464996337999995    0.0000000000000000
     0.0000000000000000    0.0000000000000000   18.2712001800999992
   Ru   Cl   O 
    16    32    17
Direct
  0.9981009927052021  0.0007332937417440  0.5006232435201586
  0.2480211724945525  0.0007708785126109  0.5005941287973168
  0.4978370785587361  0.0009480328221758  0.5004987131299589
  0.7483543426281953  0.0010071303537755  0.5005453144672862
  0.9979260493088968  0.2507213294424264  0.5015442799586739
  0.2482390669072403  0.2507644222973865  0.5017168980889034
  0.4985639730336456  0.2507916987580786  0.5022604168714627
  0.7475501998825501  0.2508705856599290  0.5021643420543452
  0.9981567861880621  0.5006435039242546  0.5011006353190609
  0.2480671823621732  0.5006748113274905  0.5012923289940379
  0.4981166402738365  0.5007635688988263  0.5016179415112525
  0.7480537459229412  0.5008312882603194  0.5016714124787872
  0.9981756647167990  0.7506135964810327  0.5003053030985369
  0.2480929548568134  0.7506826952465598  0.5004327012295942
  0.4977459387763275  0.7513099202955903  0.5005038043215763
  0.7483063054490570  0.7513495454890982  0.5005652116557912
  0.1231356566860576  0.0003905865351744  0.5902481745426092
  0.1230804579705273  0.0012603752104928  0.4109609552654282
  0.3730196628549693  0.0003639017835290  0.5903083004731273
  0.3730029110174349  0.0010217913212693  0.4107979068802898
  0.6230373415578101  0.0009931542076259  0.5901606736480203
  0.6231202492150923  0.0014914342291471  0.4109830769271074
  0.8731818905695284  0.0003591902625260  0.5903815173680336
  0.8732026087216883  0.0010894688195642  0.4108921203290462
  0.1229683283849695  0.2501562581158802  0.5911656853769087
  0.1231790589680679  0.2509591568150379  0.4120065281252829
  0.3732051930853806  0.2506091291962141  0.5914882510043078
  0.3735289758988050  0.2520786883502250  0.4123012081078942
  0.6230659708825110  0.2474335642940584  0.5910664855544399
  0.6229912924612033  0.2510159785123799  0.4120547327800089
  0.8729501970150383  0.2508547046710689  0.5913052230695888
  0.8725671652016158  0.2520574121716825  0.4121345530024602
  0.1229753157526793  0.5013898249980522  0.5909888951692706
  0.1232400015412021  0.5003591577565816  0.4115053800608806
  0.3726596866361785  0.5005131675442819  0.5911985077316357
  0.3717708280823891  0.4991915186902743  0.4108190319115899
  0.6229139743173713  0.5143036039184937  0.5918727048108958
  0.6230845944346389  0.5013017075329097  0.4119427920566050
  0.8737305955278492  0.5005948624293386  0.5910828329894311
  0.8741791263739905  0.4994591507615318  0.4107534541210565
  0.1230426892764558  0.7507820079482145  0.5899840802743533
  0.1232004597374303  0.7503054131118706  0.4107062580282737
  0.3729671150021637  0.7514626705039341  0.5903108443318156
  0.3732223417325411  0.7505021661677080  0.4108989962431109
  0.6229459445973379  0.7521572089118623  0.5904482712588881
  0.6230105549850617  0.7508530084503463  0.4110184555656148
  0.8733019216166288  0.7512528692178826  0.5901699273578238
  0.8727622029588139  0.7503908263454198  0.4109114630277336
  0.9977769185406571  0.1257577134972653  0.5010593657145005
  0.2484286119968203  0.1257844156632420  0.5010792016455734
  0.4974335831153601  0.1258320431716431  0.5008849737162057
  0.7486997077314358  0.1259062653040327  0.5008996817587935
  0.9982584351643194  0.3756847592099489  0.5015772034239887
  0.2479467909755609  0.3757213309012077  0.5018902875709146
  0.5001029784078658  0.3757902719539947  0.5030951406502165
  0.7460627003241228  0.3758715795592066  0.5030150936149174
  0.9979790373927901  0.6256133376205788  0.5005341285546294
  0.2484054381089121  0.6256503189840246  0.5007640531440131
  0.4975893660704259  0.6262470294048466  0.5009875779853448
  0.7483759785111662  0.6263014130464096  0.5011668769806785
  0.9982072578543648  0.8756730729587761  0.5001977507952946
  0.2480427969074418  0.8757254199270428  0.5002345216256134
  0.4980295055699880  0.8761478967795583  0.5003090131244554
  0.7481603149895198  0.8761870337016738  0.5003512286974616
  0.6225476802108446  0.4437255620206761  0.6539499791071480
 
  0.00000000E+00  0.00000000E+00  0.00000000E+00
  0.00000000E+00  0.00000000E+00  0.00000000E+00
  0.00000000E+00  0.00000000E+00  0.00000000E+00
  0.00000000E+00  0.00000000E+00  0.00000000E+00
  0.00000000E+00  0.00000000E+00  0.00000000E+00
  0.00000000E+00  0.00000000E+00  0.00000000E+00
  0.00000000E+00  0.00000000E+00  0.00000000E+00
  0.00000000E+00  0.00000000E+00  0.00000000E+00
  0.00000000E+00  0.00000000E+00  0.00000000E+00
  0.00000000E+00  0.00000000E+00  0.00000000E+00
  0.00000000E+00  0.00000000E+00  0.00000000E+00
  0.00000000E+00  0.00000000E+00  0.00000000E+00
  0.00000000E+00  0.00000000E+00  0.00000000E+00
  0.00000000E+00  0.00000000E+00  0.00000000E+00
  0.00000000E+00  0.00000000E+00  0.00000000E+00
  0.00000000E+00  0.00000000E+00  0.00000000E+00
  0.00000000E+00  0.00000000E+00  0.00000000E+00
  0.00000000E+00  0.00000000E+00  0.00000000E+00
  0.00000000E+00  0.00000000E+00  0.00000000E+00
  0.00000000E+00  0.00000000E+00  0.00000000E+00
  0.00000000E+00  0.00000000E+00  0.00000000E+00
  0.00000000E+00  0.00000000E+00  0.00000000E+00
  0.00000000E+00  0.00000000E+00  0.00000000E+00
  0.00000000E+00  0.00000000E+00  0.00000000E+00
  0.00000000E+00  0.00000000E+00  0.00000000E+00
  0.00000000E+00  0.00000000E+00  0.00000000E+00
  0.00000000E+00  0.00000000E+00  0.00000000E+00
  0.00000000E+00  0.00000000E+00  0.00000000E+00
  0.00000000E+00  0.00000000E+00  0.00000000E+00
  0.00000000E+00  0.00000000E+00  0.00000000E+00
  0.00000000E+00  0.00000000E+00  0.00000000E+00
  0.00000000E+00  0.00000000E+00  0.00000000E+00
  0.00000000E+00  0.00000000E+00  0.00000000E+00
  0.00000000E+00  0.00000000E+00  0.00000000E+00
  0.00000000E+00  0.00000000E+00  0.00000000E+00
  0.00000000E+00  0.00000000E+00  0.00000000E+00
  0.00000000E+00  0.00000000E+00  0.00000000E+00
  0.00000000E+00  0.00000000E+00  0.00000000E+00
  0.00000000E+00  0.00000000E+00  0.00000000E+00
  0.00000000E+00  0.00000000E+00  0.00000000E+00
  0.00000000E+00  0.00000000E+00  0.00000000E+00
  0.00000000E+00  0.00000000E+00  0.00000000E+00
  0.00000000E+00  0.00000000E+00  0.00000000E+00
  0.00000000E+00  0.00000000E+00  0.00000000E+00
  0.00000000E+00  0.00000000E+00  0.00000000E+00
  0.00000000E+00  0.00000000E+00  0.00000000E+00
  0.00000000E+00  0.00000000E+00  0.00000000E+00
  0.00000000E+00  0.00000000E+00  0.00000000E+00
  0.00000000E+00  0.00000000E+00  0.00000000E+00
  0.00000000E+00  0.00000000E+00  0.00000000E+00
  0.00000000E+00  0.00000000E+00  0.00000000E+00
  0.00000000E+00  0.00000000E+00  0.00000000E+00
  0.00000000E+00  0.00000000E+00  0.00000000E+00
  0.00000000E+00  0.00000000E+00  0.00000000E+00
  0.00000000E+00  0.00000000E+00  0.00000000E+00
  0.00000000E+00  0.00000000E+00  0.00000000E+00
  0.00000000E+00  0.00000000E+00  0.00000000E+00
  0.00000000E+00  0.00000000E+00  0.00000000E+00
  0.00000000E+00  0.00000000E+00  0.00000000E+00
  0.00000000E+00  0.00000000E+00  0.00000000E+00
  0.00000000E+00  0.00000000E+00  0.00000000E+00
  0.00000000E+00  0.00000000E+00  0.00000000E+00
  0.00000000E+00  0.00000000E+00  0.00000000E+00
  0.00000000E+00  0.00000000E+00  0.00000000E+00
  0.00000000E+00  0.00000000E+00  0.00000000E+00
