 Cu1 Ag1 Te2                            
   1.00000000000000     
     3.1392216854610138    0.0000000000000000    0.0000000000000000
     0.0000000000000000    4.1895173595067847    0.0000000000000000
     0.0000000000000000    0.0000000000000000   19.2248342280280013
   Cu   Ag   Te
     1     1     2
Direct
  0.4999999998623892  0.9999999998259739  0.5295210805622546
  0.0000000000360458  0.5000000000777831  0.4789530639440613
  0.0000000003462688  0.0000000000177138  0.3882459592029761
  0.4999999997552891  0.5000000000785292  0.6105997006740793
 
  0.00000000E+00  0.00000000E+00  0.00000000E+00
  0.00000000E+00  0.00000000E+00  0.00000000E+00
  0.00000000E+00  0.00000000E+00  0.00000000E+00
  0.00000000E+00  0.00000000E+00  0.00000000E+00
