CONTCAR\(5)                             
   1.00000000000000     
    10.8753004073999993    0.0000000000000000    0.0000000000000000
     0.0000000000000000   10.8753004073999993    0.0000000000000000
     0.0000000000000000    0.0000000000000000   21.9909000397000014
   Hf   Si   Te   O    H 
    18    18    18     2     1
Direct
  0.1650776580733447  0.0019516609767238  0.5946929822623713
  0.0007297258804979  0.1661379647591320  0.4034283409163825
  0.5004079661321869 -0.0014806241875128  0.5962895747336542
  0.3345976930745858  0.1661357337422131  0.4041705031911871
  0.8366903462803371  0.0020537010278815  0.5944695262670655
  0.6667981616028336  0.1659126476458564  0.4041576297826490
  0.1651705120350843  0.3304603118749757  0.5943400378472864
  0.0007324964697194  0.4999811980263036  0.4041501124624107
  0.5015012831458481  0.3331826055821415  0.5961881233920628
  0.3348302147349179  0.5001835863951184  0.4055963790892658
  0.8367415753997584  0.3301794231119710  0.5946047957139244
  0.6666588583769787  0.5000580197084218  0.4054722484754799
  0.1680339302890377  0.6669131968195408  0.5962166323752888
  0.0005147145237312  0.8322256678568540  0.4041781638691930
  0.4996599181232182  0.6643778069854405  0.6053061216434298
  0.3347635068984720  0.8319438225968319  0.4055299773952222
  0.8334207207885505  0.6658013870195449  0.5962208122807615
  0.6664203550321448  0.8317223502731390  0.4055703187317231
  0.0007259266072357 -0.0009203262953101  0.4990363128409885
  0.1677214075227804  0.1659631904107982  0.4989537498718270
  0.3341899279506764 -0.0003170550650580  0.5001649660372940
  0.5006875989682709  0.1659574418831643  0.5000686504787837
  0.6670588335649869 -0.0005660993637602  0.5001132929521165
  0.8336571429933219  0.1660696136185090  0.4989958760766841
  0.0006110312179193  0.3330983189314737  0.4989529764547655
  0.1672342742018825  0.4997160449161400  0.4999753940558990
  0.3343338042583175  0.3325607512713721  0.4999953752968007
  0.5008731080347579  0.5001220703648119  0.5020227848907699
  0.6673150114169351  0.3323828439559918  0.5000927524869940
  0.8344479331259131  0.4995207392569714  0.5001189115369524
  0.0006603312770765  0.6660598718342626  0.5000492342529816
  0.1670631145360769  0.8326383930910913  0.5001348283948397
  0.3348387484898126  0.6660990687845950  0.5020323007866742
  0.5007226015986181  0.8315120253686084  0.5020817008079822
  0.6664427649664488  0.6658882098131708  0.5019943320088696
  0.8341167361754175  0.8324472914120817  0.5001025747708702
  0.0009379045586743  0.1662801858165374  0.6612461723904032
  0.1678542006648793 -0.0011592038618490  0.3402740188963430
  0.3345315863955535  0.1662891212013601  0.6594415302273732
  0.5006017890669539 -0.0014580490705556  0.3404581074184496
  0.6671509210638046  0.1656895249466702  0.6596788872955678
  0.8333176770788203 -0.0011586587070471  0.3402216316280608
  0.0010294973706561  0.4998920885910149  0.6593179597949104
  0.1678928792379527  0.3333838308873684  0.3401247893897705
  0.3262843893922158  0.4916352656970199  0.6570144498626563
  0.5006993495377677  0.3335062180877055  0.3403920518647392
  0.6758852573238044  0.4914607326953758  0.6594706087428092
  0.8333778436896213  0.3332861654241870  0.3402077059125707
  0.0004128905040562  0.8326642612362232  0.6597110604593190
  0.1681091792863220  0.6662014970659751  0.3404931864210167
  0.3264365558286343  0.8407186654462089  0.6598193913057970
  0.5006448016588045  0.6660014984623887  0.3408248593967199
  0.6746416214132593  0.8397508447444660  0.6582234363757532
  0.8331875265524989  0.6660811532576788  0.3403451700457921
  0.4543709203946131  0.6099146396053545  0.7528084272495493
  0.5174614136297720  0.6824329392878391  0.7048536081881847
  0.4984418875836417  0.6430344587825916  0.7880750467027579
 
  0.00000000E+00  0.00000000E+00  0.00000000E+00
  0.00000000E+00  0.00000000E+00  0.00000000E+00
  0.00000000E+00  0.00000000E+00  0.00000000E+00
  0.00000000E+00  0.00000000E+00  0.00000000E+00
  0.00000000E+00  0.00000000E+00  0.00000000E+00
  0.00000000E+00  0.00000000E+00  0.00000000E+00
  0.00000000E+00  0.00000000E+00  0.00000000E+00
  0.00000000E+00  0.00000000E+00  0.00000000E+00
  0.00000000E+00  0.00000000E+00  0.00000000E+00
  0.00000000E+00  0.00000000E+00  0.00000000E+00
  0.00000000E+00  0.00000000E+00  0.00000000E+00
  0.00000000E+00  0.00000000E+00  0.00000000E+00
  0.00000000E+00  0.00000000E+00  0.00000000E+00
  0.00000000E+00  0.00000000E+00  0.00000000E+00
  0.00000000E+00  0.00000000E+00  0.00000000E+00
  0.00000000E+00  0.00000000E+00  0.00000000E+00
  0.00000000E+00  0.00000000E+00  0.00000000E+00
  0.00000000E+00  0.00000000E+00  0.00000000E+00
  0.00000000E+00  0.00000000E+00  0.00000000E+00
  0.00000000E+00  0.00000000E+00  0.00000000E+00
  0.00000000E+00  0.00000000E+00  0.00000000E+00
  0.00000000E+00  0.00000000E+00  0.00000000E+00
  0.00000000E+00  0.00000000E+00  0.00000000E+00
  0.00000000E+00  0.00000000E+00  0.00000000E+00
  0.00000000E+00  0.00000000E+00  0.00000000E+00
  0.00000000E+00  0.00000000E+00  0.00000000E+00
  0.00000000E+00  0.00000000E+00  0.00000000E+00
  0.00000000E+00  0.00000000E+00  0.00000000E+00
  0.00000000E+00  0.00000000E+00  0.00000000E+00
  0.00000000E+00  0.00000000E+00  0.00000000E+00
  0.00000000E+00  0.00000000E+00  0.00000000E+00
  0.00000000E+00  0.00000000E+00  0.00000000E+00
  0.00000000E+00  0.00000000E+00  0.00000000E+00
  0.00000000E+00  0.00000000E+00  0.00000000E+00
  0.00000000E+00  0.00000000E+00  0.00000000E+00
  0.00000000E+00  0.00000000E+00  0.00000000E+00
  0.00000000E+00  0.00000000E+00  0.00000000E+00
  0.00000000E+00  0.00000000E+00  0.00000000E+00
  0.00000000E+00  0.00000000E+00  0.00000000E+00
  0.00000000E+00  0.00000000E+00  0.00000000E+00
  0.00000000E+00  0.00000000E+00  0.00000000E+00
  0.00000000E+00  0.00000000E+00  0.00000000E+00
  0.00000000E+00  0.00000000E+00  0.00000000E+00
  0.00000000E+00  0.00000000E+00  0.00000000E+00
  0.00000000E+00  0.00000000E+00  0.00000000E+00
  0.00000000E+00  0.00000000E+00  0.00000000E+00
  0.00000000E+00  0.00000000E+00  0.00000000E+00
  0.00000000E+00  0.00000000E+00  0.00000000E+00
  0.00000000E+00  0.00000000E+00  0.00000000E+00
  0.00000000E+00  0.00000000E+00  0.00000000E+00
  0.00000000E+00  0.00000000E+00  0.00000000E+00
  0.00000000E+00  0.00000000E+00  0.00000000E+00
  0.00000000E+00  0.00000000E+00  0.00000000E+00
  0.00000000E+00  0.00000000E+00  0.00000000E+00
  0.00000000E+00  0.00000000E+00  0.00000000E+00
  0.00000000E+00  0.00000000E+00  0.00000000E+00
  0.00000000E+00  0.00000000E+00  0.00000000E+00
