CONTCAR\(11)                            
   1.00000000000000     
    10.1990995407000007    0.0000000000000000    0.0000000000000000
     0.0000000000000000   15.1191997528000002    0.0000000000000000
     0.0000000000000000    0.0000000000000000   19.1068992615000006
   Ta   Ni   S    O 
    12     6    30     1
Direct
  0.9968463796787858  0.3561268423379437  0.5213390266134458
  0.1640510383346025  0.1427467626865012  0.4824513760410535
  0.1639548620928453  0.8553683647575993  0.4826098942518112
  0.9967865215214544  0.6419916632200849  0.5215698150383559
  0.3304055117353447  0.3571680679921007  0.5217010919481868
  0.4955438272691607  0.1426179864865798  0.4819838547661925
  0.4955513607189209  0.8554286603971581  0.4820696797791226
  0.3303933475909261  0.6410865823002738  0.5218016571166035
  0.6639339747558745  0.3559928270364434  0.5208215039842459
  0.8297340419282713  0.1426038219465247  0.4751604274828991
  0.8296889951018354  0.8554301258022059  0.4754313812859596
  0.6638131530385910  0.6420427353291244  0.5209849622882033
  0.0012348694155191  0.9989787046511185  0.4666541459568134
  0.1635861871773230  0.4991238991152964  0.5374240846007053
  0.3296269278376577  0.9990448242409584  0.4643821839811321
  0.4974857880899752  0.4991526384167111  0.5369839045959617
  0.6580350913807381  0.9990010559335150  0.4660547718365959
  0.8301098803370669  0.4990500789346326  0.5370222920008194
  0.1652571322987141  0.9990767289820508  0.5436408429399995
  0.9973077900298137  0.4991016681407384  0.4597104699281806
  0.9939814662938687  0.1964718961556992  0.5650382287385881
  0.1639744166342330  0.3004730606219357  0.4361972285015565
  0.1639270297080683  0.6977007943865643  0.4363639203009984
  0.9938449388707339  0.8015545324953778  0.5653107565445976
  0.1632787215702868  0.6137610764482075  0.6102828719946563
  0.0002175204595064  0.8864164396286484  0.3916240108908627
  0.0004931564652218  0.1114506948137476  0.3914323787968015
  0.1631603554613832  0.3842379446107106  0.6101474340095434
  0.4945543353651005  0.9990193970001913  0.5432188735077387
  0.3301275416164414  0.4991387610609740  0.4595814215033411
  0.3305189845740140  0.1979049742992578  0.5673310251855763
  0.4958709763457572  0.3004774178529963  0.4359185494493644
  0.4957658067414925  0.6975467239289541  0.4359775889439170
  0.3304689681048912  0.8003287349406724  0.5674934802572847
  0.4974278905267263  0.6135089687093549  0.6099607187223088
  0.3296443595745953  0.8832747363588597  0.3928580421248789
  0.3297975759802736  0.1147025588273522  0.3926844862318412
  0.4975717297182448  0.3843088722690404  0.6098002620824277
  0.8291977445725724  0.9991555651101626  0.5411708661152433
  0.6636725449106072  0.4990352760913448  0.4592672242971547
  0.6661713490132506  0.1964559079387498  0.5647542550310436
  0.8304200515898121  0.3016607251788618  0.4348379249810767
  0.8304327546568641  0.6963501893051878  0.4350736903141214
  0.6659920139195147  0.8014537106003147  0.5649419379603311
  0.8297621590052811  0.6136217867054399  0.6098560325850322
  0.6600321129716915  0.8862120413679578  0.3912014511768852
  0.6599817611374090  0.1117034159662489  0.3910232096038792
  0.8298611757667039  0.3841152011795494  0.6097067316521555
  0.8282934161121115  0.9994346274401046  0.6195483400605011
 
  0.00000000E+00  0.00000000E+00  0.00000000E+00
  0.00000000E+00  0.00000000E+00  0.00000000E+00
  0.00000000E+00  0.00000000E+00  0.00000000E+00
  0.00000000E+00  0.00000000E+00  0.00000000E+00
  0.00000000E+00  0.00000000E+00  0.00000000E+00
  0.00000000E+00  0.00000000E+00  0.00000000E+00
  0.00000000E+00  0.00000000E+00  0.00000000E+00
  0.00000000E+00  0.00000000E+00  0.00000000E+00
  0.00000000E+00  0.00000000E+00  0.00000000E+00
  0.00000000E+00  0.00000000E+00  0.00000000E+00
  0.00000000E+00  0.00000000E+00  0.00000000E+00
  0.00000000E+00  0.00000000E+00  0.00000000E+00
  0.00000000E+00  0.00000000E+00  0.00000000E+00
  0.00000000E+00  0.00000000E+00  0.00000000E+00
  0.00000000E+00  0.00000000E+00  0.00000000E+00
  0.00000000E+00  0.00000000E+00  0.00000000E+00
  0.00000000E+00  0.00000000E+00  0.00000000E+00
  0.00000000E+00  0.00000000E+00  0.00000000E+00
  0.00000000E+00  0.00000000E+00  0.00000000E+00
  0.00000000E+00  0.00000000E+00  0.00000000E+00
  0.00000000E+00  0.00000000E+00  0.00000000E+00
  0.00000000E+00  0.00000000E+00  0.00000000E+00
  0.00000000E+00  0.00000000E+00  0.00000000E+00
  0.00000000E+00  0.00000000E+00  0.00000000E+00
  0.00000000E+00  0.00000000E+00  0.00000000E+00
  0.00000000E+00  0.00000000E+00  0.00000000E+00
  0.00000000E+00  0.00000000E+00  0.00000000E+00
  0.00000000E+00  0.00000000E+00  0.00000000E+00
  0.00000000E+00  0.00000000E+00  0.00000000E+00
  0.00000000E+00  0.00000000E+00  0.00000000E+00
  0.00000000E+00  0.00000000E+00  0.00000000E+00
  0.00000000E+00  0.00000000E+00  0.00000000E+00
  0.00000000E+00  0.00000000E+00  0.00000000E+00
  0.00000000E+00  0.00000000E+00  0.00000000E+00
  0.00000000E+00  0.00000000E+00  0.00000000E+00
  0.00000000E+00  0.00000000E+00  0.00000000E+00
  0.00000000E+00  0.00000000E+00  0.00000000E+00
  0.00000000E+00  0.00000000E+00  0.00000000E+00
  0.00000000E+00  0.00000000E+00  0.00000000E+00
  0.00000000E+00  0.00000000E+00  0.00000000E+00
  0.00000000E+00  0.00000000E+00  0.00000000E+00
  0.00000000E+00  0.00000000E+00  0.00000000E+00
  0.00000000E+00  0.00000000E+00  0.00000000E+00
  0.00000000E+00  0.00000000E+00  0.00000000E+00
  0.00000000E+00  0.00000000E+00  0.00000000E+00
  0.00000000E+00  0.00000000E+00  0.00000000E+00
  0.00000000E+00  0.00000000E+00  0.00000000E+00
  0.00000000E+00  0.00000000E+00  0.00000000E+00
  0.00000000E+00  0.00000000E+00  0.00000000E+00
