CONTCAR\(3)                             
   1.00000000000000     
    12.0853004455999997    0.0000000000000000    0.0000000000000000
     0.0000000000000000   13.7131004332999993    0.0000000000000000
     0.0000000000000000    0.0000000000000000   20.3784999846999995
   Zr   Te   O    H 
     6    30     1     1
Direct
  0.9997404356346706  0.4973508353807716  0.4539437008730332
  0.1594815530167821  0.9963874267917987  0.5467957368184742
  0.3350083970478508  0.4962863178348655  0.4594067777289013
  0.4926652189619887  0.9965625272613252  0.5491585160887169
  0.6669387649341729  0.4955815402719352  0.4521158895569783
  0.8257860714783121  0.9955635046907361  0.5489922650882946
  0.1627035226378695  0.4834134533632550  0.5661272335776530
  0.9892014424645481  0.9915350481615519  0.4374392811801258
  0.1713012824017142  0.6050328610897040  0.3787098871285508
  0.9934684164517833  0.8965719705988207  0.6308224342152045
  0.9938590172090400  0.0995230223516472  0.6285264439427536
  0.1692787271249685  0.4024709820597820  0.3708289426408058
  0.9955853073616012  0.3075296659041911  0.5256940871080289
  0.1643919582244635  0.1771359498731755  0.4663306568151526
  0.1537526692704674  0.8126534142033321  0.4674693417835343
  0.9986708235070907  0.6816838557335743  0.5315980994088250
  0.5063639587959088  0.4699485936574561  0.5649698065787661
  0.3265998685940232  0.9963465120918542  0.4374933162844599
  0.4979375699381379  0.6053129386112346  0.3787135346776012
  0.3232900507779917  0.8966310980657610  0.6302259195996029
  0.3256478298414791  0.1004403840210770  0.6297016805865923
  0.4963949411109638  0.4028971881033385  0.3681829142695392
  0.3301701063990663  0.3058930975285534  0.5269729644072640
  0.4966553329987633  0.1752414184510442  0.4653268730383644
  0.4895777431945803  0.8050957715596567  0.4812366963597015
  0.3245319598168024  0.6810723918682413  0.5458399972187564
  0.8305367306224625  0.4962172862005261  0.5631507685711341
  0.6590988355828387  0.9838444744755392  0.4392167010494248
  0.8345654726176406  0.6009040965189172  0.3711616227013721
  0.6584540710912066  0.9014063190404826  0.6354050390249171
  0.6604063014762929  0.1036298808881853  0.6275854762063844
  0.8345157196936981  0.3985007235569000  0.3689954791057417
  0.6619636794186619  0.3066504411529323  0.5231294772704302
  0.8346496131650909  0.1732703398535804  0.4643816762312980
  0.8213862291278531  0.8085954709479211  0.4751868561326518
  0.6658038861445164  0.6722417589077594  0.5373430131884831
  0.4221763126714180  0.6416621410596548  0.6259186383906439
  0.3944002131932791  0.6792552108688952  0.6634124071518670
 
  0.00000000E+00  0.00000000E+00  0.00000000E+00
  0.00000000E+00  0.00000000E+00  0.00000000E+00
  0.00000000E+00  0.00000000E+00  0.00000000E+00
  0.00000000E+00  0.00000000E+00  0.00000000E+00
  0.00000000E+00  0.00000000E+00  0.00000000E+00
  0.00000000E+00  0.00000000E+00  0.00000000E+00
  0.00000000E+00  0.00000000E+00  0.00000000E+00
  0.00000000E+00  0.00000000E+00  0.00000000E+00
  0.00000000E+00  0.00000000E+00  0.00000000E+00
  0.00000000E+00  0.00000000E+00  0.00000000E+00
  0.00000000E+00  0.00000000E+00  0.00000000E+00
  0.00000000E+00  0.00000000E+00  0.00000000E+00
  0.00000000E+00  0.00000000E+00  0.00000000E+00
  0.00000000E+00  0.00000000E+00  0.00000000E+00
  0.00000000E+00  0.00000000E+00  0.00000000E+00
  0.00000000E+00  0.00000000E+00  0.00000000E+00
  0.00000000E+00  0.00000000E+00  0.00000000E+00
  0.00000000E+00  0.00000000E+00  0.00000000E+00
  0.00000000E+00  0.00000000E+00  0.00000000E+00
  0.00000000E+00  0.00000000E+00  0.00000000E+00
  0.00000000E+00  0.00000000E+00  0.00000000E+00
  0.00000000E+00  0.00000000E+00  0.00000000E+00
  0.00000000E+00  0.00000000E+00  0.00000000E+00
  0.00000000E+00  0.00000000E+00  0.00000000E+00
  0.00000000E+00  0.00000000E+00  0.00000000E+00
  0.00000000E+00  0.00000000E+00  0.00000000E+00
  0.00000000E+00  0.00000000E+00  0.00000000E+00
  0.00000000E+00  0.00000000E+00  0.00000000E+00
  0.00000000E+00  0.00000000E+00  0.00000000E+00
  0.00000000E+00  0.00000000E+00  0.00000000E+00
  0.00000000E+00  0.00000000E+00  0.00000000E+00
  0.00000000E+00  0.00000000E+00  0.00000000E+00
  0.00000000E+00  0.00000000E+00  0.00000000E+00
  0.00000000E+00  0.00000000E+00  0.00000000E+00
  0.00000000E+00  0.00000000E+00  0.00000000E+00
  0.00000000E+00  0.00000000E+00  0.00000000E+00
  0.00000000E+00  0.00000000E+00  0.00000000E+00
  0.00000000E+00  0.00000000E+00  0.00000000E+00
