 La2 P1 I2                              
   1.00000000000000     
     4.2992774225734918    0.0000000000000000    0.0000000000000000
    -2.1496397057532115    3.7232885244673333    0.0000000000000000
     0.0000000000000000    0.0000000000000000   22.5038430292079994
   La   P    I 
     2     1     2
Direct
  0.3333335398870484  0.6666671080962683  0.5715713076367159
  0.6666662977430904  0.3333332142516096  0.4284286748938028
 -0.0000000479093225 -0.0000000754849134  0.5000000219336947
  0.6666670657757847  0.3333329956420276  0.6666293397366116
  0.3333331445033990  0.6666667574950078  0.3333706557991677
 
  0.00000000E+00  0.00000000E+00  0.00000000E+00
  0.00000000E+00  0.00000000E+00  0.00000000E+00
  0.00000000E+00  0.00000000E+00  0.00000000E+00
  0.00000000E+00  0.00000000E+00  0.00000000E+00
  0.00000000E+00  0.00000000E+00  0.00000000E+00
