CONTCAR\(9)                             
   1.00000000000000     
    12.9137001038000001    0.0000000000000000    0.0000000000000000
     0.0000000000000000   12.9135999679999998    0.0000000000000000
     0.0000000000000000    0.0000000000000000   24.0200996398999997
   Er   Te
    18    54
Direct
  0.1666699960000031 -0.0000000000000000  0.5848439722147876
 -0.0000000000000000  0.1666699960000031  0.4151560277852124
  0.5000000000000000  0.0000000000000000  0.5848439722147876
  0.3333300219999984  0.1666699960000031  0.4151560277852124
  0.8333299849999989 -0.0000000000000000  0.5848439722147876
  0.6666700150000011  0.1666699960000031  0.4151560277852124
  0.1666699960000031  0.3333300219999984  0.5848439722147876
 -0.0000000000000000  0.5000000000000000  0.4151560277852124
  0.5000000000000000  0.3333300219999984  0.5848439722147876
  0.3333300219999984  0.5000000000000000  0.4151560277852124
  0.8333299849999989  0.3333300219999984  0.5848439722147876
  0.6666700150000011  0.5000000000000000  0.4151560277852124
  0.1666699960000031  0.6666700150000011  0.5848439722147876
 -0.0000000000000000  0.8333299490000030  0.4151560277852124
  0.5000000000000000  0.6666700150000011  0.5848439722147876
  0.3333300219999984  0.8333299490000030  0.4151560277852124
  0.8333299849999989  0.6666700150000011  0.5848439722147876
  0.6666700150000011  0.8333299490000030  0.4151560277852124
 -0.0000000000000000 -0.0000000000000000  0.3122721976745361
  0.1666699960000031  0.1666699960000031  0.6877277623254678
 -0.0000000000000000  0.0000000000000000  0.6877277447585205
  0.1666699960000031  0.1666699960000031  0.3122722152414833
  0.1666699960000031  0.0000000000000000  0.4536779590950974
 -0.0000000000000000  0.1666699960000031  0.5463220809048989
  0.3333300219999984  0.0000000000000000  0.3122721976745361
  0.5000000000000000  0.1666699960000031  0.6877277623254678
  0.3333300219999984  0.0000000000000000  0.6877277447585205
  0.5000000000000000  0.1666699960000031  0.3122722152414833
  0.5000000000000000  0.0000000000000000  0.4536779590950974
  0.3333300219999984  0.1666699960000031  0.5463220809048989
  0.6666700150000011  0.0000000000000000  0.3122721976745361
  0.8333299849999989  0.1666699960000031  0.6877277623254678
  0.6666700150000011  0.0000000000000000  0.6877277447585205
  0.8333299849999989  0.1666699960000031  0.3122722152414833
  0.8333299849999989  0.0000000000000000  0.4536779590950974
  0.6666700150000011  0.1666699960000031  0.5463220809048989
 -0.0000000000000000  0.3333300219999984  0.3122721976745361
  0.1666699960000031  0.5000000000000000  0.6877277623254678
 -0.0000000000000000  0.3333300219999984  0.6877277447585205
  0.1666699960000031  0.5000000000000000  0.3122722152414833
  0.1666699960000031  0.3333300219999984  0.4536779590950974
 -0.0000000000000000  0.5000000000000000  0.5463220809048989
  0.3333300219999984  0.3333300219999984  0.3122721976745361
  0.5000000000000000  0.5000000000000000  0.6877277623254678
  0.3333300219999984  0.3333300219999984  0.6877277447585205
  0.5000000000000000  0.5000000000000000  0.3122722152414833
  0.5000000000000000  0.3333300219999984  0.4536779590950974
  0.3333300219999984  0.5000000000000000  0.5463220809048989
  0.6666700150000011  0.3333300219999984  0.3122721976745361
  0.8333299849999989  0.5000000000000000  0.6877277623254678
  0.6666700150000011  0.3333300219999984  0.6877277447585205
  0.8333299849999989  0.5000000000000000  0.3122722152414833
  0.8333299849999989  0.3333300219999984  0.4536779590950974
  0.6666700150000011  0.5000000000000000  0.5463220809048989
 -0.0000000000000000  0.6666700150000011  0.3122721976745361
  0.1666699960000031  0.8333299490000030  0.6877277623254678
 -0.0000000000000000  0.6666700150000011  0.6877277447585205
  0.1666699960000031  0.8333299490000030  0.3122722152414833
  0.1666699960000031  0.6666700150000011  0.4536779590950974
 -0.0000000000000000  0.8333299490000030  0.5463220809048989
  0.3333300219999984  0.6666700150000011  0.3122721976745361
  0.5000000000000000  0.8333299490000030  0.6877277623254678
  0.3333300219999984  0.6666700150000011  0.6877277447585205
  0.5000000000000000  0.8333299490000030  0.3122722152414833
  0.5000000000000000  0.6666700150000011  0.4536779590950974
  0.3333300219999984  0.8333299490000030  0.5463220809048989
  0.6666700150000011  0.6666700150000011  0.3122721976745361
  0.8333299849999989  0.8333299490000030  0.6877277623254678
  0.6666700150000011  0.6666700150000011  0.6877277447585205
  0.8333299849999989  0.8333299490000030  0.3122722152414833
  0.8333299849999989  0.6666700150000011  0.4536779590950974
  0.6666700150000011  0.8333299490000030  0.5463220809048989
 
  0.00000000E+00  0.00000000E+00  0.00000000E+00
  0.00000000E+00  0.00000000E+00  0.00000000E+00
  0.00000000E+00  0.00000000E+00  0.00000000E+00
  0.00000000E+00  0.00000000E+00  0.00000000E+00
  0.00000000E+00  0.00000000E+00  0.00000000E+00
  0.00000000E+00  0.00000000E+00  0.00000000E+00
  0.00000000E+00  0.00000000E+00  0.00000000E+00
  0.00000000E+00  0.00000000E+00  0.00000000E+00
  0.00000000E+00  0.00000000E+00  0.00000000E+00
  0.00000000E+00  0.00000000E+00  0.00000000E+00
  0.00000000E+00  0.00000000E+00  0.00000000E+00
  0.00000000E+00  0.00000000E+00  0.00000000E+00
  0.00000000E+00  0.00000000E+00  0.00000000E+00
  0.00000000E+00  0.00000000E+00  0.00000000E+00
  0.00000000E+00  0.00000000E+00  0.00000000E+00
  0.00000000E+00  0.00000000E+00  0.00000000E+00
  0.00000000E+00  0.00000000E+00  0.00000000E+00
  0.00000000E+00  0.00000000E+00  0.00000000E+00
  0.00000000E+00  0.00000000E+00  0.00000000E+00
  0.00000000E+00  0.00000000E+00  0.00000000E+00
  0.00000000E+00  0.00000000E+00  0.00000000E+00
  0.00000000E+00  0.00000000E+00  0.00000000E+00
  0.00000000E+00  0.00000000E+00  0.00000000E+00
  0.00000000E+00  0.00000000E+00  0.00000000E+00
  0.00000000E+00  0.00000000E+00  0.00000000E+00
  0.00000000E+00  0.00000000E+00  0.00000000E+00
  0.00000000E+00  0.00000000E+00  0.00000000E+00
  0.00000000E+00  0.00000000E+00  0.00000000E+00
  0.00000000E+00  0.00000000E+00  0.00000000E+00
  0.00000000E+00  0.00000000E+00  0.00000000E+00
  0.00000000E+00  0.00000000E+00  0.00000000E+00
  0.00000000E+00  0.00000000E+00  0.00000000E+00
  0.00000000E+00  0.00000000E+00  0.00000000E+00
  0.00000000E+00  0.00000000E+00  0.00000000E+00
  0.00000000E+00  0.00000000E+00  0.00000000E+00
  0.00000000E+00  0.00000000E+00  0.00000000E+00
  0.00000000E+00  0.00000000E+00  0.00000000E+00
  0.00000000E+00  0.00000000E+00  0.00000000E+00
  0.00000000E+00  0.00000000E+00  0.00000000E+00
  0.00000000E+00  0.00000000E+00  0.00000000E+00
  0.00000000E+00  0.00000000E+00  0.00000000E+00
  0.00000000E+00  0.00000000E+00  0.00000000E+00
  0.00000000E+00  0.00000000E+00  0.00000000E+00
  0.00000000E+00  0.00000000E+00  0.00000000E+00
  0.00000000E+00  0.00000000E+00  0.00000000E+00
  0.00000000E+00  0.00000000E+00  0.00000000E+00
  0.00000000E+00  0.00000000E+00  0.00000000E+00
  0.00000000E+00  0.00000000E+00  0.00000000E+00
  0.00000000E+00  0.00000000E+00  0.00000000E+00
  0.00000000E+00  0.00000000E+00  0.00000000E+00
  0.00000000E+00  0.00000000E+00  0.00000000E+00
  0.00000000E+00  0.00000000E+00  0.00000000E+00
  0.00000000E+00  0.00000000E+00  0.00000000E+00
  0.00000000E+00  0.00000000E+00  0.00000000E+00
  0.00000000E+00  0.00000000E+00  0.00000000E+00
  0.00000000E+00  0.00000000E+00  0.00000000E+00
  0.00000000E+00  0.00000000E+00  0.00000000E+00
  0.00000000E+00  0.00000000E+00  0.00000000E+00
  0.00000000E+00  0.00000000E+00  0.00000000E+00
  0.00000000E+00  0.00000000E+00  0.00000000E+00
  0.00000000E+00  0.00000000E+00  0.00000000E+00
  0.00000000E+00  0.00000000E+00  0.00000000E+00
  0.00000000E+00  0.00000000E+00  0.00000000E+00
  0.00000000E+00  0.00000000E+00  0.00000000E+00
  0.00000000E+00  0.00000000E+00  0.00000000E+00
  0.00000000E+00  0.00000000E+00  0.00000000E+00
  0.00000000E+00  0.00000000E+00  0.00000000E+00
  0.00000000E+00  0.00000000E+00  0.00000000E+00
  0.00000000E+00  0.00000000E+00  0.00000000E+00
  0.00000000E+00  0.00000000E+00  0.00000000E+00
  0.00000000E+00  0.00000000E+00  0.00000000E+00
  0.00000000E+00  0.00000000E+00  0.00000000E+00
