CONTCAR\(3)                             
   1.00000000000000     
    11.8599996566999994    0.0000000000000000    0.0000000000000000
     0.0000000000000000   16.8432006835999992    0.0000000000000000
     0.0000000000000000    0.0000000000000000   21.2530994415000016
   Y    C    I 
    24     6    30
Direct
  0.1666699900000026  0.0006500000000003  0.3885399870000015
  0.0000000000000000  0.0963200010000023  0.5003999910000019
  0.1666699900000026  0.4993499939999992  0.6114599679999984
  0.0000000000000000  0.4036799849999966  0.4996000089999981
  0.5000000000000000  0.0006500000000003  0.3885399870000015
  0.3333300099999974  0.0963200010000023  0.5003999910000019
  0.5000000000000000  0.4993499939999992  0.6114599679999984
  0.3333300099999974  0.4036799849999966  0.4996000089999981
  0.8333299689999976  0.0006500000000003  0.3885399870000015
  0.6666700310000024  0.0963200010000023  0.5003999910000019
  0.8333299689999976  0.4993499939999992  0.6114599679999984
  0.6666700310000024  0.4036799849999966  0.4996000089999981
  0.1666699900000026  0.5006500060000008  0.3885399870000015
  0.0000000000000000  0.5963199580000023  0.5003999910000019
  0.1666699900000026  0.9993499939999992  0.6114599679999984
  0.0000000000000000  0.9036800419999977  0.4996000089999981
  0.5000000000000000  0.5006500060000008  0.3885399870000015
  0.3333300099999974  0.5963199580000023  0.5003999910000019
  0.5000000000000000  0.9993499939999992  0.6114599679999984
  0.3333300099999974  0.9036800419999977  0.4996000089999981
  0.8333299689999976  0.5006500060000008  0.3885399870000015
  0.6666700310000024  0.5963199580000023  0.5003999910000019
  0.8333299689999976  0.9993499939999992  0.6114599679999984
  0.6666700310000024  0.9036800419999977  0.4996000089999981
  0.1666699900000026  0.0000000000000000  0.5000000000000000
  0.5000000000000000  0.0000000000000000  0.5000000000000000
  0.8333299689999976  0.0000000000000000  0.5000000000000000
  0.1666699900000026  0.5000000000000000  0.5000000000000000
  0.5000000000000000  0.5000000000000000  0.5000000000000000
  0.8333299689999976  0.5000000000000000  0.5000000000000000
  0.0000000000000000  0.1310699969999973  0.3542700209999978
  0.0000000000000000  0.3706299839999971  0.3530400049999969
  0.0000000000000000  0.1293700020000017  0.6469600169999978
  0.1666699900000026  0.2500000000000000  0.5000000000000000
  0.0000000000000000  0.3689300030000027  0.6457399860000024
  0.3333300099999974  0.1310699969999973  0.3542700209999978
  0.3333300099999974  0.3706299839999971  0.3530400049999969
  0.3333300099999974  0.1293700020000017  0.6469600169999978
  0.5000000000000000  0.2500000000000000  0.5000000000000000
  0.3333300099999974  0.3689300030000027  0.6457399860000024
  0.6666700310000024  0.1310699969999973  0.3542700209999978
  0.6666700310000024  0.3706299839999971  0.3530400049999969
  0.6666700310000024  0.1293700020000017  0.6469600169999978
  0.8333299689999976  0.2500000000000000  0.5000000000000000
  0.6666700310000024  0.3689300030000027  0.6457399860000024
  0.0000000000000000  0.6310700249999996  0.3542700209999978
  0.0000000000000000  0.8706300119999995  0.3530400049999969
  0.0000000000000000  0.6293699880000005  0.6469600169999978
  0.1666699900000026  0.7500000000000000  0.5000000000000000
  0.0000000000000000  0.8689299750000004  0.6457399860000024
  0.3333300099999974  0.6310700249999996  0.3542700209999978
  0.3333300099999974  0.8706300119999995  0.3530400049999969
  0.3333300099999974  0.6293699880000005  0.6469600169999978
  0.5000000000000000  0.7500000000000000  0.5000000000000000
  0.3333300099999974  0.8689299750000004  0.6457399860000024
  0.6666700310000024  0.6310700249999996  0.3542700209999978
  0.6666700310000024  0.8706300119999995  0.3530400049999969
  0.6666700310000024  0.6293699880000005  0.6469600169999978
  0.8333299689999976  0.7500000000000000  0.5000000000000000
  0.6666700310000024  0.8689299750000004  0.6457399860000024
 
  0.00000000E+00  0.00000000E+00  0.00000000E+00
  0.00000000E+00  0.00000000E+00  0.00000000E+00
  0.00000000E+00  0.00000000E+00  0.00000000E+00
  0.00000000E+00  0.00000000E+00  0.00000000E+00
  0.00000000E+00  0.00000000E+00  0.00000000E+00
  0.00000000E+00  0.00000000E+00  0.00000000E+00
  0.00000000E+00  0.00000000E+00  0.00000000E+00
  0.00000000E+00  0.00000000E+00  0.00000000E+00
  0.00000000E+00  0.00000000E+00  0.00000000E+00
  0.00000000E+00  0.00000000E+00  0.00000000E+00
  0.00000000E+00  0.00000000E+00  0.00000000E+00
  0.00000000E+00  0.00000000E+00  0.00000000E+00
  0.00000000E+00  0.00000000E+00  0.00000000E+00
  0.00000000E+00  0.00000000E+00  0.00000000E+00
  0.00000000E+00  0.00000000E+00  0.00000000E+00
  0.00000000E+00  0.00000000E+00  0.00000000E+00
  0.00000000E+00  0.00000000E+00  0.00000000E+00
  0.00000000E+00  0.00000000E+00  0.00000000E+00
  0.00000000E+00  0.00000000E+00  0.00000000E+00
  0.00000000E+00  0.00000000E+00  0.00000000E+00
  0.00000000E+00  0.00000000E+00  0.00000000E+00
  0.00000000E+00  0.00000000E+00  0.00000000E+00
  0.00000000E+00  0.00000000E+00  0.00000000E+00
  0.00000000E+00  0.00000000E+00  0.00000000E+00
  0.00000000E+00  0.00000000E+00  0.00000000E+00
  0.00000000E+00  0.00000000E+00  0.00000000E+00
  0.00000000E+00  0.00000000E+00  0.00000000E+00
  0.00000000E+00  0.00000000E+00  0.00000000E+00
  0.00000000E+00  0.00000000E+00  0.00000000E+00
  0.00000000E+00  0.00000000E+00  0.00000000E+00
  0.00000000E+00  0.00000000E+00  0.00000000E+00
  0.00000000E+00  0.00000000E+00  0.00000000E+00
  0.00000000E+00  0.00000000E+00  0.00000000E+00
  0.00000000E+00  0.00000000E+00  0.00000000E+00
  0.00000000E+00  0.00000000E+00  0.00000000E+00
  0.00000000E+00  0.00000000E+00  0.00000000E+00
  0.00000000E+00  0.00000000E+00  0.00000000E+00
  0.00000000E+00  0.00000000E+00  0.00000000E+00
  0.00000000E+00  0.00000000E+00  0.00000000E+00
  0.00000000E+00  0.00000000E+00  0.00000000E+00
  0.00000000E+00  0.00000000E+00  0.00000000E+00
  0.00000000E+00  0.00000000E+00  0.00000000E+00
  0.00000000E+00  0.00000000E+00  0.00000000E+00
  0.00000000E+00  0.00000000E+00  0.00000000E+00
  0.00000000E+00  0.00000000E+00  0.00000000E+00
  0.00000000E+00  0.00000000E+00  0.00000000E+00
  0.00000000E+00  0.00000000E+00  0.00000000E+00
  0.00000000E+00  0.00000000E+00  0.00000000E+00
  0.00000000E+00  0.00000000E+00  0.00000000E+00
  0.00000000E+00  0.00000000E+00  0.00000000E+00
  0.00000000E+00  0.00000000E+00  0.00000000E+00
  0.00000000E+00  0.00000000E+00  0.00000000E+00
  0.00000000E+00  0.00000000E+00  0.00000000E+00
  0.00000000E+00  0.00000000E+00  0.00000000E+00
  0.00000000E+00  0.00000000E+00  0.00000000E+00
  0.00000000E+00  0.00000000E+00  0.00000000E+00
  0.00000000E+00  0.00000000E+00  0.00000000E+00
  0.00000000E+00  0.00000000E+00  0.00000000E+00
  0.00000000E+00  0.00000000E+00  0.00000000E+00
  0.00000000E+00  0.00000000E+00  0.00000000E+00
