CONTCAR\(20)                            
   1.00000000000000     
    12.8978004455999997    0.0000000000000000    0.0000000000000000
    -6.4489002227999999   11.1698228388000000    0.0000000000000000
     0.0000000000000000    0.0000000000000000   22.5037994384999998
   La   P    I 
    18     9    18
Direct
  0.1111099960000033  0.2222199919999994  0.5715699880000003
  0.2222200009999966  0.1111099960000033  0.4284300119999997
  0.4444400020000003  0.2222199919999994  0.5715699880000003
  0.5555599890000025  0.1111099960000033  0.4284300119999997
  0.7777799899999991  0.2222199919999994  0.5715699880000003
  0.8888900319999991  0.1111099960000033  0.4284300119999997
  0.1111100070000006  0.5555600020000000  0.5715699880000003
  0.2222199919999994  0.4444399850000025  0.4284300119999997
  0.4444399950000033  0.5555600020000000  0.5715699880000003
  0.5555599799999982  0.4444399850000025  0.4284300119999997
  0.7777800009999964  0.5555600020000000  0.5715699880000003
  0.8888900600000014  0.4444399850000025  0.4284300119999997
  0.1111099880000026  0.8888900440000000  0.5715699880000003
  0.2222199950000032  0.7777800160000012  0.4284300119999997
  0.4444399939999997  0.8888900440000000  0.5715699880000003
  0.5555600020000000  0.7777800160000012  0.4284300119999997
  0.7777800189999979  0.8888900440000000  0.5715699880000003
  0.8888900449999966  0.7777800160000012  0.4284300119999997
  0.0000000000000000  0.0000000000000000  0.5000000000000000
  0.3333300059999971  0.0000000000000000  0.5000000000000000
  0.6666699940000029  0.0000000000000000  0.5000000000000000
  0.9999999970000033  0.3333299990000000  0.5000000000000000
  0.3333300030000004  0.3333299990000000  0.5000000000000000
  0.6666699909999991  0.3333299990000000  0.5000000000000000
  0.0000000180000015  0.6666700299999988  0.5000000000000000
  0.3333300239999986  0.6666700299999988  0.5000000000000000
  0.6666700119999973  0.6666700299999988  0.5000000000000000
  0.2222200009999966  0.1111099960000033  0.6666300090000021
  0.1111099960000033  0.2222199919999994  0.3333699909999979
  0.5555599890000025  0.1111099960000033  0.6666300090000021
  0.4444400020000003  0.2222199919999994  0.3333699909999979
  0.8888900319999991  0.1111099960000033  0.6666300090000021
  0.7777799899999991  0.2222199919999994  0.3333699909999979
  0.2222199919999994  0.4444399850000025  0.6666300090000021
  0.1111100070000006  0.5555600020000000  0.3333699909999979
  0.5555599799999982  0.4444399850000025  0.6666300090000021
  0.4444399950000033  0.5555600020000000  0.3333699909999979
  0.8888900600000014  0.4444399850000025  0.6666300090000021
  0.7777800009999964  0.5555600020000000  0.3333699909999979
  0.2222199950000032  0.7777800160000012  0.6666300090000021
  0.1111099880000026  0.8888900440000000  0.3333699909999979
  0.5555600020000000  0.7777800160000012  0.6666300090000021
  0.4444399939999997  0.8888900440000000  0.3333699909999979
  0.8888900449999966  0.7777800160000012  0.6666300090000021
  0.7777800189999979  0.8888900440000000  0.3333699909999979
 
  0.00000000E+00  0.00000000E+00  0.00000000E+00
  0.00000000E+00  0.00000000E+00  0.00000000E+00
  0.00000000E+00  0.00000000E+00  0.00000000E+00
  0.00000000E+00  0.00000000E+00  0.00000000E+00
  0.00000000E+00  0.00000000E+00  0.00000000E+00
  0.00000000E+00  0.00000000E+00  0.00000000E+00
  0.00000000E+00  0.00000000E+00  0.00000000E+00
  0.00000000E+00  0.00000000E+00  0.00000000E+00
  0.00000000E+00  0.00000000E+00  0.00000000E+00
  0.00000000E+00  0.00000000E+00  0.00000000E+00
  0.00000000E+00  0.00000000E+00  0.00000000E+00
  0.00000000E+00  0.00000000E+00  0.00000000E+00
  0.00000000E+00  0.00000000E+00  0.00000000E+00
  0.00000000E+00  0.00000000E+00  0.00000000E+00
  0.00000000E+00  0.00000000E+00  0.00000000E+00
  0.00000000E+00  0.00000000E+00  0.00000000E+00
  0.00000000E+00  0.00000000E+00  0.00000000E+00
  0.00000000E+00  0.00000000E+00  0.00000000E+00
  0.00000000E+00  0.00000000E+00  0.00000000E+00
  0.00000000E+00  0.00000000E+00  0.00000000E+00
  0.00000000E+00  0.00000000E+00  0.00000000E+00
  0.00000000E+00  0.00000000E+00  0.00000000E+00
  0.00000000E+00  0.00000000E+00  0.00000000E+00
  0.00000000E+00  0.00000000E+00  0.00000000E+00
  0.00000000E+00  0.00000000E+00  0.00000000E+00
  0.00000000E+00  0.00000000E+00  0.00000000E+00
  0.00000000E+00  0.00000000E+00  0.00000000E+00
  0.00000000E+00  0.00000000E+00  0.00000000E+00
  0.00000000E+00  0.00000000E+00  0.00000000E+00
  0.00000000E+00  0.00000000E+00  0.00000000E+00
  0.00000000E+00  0.00000000E+00  0.00000000E+00
  0.00000000E+00  0.00000000E+00  0.00000000E+00
  0.00000000E+00  0.00000000E+00  0.00000000E+00
  0.00000000E+00  0.00000000E+00  0.00000000E+00
  0.00000000E+00  0.00000000E+00  0.00000000E+00
  0.00000000E+00  0.00000000E+00  0.00000000E+00
  0.00000000E+00  0.00000000E+00  0.00000000E+00
  0.00000000E+00  0.00000000E+00  0.00000000E+00
  0.00000000E+00  0.00000000E+00  0.00000000E+00
  0.00000000E+00  0.00000000E+00  0.00000000E+00
  0.00000000E+00  0.00000000E+00  0.00000000E+00
  0.00000000E+00  0.00000000E+00  0.00000000E+00
  0.00000000E+00  0.00000000E+00  0.00000000E+00
  0.00000000E+00  0.00000000E+00  0.00000000E+00
  0.00000000E+00  0.00000000E+00  0.00000000E+00
