 Te2 Pt2                                
   1.00000000000000     
     3.9222745842813653    0.0000000000000000    0.0000000000000000
     1.9611372921406827    3.3967912867863252    0.0000000000000000
     0.0000000000000000    0.0000000000000000   18.9503211789199995
   Te   Pt
     2     2
Direct
  0.6666667117354876  0.6666667910692965  0.6090509051238087
  0.6666667664980537  0.6666666864299842  0.3909337192232059
  0.3333334331637232  0.3333334094566140  0.5408094700206405
  0.0000000886027323  0.0000001130441021  0.4592059056323450
 
  0.00000000E+00  0.00000000E+00  0.00000000E+00
  0.00000000E+00  0.00000000E+00  0.00000000E+00
  0.00000000E+00  0.00000000E+00  0.00000000E+00
  0.00000000E+00  0.00000000E+00  0.00000000E+00
