CONTCAR\(2)                             
   1.00000000000000     
    11.1612997054999994    0.0000000000000000    0.0000000000000000
     0.0000000000000000   15.5193004608000003    0.0000000000000000
     0.0000000000000000    0.0000000000000000   19.4729003905999996
   Nb   Te   Pd   O    H 
     6    30     6     2     1
Direct
  0.1719341190928887  0.8387840638528985  0.4976193333820191
  0.1661778747029601  0.3359142779027380  0.5090538338538622
  0.5055439853481403  0.8403674857965413  0.4965615311937910
  0.5021092334698238  0.3376907996964320  0.5082241182302312
  0.8387400150155315  0.8389374893552102  0.4966655400025104
  0.8357440960919575  0.3369119354270609  0.5073198904969374
  0.0049891629286165  0.9376560734913610  0.5761298654974354
  0.0025880618579706  0.4359445533535933  0.4289674010900768
  0.1707682170696430  0.0042137995056422  0.4267800356232314
  0.1736426578599080  0.5061995383719875  0.5673221246345506
  0.9995298169730447  0.3318505584516060  0.6199010662347035
  0.0066736391649940  0.8378114544636617  0.3854217675638694
  0.0045172947739331  0.7403024093603463  0.5760013776187236
  0.0022999507805537  0.2373021589948365  0.4284802613465430
  0.1739377100887296  0.6729047194382787  0.4269194721792076
  0.1697568359871084  0.1704481942580998  0.5790594890908665
  0.3387179924027137  0.9390115856046606  0.5759974080927037
  0.3332675343491047  0.4382925586622122  0.4308152647537185
  0.5034656798084711  0.0049178990013417  0.4242677839149991
  0.5075383883689426  0.5031471927220750  0.5799498622954573
  0.3379384267356471  0.3359718895048118  0.6203680866364607
  0.3375838843001020  0.8404482965282227  0.3853730129122255
  0.3412885750306316  0.7410352381896246  0.5753930203932285
  0.3344791815472021  0.2384587809794922  0.4299604159716210
  0.5091879431733872  0.6759187298576919  0.4245927279610768
  0.5045654456029993  0.1716755167489268  0.5785026712178265
  0.6723120706126906  0.9384777503735080  0.5753369433045918
  0.6683534438549472  0.4369862899573178  0.4293671231907012
  0.8378323672461860  0.0046664478906777  0.4256331559613926
  0.8355856531538350  0.5029782906698514  0.5780084098546112
  0.6697471011881007  0.3374319751514676  0.6192425917907798
  0.6717889895752762  0.8387637148031502  0.3848663312647389
  0.6717315171483875  0.7406161193581866  0.5749280234102514
  0.6681472030414355  0.2391342574629078  0.4281278151863432
  0.8376666789411615  0.6725513689439211  0.4263689205446610
  0.8348396981218471  0.1715275469737989  0.5780372612205937
  0.0013591895065943  0.5893108271459440  0.5023548991274183
  0.0033346550298674  0.0881111748096544  0.5028785060560637
  0.3472244919815424  0.5915865652117418  0.5020245004038912
  0.3377735698620796  0.0883496878773684  0.5022061811735909
  0.6704904914636671  0.5885262839972256  0.5021641659570477
  0.6695468761906014  0.0883643667409260  0.5011724370393580
  0.1794867014704451  0.4760711251952898  0.7225663123414918
  0.1231224298741651  0.5306423116014685  0.6715824070836263
  0.2491612442121607  0.5110867463162592  0.7356970039009241
 
  0.00000000E+00  0.00000000E+00  0.00000000E+00
  0.00000000E+00  0.00000000E+00  0.00000000E+00
  0.00000000E+00  0.00000000E+00  0.00000000E+00
  0.00000000E+00  0.00000000E+00  0.00000000E+00
  0.00000000E+00  0.00000000E+00  0.00000000E+00
  0.00000000E+00  0.00000000E+00  0.00000000E+00
  0.00000000E+00  0.00000000E+00  0.00000000E+00
  0.00000000E+00  0.00000000E+00  0.00000000E+00
  0.00000000E+00  0.00000000E+00  0.00000000E+00
  0.00000000E+00  0.00000000E+00  0.00000000E+00
  0.00000000E+00  0.00000000E+00  0.00000000E+00
  0.00000000E+00  0.00000000E+00  0.00000000E+00
  0.00000000E+00  0.00000000E+00  0.00000000E+00
  0.00000000E+00  0.00000000E+00  0.00000000E+00
  0.00000000E+00  0.00000000E+00  0.00000000E+00
  0.00000000E+00  0.00000000E+00  0.00000000E+00
  0.00000000E+00  0.00000000E+00  0.00000000E+00
  0.00000000E+00  0.00000000E+00  0.00000000E+00
  0.00000000E+00  0.00000000E+00  0.00000000E+00
  0.00000000E+00  0.00000000E+00  0.00000000E+00
  0.00000000E+00  0.00000000E+00  0.00000000E+00
  0.00000000E+00  0.00000000E+00  0.00000000E+00
  0.00000000E+00  0.00000000E+00  0.00000000E+00
  0.00000000E+00  0.00000000E+00  0.00000000E+00
  0.00000000E+00  0.00000000E+00  0.00000000E+00
  0.00000000E+00  0.00000000E+00  0.00000000E+00
  0.00000000E+00  0.00000000E+00  0.00000000E+00
  0.00000000E+00  0.00000000E+00  0.00000000E+00
  0.00000000E+00  0.00000000E+00  0.00000000E+00
  0.00000000E+00  0.00000000E+00  0.00000000E+00
  0.00000000E+00  0.00000000E+00  0.00000000E+00
  0.00000000E+00  0.00000000E+00  0.00000000E+00
  0.00000000E+00  0.00000000E+00  0.00000000E+00
  0.00000000E+00  0.00000000E+00  0.00000000E+00
  0.00000000E+00  0.00000000E+00  0.00000000E+00
  0.00000000E+00  0.00000000E+00  0.00000000E+00
  0.00000000E+00  0.00000000E+00  0.00000000E+00
  0.00000000E+00  0.00000000E+00  0.00000000E+00
  0.00000000E+00  0.00000000E+00  0.00000000E+00
  0.00000000E+00  0.00000000E+00  0.00000000E+00
  0.00000000E+00  0.00000000E+00  0.00000000E+00
  0.00000000E+00  0.00000000E+00  0.00000000E+00
  0.00000000E+00  0.00000000E+00  0.00000000E+00
  0.00000000E+00  0.00000000E+00  0.00000000E+00
  0.00000000E+00  0.00000000E+00  0.00000000E+00
