CONTCAR\(3)                             
   1.00000000000000     
    13.5726995467999991    0.0000000000000000    0.0000000000000000
     0.0000000000000000   13.5726995467999991    0.0000000000000000
     0.0000000000000000    0.0000000000000000   18.0848999022999983
   Pt   Pb   O    H 
     8    32     1     1
Direct
  0.0003028265485143  0.9982827956443473  0.4988904394671185
  0.2518082748605603  0.2487905793888095  0.4990788693876984
  0.4980043202935335  0.9993574153814434  0.4988483514144618
  0.7535541324704572  0.2463743494803362  0.4936835162472151
  0.0050002340589367  0.4964958978505272  0.4934844280125617
  0.2503303732792890  0.7513027547442743  0.4990243188292168
  0.5041207278997099  0.5011671911302140  0.5076936282944250
  0.7488811759289645  0.7456188821160828  0.5079706830578748
  0.3377600607132955  0.4175964131831399  0.4220978862714895
  0.0888708172680647  0.3311717654612781  0.4153549928190918
  0.0870769472941160  0.1629883298438252  0.5797190078689987
  0.4171581893861238  0.3342171938583889  0.5834571672999236
  0.1679526919446831  0.4155230926081463  0.5789095905565314
  0.3354347668299575  0.0851761778228841  0.5811196009577119
  0.1657598926178614  0.0826264470784055  0.4167045170770760
  0.4174049708179463  0.1652536657082784  0.4180163958497599
  0.8356301565881746  0.4150206724919920  0.4156429866258839
  0.5845525970113438  0.3357474361893457  0.4222471623708951
  0.5862003548690672  0.1670174477421172  0.5768159377043943
  0.9180280364929382  0.3325952633991941  0.5756268556769758
  0.6692279531102102  0.4115558982918889  0.5881442364164680
  0.8340249282502011  0.0833457962944268  0.5790522109427915
  0.6634712876316345  0.0811866679573944  0.4158348756215022
  0.9195858139037437  0.1624780248047976  0.4162958263809667
  0.3358278238554459  0.9133892702534762  0.4146717652777733
  0.0835048013597287  0.8325389240843409  0.4188299875830086
  0.0831836992708540  0.6634688151236302  0.5769380644757031
  0.4103963148506483  0.8389486375960660  0.5810476737865622
  0.1646100059616791  0.9150284933871190  0.5812131820371944
  0.3343878952339954  0.5866604330053369  0.5798945482362432
  0.1696086943384855  0.5867796098379395  0.4147215853724642
  0.4167182618206758  0.6638355494876241  0.4178852356514675
  0.8310682028367777  0.9121674577809923  0.4222791218253326
  0.5862403985180751  0.8346644124424448  0.4184063144456581
  0.5827815855065658  0.6656587888206511  0.5946138974259366
  0.9172576420291162  0.8343037683234636  0.5834538509010742
  0.6634594461475072  0.9153361547670549  0.5801139062307850
  0.8387968776948186  0.5807112352916197  0.5874559576894496
  0.6666132845896343  0.5827313889124796  0.4290732914150143
  0.9139432090836752  0.6646444256186681  0.4221352164981125
  0.6748480617067667  0.5743658699847964  0.6797373713913004
  0.6609520161262386  0.5874963428107678  0.7317955136058680
 
  0.00000000E+00  0.00000000E+00  0.00000000E+00
  0.00000000E+00  0.00000000E+00  0.00000000E+00
  0.00000000E+00  0.00000000E+00  0.00000000E+00
  0.00000000E+00  0.00000000E+00  0.00000000E+00
  0.00000000E+00  0.00000000E+00  0.00000000E+00
  0.00000000E+00  0.00000000E+00  0.00000000E+00
  0.00000000E+00  0.00000000E+00  0.00000000E+00
  0.00000000E+00  0.00000000E+00  0.00000000E+00
  0.00000000E+00  0.00000000E+00  0.00000000E+00
  0.00000000E+00  0.00000000E+00  0.00000000E+00
  0.00000000E+00  0.00000000E+00  0.00000000E+00
  0.00000000E+00  0.00000000E+00  0.00000000E+00
  0.00000000E+00  0.00000000E+00  0.00000000E+00
  0.00000000E+00  0.00000000E+00  0.00000000E+00
  0.00000000E+00  0.00000000E+00  0.00000000E+00
  0.00000000E+00  0.00000000E+00  0.00000000E+00
  0.00000000E+00  0.00000000E+00  0.00000000E+00
  0.00000000E+00  0.00000000E+00  0.00000000E+00
  0.00000000E+00  0.00000000E+00  0.00000000E+00
  0.00000000E+00  0.00000000E+00  0.00000000E+00
  0.00000000E+00  0.00000000E+00  0.00000000E+00
  0.00000000E+00  0.00000000E+00  0.00000000E+00
  0.00000000E+00  0.00000000E+00  0.00000000E+00
  0.00000000E+00  0.00000000E+00  0.00000000E+00
  0.00000000E+00  0.00000000E+00  0.00000000E+00
  0.00000000E+00  0.00000000E+00  0.00000000E+00
  0.00000000E+00  0.00000000E+00  0.00000000E+00
  0.00000000E+00  0.00000000E+00  0.00000000E+00
  0.00000000E+00  0.00000000E+00  0.00000000E+00
  0.00000000E+00  0.00000000E+00  0.00000000E+00
  0.00000000E+00  0.00000000E+00  0.00000000E+00
  0.00000000E+00  0.00000000E+00  0.00000000E+00
  0.00000000E+00  0.00000000E+00  0.00000000E+00
  0.00000000E+00  0.00000000E+00  0.00000000E+00
  0.00000000E+00  0.00000000E+00  0.00000000E+00
  0.00000000E+00  0.00000000E+00  0.00000000E+00
  0.00000000E+00  0.00000000E+00  0.00000000E+00
  0.00000000E+00  0.00000000E+00  0.00000000E+00
  0.00000000E+00  0.00000000E+00  0.00000000E+00
  0.00000000E+00  0.00000000E+00  0.00000000E+00
  0.00000000E+00  0.00000000E+00  0.00000000E+00
  0.00000000E+00  0.00000000E+00  0.00000000E+00
