CONTCAR\(5)                             
   1.00000000000000     
    15.7967996596999996    0.0000000000000000    0.0000000000000000
    -7.8983998298999998   13.6804298037999992    0.0000000000000000
     0.0000000000000000    0.0000000000000000   18.1074008942000013
   Co   I    O 
    16    32     1
Direct
  0.0013917210694146  0.0016132874906130  0.5005954934262336
  0.2535094884070350  0.0023364209242464  0.5043382172250901
  0.5029006233652902  0.0056641826095090  0.5045367093831274
  0.7510964834575522  0.9981061463898691  0.4996717628463374
  0.0050150163844450  0.2573303458618577  0.4958902887823109
  0.2506294141415857  0.2515704528000927  0.5056480854210871
  0.5015034441933345  0.2536259637469607  0.5023728700396413
  0.7493950236620952  0.2484273060337952  0.5002441348521224
  0.0041337329853112  0.4970341804996120  0.4961706118694830
  0.2167810399571589  0.4832811124806092  0.4911837731126216
  0.5043364712689303  0.5055531390786512  0.5006781698712488
  0.7490792878356156  0.4999601769651607  0.4987602423248552
  0.0019452663919437  0.7499391853887430  0.5008772156564624
  0.2541008017110160  0.7494614018911206  0.5044081120158660
  0.5040495469745463  0.7490343942415549  0.5010897467611138
  0.7561874403540626  0.7521305250594175  0.4989312363977850
  0.0840832483843385  0.1632509493569015  0.4194748926854101
  0.1601600658844513  0.0804209580640358  0.5849294342601317
  0.3407600988861418  0.1714674954465005  0.4213893108657102
  0.4214999071947234  0.0902930549504819  0.5877438043072357
  0.5792386278513764  0.1677159957488382  0.4186350223815521
  0.6712688710021133  0.0799616400169051  0.5841738182348016
  0.8273172259392637  0.1579262654044268  0.4167649727312276
  0.9155447481875938  0.0783495274321743  0.5775338090338340
  0.0724307883753142  0.4100103134563645  0.3993207664280916
  0.1670882274302358  0.3378212875228622  0.5888346785272224
  0.3373706517744088  0.4259907973307748  0.4243499191854267
  0.4231152177381975  0.3426624104955356  0.5828084000599913
  0.5839467099289136  0.4208028273379373  0.4220647926036106
  0.6655070961083956  0.3371001639126961  0.5792904713121870
  0.8300788180352422  0.4206263438015183  0.4170090374302938
  0.9191352332709292  0.3343162294932112  0.5837651513713823
  0.0952213835012226  0.6721660100012843  0.4205950547354481
  0.1692854383556327  0.5871667980963924  0.5832171034836475
  0.3351822085065902  0.6674966466566256  0.4273028049381021
  0.4430329194640317  0.5961666199187124  0.5791296861660672
  0.5819672369648234  0.6647860596383479  0.4164604268255767
  0.6679216394347842  0.5795450634210618  0.5776950721547021
  0.8328471463043872  0.6602492483844307  0.4157079512227344
  0.9090717609034558  0.5800005987046544  0.5810471470404711
  0.0814561248622320  0.9216554000721466  0.4196217388051557
  0.1730638798473413  0.8293250046971710  0.5850499948068445
  0.3329507740957717  0.9096849969682458  0.4228585333377349
  0.4158391409747225  0.8264285288115990  0.5845334770283174
  0.5866352716630056  0.9118561551327885  0.4216756169647725
  0.6675228118865026  0.8372184768774601  0.5787833070559077
  0.8395105622545297  0.9211058787294004  0.4192655852687922
  0.9231753344732957  0.8408569987912899  0.5826721526552043
  0.5240558363581983  0.6369265718665255  0.6614093591087291
 
  0.00000000E+00  0.00000000E+00  0.00000000E+00
  0.00000000E+00  0.00000000E+00  0.00000000E+00
  0.00000000E+00  0.00000000E+00  0.00000000E+00
  0.00000000E+00  0.00000000E+00  0.00000000E+00
  0.00000000E+00  0.00000000E+00  0.00000000E+00
  0.00000000E+00  0.00000000E+00  0.00000000E+00
  0.00000000E+00  0.00000000E+00  0.00000000E+00
  0.00000000E+00  0.00000000E+00  0.00000000E+00
  0.00000000E+00  0.00000000E+00  0.00000000E+00
  0.00000000E+00  0.00000000E+00  0.00000000E+00
  0.00000000E+00  0.00000000E+00  0.00000000E+00
  0.00000000E+00  0.00000000E+00  0.00000000E+00
  0.00000000E+00  0.00000000E+00  0.00000000E+00
  0.00000000E+00  0.00000000E+00  0.00000000E+00
  0.00000000E+00  0.00000000E+00  0.00000000E+00
  0.00000000E+00  0.00000000E+00  0.00000000E+00
  0.00000000E+00  0.00000000E+00  0.00000000E+00
  0.00000000E+00  0.00000000E+00  0.00000000E+00
  0.00000000E+00  0.00000000E+00  0.00000000E+00
  0.00000000E+00  0.00000000E+00  0.00000000E+00
  0.00000000E+00  0.00000000E+00  0.00000000E+00
  0.00000000E+00  0.00000000E+00  0.00000000E+00
  0.00000000E+00  0.00000000E+00  0.00000000E+00
  0.00000000E+00  0.00000000E+00  0.00000000E+00
  0.00000000E+00  0.00000000E+00  0.00000000E+00
  0.00000000E+00  0.00000000E+00  0.00000000E+00
  0.00000000E+00  0.00000000E+00  0.00000000E+00
  0.00000000E+00  0.00000000E+00  0.00000000E+00
  0.00000000E+00  0.00000000E+00  0.00000000E+00
  0.00000000E+00  0.00000000E+00  0.00000000E+00
  0.00000000E+00  0.00000000E+00  0.00000000E+00
  0.00000000E+00  0.00000000E+00  0.00000000E+00
  0.00000000E+00  0.00000000E+00  0.00000000E+00
  0.00000000E+00  0.00000000E+00  0.00000000E+00
  0.00000000E+00  0.00000000E+00  0.00000000E+00
  0.00000000E+00  0.00000000E+00  0.00000000E+00
  0.00000000E+00  0.00000000E+00  0.00000000E+00
  0.00000000E+00  0.00000000E+00  0.00000000E+00
  0.00000000E+00  0.00000000E+00  0.00000000E+00
  0.00000000E+00  0.00000000E+00  0.00000000E+00
  0.00000000E+00  0.00000000E+00  0.00000000E+00
  0.00000000E+00  0.00000000E+00  0.00000000E+00
  0.00000000E+00  0.00000000E+00  0.00000000E+00
  0.00000000E+00  0.00000000E+00  0.00000000E+00
  0.00000000E+00  0.00000000E+00  0.00000000E+00
  0.00000000E+00  0.00000000E+00  0.00000000E+00
  0.00000000E+00  0.00000000E+00  0.00000000E+00
  0.00000000E+00  0.00000000E+00  0.00000000E+00
  0.00000000E+00  0.00000000E+00  0.00000000E+00
