CONTCAR\(3)                             
   1.00000000000000     
    13.2834997176999998    0.0000000000000000    0.0000000000000000
     0.0000000000000000   13.2517004013000008    0.0000000000000000
     0.0000000000000000    0.0000000000000000   28.4766006470000015
   Bi   I    O 
    48    12     1
Direct
 -0.0000000000000000  0.9385715437310398  0.5984653792630625
 -0.0000000000000000  0.0571694624845287  0.3993781614722684
  0.1630321649179583  0.7951740331511867  0.3618363545986383
  0.1659184072832466  0.3372235691825223  0.4410264882604232
 -0.0000000000000000  0.1628655278494025  0.5697897345273776
 -0.0000000000000000  0.6099518426403461  0.4879721409856233
 -0.0000000000000000  0.8395067802109506  0.4374353120353372
 -0.0000000000000000  0.5196576644452695  0.3127375668462864
  0.1659504956116157  0.1123092124567762  0.4694122505168180
  0.1663565846958546  0.6646618969937634  0.5575061054109389
 -0.0000000000000000  0.3838713390686133  0.5120443977701281
  0.1694330096529227  0.8904543457852245  0.5301173732920319
  0.1647617092003210  0.2086647026941177  0.6413581488195402
  0.1652297334105552  0.4318087448119866  0.6150091880309086
  0.1643030968725567  0.5704530584197887  0.3853667975843770
 -0.0000000000000000  0.4814600622306387  0.6870590318111047
  0.3520622847584972  0.9429062772639587  0.6062844159561206
  0.3334845525101104  0.0568600982736827  0.4009867346572972
  0.5000000000000000  0.7943734146662887  0.3595360601104354
  0.5000000000000000  0.3337866997904702  0.4416991855852422
  0.3276887106409148  0.1636351617114316  0.5694495593929406
  0.3322518714671954  0.6092140096035403  0.4880879255354952
  0.3323313147405039  0.8340143959669141  0.4320123147511757
  0.3322382166463129  0.5228518507888876  0.3143276189257990
  0.5000000000000000  0.1078967765514912  0.4712372090926877
  0.5000000000000000  0.6503643113312602  0.5590409241604747
  0.3332707180463789  0.3816915613811611  0.5117394915236758
  0.5000000000000000  0.8805299158651286  0.5298281801138749
  0.5000000000000000  0.1774750302044137  0.6428441023215563
  0.5000000000000000  0.4311092252499473  0.6118539572616996
  0.5000000000000000  0.5711270178917869  0.3856390578818372
  0.3363166841590475  0.4821776611186240  0.6843856151425320
  0.6479377512415058  0.9429062772639587  0.6062844159561206
  0.6665154834898924  0.0568600982736827  0.4009867346572972
  0.8369677810820442  0.7951740331511867  0.3618363545986383
  0.8340815387167562  0.3372235691825223  0.4410264882604232
  0.6723113253590882  0.1636351617114316  0.5694495593929406
  0.6677481645328075  0.6092140096035403  0.4880879255354952
  0.6676687212594988  0.8340143959669141  0.4320123147511757
  0.6677618193536902  0.5228518507888876  0.3143276189257990
  0.8340494503883870  0.1123092124567762  0.4694122505168180
  0.8336433613041480  0.6646618969937634  0.5575061054109389
  0.6667293179536237  0.3816915613811611  0.5117394915236758
  0.8305669363470799  0.8904543457852245  0.5301173732920319
  0.8352382367996816  0.2086647026941177  0.6413581488195402
  0.8347702125894475  0.4318087448119866  0.6150091880309086
  0.8356968491274459  0.5704530584197887  0.3853667975843770
  0.6636833518409555  0.4821776611186240  0.6843856151425320
 -0.0000000000000000  0.2699297435230709  0.7330660279322436
 -0.0000000000000000  0.7295600424071270  0.2672975222629849
 -0.0000000000000000  0.2922172817008238  0.3429088833915930
 -0.0000000000000000  0.7074447972768566  0.6572027302934002
  0.3384703044337994  0.2724946642574901  0.7311646800832906
  0.3318393497475733  0.7368586668134187  0.2697001667293518
  0.3330972333934190  0.2957178957141643  0.3426271410343977
  0.3315544179866726  0.7114451665956564  0.6572002808372551
  0.6615297315661967  0.2724946642574901  0.7311646800832906
  0.6681606862524296  0.7368586668134187  0.2697001667293518
  0.6669028026065841  0.2957178957141643  0.3426271410343977
  0.6684456180133306  0.7114451665956564  0.6572002808372551
  0.4999000270000025  0.0100076059119563  0.6358774457147601
 
  0.00000000E+00  0.00000000E+00  0.00000000E+00
  0.00000000E+00  0.00000000E+00  0.00000000E+00
  0.00000000E+00  0.00000000E+00  0.00000000E+00
  0.00000000E+00  0.00000000E+00  0.00000000E+00
  0.00000000E+00  0.00000000E+00  0.00000000E+00
  0.00000000E+00  0.00000000E+00  0.00000000E+00
  0.00000000E+00  0.00000000E+00  0.00000000E+00
  0.00000000E+00  0.00000000E+00  0.00000000E+00
  0.00000000E+00  0.00000000E+00  0.00000000E+00
  0.00000000E+00  0.00000000E+00  0.00000000E+00
  0.00000000E+00  0.00000000E+00  0.00000000E+00
  0.00000000E+00  0.00000000E+00  0.00000000E+00
  0.00000000E+00  0.00000000E+00  0.00000000E+00
  0.00000000E+00  0.00000000E+00  0.00000000E+00
  0.00000000E+00  0.00000000E+00  0.00000000E+00
  0.00000000E+00  0.00000000E+00  0.00000000E+00
  0.00000000E+00  0.00000000E+00  0.00000000E+00
  0.00000000E+00  0.00000000E+00  0.00000000E+00
  0.00000000E+00  0.00000000E+00  0.00000000E+00
  0.00000000E+00  0.00000000E+00  0.00000000E+00
  0.00000000E+00  0.00000000E+00  0.00000000E+00
  0.00000000E+00  0.00000000E+00  0.00000000E+00
  0.00000000E+00  0.00000000E+00  0.00000000E+00
  0.00000000E+00  0.00000000E+00  0.00000000E+00
  0.00000000E+00  0.00000000E+00  0.00000000E+00
  0.00000000E+00  0.00000000E+00  0.00000000E+00
  0.00000000E+00  0.00000000E+00  0.00000000E+00
  0.00000000E+00  0.00000000E+00  0.00000000E+00
  0.00000000E+00  0.00000000E+00  0.00000000E+00
  0.00000000E+00  0.00000000E+00  0.00000000E+00
  0.00000000E+00  0.00000000E+00  0.00000000E+00
  0.00000000E+00  0.00000000E+00  0.00000000E+00
  0.00000000E+00  0.00000000E+00  0.00000000E+00
  0.00000000E+00  0.00000000E+00  0.00000000E+00
  0.00000000E+00  0.00000000E+00  0.00000000E+00
  0.00000000E+00  0.00000000E+00  0.00000000E+00
  0.00000000E+00  0.00000000E+00  0.00000000E+00
  0.00000000E+00  0.00000000E+00  0.00000000E+00
  0.00000000E+00  0.00000000E+00  0.00000000E+00
  0.00000000E+00  0.00000000E+00  0.00000000E+00
  0.00000000E+00  0.00000000E+00  0.00000000E+00
  0.00000000E+00  0.00000000E+00  0.00000000E+00
  0.00000000E+00  0.00000000E+00  0.00000000E+00
  0.00000000E+00  0.00000000E+00  0.00000000E+00
  0.00000000E+00  0.00000000E+00  0.00000000E+00
  0.00000000E+00  0.00000000E+00  0.00000000E+00
  0.00000000E+00  0.00000000E+00  0.00000000E+00
  0.00000000E+00  0.00000000E+00  0.00000000E+00
  0.00000000E+00  0.00000000E+00  0.00000000E+00
  0.00000000E+00  0.00000000E+00  0.00000000E+00
  0.00000000E+00  0.00000000E+00  0.00000000E+00
  0.00000000E+00  0.00000000E+00  0.00000000E+00
  0.00000000E+00  0.00000000E+00  0.00000000E+00
  0.00000000E+00  0.00000000E+00  0.00000000E+00
  0.00000000E+00  0.00000000E+00  0.00000000E+00
  0.00000000E+00  0.00000000E+00  0.00000000E+00
  0.00000000E+00  0.00000000E+00  0.00000000E+00
  0.00000000E+00  0.00000000E+00  0.00000000E+00
  0.00000000E+00  0.00000000E+00  0.00000000E+00
  0.00000000E+00  0.00000000E+00  0.00000000E+00
  0.00000000E+00  0.00000000E+00  0.00000000E+00
