CONTCAR\(2)                             
   1.00000000000000     
    10.0475997924999998    0.0000000000000000    0.0000000000000000
    -1.1209227180000001   12.1269055328000004    0.0000000000000000
     0.0000000000000000    0.0000000000000000   21.6054000853999995
   Li   Cu   F    O 
    16    16    56     1
Direct
  0.1546458868273962  0.0300045548844806  0.5809994636714947
  0.4259567970911201  0.4614975834115562  0.5545878093261982
  0.4038520988098860  0.2879028584007621  0.4610377263310591
  0.1601961904575908  0.2145174260014948  0.4201451559337407
  0.6527030446874443  0.0311386589251273  0.5863310348583438
  0.9077556562975101  0.4554479631107670  0.5456983680800289
  0.8833608333523821  0.2803286273464078  0.4483763239897305
  0.6412919871033869  0.2177881614562104  0.4107669279883003
  0.1508196191706041  0.5280449197501255  0.5817178523235376
  0.4136970830540332  0.9588503199310189  0.5508590887439982
  0.3871964010719160  0.7846949916631696  0.4548079681733459
  0.1482141036873352  0.7154436077489462  0.4194419199332127
  0.6684928794599069  0.5204742428368760  0.5857620469975930
  0.9112919522958007  0.9650559021898375  0.5463528288237702
  0.8879489443002979  0.7855568598428725  0.4497053072808467
  0.6436117575297265  0.7196590861814804  0.4160893017783982
  0.0590334394401173  0.3115443416666733  0.6297574365125138
  0.3064662950444532  0.2311276581404549  0.5811057247739657
  1.0012449001561516  0.0157594608733297  0.4210538021410846
  0.2430265918827454  0.4324870450172298  0.3703302327590013
  0.5681295433720307  0.3139714707796970  0.6569684926187056
  0.7919774037671420  0.2344984710800434  0.5720371376879990
  0.5002142815542222  0.0139078800826063  0.4256977960997043
  0.7369906046238466  0.4344710232837889  0.3684745884646616
  0.0646854617268070  0.8136243348575439  0.6299845778844295
  0.3022407896333140  0.7286952137695483  0.5790941873811161
 -0.0001266251559958  0.5135812722272344  0.4221946396329480
  0.2383689459963220  0.9312401899261967  0.3698443170656632
  0.5676699124768599  0.8099700252092610  0.6312324952154181
  0.8021056987473990  0.7329231497870754  0.5744386636387241
  0.5048769320909617  0.5149970737544567  0.4273815691462154
  0.7355513460354581  0.9338004115009053  0.3687915555643317
  0.0094004321743515  0.4527889920378412  0.6292682969495861
  0.1337824397307049  0.1762108219766052  0.6211699450759456
  0.3891602378771836  0.2430172045929660  0.6617874933889296
  0.2285276690737619  0.3730652872716917  0.6005645714187597
  0.3356319691704142  0.0819919353823589  0.5737152626662586
  0.0784302178902366  0.0159575170583673  0.5017995227310619
  0.4658243049638658  0.3046401453939625  0.5479196776877095
  0.3519325143023622  0.4418879911690140  0.4669466233226678
  0.2361069007752436  0.2333097682326629  0.4988182628346757
  0.4630004317709293  0.1616945227836037  0.4297502561386609
  0.0758185105236845  0.3714511984066366  0.4008224574927226
  0.4089897383933250  0.4999393738763921  0.3475034737421061
  0.1675242652837854  0.0693838309665961  0.3760800645914606
  0.2962400878437793  0.2929242567571859  0.3704654762586655
  0.5227287325686002  0.4569508911560277  0.6371555557434989
  0.6326699500872905  0.1802481780509044  0.6196479006335808
  0.8901066233500475  0.2492963123487991  0.6527239647093337
  0.7437825165483204  0.3802312480305380  0.5836984841229819
  0.8293737388125968  0.0865590351803733  0.5695702068565104
  0.5760258494521493  0.0136096040584406  0.5063324319290986
  0.9548632503685830  0.2957879233873524  0.5340245057791051
  0.8443979252477031  0.4403497728891707  0.4594667303975533
  0.7203666984530724  0.2269532452006397  0.4899873132219526
  0.9765917950149560  0.1658316102551552  0.4262725885888928
  0.5704815047404550  0.3702577881552735  0.4065279185298374
  0.9060520712935979  0.5014878902543930  0.3428727933764547
  0.6612067438109992  0.0705697297539424  0.3776767897185504
  0.7863651832934440  0.2915268076048578  0.3653872892922369
  0.0124450789986533  0.9554910904751098  0.6280719310149887
  0.1366069727069761  0.6749506733412191  0.6238631411333508
  0.4005258627018541  0.7416040950898432  0.6573673086336540
  0.2350036657557313  0.8749776635409237  0.5986901884084362
  0.3315646743415777  0.5791583498864936  0.5725520615908999
  0.0757067223164192  0.5102936230627294  0.5027870806777242
  0.4569539919245675  0.8001989212201817  0.5395781319765680
  0.3444185477218786  0.9426355387176513  0.4645929931713776
  0.2229189184897477  0.7307916134507103  0.4988845369804036
  0.4666607409290471  0.6617745815816030  0.4332574285124794
  0.0683337002221011  0.8695446586016836  0.4019023630638701
  0.4066675232255775  0.9969660226910153  0.3455779570887509
  0.1683063147916952  0.5678567706950057  0.3790628958259256
  0.2901904610929277  0.7896102819511509  0.3721364810325247
  0.5141366025105291  0.9515947445366130  0.6328808599409615
  0.6424412270839461  0.6732146581886846  0.6206599421120143
  0.8963252717785891  0.7483381917979274  0.6544441404972819
  0.7329148023368985  0.8761067613170733  0.5950017405577681
  0.8443030579844262  0.5878501732990494  0.5676013897269999
  0.5832593933035572  0.5164056267104170  0.5075083090403902
  0.9567190241512848  0.8051742538684131  0.5357539948207446
  0.8452901540670542  0.9466116254396101  0.4605967534124952
  0.7248540152278474  0.7336564101606771  0.4941005042032565
  0.9691854966758752  0.6625020081303047  0.4293966764000722
  0.5691042876083013  0.8695185605535583  0.4053764672193837
  0.9033810246340210  0.0013050068814772  0.3426664652727876
  0.6646574386444496  0.5723512971738217  0.3797074477484133
  0.7878367205430522  0.7920340765276723  0.3685462590068245
  0.6856450748278842  0.3381345682405197  0.7155824059107488
 
  0.00000000E+00  0.00000000E+00  0.00000000E+00
  0.00000000E+00  0.00000000E+00  0.00000000E+00
  0.00000000E+00  0.00000000E+00  0.00000000E+00
  0.00000000E+00  0.00000000E+00  0.00000000E+00
  0.00000000E+00  0.00000000E+00  0.00000000E+00
  0.00000000E+00  0.00000000E+00  0.00000000E+00
  0.00000000E+00  0.00000000E+00  0.00000000E+00
  0.00000000E+00  0.00000000E+00  0.00000000E+00
  0.00000000E+00  0.00000000E+00  0.00000000E+00
  0.00000000E+00  0.00000000E+00  0.00000000E+00
  0.00000000E+00  0.00000000E+00  0.00000000E+00
  0.00000000E+00  0.00000000E+00  0.00000000E+00
  0.00000000E+00  0.00000000E+00  0.00000000E+00
  0.00000000E+00  0.00000000E+00  0.00000000E+00
  0.00000000E+00  0.00000000E+00  0.00000000E+00
  0.00000000E+00  0.00000000E+00  0.00000000E+00
  0.00000000E+00  0.00000000E+00  0.00000000E+00
  0.00000000E+00  0.00000000E+00  0.00000000E+00
  0.00000000E+00  0.00000000E+00  0.00000000E+00
  0.00000000E+00  0.00000000E+00  0.00000000E+00
  0.00000000E+00  0.00000000E+00  0.00000000E+00
  0.00000000E+00  0.00000000E+00  0.00000000E+00
  0.00000000E+00  0.00000000E+00  0.00000000E+00
  0.00000000E+00  0.00000000E+00  0.00000000E+00
  0.00000000E+00  0.00000000E+00  0.00000000E+00
  0.00000000E+00  0.00000000E+00  0.00000000E+00
  0.00000000E+00  0.00000000E+00  0.00000000E+00
  0.00000000E+00  0.00000000E+00  0.00000000E+00
  0.00000000E+00  0.00000000E+00  0.00000000E+00
  0.00000000E+00  0.00000000E+00  0.00000000E+00
  0.00000000E+00  0.00000000E+00  0.00000000E+00
  0.00000000E+00  0.00000000E+00  0.00000000E+00
  0.00000000E+00  0.00000000E+00  0.00000000E+00
  0.00000000E+00  0.00000000E+00  0.00000000E+00
  0.00000000E+00  0.00000000E+00  0.00000000E+00
  0.00000000E+00  0.00000000E+00  0.00000000E+00
  0.00000000E+00  0.00000000E+00  0.00000000E+00
  0.00000000E+00  0.00000000E+00  0.00000000E+00
  0.00000000E+00  0.00000000E+00  0.00000000E+00
  0.00000000E+00  0.00000000E+00  0.00000000E+00
  0.00000000E+00  0.00000000E+00  0.00000000E+00
  0.00000000E+00  0.00000000E+00  0.00000000E+00
  0.00000000E+00  0.00000000E+00  0.00000000E+00
  0.00000000E+00  0.00000000E+00  0.00000000E+00
  0.00000000E+00  0.00000000E+00  0.00000000E+00
  0.00000000E+00  0.00000000E+00  0.00000000E+00
  0.00000000E+00  0.00000000E+00  0.00000000E+00
  0.00000000E+00  0.00000000E+00  0.00000000E+00
  0.00000000E+00  0.00000000E+00  0.00000000E+00
  0.00000000E+00  0.00000000E+00  0.00000000E+00
  0.00000000E+00  0.00000000E+00  0.00000000E+00
  0.00000000E+00  0.00000000E+00  0.00000000E+00
  0.00000000E+00  0.00000000E+00  0.00000000E+00
  0.00000000E+00  0.00000000E+00  0.00000000E+00
  0.00000000E+00  0.00000000E+00  0.00000000E+00
  0.00000000E+00  0.00000000E+00  0.00000000E+00
  0.00000000E+00  0.00000000E+00  0.00000000E+00
  0.00000000E+00  0.00000000E+00  0.00000000E+00
  0.00000000E+00  0.00000000E+00  0.00000000E+00
  0.00000000E+00  0.00000000E+00  0.00000000E+00
  0.00000000E+00  0.00000000E+00  0.00000000E+00
  0.00000000E+00  0.00000000E+00  0.00000000E+00
  0.00000000E+00  0.00000000E+00  0.00000000E+00
  0.00000000E+00  0.00000000E+00  0.00000000E+00
  0.00000000E+00  0.00000000E+00  0.00000000E+00
  0.00000000E+00  0.00000000E+00  0.00000000E+00
  0.00000000E+00  0.00000000E+00  0.00000000E+00
  0.00000000E+00  0.00000000E+00  0.00000000E+00
  0.00000000E+00  0.00000000E+00  0.00000000E+00
  0.00000000E+00  0.00000000E+00  0.00000000E+00
  0.00000000E+00  0.00000000E+00  0.00000000E+00
  0.00000000E+00  0.00000000E+00  0.00000000E+00
  0.00000000E+00  0.00000000E+00  0.00000000E+00
  0.00000000E+00  0.00000000E+00  0.00000000E+00
  0.00000000E+00  0.00000000E+00  0.00000000E+00
  0.00000000E+00  0.00000000E+00  0.00000000E+00
  0.00000000E+00  0.00000000E+00  0.00000000E+00
  0.00000000E+00  0.00000000E+00  0.00000000E+00
  0.00000000E+00  0.00000000E+00  0.00000000E+00
  0.00000000E+00  0.00000000E+00  0.00000000E+00
  0.00000000E+00  0.00000000E+00  0.00000000E+00
  0.00000000E+00  0.00000000E+00  0.00000000E+00
  0.00000000E+00  0.00000000E+00  0.00000000E+00
  0.00000000E+00  0.00000000E+00  0.00000000E+00
  0.00000000E+00  0.00000000E+00  0.00000000E+00
  0.00000000E+00  0.00000000E+00  0.00000000E+00
  0.00000000E+00  0.00000000E+00  0.00000000E+00
  0.00000000E+00  0.00000000E+00  0.00000000E+00
  0.00000000E+00  0.00000000E+00  0.00000000E+00
