CONTCAR\(5)                             
   1.00000000000000     
    10.9052000045999993    0.0000000000000000    0.0000000000000000
     5.4526010918000001   10.6458758644000007    0.0000000000000000
     0.0000000000000000    0.0000000000000000   18.0139999390000014
   Cr   Br   O 
     9    18     1
Direct
  0.0001018788342670  0.9754640609157573  0.4999876476329228
  0.3244513714667766  0.0020120635815882  0.4829679585169022
  0.6607446108286378  0.0084083492881950  0.4957665131295152
  0.0793584896168706  0.2261221338772171  0.4993571121413873
  0.2214997949122864  0.2725030901155039  0.4865101480434514
  0.6874649273983406  0.3207321183763559  0.5137708797900699
  0.0173077062159277  0.6607714628204445  0.5154393616346142
  0.3512522290454030  0.6624878364551195  0.5095056463891131
  0.6622109644951659  0.6989538099035809  0.5130359145888257
  0.1599844422970122  0.2843083717055939  0.6153998288529532
  0.1146503472429683  0.0697237599145665  0.3995565912442575
  0.5503720898796937  0.2106913510473715  0.5643374699565278
  0.3940274399002273  0.1307401898704586  0.3965672063117452
  0.9032977549443606  0.1597102366028918  0.5854667114109646
  0.7825490887001284  0.0935525229153509  0.4135690731000718
  0.2443038217133132  0.5737314371719393  0.5964606682396604
  0.1190077154811521  0.4774861089094835  0.4226299030528822
  0.5243404033195332  0.6518100135235210  0.6051852370297679
  0.4977647102348572  0.4492244887959425  0.4319333711462262
  0.8718934822049725  0.5914972869578112  0.5911607378068787
  0.8469600239230832  0.3818913774850922  0.4452703864828466
  0.2165265250063203  0.9198955564949080  0.5780408569947084
  0.1259947548374017  0.7650970700534022  0.4272439231060032
  0.5124504456393577  0.9523378555114554  0.5776319861921123
  0.4556312559514317  0.7714709795982865  0.4223312451303246
  0.9040049841682406  0.8669961854266067  0.5890943461010132
  0.7623921055197302  0.7977659616693398  0.4225229076874025
  0.6557064172225211  0.3990143690122140  0.5892763732868452
 
  0.00000000E+00  0.00000000E+00  0.00000000E+00
  0.00000000E+00  0.00000000E+00  0.00000000E+00
  0.00000000E+00  0.00000000E+00  0.00000000E+00
  0.00000000E+00  0.00000000E+00  0.00000000E+00
  0.00000000E+00  0.00000000E+00  0.00000000E+00
  0.00000000E+00  0.00000000E+00  0.00000000E+00
  0.00000000E+00  0.00000000E+00  0.00000000E+00
  0.00000000E+00  0.00000000E+00  0.00000000E+00
  0.00000000E+00  0.00000000E+00  0.00000000E+00
  0.00000000E+00  0.00000000E+00  0.00000000E+00
  0.00000000E+00  0.00000000E+00  0.00000000E+00
  0.00000000E+00  0.00000000E+00  0.00000000E+00
  0.00000000E+00  0.00000000E+00  0.00000000E+00
  0.00000000E+00  0.00000000E+00  0.00000000E+00
  0.00000000E+00  0.00000000E+00  0.00000000E+00
  0.00000000E+00  0.00000000E+00  0.00000000E+00
  0.00000000E+00  0.00000000E+00  0.00000000E+00
  0.00000000E+00  0.00000000E+00  0.00000000E+00
  0.00000000E+00  0.00000000E+00  0.00000000E+00
  0.00000000E+00  0.00000000E+00  0.00000000E+00
  0.00000000E+00  0.00000000E+00  0.00000000E+00
  0.00000000E+00  0.00000000E+00  0.00000000E+00
  0.00000000E+00  0.00000000E+00  0.00000000E+00
  0.00000000E+00  0.00000000E+00  0.00000000E+00
  0.00000000E+00  0.00000000E+00  0.00000000E+00
  0.00000000E+00  0.00000000E+00  0.00000000E+00
  0.00000000E+00  0.00000000E+00  0.00000000E+00
  0.00000000E+00  0.00000000E+00  0.00000000E+00
