CONTCAR\(4)                             
   1.00000000000000     
    14.3999004363999994    0.0000000000000000    0.0000000000000000
    -3.5999958350000001   11.0732005957999995    0.0000000000000000
     0.0000000000000000    0.0000000000000000   23.2912006377999994
   K    V    O    H 
     8    32    82     1
Direct
  0.0969666793998260  0.4005940419479346  0.4995743766696387
  0.3953167906889035  0.5748684904487894  0.5014912203431204
  0.5994148497402710  0.4066858165797316  0.4991761232316542
  0.9010907741595904  0.5787148713609803  0.5007998170839162
  0.1516848433072010  0.0773751023804285  0.5006494387829823
  0.3415685957036754  0.8880087712975440  0.5021159385420095
  0.6440490410277923  0.0752705397634994  0.5009549021338896
  0.8529355970114366  0.9130865871757843  0.4995353084754964
  0.0542613837000957  0.2151786349619807  0.3548038629274081
  0.0573501868127068  0.2288812669819422  0.6463525678762889
  0.2319591675485440  0.4200576573396551  0.3528492860393422
  0.2342909279751552  0.4322422601594543  0.6482904706018430
  0.3037148969624144  0.2140059751049300  0.3521276837356299
  0.3076543584947062  0.2280937437521616  0.6475066250822645
  0.4780401696336673  0.4209286819292172  0.3539734428749114
  0.4828723354886343  0.4346028790213269  0.6472198397790849
  0.5544925268159826  0.2159486532330739  0.3566982727170618
  0.5584344362451555  0.2290217040245644  0.6456308596297069
  0.7334805145319968  0.4221644229063716  0.3549355876995796
  0.7358571989946422  0.4356935412100175  0.6463509640780194
  0.8035267247802098  0.2134427525314852  0.3534726144204513
  0.8074040166573312  0.2287601839227617  0.6464892696654941
  0.9786393701063344  0.4205946448581612  0.3523089758519448
  0.9831286561171541  0.4353018865624095  0.6485043152995996
  0.0538839791631665  0.7135840982581642  0.3518753574815262
  0.0571581446432486  0.7283552336838964  0.6492688134233163
  0.2291391094847099  0.9208824377290994  0.3521931416398151
  0.2328144193317507  0.9347873688511302  0.6498001357817771
  0.3036748885375875  0.7138742985644299  0.3544618256093487
  0.3082998544304268  0.7295306280602637  0.6553387433300913
  0.4813043509550329  0.9208629208018091  0.3545171002114885
  0.4847982175655136  0.9349909852036007  0.6487494104092837
  0.5532089433529215  0.7136901766155108  0.3543120126468548
  0.5566873778737990  0.7285540021850967  0.6474426374385699
  0.7276624362299323  0.9206504718735814  0.3549520157770955
  0.7325893293773394  0.9353837253758585  0.6456188704308518
  0.8049781404691210  0.7169939097286328  0.3572694243891681
  0.8083119384252549  0.7297987364837690  0.6442635207422136
  0.9834182209540452  0.9211616656381258  0.3542574390508956
  0.9860997137127323  0.9354955308852487  0.6469200125495336
  0.0176005202975202  0.0680446236259887  0.3236387154373123
  0.0556874647725808  0.2125492184743845  0.5772688032853669
  0.0523835369914750  0.1994651330672374  0.4239541548983701
  0.0202095068570309  0.0823004021476933  0.6777286566682893
  0.0977081290663547  0.3904422535004443  0.3370737308111470
  0.1008352074051357  0.4033157035125312  0.6657520823547092
  0.1860536309695352  0.2457387879146846  0.3333847662744170
  0.2419066914444562  0.4362457410664970  0.4218344799245813
  0.1898062758987481  0.2596260635175613  0.6669272130738702
  0.2423313767880383  0.4537624604281014  0.5795657893741634
  0.2676943296910915  0.0671084215254273  0.3206210361420911
  0.3007588959073779  0.2105457273976920  0.5789915139297963
  0.2973514344717615  0.1969847830427622  0.4206409741413314
  0.2702053049672544  0.0823769534882368  0.6799630917202001
  0.3473104598035461  0.3881651718598247  0.3304122335130962
  0.3512637511962786  0.4020659932025195  0.6687435988389026
  0.4381172333092630  0.2466089589439107  0.3352802222341564
  0.4726008867048483  0.4387532671446912  0.4226384715161713
  0.4412340831103393  0.2593136476176656  0.6651747163135276
  0.4817621897011651  0.4524436580639493  0.5783376554206954
  0.5177538797043381  0.0687725552602469  0.3252361622055136
  0.5559916373217068  0.2115113492942151  0.5766442089705666
  0.5512757386599557  0.1994670892725421  0.4257575625295780
  0.5227545604379632  0.0832874889493292  0.6779245981888140
  0.5986752972876576  0.3924453098895082  0.3414238478128011
  0.6018244092922032  0.4047019391813600  0.6627205580940709
  0.6861252291098126  0.2469669404651354  0.3357120005268082
  0.7466072893908106  0.4377238450406859  0.4238160958663696
  0.6906088896309208  0.2611386223494808  0.6659987301762547
  0.7446854738849419  0.4513653814833307  0.5773149998909615
  0.7657126588223510  0.0665266837125111  0.3225419672808658
  0.8023949239369909  0.2130638009560038  0.5778821337029936
  0.7993204698611938  0.1972739374269431  0.4220674074725033
  0.7708191768242335  0.0814946814577241  0.6772817173314580
  0.8470185320705462  0.3876689159812750  0.3309169126629466
  0.8511820006420215  0.4034345629387533  0.6681887523095390
  0.9369424842665111  0.2452163879024499  0.3349637935621151
  0.9772701750533843  0.4397043999432803  0.4210510525365996
  0.9402942492796206  0.2599098826340710  0.6655587084588924
  0.9849756904236515  0.4543658053897058  0.5796491519428606
  0.0165302189972902  0.5669303563753827  0.3203791781323674
  0.0536171866677186  0.7116097994653675  0.5806938006361024
  0.0498017088502498  0.6966624680073542  0.4204321235265481
  0.0202779370053382  0.5811285002920812  0.6806103277483782
  0.0976969602529798  0.8879826552616236  0.3303672412616355
  0.1004683267282279  0.9035046869971900  0.6700387083930170
  0.1875500452704254  0.7459236619486421  0.3337294636730029
  0.2278631316552870  0.9387414777738667  0.4210361165971910
  0.1892697952365875  0.7609201159189058  0.6690944982264380
  0.2326957424279276  0.9507355754052855  0.5807656317328569
  0.2670984211583328  0.5677267714860768  0.3226946639232073
  0.3062667457027066  0.7092602454833058  0.5863397569461660
  0.2996905351943293  0.6969766634292721  0.4236292522146067
  0.2693454234669415  0.5763268836557576  0.6835849209470976
  0.3478607772747633  0.8896680428957922  0.3370728552583986
  0.3521239420201297  0.9074474355887659  0.6659594754576847
  0.4358798177373195  0.7453811914729108  0.3350840165452805
  0.4889749720915019  0.9358219294279180  0.4236250338811606
  0.4426669154544692  0.7619945100052932  0.6708145643588895
  0.4900966224150282  0.9488410043166696  0.5795598594350588
  0.5174184648026685  0.5673196042218277  0.3224831745150825
  0.5459012655592744  0.7118769726259880  0.5789749004937307
  0.5468751116121643  0.6964682862323782  0.4228450161972297
  0.5210323527990250  0.5810186839703507  0.6785302359931098
  0.5963615845473671  0.8876789992808445  0.3325892843008761
  0.6022975507941005  0.9038125521742522  0.6677994292095909
  0.6874747003659007  0.7461734204584779  0.3372108308004441
  0.7236082768622756  0.9398255883467218  0.4235758382796848
  0.6908741982114200  0.7598739966073927  0.6629262761388567
  0.7310333064508010  0.9536362109028274  0.5767703685956391
  0.7679632918826609  0.5696656518066350  0.3255482496496676
  0.8079958748432819  0.7131388909483158  0.5752460517904220
  0.8038179939223589  0.7006839687510306  0.4263127974778544
  0.7711160974816613  0.5832074066332966  0.6760966224914645
  0.8484078201377147  0.8928991048558983  0.3415742994057677
  0.8514236241568607  0.9052643197791342  0.6611385119162883
  0.9362040751824779  0.7471140590254065  0.3346625473112943
  0.9973719777669385  0.9378435737468905  0.4230554428586384
  0.9396035571401674  0.7610434486741952  0.6666563262802423
 -0.0022669064681942  0.9520503292263025  0.5779935048097909
  0.3128842973408420  0.7578953466046983  0.7608063352015592
  0.2824728989422202  0.6513326434570743  0.7885459759660401
  0.2686464143938611  0.5921453589998289  0.7550015245738140
 
  0.00000000E+00  0.00000000E+00  0.00000000E+00
  0.00000000E+00  0.00000000E+00  0.00000000E+00
  0.00000000E+00  0.00000000E+00  0.00000000E+00
  0.00000000E+00  0.00000000E+00  0.00000000E+00
  0.00000000E+00  0.00000000E+00  0.00000000E+00
  0.00000000E+00  0.00000000E+00  0.00000000E+00
  0.00000000E+00  0.00000000E+00  0.00000000E+00
  0.00000000E+00  0.00000000E+00  0.00000000E+00
  0.00000000E+00  0.00000000E+00  0.00000000E+00
  0.00000000E+00  0.00000000E+00  0.00000000E+00
  0.00000000E+00  0.00000000E+00  0.00000000E+00
  0.00000000E+00  0.00000000E+00  0.00000000E+00
  0.00000000E+00  0.00000000E+00  0.00000000E+00
  0.00000000E+00  0.00000000E+00  0.00000000E+00
  0.00000000E+00  0.00000000E+00  0.00000000E+00
  0.00000000E+00  0.00000000E+00  0.00000000E+00
  0.00000000E+00  0.00000000E+00  0.00000000E+00
  0.00000000E+00  0.00000000E+00  0.00000000E+00
  0.00000000E+00  0.00000000E+00  0.00000000E+00
  0.00000000E+00  0.00000000E+00  0.00000000E+00
  0.00000000E+00  0.00000000E+00  0.00000000E+00
  0.00000000E+00  0.00000000E+00  0.00000000E+00
  0.00000000E+00  0.00000000E+00  0.00000000E+00
  0.00000000E+00  0.00000000E+00  0.00000000E+00
  0.00000000E+00  0.00000000E+00  0.00000000E+00
  0.00000000E+00  0.00000000E+00  0.00000000E+00
  0.00000000E+00  0.00000000E+00  0.00000000E+00
  0.00000000E+00  0.00000000E+00  0.00000000E+00
  0.00000000E+00  0.00000000E+00  0.00000000E+00
  0.00000000E+00  0.00000000E+00  0.00000000E+00
  0.00000000E+00  0.00000000E+00  0.00000000E+00
  0.00000000E+00  0.00000000E+00  0.00000000E+00
  0.00000000E+00  0.00000000E+00  0.00000000E+00
  0.00000000E+00  0.00000000E+00  0.00000000E+00
  0.00000000E+00  0.00000000E+00  0.00000000E+00
  0.00000000E+00  0.00000000E+00  0.00000000E+00
  0.00000000E+00  0.00000000E+00  0.00000000E+00
  0.00000000E+00  0.00000000E+00  0.00000000E+00
  0.00000000E+00  0.00000000E+00  0.00000000E+00
  0.00000000E+00  0.00000000E+00  0.00000000E+00
  0.00000000E+00  0.00000000E+00  0.00000000E+00
  0.00000000E+00  0.00000000E+00  0.00000000E+00
  0.00000000E+00  0.00000000E+00  0.00000000E+00
  0.00000000E+00  0.00000000E+00  0.00000000E+00
  0.00000000E+00  0.00000000E+00  0.00000000E+00
  0.00000000E+00  0.00000000E+00  0.00000000E+00
  0.00000000E+00  0.00000000E+00  0.00000000E+00
  0.00000000E+00  0.00000000E+00  0.00000000E+00
  0.00000000E+00  0.00000000E+00  0.00000000E+00
  0.00000000E+00  0.00000000E+00  0.00000000E+00
  0.00000000E+00  0.00000000E+00  0.00000000E+00
  0.00000000E+00  0.00000000E+00  0.00000000E+00
  0.00000000E+00  0.00000000E+00  0.00000000E+00
  0.00000000E+00  0.00000000E+00  0.00000000E+00
  0.00000000E+00  0.00000000E+00  0.00000000E+00
  0.00000000E+00  0.00000000E+00  0.00000000E+00
  0.00000000E+00  0.00000000E+00  0.00000000E+00
  0.00000000E+00  0.00000000E+00  0.00000000E+00
  0.00000000E+00  0.00000000E+00  0.00000000E+00
  0.00000000E+00  0.00000000E+00  0.00000000E+00
  0.00000000E+00  0.00000000E+00  0.00000000E+00
  0.00000000E+00  0.00000000E+00  0.00000000E+00
  0.00000000E+00  0.00000000E+00  0.00000000E+00
  0.00000000E+00  0.00000000E+00  0.00000000E+00
  0.00000000E+00  0.00000000E+00  0.00000000E+00
  0.00000000E+00  0.00000000E+00  0.00000000E+00
  0.00000000E+00  0.00000000E+00  0.00000000E+00
  0.00000000E+00  0.00000000E+00  0.00000000E+00
  0.00000000E+00  0.00000000E+00  0.00000000E+00
  0.00000000E+00  0.00000000E+00  0.00000000E+00
  0.00000000E+00  0.00000000E+00  0.00000000E+00
  0.00000000E+00  0.00000000E+00  0.00000000E+00
  0.00000000E+00  0.00000000E+00  0.00000000E+00
  0.00000000E+00  0.00000000E+00  0.00000000E+00
  0.00000000E+00  0.00000000E+00  0.00000000E+00
  0.00000000E+00  0.00000000E+00  0.00000000E+00
  0.00000000E+00  0.00000000E+00  0.00000000E+00
  0.00000000E+00  0.00000000E+00  0.00000000E+00
  0.00000000E+00  0.00000000E+00  0.00000000E+00
  0.00000000E+00  0.00000000E+00  0.00000000E+00
  0.00000000E+00  0.00000000E+00  0.00000000E+00
  0.00000000E+00  0.00000000E+00  0.00000000E+00
  0.00000000E+00  0.00000000E+00  0.00000000E+00
  0.00000000E+00  0.00000000E+00  0.00000000E+00
  0.00000000E+00  0.00000000E+00  0.00000000E+00
  0.00000000E+00  0.00000000E+00  0.00000000E+00
  0.00000000E+00  0.00000000E+00  0.00000000E+00
  0.00000000E+00  0.00000000E+00  0.00000000E+00
  0.00000000E+00  0.00000000E+00  0.00000000E+00
  0.00000000E+00  0.00000000E+00  0.00000000E+00
  0.00000000E+00  0.00000000E+00  0.00000000E+00
  0.00000000E+00  0.00000000E+00  0.00000000E+00
  0.00000000E+00  0.00000000E+00  0.00000000E+00
  0.00000000E+00  0.00000000E+00  0.00000000E+00
  0.00000000E+00  0.00000000E+00  0.00000000E+00
  0.00000000E+00  0.00000000E+00  0.00000000E+00
  0.00000000E+00  0.00000000E+00  0.00000000E+00
  0.00000000E+00  0.00000000E+00  0.00000000E+00
  0.00000000E+00  0.00000000E+00  0.00000000E+00
  0.00000000E+00  0.00000000E+00  0.00000000E+00
  0.00000000E+00  0.00000000E+00  0.00000000E+00
  0.00000000E+00  0.00000000E+00  0.00000000E+00
  0.00000000E+00  0.00000000E+00  0.00000000E+00
  0.00000000E+00  0.00000000E+00  0.00000000E+00
  0.00000000E+00  0.00000000E+00  0.00000000E+00
  0.00000000E+00  0.00000000E+00  0.00000000E+00
  0.00000000E+00  0.00000000E+00  0.00000000E+00
  0.00000000E+00  0.00000000E+00  0.00000000E+00
  0.00000000E+00  0.00000000E+00  0.00000000E+00
  0.00000000E+00  0.00000000E+00  0.00000000E+00
  0.00000000E+00  0.00000000E+00  0.00000000E+00
  0.00000000E+00  0.00000000E+00  0.00000000E+00
  0.00000000E+00  0.00000000E+00  0.00000000E+00
  0.00000000E+00  0.00000000E+00  0.00000000E+00
  0.00000000E+00  0.00000000E+00  0.00000000E+00
  0.00000000E+00  0.00000000E+00  0.00000000E+00
  0.00000000E+00  0.00000000E+00  0.00000000E+00
  0.00000000E+00  0.00000000E+00  0.00000000E+00
  0.00000000E+00  0.00000000E+00  0.00000000E+00
  0.00000000E+00  0.00000000E+00  0.00000000E+00
  0.00000000E+00  0.00000000E+00  0.00000000E+00
  0.00000000E+00  0.00000000E+00  0.00000000E+00
  0.00000000E+00  0.00000000E+00  0.00000000E+00
