CONTCAR\(3)                             
   1.00000000000000     
    12.6408004761000008    0.0000000000000000    0.0000000000000000
    -6.3204002380000004   10.9472543365000003    0.0000000000000000
     0.0000000000000000    0.0000000000000000   17.9799003601000003
   V    S    H 
    16    32     1
Direct
  0.0844096197450397  0.1666164675730281  0.5006683798029773
  0.3341791918212879  0.1664136286793841  0.5004620369658785
  0.5838999840315965  0.1659495263887764  0.5002267637999178
  0.8337049674362501  0.1656145838865228  0.5006548769017970
  0.0825477169259063  0.4143173598533286  0.5020981509013125
  0.3338203411273966  0.4162181067267573  0.5027391000689740
  0.5833863161687164  0.4155103785586749  0.5005076252428963
  0.8335227349873435  0.4155550970205953  0.5001495912230184
  0.0842087889986160  0.6655702880943929  0.5003203130509782
  0.3353666942399425  0.6677984288398879  0.5019347690876164
  0.5832187741052488  0.6654946206885346  0.5006812732197961
  0.8337486398021383  0.6656209268413101  0.4999892513809435
  0.0840316720052132  0.9159896086464141  0.4999496130040020
  0.3341046901181216  0.9164358611567915  0.4999656753702993
  0.5841687811300158  0.9161742879108078  0.5005616808571243
  0.8340057976368845  0.9157811538047450  0.5001123894672826
  0.0011523638539568  0.0001076774005992  0.4174211790190702
  0.0005309009206279 -0.0011741211303768  0.5830311659554230
  0.2508473305492822  0.0000534056681345  0.4172424955004048
  0.2506225144011923 -0.0006677965963517  0.5829544413415931
  0.5009621187520762 -0.0004579439316108  0.4174383834664054
  0.5006430164908481 -0.0005002744226358  0.5830938108166793
  0.7505894110376603 -0.0007265719894548  0.4175446629732618
  0.7507969105750345 -0.0011413124009074  0.5833281816353274
  0.0005001170666648  0.2498226670406486  0.4183523558373043
 -0.0009438723600987  0.2473808698426852  0.5840787817517478
  0.2518354538224780  0.2519442083963854  0.4186543781865444
  0.2493756009008127  0.2459553997650396  0.5842015541567588
  0.5005547036198668  0.2492386315783955  0.4175715852226951
  0.5009071053607315  0.2487748744247138  0.5832744996758003
  0.7504587489191704  0.2488780040864887  0.4175051195149943
  0.7502842663431863  0.2489759945831195  0.5831968654936609
  0.0012038284698282  0.4983312777511940  0.4181509637625928
 -0.0016477471514681  0.4991118696495728  0.5837040074091906
  0.2511464639738590  0.4989321920839532  0.4216382894302913
  0.2425121637443485  0.5082111568715595  0.5922447863978628
  0.4980002783246431  0.4980621992669292  0.4187149151988092
  0.5043479261577978  0.5006430432554703  0.5844225794756078
  0.7498541754296636  0.4986718323244322  0.4173501581823786
  0.7504890810629790  0.4989702646641065  0.5830484042733518
  0.0008476629355907  0.7488314977776823  0.4173572131257714
  0.0005043039066483  0.7491256433947110  0.5828705682895345
  0.2512385504086432  0.7487433148525473  0.4179472916527381
  0.2505820798238183  0.7518471100245611  0.5836137001372871
  0.5001019073244319  0.7494784176887530  0.4182932197308348
  0.5022364881605305  0.7508282199803913  0.5840249851429905
  0.7497461119464840  0.7486108648132083  0.4174491927406488
  0.7509733110424881  0.7492532021359992  0.5830591984337857
  0.3123014589065365  0.4475337694801409  0.6032791497238073
 
  0.00000000E+00  0.00000000E+00  0.00000000E+00
  0.00000000E+00  0.00000000E+00  0.00000000E+00
  0.00000000E+00  0.00000000E+00  0.00000000E+00
  0.00000000E+00  0.00000000E+00  0.00000000E+00
  0.00000000E+00  0.00000000E+00  0.00000000E+00
  0.00000000E+00  0.00000000E+00  0.00000000E+00
  0.00000000E+00  0.00000000E+00  0.00000000E+00
  0.00000000E+00  0.00000000E+00  0.00000000E+00
  0.00000000E+00  0.00000000E+00  0.00000000E+00
  0.00000000E+00  0.00000000E+00  0.00000000E+00
  0.00000000E+00  0.00000000E+00  0.00000000E+00
  0.00000000E+00  0.00000000E+00  0.00000000E+00
  0.00000000E+00  0.00000000E+00  0.00000000E+00
  0.00000000E+00  0.00000000E+00  0.00000000E+00
  0.00000000E+00  0.00000000E+00  0.00000000E+00
  0.00000000E+00  0.00000000E+00  0.00000000E+00
  0.00000000E+00  0.00000000E+00  0.00000000E+00
  0.00000000E+00  0.00000000E+00  0.00000000E+00
  0.00000000E+00  0.00000000E+00  0.00000000E+00
  0.00000000E+00  0.00000000E+00  0.00000000E+00
  0.00000000E+00  0.00000000E+00  0.00000000E+00
  0.00000000E+00  0.00000000E+00  0.00000000E+00
  0.00000000E+00  0.00000000E+00  0.00000000E+00
  0.00000000E+00  0.00000000E+00  0.00000000E+00
  0.00000000E+00  0.00000000E+00  0.00000000E+00
  0.00000000E+00  0.00000000E+00  0.00000000E+00
  0.00000000E+00  0.00000000E+00  0.00000000E+00
  0.00000000E+00  0.00000000E+00  0.00000000E+00
  0.00000000E+00  0.00000000E+00  0.00000000E+00
  0.00000000E+00  0.00000000E+00  0.00000000E+00
  0.00000000E+00  0.00000000E+00  0.00000000E+00
  0.00000000E+00  0.00000000E+00  0.00000000E+00
  0.00000000E+00  0.00000000E+00  0.00000000E+00
  0.00000000E+00  0.00000000E+00  0.00000000E+00
  0.00000000E+00  0.00000000E+00  0.00000000E+00
  0.00000000E+00  0.00000000E+00  0.00000000E+00
  0.00000000E+00  0.00000000E+00  0.00000000E+00
  0.00000000E+00  0.00000000E+00  0.00000000E+00
  0.00000000E+00  0.00000000E+00  0.00000000E+00
  0.00000000E+00  0.00000000E+00  0.00000000E+00
  0.00000000E+00  0.00000000E+00  0.00000000E+00
  0.00000000E+00  0.00000000E+00  0.00000000E+00
  0.00000000E+00  0.00000000E+00  0.00000000E+00
  0.00000000E+00  0.00000000E+00  0.00000000E+00
  0.00000000E+00  0.00000000E+00  0.00000000E+00
  0.00000000E+00  0.00000000E+00  0.00000000E+00
  0.00000000E+00  0.00000000E+00  0.00000000E+00
  0.00000000E+00  0.00000000E+00  0.00000000E+00
  0.00000000E+00  0.00000000E+00  0.00000000E+00
