CONTCAR\(4)                             
   1.00000000000000     
    12.6687002181999997    0.0000000000000000    0.0000000000000000
    -6.3343501090999998   10.9714162219000002    0.0000000000000000
     0.0000000000000000    0.0000000000000000   22.0783004761000008
   La   P    Br
    18     9    18
Direct
  0.1111100019999967  0.2222200040000004  0.5743099930000000
  0.2222200049999969  0.1111100019999967  0.4256900070000000
  0.4444400100000010  0.2222200040000004  0.5743099930000000
  0.5555599690000008  0.1111100019999967  0.4256900070000000
  0.7777799560000034  0.2222200040000004  0.5743099930000000
  0.8888900529999972  0.1111100019999967  0.4256900070000000
  0.1111100159999978  0.5555600160000012  0.5743099930000000
  0.2222200040000004  0.4444400069999972  0.4256900070000000
  0.4444400439999967  0.5555600160000012  0.5743099930000000
  0.5555599859999987  0.4444400069999972  0.4256900070000000
  0.7777799699999974  0.5555600160000012  0.5743099930000000
  0.8888900330000027  0.4444400069999972  0.4256900070000000
  0.1111099909999993  0.8888900099999972  0.5743099930000000
  0.2222200260000022  0.7777799979999998  0.4256900070000000
  0.4444399989999965  0.8888900099999972  0.5743099930000000
  0.5555599899999990  0.7777799979999998  0.4256900070000000
  0.7777799440000024  0.8888900099999972  0.5743099930000000
  0.8888900740000025  0.7777799979999998  0.4256900070000000
  0.0000000000000000  0.0000000000000000  0.5000000000000000
  0.3333300090000009  0.0000000000000000  0.5000000000000000
  0.6666700290000023  0.0000000000000000  0.5000000000000000
  0.0000000040000003  0.3333300159999979  0.5000000000000000
  0.3333300119999976  0.3333300159999979  0.5000000000000000
  0.6666700139999975  0.3333300159999979  0.5000000000000000
  0.0000000000000000  0.6666700290000023  0.5000000000000000
  0.3333300079999972  0.6666700290000023  0.5000000000000000
  0.6666700290000023  0.6666700290000023  0.5000000000000000
  0.2222200049999969  0.1111100019999967  0.6598100209999984
  0.1111100019999967  0.2222200040000004  0.3401900010000034
  0.5555599690000008  0.1111100019999967  0.6598100209999984
  0.4444400100000010  0.2222200040000004  0.3401900010000034
  0.8888900529999972  0.1111100019999967  0.6598100209999984
  0.7777799560000034  0.2222200040000004  0.3401900010000034
  0.2222200040000004  0.4444400069999972  0.6598100209999984
  0.1111100159999978  0.5555600160000012  0.3401900010000034
  0.5555599859999987  0.4444400069999972  0.6598100209999984
  0.4444400439999967  0.5555600160000012  0.3401900010000034
  0.8888900330000027  0.4444400069999972  0.6598100209999984
  0.7777799699999974  0.5555600160000012  0.3401900010000034
  0.2222200260000022  0.7777799979999998  0.6598100209999984
  0.1111099909999993  0.8888900099999972  0.3401900010000034
  0.5555599899999990  0.7777799979999998  0.6598100209999984
  0.4444399989999965  0.8888900099999972  0.3401900010000034
  0.8888900740000025  0.7777799979999998  0.6598100209999984
  0.7777799440000024  0.8888900099999972  0.3401900010000034
 
  0.00000000E+00  0.00000000E+00  0.00000000E+00
  0.00000000E+00  0.00000000E+00  0.00000000E+00
  0.00000000E+00  0.00000000E+00  0.00000000E+00
  0.00000000E+00  0.00000000E+00  0.00000000E+00
  0.00000000E+00  0.00000000E+00  0.00000000E+00
  0.00000000E+00  0.00000000E+00  0.00000000E+00
  0.00000000E+00  0.00000000E+00  0.00000000E+00
  0.00000000E+00  0.00000000E+00  0.00000000E+00
  0.00000000E+00  0.00000000E+00  0.00000000E+00
  0.00000000E+00  0.00000000E+00  0.00000000E+00
  0.00000000E+00  0.00000000E+00  0.00000000E+00
  0.00000000E+00  0.00000000E+00  0.00000000E+00
  0.00000000E+00  0.00000000E+00  0.00000000E+00
  0.00000000E+00  0.00000000E+00  0.00000000E+00
  0.00000000E+00  0.00000000E+00  0.00000000E+00
  0.00000000E+00  0.00000000E+00  0.00000000E+00
  0.00000000E+00  0.00000000E+00  0.00000000E+00
  0.00000000E+00  0.00000000E+00  0.00000000E+00
  0.00000000E+00  0.00000000E+00  0.00000000E+00
  0.00000000E+00  0.00000000E+00  0.00000000E+00
  0.00000000E+00  0.00000000E+00  0.00000000E+00
  0.00000000E+00  0.00000000E+00  0.00000000E+00
  0.00000000E+00  0.00000000E+00  0.00000000E+00
  0.00000000E+00  0.00000000E+00  0.00000000E+00
  0.00000000E+00  0.00000000E+00  0.00000000E+00
  0.00000000E+00  0.00000000E+00  0.00000000E+00
  0.00000000E+00  0.00000000E+00  0.00000000E+00
  0.00000000E+00  0.00000000E+00  0.00000000E+00
  0.00000000E+00  0.00000000E+00  0.00000000E+00
  0.00000000E+00  0.00000000E+00  0.00000000E+00
  0.00000000E+00  0.00000000E+00  0.00000000E+00
  0.00000000E+00  0.00000000E+00  0.00000000E+00
  0.00000000E+00  0.00000000E+00  0.00000000E+00
  0.00000000E+00  0.00000000E+00  0.00000000E+00
  0.00000000E+00  0.00000000E+00  0.00000000E+00
  0.00000000E+00  0.00000000E+00  0.00000000E+00
  0.00000000E+00  0.00000000E+00  0.00000000E+00
  0.00000000E+00  0.00000000E+00  0.00000000E+00
  0.00000000E+00  0.00000000E+00  0.00000000E+00
  0.00000000E+00  0.00000000E+00  0.00000000E+00
  0.00000000E+00  0.00000000E+00  0.00000000E+00
  0.00000000E+00  0.00000000E+00  0.00000000E+00
  0.00000000E+00  0.00000000E+00  0.00000000E+00
  0.00000000E+00  0.00000000E+00  0.00000000E+00
  0.00000000E+00  0.00000000E+00  0.00000000E+00
