CONTCAR\(2)                             
   1.00000000000000     
    13.5958003997999999    0.0000000000000000    0.0000000000000000
     0.0000000000000000   14.8882999419999997    0.0000000000000000
     0.0000000000000000    0.0000000000000000   20.6940002440999997
   Ti   S    O    H 
    24    72     1     1
Direct
  0.0628613126894904  0.0431946419592966  0.5640682145775454
  0.1876521308730645  0.2101148136859020  0.4340167099177468
  0.3127063620712191  0.0430777077855429  0.5640019118743965
  0.4375089469696070  0.2101046756427428  0.4340576031029059
  0.5625941946758761  0.0431714569972040  0.5640393158335969
  0.6875926279011566  0.2101471021111261  0.4340317040281441
  0.8127078681284002  0.0433111063519364  0.5640501147804244
  0.9375668836469766  0.2101274507321045  0.4340655009846722
  0.0626083711799398  0.3769561177862027  0.5641567580740928
  0.1874318643710561  0.5432209874276107  0.4332704906115627
  0.3123338847502251  0.3770516634685895  0.5641174036715835
  0.4373013911493223  0.5432280097617646  0.4333879527505342
  0.5622988290266484  0.3769548693401110  0.5641605488037966
  0.6873530253039301  0.5432206115660501  0.4335347362709449
  0.8123620004260472  0.3768608907018818  0.5641794894536826
  0.9373951425169468  0.5432769768374773  0.4336722056433040
  0.0627406274990708  0.7100819380683481  0.5635613384261077
  0.1876609811288842  0.8766579852122388  0.4334010965630055
  0.3123295386980541  0.7099790572036303  0.5634505852222853
  0.4374954091938487  0.8766435497660459  0.4333943022918830
  0.5621600984116932  0.7101066977761176  0.5635335650520455
  0.6875835672497338  0.8767292208168403  0.4336254897253775
  0.8123677655245350  0.7101032231316498  0.5636992034511935
  0.9375630903870859  0.8767381111047756  0.4336594991114842
  0.0625111411950385  0.1415044680181896  0.3612383277663131
  0.1878301461264777  0.1118757729480491  0.6366774791872460
  0.1877420887776113  0.0433744890062981  0.4777916985060327
  0.0625874390721542  0.2100877733655282  0.5202057592210767
  0.1874053658190390  0.3085971169100877  0.6370826260645396
  0.0626712644665912  0.2786711976501408  0.3612064554584205
  0.3125234008472462  0.1414873632921417  0.3612939993723731
  0.4376632997789955  0.1118324770159972  0.6366564541773566
  0.4376135987713806  0.0433425162103676  0.4777551512873409
  0.3125147952956539  0.2100959116550615  0.5202250066712474
  0.4372874087463580  0.3085801499332025  0.6370046206230694
  0.3127312154764531  0.2786253289030874  0.3611591591130017
  0.5625319798641283  0.1415366273933637  0.3612332614585722
  0.6876114655612798  0.1118563973002084  0.6368526241631242
  0.6877102096843405  0.0434397528514894  0.4778758448957677
  0.5625176005452410  0.2100876802342514  0.5202104483091090
  0.6872968260565669  0.3083933606448720  0.6370535010446489
  0.5626669167618608  0.2786640744641672  0.3612210379400878
  0.8125122554327828  0.1416019711096828  0.3612283195952225
  0.9377879369233546  0.1119089834957545  0.6368029975587128
  0.9376637217208537  0.0433863598330225  0.4778619045400173
  0.8125332196777755  0.2101133516898746  0.5202302119019091
  0.9374667722390152  0.3084690757996870  0.6371163353162627
  0.8127298426592104  0.2787397640227054  0.3612412457913061
  0.0620501378493481  0.4745422700336044  0.3605909052371213
  0.1874480127192012  0.4457640903958084  0.6369735647495689
  0.1874166576299021  0.3767502615298322  0.4778280160841976
  0.0626321644830804  0.5432881340943839  0.5196551453252520
  0.1876503211093223  0.6420521610483368  0.6361466764732993
  0.0620766134978048  0.6116529979361675  0.3606032711424875
  0.3123990594836417  0.4744082522998072  0.3604699382529232
  0.4373538591020908  0.4457143165950838  0.6370126526558010
  0.4373763162822922  0.3766876431888532  0.4778666686832472
  0.3123379948115712  0.5433352974763473  0.5195557629002617
  0.4372315659432687  0.6418356046533407  0.6358438345589006
  0.3123253682814528  0.6115523022391973  0.3603600706117449
  0.5623815566109684  0.4745093720183259  0.3605961925111215
  0.6873654519162131  0.4455173638859715  0.6370419922817909
  0.6873538026572416  0.3767636134904633  0.4779470783508039
  0.5622379312644924  0.5432742729314642  0.5196321805347122
  0.6873361935270943  0.6415531305979224  0.6364145620521116
  0.5622999313625131  0.6116258656121202  0.3605832758437668
  0.8124703838715065  0.4745136275450443  0.3608608569081073
  0.9374723483688047  0.4456047807713136  0.6369280003849214
  0.9374577505816158  0.3766907993053903  0.4779894976544452
  0.8123513884534290  0.5433300314850260  0.5198167250109171
  0.9375420208504971  0.6415038810962874  0.6364205933367822
  0.8123128539716946  0.6116088125971677  0.3606749265441614
  0.0623521929241686  0.8082335687725817  0.3607316690800195
  0.1877112439832321  0.7782801286928532  0.6358817649827814
  0.1873558373378365  0.7099467330023119  0.4769386430206583
  0.0627702278479223  0.8768158517130206  0.5197464030979633
  0.1879166873141661  0.9746950996685904  0.6370444804749446
  0.0625028653812037  0.9453791939035393  0.3607081771120269
  0.3125654559284660  0.8082504386561674  0.3604977620583726
  0.4368617275791332  0.7780626883870131  0.6359541421461758
  0.4375225312962724  0.7099704171728785  0.4769534424198895
  0.3125513841321678  0.8766737527104004  0.5196193755169823
  0.4378671435386517  0.9746694922741450  0.6370963697717237
  0.3125956499893445  0.9453992035626230  0.3605417356050004
  0.5627379618484619  0.8082514737802047  0.3607117439249529
  0.6871830970886893  0.7786146340118992  0.6365059870708194
  0.6876632952874037  0.7100428515850830  0.4773785325402283
  0.5622831409111505  0.8767690798276415  0.5197215744475262
  0.6879127604643602  0.9746956386421495  0.6368485143735296
  0.5627349065512753  0.9453788482974662  0.3606990221493588
  0.8125807825796422  0.8083768731713439  0.3607290849291696
  0.9375899358744618  0.7785455018421448  0.6364889550270584
  0.9372529702891191  0.7100603883494738  0.4774377991596762
  0.8125383956487382  0.8767747767635319  0.5198626173951554
  0.9378815004816967  0.9747726646036908  0.6369753035487296
  0.8125699561116807  0.9455031410765813  0.3608863303813806
  0.3101277172453628  0.7119235613877484  0.7502760479761403
  0.3186254144641432  0.7152842403352323  0.7972616125161897
 
  0.00000000E+00  0.00000000E+00  0.00000000E+00
  0.00000000E+00  0.00000000E+00  0.00000000E+00
  0.00000000E+00  0.00000000E+00  0.00000000E+00
  0.00000000E+00  0.00000000E+00  0.00000000E+00
  0.00000000E+00  0.00000000E+00  0.00000000E+00
  0.00000000E+00  0.00000000E+00  0.00000000E+00
  0.00000000E+00  0.00000000E+00  0.00000000E+00
  0.00000000E+00  0.00000000E+00  0.00000000E+00
  0.00000000E+00  0.00000000E+00  0.00000000E+00
  0.00000000E+00  0.00000000E+00  0.00000000E+00
  0.00000000E+00  0.00000000E+00  0.00000000E+00
  0.00000000E+00  0.00000000E+00  0.00000000E+00
  0.00000000E+00  0.00000000E+00  0.00000000E+00
  0.00000000E+00  0.00000000E+00  0.00000000E+00
  0.00000000E+00  0.00000000E+00  0.00000000E+00
  0.00000000E+00  0.00000000E+00  0.00000000E+00
  0.00000000E+00  0.00000000E+00  0.00000000E+00
  0.00000000E+00  0.00000000E+00  0.00000000E+00
  0.00000000E+00  0.00000000E+00  0.00000000E+00
  0.00000000E+00  0.00000000E+00  0.00000000E+00
  0.00000000E+00  0.00000000E+00  0.00000000E+00
  0.00000000E+00  0.00000000E+00  0.00000000E+00
  0.00000000E+00  0.00000000E+00  0.00000000E+00
  0.00000000E+00  0.00000000E+00  0.00000000E+00
  0.00000000E+00  0.00000000E+00  0.00000000E+00
  0.00000000E+00  0.00000000E+00  0.00000000E+00
  0.00000000E+00  0.00000000E+00  0.00000000E+00
  0.00000000E+00  0.00000000E+00  0.00000000E+00
  0.00000000E+00  0.00000000E+00  0.00000000E+00
  0.00000000E+00  0.00000000E+00  0.00000000E+00
  0.00000000E+00  0.00000000E+00  0.00000000E+00
  0.00000000E+00  0.00000000E+00  0.00000000E+00
  0.00000000E+00  0.00000000E+00  0.00000000E+00
  0.00000000E+00  0.00000000E+00  0.00000000E+00
  0.00000000E+00  0.00000000E+00  0.00000000E+00
  0.00000000E+00  0.00000000E+00  0.00000000E+00
  0.00000000E+00  0.00000000E+00  0.00000000E+00
  0.00000000E+00  0.00000000E+00  0.00000000E+00
  0.00000000E+00  0.00000000E+00  0.00000000E+00
  0.00000000E+00  0.00000000E+00  0.00000000E+00
  0.00000000E+00  0.00000000E+00  0.00000000E+00
  0.00000000E+00  0.00000000E+00  0.00000000E+00
  0.00000000E+00  0.00000000E+00  0.00000000E+00
  0.00000000E+00  0.00000000E+00  0.00000000E+00
  0.00000000E+00  0.00000000E+00  0.00000000E+00
  0.00000000E+00  0.00000000E+00  0.00000000E+00
  0.00000000E+00  0.00000000E+00  0.00000000E+00
  0.00000000E+00  0.00000000E+00  0.00000000E+00
  0.00000000E+00  0.00000000E+00  0.00000000E+00
  0.00000000E+00  0.00000000E+00  0.00000000E+00
  0.00000000E+00  0.00000000E+00  0.00000000E+00
  0.00000000E+00  0.00000000E+00  0.00000000E+00
  0.00000000E+00  0.00000000E+00  0.00000000E+00
  0.00000000E+00  0.00000000E+00  0.00000000E+00
  0.00000000E+00  0.00000000E+00  0.00000000E+00
  0.00000000E+00  0.00000000E+00  0.00000000E+00
  0.00000000E+00  0.00000000E+00  0.00000000E+00
  0.00000000E+00  0.00000000E+00  0.00000000E+00
  0.00000000E+00  0.00000000E+00  0.00000000E+00
  0.00000000E+00  0.00000000E+00  0.00000000E+00
  0.00000000E+00  0.00000000E+00  0.00000000E+00
  0.00000000E+00  0.00000000E+00  0.00000000E+00
  0.00000000E+00  0.00000000E+00  0.00000000E+00
  0.00000000E+00  0.00000000E+00  0.00000000E+00
  0.00000000E+00  0.00000000E+00  0.00000000E+00
  0.00000000E+00  0.00000000E+00  0.00000000E+00
  0.00000000E+00  0.00000000E+00  0.00000000E+00
  0.00000000E+00  0.00000000E+00  0.00000000E+00
  0.00000000E+00  0.00000000E+00  0.00000000E+00
  0.00000000E+00  0.00000000E+00  0.00000000E+00
  0.00000000E+00  0.00000000E+00  0.00000000E+00
  0.00000000E+00  0.00000000E+00  0.00000000E+00
  0.00000000E+00  0.00000000E+00  0.00000000E+00
  0.00000000E+00  0.00000000E+00  0.00000000E+00
  0.00000000E+00  0.00000000E+00  0.00000000E+00
  0.00000000E+00  0.00000000E+00  0.00000000E+00
  0.00000000E+00  0.00000000E+00  0.00000000E+00
  0.00000000E+00  0.00000000E+00  0.00000000E+00
  0.00000000E+00  0.00000000E+00  0.00000000E+00
  0.00000000E+00  0.00000000E+00  0.00000000E+00
  0.00000000E+00  0.00000000E+00  0.00000000E+00
  0.00000000E+00  0.00000000E+00  0.00000000E+00
  0.00000000E+00  0.00000000E+00  0.00000000E+00
  0.00000000E+00  0.00000000E+00  0.00000000E+00
  0.00000000E+00  0.00000000E+00  0.00000000E+00
  0.00000000E+00  0.00000000E+00  0.00000000E+00
  0.00000000E+00  0.00000000E+00  0.00000000E+00
  0.00000000E+00  0.00000000E+00  0.00000000E+00
  0.00000000E+00  0.00000000E+00  0.00000000E+00
  0.00000000E+00  0.00000000E+00  0.00000000E+00
  0.00000000E+00  0.00000000E+00  0.00000000E+00
  0.00000000E+00  0.00000000E+00  0.00000000E+00
  0.00000000E+00  0.00000000E+00  0.00000000E+00
  0.00000000E+00  0.00000000E+00  0.00000000E+00
  0.00000000E+00  0.00000000E+00  0.00000000E+00
  0.00000000E+00  0.00000000E+00  0.00000000E+00
  0.00000000E+00  0.00000000E+00  0.00000000E+00
  0.00000000E+00  0.00000000E+00  0.00000000E+00
