CONTCAR                                 
   1.00000000000000     
    12.9555997849000004    0.0000000000000000    0.0000000000000000
     0.0000000000000000   12.9555997849000004    0.0000000000000000
     0.0000000000000000    0.0000000000000000   24.1623992919999999
   Tb   Te   O    H 
    18    54     2     1
Selective dynamics
Direct
  0.1632627709842325  0.0050128128735665  0.5865237668887104   F   F   F
  0.9967005113538860  0.1686604541728158  0.4158094151234479   F   F   F
  0.4965097741647924  0.0035303693725126  0.5870252096792257   F   F   F
  0.3307330424041623  0.1687130863363393  0.4157709304114618   F   F   F
  0.8301801950612386  0.0041290300471601  0.5869686392857005   F   F   F
  0.6637555310809091  0.1688783807452623  0.4158558964290577   F   F   F
  0.1634041054232327  0.3356982544115823  0.5861438550082170   F   F   F
  0.9977426436692625  0.5016225872781277  0.4146230436058005   F   F   F
  0.4970208634642361  0.3357755830336302  0.5860372478173375   F   F   F
  0.3296160140243671  0.5016463102920170  0.4144490452635452   F   F   F
  0.8292355378631129  0.3363104683133358  0.5864124506425270   F   F   F
  0.6637629099592246  0.5019405698728576  0.4148711509963832   F   F   F
  0.1633609945344290  0.6703470811614451  0.5854762065260388   F   F   F
  0.9976226290016328  0.8359303039532264  0.4149227906634962   F   F   F
  0.4879695533875363  0.6664931025631304  0.5820949503951169   F   F   F
  0.3299124860260889  0.8360065723481114  0.4149832106409974   F   F   F
  0.8388364921642761  0.6678309952637349  0.5823613420911826   F   F   F
  0.6638340289906282  0.8346141505182914  0.4153814021026321   F   F   F
  0.9971314484744340  0.0023092719815097  0.3124937807336607   F   F   F
  0.1632814080251990  0.1745164019626628  0.6904523354384366   F   F   F
  0.9976603960539592  0.0036412257468328  0.6905628516716149   F   F   F
  0.1638534131567795  0.1687244633660328  0.3124822044718485   F   F   F
  0.1637212375003685  0.0029958148699123  0.4543141426027617   F   F   F
  0.9960894145778170  0.1696775266334996  0.5477913650431034   F   F   F
  0.3304901307477834  0.0023049174768985  0.3124970309946420   F   F   F
  0.4966182060307887  0.1699160301889506  0.6902105990845868   F   F   F
  0.3292166336278584  0.0031807393134855  0.6903003950330131   F   F   F
  0.4973465024473640  0.1687088199781144  0.3127840989719033   F   F   F
  0.4984094932529501  0.0008271239204660  0.4549107525711165   F   F   F
  0.3306540294899705  0.1692746080244021  0.5477955271276329   F   F   F
  0.6638564882256119  0.0020968273569082  0.3125936942777230   F   F   F
  0.8295637768251822  0.1707785160653685  0.6904170065063369   F   F   F
  0.6629150358471776  0.0068878503807923  0.6904624012687890   F   F   F
  0.8302633510275896  0.1688097793187140  0.3128089512788037   F   F   F
  0.8291065861315587  0.0008084500345831  0.4548583214936670   F   F   F
  0.6633350288115309  0.1691827128703949  0.5479344098923207   F   F   F
  0.9970955529126968  0.3351768463356066  0.3122564132116850   F   F   F
  0.1631559319246847  0.5051665086876653  0.6890325961812209   F   F   F
  0.9964508928253721  0.3359503881985617  0.6900663236742446   F   F   F
  0.1637661655967690  0.5018685305066199  0.3114063794479023   F   F   F
  0.1636570855632016  0.3345080932911557  0.4539693949093291   F   F   F
  0.9987998630014658  0.5008095850653405  0.5464717930101628   F   F   F
  0.3306107697502654  0.3353807363270676  0.3120937213964439   F   F   F
  0.4962369345944140  0.5032010616117901  0.6871541307941769   F   F   F
  0.3296606362182644  0.3363488660657481  0.6899735104548341   F   F   F
  0.4970690348117088  0.5020117028751798  0.3116343007964701   F   F   F
  0.4973748935748716  0.3361217108133232  0.4542463202955318   F   F   F
  0.3278154089878882  0.5005350682973884  0.5461254581917672   F   F   F
  0.6637428127788567  0.3351728105362781  0.3120212789734325   F   F   F
  0.8293403498440881  0.5044440379797734  0.6888075592619813   F   F   F
  0.6627275245943309  0.3412714506301668  0.6896084757691270   F   F   F
  0.8304267373087129  0.5020085937426657  0.3117801684237662   F   F   F
  0.8300764348826988  0.3360583949601477  0.4544581101725242   F   F   F
  0.6635883978264800  0.5045026638978811  0.5473028197523959   F   F   F
  0.9972663042256258  0.6687703379295868  0.3115549818314136   F   F   F
  0.1631085263352361  0.8395601166161839  0.6896013004834316   F   F   F
  0.9972269852106521  0.6687689153646303  0.6881536479922090   F   F   F
  0.1637713166296777  0.8355421774494900  0.3116833367024654   F   F   F
  0.1637574912366517  0.6689604844842378  0.4537008968412692   F   F   F
  0.9980133255658785  0.8378910197938580  0.5469254360374549   F   F   F
  0.3301730532494602  0.6689456803700509  0.3116000111410173   F   F   F
  0.4940422316900523  0.8372471553309921  0.6905150677058529   F   F   F
  0.3292104563206948  0.6690279947075410  0.6879595616354663   F   F   F
  0.4972117437329544  0.8356665064340234  0.3121343777520380   F   F   F
  0.4958788434999946  0.6685038012203819  0.4525247649035862   F   F   F
  0.3288127217962540  0.8377079727177232  0.5470319023467738   F   F   F
  0.6638508848917084  0.6688960479092998  0.3120939198524582   F   F   F
  0.8325037650586111  0.8387667240864687  0.6892117352856459   F   F   F
  0.6639374743103019  0.6797338407917479  0.6780552634258257   F   F   F
  0.8306446164128189  0.8357044178824253  0.3121120886063409   F   F   F
  0.8316312328145514  0.6685408815188083  0.4526228411492426   F   F   F
  0.6635514493341077  0.8326933506447816  0.5499550071888493   F   F   F
  0.6118336925736401  0.7031905289406239  0.8003175872073456   T   T   T
  0.6773798275787399  0.6416405922864499  0.7654612237237970   T   T   T
  0.6574855647243751  0.7611528556515452  0.8092551851611464   T   T   T
 
  0.00000000E+00  0.00000000E+00  0.00000000E+00
  0.00000000E+00  0.00000000E+00  0.00000000E+00
  0.00000000E+00  0.00000000E+00  0.00000000E+00
  0.00000000E+00  0.00000000E+00  0.00000000E+00
  0.00000000E+00  0.00000000E+00  0.00000000E+00
  0.00000000E+00  0.00000000E+00  0.00000000E+00
  0.00000000E+00  0.00000000E+00  0.00000000E+00
  0.00000000E+00  0.00000000E+00  0.00000000E+00
  0.00000000E+00  0.00000000E+00  0.00000000E+00
  0.00000000E+00  0.00000000E+00  0.00000000E+00
  0.00000000E+00  0.00000000E+00  0.00000000E+00
  0.00000000E+00  0.00000000E+00  0.00000000E+00
  0.00000000E+00  0.00000000E+00  0.00000000E+00
  0.00000000E+00  0.00000000E+00  0.00000000E+00
  0.00000000E+00  0.00000000E+00  0.00000000E+00
  0.00000000E+00  0.00000000E+00  0.00000000E+00
  0.00000000E+00  0.00000000E+00  0.00000000E+00
  0.00000000E+00  0.00000000E+00  0.00000000E+00
  0.00000000E+00  0.00000000E+00  0.00000000E+00
  0.00000000E+00  0.00000000E+00  0.00000000E+00
  0.00000000E+00  0.00000000E+00  0.00000000E+00
  0.00000000E+00  0.00000000E+00  0.00000000E+00
  0.00000000E+00  0.00000000E+00  0.00000000E+00
  0.00000000E+00  0.00000000E+00  0.00000000E+00
  0.00000000E+00  0.00000000E+00  0.00000000E+00
  0.00000000E+00  0.00000000E+00  0.00000000E+00
  0.00000000E+00  0.00000000E+00  0.00000000E+00
  0.00000000E+00  0.00000000E+00  0.00000000E+00
  0.00000000E+00  0.00000000E+00  0.00000000E+00
  0.00000000E+00  0.00000000E+00  0.00000000E+00
  0.00000000E+00  0.00000000E+00  0.00000000E+00
  0.00000000E+00  0.00000000E+00  0.00000000E+00
  0.00000000E+00  0.00000000E+00  0.00000000E+00
  0.00000000E+00  0.00000000E+00  0.00000000E+00
  0.00000000E+00  0.00000000E+00  0.00000000E+00
  0.00000000E+00  0.00000000E+00  0.00000000E+00
  0.00000000E+00  0.00000000E+00  0.00000000E+00
  0.00000000E+00  0.00000000E+00  0.00000000E+00
  0.00000000E+00  0.00000000E+00  0.00000000E+00
  0.00000000E+00  0.00000000E+00  0.00000000E+00
  0.00000000E+00  0.00000000E+00  0.00000000E+00
  0.00000000E+00  0.00000000E+00  0.00000000E+00
  0.00000000E+00  0.00000000E+00  0.00000000E+00
  0.00000000E+00  0.00000000E+00  0.00000000E+00
  0.00000000E+00  0.00000000E+00  0.00000000E+00
  0.00000000E+00  0.00000000E+00  0.00000000E+00
  0.00000000E+00  0.00000000E+00  0.00000000E+00
  0.00000000E+00  0.00000000E+00  0.00000000E+00
  0.00000000E+00  0.00000000E+00  0.00000000E+00
  0.00000000E+00  0.00000000E+00  0.00000000E+00
  0.00000000E+00  0.00000000E+00  0.00000000E+00
  0.00000000E+00  0.00000000E+00  0.00000000E+00
  0.00000000E+00  0.00000000E+00  0.00000000E+00
  0.00000000E+00  0.00000000E+00  0.00000000E+00
  0.00000000E+00  0.00000000E+00  0.00000000E+00
  0.00000000E+00  0.00000000E+00  0.00000000E+00
  0.00000000E+00  0.00000000E+00  0.00000000E+00
  0.00000000E+00  0.00000000E+00  0.00000000E+00
  0.00000000E+00  0.00000000E+00  0.00000000E+00
  0.00000000E+00  0.00000000E+00  0.00000000E+00
  0.00000000E+00  0.00000000E+00  0.00000000E+00
  0.00000000E+00  0.00000000E+00  0.00000000E+00
  0.00000000E+00  0.00000000E+00  0.00000000E+00
  0.00000000E+00  0.00000000E+00  0.00000000E+00
  0.00000000E+00  0.00000000E+00  0.00000000E+00
  0.00000000E+00  0.00000000E+00  0.00000000E+00
  0.00000000E+00  0.00000000E+00  0.00000000E+00
  0.00000000E+00  0.00000000E+00  0.00000000E+00
  0.00000000E+00  0.00000000E+00  0.00000000E+00
  0.00000000E+00  0.00000000E+00  0.00000000E+00
  0.00000000E+00  0.00000000E+00  0.00000000E+00
  0.00000000E+00  0.00000000E+00  0.00000000E+00
  0.00000000E+00  0.00000000E+00  0.00000000E+00
  0.00000000E+00  0.00000000E+00  0.00000000E+00
  0.00000000E+00  0.00000000E+00  0.00000000E+00
