CONTCAR\(2)                             
   1.00000000000000     
    15.1182003021000000    0.0000000000000000    0.0000000000000000
     7.5590774867999997   13.0927586063000003    0.0000000000000000
     0.0000000000000000    0.0000000000000000   18.6788005828999992
   Ni   Te   O    H 
    32    32     2     1
Direct
  0.0750202103535788  0.0889083123735655  0.5376046784070597
  0.9909707198881474  0.0064869448827130  0.4644468765402989
  0.3241842338459995  0.0892834316348176  0.5376161142985723
  0.2416795342214637  0.0054535000916708  0.4649484026872401
  0.5745722566608827  0.0884223543528387  0.5369955608806491
  0.4908759686901165  0.0057863226423034  0.4649637385696678
  0.8250136337312040  0.0875586981377001  0.5366923640150452
  0.7408494638758581  0.0058689245816243  0.4644011689056353
  0.0750002876413067  0.3376423844556903  0.5375166100552836
  0.9906491670277568  0.2558833024075330  0.4649899220870534
  0.3257296371288793  0.3388919998502126  0.5367270876715117
  0.2418274506568973  0.2561061975212749  0.4647856908106633
  0.5764608079846070  0.3367272189234616  0.5345589586827637
  0.4913291239870705  0.2544153026443973  0.4637073783545331
  0.8239906060666166  0.3388880556554963  0.5371064373354802
  0.7434304207732197  0.2541615027280732  0.4637529372354540
  0.0745714645168801  0.5883152237381241  0.5368428417076663
  0.9921454569424872  0.5047408569019749  0.4648121763074621
  0.3212642745629591  0.5912512785646826  0.5337067188926460
  0.2403759974047494  0.5048236476933641  0.4634815228910202
  0.5764349637174253  0.5903218522705559  0.5350859998024844
  0.4908703128619613  0.5064660471671132  0.4516318178669479
  0.8255417544812292  0.5889469810384101  0.5372774986011405
  0.7436509740594364  0.5051322550984632  0.4642024980321068
  0.0738186699271854  0.8397112590095176  0.5364546378952650
  0.9918125036073693  0.7553517841407988  0.4641552390371652
  0.3249249345493593  0.8377235907090224  0.5367845245648768
  0.2394687090643809  0.7583629865567949  0.4632435843572701
  0.5750075110016750  0.8391042692220451  0.5372856657938488
  0.4904065063142588  0.7580268715417146  0.4641302271388421
  0.8248536717431084  0.8384031702414202  0.5372682112364077
  0.7409921961287251  0.7554453336389421  0.4647830664971642
  0.0748938009171084  0.0892942623907004  0.4002338768157931
  0.9911967807105317  0.0057452206765767  0.6021345809109333
  0.3244013988454443  0.0893601673236998  0.4002228370802103
  0.2418516674809504  0.0047568746410135  0.6023379253378036
  0.5746492748315167  0.0877557842278082  0.3991786777738220
  0.4910552350208762  0.0056855791883300  0.6024264496143059
  0.8251214303736025  0.0878212433347479  0.3988266879230073
  0.7411536222787596  0.0052309391465426  0.6020296724311905
  0.0750169826524752  0.3382234112868196  0.4002161967955670
  0.9907398643793178  0.2555211321475214  0.6024973028927302
  0.3250024652493436  0.3384073729785916  0.3986999210168221
  0.2417365041026498  0.2560832714803334  0.6022392637410764
  0.5773311168560241  0.3342892779111480  0.3976522642582158
  0.4920902169263320  0.2553943807552345  0.6016779130636931
  0.8251579000715046  0.3390120888837058  0.3990164128582716
  0.7421848744556035  0.2543000015583760  0.6015164767085240
  0.0736835271389933  0.5889372011001063  0.3991359364610423
  0.9920368288196535  0.5046618054464492  0.6023335204171157
  0.3188770496134628  0.5922622041807750  0.3969553344536862
  0.2415279810276043  0.5057458151930374  0.6011229939888808
  0.5774848179279517  0.5919846692129329  0.3982353922070448
  0.4898053418317359  0.5064344239092466  0.5869316778539740
  0.8261732330025086  0.5891796863480137  0.3994740808440091
  0.7422012927273992  0.5054427643977147  0.6018867097830141
  0.0728032230765964  0.8407466997753469  0.3987414235090101
  0.9917131763015823  0.7552999084999032  0.6016259874043357
  0.3243195708501934  0.8401541849687496  0.3987331436029011
  0.2401365335768409  0.7563307327159013  0.6013744767955508
  0.5748089510200880  0.8400425458887547  0.3993280949258025
  0.4912216969845454  0.7561464308692467  0.6018454769959108
  0.8245782734729439  0.8387541604738628  0.4001225413196471
  0.7415248449706132  0.7553589161625842  0.6024288437244004
  0.5655660421403165  0.4349950000064830  0.7348067845182005
  0.4696525409416279  0.5050832527056769  0.7007077865750982
  0.5615473140065271  0.3720357057977330  0.7363719392393329
 
  0.00000000E+00  0.00000000E+00  0.00000000E+00
  0.00000000E+00  0.00000000E+00  0.00000000E+00
  0.00000000E+00  0.00000000E+00  0.00000000E+00
  0.00000000E+00  0.00000000E+00  0.00000000E+00
  0.00000000E+00  0.00000000E+00  0.00000000E+00
  0.00000000E+00  0.00000000E+00  0.00000000E+00
  0.00000000E+00  0.00000000E+00  0.00000000E+00
  0.00000000E+00  0.00000000E+00  0.00000000E+00
  0.00000000E+00  0.00000000E+00  0.00000000E+00
  0.00000000E+00  0.00000000E+00  0.00000000E+00
  0.00000000E+00  0.00000000E+00  0.00000000E+00
  0.00000000E+00  0.00000000E+00  0.00000000E+00
  0.00000000E+00  0.00000000E+00  0.00000000E+00
  0.00000000E+00  0.00000000E+00  0.00000000E+00
  0.00000000E+00  0.00000000E+00  0.00000000E+00
  0.00000000E+00  0.00000000E+00  0.00000000E+00
  0.00000000E+00  0.00000000E+00  0.00000000E+00
  0.00000000E+00  0.00000000E+00  0.00000000E+00
  0.00000000E+00  0.00000000E+00  0.00000000E+00
  0.00000000E+00  0.00000000E+00  0.00000000E+00
  0.00000000E+00  0.00000000E+00  0.00000000E+00
  0.00000000E+00  0.00000000E+00  0.00000000E+00
  0.00000000E+00  0.00000000E+00  0.00000000E+00
  0.00000000E+00  0.00000000E+00  0.00000000E+00
  0.00000000E+00  0.00000000E+00  0.00000000E+00
  0.00000000E+00  0.00000000E+00  0.00000000E+00
  0.00000000E+00  0.00000000E+00  0.00000000E+00
  0.00000000E+00  0.00000000E+00  0.00000000E+00
  0.00000000E+00  0.00000000E+00  0.00000000E+00
  0.00000000E+00  0.00000000E+00  0.00000000E+00
  0.00000000E+00  0.00000000E+00  0.00000000E+00
  0.00000000E+00  0.00000000E+00  0.00000000E+00
  0.00000000E+00  0.00000000E+00  0.00000000E+00
  0.00000000E+00  0.00000000E+00  0.00000000E+00
  0.00000000E+00  0.00000000E+00  0.00000000E+00
  0.00000000E+00  0.00000000E+00  0.00000000E+00
  0.00000000E+00  0.00000000E+00  0.00000000E+00
  0.00000000E+00  0.00000000E+00  0.00000000E+00
  0.00000000E+00  0.00000000E+00  0.00000000E+00
  0.00000000E+00  0.00000000E+00  0.00000000E+00
  0.00000000E+00  0.00000000E+00  0.00000000E+00
  0.00000000E+00  0.00000000E+00  0.00000000E+00
  0.00000000E+00  0.00000000E+00  0.00000000E+00
  0.00000000E+00  0.00000000E+00  0.00000000E+00
  0.00000000E+00  0.00000000E+00  0.00000000E+00
  0.00000000E+00  0.00000000E+00  0.00000000E+00
  0.00000000E+00  0.00000000E+00  0.00000000E+00
  0.00000000E+00  0.00000000E+00  0.00000000E+00
  0.00000000E+00  0.00000000E+00  0.00000000E+00
  0.00000000E+00  0.00000000E+00  0.00000000E+00
  0.00000000E+00  0.00000000E+00  0.00000000E+00
  0.00000000E+00  0.00000000E+00  0.00000000E+00
  0.00000000E+00  0.00000000E+00  0.00000000E+00
  0.00000000E+00  0.00000000E+00  0.00000000E+00
  0.00000000E+00  0.00000000E+00  0.00000000E+00
  0.00000000E+00  0.00000000E+00  0.00000000E+00
  0.00000000E+00  0.00000000E+00  0.00000000E+00
  0.00000000E+00  0.00000000E+00  0.00000000E+00
  0.00000000E+00  0.00000000E+00  0.00000000E+00
  0.00000000E+00  0.00000000E+00  0.00000000E+00
  0.00000000E+00  0.00000000E+00  0.00000000E+00
  0.00000000E+00  0.00000000E+00  0.00000000E+00
  0.00000000E+00  0.00000000E+00  0.00000000E+00
  0.00000000E+00  0.00000000E+00  0.00000000E+00
  0.00000000E+00  0.00000000E+00  0.00000000E+00
  0.00000000E+00  0.00000000E+00  0.00000000E+00
  0.00000000E+00  0.00000000E+00  0.00000000E+00
