CONTCAR\(2)                             
   1.00000000000000     
    12.1099004744999998    0.0000000000000000    0.0000000000000000
     6.0457150728000002   10.8693710211999992    0.0000000000000000
     0.0000000000000000    0.0000000000000000   18.1751995087000005
   Zr   Cl
     8    24
Direct
  0.1595904065388527  0.1804624768513129  0.5000182523271595
  0.3404095814611463  0.3195375301486842  0.4999817476728405
  0.6595903865388509  0.1804624768513129  0.5000182523271595
  0.8404095814611464  0.3195375301486842  0.4999817476728405
  0.1595903715388534  0.6804625278513136  0.5000182523271595
  0.3404095544611476  0.8195375261486838  0.4999817476728405
  0.6595903715388532  0.6804625278513136  0.5000182523271595
  0.8404095154611481  0.8195375261486838  0.4999817476728405
  0.1680868585444950  0.4999208306235074  0.5748556801427984
  0.4989184437542489  0.1686696173662743  0.4119900348096433
  0.3322655401855537  0.1686515760582905  0.5878571497356564
  0.1677344228144468  0.3313484419417110  0.4121328542643479
  0.0010815322457562  0.3313304116337245  0.5879999951903631
  0.3319131724555041  0.0000792083764994  0.4251442928572029
  0.6680868195444952  0.4999208306235074  0.5748556801427984
  0.9989184437542490  0.1686696173662743  0.4119900348096433
  0.8322655791855533  0.1686515760582905  0.5878571497356564
  0.6677343828144435  0.3313484419417110  0.4121328542643479
  0.5010815122457545  0.3313304116337245  0.5879999951903631
  0.8319131324555079  0.0000792083764994  0.4251442928572029
  0.1680868035444940  0.9999208046235052  0.5748556801427984
  0.4989183897542444  0.6686696683662751  0.4119900348096433
  0.3322655301855599  0.6686516160582867  0.5878571497356564
  0.1677344348144407  0.8313484379417106  0.4121328542643479
  0.0010815362457566  0.8313303866337259  0.5879999951903631
  0.3319131624555032  0.5000792493764993  0.4251442928572029
  0.6680868425444936  0.9999208046235052  0.5748556801427984
  0.9989184297542478  0.6686696683662751  0.4119900348096433
  0.8322655701855561  0.6686516160582867  0.5878571497356564
  0.6677343958144411  0.8313484379417106  0.4121328542643479
  0.5010815362457565  0.8313303866337259  0.5879999951903631
  0.8319131224555071  0.5000792493764993  0.4251442928572029
 
  0.00000000E+00  0.00000000E+00  0.00000000E+00
  0.00000000E+00  0.00000000E+00  0.00000000E+00
  0.00000000E+00  0.00000000E+00  0.00000000E+00
  0.00000000E+00  0.00000000E+00  0.00000000E+00
  0.00000000E+00  0.00000000E+00  0.00000000E+00
  0.00000000E+00  0.00000000E+00  0.00000000E+00
  0.00000000E+00  0.00000000E+00  0.00000000E+00
  0.00000000E+00  0.00000000E+00  0.00000000E+00
  0.00000000E+00  0.00000000E+00  0.00000000E+00
  0.00000000E+00  0.00000000E+00  0.00000000E+00
  0.00000000E+00  0.00000000E+00  0.00000000E+00
  0.00000000E+00  0.00000000E+00  0.00000000E+00
  0.00000000E+00  0.00000000E+00  0.00000000E+00
  0.00000000E+00  0.00000000E+00  0.00000000E+00
  0.00000000E+00  0.00000000E+00  0.00000000E+00
  0.00000000E+00  0.00000000E+00  0.00000000E+00
  0.00000000E+00  0.00000000E+00  0.00000000E+00
  0.00000000E+00  0.00000000E+00  0.00000000E+00
  0.00000000E+00  0.00000000E+00  0.00000000E+00
  0.00000000E+00  0.00000000E+00  0.00000000E+00
  0.00000000E+00  0.00000000E+00  0.00000000E+00
  0.00000000E+00  0.00000000E+00  0.00000000E+00
  0.00000000E+00  0.00000000E+00  0.00000000E+00
  0.00000000E+00  0.00000000E+00  0.00000000E+00
  0.00000000E+00  0.00000000E+00  0.00000000E+00
  0.00000000E+00  0.00000000E+00  0.00000000E+00
  0.00000000E+00  0.00000000E+00  0.00000000E+00
  0.00000000E+00  0.00000000E+00  0.00000000E+00
  0.00000000E+00  0.00000000E+00  0.00000000E+00
  0.00000000E+00  0.00000000E+00  0.00000000E+00
  0.00000000E+00  0.00000000E+00  0.00000000E+00
  0.00000000E+00  0.00000000E+00  0.00000000E+00
