CONTCAR                                 
   1.00000000000000     
    11.2482995986999992    0.0000000000000000    0.0000000000000000
     0.0000000000000000   13.7291002274000000    0.0000000000000000
     0.0000000000000000    0.0000000000000000   19.4125995636000006
   Zr   I    O    H 
    12    24     1     1
Direct
 -0.0075681383968085  0.2479026735190554  0.4951691225705043
  0.1575612386522383  0.0638177985387719  0.4935973362893850
  0.3333525610347916  0.2524089285309630  0.4964280387911879
  0.5089699100321777  0.0639274064478958  0.4937170039666507
  0.6740932448448508  0.2479295547394410  0.4951620204256428
  0.8330986526643038  0.0561109148885919  0.4938342329756107
 -0.0063209405115430  0.7440672021739593  0.5065127149362982
  0.1533685817912420  0.5547547187644348  0.4968067179716250
  0.3356309528412857  0.7535456591022678  0.5364933137133803
  0.5128094373556742  0.5547124065356205  0.4971496017771821
  0.6722895484162686  0.7439243200294910  0.5068772091376504
  0.8334497354337784  0.5555363034225058  0.4941269998126755
 -0.0058165196316574  0.4341863243778464  0.5804800899944125
 -0.0031235476791336  0.1100725531889169  0.3804952031153974
  0.1648618464444383  0.3653429047532871  0.4090320848469128
  0.1633203918072322  0.2018242684379365  0.6059756169809914
  0.3328439631910040  0.4408276470784721  0.5789539677927531
  0.3332498165873325  0.1115420293222052  0.3849487798086144
  0.5017983036141968  0.3654964972764730  0.4090337879881614
  0.5033076103190604  0.2020338929141387  0.6060466389382104
  0.6726727283804456  0.4340330345184497  0.5804253535574322
  0.6693563481652445  0.1102160235222451  0.3804368282759818
  0.8334610390150763  0.3648188940075772  0.4044089849307675
  0.8333518976549936  0.1909154484194643  0.6082517512941008
  0.0001425420489186  0.9429204772061305  0.5869852714212455
 -0.0004103684580548  0.6182793949532703  0.3856209663219165
  0.1719791994239479  0.8602537079490689  0.4290962924891716
  0.1401190093505431  0.6657184623273497  0.6199638778157609
  0.3331971097675608  0.9755166158776317  0.5801525092397692
  0.3334065164756953  0.6206832223511318  0.3988950522991408
  0.4949984796412219  0.8603820818976223  0.4289223603944651
  0.5275245021744691  0.6642472772366841  0.6209875100286812
  0.6662402568438603  0.9429057395988651  0.5872743268171571
  0.6669384882137385  0.6176138019731364  0.3859694887440074
  0.8329786760878577  0.8620567860290163  0.4154595782419395
  0.8335488808227053  0.6835631223806572  0.6147811278190196
  0.3341861072207235  0.8030047782072929  0.6387674711893764
  0.3359422673603467  0.7580470205021459  0.6774806152868129
 
  0.00000000E+00  0.00000000E+00  0.00000000E+00
  0.00000000E+00  0.00000000E+00  0.00000000E+00
  0.00000000E+00  0.00000000E+00  0.00000000E+00
  0.00000000E+00  0.00000000E+00  0.00000000E+00
  0.00000000E+00  0.00000000E+00  0.00000000E+00
  0.00000000E+00  0.00000000E+00  0.00000000E+00
  0.00000000E+00  0.00000000E+00  0.00000000E+00
  0.00000000E+00  0.00000000E+00  0.00000000E+00
  0.00000000E+00  0.00000000E+00  0.00000000E+00
  0.00000000E+00  0.00000000E+00  0.00000000E+00
  0.00000000E+00  0.00000000E+00  0.00000000E+00
  0.00000000E+00  0.00000000E+00  0.00000000E+00
  0.00000000E+00  0.00000000E+00  0.00000000E+00
  0.00000000E+00  0.00000000E+00  0.00000000E+00
  0.00000000E+00  0.00000000E+00  0.00000000E+00
  0.00000000E+00  0.00000000E+00  0.00000000E+00
  0.00000000E+00  0.00000000E+00  0.00000000E+00
  0.00000000E+00  0.00000000E+00  0.00000000E+00
  0.00000000E+00  0.00000000E+00  0.00000000E+00
  0.00000000E+00  0.00000000E+00  0.00000000E+00
  0.00000000E+00  0.00000000E+00  0.00000000E+00
  0.00000000E+00  0.00000000E+00  0.00000000E+00
  0.00000000E+00  0.00000000E+00  0.00000000E+00
  0.00000000E+00  0.00000000E+00  0.00000000E+00
  0.00000000E+00  0.00000000E+00  0.00000000E+00
  0.00000000E+00  0.00000000E+00  0.00000000E+00
  0.00000000E+00  0.00000000E+00  0.00000000E+00
  0.00000000E+00  0.00000000E+00  0.00000000E+00
  0.00000000E+00  0.00000000E+00  0.00000000E+00
  0.00000000E+00  0.00000000E+00  0.00000000E+00
  0.00000000E+00  0.00000000E+00  0.00000000E+00
  0.00000000E+00  0.00000000E+00  0.00000000E+00
  0.00000000E+00  0.00000000E+00  0.00000000E+00
  0.00000000E+00  0.00000000E+00  0.00000000E+00
  0.00000000E+00  0.00000000E+00  0.00000000E+00
  0.00000000E+00  0.00000000E+00  0.00000000E+00
  0.00000000E+00  0.00000000E+00  0.00000000E+00
  0.00000000E+00  0.00000000E+00  0.00000000E+00
