CONTCAR\(4)                             
   1.00000000000000     
    10.0733995438000008    0.0000000000000000    0.0000000000000000
     0.0000000000000000    9.7955999374000005    0.0000000000000000
     0.0000000000000000    0.0000000000000000   18.6921005248999990
   Ta   Se   O 
    12    18     1
Direct
  0.0712196578616268  0.5484273872120961  0.4955417736844536
  0.2500852089821949  0.3044789568755811  0.4916893197504398
  0.1047182113502513  0.8664987095294630  0.5721106347520554
  0.2500680747517668  0.9914371707719265  0.4613103267115755
  0.4288438367169843  0.5484422040172584  0.4955292860813871
  0.5880735595964643  0.3017253526116846  0.4957554307664349
  0.3954386787427085  0.8664606594126846  0.5720605077197000
  0.5901803358644294  0.9922115231303995  0.4572448346136363
  0.7500473894027080  0.5539216469631550  0.5002510609127279
  0.9119643893254837  0.3017004220035591  0.4957779408748984
  0.7499926641862760  0.8688489831239591  0.5581828287889508
  0.9098384353183713  0.9922185583565779  0.4572604829166047
  0.0805755210691136  0.3670377992850338  0.5934925587481982
  0.2500188720968853  0.4956080182167644  0.3973683272381565
  0.0819226872973479  0.1703799509040652  0.4054851792398708
  0.2500284565863691  0.6403227250102459  0.5856077614920455
  0.2500584055773066  0.1045438109881805  0.5822400331654699
  0.0813275512823921  0.8011382629513170  0.4325056830625718
  0.4195249086185476  0.3670727885814193  0.5934971367300923
  0.5895692612873894  0.4850590612889478  0.3954998151769485
  0.4181745784341502  0.1704154373530517  0.4054446340532180
  0.5808496412760111  0.6747032342854095  0.5967838992026377
  0.5801784792051231  0.0601690046413545  0.5897714431629790
  0.4187222546160105  0.8011111595043665  0.4324465051434298
  0.7500162488024422  0.3668074098139040  0.5976719382551930
  0.9105037865174681  0.4850026923999156  0.3955097633955164
  0.7500290068132958  0.1727524150392095  0.4002865934618945
  0.9192420783556602  0.6747783694640476  0.5968060314983831
  0.9199066347470518  0.0601343994054649  0.5897719019087683
  0.7500221012012052  0.7977343612731757  0.4236076851783687
  0.2500988831169475  0.8808070585858118  0.6435884743133803
 
  0.00000000E+00  0.00000000E+00  0.00000000E+00
  0.00000000E+00  0.00000000E+00  0.00000000E+00
  0.00000000E+00  0.00000000E+00  0.00000000E+00
  0.00000000E+00  0.00000000E+00  0.00000000E+00
  0.00000000E+00  0.00000000E+00  0.00000000E+00
  0.00000000E+00  0.00000000E+00  0.00000000E+00
  0.00000000E+00  0.00000000E+00  0.00000000E+00
  0.00000000E+00  0.00000000E+00  0.00000000E+00
  0.00000000E+00  0.00000000E+00  0.00000000E+00
  0.00000000E+00  0.00000000E+00  0.00000000E+00
  0.00000000E+00  0.00000000E+00  0.00000000E+00
  0.00000000E+00  0.00000000E+00  0.00000000E+00
  0.00000000E+00  0.00000000E+00  0.00000000E+00
  0.00000000E+00  0.00000000E+00  0.00000000E+00
  0.00000000E+00  0.00000000E+00  0.00000000E+00
  0.00000000E+00  0.00000000E+00  0.00000000E+00
  0.00000000E+00  0.00000000E+00  0.00000000E+00
  0.00000000E+00  0.00000000E+00  0.00000000E+00
  0.00000000E+00  0.00000000E+00  0.00000000E+00
  0.00000000E+00  0.00000000E+00  0.00000000E+00
  0.00000000E+00  0.00000000E+00  0.00000000E+00
  0.00000000E+00  0.00000000E+00  0.00000000E+00
  0.00000000E+00  0.00000000E+00  0.00000000E+00
  0.00000000E+00  0.00000000E+00  0.00000000E+00
  0.00000000E+00  0.00000000E+00  0.00000000E+00
  0.00000000E+00  0.00000000E+00  0.00000000E+00
  0.00000000E+00  0.00000000E+00  0.00000000E+00
  0.00000000E+00  0.00000000E+00  0.00000000E+00
  0.00000000E+00  0.00000000E+00  0.00000000E+00
  0.00000000E+00  0.00000000E+00  0.00000000E+00
  0.00000000E+00  0.00000000E+00  0.00000000E+00
