CONTCAR                                 
   1.00000000000000     
    11.9334001540999992    0.0000000000000000    0.0000000000000000
    -5.9667003860000003   10.3361284282000003    0.0000000000000000
     0.0000000000000000    0.0000000000000000   17.6816005706999988
   Ru   Cl   O 
     8    24     1
Direct
  0.3324637471887344  0.1632620191649856  0.5001713055203230
  0.1694676232292418  0.3293484151098220  0.5014554284030576
  0.8268687433675234  0.1607978666557145  0.5012940297433655
  0.6674977931483690  0.3307552195333547  0.5001793588104790
  0.3629872679770257  0.6768987535911327  0.5016257746776542
  0.1730769667668823  0.8338962148752832  0.5012700183605003
  0.8305161554034592  0.6598854365574062  0.5014405708983125
  0.6369715812809075  0.8139074461485474  0.5016324980537125
  0.1728599989033147  0.1681353413242856  0.5774297912778188
  0.1735427511540990  0.9958440590072279  0.4241211401825119
  0.9963630050291208  0.1706771434317058  0.4271824921612312
  0.3236070585027668  0.3193060125747635  0.4221389748031016
  0.9996276173748619  0.3173361446561466  0.5764311377296452
  0.3285570306360819  0.0006010514491368  0.5786637526599183
  0.6713970066423993  0.1720316384647382  0.5786969899372573
  0.6618887799055956  0.9927703721404648  0.4266876064677829
  0.4999873656018803  0.1723868419073297  0.4238084322876252
  0.8264453207274266  0.3222923251430563  0.4241230265454957
  0.4999830332785553  0.3239862819465873  0.5751533635556771
  0.8058104909588193  0.9840211121331482  0.5745078502886353
  0.1941227294239124  0.6781658065536003  0.5744877947296937
  0.1853154514611356  0.5054925979424186  0.4305428210856329
  0.0036078972633623  0.6743067729239665  0.4271487195719459
  0.3380415907957799  0.8308044880816977  0.4266559754693852
  0.0003318485147871  0.8176877505790351  0.5764239641840390
  0.3351348468496569  0.4966839357742223  0.5750846162946786
  0.6648283339199900  0.6615267181456920  0.5750814052003843
  0.6763712901153003  0.4956784390633730  0.4221495001786072
  0.4999959090464068  0.6585864132854909  0.4147352040440984
  0.8146456236447681  0.8201668291924601  0.4305336343375111
  0.4999631363929915  0.8318597627065734  0.5851680871437246
  0.8271139362437111  0.4952597699249001  0.5774075250518211
  0.4999776632511416  0.7839507940117574  0.6650273173443459
 
  0.00000000E+00  0.00000000E+00  0.00000000E+00
  0.00000000E+00  0.00000000E+00  0.00000000E+00
  0.00000000E+00  0.00000000E+00  0.00000000E+00
  0.00000000E+00  0.00000000E+00  0.00000000E+00
  0.00000000E+00  0.00000000E+00  0.00000000E+00
  0.00000000E+00  0.00000000E+00  0.00000000E+00
  0.00000000E+00  0.00000000E+00  0.00000000E+00
  0.00000000E+00  0.00000000E+00  0.00000000E+00
  0.00000000E+00  0.00000000E+00  0.00000000E+00
  0.00000000E+00  0.00000000E+00  0.00000000E+00
  0.00000000E+00  0.00000000E+00  0.00000000E+00
  0.00000000E+00  0.00000000E+00  0.00000000E+00
  0.00000000E+00  0.00000000E+00  0.00000000E+00
  0.00000000E+00  0.00000000E+00  0.00000000E+00
  0.00000000E+00  0.00000000E+00  0.00000000E+00
  0.00000000E+00  0.00000000E+00  0.00000000E+00
  0.00000000E+00  0.00000000E+00  0.00000000E+00
  0.00000000E+00  0.00000000E+00  0.00000000E+00
  0.00000000E+00  0.00000000E+00  0.00000000E+00
  0.00000000E+00  0.00000000E+00  0.00000000E+00
  0.00000000E+00  0.00000000E+00  0.00000000E+00
  0.00000000E+00  0.00000000E+00  0.00000000E+00
  0.00000000E+00  0.00000000E+00  0.00000000E+00
  0.00000000E+00  0.00000000E+00  0.00000000E+00
  0.00000000E+00  0.00000000E+00  0.00000000E+00
  0.00000000E+00  0.00000000E+00  0.00000000E+00
  0.00000000E+00  0.00000000E+00  0.00000000E+00
  0.00000000E+00  0.00000000E+00  0.00000000E+00
  0.00000000E+00  0.00000000E+00  0.00000000E+00
  0.00000000E+00  0.00000000E+00  0.00000000E+00
  0.00000000E+00  0.00000000E+00  0.00000000E+00
  0.00000000E+00  0.00000000E+00  0.00000000E+00
  0.00000000E+00  0.00000000E+00  0.00000000E+00
