CONTCAR                                 
   1.00000000000000     
    13.0193004608000003    0.0000000000000000    0.0000000000000000
    -1.6274128543999999    9.0662962906000004    0.0000000000000000
     0.0000000000000000    0.0000000000000000   18.6888999939000016
   Nb   Pd   S    O    H 
     8     4    24     2     1
Selective dynamics
Direct
  0.0355130717484187  0.3065268088206494  0.4779473577174116   F   F   F
  0.2108583843286524  0.7027318048206297  0.5397919124923689   F   F   F
  0.2856424440680030  0.3059406005107093  0.4769811786240652   F   F   F
  0.4628088799472962  0.7068037502822833  0.5285603997483932   F   F   F
  0.5350774922111370  0.3042138759339252  0.4774664850275556   F   F   F
  0.7115524010838925  0.7059462553304456  0.5268549169550170   F   F   F
  0.7850814930321235  0.3036216436576993  0.4780249163953698   F   F   F
  0.9605339754126874  0.7061656776701284  0.5285403873518462   F   F   F
  0.1242606550668626  0.0114983528930850  0.5007857427276932   F   F   F
  0.3739605224268487  0.0079232088839944  0.5023347462213579   F   F   F
  0.6243807464762199  0.0048416621427592  0.5029030838909208   F   F   F
  0.8716535987116032  0.0041420680181972  0.5028811243468496   F   F   F
  0.1005744307883418  0.7878460317204414  0.4396907347062040   F   F   F
  0.1512843391107310  0.2257149744132150  0.5704954934419391   F   F   F
  0.0562250764607342  0.5141759381204452  0.5745761135956968   F   F   F
  0.1846447236653432  0.4991884476584190  0.4390772271565666   F   F   F
  0.1436951378879812  0.1730989895067907  0.4011538950453755   F   F   F
  0.0990943737489829  0.8614026958690317  0.6002107112564588   F   F   F
  0.3423817207613595  0.7854238911855873  0.4401240501436234   F   F   F
  0.4007555859613632  0.2238704552804336  0.5703145130449414   F   F   F
  0.3168879056523082  0.5121353570971081  0.5720005616317607   F   F   F
  0.4345175119646498  0.4929491414815317  0.4326958681950686   F   F   F
  0.3926486375871505  0.1665003530862705  0.4025074090283027   F   F   F
  0.3624984959649780  0.8584813167359826  0.6024725366667312   F   F   F
  0.5954643856283610  0.7884001332286985  0.4344566299331802   F   F   F
  0.6501708567893871  0.2213950777228249  0.5708988906500991   F   F   F
  0.5637018444973450  0.5184341131777899  0.5715250246119652   F   F   F
  0.6838615554184244  0.4903851931709156  0.4332458167866804   F   F   F
  0.6426203988493739  0.1635392215201961  0.4039391251956346   F   F   F
  0.6056344250243129  0.8454087958372938  0.6020102758726082   F   F   F
  0.8474949435898438  0.7877364712115025  0.4344040153240556   F   F   F
  0.9003032105533677  0.2205010577731059  0.5708238353034929   F   F   F
  0.8116223209330400  0.5182797254889664  0.5715922232185093   F   F   F
  0.9338061026652724  0.4917356041256156  0.4331903297591637   F   F   F
  0.8929001245295183  0.1637577157367787  0.4044338561131369   F   F   F
  0.8521518250020677  0.8445468868703898  0.6020854898192951   F   F   F
  0.2048271336735823  0.6904826555579788  0.6664368085814871   T   T   T
  0.2269258702420700  0.5762978133972538  0.7086269715642928   T   T   T
  0.2589237065363577  0.5127366420609221  0.6730363793983947   T   T   T
 
  0.00000000E+00  0.00000000E+00  0.00000000E+00
  0.00000000E+00  0.00000000E+00  0.00000000E+00
  0.00000000E+00  0.00000000E+00  0.00000000E+00
  0.00000000E+00  0.00000000E+00  0.00000000E+00
  0.00000000E+00  0.00000000E+00  0.00000000E+00
  0.00000000E+00  0.00000000E+00  0.00000000E+00
  0.00000000E+00  0.00000000E+00  0.00000000E+00
  0.00000000E+00  0.00000000E+00  0.00000000E+00
  0.00000000E+00  0.00000000E+00  0.00000000E+00
  0.00000000E+00  0.00000000E+00  0.00000000E+00
  0.00000000E+00  0.00000000E+00  0.00000000E+00
  0.00000000E+00  0.00000000E+00  0.00000000E+00
  0.00000000E+00  0.00000000E+00  0.00000000E+00
  0.00000000E+00  0.00000000E+00  0.00000000E+00
  0.00000000E+00  0.00000000E+00  0.00000000E+00
  0.00000000E+00  0.00000000E+00  0.00000000E+00
  0.00000000E+00  0.00000000E+00  0.00000000E+00
  0.00000000E+00  0.00000000E+00  0.00000000E+00
  0.00000000E+00  0.00000000E+00  0.00000000E+00
  0.00000000E+00  0.00000000E+00  0.00000000E+00
  0.00000000E+00  0.00000000E+00  0.00000000E+00
  0.00000000E+00  0.00000000E+00  0.00000000E+00
  0.00000000E+00  0.00000000E+00  0.00000000E+00
  0.00000000E+00  0.00000000E+00  0.00000000E+00
  0.00000000E+00  0.00000000E+00  0.00000000E+00
  0.00000000E+00  0.00000000E+00  0.00000000E+00
  0.00000000E+00  0.00000000E+00  0.00000000E+00
  0.00000000E+00  0.00000000E+00  0.00000000E+00
  0.00000000E+00  0.00000000E+00  0.00000000E+00
  0.00000000E+00  0.00000000E+00  0.00000000E+00
  0.00000000E+00  0.00000000E+00  0.00000000E+00
  0.00000000E+00  0.00000000E+00  0.00000000E+00
  0.00000000E+00  0.00000000E+00  0.00000000E+00
  0.00000000E+00  0.00000000E+00  0.00000000E+00
  0.00000000E+00  0.00000000E+00  0.00000000E+00
  0.00000000E+00  0.00000000E+00  0.00000000E+00
  0.00000000E+00  0.00000000E+00  0.00000000E+00
  0.00000000E+00  0.00000000E+00  0.00000000E+00
  0.00000000E+00  0.00000000E+00  0.00000000E+00
