CONTCAR\(5)                             
   1.00000000000000     
    13.0608997344999995    0.0000000000000000    0.0000000000000000
    -3.2652307411999999   18.2355734656999999    0.0000000000000000
     0.0000000000000000    0.0000000000000000   18.6539993286000012
   Ta   Pd   S    O    H 
    16     8    48     1     1
Direct
  0.0877405023140336  0.3497797873880961  0.5275061144749916
  0.1627353652010960  0.1508835276580590  0.4786562044551780
  0.3378348855867902  0.3493916287674865  0.5274164809773384
  0.4131063802574130  0.1510103208284072  0.4782965165842478
  0.5880385148775413  0.3499279251376690  0.5272448366592847
  0.6629780775805383  0.1512338285520417  0.4785256243762194
  0.8379808842276811  0.3504161721290263  0.5273797001207434
  0.9128347409009695  0.1511834626536489  0.4789811430355269
  0.0888810417446654  0.8509333212139368  0.5263241506365863
  0.1638475647933016  0.6499266812482942  0.4778477842621241
  0.3368174066820721  0.8532642385163093  0.5212656684188641
  0.4129692877906289  0.6457339507766602  0.4763355618198938
  0.5939484704035297  0.8533583868432489  0.5237286381513774
  0.6645061329393891  0.6502386436982474  0.4790690837193685
  0.8402400872042287  0.8509545248142230  0.5269534565424651
  0.9142910557079862  0.6506496465021551  0.4790604175444269
  0.0012729060266291  0.0003386779969929  0.5032760608957725
  0.2510911096717393  0.0008754785174073  0.5012034155665305
  0.5013789533217112  0.0005676630139073  0.5014399058477168
  0.7515347828973008  0.0011957916321211  0.5020947953799986
  0.0018138507550371  0.5009238011522616  0.5025767626787130
  0.2508462628376344  0.4988908708779273  0.5025632688328564
  0.5010096684698769  0.4993735957747040  0.5023859805375821
  0.7513039487646567  0.5010277527892598  0.5029557149734880
  0.1895477345502502  0.2573716384224430  0.5727480543783032
  0.0275612711713418  0.1084617449343798  0.5711587474076000
  0.2229716216037420  0.3911529186707135  0.4349588822020261
  0.0609486418486020  0.2431463154589085  0.4336978811271436
  0.2304908893863452  0.4194089548501166  0.6013284614818456
  0.0199439221498129  0.0808570758947822  0.4051852872930463
  0.4397712893344114  0.2574419761063422  0.5725402087350701
  0.2775817936292628  0.1080985387161425  0.5704046008472907
  0.4729090130703094  0.3913859557295633  0.4348037376023778
  0.3108967002816689  0.2431360516029789  0.4333627115375375
  0.4805185458409250  0.4196648909541178  0.6010841519615842
  0.2705072693087012  0.0819505052856386  0.4037619034281945
  0.6898118903856970  0.2580052113648517  0.5726181263612250
  0.5274580725354944  0.1081576342824481  0.5704399657463655
  0.7234216197916168  0.3927814772543906  0.4349899911947730
  0.5613023742957355  0.2434244060496983  0.4333460216533435
  0.7305175233625891  0.4204175658488359  0.6010221736455225
  0.5209203600363483  0.0817587113718139  0.4039755617922314
  0.9394890686412865  0.2580877771428380  0.5730156316366117
  0.7773280128718599  0.1086367862126786  0.5708961006004757
  0.9733334914050130  0.3925154576014324  0.4350488211465492
  0.8113034000276106  0.2435411531847166  0.4336805969374197
  0.9808716821294571  0.4206688473241607  0.6008480801289304
  0.7707852131515994  0.0820127118967834  0.4042403950098999
  0.1947107851335006  0.7588161902956296  0.5709621817240665
  0.0297955540333042  0.6090231030490193  0.5710065319506128
  0.2227715471400141  0.8933455304612422  0.4313154185435212
  0.0630579978320050  0.7426929933303626  0.4340329354647270
  0.2319479006954903  0.9202489450072081  0.5994030519370976
  0.0211108759463349  0.5813568814392219  0.4040162121424413
  0.4411036193576152  0.7567536302811415  0.5613326276705484
  0.2786377385665897  0.6077287581876138  0.5698470101487288
  0.4763454079785578  0.8933408731684380  0.4319851141336250
  0.3137376851799438  0.7411991543407463  0.4313131178955941
  0.4808564771011795  0.9183489604454224  0.5990393378201939
  0.2692842118645271  0.5782661041188344  0.4032727753497918
  0.6898975170069077  0.7593392944664676  0.5719758950038911
  0.5282344897779533  0.6076276171104774  0.5703514500416076
  0.7275709571235188  0.8934570540438219  0.4327016162296047
  0.5599699677257978  0.7422620075595798  0.4337404823488568
  0.7326984460730278  0.9209183395994675  0.6006165344194607
  0.5234933972627038  0.5791863011027690  0.4033890188604107
  0.9418673369071228  0.7587694099886577  0.5723305516259936
  0.7788400076720596  0.6090654241438738  0.5715444780111330
  0.9750927461264987  0.8926512317319988  0.4342852859859782
  0.8117897560298347  0.7427178419438796  0.4344451182266905
  0.9822533763086138  0.9196868234862029  0.6016011841806529
  0.7722122120314954  0.5815638034940657  0.4045901745437188
  0.4340019267739587  0.7491497417851520  0.6498558335934728
  0.3593848605852936  0.7382491187757928  0.6620227048009174
 
  0.00000000E+00  0.00000000E+00  0.00000000E+00
  0.00000000E+00  0.00000000E+00  0.00000000E+00
  0.00000000E+00  0.00000000E+00  0.00000000E+00
  0.00000000E+00  0.00000000E+00  0.00000000E+00
  0.00000000E+00  0.00000000E+00  0.00000000E+00
  0.00000000E+00  0.00000000E+00  0.00000000E+00
  0.00000000E+00  0.00000000E+00  0.00000000E+00
  0.00000000E+00  0.00000000E+00  0.00000000E+00
  0.00000000E+00  0.00000000E+00  0.00000000E+00
  0.00000000E+00  0.00000000E+00  0.00000000E+00
  0.00000000E+00  0.00000000E+00  0.00000000E+00
  0.00000000E+00  0.00000000E+00  0.00000000E+00
  0.00000000E+00  0.00000000E+00  0.00000000E+00
  0.00000000E+00  0.00000000E+00  0.00000000E+00
  0.00000000E+00  0.00000000E+00  0.00000000E+00
  0.00000000E+00  0.00000000E+00  0.00000000E+00
  0.00000000E+00  0.00000000E+00  0.00000000E+00
  0.00000000E+00  0.00000000E+00  0.00000000E+00
  0.00000000E+00  0.00000000E+00  0.00000000E+00
  0.00000000E+00  0.00000000E+00  0.00000000E+00
  0.00000000E+00  0.00000000E+00  0.00000000E+00
  0.00000000E+00  0.00000000E+00  0.00000000E+00
  0.00000000E+00  0.00000000E+00  0.00000000E+00
  0.00000000E+00  0.00000000E+00  0.00000000E+00
  0.00000000E+00  0.00000000E+00  0.00000000E+00
  0.00000000E+00  0.00000000E+00  0.00000000E+00
  0.00000000E+00  0.00000000E+00  0.00000000E+00
  0.00000000E+00  0.00000000E+00  0.00000000E+00
  0.00000000E+00  0.00000000E+00  0.00000000E+00
  0.00000000E+00  0.00000000E+00  0.00000000E+00
  0.00000000E+00  0.00000000E+00  0.00000000E+00
  0.00000000E+00  0.00000000E+00  0.00000000E+00
  0.00000000E+00  0.00000000E+00  0.00000000E+00
  0.00000000E+00  0.00000000E+00  0.00000000E+00
  0.00000000E+00  0.00000000E+00  0.00000000E+00
  0.00000000E+00  0.00000000E+00  0.00000000E+00
  0.00000000E+00  0.00000000E+00  0.00000000E+00
  0.00000000E+00  0.00000000E+00  0.00000000E+00
  0.00000000E+00  0.00000000E+00  0.00000000E+00
  0.00000000E+00  0.00000000E+00  0.00000000E+00
  0.00000000E+00  0.00000000E+00  0.00000000E+00
  0.00000000E+00  0.00000000E+00  0.00000000E+00
  0.00000000E+00  0.00000000E+00  0.00000000E+00
  0.00000000E+00  0.00000000E+00  0.00000000E+00
  0.00000000E+00  0.00000000E+00  0.00000000E+00
  0.00000000E+00  0.00000000E+00  0.00000000E+00
  0.00000000E+00  0.00000000E+00  0.00000000E+00
  0.00000000E+00  0.00000000E+00  0.00000000E+00
  0.00000000E+00  0.00000000E+00  0.00000000E+00
  0.00000000E+00  0.00000000E+00  0.00000000E+00
  0.00000000E+00  0.00000000E+00  0.00000000E+00
  0.00000000E+00  0.00000000E+00  0.00000000E+00
  0.00000000E+00  0.00000000E+00  0.00000000E+00
  0.00000000E+00  0.00000000E+00  0.00000000E+00
  0.00000000E+00  0.00000000E+00  0.00000000E+00
  0.00000000E+00  0.00000000E+00  0.00000000E+00
  0.00000000E+00  0.00000000E+00  0.00000000E+00
  0.00000000E+00  0.00000000E+00  0.00000000E+00
  0.00000000E+00  0.00000000E+00  0.00000000E+00
  0.00000000E+00  0.00000000E+00  0.00000000E+00
  0.00000000E+00  0.00000000E+00  0.00000000E+00
  0.00000000E+00  0.00000000E+00  0.00000000E+00
  0.00000000E+00  0.00000000E+00  0.00000000E+00
  0.00000000E+00  0.00000000E+00  0.00000000E+00
  0.00000000E+00  0.00000000E+00  0.00000000E+00
  0.00000000E+00  0.00000000E+00  0.00000000E+00
  0.00000000E+00  0.00000000E+00  0.00000000E+00
  0.00000000E+00  0.00000000E+00  0.00000000E+00
  0.00000000E+00  0.00000000E+00  0.00000000E+00
  0.00000000E+00  0.00000000E+00  0.00000000E+00
  0.00000000E+00  0.00000000E+00  0.00000000E+00
  0.00000000E+00  0.00000000E+00  0.00000000E+00
  0.00000000E+00  0.00000000E+00  0.00000000E+00
  0.00000000E+00  0.00000000E+00  0.00000000E+00
