CONTCAR\(4)                             
   1.00000000000000     
    12.4510002136000004    0.0000000000000000    0.0000000000000000
     6.2255001068000002   10.7828824875000002    0.0000000000000000
     0.0000000000000000    0.0000000000000000   35.7985992432000018
   Ge   Te   As
    36    63    18
Direct
  0.0000000000000000  0.0000000000000000  0.6481255418669036
  0.2222199950000032  0.2222200129999976  0.4507374508146782
  0.1111099980000034  0.1111100059999970  0.5492624951853173
  0.0000000000000000  0.0000000000000000  0.3518744851330950
  0.3333300010000002  0.0000000000000000  0.6481255418669036
  0.5555600300000023  0.2222200129999976  0.4507374508146782
  0.4444499749999977  0.1111100059999970  0.5492624951853173
  0.3333300010000002  0.0000000000000000  0.3518744851330950
  0.6666700370000029  0.0000000000000000  0.6481255418669036
  0.8888899940000030  0.2222200129999976  0.4507374508146782
  0.7777800149999976  0.1111100059999970  0.5492624951853173
  0.6666700370000029  0.0000000000000000  0.3518744851330950
  0.9999999970000033  0.3333300079999972  0.6481255418669036
  0.2222199839999988  0.5555499990000001  0.4507374508146782
  0.1111099889999991  0.4444400260000023  0.5492624951853173
  0.9999999970000033  0.3333300079999972  0.3518744851330950
  0.3333300170000015  0.3333300079999972  0.6481255418669036
  0.5555600189999979  0.5555499990000001  0.4507374508146782
  0.4444499470000025  0.4444400260000023  0.5492624951853173
  0.3333300170000015  0.3333300079999972  0.3518744851330950
  0.6666700139999975  0.3333300079999972  0.6481255418669036
  0.8888899820000020  0.5555499990000001  0.4507374508146782
  0.7777799870000024  0.4444400260000023  0.5492624951853173
  0.6666700139999975  0.3333300079999972  0.3518744851330950
  0.9999999910000028  0.6666700549999973  0.6481255418669036
  0.2222199590000002  0.8888900460000002  0.4507374508146782
  0.1111100079999972  0.7777799839999986  0.5492624951853173
  0.9999999910000028  0.6666700549999973  0.3518744851330950
  0.3333299539999999  0.6666700549999973  0.6481255418669036
  0.5555600320000025  0.8888900460000002  0.4507374508146782
  0.4444500050000002  0.7777799839999986  0.5492624951853173
  0.3333299539999999  0.6666700549999973  0.3518744851330950
  0.6666700279999986  0.6666700549999973  0.6481255418669036
  0.8888899960000032  0.8888900460000002  0.4507374508146782
  0.7777800450000001  0.7777799839999986  0.5492624951853173
  0.6666700279999986  0.6666700549999973  0.3518744851330950
  0.0000000000000000  0.0000000000000000  0.7909526554951043
  0.1111099980000034  0.1111100059999970  0.6963941631166364
  0.2222199950000032  0.2222200129999976  0.3036058098833649
  0.0000000000000000  0.0000000000000000  0.2090472915048949
  0.0000000000000000  0.0000000000000000  0.5000000000000000
  0.1111099980000034  0.1111100059999970  0.4016599339672311
  0.2222199950000032  0.2222200129999976  0.5983400390327702
  0.3333399970000031  0.0000000000000000  0.7909526554951043
  0.4444399799999985  0.1111100059999970  0.6963941631166364
  0.5555600300000023  0.2222200129999976  0.3036058098833649
  0.3333300010000002  0.0000000000000000  0.2090472915048949
  0.3333300010000002  0.0000000000000000  0.5000000000000000
  0.4444399799999985  0.1111100059999970  0.4016599339672311
  0.5555600300000023  0.2222200129999976  0.5983400390327702
  0.6666700370000029  0.0000000000000000  0.7909526554951043
  0.7777699809999987  0.1111100059999970  0.6963941631166364
  0.8888899940000030  0.2222200129999976  0.3036058098833649
  0.6666700370000029  0.0000000000000000  0.2090472915048949
  0.6666700370000029  0.0000000000000000  0.5000000000000000
  0.7777800149999976  0.1111100059999970  0.4016599339672311
  0.8888899940000030  0.2222200129999976  0.5983400390327702
  0.9999999970000033  0.3333300079999972  0.7909526554951043
  0.1111099700000011  0.4444500199999979  0.6963941631166364
  0.2222200029999968  0.5555599930000028  0.3036058098833649
  0.9999999970000033  0.3333300079999972  0.2090472915048949
  0.9999999970000033  0.3333300079999972  0.5000000000000000
  0.1111099889999991  0.4444400260000023  0.4016599339672311
  0.2222200029999968  0.5555599930000028  0.5983400390327702
  0.3333399750000012  0.3333300079999972  0.7909526554951043
  0.4444399719999979  0.4444500199999979  0.6963941631166364
  0.5555599999999998  0.5555599930000028  0.3036058098833649
  0.3333300170000015  0.3333300079999972  0.2090472915048949
  0.3333300170000015  0.3333300079999972  0.5000000000000000
  0.4444399899999993  0.4444400260000023  0.4016599339672311
  0.5555599999999998  0.5555599930000028  0.5983400390327702
  0.6666700139999975  0.3333300079999972  0.7909526554951043
  0.7777699350000020  0.4444500199999979  0.6963941631166364
  0.8888900399999997  0.5555599930000028  0.3036058098833649
  0.6666700139999975  0.3333300079999972  0.2090472915048949
  0.6666700139999975  0.3333300079999972  0.5000000000000000
  0.7777799870000024  0.4444400260000023  0.4016599339672311
  0.8888900399999997  0.5555599930000028  0.5983400390327702
  0.9999999930000030  0.6666600160000016  0.7909526554951043
  0.1111100079999972  0.7777799839999986  0.6963941631166364
  0.2222199590000002  0.8888900460000002  0.3036058098833649
  0.9999999930000030  0.6666600160000016  0.2090472915048949
  0.9999999910000028  0.6666700549999973  0.5000000000000000
  0.1111100079999972  0.7777799839999986  0.4016599339672311
  0.2222199590000002  0.8888900460000002  0.5983400390327702
  0.3333400289999986  0.6666600160000016  0.7909526554951043
  0.4444399710000013  0.7777799839999986  0.6963941631166364
  0.5555600320000025  0.8888900460000002  0.3036058098833649
  0.3333299949999997  0.6666600160000016  0.2090472915048949
  0.3333299539999999  0.6666700549999973  0.5000000000000000
  0.4444399710000013  0.7777799839999986  0.4016599339672311
  0.5555600320000025  0.8888900460000002  0.5983400390327702
  0.6666699920000028  0.6666600160000016  0.7909526554951043
  0.7777700110000012  0.7777799839999986  0.6963941631166364
  0.8888899960000032  0.8888900460000002  0.3036058098833649
  0.6666699920000028  0.6666600160000016  0.2090472915048949
  0.6666700279999986  0.6666700549999973  0.5000000000000000
  0.7777800450000001  0.7777799839999986  0.4016599339672311
  0.8888899960000032  0.8888900460000002  0.5983400390327702
  0.1111099980000034  0.1111100059999970  0.2519120231483569
  0.2222199950000032  0.2222200129999976  0.7480879768516431
  0.4444399799999985  0.1111100059999970  0.2519120231483569
  0.5555600300000023  0.2222200129999976  0.7480879768516431
  0.7777800149999976  0.1111100059999970  0.2519120231483569
  0.8888899940000030  0.2222200129999976  0.7480879768516431
  0.1111099889999991  0.4444400260000023  0.2519120231483569
  0.2222200029999968  0.5555599930000028  0.7480879768516431
  0.4444399899999993  0.4444400260000023  0.2519120231483569
  0.5555599999999998  0.5555599930000028  0.7480879768516431
  0.7777799870000024  0.4444400260000023  0.2519120231483569
  0.8888900399999997  0.5555599930000028  0.7480879768516431
  0.1111100079999972  0.7777799839999986  0.2519120231483569
  0.2222199590000002  0.8888900460000002  0.7480879768516431
  0.4444399710000013  0.7777799839999986  0.2519120231483569
  0.5555600320000025  0.8888900460000002  0.7480879768516431
  0.7777800450000001  0.7777799839999986  0.2519120231483569
  0.8888899960000032  0.8888900460000002  0.7480879768516431
 
  0.00000000E+00  0.00000000E+00  0.00000000E+00
  0.00000000E+00  0.00000000E+00  0.00000000E+00
  0.00000000E+00  0.00000000E+00  0.00000000E+00
  0.00000000E+00  0.00000000E+00  0.00000000E+00
  0.00000000E+00  0.00000000E+00  0.00000000E+00
  0.00000000E+00  0.00000000E+00  0.00000000E+00
  0.00000000E+00  0.00000000E+00  0.00000000E+00
  0.00000000E+00  0.00000000E+00  0.00000000E+00
  0.00000000E+00  0.00000000E+00  0.00000000E+00
  0.00000000E+00  0.00000000E+00  0.00000000E+00
  0.00000000E+00  0.00000000E+00  0.00000000E+00
  0.00000000E+00  0.00000000E+00  0.00000000E+00
  0.00000000E+00  0.00000000E+00  0.00000000E+00
  0.00000000E+00  0.00000000E+00  0.00000000E+00
  0.00000000E+00  0.00000000E+00  0.00000000E+00
  0.00000000E+00  0.00000000E+00  0.00000000E+00
  0.00000000E+00  0.00000000E+00  0.00000000E+00
  0.00000000E+00  0.00000000E+00  0.00000000E+00
  0.00000000E+00  0.00000000E+00  0.00000000E+00
  0.00000000E+00  0.00000000E+00  0.00000000E+00
  0.00000000E+00  0.00000000E+00  0.00000000E+00
  0.00000000E+00  0.00000000E+00  0.00000000E+00
  0.00000000E+00  0.00000000E+00  0.00000000E+00
  0.00000000E+00  0.00000000E+00  0.00000000E+00
  0.00000000E+00  0.00000000E+00  0.00000000E+00
  0.00000000E+00  0.00000000E+00  0.00000000E+00
  0.00000000E+00  0.00000000E+00  0.00000000E+00
  0.00000000E+00  0.00000000E+00  0.00000000E+00
  0.00000000E+00  0.00000000E+00  0.00000000E+00
  0.00000000E+00  0.00000000E+00  0.00000000E+00
  0.00000000E+00  0.00000000E+00  0.00000000E+00
  0.00000000E+00  0.00000000E+00  0.00000000E+00
  0.00000000E+00  0.00000000E+00  0.00000000E+00
  0.00000000E+00  0.00000000E+00  0.00000000E+00
  0.00000000E+00  0.00000000E+00  0.00000000E+00
  0.00000000E+00  0.00000000E+00  0.00000000E+00
  0.00000000E+00  0.00000000E+00  0.00000000E+00
  0.00000000E+00  0.00000000E+00  0.00000000E+00
  0.00000000E+00  0.00000000E+00  0.00000000E+00
  0.00000000E+00  0.00000000E+00  0.00000000E+00
  0.00000000E+00  0.00000000E+00  0.00000000E+00
  0.00000000E+00  0.00000000E+00  0.00000000E+00
  0.00000000E+00  0.00000000E+00  0.00000000E+00
  0.00000000E+00  0.00000000E+00  0.00000000E+00
  0.00000000E+00  0.00000000E+00  0.00000000E+00
  0.00000000E+00  0.00000000E+00  0.00000000E+00
  0.00000000E+00  0.00000000E+00  0.00000000E+00
  0.00000000E+00  0.00000000E+00  0.00000000E+00
  0.00000000E+00  0.00000000E+00  0.00000000E+00
  0.00000000E+00  0.00000000E+00  0.00000000E+00
  0.00000000E+00  0.00000000E+00  0.00000000E+00
  0.00000000E+00  0.00000000E+00  0.00000000E+00
  0.00000000E+00  0.00000000E+00  0.00000000E+00
  0.00000000E+00  0.00000000E+00  0.00000000E+00
  0.00000000E+00  0.00000000E+00  0.00000000E+00
  0.00000000E+00  0.00000000E+00  0.00000000E+00
  0.00000000E+00  0.00000000E+00  0.00000000E+00
  0.00000000E+00  0.00000000E+00  0.00000000E+00
  0.00000000E+00  0.00000000E+00  0.00000000E+00
  0.00000000E+00  0.00000000E+00  0.00000000E+00
  0.00000000E+00  0.00000000E+00  0.00000000E+00
  0.00000000E+00  0.00000000E+00  0.00000000E+00
  0.00000000E+00  0.00000000E+00  0.00000000E+00
  0.00000000E+00  0.00000000E+00  0.00000000E+00
  0.00000000E+00  0.00000000E+00  0.00000000E+00
  0.00000000E+00  0.00000000E+00  0.00000000E+00
  0.00000000E+00  0.00000000E+00  0.00000000E+00
  0.00000000E+00  0.00000000E+00  0.00000000E+00
  0.00000000E+00  0.00000000E+00  0.00000000E+00
  0.00000000E+00  0.00000000E+00  0.00000000E+00
  0.00000000E+00  0.00000000E+00  0.00000000E+00
  0.00000000E+00  0.00000000E+00  0.00000000E+00
  0.00000000E+00  0.00000000E+00  0.00000000E+00
  0.00000000E+00  0.00000000E+00  0.00000000E+00
  0.00000000E+00  0.00000000E+00  0.00000000E+00
  0.00000000E+00  0.00000000E+00  0.00000000E+00
  0.00000000E+00  0.00000000E+00  0.00000000E+00
  0.00000000E+00  0.00000000E+00  0.00000000E+00
  0.00000000E+00  0.00000000E+00  0.00000000E+00
  0.00000000E+00  0.00000000E+00  0.00000000E+00
  0.00000000E+00  0.00000000E+00  0.00000000E+00
  0.00000000E+00  0.00000000E+00  0.00000000E+00
  0.00000000E+00  0.00000000E+00  0.00000000E+00
  0.00000000E+00  0.00000000E+00  0.00000000E+00
  0.00000000E+00  0.00000000E+00  0.00000000E+00
  0.00000000E+00  0.00000000E+00  0.00000000E+00
  0.00000000E+00  0.00000000E+00  0.00000000E+00
  0.00000000E+00  0.00000000E+00  0.00000000E+00
  0.00000000E+00  0.00000000E+00  0.00000000E+00
  0.00000000E+00  0.00000000E+00  0.00000000E+00
  0.00000000E+00  0.00000000E+00  0.00000000E+00
  0.00000000E+00  0.00000000E+00  0.00000000E+00
  0.00000000E+00  0.00000000E+00  0.00000000E+00
  0.00000000E+00  0.00000000E+00  0.00000000E+00
  0.00000000E+00  0.00000000E+00  0.00000000E+00
  0.00000000E+00  0.00000000E+00  0.00000000E+00
  0.00000000E+00  0.00000000E+00  0.00000000E+00
  0.00000000E+00  0.00000000E+00  0.00000000E+00
  0.00000000E+00  0.00000000E+00  0.00000000E+00
  0.00000000E+00  0.00000000E+00  0.00000000E+00
  0.00000000E+00  0.00000000E+00  0.00000000E+00
  0.00000000E+00  0.00000000E+00  0.00000000E+00
  0.00000000E+00  0.00000000E+00  0.00000000E+00
  0.00000000E+00  0.00000000E+00  0.00000000E+00
  0.00000000E+00  0.00000000E+00  0.00000000E+00
  0.00000000E+00  0.00000000E+00  0.00000000E+00
  0.00000000E+00  0.00000000E+00  0.00000000E+00
  0.00000000E+00  0.00000000E+00  0.00000000E+00
  0.00000000E+00  0.00000000E+00  0.00000000E+00
  0.00000000E+00  0.00000000E+00  0.00000000E+00
  0.00000000E+00  0.00000000E+00  0.00000000E+00
  0.00000000E+00  0.00000000E+00  0.00000000E+00
  0.00000000E+00  0.00000000E+00  0.00000000E+00
  0.00000000E+00  0.00000000E+00  0.00000000E+00
  0.00000000E+00  0.00000000E+00  0.00000000E+00
  0.00000000E+00  0.00000000E+00  0.00000000E+00
  0.00000000E+00  0.00000000E+00  0.00000000E+00
