CONTCAR\(3)                             
   1.00000000000000     
    13.0656995773000002    0.0000000000000000    0.0000000000000000
     6.5328497887000001   11.3152277522000002    0.0000000000000000
     0.0000000000000000    0.0000000000000000   20.6284008026000016
   Ta   C    S    O    H 
    32    16    32     1     1
Direct
  0.1674649919026652  0.1670025141349241  0.5592631196166158
  0.0839369791338481  0.0837103942981738  0.4441081965470804
  0.4175845804870315  0.1666146295396523  0.5590746086930393
  0.3342575099092030  0.0837096804187892  0.4441117204054441
  0.6686374144420471  0.1648032452110096  0.5590690767610323
  0.5835601076819017  0.0835434830421475  0.4439949390362692
  0.9174787263322158  0.1668647355594297  0.5593034310040590
  0.8348147059408703  0.0836948194852367  0.4440596944983267
  0.1665045827230409  0.4168884814224944  0.5591219722142735
  0.0843261693824189  0.3332977931680393  0.4438868346883809
  0.4159874452694268  0.4179182256756734  0.5589175487835085
  0.3343954676281200  0.3328255875970947  0.4440756003741264
  0.6682612856462531  0.4177278783083050  0.5597760115437019
  0.5843338226106231  0.3335324803160759  0.4443623346473209
  0.9186715798541660  0.4167064547688815  0.5591515664003897
  0.8346582252096839  0.3327580513246166  0.4442572757834306
  0.1667553484608308  0.6678913302256190  0.5590238045364618
  0.0832459724781608  0.5839707974335960  0.4442175827451883
  0.4175325923436553  0.6669419591997464  0.5591725121151392
  0.3343335241177315  0.5841458346583212  0.4439806005077659
  0.6673340783126572  0.6681310461781104  0.5591694429168143
  0.5836414069670085  0.5839902143250415  0.4441750245845839
  0.9174701263361735  0.6669057460596856  0.5594094417795477
  0.8346870477561095  0.5840337954813154  0.4443480089727910
  0.1674673139910443  0.9167816209873434  0.5592161131736756
  0.0844174783516943  0.8336779473686723  0.4438188371826800
  0.4175892762865451  0.9168006700924075  0.5592091356444300
  0.3343075601711931  0.8333321011540217  0.4440383306044079
  0.6674415989056874  0.9157725144575053  0.5591073167760332
  0.5839430108498662  0.8336048195298453  0.4438513233056113
  0.9185590317550300  0.9160745917904324  0.5590655980999751
  0.8345847379928196  0.8326071994476131  0.4442274521873042
  0.0010677833719726  0.0001234007500949  0.5016389219395739
  0.2508371546801533  0.0002239175914434  0.5016668311520602
  0.5008239885305349  0.0000464070710328  0.5016054617812979
  0.7506823117078172  0.0006223772434269  0.5013140421320393
  0.0010825267936636  0.2501057701645280  0.5017230585462198
  0.2507347765832743  0.2501951234933424  0.5016746172325498
  0.5007374834025454  0.2497423139619853  0.5014618042129489
  0.7514435951099897  0.2499190009730053  0.5016143035457984
  0.0009975093298895  0.5002089607679429  0.5016334618711400
  0.2512134251096929  0.5000994432152717  0.5012731647960941
  0.5007140595855361  0.5008678735994544  0.5014490769354926
  0.7504286420214716  0.4997470281899699  0.5016187255820778
  0.0009064707438218  0.7502164364060294  0.5015475601407124
  0.2507997190172266  0.7504222330882530  0.5015820458956478
  0.5007720448028412  0.7504216349852554  0.5016409464234085
  0.7508491038046307  0.7502552167404486  0.5015960441062312
  0.1674937418350530  0.1668202535865992  0.3649824211038303
  0.0843457790838143  0.0834555177841443  0.6383548618835895
  0.4173631174276213  0.1667647735302284  0.3647065456226870
  0.3340674518732466  0.0834583326528303  0.6383211653983497
  0.6674204604226710  0.1670948937737779  0.3652747029773351
  0.5839693922744584  0.0829986414747460  0.6383949862457430
  0.9176959095158286  0.1668771163668958  0.3647263550052721
  0.8346597484246306  0.0831215759706437  0.6383889371356346
  0.1676227881712679  0.4168157467303683  0.3650885983204791
  0.0841809965901565  0.3335566297834824  0.6386006099323417
  0.4179356160966098  0.4166045827212292  0.3652901363277499
  0.3340600639174066  0.3332448924536050  0.6385001696028018
  0.6675322388742388  0.4166559461342099  0.3653648729526559
  0.5834634744528046  0.3335670788732000  0.6350626964133061
  0.9173215065906379  0.4168587923930012  0.3652298420827741
  0.8350319384625314  0.3334209601813687  0.6385235087369023
  0.1676113639555104  0.6667638653474668  0.3650426208505675
  0.0841863385381928  0.5836662719409033  0.6381825388830525
  0.4176038165340580  0.6670294021543480  0.3646816535454775
  0.3337928606307680  0.5841130138627928  0.6382616237550282
  0.6675817332920180  0.6666644210293698  0.3651438991406845
  0.5839700569657684  0.5845091413991480  0.6384647274362368
  0.9173835943175010  0.6667744013191377  0.3647538940180580
  0.8341646999785958  0.5836456252826647  0.6382309038262909
  0.1675188337214334  0.9169830057446690  0.3649267060480922
  0.0841513295425472  0.8335577262177863  0.6385199118629119
  0.4173911055493547  0.9169525256997171  0.3649553256190902
  0.3340611406667211  0.8337304820115807  0.6383240798568481
  0.6675089536964124  0.9168664059196555  0.3650433729792602
  0.5840138900682533  0.8336356220858940  0.6385921900522346
  0.9173701003573004  0.9169896032566844  0.3651071099888498
  0.8341606233159268  0.8336061412457366  0.6381797372272637
  0.5797629285703598  0.3368065250752406  0.7161394706279228
  0.5173682774615355  0.3194316180956618  0.7289053001179696
 
  0.00000000E+00  0.00000000E+00  0.00000000E+00
  0.00000000E+00  0.00000000E+00  0.00000000E+00
  0.00000000E+00  0.00000000E+00  0.00000000E+00
  0.00000000E+00  0.00000000E+00  0.00000000E+00
  0.00000000E+00  0.00000000E+00  0.00000000E+00
  0.00000000E+00  0.00000000E+00  0.00000000E+00
  0.00000000E+00  0.00000000E+00  0.00000000E+00
  0.00000000E+00  0.00000000E+00  0.00000000E+00
  0.00000000E+00  0.00000000E+00  0.00000000E+00
  0.00000000E+00  0.00000000E+00  0.00000000E+00
  0.00000000E+00  0.00000000E+00  0.00000000E+00
  0.00000000E+00  0.00000000E+00  0.00000000E+00
  0.00000000E+00  0.00000000E+00  0.00000000E+00
  0.00000000E+00  0.00000000E+00  0.00000000E+00
  0.00000000E+00  0.00000000E+00  0.00000000E+00
  0.00000000E+00  0.00000000E+00  0.00000000E+00
  0.00000000E+00  0.00000000E+00  0.00000000E+00
  0.00000000E+00  0.00000000E+00  0.00000000E+00
  0.00000000E+00  0.00000000E+00  0.00000000E+00
  0.00000000E+00  0.00000000E+00  0.00000000E+00
  0.00000000E+00  0.00000000E+00  0.00000000E+00
  0.00000000E+00  0.00000000E+00  0.00000000E+00
  0.00000000E+00  0.00000000E+00  0.00000000E+00
  0.00000000E+00  0.00000000E+00  0.00000000E+00
  0.00000000E+00  0.00000000E+00  0.00000000E+00
  0.00000000E+00  0.00000000E+00  0.00000000E+00
  0.00000000E+00  0.00000000E+00  0.00000000E+00
  0.00000000E+00  0.00000000E+00  0.00000000E+00
  0.00000000E+00  0.00000000E+00  0.00000000E+00
  0.00000000E+00  0.00000000E+00  0.00000000E+00
  0.00000000E+00  0.00000000E+00  0.00000000E+00
  0.00000000E+00  0.00000000E+00  0.00000000E+00
  0.00000000E+00  0.00000000E+00  0.00000000E+00
  0.00000000E+00  0.00000000E+00  0.00000000E+00
  0.00000000E+00  0.00000000E+00  0.00000000E+00
  0.00000000E+00  0.00000000E+00  0.00000000E+00
  0.00000000E+00  0.00000000E+00  0.00000000E+00
  0.00000000E+00  0.00000000E+00  0.00000000E+00
  0.00000000E+00  0.00000000E+00  0.00000000E+00
  0.00000000E+00  0.00000000E+00  0.00000000E+00
  0.00000000E+00  0.00000000E+00  0.00000000E+00
  0.00000000E+00  0.00000000E+00  0.00000000E+00
  0.00000000E+00  0.00000000E+00  0.00000000E+00
  0.00000000E+00  0.00000000E+00  0.00000000E+00
  0.00000000E+00  0.00000000E+00  0.00000000E+00
  0.00000000E+00  0.00000000E+00  0.00000000E+00
  0.00000000E+00  0.00000000E+00  0.00000000E+00
  0.00000000E+00  0.00000000E+00  0.00000000E+00
  0.00000000E+00  0.00000000E+00  0.00000000E+00
  0.00000000E+00  0.00000000E+00  0.00000000E+00
  0.00000000E+00  0.00000000E+00  0.00000000E+00
  0.00000000E+00  0.00000000E+00  0.00000000E+00
  0.00000000E+00  0.00000000E+00  0.00000000E+00
  0.00000000E+00  0.00000000E+00  0.00000000E+00
  0.00000000E+00  0.00000000E+00  0.00000000E+00
  0.00000000E+00  0.00000000E+00  0.00000000E+00
  0.00000000E+00  0.00000000E+00  0.00000000E+00
  0.00000000E+00  0.00000000E+00  0.00000000E+00
  0.00000000E+00  0.00000000E+00  0.00000000E+00
  0.00000000E+00  0.00000000E+00  0.00000000E+00
  0.00000000E+00  0.00000000E+00  0.00000000E+00
  0.00000000E+00  0.00000000E+00  0.00000000E+00
  0.00000000E+00  0.00000000E+00  0.00000000E+00
  0.00000000E+00  0.00000000E+00  0.00000000E+00
  0.00000000E+00  0.00000000E+00  0.00000000E+00
  0.00000000E+00  0.00000000E+00  0.00000000E+00
  0.00000000E+00  0.00000000E+00  0.00000000E+00
  0.00000000E+00  0.00000000E+00  0.00000000E+00
  0.00000000E+00  0.00000000E+00  0.00000000E+00
  0.00000000E+00  0.00000000E+00  0.00000000E+00
  0.00000000E+00  0.00000000E+00  0.00000000E+00
  0.00000000E+00  0.00000000E+00  0.00000000E+00
  0.00000000E+00  0.00000000E+00  0.00000000E+00
  0.00000000E+00  0.00000000E+00  0.00000000E+00
  0.00000000E+00  0.00000000E+00  0.00000000E+00
  0.00000000E+00  0.00000000E+00  0.00000000E+00
  0.00000000E+00  0.00000000E+00  0.00000000E+00
  0.00000000E+00  0.00000000E+00  0.00000000E+00
  0.00000000E+00  0.00000000E+00  0.00000000E+00
  0.00000000E+00  0.00000000E+00  0.00000000E+00
  0.00000000E+00  0.00000000E+00  0.00000000E+00
  0.00000000E+00  0.00000000E+00  0.00000000E+00
