CONTCAR                                 
   1.00000000000000     
    13.9573001861999995    0.0000000000000000    0.0000000000000000
     0.0000000000000000   20.3449993133999989    0.0000000000000000
     0.0000000000000000    0.0000000000000000   22.8059997559000003
   Nb   Cr   Se   O 
    16    16    80     1
Direct
  0.1894861654395810  0.2282467067243577  0.5881579754712091
  0.0636508257051641  0.2697329829824698  0.4156680582984418
  0.4375633278375464  0.2283549446921216  0.5880225395701200
  0.3134754732893010  0.2703891547762084  0.4162625986661036
  0.6883853998975236  0.2290417191143933  0.5864356403383515
  0.5637886546191911  0.2697841202602499  0.4154842130782009
  0.9378944139266258  0.2289450702418316  0.5864481193686426
  0.8137229856447156  0.2701270186466015  0.4158358826088263
  0.1885253648355941  0.7311340149208844  0.5857752381517276
  0.0638198755218715  0.7709510730337426  0.4147617475236678
  0.4396745656561897  0.7315775408621753  0.5859355028840619
  0.3136904823781427  0.7719187789452754  0.4144875899756452
  0.6890868054750301  0.7305374722159503  0.5854660287830030
  0.5634765950709105  0.7711645267992107  0.4146076432189512
  0.9381650447673335  0.7304836133833597  0.5856822362163276
  0.8138527072768865  0.7707967952722434  0.4145815146217808
  0.0618129471093713  0.0654277308174820  0.5277903575016366
  0.1780489623052763  0.4312188478664628  0.4704892067048825
  0.3130919536278246  0.0659146281540957  0.5285657977927096
  0.4495373547824488  0.4309753504611178  0.4699508243911614
  0.5645375461226204  0.0654398611207301  0.5273000315634437
  0.6855620065568220  0.4334904768138733  0.4727123063609741
  0.8127032733712692  0.0662270176249469  0.5279827430660374
  0.9420634395258346  0.4334102217755376  0.4725961281998423
  0.0624473827675094  0.5675007602881658  0.5290469897888130
  0.1885689511505191  0.9348633740883073  0.4716943469605188
  0.3157195604850413  0.5732280671531420  0.5286728941125897
  0.4381947465730552  0.9350009008358338  0.4715356252639064
  0.5626132832039887  0.5676556897204840  0.5289243820864072
  0.6886356859173539  0.9342692470411547  0.4715254809927361
  0.8143156675118045  0.5670594207873424  0.5279445468921458
  0.9387135098494283  0.9342118485891148  0.4717565254265088
  0.1884324700020128  0.3130203163309591  0.4946798507711363
  0.0640207611814901  0.4489249212984074  0.5523815349807877
  0.0640248575943508  0.1858396961162932  0.5090936110901993
  0.1891380748015362  0.1800197488038664  0.3751902966944269
  0.0637983385202934  0.3176911687625494  0.6282629344561591
  0.0627354749626203  0.2119168468527198  0.6729302034734738
  0.0608540869610376  0.4030242463751384  0.3943734918585073
  0.1890955761861066  0.2857932607011975  0.3297760236199571
  0.1863059207217767  0.0937164959013692  0.6024550165957786
  0.1877295832918621  0.0529243515039108  0.4498625606817139
  0.4385897987730851  0.3129673797634157  0.4944545794863508
  0.3141281058597039  0.4536562097723605  0.5385399918333481
  0.3133423600569877  0.1859282479999972  0.5091407584353527
  0.4381794762264186  0.1801867270496508  0.3750424203331295
  0.3135486751826475  0.3169922669721904  0.6338825590385461
  0.3134394099210461  0.2030851562691965  0.6715559186883818
  0.3134082260897131  0.4042653229693822  0.3999272066451947
  0.4381598706957694  0.2861152734942259  0.3298104313155621
  0.4402859198779560  0.0938222039923551  0.6021622769739022
  0.4379806045391140  0.0530814011206802  0.4496549245085689
  0.6880798664219291  0.3134798622368750  0.4935516993494043
  0.5631464065209975  0.4489339253952344  0.5521058914883641
  0.5628385923461542  0.1858982089147068  0.5088091846181231
  0.6888812115312362  0.1797354407441680  0.3750840345184109
  0.5629303097091373  0.3182350012924652  0.6277882070584158
  0.5638292760176169  0.2128650026144314  0.6731982715643092
  0.5672137586442879  0.4030953836500574  0.3941768179802411
  0.6890305639236853  0.2853578334202479  0.3294953523859959
  0.6880264029147201  0.0950463600398706  0.6030797568363623
  0.6891351552033793  0.0523087248018770  0.4488130128989359
  0.9389080780938840  0.3134652080784062  0.4936296673752774
  0.8139489877562143  0.4480843263696550  0.5492113182687713
  0.8133660377112216  0.1861580335791091  0.5083601119853610
  0.9388611899041576  0.1797012125477059  0.3752135155081402
  0.8132713814133250  0.3192404004924065  0.6270078308579525
  0.8133010653154619  0.2137336884584141  0.6727784093987942
  0.8136569865466878  0.4042316993308374  0.3992387377868166
  0.9385538547515355  0.2851958104339748  0.3295074865916557
  0.9372298628843061  0.0949324875160234  0.6029916523627818
  0.9372247239206783  0.0523222034494869  0.4492523929781198
  0.1883310972094047  0.8152094199326323  0.4924301312858568
  0.0634983300047221  0.9476033862651618  0.5502262365447503
  0.0640751203878696  0.6871278160154356  0.5079728758633003
  0.1889401726362286  0.6808140998966933  0.3747727200362412
  0.0633310788422063  0.8203093020665529  0.6267545097179409
  0.0636554468105710  0.7141722586795192  0.6715246854015369
  0.0637248794463103  0.9048660428208923  0.3970155380699091
  0.1885219597443685  0.7860335202765383  0.3283272103784569
  0.1890833143491501  0.5972539833060638  0.6033143374135619
  0.1888906416191106  0.5514811114777012  0.4516750679867349
  0.4393115727672859  0.8154190952224776  0.4923043861400864
  0.3135096653559001  0.9477872783835440  0.5501056605955933
  0.3141882083159312  0.6901972183723267  0.5074745028146345
  0.4384369812840522  0.6813378296770799  0.3740596712723293
  0.3138052333770135  0.8212899815854389  0.6266927758100937
  0.3140120505464694  0.7151652123809208  0.6715738475442667
  0.3134043523984522  0.9055671780840503  0.3967117862979110
  0.4387341081884081  0.7868805237185448  0.3283894397351416
  0.4389328034836049  0.5978551160985603  0.6046788398559024
  0.4389974348858346  0.5511642950410925  0.4503329450634956
  0.6889658265592166  0.8144321180393623  0.4922797542020321
  0.5637725685362969  0.9476826175082492  0.5499454092182154
  0.5633385846311395  0.6872432455615417  0.5077451816518739
  0.6884809583853666  0.6809916914359017  0.3740055582403380
  0.5646184856764033  0.8210609723816010  0.6263069598978226
  0.5644976200939844  0.7153263196309525  0.6718500285734085
  0.5635218340547499  0.9050605661765836  0.3969619079207097
  0.6886842015620804  0.7867792445624879  0.3285886809555714
  0.6890140907048876  0.5966321340145028  0.6029599250404026
  0.6877766293088098  0.5523524293149856  0.4507460282506831
  0.9385692101950702  0.8143675673287437  0.4924504430151526
  0.8134343960136614  0.9479952480995707  0.5499563530131829
  0.8139145827191805  0.6868786461577410  0.5075336459416460
  0.9389551544471756  0.6808060670965947  0.3740565336891899
  0.8136388441856084  0.8207159099140281  0.6263294523238753
  0.8137015603332577  0.7149891182457194  0.6718492441846082
  0.8139194897611617  0.9046727744196280  0.3969586860413096
  0.9388139943040771  0.7864802763614095  0.3285465722818645
  0.9377717103394746  0.5967094585131829  0.6038122201635001
  0.9393194419059320  0.5521380840179426  0.4499409862022328
  0.3144797344516249  0.4171199934934402  0.6087281021924864
 
  0.00000000E+00  0.00000000E+00  0.00000000E+00
  0.00000000E+00  0.00000000E+00  0.00000000E+00
  0.00000000E+00  0.00000000E+00  0.00000000E+00
  0.00000000E+00  0.00000000E+00  0.00000000E+00
  0.00000000E+00  0.00000000E+00  0.00000000E+00
  0.00000000E+00  0.00000000E+00  0.00000000E+00
  0.00000000E+00  0.00000000E+00  0.00000000E+00
  0.00000000E+00  0.00000000E+00  0.00000000E+00
  0.00000000E+00  0.00000000E+00  0.00000000E+00
  0.00000000E+00  0.00000000E+00  0.00000000E+00
  0.00000000E+00  0.00000000E+00  0.00000000E+00
  0.00000000E+00  0.00000000E+00  0.00000000E+00
  0.00000000E+00  0.00000000E+00  0.00000000E+00
  0.00000000E+00  0.00000000E+00  0.00000000E+00
  0.00000000E+00  0.00000000E+00  0.00000000E+00
  0.00000000E+00  0.00000000E+00  0.00000000E+00
  0.00000000E+00  0.00000000E+00  0.00000000E+00
  0.00000000E+00  0.00000000E+00  0.00000000E+00
  0.00000000E+00  0.00000000E+00  0.00000000E+00
  0.00000000E+00  0.00000000E+00  0.00000000E+00
  0.00000000E+00  0.00000000E+00  0.00000000E+00
  0.00000000E+00  0.00000000E+00  0.00000000E+00
  0.00000000E+00  0.00000000E+00  0.00000000E+00
  0.00000000E+00  0.00000000E+00  0.00000000E+00
  0.00000000E+00  0.00000000E+00  0.00000000E+00
  0.00000000E+00  0.00000000E+00  0.00000000E+00
  0.00000000E+00  0.00000000E+00  0.00000000E+00
  0.00000000E+00  0.00000000E+00  0.00000000E+00
  0.00000000E+00  0.00000000E+00  0.00000000E+00
  0.00000000E+00  0.00000000E+00  0.00000000E+00
  0.00000000E+00  0.00000000E+00  0.00000000E+00
  0.00000000E+00  0.00000000E+00  0.00000000E+00
  0.00000000E+00  0.00000000E+00  0.00000000E+00
  0.00000000E+00  0.00000000E+00  0.00000000E+00
  0.00000000E+00  0.00000000E+00  0.00000000E+00
  0.00000000E+00  0.00000000E+00  0.00000000E+00
  0.00000000E+00  0.00000000E+00  0.00000000E+00
  0.00000000E+00  0.00000000E+00  0.00000000E+00
  0.00000000E+00  0.00000000E+00  0.00000000E+00
  0.00000000E+00  0.00000000E+00  0.00000000E+00
  0.00000000E+00  0.00000000E+00  0.00000000E+00
  0.00000000E+00  0.00000000E+00  0.00000000E+00
  0.00000000E+00  0.00000000E+00  0.00000000E+00
  0.00000000E+00  0.00000000E+00  0.00000000E+00
  0.00000000E+00  0.00000000E+00  0.00000000E+00
  0.00000000E+00  0.00000000E+00  0.00000000E+00
  0.00000000E+00  0.00000000E+00  0.00000000E+00
  0.00000000E+00  0.00000000E+00  0.00000000E+00
  0.00000000E+00  0.00000000E+00  0.00000000E+00
  0.00000000E+00  0.00000000E+00  0.00000000E+00
  0.00000000E+00  0.00000000E+00  0.00000000E+00
  0.00000000E+00  0.00000000E+00  0.00000000E+00
  0.00000000E+00  0.00000000E+00  0.00000000E+00
  0.00000000E+00  0.00000000E+00  0.00000000E+00
  0.00000000E+00  0.00000000E+00  0.00000000E+00
  0.00000000E+00  0.00000000E+00  0.00000000E+00
  0.00000000E+00  0.00000000E+00  0.00000000E+00
  0.00000000E+00  0.00000000E+00  0.00000000E+00
  0.00000000E+00  0.00000000E+00  0.00000000E+00
  0.00000000E+00  0.00000000E+00  0.00000000E+00
  0.00000000E+00  0.00000000E+00  0.00000000E+00
  0.00000000E+00  0.00000000E+00  0.00000000E+00
  0.00000000E+00  0.00000000E+00  0.00000000E+00
  0.00000000E+00  0.00000000E+00  0.00000000E+00
  0.00000000E+00  0.00000000E+00  0.00000000E+00
  0.00000000E+00  0.00000000E+00  0.00000000E+00
  0.00000000E+00  0.00000000E+00  0.00000000E+00
  0.00000000E+00  0.00000000E+00  0.00000000E+00
  0.00000000E+00  0.00000000E+00  0.00000000E+00
  0.00000000E+00  0.00000000E+00  0.00000000E+00
  0.00000000E+00  0.00000000E+00  0.00000000E+00
  0.00000000E+00  0.00000000E+00  0.00000000E+00
  0.00000000E+00  0.00000000E+00  0.00000000E+00
  0.00000000E+00  0.00000000E+00  0.00000000E+00
  0.00000000E+00  0.00000000E+00  0.00000000E+00
  0.00000000E+00  0.00000000E+00  0.00000000E+00
  0.00000000E+00  0.00000000E+00  0.00000000E+00
  0.00000000E+00  0.00000000E+00  0.00000000E+00
  0.00000000E+00  0.00000000E+00  0.00000000E+00
  0.00000000E+00  0.00000000E+00  0.00000000E+00
  0.00000000E+00  0.00000000E+00  0.00000000E+00
  0.00000000E+00  0.00000000E+00  0.00000000E+00
  0.00000000E+00  0.00000000E+00  0.00000000E+00
  0.00000000E+00  0.00000000E+00  0.00000000E+00
  0.00000000E+00  0.00000000E+00  0.00000000E+00
  0.00000000E+00  0.00000000E+00  0.00000000E+00
  0.00000000E+00  0.00000000E+00  0.00000000E+00
  0.00000000E+00  0.00000000E+00  0.00000000E+00
  0.00000000E+00  0.00000000E+00  0.00000000E+00
  0.00000000E+00  0.00000000E+00  0.00000000E+00
  0.00000000E+00  0.00000000E+00  0.00000000E+00
  0.00000000E+00  0.00000000E+00  0.00000000E+00
  0.00000000E+00  0.00000000E+00  0.00000000E+00
  0.00000000E+00  0.00000000E+00  0.00000000E+00
  0.00000000E+00  0.00000000E+00  0.00000000E+00
  0.00000000E+00  0.00000000E+00  0.00000000E+00
  0.00000000E+00  0.00000000E+00  0.00000000E+00
  0.00000000E+00  0.00000000E+00  0.00000000E+00
  0.00000000E+00  0.00000000E+00  0.00000000E+00
  0.00000000E+00  0.00000000E+00  0.00000000E+00
  0.00000000E+00  0.00000000E+00  0.00000000E+00
  0.00000000E+00  0.00000000E+00  0.00000000E+00
  0.00000000E+00  0.00000000E+00  0.00000000E+00
  0.00000000E+00  0.00000000E+00  0.00000000E+00
  0.00000000E+00  0.00000000E+00  0.00000000E+00
  0.00000000E+00  0.00000000E+00  0.00000000E+00
  0.00000000E+00  0.00000000E+00  0.00000000E+00
  0.00000000E+00  0.00000000E+00  0.00000000E+00
  0.00000000E+00  0.00000000E+00  0.00000000E+00
  0.00000000E+00  0.00000000E+00  0.00000000E+00
  0.00000000E+00  0.00000000E+00  0.00000000E+00
  0.00000000E+00  0.00000000E+00  0.00000000E+00
  0.00000000E+00  0.00000000E+00  0.00000000E+00
