 Ge3 Bi2 Te6                            
   1.00000000000000     
     4.2948877584691987    0.0000000000000000    0.0000000000000000
     2.1474438792345993    3.7194656174741199    0.0000000000000000
     0.0000000000000000    0.0000000000000000   33.6823879713750003
   Ge   Bi   Te
     3     2     6
Direct
  0.3333299606837656  0.3333317281688933  0.2646461074341201
  0.6666674225074454  0.6666689749338780  0.7370671077056972
  0.6666683244581357  0.6666697111547538  0.3745832384777392
  0.0000014915160677  0.9999993789075389  0.4941081391559622
  0.3333341343832618  0.3333349258556545  0.6183269655714463
  0.0000005458790864  0.0000007768662066  0.3323469744778312
  0.3333341094177045  0.3333357496779876  0.7788242329994459
  0.3333383374065509  0.3333301520607487  0.4402250630306245
  0.6666670870310812  0.6666676777651929  0.5559702027989386
  0.6666587919710772  0.6666589905825759  0.2230839862120612
 -0.0000002052541696  0.0000019340265699  0.6717286130213935
 
  0.00000000E+00  0.00000000E+00  0.00000000E+00
  0.00000000E+00  0.00000000E+00  0.00000000E+00
  0.00000000E+00  0.00000000E+00  0.00000000E+00
  0.00000000E+00  0.00000000E+00  0.00000000E+00
  0.00000000E+00  0.00000000E+00  0.00000000E+00
  0.00000000E+00  0.00000000E+00  0.00000000E+00
  0.00000000E+00  0.00000000E+00  0.00000000E+00
  0.00000000E+00  0.00000000E+00  0.00000000E+00
  0.00000000E+00  0.00000000E+00  0.00000000E+00
  0.00000000E+00  0.00000000E+00  0.00000000E+00
  0.00000000E+00  0.00000000E+00  0.00000000E+00
