Cu2 Br4                                 
   1.00000000000000     
     7.2624368377762396    0.0000000000000000   -0.1012207063741475
     0.0000000000000000    3.5050366598022475    0.0000000000000000
    -3.2816675065616705    0.0000000000000000    6.0022275352157619
   Cu   Br
     2     4
Direct
 -0.0000000000000000  0.0000000000000000 -0.0000000000000000
  0.5000000000000000  0.5000000000000000 -0.0000000000000000
  0.4936199189305696  0.0000000000000000  0.7501041634624438
  0.5063801370694349 -0.0000000000000000  0.2498958655375620
  0.9936198259305656  0.5000000000000000  0.7501041634624438
  0.0063801060694289  0.5000000000000000  0.2498958655375620
 
  0.00000000E+00  0.00000000E+00  0.00000000E+00
  0.00000000E+00  0.00000000E+00  0.00000000E+00
  0.00000000E+00  0.00000000E+00  0.00000000E+00
  0.00000000E+00  0.00000000E+00  0.00000000E+00
  0.00000000E+00  0.00000000E+00  0.00000000E+00
  0.00000000E+00  0.00000000E+00  0.00000000E+00
