K-Spacing Value to Generate K-Mesh: 0.030
0
Gamma
   5  10   5
0.0  0.0  0.0
