 V1 Br2 O1                              
   1.00000000000000     
     3.6025770515787419    0.0000000000000000    0.0000000000000000
     0.0000000000000000    3.5970217086594474    0.0000000000000000
     0.0000000000000000    0.0000000000000000   18.5931378035200012
   V    Br   O 
     1     2     1
Direct
 -0.0000339928694421 -0.0000134791058894  0.4999998640504518
  1.0000697190230394  0.5001182237725625  0.5972082800853628
  0.0000575051724515  0.4999139293024938  0.4027951178475971
  0.5001467153330282 -0.0000186739692004  0.4999967380165231
 
  0.00000000E+00  0.00000000E+00  0.00000000E+00
  0.00000000E+00  0.00000000E+00  0.00000000E+00
  0.00000000E+00  0.00000000E+00  0.00000000E+00
  0.00000000E+00  0.00000000E+00  0.00000000E+00
