CONTCAR\(5)                             
   1.00000000000000     
    12.2055997849000004    0.0000000000000000    0.0000000000000000
    -6.1027998924000002   10.5703594821000006    0.0000000000000000
     0.0000000000000000    0.0000000000000000   18.8425998688000007
   Tm   I    O 
     9    18     1
Selective dynamics
Direct
  0.0000728455799859  0.0001120049975327  0.4986381242006814   F   F   F
  0.3153091478327781  0.0102553233736771  0.4981746346248954   F   F   F
  0.6948542253149057  0.0102031104443228  0.4981618641458354   F   F   F
  0.9898565237117580  0.3051644436259622  0.4981538897617028   F   F   F
  0.3152578660431544  0.3050626518497523  0.4981459839064399   F   F   F
  0.6664836077224408  0.3330927724629404  0.4928345116506136   F   F   F
  0.9901205518036491  0.6848535652335741  0.4981547834967799   F   F   F
  0.3333956204202480  0.6666792913407846  0.5516141942100319   F   F   F
  0.6947212623923491  0.6849162702486922  0.4981369523409427   F   F   F
  0.2166496962217010  0.1083280343562265  0.6107799210849834   F   F   F
  0.1095930644114347  0.2192651975503850  0.3897285538774327   F   F   F
  0.5550477467830177  0.1101180219440252  0.5921871936776881   F   F   F
  0.4453898282979480  0.2227074742118589  0.3901248925228415   F   F   F
  0.8916887441957613  0.1083610148706740  0.6107324885594494   F   F   F
  0.7773039314511365  0.2227140601734021  0.3901376878066998   F   F   F
  0.2013634315186579  0.4027675358339167  0.6020318641163698   F   F   F
  0.1162258281329827  0.5580974395249427  0.4191520293458524   F   F   F
  0.5550497533313745  0.4449987857391662  0.5920183746484113   F   F   F
  0.4418746636885871  0.5581188181066210  0.4191800309803781   F   F   F
  0.8897229279581822  0.4448874500412998  0.5921104951330918   F   F   F
  0.7773258049928202  0.5547045312156484  0.3903451256015558   F   F   F
  0.2014505395255739  0.7986730800380784  0.6020508889634328   F   F   F
  0.1096089470051993  0.8904687233471336  0.3897489672862520   F   F   F
  0.5973736316609575  0.7987719983433337  0.6020653668353404   F   F   F
  0.4418883069198856  0.8838155451891510  0.4192003577001344   F   F   F
  0.8916807834069900  0.7833492248943443  0.6107245989939898   F   F   F
  0.7809443084068022  0.8905577175768826  0.3897459946047377   F   F   F
  0.3334965812697206  0.6666259244656914  0.6512337434347232   T   T   T
 
  0.00000000E+00  0.00000000E+00  0.00000000E+00
  0.00000000E+00  0.00000000E+00  0.00000000E+00
  0.00000000E+00  0.00000000E+00  0.00000000E+00
  0.00000000E+00  0.00000000E+00  0.00000000E+00
  0.00000000E+00  0.00000000E+00  0.00000000E+00
  0.00000000E+00  0.00000000E+00  0.00000000E+00
  0.00000000E+00  0.00000000E+00  0.00000000E+00
  0.00000000E+00  0.00000000E+00  0.00000000E+00
  0.00000000E+00  0.00000000E+00  0.00000000E+00
  0.00000000E+00  0.00000000E+00  0.00000000E+00
  0.00000000E+00  0.00000000E+00  0.00000000E+00
  0.00000000E+00  0.00000000E+00  0.00000000E+00
  0.00000000E+00  0.00000000E+00  0.00000000E+00
  0.00000000E+00  0.00000000E+00  0.00000000E+00
  0.00000000E+00  0.00000000E+00  0.00000000E+00
  0.00000000E+00  0.00000000E+00  0.00000000E+00
  0.00000000E+00  0.00000000E+00  0.00000000E+00
  0.00000000E+00  0.00000000E+00  0.00000000E+00
  0.00000000E+00  0.00000000E+00  0.00000000E+00
  0.00000000E+00  0.00000000E+00  0.00000000E+00
  0.00000000E+00  0.00000000E+00  0.00000000E+00
  0.00000000E+00  0.00000000E+00  0.00000000E+00
  0.00000000E+00  0.00000000E+00  0.00000000E+00
  0.00000000E+00  0.00000000E+00  0.00000000E+00
  0.00000000E+00  0.00000000E+00  0.00000000E+00
  0.00000000E+00  0.00000000E+00  0.00000000E+00
  0.00000000E+00  0.00000000E+00  0.00000000E+00
  0.00000000E+00  0.00000000E+00  0.00000000E+00
