CONTCAR\(9)                             
   1.00000000000000     
    13.6161003113000003    0.0000000000000000    0.0000000000000000
    -6.8080501556000002   11.7918887699999999    0.0000000000000000
     0.0000000000000000    0.0000000000000000   24.7478008269999989
   Ca   Ti   S    O    H 
     4    32    64     1     1
Selective dynamics
Direct
  0.0004825794073327  0.0006125895014861  0.5011724317940107   F   F   F
  0.5004285010187388  0.0016093473181797  0.5011995316678153   F   F   F
  0.9991331559988197  0.5005638395817229  0.5011070435685241   F   F   F
  0.5006471000521060  0.5004716479707412  0.5011909883000314   F   F   F
  0.4987423888534437  0.2504271561641573  0.6390950973030556   F   F   F
  0.0021459708964642  0.2514932130882386  0.3634911239591005   F   F   F
  0.2520063470417924  0.0031424171886982  0.6389518484561307   F   F   F
  0.2488760633088347  0.4981934487448996  0.3635359974121002   F   F   F
  0.2516692704492272  0.2496534355489288  0.6383214820687613   F   F   F
  0.2489226969530947  0.2515590979300697  0.3633682795396851   F   F   F
  0.0004117601480615  0.0012663817673300  0.6415229862164864   F   F   F
  0.9999239786885710  0.0004582894923999  0.3609762834545407   F   F   F
  0.9982339894602461  0.2501303644994621  0.6390613230055635   F   F   F
  0.5021451198686435  0.2515366676061390  0.3632946523691984   F   F   F
  0.7507049708989655  0.0023920907924335  0.6391275714781912   F   F   F
  0.7487450740659511  0.4981242174826335  0.3632653809068955   F   F   F
  0.7516869595781870  0.2499370280327398  0.6391881056604376   F   F   F
  0.7489017172325276  0.2514357097310835  0.3633165240685159   F   F   F
  0.5008037551355997  0.9996207163015924  0.6418626184203475   F   F   F
  0.4999392502973095  0.0005153484219491  0.3609560914907775   F   F   F
  0.4999725665267434  0.7514028236129491  0.6383300204993034   F   F   F
  0.0021904450476171  0.7515837393194573  0.3633361094551830   F   F   F
  0.2495728318068942  0.5016610117057709  0.6376444334214497   F   F   F
  0.2488283250080201  0.9981245779073618  0.3633620921466942   F   F   F
  0.2522599698823456  0.7494269521594106  0.6383549025666326   F   F   F
  0.2489004543747129  0.7513826681079507  0.3635344841894153   F   F   F
  0.0015625829313777  0.5009698748697602  0.6417102053657047   F   F   F
  0.9998813000109905  0.5004286250574097  0.3609497365196006   F   F   F
  0.9987844877024159  0.7499143807987352  0.6388970836736263   F   F   F
  0.5021152365190531  0.7514738498865725  0.3636119239637310   F   F   F
  0.7511953671833709  0.5034351934177579  0.6389595659749290   F   F   F
  0.7487652386050456  0.9981013992291636  0.3634752910534260   F   F   F
  0.7519865480838561  0.7500856450952398  0.6383613573559330   F   F   F
  0.7488294436183338  0.7514384368152989  0.3634167176464658   F   F   F
  0.5025270006851130  0.5001296462633604  0.6397368629090678   F   F   F
  0.4999261884858228  0.5005299404720631  0.3610600793172694   F   F   F
  0.4161700666929704  0.3328536988736914  0.4221567387075424   F   F   F
  0.4167622510685973  0.3345842570608966  0.6964397888444083   F   F   F
  0.1675662498584600  0.0842169468196161  0.4221026019953058   F   F   F
  0.1680725376082250  0.0851165768897602  0.6965197186601273   F   F   F
  0.1666212640087323  0.3336111434532540  0.4225968869922525   F   F   F
  0.1681548513322966  0.3351309797628375  0.6947207722800073   F   F   F
  0.4161851736810647  0.0842432898882706  0.4220940264144630   F   F   F
  0.4171578659390320  0.0848153445163788  0.6965491715132615   F   F   F
  0.0828229139815804  0.4163419144402738  0.5795367496424646   F   F   F
  0.0835792192610896  0.4168310582371433  0.3057394822468709   F   F   F
  0.3343196285336560  0.1673780424439073  0.5796824781882819   F   F   F
  0.3332834222181305  0.1670449725919738  0.3074817533394167   F   F   F
  0.3326680724342452  0.4163143437398134  0.5797454198661924   F   F   F
  0.3328771204733840  0.4169794522581398  0.3057040091310910   F   F   F
  0.0837408948102905  0.1681165309320036  0.5802201816474977   F   F   F
  0.0834759154503999  0.1675558739621437  0.3056257794500894   F   F   F
  0.9161159043545126  0.3328785610616549  0.4221686897275845   F   F   F
  0.9172464180341819  0.3338129952268005  0.6970207845256908   F   F   F
  0.6674830700537910  0.0842206323872787  0.4221404070738970   F   F   F
  0.6678854087299300  0.0843755091131584  0.6970597411773198   F   F   F
  0.6665647916778354  0.3336789887880229  0.4224397810652150   F   F   F
  0.6673425113203706  0.3345312385676564  0.6950264129129522   F   F   F
  0.9161731406607885  0.0840666718126997  0.4222265943321730   F   F   F
  0.9170256594653310  0.0846777685038447  0.6966776490047550   F   F   F
  0.5854273103306227  0.4163899820263737  0.5792721720663891   F   F   F
  0.5833919243422940  0.4168740797798236  0.3055588286323854   F   F   F
  0.8337801600932480  0.1676754435772736  0.5800510342338825   F   F   F
  0.8333497728882406  0.1669540697548157  0.3075460015465978   F   F   F
  0.8331470867216098  0.4170325688354239  0.5806158278608393   F   F   F
  0.8328463205379535  0.4168551380980929  0.3055614003252316   F   F   F
  0.5844511430732169  0.1682130118257561  0.5807165909626661   F   F   F
  0.5835466406546530  0.1674800767624163  0.3055585916699144   F   F   F
  0.4162242726467653  0.8331142883203313  0.4223020954024008   F   F   F
  0.4166346590789871  0.8328031855383102  0.6966863084528683   F   F   F
  0.1672886171233543  0.5840618052452271  0.4222717875049327   F   F   F
  0.1687375951683947  0.5846236014694242  0.6965087841762596   F   F   F
  0.1666146277216782  0.8337809087821597  0.4225455561698155   F   F   F
  0.1674517369041411  0.8343792675938246  0.6946152645150150   F   F   F
  0.4161909860268764  0.5841249928932655  0.4223675018682442   F   F   F
  0.4180165558035611  0.5848075917079498  0.6935900758802376   F   F   F
  0.0844273341438040  0.9173665627998773  0.5802931502160291   F   F   F
  0.0835145435650233  0.9168715541031247  0.3056257133088209   F   F   F
  0.3336284122576956  0.6684416501754669  0.5796909702394686   F   F   F
  0.3333530219539753  0.6670473072358334  0.3076598204962337   F   F   F
  0.3336582435807784  0.9178155835755959  0.5802871323616756   F   F   F
  0.3328066937552734  0.9167354446665570  0.3056554470150630   F   F   F
  0.0837798986032112  0.6678063011885840  0.5802237900402218   F   F   F
  0.0836024417279120  0.6674889875668626  0.3056725584713149   F   F   F
  0.9162790690419058  0.8329168969303780  0.4221567614945556   F   F   F
  0.9168348245968971  0.8336710556141966  0.6965139117706585   F   F   F
  0.6676176740043758  0.5841398646811058  0.4221429786599131   F   F   F
  0.6675061474984361  0.5850945893609705  0.6963527488738137   F   F   F
  0.6666963704946482  0.8337045136535508  0.4226316582505305   F   F   F
  0.6669844206414197  0.8336261342450513  0.6947803497045939   F   F   F
  0.9160630221462824  0.5842129655263690  0.4220640078039750   F   F   F
  0.9170925771247980  0.5846941087423971  0.6964847482833676   F   F   F
  0.5850689086248551  0.9183795606247074  0.5796637897246697   F   F   F
  0.5834040992094884  0.9167208548321355  0.3057470454381530   F   F   F
  0.8344229872193836  0.6674654947122818  0.5795645321190221   F   F   F
  0.8332959036858441  0.6670976882146817  0.3074687579041964   F   F   F
  0.8334854343495905  0.9179422452206936  0.5801542874067991   F   F   F
  0.8328129557017121  0.9168317068090914  0.3056908791714434   F   F   F
  0.5855912600902684  0.6694169380279646  0.5796440119569297   F   F   F
  0.5834401944509935  0.6675583840579407  0.3057213539055681   F   F   F
  0.4190378910237342  0.5910236548137107  0.7612268581011179   T   T   T
  0.3869140139175968  0.5127627061960567  0.7737465446140059   T   T   T
 
  0.00000000E+00  0.00000000E+00  0.00000000E+00
  0.00000000E+00  0.00000000E+00  0.00000000E+00
  0.00000000E+00  0.00000000E+00  0.00000000E+00
  0.00000000E+00  0.00000000E+00  0.00000000E+00
  0.00000000E+00  0.00000000E+00  0.00000000E+00
  0.00000000E+00  0.00000000E+00  0.00000000E+00
  0.00000000E+00  0.00000000E+00  0.00000000E+00
  0.00000000E+00  0.00000000E+00  0.00000000E+00
  0.00000000E+00  0.00000000E+00  0.00000000E+00
  0.00000000E+00  0.00000000E+00  0.00000000E+00
  0.00000000E+00  0.00000000E+00  0.00000000E+00
  0.00000000E+00  0.00000000E+00  0.00000000E+00
  0.00000000E+00  0.00000000E+00  0.00000000E+00
  0.00000000E+00  0.00000000E+00  0.00000000E+00
  0.00000000E+00  0.00000000E+00  0.00000000E+00
  0.00000000E+00  0.00000000E+00  0.00000000E+00
  0.00000000E+00  0.00000000E+00  0.00000000E+00
  0.00000000E+00  0.00000000E+00  0.00000000E+00
  0.00000000E+00  0.00000000E+00  0.00000000E+00
  0.00000000E+00  0.00000000E+00  0.00000000E+00
  0.00000000E+00  0.00000000E+00  0.00000000E+00
  0.00000000E+00  0.00000000E+00  0.00000000E+00
  0.00000000E+00  0.00000000E+00  0.00000000E+00
  0.00000000E+00  0.00000000E+00  0.00000000E+00
  0.00000000E+00  0.00000000E+00  0.00000000E+00
  0.00000000E+00  0.00000000E+00  0.00000000E+00
  0.00000000E+00  0.00000000E+00  0.00000000E+00
  0.00000000E+00  0.00000000E+00  0.00000000E+00
  0.00000000E+00  0.00000000E+00  0.00000000E+00
  0.00000000E+00  0.00000000E+00  0.00000000E+00
  0.00000000E+00  0.00000000E+00  0.00000000E+00
  0.00000000E+00  0.00000000E+00  0.00000000E+00
  0.00000000E+00  0.00000000E+00  0.00000000E+00
  0.00000000E+00  0.00000000E+00  0.00000000E+00
  0.00000000E+00  0.00000000E+00  0.00000000E+00
  0.00000000E+00  0.00000000E+00  0.00000000E+00
  0.00000000E+00  0.00000000E+00  0.00000000E+00
  0.00000000E+00  0.00000000E+00  0.00000000E+00
  0.00000000E+00  0.00000000E+00  0.00000000E+00
  0.00000000E+00  0.00000000E+00  0.00000000E+00
  0.00000000E+00  0.00000000E+00  0.00000000E+00
  0.00000000E+00  0.00000000E+00  0.00000000E+00
  0.00000000E+00  0.00000000E+00  0.00000000E+00
  0.00000000E+00  0.00000000E+00  0.00000000E+00
  0.00000000E+00  0.00000000E+00  0.00000000E+00
  0.00000000E+00  0.00000000E+00  0.00000000E+00
  0.00000000E+00  0.00000000E+00  0.00000000E+00
  0.00000000E+00  0.00000000E+00  0.00000000E+00
  0.00000000E+00  0.00000000E+00  0.00000000E+00
  0.00000000E+00  0.00000000E+00  0.00000000E+00
  0.00000000E+00  0.00000000E+00  0.00000000E+00
  0.00000000E+00  0.00000000E+00  0.00000000E+00
  0.00000000E+00  0.00000000E+00  0.00000000E+00
  0.00000000E+00  0.00000000E+00  0.00000000E+00
  0.00000000E+00  0.00000000E+00  0.00000000E+00
  0.00000000E+00  0.00000000E+00  0.00000000E+00
  0.00000000E+00  0.00000000E+00  0.00000000E+00
  0.00000000E+00  0.00000000E+00  0.00000000E+00
  0.00000000E+00  0.00000000E+00  0.00000000E+00
  0.00000000E+00  0.00000000E+00  0.00000000E+00
  0.00000000E+00  0.00000000E+00  0.00000000E+00
  0.00000000E+00  0.00000000E+00  0.00000000E+00
  0.00000000E+00  0.00000000E+00  0.00000000E+00
  0.00000000E+00  0.00000000E+00  0.00000000E+00
  0.00000000E+00  0.00000000E+00  0.00000000E+00
  0.00000000E+00  0.00000000E+00  0.00000000E+00
  0.00000000E+00  0.00000000E+00  0.00000000E+00
  0.00000000E+00  0.00000000E+00  0.00000000E+00
  0.00000000E+00  0.00000000E+00  0.00000000E+00
  0.00000000E+00  0.00000000E+00  0.00000000E+00
  0.00000000E+00  0.00000000E+00  0.00000000E+00
  0.00000000E+00  0.00000000E+00  0.00000000E+00
  0.00000000E+00  0.00000000E+00  0.00000000E+00
  0.00000000E+00  0.00000000E+00  0.00000000E+00
  0.00000000E+00  0.00000000E+00  0.00000000E+00
  0.00000000E+00  0.00000000E+00  0.00000000E+00
  0.00000000E+00  0.00000000E+00  0.00000000E+00
  0.00000000E+00  0.00000000E+00  0.00000000E+00
  0.00000000E+00  0.00000000E+00  0.00000000E+00
  0.00000000E+00  0.00000000E+00  0.00000000E+00
  0.00000000E+00  0.00000000E+00  0.00000000E+00
  0.00000000E+00  0.00000000E+00  0.00000000E+00
  0.00000000E+00  0.00000000E+00  0.00000000E+00
  0.00000000E+00  0.00000000E+00  0.00000000E+00
  0.00000000E+00  0.00000000E+00  0.00000000E+00
  0.00000000E+00  0.00000000E+00  0.00000000E+00
  0.00000000E+00  0.00000000E+00  0.00000000E+00
  0.00000000E+00  0.00000000E+00  0.00000000E+00
  0.00000000E+00  0.00000000E+00  0.00000000E+00
  0.00000000E+00  0.00000000E+00  0.00000000E+00
  0.00000000E+00  0.00000000E+00  0.00000000E+00
  0.00000000E+00  0.00000000E+00  0.00000000E+00
  0.00000000E+00  0.00000000E+00  0.00000000E+00
  0.00000000E+00  0.00000000E+00  0.00000000E+00
  0.00000000E+00  0.00000000E+00  0.00000000E+00
  0.00000000E+00  0.00000000E+00  0.00000000E+00
  0.00000000E+00  0.00000000E+00  0.00000000E+00
  0.00000000E+00  0.00000000E+00  0.00000000E+00
  0.00000000E+00  0.00000000E+00  0.00000000E+00
  0.00000000E+00  0.00000000E+00  0.00000000E+00
  0.00000000E+00  0.00000000E+00  0.00000000E+00
  0.00000000E+00  0.00000000E+00  0.00000000E+00
