 Zr2 Ge2 Te2                            
   1.00000000000000     
     3.7302301224090830    0.0000000000000000    0.0000000000000000
     0.0000000000000000    3.7302291904045402    0.0000000000000000
     0.0000000000000000    0.0000000000000000   22.0060130209260016
   Zr   Ge   Te
     2     2     2
Direct
  0.5000000675550321  0.0000000733179390  0.4017888402389493
 -0.0000001175458158  0.4999998523595163  0.5982122433675499
  0.5000003321018940  0.5000002290000010  0.4999994515162274
 -0.0000002462392542 -0.0000000868269741  0.4999997544846851
  0.4999999288759659 -0.0000000418608679  0.6595893484004328
  0.0000000352521780  0.4999999740103857  0.3404103619921555
 
  0.00000000E+00  0.00000000E+00  0.00000000E+00
  0.00000000E+00  0.00000000E+00  0.00000000E+00
  0.00000000E+00  0.00000000E+00  0.00000000E+00
  0.00000000E+00  0.00000000E+00  0.00000000E+00
  0.00000000E+00  0.00000000E+00  0.00000000E+00
  0.00000000E+00  0.00000000E+00  0.00000000E+00
