 Na2 Zr1 N2                             
   1.00000000000000     
     3.3150104173173829    0.0000000000000000    0.0000000000000000
    -1.6575052086586914    2.8708784281462778    0.0000000000000000
     0.0000000000000000    0.0000000000000000   20.2116570227319983
   Na   Zr   N 
     2     1     2
Direct
  0.6666664525164968  0.3333336062637429  0.3729557898411791
  0.3333335458922865  0.6666663881189364  0.6270441886973588
  0.0000000012657119 -0.0000000004100907  0.5000000019599165
  0.6666666530314220  0.3333333847374198  0.5578172503320793
  0.3333333472940828  0.6666666212899914  0.4421827691694660
 
  0.00000000E+00  0.00000000E+00  0.00000000E+00
  0.00000000E+00  0.00000000E+00  0.00000000E+00
  0.00000000E+00  0.00000000E+00  0.00000000E+00
  0.00000000E+00  0.00000000E+00  0.00000000E+00
  0.00000000E+00  0.00000000E+00  0.00000000E+00
