CONTCAR                                 
   1.00000000000000     
    10.9576997757000001    0.0000000000000000    0.0000000000000000
     0.0000000000000000   18.6480007171999986    0.0000000000000000
     0.0000000000000000    0.0000000000000000   19.2721004485999998
   Ta   Te   Pd   O    H 
    12    30    18     1     1
Direct
 -0.0009938965877226  0.9219218273738411  0.4974959242523675
  0.1667516082205140  0.4224452216266029  0.5003792066931444
 -0.0002187979335876  0.1740884051230892  0.4973669001588038
  0.1670706404336613  0.6747078898856391  0.5004716454541169
  0.3351958637626205  0.9218657543786235  0.4973255909102653
  0.5002041330975697  0.4223783422746622  0.5000966322105359
  0.3338817614621467  0.1740938848874062  0.4973152961835968
  0.5026754337131847  0.6752448013712523  0.5022054827407292
  0.6668803613490668  0.9208193923212600  0.4983771155812726
  0.8333846885804554  0.4223957731275043  0.5001330131000167
  0.6668430540323714  0.1745487337129530  0.4974376686005592
  0.8310768701565421  0.6752458160529620  0.5021037308844604
  0.0006158139361757  0.7253792241700355  0.6047154839575160
  0.1669887909960777  0.8704718696083819  0.3944761049318532
  0.1667637358919096  0.2251083592099163  0.3937724565636262
  0.0003430555068378  0.3709188265167673  0.6039431147789794
 -0.0008940758381706  0.6521482995871519  0.3892417588786840
  0.1667527529028673  0.1519584957477783  0.6090489319615858
  0.1667071537806913  0.5485749825047290  0.5826977005630125
 -0.0008806631872017  0.0481860003541017  0.4153081105649093
  0.0001436642422865  0.4440523317123520  0.3878335239821156
  0.1673023518037232  0.9441908057925144  0.6093085180386659
  0.3330987571078046  0.7251322022941962  0.6048896173849008
  0.5017388062958134  0.8718885764649793  0.3932013450102696
  0.5001753911050102  0.2256446293276103  0.3937782597231972
  0.3332208734637219  0.3708827957584941  0.6039030951331412
  0.3346778651792472  0.6521458293273983  0.3892422460361570
  0.5000391813336722  0.1528584848302579  0.6097144045437271
  0.4991675676003789  0.5478047113836977  0.5829921681256099
  0.3348447411667998  0.0481746191320013  0.4151859725930831
  0.3335054970760677  0.4440085761997631  0.3878067638083402
  0.5002222905028259  0.9448508524219676  0.6106492763497244
  0.6668150656420319  0.7217859781352853  0.6100346938437647
  0.8325067860563319  0.8718153475231873  0.3934776438223196
  0.8333660251318605  0.2255624396157130  0.3938205412258197
  0.6667395511698025  0.3714660193824617  0.6041345113509264
  0.6669533924724932  0.6522683482386503  0.3889369648111223
  0.8333720642012171  0.1528056817749794  0.6097517302594716
  0.8341459312966008  0.5479254484247885  0.5829908376114149
  0.6668873967974203  0.0489841555952075  0.4162597290013875
  0.6668717859836804  0.4445364840025559  0.3879656503462395
  0.8336009381960099  0.9448152758003698  0.6106790487540107
  0.0001371820957248  0.3167336902643937  0.4505419810501692
 -0.0010662193287070  0.7796127443647257  0.4509932914298322
  0.1667458988337688  0.2795982859131655  0.5467058249533686
  0.1672333808957274  0.8169157292574983  0.5466900362522122
  0.0002354835355485  0.5474154200194385  0.4816108549790199
  0.1671187231322532  0.0476519531124984  0.5158363769105305
  0.3333399235788077  0.3167555736593472  0.4505885365846481
  0.3354725071095978  0.7796647263723975  0.4509264012320374
  0.5001828390515920  0.2802062003229453  0.5467754798891661
  0.4972423318213329  0.8176772971077202  0.5494220371541628
  0.3332348702822955  0.5473574969087902  0.4815443744044131
  0.5001905843961759  0.0481814041552231  0.5170729817937664
  0.6667600056391664  0.3170419063250978  0.4506078790159603
  0.6667934856180558  0.7793207572538360  0.4545862617569721
  0.8334669836356372  0.2802153708819555  0.5468189269568502
  0.8364160555618391  0.8177831629387976  0.5492157605961235
  0.6666563137694163  0.5482411081854608  0.4818386581923667
  0.8336486865626561  0.0480898296583107  0.5171329900424662
  0.6668849177697456  0.6598803089652808  0.7012350007631543
  0.6617624299384757  0.6088458703600326  0.6893678633173885
 
  0.00000000E+00  0.00000000E+00  0.00000000E+00
  0.00000000E+00  0.00000000E+00  0.00000000E+00
  0.00000000E+00  0.00000000E+00  0.00000000E+00
  0.00000000E+00  0.00000000E+00  0.00000000E+00
  0.00000000E+00  0.00000000E+00  0.00000000E+00
  0.00000000E+00  0.00000000E+00  0.00000000E+00
  0.00000000E+00  0.00000000E+00  0.00000000E+00
  0.00000000E+00  0.00000000E+00  0.00000000E+00
  0.00000000E+00  0.00000000E+00  0.00000000E+00
  0.00000000E+00  0.00000000E+00  0.00000000E+00
  0.00000000E+00  0.00000000E+00  0.00000000E+00
  0.00000000E+00  0.00000000E+00  0.00000000E+00
  0.00000000E+00  0.00000000E+00  0.00000000E+00
  0.00000000E+00  0.00000000E+00  0.00000000E+00
  0.00000000E+00  0.00000000E+00  0.00000000E+00
  0.00000000E+00  0.00000000E+00  0.00000000E+00
  0.00000000E+00  0.00000000E+00  0.00000000E+00
  0.00000000E+00  0.00000000E+00  0.00000000E+00
  0.00000000E+00  0.00000000E+00  0.00000000E+00
  0.00000000E+00  0.00000000E+00  0.00000000E+00
  0.00000000E+00  0.00000000E+00  0.00000000E+00
  0.00000000E+00  0.00000000E+00  0.00000000E+00
  0.00000000E+00  0.00000000E+00  0.00000000E+00
  0.00000000E+00  0.00000000E+00  0.00000000E+00
  0.00000000E+00  0.00000000E+00  0.00000000E+00
  0.00000000E+00  0.00000000E+00  0.00000000E+00
  0.00000000E+00  0.00000000E+00  0.00000000E+00
  0.00000000E+00  0.00000000E+00  0.00000000E+00
  0.00000000E+00  0.00000000E+00  0.00000000E+00
  0.00000000E+00  0.00000000E+00  0.00000000E+00
  0.00000000E+00  0.00000000E+00  0.00000000E+00
  0.00000000E+00  0.00000000E+00  0.00000000E+00
  0.00000000E+00  0.00000000E+00  0.00000000E+00
  0.00000000E+00  0.00000000E+00  0.00000000E+00
  0.00000000E+00  0.00000000E+00  0.00000000E+00
  0.00000000E+00  0.00000000E+00  0.00000000E+00
  0.00000000E+00  0.00000000E+00  0.00000000E+00
  0.00000000E+00  0.00000000E+00  0.00000000E+00
  0.00000000E+00  0.00000000E+00  0.00000000E+00
  0.00000000E+00  0.00000000E+00  0.00000000E+00
  0.00000000E+00  0.00000000E+00  0.00000000E+00
  0.00000000E+00  0.00000000E+00  0.00000000E+00
  0.00000000E+00  0.00000000E+00  0.00000000E+00
  0.00000000E+00  0.00000000E+00  0.00000000E+00
  0.00000000E+00  0.00000000E+00  0.00000000E+00
  0.00000000E+00  0.00000000E+00  0.00000000E+00
  0.00000000E+00  0.00000000E+00  0.00000000E+00
  0.00000000E+00  0.00000000E+00  0.00000000E+00
  0.00000000E+00  0.00000000E+00  0.00000000E+00
  0.00000000E+00  0.00000000E+00  0.00000000E+00
  0.00000000E+00  0.00000000E+00  0.00000000E+00
  0.00000000E+00  0.00000000E+00  0.00000000E+00
  0.00000000E+00  0.00000000E+00  0.00000000E+00
  0.00000000E+00  0.00000000E+00  0.00000000E+00
  0.00000000E+00  0.00000000E+00  0.00000000E+00
  0.00000000E+00  0.00000000E+00  0.00000000E+00
  0.00000000E+00  0.00000000E+00  0.00000000E+00
  0.00000000E+00  0.00000000E+00  0.00000000E+00
  0.00000000E+00  0.00000000E+00  0.00000000E+00
  0.00000000E+00  0.00000000E+00  0.00000000E+00
  0.00000000E+00  0.00000000E+00  0.00000000E+00
  0.00000000E+00  0.00000000E+00  0.00000000E+00
