CONTCAR\(10)                            
   1.00000000000000     
     9.7571001052999993    0.0000000000000000    0.0000000000000000
    -3.0063686365000000   15.8319856181999992    0.0000000000000000
     0.0000000000000000    0.0000000000000000   18.2793006897000012
   V    P    S    O 
     4     8    26     1
Selective dynamics
Direct
  0.6214587405941074  0.6149913579627579  0.5375305812935878   F   F   F
  0.6168960843236917  0.1046227045843509  0.4984773151292288   F   F   F
  0.3702742295096613  0.3938181459677210  0.5157587545716282   F   F   F
  0.3936560843853556  0.8943634553599153  0.4934126350295855   F   F   F
  0.8266105069077838  0.2608417257685076  0.4939842790143558   F   F   F
  0.7004854970855092  0.4391237380234969  0.5505076714119213   F   F   F
  0.1787373000980779  0.7414998596807862  0.4963083230328706   F   F   F
  0.1709424988693868  0.2333202750299037  0.4937553166081941   F   F   F
  0.3060277668311215  0.0620681697768504  0.5305606291153069   F   F   F
  0.7053670406565260  0.9361418319945471  0.4586890221124094   F   F   F
  0.2830983803236506  0.5547572561858871  0.4746378088038270   F   F   F
  0.8449097742898672  0.7696013835419251  0.5059454427269543   F   F   F
  0.1122629610014130  0.1009510445850594  0.5104002240451564   F   F   F
  0.9007579226032334  0.8975363228780253  0.4693419698275818   F   F   F
  0.0198181165229485  0.7583281976250831  0.5714025169928334   F   F   F
  0.3987426734383703  0.0368595370408684  0.4333162837417319   F   F   F
  0.5417826197117108  0.3567087694446869  0.5994367327479466   F   F   F
  0.2617178916794245  0.4523702007801234  0.4088147858013542   F   F   F
  0.1928848155465488  0.2986410288675998  0.5869569204445639   F   F   F
  0.6971857933644046  0.7549466289147588  0.5846332356468125   F   F   F
  0.4604079703248161  0.6419065629012977  0.4476520421492864   F   F   F
  0.5927760198322929  0.4794224517412999  0.4644379925450579   F   F   F
  0.6621773676394227  0.2333700294920433  0.4261329579060629   F   F   F
  0.8830636965971834  0.3908990770251890  0.5231389614254525   F   F   F
  0.0018381781478709  0.2528146835281149  0.4252669270227258   F   F   F
  0.6153456641556687  0.9621856200627406  0.5568214221553660   F   F   F
  0.8003042994486194  0.6852180130303935  0.4274055535223553   F   F   F
  0.2685890090575995  0.4980904726610831  0.5748273227033636   F   F   F
  0.2088230571274039  0.8236063806771483  0.4129345688784483   F   F   F
  0.8006080633837556  0.5473670737451641  0.5963698512585367   F   F   F
  0.5544775600139786  0.8519182308788800  0.4084722338417848   F   F   F
  0.2475432785344438  0.9505030099294984  0.5814580101126410   F   F   F
  0.3445030608320607  0.7668503371604842  0.5644464805345564   F   F   F
  0.7998264576683241  0.1798306291035487  0.5781874408982546   F   F   F
  0.7609130761340452  0.0488328708075230  0.4084861876340540   F   F   F
  0.4538822994779395  0.1450161325899515  0.5836166978475319   F   F   F
  0.1093243819323533  0.6146560361200315  0.4567840625544122   F   F   F
  0.3410596581188443  0.2724366486967114  0.4318007540300997   F   F   F
  0.5194799878305788  0.5992942198360681  0.6055796595619169   T   T   T
 
  0.00000000E+00  0.00000000E+00  0.00000000E+00
  0.00000000E+00  0.00000000E+00  0.00000000E+00
  0.00000000E+00  0.00000000E+00  0.00000000E+00
  0.00000000E+00  0.00000000E+00  0.00000000E+00
  0.00000000E+00  0.00000000E+00  0.00000000E+00
  0.00000000E+00  0.00000000E+00  0.00000000E+00
  0.00000000E+00  0.00000000E+00  0.00000000E+00
  0.00000000E+00  0.00000000E+00  0.00000000E+00
  0.00000000E+00  0.00000000E+00  0.00000000E+00
  0.00000000E+00  0.00000000E+00  0.00000000E+00
  0.00000000E+00  0.00000000E+00  0.00000000E+00
  0.00000000E+00  0.00000000E+00  0.00000000E+00
  0.00000000E+00  0.00000000E+00  0.00000000E+00
  0.00000000E+00  0.00000000E+00  0.00000000E+00
  0.00000000E+00  0.00000000E+00  0.00000000E+00
  0.00000000E+00  0.00000000E+00  0.00000000E+00
  0.00000000E+00  0.00000000E+00  0.00000000E+00
  0.00000000E+00  0.00000000E+00  0.00000000E+00
  0.00000000E+00  0.00000000E+00  0.00000000E+00
  0.00000000E+00  0.00000000E+00  0.00000000E+00
  0.00000000E+00  0.00000000E+00  0.00000000E+00
  0.00000000E+00  0.00000000E+00  0.00000000E+00
  0.00000000E+00  0.00000000E+00  0.00000000E+00
  0.00000000E+00  0.00000000E+00  0.00000000E+00
  0.00000000E+00  0.00000000E+00  0.00000000E+00
  0.00000000E+00  0.00000000E+00  0.00000000E+00
  0.00000000E+00  0.00000000E+00  0.00000000E+00
  0.00000000E+00  0.00000000E+00  0.00000000E+00
  0.00000000E+00  0.00000000E+00  0.00000000E+00
  0.00000000E+00  0.00000000E+00  0.00000000E+00
  0.00000000E+00  0.00000000E+00  0.00000000E+00
  0.00000000E+00  0.00000000E+00  0.00000000E+00
  0.00000000E+00  0.00000000E+00  0.00000000E+00
  0.00000000E+00  0.00000000E+00  0.00000000E+00
  0.00000000E+00  0.00000000E+00  0.00000000E+00
  0.00000000E+00  0.00000000E+00  0.00000000E+00
  0.00000000E+00  0.00000000E+00  0.00000000E+00
  0.00000000E+00  0.00000000E+00  0.00000000E+00
  0.00000000E+00  0.00000000E+00  0.00000000E+00
