 Ta4 Te10 Pd6                           
   1.00000000000000     
     3.6525654064647934    0.0000000000000000    0.0000000000000000
     0.0000000000000000   18.6479687187990599    0.0000000000000000
     0.0000000000000000    0.0000000000000000   19.2720756804319997
   Ta   Te   Pd
     4    10     6
Direct
  0.0000000260144688  0.9155725050112693  0.5000034742156316
  0.4999999987343244  0.4155744453935171  0.4999986736254272
  0.9999999991858743  0.1676083288508821  0.4959993155846050
  0.4999999861070634  0.6676053670654198  0.5039976701810716
  0.9999999881134798  0.7180566639124208  0.6077791358465348
  0.5000000151572621  0.8635586932001260  0.3970210429652070
  0.4999999910396937  0.2180527810646140  0.3922202892743769
  0.0000000009317489  0.3635570179610284  0.6029786484656654
  0.9999999703026532  0.6466363940218898  0.3912332467383948
  0.5000000020544988  0.1466302523816836  0.6087624326620755
  0.5000000006326744  0.5403260618691235  0.5839696478338325
  0.0000000068548829  0.0403226922593873  0.4160244733223948
  0.0000000135059821  0.4389202957698828  0.3880886497465639
  0.5000000220719656  0.9389078075606179  0.6119225871283973
  0.9999999932411328  0.3101965638796784  0.4486139074235780
  0.9999999973750633  0.7731640078471429  0.4549575018811041
  0.4999999973660181  0.2731528596723081  0.5450418040701024
  0.4999999904723467  0.8102060637113908  0.5513843939542582
  0.9999999901922649  0.5415739089004745  0.4828389339011565
  0.5000000106466018  0.0415692896671302  0.5171641711796227
 
  0.00000000E+00  0.00000000E+00  0.00000000E+00
  0.00000000E+00  0.00000000E+00  0.00000000E+00
  0.00000000E+00  0.00000000E+00  0.00000000E+00
  0.00000000E+00  0.00000000E+00  0.00000000E+00
  0.00000000E+00  0.00000000E+00  0.00000000E+00
  0.00000000E+00  0.00000000E+00  0.00000000E+00
  0.00000000E+00  0.00000000E+00  0.00000000E+00
  0.00000000E+00  0.00000000E+00  0.00000000E+00
  0.00000000E+00  0.00000000E+00  0.00000000E+00
  0.00000000E+00  0.00000000E+00  0.00000000E+00
  0.00000000E+00  0.00000000E+00  0.00000000E+00
  0.00000000E+00  0.00000000E+00  0.00000000E+00
  0.00000000E+00  0.00000000E+00  0.00000000E+00
  0.00000000E+00  0.00000000E+00  0.00000000E+00
  0.00000000E+00  0.00000000E+00  0.00000000E+00
  0.00000000E+00  0.00000000E+00  0.00000000E+00
  0.00000000E+00  0.00000000E+00  0.00000000E+00
  0.00000000E+00  0.00000000E+00  0.00000000E+00
  0.00000000E+00  0.00000000E+00  0.00000000E+00
  0.00000000E+00  0.00000000E+00  0.00000000E+00
