G   55   11    1    0.005     # Parameters to Generate KPOINTS (Don't Edit This Line)
     168
Reciprocal lattice
    0.000000000000    0.000000000000    0.000000000000       1
    0.018181818182    0.000000000000    0.000000000000       2
    0.036363636364    0.000000000000    0.000000000000       2
    0.054545454545    0.000000000000    0.000000000000       2
    0.072727272727    0.000000000000    0.000000000000       2
    0.090909090909    0.000000000000    0.000000000000       2
    0.109090909091    0.000000000000    0.000000000000       2
    0.127272727273    0.000000000000    0.000000000000       2
    0.145454545455    0.000000000000    0.000000000000       2
    0.163636363636    0.000000000000    0.000000000000       2
    0.181818181818    0.000000000000    0.000000000000       2
    0.200000000000    0.000000000000    0.000000000000       2
    0.218181818182    0.000000000000    0.000000000000       2
    0.236363636364    0.000000000000    0.000000000000       2
    0.254545454545    0.000000000000    0.000000000000       2
    0.272727272727    0.000000000000    0.000000000000       2
    0.290909090909    0.000000000000    0.000000000000       2
    0.309090909091    0.000000000000    0.000000000000       2
    0.327272727273    0.000000000000    0.000000000000       2
    0.345454545455    0.000000000000    0.000000000000       2
    0.363636363636    0.000000000000    0.000000000000       2
    0.381818181818    0.000000000000    0.000000000000       2
    0.400000000000    0.000000000000    0.000000000000       2
    0.418181818182    0.000000000000    0.000000000000       2
    0.436363636364    0.000000000000    0.000000000000       2
    0.454545454545    0.000000000000    0.000000000000       2
    0.472727272727    0.000000000000    0.000000000000       2
    0.490909090909    0.000000000000    0.000000000000       2
    0.000000000000    0.090909090909    0.000000000000       2
    0.018181818182    0.090909090909    0.000000000000       4
    0.036363636364    0.090909090909    0.000000000000       4
    0.054545454545    0.090909090909    0.000000000000       4
    0.072727272727    0.090909090909    0.000000000000       4
    0.090909090909    0.090909090909    0.000000000000       4
    0.109090909091    0.090909090909    0.000000000000       4
    0.127272727273    0.090909090909    0.000000000000       4
    0.145454545455    0.090909090909    0.000000000000       4
    0.163636363636    0.090909090909    0.000000000000       4
    0.181818181818    0.090909090909    0.000000000000       4
    0.200000000000    0.090909090909    0.000000000000       4
    0.218181818182    0.090909090909    0.000000000000       4
    0.236363636364    0.090909090909    0.000000000000       4
    0.254545454545    0.090909090909    0.000000000000       4
    0.272727272727    0.090909090909    0.000000000000       4
    0.290909090909    0.090909090909    0.000000000000       4
    0.309090909091    0.090909090909    0.000000000000       4
    0.327272727273    0.090909090909    0.000000000000       4
    0.345454545455    0.090909090909    0.000000000000       4
    0.363636363636    0.090909090909    0.000000000000       4
    0.381818181818    0.090909090909    0.000000000000       4
    0.400000000000    0.090909090909    0.000000000000       4
    0.418181818182    0.090909090909    0.000000000000       4
    0.436363636364    0.090909090909    0.000000000000       4
    0.454545454545    0.090909090909    0.000000000000       4
    0.472727272727    0.090909090909    0.000000000000       4
    0.490909090909    0.090909090909    0.000000000000       4
    0.000000000000    0.181818181818    0.000000000000       2
    0.018181818182    0.181818181818    0.000000000000       4
    0.036363636364    0.181818181818    0.000000000000       4
    0.054545454545    0.181818181818    0.000000000000       4
    0.072727272727    0.181818181818    0.000000000000       4
    0.090909090909    0.181818181818    0.000000000000       4
    0.109090909091    0.181818181818    0.000000000000       4
    0.127272727273    0.181818181818    0.000000000000       4
    0.145454545455    0.181818181818    0.000000000000       4
    0.163636363636    0.181818181818    0.000000000000       4
    0.181818181818    0.181818181818    0.000000000000       4
    0.200000000000    0.181818181818    0.000000000000       4
    0.218181818182    0.181818181818    0.000000000000       4
    0.236363636364    0.181818181818    0.000000000000       4
    0.254545454545    0.181818181818    0.000000000000       4
    0.272727272727    0.181818181818    0.000000000000       4
    0.290909090909    0.181818181818    0.000000000000       4
    0.309090909091    0.181818181818    0.000000000000       4
    0.327272727273    0.181818181818    0.000000000000       4
    0.345454545455    0.181818181818    0.000000000000       4
    0.363636363636    0.181818181818    0.000000000000       4
    0.381818181818    0.181818181818    0.000000000000       4
    0.400000000000    0.181818181818    0.000000000000       4
    0.418181818182    0.181818181818    0.000000000000       4
    0.436363636364    0.181818181818    0.000000000000       4
    0.454545454545    0.181818181818    0.000000000000       4
    0.472727272727    0.181818181818    0.000000000000       4
    0.490909090909    0.181818181818    0.000000000000       4
    0.000000000000    0.272727272727    0.000000000000       2
    0.018181818182    0.272727272727    0.000000000000       4
    0.036363636364    0.272727272727    0.000000000000       4
    0.054545454545    0.272727272727    0.000000000000       4
    0.072727272727    0.272727272727    0.000000000000       4
    0.090909090909    0.272727272727    0.000000000000       4
    0.109090909091    0.272727272727    0.000000000000       4
    0.127272727273    0.272727272727    0.000000000000       4
    0.145454545455    0.272727272727    0.000000000000       4
    0.163636363636    0.272727272727    0.000000000000       4
    0.181818181818    0.272727272727    0.000000000000       4
    0.200000000000    0.272727272727    0.000000000000       4
    0.218181818182    0.272727272727    0.000000000000       4
    0.236363636364    0.272727272727    0.000000000000       4
    0.254545454545    0.272727272727    0.000000000000       4
    0.272727272727    0.272727272727    0.000000000000       4
    0.290909090909    0.272727272727    0.000000000000       4
    0.309090909091    0.272727272727    0.000000000000       4
    0.327272727273    0.272727272727    0.000000000000       4
    0.345454545455    0.272727272727    0.000000000000       4
    0.363636363636    0.272727272727    0.000000000000       4
    0.381818181818    0.272727272727    0.000000000000       4
    0.400000000000    0.272727272727    0.000000000000       4
    0.418181818182    0.272727272727    0.000000000000       4
    0.436363636364    0.272727272727    0.000000000000       4
    0.454545454545    0.272727272727    0.000000000000       4
    0.472727272727    0.272727272727    0.000000000000       4
    0.490909090909    0.272727272727    0.000000000000       4
    0.000000000000    0.363636363636    0.000000000000       2
    0.018181818182    0.363636363636    0.000000000000       4
    0.036363636364    0.363636363636    0.000000000000       4
    0.054545454545    0.363636363636    0.000000000000       4
    0.072727272727    0.363636363636    0.000000000000       4
    0.090909090909    0.363636363636    0.000000000000       4
    0.109090909091    0.363636363636    0.000000000000       4
    0.127272727273    0.363636363636    0.000000000000       4
    0.145454545455    0.363636363636    0.000000000000       4
    0.163636363636    0.363636363636    0.000000000000       4
    0.181818181818    0.363636363636    0.000000000000       4
    0.200000000000    0.363636363636    0.000000000000       4
    0.218181818182    0.363636363636    0.000000000000       4
    0.236363636364    0.363636363636    0.000000000000       4
    0.254545454545    0.363636363636    0.000000000000       4
    0.272727272727    0.363636363636    0.000000000000       4
    0.290909090909    0.363636363636    0.000000000000       4
    0.309090909091    0.363636363636    0.000000000000       4
    0.327272727273    0.363636363636    0.000000000000       4
    0.345454545455    0.363636363636    0.000000000000       4
    0.363636363636    0.363636363636    0.000000000000       4
    0.381818181818    0.363636363636    0.000000000000       4
    0.400000000000    0.363636363636    0.000000000000       4
    0.418181818182    0.363636363636    0.000000000000       4
    0.436363636364    0.363636363636    0.000000000000       4
    0.454545454545    0.363636363636    0.000000000000       4
    0.472727272727    0.363636363636    0.000000000000       4
    0.490909090909    0.363636363636    0.000000000000       4
    0.000000000000    0.454545454545    0.000000000000       2
    0.018181818182    0.454545454545    0.000000000000       4
    0.036363636364    0.454545454545    0.000000000000       4
    0.054545454545    0.454545454545    0.000000000000       4
    0.072727272727    0.454545454545    0.000000000000       4
    0.090909090909    0.454545454545    0.000000000000       4
    0.109090909091    0.454545454545    0.000000000000       4
    0.127272727273    0.454545454545    0.000000000000       4
    0.145454545455    0.454545454545    0.000000000000       4
    0.163636363636    0.454545454545    0.000000000000       4
    0.181818181818    0.454545454545    0.000000000000       4
    0.200000000000    0.454545454545    0.000000000000       4
    0.218181818182    0.454545454545    0.000000000000       4
    0.236363636364    0.454545454545    0.000000000000       4
    0.254545454545    0.454545454545    0.000000000000       4
    0.272727272727    0.454545454545    0.000000000000       4
    0.290909090909    0.454545454545    0.000000000000       4
    0.309090909091    0.454545454545    0.000000000000       4
    0.327272727273    0.454545454545    0.000000000000       4
    0.345454545455    0.454545454545    0.000000000000       4
    0.363636363636    0.454545454545    0.000000000000       4
    0.381818181818    0.454545454545    0.000000000000       4
    0.400000000000    0.454545454545    0.000000000000       4
    0.418181818182    0.454545454545    0.000000000000       4
    0.436363636364    0.454545454545    0.000000000000       4
    0.454545454545    0.454545454545    0.000000000000       4
    0.472727272727    0.454545454545    0.000000000000       4
    0.490909090909    0.454545454545    0.000000000000       4
