CONTCAR\(9)                             
   1.00000000000000     
    15.6891002655000005    0.0000000000000000    0.0000000000000000
     7.8445501328000002   13.5871593924000003    0.0000000000000000
     0.0000000000000000    0.0000000000000000   18.9503002167000005
   Te   Pt
    32    32
Direct
  0.1666699909999991  0.1666699860000023  0.6093131137778087
  0.1666699909999991  0.1666699860000023  0.3906668812221881
  0.4166699909999991  0.1666699860000023  0.6093131137778087
  0.4166699909999991  0.1666699860000023  0.3906668812221881
  0.6666700219999981  0.1666699860000023  0.6093131137778087
  0.6666700219999981  0.1666699860000023  0.3906668812221881
  0.9166700520000006  0.1666699860000023  0.6093131137778087
  0.9166700520000006  0.1666699860000023  0.3906668812221881
  0.1666699700000009  0.4166699989999998  0.6093131137778087
  0.1666699700000009  0.4166699989999998  0.3906668812221881
  0.4166699390000019  0.4166699989999998  0.6093131137778087
  0.4166699390000019  0.4166699989999998  0.3906668812221881
  0.6666699700000009  0.4166699989999998  0.6093131137778087
  0.6666699700000009  0.4166699989999998  0.3906668812221881
  0.9166700000000034  0.4166699989999998  0.6093131137778087
  0.9166700000000034  0.4166699989999998  0.3906668812221881
  0.1666699609999966  0.6666700480000003  0.6093131137778087
  0.1666699609999966  0.6666700480000003  0.3906668812221881
  0.4166699299999976  0.6666700480000003  0.6093131137778087
  0.4166699299999976  0.6666700480000003  0.3906668812221881
  0.6666699609999966  0.6666700480000003  0.6093131137778087
  0.6666699609999966  0.6666700480000003  0.3906668812221881
  0.9166699909999991  0.6666700480000003  0.6093131137778087
  0.9166699909999991  0.6666700480000003  0.3906668812221881
  0.1666699869999988  0.9166700259999985  0.6093131137778087
  0.1666699869999988  0.9166700259999985  0.3906668812221881
  0.4166699559999998  0.9166700259999985  0.6093131137778087
  0.4166699559999998  0.9166700259999985  0.3906668812221881
  0.6666699869999988  0.9166700259999985  0.6093131137778087
  0.6666699869999988  0.9166700259999985  0.3906668812221881
  0.9166700170000013  0.9166700259999985  0.6093131137778087
  0.9166700170000013  0.9166700259999985  0.3906668812221881
  0.0833299999999966  0.0833300010000002  0.5409558133622809
  0.0000000000000000  0.0000000000000000  0.4590641656377201
  0.3333300299999991  0.0833300010000002  0.5409558133622809
  0.2500000000000000  0.0000000000000000  0.4590641656377201
  0.5833299700000012  0.0833300010000002  0.5409558133622809
  0.5000000000000000  0.0000000000000000  0.4590641656377201
  0.8333299999999966  0.0833300010000002  0.5409558133622809
  0.7499999699999975  0.0000000000000000  0.4590641656377201
  0.0833300130000012  0.3333300050000005  0.5409558133622809
  0.0000000020000002  0.2499999959999997  0.4590641656377201
  0.3333300130000012  0.3333300050000005  0.5409558133622809
  0.2499999870000025  0.2499999959999997  0.4590641656377201
  0.5833299829999987  0.3333300050000005  0.5409558133622809
  0.5000000169999979  0.2499999959999997  0.4590641656377201
  0.8333300130000012  0.3333300050000005  0.5409558133622809
  0.7499999870000025  0.2499999959999997  0.4590641656377201
  0.0833299960000033  0.5833299479999994  0.5409558133622809
  0.0000000040000003  0.4999999910000028  0.4590641656377201
  0.3333299960000033  0.5833299479999994  0.5409558133622809
  0.2500000040000003  0.4999999910000028  0.4590641656377201
  0.5833299649999972  0.5833299479999994  0.5409558133622809
  0.4999999739999978  0.4999999910000028  0.4590641656377201
  0.8333299350000019  0.5833299479999994  0.5409558133622809
  0.7500000040000003  0.4999999910000028  0.4590641656377201
  0.0833300039999969  0.8333299609999969  0.5409558133622809
  0.9999999830000021  0.7500000049999969  0.4590641656377201
  0.3333300039999969  0.8333299609999969  0.5409558133622809
  0.2499999520000031  0.7500000049999969  0.4590641656377201
  0.5833299740000015  0.8333299609999969  0.5409558133622809
  0.4999999830000021  0.7500000049999969  0.4590641656377201
  0.8333300649999984  0.8333299609999969  0.5409558133622809
  0.7500000129999975  0.7500000049999969  0.4590641656377201
 
  0.00000000E+00  0.00000000E+00  0.00000000E+00
  0.00000000E+00  0.00000000E+00  0.00000000E+00
  0.00000000E+00  0.00000000E+00  0.00000000E+00
  0.00000000E+00  0.00000000E+00  0.00000000E+00
  0.00000000E+00  0.00000000E+00  0.00000000E+00
  0.00000000E+00  0.00000000E+00  0.00000000E+00
  0.00000000E+00  0.00000000E+00  0.00000000E+00
  0.00000000E+00  0.00000000E+00  0.00000000E+00
  0.00000000E+00  0.00000000E+00  0.00000000E+00
  0.00000000E+00  0.00000000E+00  0.00000000E+00
  0.00000000E+00  0.00000000E+00  0.00000000E+00
  0.00000000E+00  0.00000000E+00  0.00000000E+00
  0.00000000E+00  0.00000000E+00  0.00000000E+00
  0.00000000E+00  0.00000000E+00  0.00000000E+00
  0.00000000E+00  0.00000000E+00  0.00000000E+00
  0.00000000E+00  0.00000000E+00  0.00000000E+00
  0.00000000E+00  0.00000000E+00  0.00000000E+00
  0.00000000E+00  0.00000000E+00  0.00000000E+00
  0.00000000E+00  0.00000000E+00  0.00000000E+00
  0.00000000E+00  0.00000000E+00  0.00000000E+00
  0.00000000E+00  0.00000000E+00  0.00000000E+00
  0.00000000E+00  0.00000000E+00  0.00000000E+00
  0.00000000E+00  0.00000000E+00  0.00000000E+00
  0.00000000E+00  0.00000000E+00  0.00000000E+00
  0.00000000E+00  0.00000000E+00  0.00000000E+00
  0.00000000E+00  0.00000000E+00  0.00000000E+00
  0.00000000E+00  0.00000000E+00  0.00000000E+00
  0.00000000E+00  0.00000000E+00  0.00000000E+00
  0.00000000E+00  0.00000000E+00  0.00000000E+00
  0.00000000E+00  0.00000000E+00  0.00000000E+00
  0.00000000E+00  0.00000000E+00  0.00000000E+00
  0.00000000E+00  0.00000000E+00  0.00000000E+00
  0.00000000E+00  0.00000000E+00  0.00000000E+00
  0.00000000E+00  0.00000000E+00  0.00000000E+00
  0.00000000E+00  0.00000000E+00  0.00000000E+00
  0.00000000E+00  0.00000000E+00  0.00000000E+00
  0.00000000E+00  0.00000000E+00  0.00000000E+00
  0.00000000E+00  0.00000000E+00  0.00000000E+00
  0.00000000E+00  0.00000000E+00  0.00000000E+00
  0.00000000E+00  0.00000000E+00  0.00000000E+00
  0.00000000E+00  0.00000000E+00  0.00000000E+00
  0.00000000E+00  0.00000000E+00  0.00000000E+00
  0.00000000E+00  0.00000000E+00  0.00000000E+00
  0.00000000E+00  0.00000000E+00  0.00000000E+00
  0.00000000E+00  0.00000000E+00  0.00000000E+00
  0.00000000E+00  0.00000000E+00  0.00000000E+00
  0.00000000E+00  0.00000000E+00  0.00000000E+00
  0.00000000E+00  0.00000000E+00  0.00000000E+00
  0.00000000E+00  0.00000000E+00  0.00000000E+00
  0.00000000E+00  0.00000000E+00  0.00000000E+00
  0.00000000E+00  0.00000000E+00  0.00000000E+00
  0.00000000E+00  0.00000000E+00  0.00000000E+00
  0.00000000E+00  0.00000000E+00  0.00000000E+00
  0.00000000E+00  0.00000000E+00  0.00000000E+00
  0.00000000E+00  0.00000000E+00  0.00000000E+00
  0.00000000E+00  0.00000000E+00  0.00000000E+00
  0.00000000E+00  0.00000000E+00  0.00000000E+00
  0.00000000E+00  0.00000000E+00  0.00000000E+00
  0.00000000E+00  0.00000000E+00  0.00000000E+00
  0.00000000E+00  0.00000000E+00  0.00000000E+00
  0.00000000E+00  0.00000000E+00  0.00000000E+00
  0.00000000E+00  0.00000000E+00  0.00000000E+00
  0.00000000E+00  0.00000000E+00  0.00000000E+00
  0.00000000E+00  0.00000000E+00  0.00000000E+00
