CONTCAR\(5)                             
   1.00000000000000     
    11.4826002120999995    0.0000000000000000    0.0000000000000000
     0.0000000000000000   22.3225002289000010    0.0000000000000000
     0.0000000000000000    0.0000000000000000   23.4783000946000016
   Y    C    I    O 
    42    18    36     7
Direct
  0.1665871268552055  0.9730317275936308  0.4328142397629850
  0.0001181078429671  0.6655350914488328  0.3964481015301051
  0.1666341976853000  0.7517173962355234  0.4867058812098972
  0.9994638374409959  0.6083400340487620  0.5267615075926501
  0.0044823014267636  0.1640672147350480  0.6096023119031567
  0.1666860368511715  0.2503089880387866  0.5172924163654047
  0.1666413976042349  0.4739639173635334  0.5665385072759582
  0.9996386731242617  0.8940576226368121  0.5272773332228152
  0.9997204126133926  0.1089337427707507  0.4757132398363936
  0.0000884532130755  0.8376315811609508  0.3966151628027054
  0.1667060123735427  0.5296101531536852  0.4316453051346849
  0.1667703410383991  0.0280140444246636  0.5685523360045638
  0.0155652748006096  0.3364822223254827  0.6122186503840240
  0.0010498448205119  0.3921713335073007  0.4744173495688502
  0.4999467868380943  0.9731075716712075  0.4326406661546397
  0.3331231360535230  0.6654879899153611  0.3963873058609226
  0.5000387385002089  0.7515861209827162  0.4864108139407115
  0.3337411726997465  0.6083875943831222  0.5267785506509407
  0.3288232744102429  0.1641025720547655  0.6096140297148963
  0.4983464316780369  0.2521108684828921  0.5178479781044674
  0.5001641130393383  0.4719902845679985  0.5671091480131408
  0.3333856687504382  0.8940261302922434  0.5272464211869958
  0.3335934315480893  0.1089498109359936  0.4756270639727265
  0.3330960960466727  0.8375947028860199  0.3965842734398133
  0.4998305926504173  0.5295700277682495  0.4317671584941473
  0.5004632927889351  0.0291782770655113  0.5686278091867306
  0.3179920769721741  0.3365651589530109  0.6122177141171961
  0.3324779286386277  0.3921514435878927  0.4744385218772287
  0.8333330688361471  0.9731132814441419  0.4326920521782961
  0.6666925347161188  0.6654677724821044  0.3963264194469546
  0.8331952272899137  0.7516110501686777  0.4865917630265261
  0.6666172564504688  0.6080346619021505  0.5267623574919902
  0.6667186666138948  0.1646885536791604  0.6059910397056675
  0.8351222807354419  0.2521357606003394  0.5177236172217534
  0.8332291552553713  0.4719872062741623  0.5671500126155735
  0.6665249775627961  0.8943095471167662  0.5271113784217245
  0.6668048057467483  0.1092747217776771  0.4749739441205532
  0.6667008600120115  0.8376043500578406  0.3964431696195766
  0.8334233101118821  0.5295209128128614  0.4317807499003763
  0.8328497678583212  0.0291315817047979  0.5686961166690162
  0.6667977369250175  0.3389133435236076  0.6032673086252200
  0.6667098943448305  0.3923162234061484  0.4719422945129515
  0.1667815526624825  0.1366565440018040  0.5437722518955009
  0.1666176322075939  0.6376047129552918  0.4582904719490601
  0.9996254257717230  0.0007796753491709  0.5001274831881614
  0.1666369573421863  0.8645268771970602  0.4588908426323551
  0.9989086050187528  0.5023874793996671  0.4991425727967843
  0.1667980569929469  0.3702311340413345  0.5352626380508811
  0.5017459732444017  0.1364034388531247  0.5434421337108618
  0.4999221535315617  0.6378647454190221  0.4582483984321759
  0.3335595493208970  0.0007629351115544  0.5000718109416803
  0.4998693447359582  0.8645822636170506  0.4586088627507951
  0.3343142323173409  0.5024445546170051  0.4991465006050243
  0.5071510537093324  0.3665405410739421  0.5390148353579493
  0.8315967737826077  0.1363440036686510  0.5434249327387168
  0.8333896654060923  0.6378270748038826  0.4582849489598810
  0.6666324031849886  0.0004121655091933  0.4997796916353460
  0.8332755503936239  0.8646274387203803  0.4587001874528024
  0.6666636769596143  0.5027861422131790  0.4986660152817318
  0.8263718584066028  0.3665666299663536  0.5389636848097935
  0.1661768995440954  0.1859241237692971  0.7129857524361324
  0.0000104344423428  0.2510449329907188  0.4145085414917349
  0.9965858257003155  0.0445247321025440  0.6727064467241030
  0.1662976646398514  0.9009807378672541  0.6294698370187826
  0.1671343307730245  0.4049885163412545  0.3699636507882029
 -0.0000035574391095  0.9480911885705977  0.3240608295874569
  0.9987125727834754  0.4542546081081831  0.6744724345372040
  0.1665135937480290  0.0978352628355951  0.3722310912422852
  0.0002156316239661  0.5553813535703696  0.3233128593700100
  0.9995897516338380  0.7505428488867918  0.5883963614805094
  0.1664038447702984  0.6000597773931046  0.6290538701487493
  0.1665959689936426  0.7519134683760216  0.3143305854189387
  0.4954363878885575  0.2526876292336174  0.6875832846214198
  0.3333984903045477  0.2514208831387783  0.4146634220555664
  0.3373972363513173  0.0447142521225638  0.6727835767156111
  0.5013351162193803  0.9018518120770864  0.6293597505768730
  0.4991205664240258  0.4053611003259752  0.3690220398986268
  0.3333302526509495  0.9480048424303932  0.3239221279678313
  0.3346929892793092  0.4545413137923705  0.6742673386176002
  0.4997865603708581  0.0982488347997474  0.3718039023443066
  0.3331351973699481  0.5556512631858579  0.3230739547694411
  0.3339057331525486  0.7508664340410963  0.5882878234288368
  0.5009265143451060  0.5986082575766912  0.6291447454804225
  0.4999324315229377  0.7509496039781471  0.3142521330559502
  0.8374433173376113  0.2526746689287905  0.6875712573760350
  0.6666218588548406  0.2510352948634013  0.4148081031267266
  0.6665502691862977  0.0530235022362334  0.6773915646878940
  0.8312995940663903  0.9018208237985426  0.6294541669639308
  0.8347446465815954  0.4051577619020647  0.3691451683103371
  0.6667308644033545  0.9481129248548619  0.3238130607945581
  0.6664725005838309  0.4490846085996782  0.6760646743724714
  0.8341342454476131  0.0981018277008149  0.3717908919618268
  0.6666667855556325  0.5556037578173596  0.3230819219253933
  0.6661671848785955  0.7502859817508363  0.5881270393647184
  0.8322581536302268  0.5988293060377169  0.6291776532385086
  0.8333692085075111  0.7519090826810172  0.3143451180979871
 -0.0000023603706474  0.7514474181733505  0.4396162747654543
  0.0016745055205654  0.2503827427424172  0.5643147596749013
  0.3331170506512661  0.7513987912501480  0.4395393330377522
  0.3316599006137545  0.2504184424516934  0.5643698488156171
  0.6667783930351655  0.7514439443549169  0.4394139803383852
  0.6668555332327675  0.2509382814127580  0.5635432557198760
  0.1668137044377609  0.3121520014705084  0.6499245835966092
 
  0.00000000E+00  0.00000000E+00  0.00000000E+00
  0.00000000E+00  0.00000000E+00  0.00000000E+00
  0.00000000E+00  0.00000000E+00  0.00000000E+00
  0.00000000E+00  0.00000000E+00  0.00000000E+00
  0.00000000E+00  0.00000000E+00  0.00000000E+00
  0.00000000E+00  0.00000000E+00  0.00000000E+00
  0.00000000E+00  0.00000000E+00  0.00000000E+00
  0.00000000E+00  0.00000000E+00  0.00000000E+00
  0.00000000E+00  0.00000000E+00  0.00000000E+00
  0.00000000E+00  0.00000000E+00  0.00000000E+00
  0.00000000E+00  0.00000000E+00  0.00000000E+00
  0.00000000E+00  0.00000000E+00  0.00000000E+00
  0.00000000E+00  0.00000000E+00  0.00000000E+00
  0.00000000E+00  0.00000000E+00  0.00000000E+00
  0.00000000E+00  0.00000000E+00  0.00000000E+00
  0.00000000E+00  0.00000000E+00  0.00000000E+00
  0.00000000E+00  0.00000000E+00  0.00000000E+00
  0.00000000E+00  0.00000000E+00  0.00000000E+00
  0.00000000E+00  0.00000000E+00  0.00000000E+00
  0.00000000E+00  0.00000000E+00  0.00000000E+00
  0.00000000E+00  0.00000000E+00  0.00000000E+00
  0.00000000E+00  0.00000000E+00  0.00000000E+00
  0.00000000E+00  0.00000000E+00  0.00000000E+00
  0.00000000E+00  0.00000000E+00  0.00000000E+00
  0.00000000E+00  0.00000000E+00  0.00000000E+00
  0.00000000E+00  0.00000000E+00  0.00000000E+00
  0.00000000E+00  0.00000000E+00  0.00000000E+00
  0.00000000E+00  0.00000000E+00  0.00000000E+00
  0.00000000E+00  0.00000000E+00  0.00000000E+00
  0.00000000E+00  0.00000000E+00  0.00000000E+00
  0.00000000E+00  0.00000000E+00  0.00000000E+00
  0.00000000E+00  0.00000000E+00  0.00000000E+00
  0.00000000E+00  0.00000000E+00  0.00000000E+00
  0.00000000E+00  0.00000000E+00  0.00000000E+00
  0.00000000E+00  0.00000000E+00  0.00000000E+00
  0.00000000E+00  0.00000000E+00  0.00000000E+00
  0.00000000E+00  0.00000000E+00  0.00000000E+00
  0.00000000E+00  0.00000000E+00  0.00000000E+00
  0.00000000E+00  0.00000000E+00  0.00000000E+00
  0.00000000E+00  0.00000000E+00  0.00000000E+00
  0.00000000E+00  0.00000000E+00  0.00000000E+00
  0.00000000E+00  0.00000000E+00  0.00000000E+00
  0.00000000E+00  0.00000000E+00  0.00000000E+00
  0.00000000E+00  0.00000000E+00  0.00000000E+00
  0.00000000E+00  0.00000000E+00  0.00000000E+00
  0.00000000E+00  0.00000000E+00  0.00000000E+00
  0.00000000E+00  0.00000000E+00  0.00000000E+00
  0.00000000E+00  0.00000000E+00  0.00000000E+00
  0.00000000E+00  0.00000000E+00  0.00000000E+00
  0.00000000E+00  0.00000000E+00  0.00000000E+00
  0.00000000E+00  0.00000000E+00  0.00000000E+00
  0.00000000E+00  0.00000000E+00  0.00000000E+00
  0.00000000E+00  0.00000000E+00  0.00000000E+00
  0.00000000E+00  0.00000000E+00  0.00000000E+00
  0.00000000E+00  0.00000000E+00  0.00000000E+00
  0.00000000E+00  0.00000000E+00  0.00000000E+00
  0.00000000E+00  0.00000000E+00  0.00000000E+00
  0.00000000E+00  0.00000000E+00  0.00000000E+00
  0.00000000E+00  0.00000000E+00  0.00000000E+00
  0.00000000E+00  0.00000000E+00  0.00000000E+00
  0.00000000E+00  0.00000000E+00  0.00000000E+00
  0.00000000E+00  0.00000000E+00  0.00000000E+00
  0.00000000E+00  0.00000000E+00  0.00000000E+00
  0.00000000E+00  0.00000000E+00  0.00000000E+00
  0.00000000E+00  0.00000000E+00  0.00000000E+00
  0.00000000E+00  0.00000000E+00  0.00000000E+00
  0.00000000E+00  0.00000000E+00  0.00000000E+00
  0.00000000E+00  0.00000000E+00  0.00000000E+00
  0.00000000E+00  0.00000000E+00  0.00000000E+00
  0.00000000E+00  0.00000000E+00  0.00000000E+00
  0.00000000E+00  0.00000000E+00  0.00000000E+00
  0.00000000E+00  0.00000000E+00  0.00000000E+00
  0.00000000E+00  0.00000000E+00  0.00000000E+00
  0.00000000E+00  0.00000000E+00  0.00000000E+00
  0.00000000E+00  0.00000000E+00  0.00000000E+00
  0.00000000E+00  0.00000000E+00  0.00000000E+00
  0.00000000E+00  0.00000000E+00  0.00000000E+00
  0.00000000E+00  0.00000000E+00  0.00000000E+00
  0.00000000E+00  0.00000000E+00  0.00000000E+00
  0.00000000E+00  0.00000000E+00  0.00000000E+00
  0.00000000E+00  0.00000000E+00  0.00000000E+00
  0.00000000E+00  0.00000000E+00  0.00000000E+00
  0.00000000E+00  0.00000000E+00  0.00000000E+00
  0.00000000E+00  0.00000000E+00  0.00000000E+00
  0.00000000E+00  0.00000000E+00  0.00000000E+00
  0.00000000E+00  0.00000000E+00  0.00000000E+00
  0.00000000E+00  0.00000000E+00  0.00000000E+00
  0.00000000E+00  0.00000000E+00  0.00000000E+00
  0.00000000E+00  0.00000000E+00  0.00000000E+00
  0.00000000E+00  0.00000000E+00  0.00000000E+00
  0.00000000E+00  0.00000000E+00  0.00000000E+00
  0.00000000E+00  0.00000000E+00  0.00000000E+00
  0.00000000E+00  0.00000000E+00  0.00000000E+00
  0.00000000E+00  0.00000000E+00  0.00000000E+00
  0.00000000E+00  0.00000000E+00  0.00000000E+00
  0.00000000E+00  0.00000000E+00  0.00000000E+00
  0.00000000E+00  0.00000000E+00  0.00000000E+00
  0.00000000E+00  0.00000000E+00  0.00000000E+00
  0.00000000E+00  0.00000000E+00  0.00000000E+00
  0.00000000E+00  0.00000000E+00  0.00000000E+00
  0.00000000E+00  0.00000000E+00  0.00000000E+00
  0.00000000E+00  0.00000000E+00  0.00000000E+00
  0.00000000E+00  0.00000000E+00  0.00000000E+00
