CONTCAR\(4)                             
   1.00000000000000     
    13.6164999007999992    0.0000000000000000    0.0000000000000000
     0.0000000000000000   12.7049999237000009    0.0000000000000000
     0.0000000000000000    0.0000000000000000   19.1487998961999999
   Te   Mo   O    H 
    32    16     1     1
Direct
  0.1890011300870385  0.2142613916378475  0.4258204978492697
  0.0623244629083258  0.2832710796749613  0.5819709140590226
  0.0638323119162492  0.4601173613187650  0.3953759839688257
  0.1845331368027079  0.0366968769456604  0.6113859858177052
  0.4384909335560009  0.2144544016429570  0.4256776966408292
  0.3138119168208895  0.2819413262332680  0.5818731839745470
  0.3137659619540029  0.4592933581588997  0.3956738420832524
  0.4428674699005089  0.0361151706468154  0.6115084154908133
  0.6890837537959229  0.2175268538674392  0.4225206055814187
  0.5648324855887696  0.2832007629259745  0.5820667162730888
  0.5632933326765747  0.4603700634268528  0.3953577267820606
  0.6905823760221731  0.0386760464478868  0.6103721282656637
  0.9380265192946131  0.2175001609937007  0.4224653700187311
  0.8135004774701511  0.2827963184457424  0.5807122610810899
  0.8134913731282134  0.4619485201173064  0.3948969967762718
  0.9363961687659725  0.0386994284870578  0.6103594868536917
  0.1837319052713023  0.7150001774689378  0.4246448796670375
  0.0580573865025800  0.7833171502161809  0.5840314743051429
  0.0582499156629982  0.9665416913243962  0.3914844721499147
  0.1880430791021986  0.5382644069668598  0.6114233211359253
  0.4437710222209996  0.7148168792524293  0.4244588936065233
  0.3138919971122186  0.7897314685320169  0.5603716253738390
  0.3138007595143155  0.9565909443895548  0.4017624375891227
  0.4389214784782792  0.5382856416206734  0.6115575565800574
  0.6896887732619994  0.7150036042597683  0.4242474359906576
  0.5690897894949678  0.7836178875629980  0.5844827532382432
  0.5687824844694968  0.9664634167102115  0.3915170384342627
  0.6894478537039167  0.5366756933750698  0.6123119058268714
  0.9373364727004437  0.7149329029592429  0.4241567760093166
  0.8132264234925221  0.7843642794313364  0.5823176081095431
  0.8135198003115259  0.9617588336798040  0.3925217041538066
  0.9374944417298993  0.5365004625403138  0.6122743958535376
  0.1881075481432890  0.4073015822226183  0.4993321543126409
  0.0600643140902275  0.0922013568898817  0.5067064288466271
  0.4392969088004308  0.4074612190743707  0.4993499327500034
  0.3139090758603507  0.0872856725361709  0.5102714350924655
  0.6890265099036574  0.4085375424131174  0.4985553862481167
  0.5669494102998419  0.0921190909050458  0.5067256304067126
  0.9380421368506201  0.4084340918685733  0.4985268725050193
  0.8135666337009403  0.0915376931267526  0.5054672127208061
  0.1696959416949504  0.9089836342047373  0.4986269911842944
  0.0613474131455835  0.5896468220159753  0.5084315329327299
  0.4575852024397451  0.9085425478263032  0.4988201367636761
  0.3137756869265524  0.5891173473868986  0.5074093995697051
  0.6914653539888689  0.9081158958009914  0.4972115655602965
  0.5655653781142691  0.5897978834363032  0.5085986165178493
  0.9355757188309746  0.9080716078808748  0.4972929738627200
  0.8135268155654150  0.5908877444633730  0.5081369614322894
  0.3217935999571261  0.8076585121390897  0.6655125471321409
  0.2570986359694142  0.7898250505479861  0.6845319716218561
 
  0.00000000E+00  0.00000000E+00  0.00000000E+00
  0.00000000E+00  0.00000000E+00  0.00000000E+00
  0.00000000E+00  0.00000000E+00  0.00000000E+00
  0.00000000E+00  0.00000000E+00  0.00000000E+00
  0.00000000E+00  0.00000000E+00  0.00000000E+00
  0.00000000E+00  0.00000000E+00  0.00000000E+00
  0.00000000E+00  0.00000000E+00  0.00000000E+00
  0.00000000E+00  0.00000000E+00  0.00000000E+00
  0.00000000E+00  0.00000000E+00  0.00000000E+00
  0.00000000E+00  0.00000000E+00  0.00000000E+00
  0.00000000E+00  0.00000000E+00  0.00000000E+00
  0.00000000E+00  0.00000000E+00  0.00000000E+00
  0.00000000E+00  0.00000000E+00  0.00000000E+00
  0.00000000E+00  0.00000000E+00  0.00000000E+00
  0.00000000E+00  0.00000000E+00  0.00000000E+00
  0.00000000E+00  0.00000000E+00  0.00000000E+00
  0.00000000E+00  0.00000000E+00  0.00000000E+00
  0.00000000E+00  0.00000000E+00  0.00000000E+00
  0.00000000E+00  0.00000000E+00  0.00000000E+00
  0.00000000E+00  0.00000000E+00  0.00000000E+00
  0.00000000E+00  0.00000000E+00  0.00000000E+00
  0.00000000E+00  0.00000000E+00  0.00000000E+00
  0.00000000E+00  0.00000000E+00  0.00000000E+00
  0.00000000E+00  0.00000000E+00  0.00000000E+00
  0.00000000E+00  0.00000000E+00  0.00000000E+00
  0.00000000E+00  0.00000000E+00  0.00000000E+00
  0.00000000E+00  0.00000000E+00  0.00000000E+00
  0.00000000E+00  0.00000000E+00  0.00000000E+00
  0.00000000E+00  0.00000000E+00  0.00000000E+00
  0.00000000E+00  0.00000000E+00  0.00000000E+00
  0.00000000E+00  0.00000000E+00  0.00000000E+00
  0.00000000E+00  0.00000000E+00  0.00000000E+00
  0.00000000E+00  0.00000000E+00  0.00000000E+00
  0.00000000E+00  0.00000000E+00  0.00000000E+00
  0.00000000E+00  0.00000000E+00  0.00000000E+00
  0.00000000E+00  0.00000000E+00  0.00000000E+00
  0.00000000E+00  0.00000000E+00  0.00000000E+00
  0.00000000E+00  0.00000000E+00  0.00000000E+00
  0.00000000E+00  0.00000000E+00  0.00000000E+00
  0.00000000E+00  0.00000000E+00  0.00000000E+00
  0.00000000E+00  0.00000000E+00  0.00000000E+00
  0.00000000E+00  0.00000000E+00  0.00000000E+00
  0.00000000E+00  0.00000000E+00  0.00000000E+00
  0.00000000E+00  0.00000000E+00  0.00000000E+00
  0.00000000E+00  0.00000000E+00  0.00000000E+00
  0.00000000E+00  0.00000000E+00  0.00000000E+00
  0.00000000E+00  0.00000000E+00  0.00000000E+00
  0.00000000E+00  0.00000000E+00  0.00000000E+00
  0.00000000E+00  0.00000000E+00  0.00000000E+00
  0.00000000E+00  0.00000000E+00  0.00000000E+00
