G   53   37    1    0.005     # Parameters to Generate KPOINTS (Don't Edit This Line)
     513
Reciprocal lattice
    0.000000000000    0.000000000000    0.000000000000       1
    0.018867924528    0.000000000000    0.000000000000       2
    0.037735849057    0.000000000000    0.000000000000       2
    0.056603773585    0.000000000000    0.000000000000       2
    0.075471698113    0.000000000000    0.000000000000       2
    0.094339622642    0.000000000000    0.000000000000       2
    0.113207547170    0.000000000000    0.000000000000       2
    0.132075471698    0.000000000000    0.000000000000       2
    0.150943396226    0.000000000000    0.000000000000       2
    0.169811320755    0.000000000000    0.000000000000       2
    0.188679245283    0.000000000000    0.000000000000       2
    0.207547169811    0.000000000000    0.000000000000       2
    0.226415094340    0.000000000000    0.000000000000       2
    0.245283018868    0.000000000000    0.000000000000       2
    0.264150943396    0.000000000000    0.000000000000       2
    0.283018867925    0.000000000000    0.000000000000       2
    0.301886792453    0.000000000000    0.000000000000       2
    0.320754716981    0.000000000000    0.000000000000       2
    0.339622641509    0.000000000000    0.000000000000       2
    0.358490566038    0.000000000000    0.000000000000       2
    0.377358490566    0.000000000000    0.000000000000       2
    0.396226415094    0.000000000000    0.000000000000       2
    0.415094339623    0.000000000000    0.000000000000       2
    0.433962264151    0.000000000000    0.000000000000       2
    0.452830188679    0.000000000000    0.000000000000       2
    0.471698113208    0.000000000000    0.000000000000       2
    0.490566037736    0.000000000000    0.000000000000       2
    0.000000000000    0.027027027027    0.000000000000       2
    0.018867924528    0.027027027027    0.000000000000       4
    0.037735849057    0.027027027027    0.000000000000       4
    0.056603773585    0.027027027027    0.000000000000       4
    0.075471698113    0.027027027027    0.000000000000       4
    0.094339622642    0.027027027027    0.000000000000       4
    0.113207547170    0.027027027027    0.000000000000       4
    0.132075471698    0.027027027027    0.000000000000       4
    0.150943396226    0.027027027027    0.000000000000       4
    0.169811320755    0.027027027027    0.000000000000       4
    0.188679245283    0.027027027027    0.000000000000       4
    0.207547169811    0.027027027027    0.000000000000       4
    0.226415094340    0.027027027027    0.000000000000       4
    0.245283018868    0.027027027027    0.000000000000       4
    0.264150943396    0.027027027027    0.000000000000       4
    0.283018867925    0.027027027027    0.000000000000       4
    0.301886792453    0.027027027027    0.000000000000       4
    0.320754716981    0.027027027027    0.000000000000       4
    0.339622641509    0.027027027027    0.000000000000       4
    0.358490566038    0.027027027027    0.000000000000       4
    0.377358490566    0.027027027027    0.000000000000       4
    0.396226415094    0.027027027027    0.000000000000       4
    0.415094339623    0.027027027027    0.000000000000       4
    0.433962264151    0.027027027027    0.000000000000       4
    0.452830188679    0.027027027027    0.000000000000       4
    0.471698113208    0.027027027027    0.000000000000       4
    0.490566037736    0.027027027027    0.000000000000       4
    0.000000000000    0.054054054054    0.000000000000       2
    0.018867924528    0.054054054054    0.000000000000       4
    0.037735849057    0.054054054054    0.000000000000       4
    0.056603773585    0.054054054054    0.000000000000       4
    0.075471698113    0.054054054054    0.000000000000       4
    0.094339622642    0.054054054054    0.000000000000       4
    0.113207547170    0.054054054054    0.000000000000       4
    0.132075471698    0.054054054054    0.000000000000       4
    0.150943396226    0.054054054054    0.000000000000       4
    0.169811320755    0.054054054054    0.000000000000       4
    0.188679245283    0.054054054054    0.000000000000       4
    0.207547169811    0.054054054054    0.000000000000       4
    0.226415094340    0.054054054054    0.000000000000       4
    0.245283018868    0.054054054054    0.000000000000       4
    0.264150943396    0.054054054054    0.000000000000       4
    0.283018867925    0.054054054054    0.000000000000       4
    0.301886792453    0.054054054054    0.000000000000       4
    0.320754716981    0.054054054054    0.000000000000       4
    0.339622641509    0.054054054054    0.000000000000       4
    0.358490566038    0.054054054054    0.000000000000       4
    0.377358490566    0.054054054054    0.000000000000       4
    0.396226415094    0.054054054054    0.000000000000       4
    0.415094339623    0.054054054054    0.000000000000       4
    0.433962264151    0.054054054054    0.000000000000       4
    0.452830188679    0.054054054054    0.000000000000       4
    0.471698113208    0.054054054054    0.000000000000       4
    0.490566037736    0.054054054054    0.000000000000       4
    0.000000000000    0.081081081081    0.000000000000       2
    0.018867924528    0.081081081081    0.000000000000       4
    0.037735849057    0.081081081081    0.000000000000       4
    0.056603773585    0.081081081081    0.000000000000       4
    0.075471698113    0.081081081081    0.000000000000       4
    0.094339622642    0.081081081081    0.000000000000       4
    0.113207547170    0.081081081081    0.000000000000       4
    0.132075471698    0.081081081081    0.000000000000       4
    0.150943396226    0.081081081081    0.000000000000       4
    0.169811320755    0.081081081081    0.000000000000       4
    0.188679245283    0.081081081081    0.000000000000       4
    0.207547169811    0.081081081081    0.000000000000       4
    0.226415094340    0.081081081081    0.000000000000       4
    0.245283018868    0.081081081081    0.000000000000       4
    0.264150943396    0.081081081081    0.000000000000       4
    0.283018867925    0.081081081081    0.000000000000       4
    0.301886792453    0.081081081081    0.000000000000       4
    0.320754716981    0.081081081081    0.000000000000       4
    0.339622641509    0.081081081081    0.000000000000       4
    0.358490566038    0.081081081081    0.000000000000       4
    0.377358490566    0.081081081081    0.000000000000       4
    0.396226415094    0.081081081081    0.000000000000       4
    0.415094339623    0.081081081081    0.000000000000       4
    0.433962264151    0.081081081081    0.000000000000       4
    0.452830188679    0.081081081081    0.000000000000       4
    0.471698113208    0.081081081081    0.000000000000       4
    0.490566037736    0.081081081081    0.000000000000       4
    0.000000000000    0.108108108108    0.000000000000       2
    0.018867924528    0.108108108108    0.000000000000       4
    0.037735849057    0.108108108108    0.000000000000       4
    0.056603773585    0.108108108108    0.000000000000       4
    0.075471698113    0.108108108108    0.000000000000       4
    0.094339622642    0.108108108108    0.000000000000       4
    0.113207547170    0.108108108108    0.000000000000       4
    0.132075471698    0.108108108108    0.000000000000       4
    0.150943396226    0.108108108108    0.000000000000       4
    0.169811320755    0.108108108108    0.000000000000       4
    0.188679245283    0.108108108108    0.000000000000       4
    0.207547169811    0.108108108108    0.000000000000       4
    0.226415094340    0.108108108108    0.000000000000       4
    0.245283018868    0.108108108108    0.000000000000       4
    0.264150943396    0.108108108108    0.000000000000       4
    0.283018867925    0.108108108108    0.000000000000       4
    0.301886792453    0.108108108108    0.000000000000       4
    0.320754716981    0.108108108108    0.000000000000       4
    0.339622641509    0.108108108108    0.000000000000       4
    0.358490566038    0.108108108108    0.000000000000       4
    0.377358490566    0.108108108108    0.000000000000       4
    0.396226415094    0.108108108108    0.000000000000       4
    0.415094339623    0.108108108108    0.000000000000       4
    0.433962264151    0.108108108108    0.000000000000       4
    0.452830188679    0.108108108108    0.000000000000       4
    0.471698113208    0.108108108108    0.000000000000       4
    0.490566037736    0.108108108108    0.000000000000       4
    0.000000000000    0.135135135135    0.000000000000       2
    0.018867924528    0.135135135135    0.000000000000       4
    0.037735849057    0.135135135135    0.000000000000       4
    0.056603773585    0.135135135135    0.000000000000       4
    0.075471698113    0.135135135135    0.000000000000       4
    0.094339622642    0.135135135135    0.000000000000       4
    0.113207547170    0.135135135135    0.000000000000       4
    0.132075471698    0.135135135135    0.000000000000       4
    0.150943396226    0.135135135135    0.000000000000       4
    0.169811320755    0.135135135135    0.000000000000       4
    0.188679245283    0.135135135135    0.000000000000       4
    0.207547169811    0.135135135135    0.000000000000       4
    0.226415094340    0.135135135135    0.000000000000       4
    0.245283018868    0.135135135135    0.000000000000       4
    0.264150943396    0.135135135135    0.000000000000       4
    0.283018867925    0.135135135135    0.000000000000       4
    0.301886792453    0.135135135135    0.000000000000       4
    0.320754716981    0.135135135135    0.000000000000       4
    0.339622641509    0.135135135135    0.000000000000       4
    0.358490566038    0.135135135135    0.000000000000       4
    0.377358490566    0.135135135135    0.000000000000       4
    0.396226415094    0.135135135135    0.000000000000       4
    0.415094339623    0.135135135135    0.000000000000       4
    0.433962264151    0.135135135135    0.000000000000       4
    0.452830188679    0.135135135135    0.000000000000       4
    0.471698113208    0.135135135135    0.000000000000       4
    0.490566037736    0.135135135135    0.000000000000       4
    0.000000000000    0.162162162162    0.000000000000       2
    0.018867924528    0.162162162162    0.000000000000       4
    0.037735849057    0.162162162162    0.000000000000       4
    0.056603773585    0.162162162162    0.000000000000       4
    0.075471698113    0.162162162162    0.000000000000       4
    0.094339622642    0.162162162162    0.000000000000       4
    0.113207547170    0.162162162162    0.000000000000       4
    0.132075471698    0.162162162162    0.000000000000       4
    0.150943396226    0.162162162162    0.000000000000       4
    0.169811320755    0.162162162162    0.000000000000       4
    0.188679245283    0.162162162162    0.000000000000       4
    0.207547169811    0.162162162162    0.000000000000       4
    0.226415094340    0.162162162162    0.000000000000       4
    0.245283018868    0.162162162162    0.000000000000       4
    0.264150943396    0.162162162162    0.000000000000       4
    0.283018867925    0.162162162162    0.000000000000       4
    0.301886792453    0.162162162162    0.000000000000       4
    0.320754716981    0.162162162162    0.000000000000       4
    0.339622641509    0.162162162162    0.000000000000       4
    0.358490566038    0.162162162162    0.000000000000       4
    0.377358490566    0.162162162162    0.000000000000       4
    0.396226415094    0.162162162162    0.000000000000       4
    0.415094339623    0.162162162162    0.000000000000       4
    0.433962264151    0.162162162162    0.000000000000       4
    0.452830188679    0.162162162162    0.000000000000       4
    0.471698113208    0.162162162162    0.000000000000       4
    0.490566037736    0.162162162162    0.000000000000       4
    0.000000000000    0.189189189189    0.000000000000       2
    0.018867924528    0.189189189189    0.000000000000       4
    0.037735849057    0.189189189189    0.000000000000       4
    0.056603773585    0.189189189189    0.000000000000       4
    0.075471698113    0.189189189189    0.000000000000       4
    0.094339622642    0.189189189189    0.000000000000       4
    0.113207547170    0.189189189189    0.000000000000       4
    0.132075471698    0.189189189189    0.000000000000       4
    0.150943396226    0.189189189189    0.000000000000       4
    0.169811320755    0.189189189189    0.000000000000       4
    0.188679245283    0.189189189189    0.000000000000       4
    0.207547169811    0.189189189189    0.000000000000       4
    0.226415094340    0.189189189189    0.000000000000       4
    0.245283018868    0.189189189189    0.000000000000       4
    0.264150943396    0.189189189189    0.000000000000       4
    0.283018867925    0.189189189189    0.000000000000       4
    0.301886792453    0.189189189189    0.000000000000       4
    0.320754716981    0.189189189189    0.000000000000       4
    0.339622641509    0.189189189189    0.000000000000       4
    0.358490566038    0.189189189189    0.000000000000       4
    0.377358490566    0.189189189189    0.000000000000       4
    0.396226415094    0.189189189189    0.000000000000       4
    0.415094339623    0.189189189189    0.000000000000       4
    0.433962264151    0.189189189189    0.000000000000       4
    0.452830188679    0.189189189189    0.000000000000       4
    0.471698113208    0.189189189189    0.000000000000       4
    0.490566037736    0.189189189189    0.000000000000       4
    0.000000000000    0.216216216216    0.000000000000       2
    0.018867924528    0.216216216216    0.000000000000       4
    0.037735849057    0.216216216216    0.000000000000       4
    0.056603773585    0.216216216216    0.000000000000       4
    0.075471698113    0.216216216216    0.000000000000       4
    0.094339622642    0.216216216216    0.000000000000       4
    0.113207547170    0.216216216216    0.000000000000       4
    0.132075471698    0.216216216216    0.000000000000       4
    0.150943396226    0.216216216216    0.000000000000       4
    0.169811320755    0.216216216216    0.000000000000       4
    0.188679245283    0.216216216216    0.000000000000       4
    0.207547169811    0.216216216216    0.000000000000       4
    0.226415094340    0.216216216216    0.000000000000       4
    0.245283018868    0.216216216216    0.000000000000       4
    0.264150943396    0.216216216216    0.000000000000       4
    0.283018867925    0.216216216216    0.000000000000       4
    0.301886792453    0.216216216216    0.000000000000       4
    0.320754716981    0.216216216216    0.000000000000       4
    0.339622641509    0.216216216216    0.000000000000       4
    0.358490566038    0.216216216216    0.000000000000       4
    0.377358490566    0.216216216216    0.000000000000       4
    0.396226415094    0.216216216216    0.000000000000       4
    0.415094339623    0.216216216216    0.000000000000       4
    0.433962264151    0.216216216216    0.000000000000       4
    0.452830188679    0.216216216216    0.000000000000       4
    0.471698113208    0.216216216216    0.000000000000       4
    0.490566037736    0.216216216216    0.000000000000       4
    0.000000000000    0.243243243243    0.000000000000       2
    0.018867924528    0.243243243243    0.000000000000       4
    0.037735849057    0.243243243243    0.000000000000       4
    0.056603773585    0.243243243243    0.000000000000       4
    0.075471698113    0.243243243243    0.000000000000       4
    0.094339622642    0.243243243243    0.000000000000       4
    0.113207547170    0.243243243243    0.000000000000       4
    0.132075471698    0.243243243243    0.000000000000       4
    0.150943396226    0.243243243243    0.000000000000       4
    0.169811320755    0.243243243243    0.000000000000       4
    0.188679245283    0.243243243243    0.000000000000       4
    0.207547169811    0.243243243243    0.000000000000       4
    0.226415094340    0.243243243243    0.000000000000       4
    0.245283018868    0.243243243243    0.000000000000       4
    0.264150943396    0.243243243243    0.000000000000       4
    0.283018867925    0.243243243243    0.000000000000       4
    0.301886792453    0.243243243243    0.000000000000       4
    0.320754716981    0.243243243243    0.000000000000       4
    0.339622641509    0.243243243243    0.000000000000       4
    0.358490566038    0.243243243243    0.000000000000       4
    0.377358490566    0.243243243243    0.000000000000       4
    0.396226415094    0.243243243243    0.000000000000       4
    0.415094339623    0.243243243243    0.000000000000       4
    0.433962264151    0.243243243243    0.000000000000       4
    0.452830188679    0.243243243243    0.000000000000       4
    0.471698113208    0.243243243243    0.000000000000       4
    0.490566037736    0.243243243243    0.000000000000       4
    0.000000000000    0.270270270270    0.000000000000       2
    0.018867924528    0.270270270270    0.000000000000       4
    0.037735849057    0.270270270270    0.000000000000       4
    0.056603773585    0.270270270270    0.000000000000       4
    0.075471698113    0.270270270270    0.000000000000       4
    0.094339622642    0.270270270270    0.000000000000       4
    0.113207547170    0.270270270270    0.000000000000       4
    0.132075471698    0.270270270270    0.000000000000       4
    0.150943396226    0.270270270270    0.000000000000       4
    0.169811320755    0.270270270270    0.000000000000       4
    0.188679245283    0.270270270270    0.000000000000       4
    0.207547169811    0.270270270270    0.000000000000       4
    0.226415094340    0.270270270270    0.000000000000       4
    0.245283018868    0.270270270270    0.000000000000       4
    0.264150943396    0.270270270270    0.000000000000       4
    0.283018867925    0.270270270270    0.000000000000       4
    0.301886792453    0.270270270270    0.000000000000       4
    0.320754716981    0.270270270270    0.000000000000       4
    0.339622641509    0.270270270270    0.000000000000       4
    0.358490566038    0.270270270270    0.000000000000       4
    0.377358490566    0.270270270270    0.000000000000       4
    0.396226415094    0.270270270270    0.000000000000       4
    0.415094339623    0.270270270270    0.000000000000       4
    0.433962264151    0.270270270270    0.000000000000       4
    0.452830188679    0.270270270270    0.000000000000       4
    0.471698113208    0.270270270270    0.000000000000       4
    0.490566037736    0.270270270270    0.000000000000       4
    0.000000000000    0.297297297297    0.000000000000       2
    0.018867924528    0.297297297297    0.000000000000       4
    0.037735849057    0.297297297297    0.000000000000       4
    0.056603773585    0.297297297297    0.000000000000       4
    0.075471698113    0.297297297297    0.000000000000       4
    0.094339622642    0.297297297297    0.000000000000       4
    0.113207547170    0.297297297297    0.000000000000       4
    0.132075471698    0.297297297297    0.000000000000       4
    0.150943396226    0.297297297297    0.000000000000       4
    0.169811320755    0.297297297297    0.000000000000       4
    0.188679245283    0.297297297297    0.000000000000       4
    0.207547169811    0.297297297297    0.000000000000       4
    0.226415094340    0.297297297297    0.000000000000       4
    0.245283018868    0.297297297297    0.000000000000       4
    0.264150943396    0.297297297297    0.000000000000       4
    0.283018867925    0.297297297297    0.000000000000       4
    0.301886792453    0.297297297297    0.000000000000       4
    0.320754716981    0.297297297297    0.000000000000       4
    0.339622641509    0.297297297297    0.000000000000       4
    0.358490566038    0.297297297297    0.000000000000       4
    0.377358490566    0.297297297297    0.000000000000       4
    0.396226415094    0.297297297297    0.000000000000       4
    0.415094339623    0.297297297297    0.000000000000       4
    0.433962264151    0.297297297297    0.000000000000       4
    0.452830188679    0.297297297297    0.000000000000       4
    0.471698113208    0.297297297297    0.000000000000       4
    0.490566037736    0.297297297297    0.000000000000       4
    0.000000000000    0.324324324324    0.000000000000       2
    0.018867924528    0.324324324324    0.000000000000       4
    0.037735849057    0.324324324324    0.000000000000       4
    0.056603773585    0.324324324324    0.000000000000       4
    0.075471698113    0.324324324324    0.000000000000       4
    0.094339622642    0.324324324324    0.000000000000       4
    0.113207547170    0.324324324324    0.000000000000       4
    0.132075471698    0.324324324324    0.000000000000       4
    0.150943396226    0.324324324324    0.000000000000       4
    0.169811320755    0.324324324324    0.000000000000       4
    0.188679245283    0.324324324324    0.000000000000       4
    0.207547169811    0.324324324324    0.000000000000       4
    0.226415094340    0.324324324324    0.000000000000       4
    0.245283018868    0.324324324324    0.000000000000       4
    0.264150943396    0.324324324324    0.000000000000       4
    0.283018867925    0.324324324324    0.000000000000       4
    0.301886792453    0.324324324324    0.000000000000       4
    0.320754716981    0.324324324324    0.000000000000       4
    0.339622641509    0.324324324324    0.000000000000       4
    0.358490566038    0.324324324324    0.000000000000       4
    0.377358490566    0.324324324324    0.000000000000       4
    0.396226415094    0.324324324324    0.000000000000       4
    0.415094339623    0.324324324324    0.000000000000       4
    0.433962264151    0.324324324324    0.000000000000       4
    0.452830188679    0.324324324324    0.000000000000       4
    0.471698113208    0.324324324324    0.000000000000       4
    0.490566037736    0.324324324324    0.000000000000       4
    0.000000000000    0.351351351351    0.000000000000       2
    0.018867924528    0.351351351351    0.000000000000       4
    0.037735849057    0.351351351351    0.000000000000       4
    0.056603773585    0.351351351351    0.000000000000       4
    0.075471698113    0.351351351351    0.000000000000       4
    0.094339622642    0.351351351351    0.000000000000       4
    0.113207547170    0.351351351351    0.000000000000       4
    0.132075471698    0.351351351351    0.000000000000       4
    0.150943396226    0.351351351351    0.000000000000       4
    0.169811320755    0.351351351351    0.000000000000       4
    0.188679245283    0.351351351351    0.000000000000       4
    0.207547169811    0.351351351351    0.000000000000       4
    0.226415094340    0.351351351351    0.000000000000       4
    0.245283018868    0.351351351351    0.000000000000       4
    0.264150943396    0.351351351351    0.000000000000       4
    0.283018867925    0.351351351351    0.000000000000       4
    0.301886792453    0.351351351351    0.000000000000       4
    0.320754716981    0.351351351351    0.000000000000       4
    0.339622641509    0.351351351351    0.000000000000       4
    0.358490566038    0.351351351351    0.000000000000       4
    0.377358490566    0.351351351351    0.000000000000       4
    0.396226415094    0.351351351351    0.000000000000       4
    0.415094339623    0.351351351351    0.000000000000       4
    0.433962264151    0.351351351351    0.000000000000       4
    0.452830188679    0.351351351351    0.000000000000       4
    0.471698113208    0.351351351351    0.000000000000       4
    0.490566037736    0.351351351351    0.000000000000       4
    0.000000000000    0.378378378378    0.000000000000       2
    0.018867924528    0.378378378378    0.000000000000       4
    0.037735849057    0.378378378378    0.000000000000       4
    0.056603773585    0.378378378378    0.000000000000       4
    0.075471698113    0.378378378378    0.000000000000       4
    0.094339622642    0.378378378378    0.000000000000       4
    0.113207547170    0.378378378378    0.000000000000       4
    0.132075471698    0.378378378378    0.000000000000       4
    0.150943396226    0.378378378378    0.000000000000       4
    0.169811320755    0.378378378378    0.000000000000       4
    0.188679245283    0.378378378378    0.000000000000       4
    0.207547169811    0.378378378378    0.000000000000       4
    0.226415094340    0.378378378378    0.000000000000       4
    0.245283018868    0.378378378378    0.000000000000       4
    0.264150943396    0.378378378378    0.000000000000       4
    0.283018867925    0.378378378378    0.000000000000       4
    0.301886792453    0.378378378378    0.000000000000       4
    0.320754716981    0.378378378378    0.000000000000       4
    0.339622641509    0.378378378378    0.000000000000       4
    0.358490566038    0.378378378378    0.000000000000       4
    0.377358490566    0.378378378378    0.000000000000       4
    0.396226415094    0.378378378378    0.000000000000       4
    0.415094339623    0.378378378378    0.000000000000       4
    0.433962264151    0.378378378378    0.000000000000       4
    0.452830188679    0.378378378378    0.000000000000       4
    0.471698113208    0.378378378378    0.000000000000       4
    0.490566037736    0.378378378378    0.000000000000       4
    0.000000000000    0.405405405405    0.000000000000       2
    0.018867924528    0.405405405405    0.000000000000       4
    0.037735849057    0.405405405405    0.000000000000       4
    0.056603773585    0.405405405405    0.000000000000       4
    0.075471698113    0.405405405405    0.000000000000       4
    0.094339622642    0.405405405405    0.000000000000       4
    0.113207547170    0.405405405405    0.000000000000       4
    0.132075471698    0.405405405405    0.000000000000       4
    0.150943396226    0.405405405405    0.000000000000       4
    0.169811320755    0.405405405405    0.000000000000       4
    0.188679245283    0.405405405405    0.000000000000       4
    0.207547169811    0.405405405405    0.000000000000       4
    0.226415094340    0.405405405405    0.000000000000       4
    0.245283018868    0.405405405405    0.000000000000       4
    0.264150943396    0.405405405405    0.000000000000       4
    0.283018867925    0.405405405405    0.000000000000       4
    0.301886792453    0.405405405405    0.000000000000       4
    0.320754716981    0.405405405405    0.000000000000       4
    0.339622641509    0.405405405405    0.000000000000       4
    0.358490566038    0.405405405405    0.000000000000       4
    0.377358490566    0.405405405405    0.000000000000       4
    0.396226415094    0.405405405405    0.000000000000       4
    0.415094339623    0.405405405405    0.000000000000       4
    0.433962264151    0.405405405405    0.000000000000       4
    0.452830188679    0.405405405405    0.000000000000       4
    0.471698113208    0.405405405405    0.000000000000       4
    0.490566037736    0.405405405405    0.000000000000       4
    0.000000000000    0.432432432432    0.000000000000       2
    0.018867924528    0.432432432432    0.000000000000       4
    0.037735849057    0.432432432432    0.000000000000       4
    0.056603773585    0.432432432432    0.000000000000       4
    0.075471698113    0.432432432432    0.000000000000       4
    0.094339622642    0.432432432432    0.000000000000       4
    0.113207547170    0.432432432432    0.000000000000       4
    0.132075471698    0.432432432432    0.000000000000       4
    0.150943396226    0.432432432432    0.000000000000       4
    0.169811320755    0.432432432432    0.000000000000       4
    0.188679245283    0.432432432432    0.000000000000       4
    0.207547169811    0.432432432432    0.000000000000       4
    0.226415094340    0.432432432432    0.000000000000       4
    0.245283018868    0.432432432432    0.000000000000       4
    0.264150943396    0.432432432432    0.000000000000       4
    0.283018867925    0.432432432432    0.000000000000       4
    0.301886792453    0.432432432432    0.000000000000       4
    0.320754716981    0.432432432432    0.000000000000       4
    0.339622641509    0.432432432432    0.000000000000       4
    0.358490566038    0.432432432432    0.000000000000       4
    0.377358490566    0.432432432432    0.000000000000       4
    0.396226415094    0.432432432432    0.000000000000       4
    0.415094339623    0.432432432432    0.000000000000       4
    0.433962264151    0.432432432432    0.000000000000       4
    0.452830188679    0.432432432432    0.000000000000       4
    0.471698113208    0.432432432432    0.000000000000       4
    0.490566037736    0.432432432432    0.000000000000       4
    0.000000000000    0.459459459459    0.000000000000       2
    0.018867924528    0.459459459459    0.000000000000       4
    0.037735849057    0.459459459459    0.000000000000       4
    0.056603773585    0.459459459459    0.000000000000       4
    0.075471698113    0.459459459459    0.000000000000       4
    0.094339622642    0.459459459459    0.000000000000       4
    0.113207547170    0.459459459459    0.000000000000       4
    0.132075471698    0.459459459459    0.000000000000       4
    0.150943396226    0.459459459459    0.000000000000       4
    0.169811320755    0.459459459459    0.000000000000       4
    0.188679245283    0.459459459459    0.000000000000       4
    0.207547169811    0.459459459459    0.000000000000       4
    0.226415094340    0.459459459459    0.000000000000       4
    0.245283018868    0.459459459459    0.000000000000       4
    0.264150943396    0.459459459459    0.000000000000       4