CONTCAR\(8)                             
   1.00000000000000     
    10.2070999146000005    0.0000000000000000    0.0000000000000000
    -1.7011927660999999   18.1179073708000011    0.0000000000000000
     0.0000000000000000    0.0000000000000000   20.2910003661999987
   Ta   Co   Pd   Se   O 
    12     6     3    36     1
Direct
  0.0294496814630481  0.1485503240465735  0.4665258067883208
  0.3090480382343213  0.8487965210894232  0.5332988172613178
  0.0732789958357514  0.4098769775260101  0.4686835659221421
  0.2658749322349802  0.5917981986224978  0.5295096253534131
  0.3635218496550460  0.1522129087164625  0.4673127145505321
  0.6424176855752846  0.8489291208239871  0.5336719258941804
  0.4063569695073028  0.4089083522719856  0.4727549656497526
  0.5997014380971338  0.5926057774513989  0.5302523134537664
  0.6966013548034994  0.1520949798818926  0.4676161031453210
  0.9758205843235080  0.8491491770643051  0.5334500148728067
  0.7393935953644493  0.4088993027966127  0.4730182908990967
  0.9328907198128235  0.5919409835597903  0.5297205092061193
  0.2260743108295463  0.2880868625239782  0.4424832297669334
  0.1197956690457829  0.7152773794194108  0.5599196846280948
  0.5524154429695978  0.2859457505801291  0.4410091534513867
  0.4530218412571312  0.7148695188928891  0.5602319835800107
  0.8795731297437244  0.2878184471717360  0.4426845492601297
  0.7861985001410616  0.7150539884122199  0.5603183285706236
  0.1715263185060457  0.0007257270508446  0.4996723587381199
  0.5031092044392922  0.0000012946168474  0.5002735671087277
  0.8351841263085424  0.0007445303519543  0.5003111589170089
  0.1906789913299467  0.1188558444886817  0.5600906022426787
  0.1479962060059629  0.8821177949124689  0.4402580760527400
  0.1032755217224219  0.6044773552753502  0.6229340277313549
  0.2391917679155289  0.3975726649743928  0.3775554361738767
  0.2402822432802646  0.4466992061428774  0.5627514929524702
  0.0952431807066376  0.5535958161961524  0.4374982610808451
  0.0447516015633859  0.2408964810111327  0.3746246369423694
  0.2942390730897831  0.7620538214950978  0.6304552323506200
  0.1862310612371169  0.0745180418607520  0.3972291211734954
  0.1557632061455083  0.9265069100578538  0.6018509941704870
  0.0522553490582088  0.2786713461665062  0.5235842477200361
  0.2875548130559318  0.7191288087707393  0.4757179035155367
  0.5241802068882391  0.1180452829370018  0.5603118243938945
  0.4816099159219062  0.8817707605154229  0.4404279835739217
  0.4357586566065943  0.6040972517744272  0.6232614489845298
  0.5693249459385616  0.3976205014925213  0.3793026715538947
  0.5764388044355269  0.4482090636494497  0.5644693775485314
  0.4295746415599062  0.5530463045933813  0.4385123704970456
  0.3797682460491137  0.2390673665896977  0.3699878338389492
  0.6275669862112825  0.7619753657619663  0.6306829697222543
  0.5173103756072980  0.0752042000261545  0.3984741013327688
  0.4883984932715442  0.9255822392273383  0.6024806563382775
  0.3880932799008009  0.2812901695316193  0.5263141378326361
  0.6205141049973261  0.7194899840316467  0.4760032312995423
  0.8584985872653802  0.1189890841408430  0.5604431559112647
  0.8144572005631141  0.8823509801397084  0.4405879855050950
  0.7703324794878627  0.6041788904086300  0.6233995033915565
  0.8988395726736267  0.3972570783600329  0.3779593176809249
  0.9124600122508981  0.4470407916903861  0.5629255400937873
  0.7616034693780490  0.5530459398943930  0.4385335956445112
  0.7091927593546733  0.2388966044476460  0.3702734640088698
  0.9612368422036957  0.7622290202312134  0.6305294969898887
  0.8480867196296555  0.0742174425213730  0.3977128168743723
  0.8221447984331511  0.9261827189614902  0.6023507019524937
  0.7154998153990626  0.2813198480533851  0.5264300925638309
  0.9531556634186321  0.7193505385168611  0.4759037899297990
  0.0558858302954932  0.2819711142804454  0.6066236784129766
 
  0.00000000E+00  0.00000000E+00  0.00000000E+00
  0.00000000E+00  0.00000000E+00  0.00000000E+00
  0.00000000E+00  0.00000000E+00  0.00000000E+00
  0.00000000E+00  0.00000000E+00  0.00000000E+00
  0.00000000E+00  0.00000000E+00  0.00000000E+00
  0.00000000E+00  0.00000000E+00  0.00000000E+00
  0.00000000E+00  0.00000000E+00  0.00000000E+00
  0.00000000E+00  0.00000000E+00  0.00000000E+00
  0.00000000E+00  0.00000000E+00  0.00000000E+00
  0.00000000E+00  0.00000000E+00  0.00000000E+00
  0.00000000E+00  0.00000000E+00  0.00000000E+00
  0.00000000E+00  0.00000000E+00  0.00000000E+00
  0.00000000E+00  0.00000000E+00  0.00000000E+00
  0.00000000E+00  0.00000000E+00  0.00000000E+00
  0.00000000E+00  0.00000000E+00  0.00000000E+00
  0.00000000E+00  0.00000000E+00  0.00000000E+00
  0.00000000E+00  0.00000000E+00  0.00000000E+00
  0.00000000E+00  0.00000000E+00  0.00000000E+00
  0.00000000E+00  0.00000000E+00  0.00000000E+00
  0.00000000E+00  0.00000000E+00  0.00000000E+00
  0.00000000E+00  0.00000000E+00  0.00000000E+00
  0.00000000E+00  0.00000000E+00  0.00000000E+00
  0.00000000E+00  0.00000000E+00  0.00000000E+00
  0.00000000E+00  0.00000000E+00  0.00000000E+00
  0.00000000E+00  0.00000000E+00  0.00000000E+00
  0.00000000E+00  0.00000000E+00  0.00000000E+00
  0.00000000E+00  0.00000000E+00  0.00000000E+00
  0.00000000E+00  0.00000000E+00  0.00000000E+00
  0.00000000E+00  0.00000000E+00  0.00000000E+00
  0.00000000E+00  0.00000000E+00  0.00000000E+00
  0.00000000E+00  0.00000000E+00  0.00000000E+00
  0.00000000E+00  0.00000000E+00  0.00000000E+00
  0.00000000E+00  0.00000000E+00  0.00000000E+00
  0.00000000E+00  0.00000000E+00  0.00000000E+00
  0.00000000E+00  0.00000000E+00  0.00000000E+00
  0.00000000E+00  0.00000000E+00  0.00000000E+00
  0.00000000E+00  0.00000000E+00  0.00000000E+00
  0.00000000E+00  0.00000000E+00  0.00000000E+00
  0.00000000E+00  0.00000000E+00  0.00000000E+00
  0.00000000E+00  0.00000000E+00  0.00000000E+00
  0.00000000E+00  0.00000000E+00  0.00000000E+00
  0.00000000E+00  0.00000000E+00  0.00000000E+00
  0.00000000E+00  0.00000000E+00  0.00000000E+00
  0.00000000E+00  0.00000000E+00  0.00000000E+00
  0.00000000E+00  0.00000000E+00  0.00000000E+00
  0.00000000E+00  0.00000000E+00  0.00000000E+00
  0.00000000E+00  0.00000000E+00  0.00000000E+00
  0.00000000E+00  0.00000000E+00  0.00000000E+00
  0.00000000E+00  0.00000000E+00  0.00000000E+00
  0.00000000E+00  0.00000000E+00  0.00000000E+00
  0.00000000E+00  0.00000000E+00  0.00000000E+00
  0.00000000E+00  0.00000000E+00  0.00000000E+00
  0.00000000E+00  0.00000000E+00  0.00000000E+00
  0.00000000E+00  0.00000000E+00  0.00000000E+00
  0.00000000E+00  0.00000000E+00  0.00000000E+00
  0.00000000E+00  0.00000000E+00  0.00000000E+00
  0.00000000E+00  0.00000000E+00  0.00000000E+00
  0.00000000E+00  0.00000000E+00  0.00000000E+00
