CONTCAR\(10)                            
   1.00000000000000     
    14.0045995712000000    0.0000000000000000    0.0000000000000000
     0.0000000000000000   14.6464996337999995    0.0000000000000000
     0.0000000000000000    0.0000000000000000   18.2712001800999992
   Ru   Cl   O    H 
    16    32    17     1
Direct
  0.0000248950855238  0.0001219863111031  0.4997987804467901
  0.2499865181609322  0.0002287006750765  0.4999904264495160
  0.4999441584911626  0.0001218752009225  0.4998125698134649
  0.7499902704428115  0.0001457821435703  0.4996959097611431
 -0.0000353927168395  0.2500674412792227  0.4991234499213846
  0.2499687294451318  0.2500857458864754  0.4999571812641133
  0.4999898749694431  0.2500717160013414  0.4991811068603279
  0.7499722900374107  0.2500980603806321  0.4989322485578606
  0.0000239860080863  0.5000463861464395  0.4998144150119294
  0.2499833212401589  0.5000293083288727  0.5000255325662163
  0.4999513702340649  0.5000455777405118  0.4998325267540233
  0.7499847613045215  0.5000827039692329  0.4996940016947965
  0.0000198359779278  0.7500676548558447  0.5002021657129974
  0.2499962614742984  0.7500864243838969  0.5003625025910979
  0.4999766626626915  0.7500628959383341  0.5002040985940462
  0.7499980356209536  0.7501023887574838  0.5001554372766451
  0.1248875391010196  0.0008240478464095  0.5894053338453604
  0.1250363143251856 -0.0001656945100454  0.4101738111721616
  0.3750699821451395  0.0008052797340584  0.5894132923649605
  0.3749435158210699 -0.0001558427802258  0.4101817442159303
  0.6250494989114261  0.0005333567678479  0.5893658027487186
  0.6249792962067530 -0.0002658907833788  0.4100313897996385
  0.8749309523188201  0.0005397363021907  0.5893575533799215
  0.8749878148062527 -0.0002741008692317  0.4100228756045035
  0.1236067402345247  0.2501089257679478  0.5880283459074476
  0.1250841431058514  0.2501279428628799  0.4096426474306202
  0.3762458659296009  0.2500701894277958  0.5881106514111242
  0.3749101652798131  0.2501202017133605  0.4096804358127174
  0.6251027152617337  0.2500849186252169  0.5887194951836551
  0.6256642676816832  0.2501060354681425  0.4087670680957259
  0.8748756284042817  0.2500876321482189  0.5886728499466521
  0.8742303715396236  0.2500967333731365  0.4087201087342823
  0.1248790145184373  0.4993668560223181  0.5894234900659638
  0.1250613414190529  0.5003553440545910  0.4102080027303955
  0.3750821620298686  0.4993801011718839  0.5894505080990188
  0.3749415734850509  0.5003476921573740  0.4102123028937185
  0.6250658812497336  0.4996628003467287  0.5893732556702497
  0.6249640945488756  0.5005157900122416  0.4100411347374899
  0.8749121046879820  0.4996537340387316  0.5893548169619126
  0.8749854688824874  0.5005272621764575  0.4100301540831559
  0.1249326101367964  0.7501032237231374  0.5899336410184750
  0.1251088791811647  0.7500889725947181  0.4106139820033697
  0.3750631663845179  0.7501014293331091  0.5899337269926757
  0.3748903190665363  0.7500911419158741  0.4106162010165454
  0.6250131061514759  0.7501097119338107  0.5898316376486892
  0.6249805825791274  0.7501078222811176  0.4105042639672268
  0.8749877786292009  0.7501078287670062  0.5898301849328897
  0.8750168502126762  0.7501054121322883  0.4105036095227693
 -0.0002614133947377  0.1251635084814714  0.4991885120458147
  0.2499769393319143  0.1251946432149635  0.4997318376814993
  0.5002160552615321  0.1251605716578318  0.4992403347918494
  0.7499793320691764  0.1251417520663053  0.4992168330032679
 -0.0002789457643328  0.3750091801652213  0.4991970452259279
  0.2499857142452384  0.3750148342040246  0.4997601477062111
  0.5002253304100914  0.3750049733805088  0.4992574206009590
  0.7499773456213187  0.3750692666485009  0.4992163108533016
  0.0000194875146757  0.6250810558818528  0.5001387237798772
  0.2500002686490074  0.6250528477105952  0.5002794158568046
  0.4999651312648404  0.6250787292116438  0.5001472870472029
  0.7499905231044141  0.6251062034480269  0.5000983377637439
  0.0000175591844229  0.8750703659112115  0.5001232208478160
  0.2499917991108209  0.8751446246921708  0.5002473701607884
  0.4999709758168001  0.8750622071227743  0.5001237474574256
  0.7499949019567008  0.8750926897065514  0.5000863474224695
  0.2501987698042338  0.2499418128832027  0.7150965357105898
  0.2520744181398812  0.2502570938585023  0.7688739767701447
 
  0.00000000E+00  0.00000000E+00  0.00000000E+00
  0.00000000E+00  0.00000000E+00  0.00000000E+00
  0.00000000E+00  0.00000000E+00  0.00000000E+00
  0.00000000E+00  0.00000000E+00  0.00000000E+00
  0.00000000E+00  0.00000000E+00  0.00000000E+00
  0.00000000E+00  0.00000000E+00  0.00000000E+00
  0.00000000E+00  0.00000000E+00  0.00000000E+00
  0.00000000E+00  0.00000000E+00  0.00000000E+00
  0.00000000E+00  0.00000000E+00  0.00000000E+00
  0.00000000E+00  0.00000000E+00  0.00000000E+00
  0.00000000E+00  0.00000000E+00  0.00000000E+00
  0.00000000E+00  0.00000000E+00  0.00000000E+00
  0.00000000E+00  0.00000000E+00  0.00000000E+00
  0.00000000E+00  0.00000000E+00  0.00000000E+00
  0.00000000E+00  0.00000000E+00  0.00000000E+00
  0.00000000E+00  0.00000000E+00  0.00000000E+00
  0.00000000E+00  0.00000000E+00  0.00000000E+00
  0.00000000E+00  0.00000000E+00  0.00000000E+00
  0.00000000E+00  0.00000000E+00  0.00000000E+00
  0.00000000E+00  0.00000000E+00  0.00000000E+00
  0.00000000E+00  0.00000000E+00  0.00000000E+00
  0.00000000E+00  0.00000000E+00  0.00000000E+00
  0.00000000E+00  0.00000000E+00  0.00000000E+00
  0.00000000E+00  0.00000000E+00  0.00000000E+00
  0.00000000E+00  0.00000000E+00  0.00000000E+00
  0.00000000E+00  0.00000000E+00  0.00000000E+00
  0.00000000E+00  0.00000000E+00  0.00000000E+00
  0.00000000E+00  0.00000000E+00  0.00000000E+00
  0.00000000E+00  0.00000000E+00  0.00000000E+00
  0.00000000E+00  0.00000000E+00  0.00000000E+00
  0.00000000E+00  0.00000000E+00  0.00000000E+00
  0.00000000E+00  0.00000000E+00  0.00000000E+00
  0.00000000E+00  0.00000000E+00  0.00000000E+00
  0.00000000E+00  0.00000000E+00  0.00000000E+00
  0.00000000E+00  0.00000000E+00  0.00000000E+00
  0.00000000E+00  0.00000000E+00  0.00000000E+00
  0.00000000E+00  0.00000000E+00  0.00000000E+00
  0.00000000E+00  0.00000000E+00  0.00000000E+00
  0.00000000E+00  0.00000000E+00  0.00000000E+00
  0.00000000E+00  0.00000000E+00  0.00000000E+00
  0.00000000E+00  0.00000000E+00  0.00000000E+00
  0.00000000E+00  0.00000000E+00  0.00000000E+00
  0.00000000E+00  0.00000000E+00  0.00000000E+00
  0.00000000E+00  0.00000000E+00  0.00000000E+00
  0.00000000E+00  0.00000000E+00  0.00000000E+00
  0.00000000E+00  0.00000000E+00  0.00000000E+00
  0.00000000E+00  0.00000000E+00  0.00000000E+00
  0.00000000E+00  0.00000000E+00  0.00000000E+00
  0.00000000E+00  0.00000000E+00  0.00000000E+00
  0.00000000E+00  0.00000000E+00  0.00000000E+00
  0.00000000E+00  0.00000000E+00  0.00000000E+00
  0.00000000E+00  0.00000000E+00  0.00000000E+00
  0.00000000E+00  0.00000000E+00  0.00000000E+00
  0.00000000E+00  0.00000000E+00  0.00000000E+00
  0.00000000E+00  0.00000000E+00  0.00000000E+00
  0.00000000E+00  0.00000000E+00  0.00000000E+00
  0.00000000E+00  0.00000000E+00  0.00000000E+00
  0.00000000E+00  0.00000000E+00  0.00000000E+00
  0.00000000E+00  0.00000000E+00  0.00000000E+00
  0.00000000E+00  0.00000000E+00  0.00000000E+00
  0.00000000E+00  0.00000000E+00  0.00000000E+00
  0.00000000E+00  0.00000000E+00  0.00000000E+00
  0.00000000E+00  0.00000000E+00  0.00000000E+00
  0.00000000E+00  0.00000000E+00  0.00000000E+00
  0.00000000E+00  0.00000000E+00  0.00000000E+00
  0.00000000E+00  0.00000000E+00  0.00000000E+00
