CONTCAR\(6)                             
   1.00000000000000     
    10.1990995407000007    0.0000000000000000    0.0000000000000000
     0.0000000000000000   15.1191997528000002    0.0000000000000000
     0.0000000000000000    0.0000000000000000   19.1068992615000006
   Ta   Ni   S    O    H 
    12     6    30     2     1
Direct
  0.0002261880565875  0.3574953470555269  0.5190107050798358
  0.1668724902887021  0.1415006343967338  0.4796829111898914
  0.1668487271530072  0.8572720709382771  0.4796491145383428
 -0.0000962840862998  0.6416905037089550  0.5190965494279115
  0.3336015802342042  0.3574500201130029  0.5189273319354168
  0.5002514145216536  0.1416982307951523  0.4796546572907036
  0.5003392586904044  0.8573230870642053  0.4796109890139034
  0.3336883976953549  0.6417278709098102  0.5191242916562159
  0.6669735464750081  0.3574532127399418  0.5187475971431840
  0.8335926598223649  0.1415537274137518  0.4795969712714693
  0.8332281775787561  0.8572756081562359  0.4795365990879524
  0.6669980060226662  0.6417259126435158  0.5189602455620984
  0.0001135273008004  0.9995020333913521  0.4643476652149471
  0.1666712167239618  0.4996465069755270  0.5348060070427718
  0.3337191548242293  0.9996937928873679  0.4641687384280888
  0.5003197356405150  0.4994817529493993  0.5343353037988093
  0.6666306796503445  0.9997590767921447  0.4640381760052505
  0.8336372096471292  0.4994820978518540  0.5343777535139348
  0.1668846444167233 -0.0005549540288070  0.5419772422278801
  0.0004561987830884  0.4994873450911035  0.4567819978170694
  0.0001720052784568  0.1984712592836791  0.5643987994868845
  0.1668053905997680  0.3004543129275151  0.4341847074196444
  0.1669870449266883  0.6984649226663056  0.4341507820369640
  0.0000177214745044  0.8004981582484563  0.5643194823232801
  0.1667942817965419  0.6139777246402095  0.6077025998863762
  0.0002791614828866  0.8853754887952083  0.3910411963466723
  0.0003050841944189  0.1134508234616081  0.3909804050425633
  0.1669792209481654  0.3851988081826458  0.6077198678224280
  0.5003152733803934  0.9995422444502982  0.5418786934055630
  0.3332856711262650  0.4995424761407013  0.4568006446033067
  0.3335587270809043  0.1985095271148145  0.5644361539580769
  0.5001032680160812  0.3006006069713447  0.4340541198049517
  0.4999888496938319  0.6984947344658423  0.4340765377278928
  0.3337210624188771  0.8005674002390124  0.5644494695299304
  0.5004745840948464  0.6136947640760727  0.6074993562799065
  0.3334926457396605  0.8854446056375683  0.3910284544036833
  0.3335739821389995  0.1137803119889488  0.3909472212946449
  0.5003413451657767  0.3852414475956375  0.6074481596600236
  0.8332595413159993  0.9994781503704036  0.5419163581676010
  0.6669797742117467  0.4995237659113955  0.4565602259942207
  0.6669479338911386  0.1985199336559655  0.5643793307160345
  0.8337077432333549  0.3004504959002343  0.4340643033212657
  0.8335763808439806  0.6984872303300592  0.4339121499260977
  0.6669759815216895  0.8005250418234020  0.5640512380959610
  0.8331319216931375  0.6137505383904025  0.6075041232451226
  0.6668247097129307  0.8855517826348562  0.3907663733244391
  0.6669245244895371  0.1138912645348376  0.3909054642944690
  0.8334297419541871  0.3852989909503723  0.6075467723713647
  0.6445411096096693  0.7319564619001746  0.7211677027698776
  0.7038115859136322  0.7084677967317619  0.7816699851508965
  0.6417367846128068  0.7266751391352286  0.8188187413441665
 
  0.00000000E+00  0.00000000E+00  0.00000000E+00
  0.00000000E+00  0.00000000E+00  0.00000000E+00
  0.00000000E+00  0.00000000E+00  0.00000000E+00
  0.00000000E+00  0.00000000E+00  0.00000000E+00
  0.00000000E+00  0.00000000E+00  0.00000000E+00
  0.00000000E+00  0.00000000E+00  0.00000000E+00
  0.00000000E+00  0.00000000E+00  0.00000000E+00
  0.00000000E+00  0.00000000E+00  0.00000000E+00
  0.00000000E+00  0.00000000E+00  0.00000000E+00
  0.00000000E+00  0.00000000E+00  0.00000000E+00
  0.00000000E+00  0.00000000E+00  0.00000000E+00
  0.00000000E+00  0.00000000E+00  0.00000000E+00
  0.00000000E+00  0.00000000E+00  0.00000000E+00
  0.00000000E+00  0.00000000E+00  0.00000000E+00
  0.00000000E+00  0.00000000E+00  0.00000000E+00
  0.00000000E+00  0.00000000E+00  0.00000000E+00
  0.00000000E+00  0.00000000E+00  0.00000000E+00
  0.00000000E+00  0.00000000E+00  0.00000000E+00
  0.00000000E+00  0.00000000E+00  0.00000000E+00
  0.00000000E+00  0.00000000E+00  0.00000000E+00
  0.00000000E+00  0.00000000E+00  0.00000000E+00
  0.00000000E+00  0.00000000E+00  0.00000000E+00
  0.00000000E+00  0.00000000E+00  0.00000000E+00
  0.00000000E+00  0.00000000E+00  0.00000000E+00
  0.00000000E+00  0.00000000E+00  0.00000000E+00
  0.00000000E+00  0.00000000E+00  0.00000000E+00
  0.00000000E+00  0.00000000E+00  0.00000000E+00
  0.00000000E+00  0.00000000E+00  0.00000000E+00
  0.00000000E+00  0.00000000E+00  0.00000000E+00
  0.00000000E+00  0.00000000E+00  0.00000000E+00
  0.00000000E+00  0.00000000E+00  0.00000000E+00
  0.00000000E+00  0.00000000E+00  0.00000000E+00
  0.00000000E+00  0.00000000E+00  0.00000000E+00
  0.00000000E+00  0.00000000E+00  0.00000000E+00
  0.00000000E+00  0.00000000E+00  0.00000000E+00
  0.00000000E+00  0.00000000E+00  0.00000000E+00
  0.00000000E+00  0.00000000E+00  0.00000000E+00
  0.00000000E+00  0.00000000E+00  0.00000000E+00
  0.00000000E+00  0.00000000E+00  0.00000000E+00
  0.00000000E+00  0.00000000E+00  0.00000000E+00
  0.00000000E+00  0.00000000E+00  0.00000000E+00
  0.00000000E+00  0.00000000E+00  0.00000000E+00
  0.00000000E+00  0.00000000E+00  0.00000000E+00
  0.00000000E+00  0.00000000E+00  0.00000000E+00
  0.00000000E+00  0.00000000E+00  0.00000000E+00
  0.00000000E+00  0.00000000E+00  0.00000000E+00
  0.00000000E+00  0.00000000E+00  0.00000000E+00
  0.00000000E+00  0.00000000E+00  0.00000000E+00
  0.00000000E+00  0.00000000E+00  0.00000000E+00
  0.00000000E+00  0.00000000E+00  0.00000000E+00
  0.00000000E+00  0.00000000E+00  0.00000000E+00
