CONTCAR\(2)                             
   1.00000000000000     
    11.4651002884000004    0.0000000000000000    0.0000000000000000
     0.0000000000000000   11.4651002884000004    0.0000000000000000
     0.0000000000000000    0.0000000000000000   29.1504001616999986
   Sr   Mn   Cl   O    H 
    36    27    18    74     1
Direct
 -0.0003093959773531 -0.0003461504158567  0.3082140235694128
 -0.0018603464698007  0.0003994890582068  0.6931201106782567
 -0.0009760337981750 -0.0001861247105036  0.4381180108962857
 -0.0029168800538600  0.9974912321417794  0.5625195304697346
  0.3332701466943572 -0.0000331920965425  0.3079440830948856
  0.3280698407390381  0.0027332321743287  0.6911805191231117
  0.3316782324784438 -0.0003351445122976  0.4383986730756474
  0.3331672842280313  0.9983874590585188  0.5632501908370224
  0.6661147099903234 -0.0000232568654331  0.3080204131814667
  0.6666975352335545  0.0019070672404056  0.6927666849274243
  0.6668751979320412 -0.0006094855260618  0.4385902469696903
  0.6656020940620758  0.9982762502074862  0.5630735550166110
 -0.0002531258106795  0.3337322798950595  0.3081272649848202
 -0.0017934637685137  0.3329820302943769  0.6932556131124318
 -0.0010565948151910  0.3332406261228162  0.4379033285330727
 -0.0028988764455199  0.3354096710590072  0.5627171567274550
  0.3333203720379363  0.3334218975940335  0.3078548712113960
  0.3280203981918572  0.3306140976935120  0.6912017737130556
  0.3316908126518783  0.3334343745274350  0.4384193372691127
  0.3333470036347516  0.3347816557801293  0.5633239159100100
  0.6660715756944383  0.3334300545674918  0.3079364711831951
  0.6667939787439630  0.3314486837617483  0.6928198148408182
  0.6668196820900226  0.3337425965388439  0.4385663434552405
  0.6653979722312353  0.3348895053525552  0.5631493816911940
 -0.0002806273196091  0.6666276259002585  0.3082351894255106
  0.9981787107597745  0.6666102074399943  0.6947030810208548
 -0.0010098611399355  0.6668063180611228  0.4381947123810711
 -0.0021248757383729  0.6669636686073016  0.5627711981452834
  0.3331952739595102  0.6665464176409657  0.3078832164370762
  0.3289340047833568  0.6666188318470818  0.6930895199265006
  0.3328795976585365  0.6668335080621228  0.4387911085368409
  0.3360961381119328  0.6667461413542343  0.5639217991112835
  0.6659490603918824  0.6666024880440872  0.3079101532161577
  0.6651258729659780  0.6666289719055084  0.7024047246910087
  0.6652499139531680  0.6668376305202318  0.4385203266049536
  0.6617878479991992  0.6667821695581148  0.5653956462335509
  0.1652337287277826  0.1667329105510406  0.5004630104115240
  0.1620124514706689  0.1665674563649857  0.6246137059790686
  0.1665754720825217  0.1666217467894472  0.3742925420738714
  0.4991938266001733  0.1666175197275875  0.5004548588521798
  0.4992917313322768  0.1666317473266293  0.6254520063913974
  0.4997487073996864  0.1666775413032479  0.3748527212765274
  0.8321227902740909  0.1667494320951015  0.5004544270683166
  0.8327346625544204  0.1666241744149248  0.6254486157492120
  0.8323274326503302  0.1666237298744576  0.3743885518503140
  0.1660015493556182  0.5007672234391100  0.5007116744725001
  0.1632924093202097  0.5007874108780589  0.6257588456186643
  0.1665067625231293  0.5003734040542379  0.3747044751964489
  0.4995623170545329  0.5001877776003986  0.5008025910856246
  0.4995684850385038  0.5000509092183443  0.6290976438073691
  0.4995225970702584  0.4998977212198854  0.3750386302544604
  0.8312167379402319  0.5015078762287626  0.5008617211170695
  0.8306265424812865  0.5021930318852346  0.6274750581292643
  0.8324334468531099  0.5004030061973316  0.3746966080429165
  0.1660817742867185  0.8324907627175751  0.5006830953773262
  0.1633985088461325  0.8325963564103678  0.6258145218320192
  0.1665860080879192  0.8328092297232950  0.3746101963708290
  0.4995563656039508  0.8332059138660483  0.5008314994121554
  0.4995613047162706  0.8334035346647732  0.6291386059029540
  0.4995762749415039  0.8334394965301395  0.3750148876154354
  0.8310604969072486  0.8317522359581971  0.5008070168373233
  0.8305881173595767  0.8311331193516847  0.6275417123693224
  0.8323886545751226  0.8329258136085936  0.3745837287941613
  0.1661809601879370  0.1666155654720916  0.2644137010297590
  0.1618815484311776  0.1666535738590384  0.7387652193396087
  0.4998970092980703  0.1666522920573964  0.2638380686303926
  0.4969707421238128  0.1665891786119365  0.7357071886285712
  0.8328269640325695  0.1666474191620526  0.2642645525574387
  0.8336275138194564  0.1666639552702287  0.7385516838225239
  0.1659938313256187  0.5001636814042886  0.2638857585346159
  0.1662071638827979  0.4986413845893100  0.7377551355378263
  0.4997524545898313  0.4999303928617775  0.2630506704407176
  0.4918115760895346  0.4908467718408762  0.7283379961788072
  0.8331154892411650  0.5000368710558821  0.2637641796896207
  0.8346743968456092  0.4956548786417319  0.7378167167226954
  0.1659791440727666  0.8331759481665257  0.2638382638670038
  0.1661427615707288  0.8346791610248947  0.7378265520881258
  0.4997108087099764  0.8334430910470655  0.2629801500987605
  0.4918007587623977  0.8425368541269221  0.7282721611870794
  0.8331187889029475  0.8333264811972080  0.2637198812384661
  0.8347180284992626  0.8376508997984004  0.7378968798570757
  0.1664620224675032 -0.0002879464299256  0.3643307505052002
 -0.0023344257043760  0.1667465315100919  0.6362953907028348
  0.1656843292583031  0.9994027406381520  0.5004574968663740
 -0.0015576850314778  0.1666734039342873  0.4991002006081727
 -0.0005495301736693  0.1666891103414695  0.3644854160576502
  0.1674436966007902  0.1666657915660326  0.4359703312230511
  0.1619835754127503  0.0002389031966183  0.6353848725511791
  0.1624927310656883  0.1667626190957203  0.5635779406884044
  0.4997580857341858  0.0000890209741991  0.3640468479294536
  0.3297382450346227  0.1665933619762941  0.6345522828110035
  0.4991923947150591  0.9997187086897720  0.5011382795435634
  0.3322515443151617  0.1666645149058863  0.5011228986093916
  0.3332325989251213  0.1666349641645487  0.3642981314894100
  0.4990380908396183  0.1665654955528658  0.4364527213440677
  0.4985353190413047  0.0016585393815964  0.6353425662844981
  0.5000549700798235  0.1667170438270446  0.5642417823894563
  0.8328835588465968 -0.0002561437288422  0.3642251154732540
  0.6662930759455168  0.1666610524336604  0.6357676958025689
  0.8317087997698375  0.9990828155597352  0.5008003823472738
  0.6657952386278483  0.1666729261403986  0.5007080133788111
  0.6659488779613828  0.1666104378700794  0.3644497797173770
  0.8308436563206645  0.1666107637773316  0.4360453705300005
  0.8329442182138688  0.0000690892457903  0.6362295648715360
  0.8333079136303740  0.1666597964871203  0.5640866980260042
  0.1664416679391589  0.3335867574639670  0.3643586321311171
 -0.0020908795114788  0.5009530912446950  0.6372390432674718
  0.1656606346280512  0.3339288804362615  0.5004416704970206
 -0.0015447292255987  0.5003924903556057  0.4995108605264683
 -0.0004588222995293  0.5004244477980293  0.3648334750095140
  0.1683936156749633  0.5002947924795300  0.4363859278101359
  0.1619160612979983  0.3331030847312021  0.6353624163797660
  0.1625387826694292  0.5020564395042650  0.5644381863028539
  0.4997471888334613  0.3332880420258151  0.3638713220622860
  0.3294851335292900  0.4993973624867071  0.6357264639633866
  0.4991746493831342  0.3336097171028231  0.5011650516832339
  0.3330918785525687  0.5001384121279085  0.5019239371929408
  0.3331641913544352  0.4999246313577574  0.3637104754919377
  0.4984635637164979  0.4987451301560604  0.4367333022259041
  0.4985212114675047  0.3316308302509575  0.6353633504203671
  0.5011098508512475  0.5022215760724311  0.5664894207695492
  0.8329258272279539  0.3336033419925137  0.3642678416846334
  0.6662197210570251  0.5002475568367665  0.6383282708377177
  0.8317231476767284  0.3342412399588905  0.5007847749731781
  0.6652099262350905  0.5002251044371522  0.5011826493146778
  0.6658413704778662  0.5000683533052608  0.3640277935931735
  0.8305483894218656  0.5004210871323372  0.4364060837147887
  0.8329438683671659  0.3332330359486335  0.6361794418311917
  0.8327695436728254  0.5027492759358078  0.5654810221543369
  0.1666018373463253  0.6665996600542725  0.3645480332555775
 -0.0020798985953693  0.8322390434531151  0.6372956037041791
  0.1663377709971774  0.6666575231291606  0.5003508253087200
 -0.0015792462378904  0.8329369859210295  0.4995324638856842
 -0.0004581687811617  0.8328732803562557  0.3647440779144682
  0.1684742652892994  0.8330312762250404  0.4363330501983728
  0.1632417853447325  0.6666264872816153  0.6369447180594914
  0.1625014972167255  0.8312025069030820  0.5644571003021600
  0.4996517454174318  0.6667165752066120  0.3646829269676064
  0.3295649350280054  0.8340410304403292  0.6356402467043738
  0.4993648549376997  0.6667046857076093  0.5006650367579549
  0.3330886815565716  0.8332131564209930  0.5019150101697655
  0.3332587448960320  0.8333731571086318  0.3638130319371455
  0.4984867530056609  0.8346467308857620  0.4367166776202584
  0.4987937923599062  0.6667138654708251  0.6386851604582070
  0.5011296143066560  0.8310805468101019  0.5665316072030987
  0.8326224710737801  0.6666420599131749  0.3642905589358934
  0.6662283736169956  0.8331262458338442  0.6382639131970596
  0.8311306998116023  0.6666530140126293  0.5006708416000419
  0.6651804160525775  0.8331018935498785  0.5011901604374842
  0.6658358942541043  0.8333709684953431  0.3640757739460068
  0.8304021792654244  0.8329218873167875  0.4363294331601026
  0.8311377098049785  0.6666188871271189  0.6388872748715750
  0.8327214050097289  0.8305127696178691  0.5655067070971562
  0.6133759115436704  0.6666352835217343  0.8301202431620759
  0.5923462961236506  0.6668091873891486  0.7824982833134370
  0.5318299651423574  0.6668506965276531  0.8414090587051951
 
  0.00000000E+00  0.00000000E+00  0.00000000E+00
  0.00000000E+00  0.00000000E+00  0.00000000E+00
  0.00000000E+00  0.00000000E+00  0.00000000E+00
  0.00000000E+00  0.00000000E+00  0.00000000E+00
  0.00000000E+00  0.00000000E+00  0.00000000E+00
  0.00000000E+00  0.00000000E+00  0.00000000E+00
  0.00000000E+00  0.00000000E+00  0.00000000E+00
  0.00000000E+00  0.00000000E+00  0.00000000E+00
  0.00000000E+00  0.00000000E+00  0.00000000E+00
  0.00000000E+00  0.00000000E+00  0.00000000E+00
  0.00000000E+00  0.00000000E+00  0.00000000E+00
  0.00000000E+00  0.00000000E+00  0.00000000E+00
  0.00000000E+00  0.00000000E+00  0.00000000E+00
  0.00000000E+00  0.00000000E+00  0.00000000E+00
  0.00000000E+00  0.00000000E+00  0.00000000E+00
  0.00000000E+00  0.00000000E+00  0.00000000E+00
  0.00000000E+00  0.00000000E+00  0.00000000E+00
  0.00000000E+00  0.00000000E+00  0.00000000E+00
  0.00000000E+00  0.00000000E+00  0.00000000E+00
  0.00000000E+00  0.00000000E+00  0.00000000E+00
  0.00000000E+00  0.00000000E+00  0.00000000E+00
  0.00000000E+00  0.00000000E+00  0.00000000E+00
  0.00000000E+00  0.00000000E+00  0.00000000E+00
  0.00000000E+00  0.00000000E+00  0.00000000E+00
  0.00000000E+00  0.00000000E+00  0.00000000E+00
  0.00000000E+00  0.00000000E+00  0.00000000E+00
  0.00000000E+00  0.00000000E+00  0.00000000E+00
  0.00000000E+00  0.00000000E+00  0.00000000E+00
  0.00000000E+00  0.00000000E+00  0.00000000E+00
  0.00000000E+00  0.00000000E+00  0.00000000E+00
  0.00000000E+00  0.00000000E+00  0.00000000E+00
  0.00000000E+00  0.00000000E+00  0.00000000E+00
  0.00000000E+00  0.00000000E+00  0.00000000E+00
  0.00000000E+00  0.00000000E+00  0.00000000E+00
  0.00000000E+00  0.00000000E+00  0.00000000E+00
  0.00000000E+00  0.00000000E+00  0.00000000E+00
  0.00000000E+00  0.00000000E+00  0.00000000E+00
  0.00000000E+00  0.00000000E+00  0.00000000E+00
  0.00000000E+00  0.00000000E+00  0.00000000E+00
  0.00000000E+00  0.00000000E+00  0.00000000E+00
  0.00000000E+00  0.00000000E+00  0.00000000E+00
  0.00000000E+00  0.00000000E+00  0.00000000E+00
  0.00000000E+00  0.00000000E+00  0.00000000E+00
  0.00000000E+00  0.00000000E+00  0.00000000E+00
  0.00000000E+00  0.00000000E+00  0.00000000E+00
  0.00000000E+00  0.00000000E+00  0.00000000E+00
  0.00000000E+00  0.00000000E+00  0.00000000E+00
  0.00000000E+00  0.00000000E+00  0.00000000E+00
  0.00000000E+00  0.00000000E+00  0.00000000E+00
  0.00000000E+00  0.00000000E+00  0.00000000E+00
  0.00000000E+00  0.00000000E+00  0.00000000E+00
  0.00000000E+00  0.00000000E+00  0.00000000E+00
  0.00000000E+00  0.00000000E+00  0.00000000E+00
  0.00000000E+00  0.00000000E+00  0.00000000E+00
  0.00000000E+00  0.00000000E+00  0.00000000E+00
  0.00000000E+00  0.00000000E+00  0.00000000E+00
  0.00000000E+00  0.00000000E+00  0.00000000E+00
  0.00000000E+00  0.00000000E+00  0.00000000E+00
  0.00000000E+00  0.00000000E+00  0.00000000E+00
  0.00000000E+00  0.00000000E+00  0.00000000E+00
  0.00000000E+00  0.00000000E+00  0.00000000E+00
  0.00000000E+00  0.00000000E+00  0.00000000E+00
  0.00000000E+00  0.00000000E+00  0.00000000E+00
  0.00000000E+00  0.00000000E+00  0.00000000E+00
  0.00000000E+00  0.00000000E+00  0.00000000E+00
  0.00000000E+00  0.00000000E+00  0.00000000E+00
  0.00000000E+00  0.00000000E+00  0.00000000E+00
  0.00000000E+00  0.00000000E+00  0.00000000E+00
  0.00000000E+00  0.00000000E+00  0.00000000E+00
  0.00000000E+00  0.00000000E+00  0.00000000E+00
  0.00000000E+00  0.00000000E+00  0.00000000E+00
  0.00000000E+00  0.00000000E+00  0.00000000E+00
  0.00000000E+00  0.00000000E+00  0.00000000E+00
  0.00000000E+00  0.00000000E+00  0.00000000E+00
  0.00000000E+00  0.00000000E+00  0.00000000E+00
  0.00000000E+00  0.00000000E+00  0.00000000E+00
  0.00000000E+00  0.00000000E+00  0.00000000E+00
  0.00000000E+00  0.00000000E+00  0.00000000E+00
  0.00000000E+00  0.00000000E+00  0.00000000E+00
  0.00000000E+00  0.00000000E+00  0.00000000E+00
  0.00000000E+00  0.00000000E+00  0.00000000E+00
  0.00000000E+00  0.00000000E+00  0.00000000E+00
  0.00000000E+00  0.00000000E+00  0.00000000E+00
  0.00000000E+00  0.00000000E+00  0.00000000E+00
  0.00000000E+00  0.00000000E+00  0.00000000E+00
  0.00000000E+00  0.00000000E+00  0.00000000E+00
  0.00000000E+00  0.00000000E+00  0.00000000E+00
  0.00000000E+00  0.00000000E+00  0.00000000E+00
  0.00000000E+00  0.00000000E+00  0.00000000E+00
  0.00000000E+00  0.00000000E+00  0.00000000E+00
  0.00000000E+00  0.00000000E+00  0.00000000E+00
  0.00000000E+00  0.00000000E+00  0.00000000E+00
  0.00000000E+00  0.00000000E+00  0.00000000E+00
  0.00000000E+00  0.00000000E+00  0.00000000E+00
  0.00000000E+00  0.00000000E+00  0.00000000E+00
  0.00000000E+00  0.00000000E+00  0.00000000E+00
  0.00000000E+00  0.00000000E+00  0.00000000E+00
  0.00000000E+00  0.00000000E+00  0.00000000E+00
  0.00000000E+00  0.00000000E+00  0.00000000E+00
  0.00000000E+00  0.00000000E+00  0.00000000E+00
  0.00000000E+00  0.00000000E+00  0.00000000E+00
  0.00000000E+00  0.00000000E+00  0.00000000E+00
  0.00000000E+00  0.00000000E+00  0.00000000E+00
  0.00000000E+00  0.00000000E+00  0.00000000E+00
  0.00000000E+00  0.00000000E+00  0.00000000E+00
  0.00000000E+00  0.00000000E+00  0.00000000E+00
  0.00000000E+00  0.00000000E+00  0.00000000E+00
  0.00000000E+00  0.00000000E+00  0.00000000E+00
  0.00000000E+00  0.00000000E+00  0.00000000E+00
  0.00000000E+00  0.00000000E+00  0.00000000E+00
  0.00000000E+00  0.00000000E+00  0.00000000E+00
  0.00000000E+00  0.00000000E+00  0.00000000E+00
  0.00000000E+00  0.00000000E+00  0.00000000E+00
  0.00000000E+00  0.00000000E+00  0.00000000E+00
  0.00000000E+00  0.00000000E+00  0.00000000E+00
  0.00000000E+00  0.00000000E+00  0.00000000E+00
  0.00000000E+00  0.00000000E+00  0.00000000E+00
  0.00000000E+00  0.00000000E+00  0.00000000E+00
  0.00000000E+00  0.00000000E+00  0.00000000E+00
  0.00000000E+00  0.00000000E+00  0.00000000E+00
  0.00000000E+00  0.00000000E+00  0.00000000E+00
  0.00000000E+00  0.00000000E+00  0.00000000E+00
  0.00000000E+00  0.00000000E+00  0.00000000E+00
  0.00000000E+00  0.00000000E+00  0.00000000E+00
  0.00000000E+00  0.00000000E+00  0.00000000E+00
  0.00000000E+00  0.00000000E+00  0.00000000E+00
  0.00000000E+00  0.00000000E+00  0.00000000E+00
  0.00000000E+00  0.00000000E+00  0.00000000E+00
  0.00000000E+00  0.00000000E+00  0.00000000E+00
  0.00000000E+00  0.00000000E+00  0.00000000E+00
  0.00000000E+00  0.00000000E+00  0.00000000E+00
  0.00000000E+00  0.00000000E+00  0.00000000E+00
  0.00000000E+00  0.00000000E+00  0.00000000E+00
  0.00000000E+00  0.00000000E+00  0.00000000E+00
  0.00000000E+00  0.00000000E+00  0.00000000E+00
  0.00000000E+00  0.00000000E+00  0.00000000E+00
  0.00000000E+00  0.00000000E+00  0.00000000E+00
  0.00000000E+00  0.00000000E+00  0.00000000E+00
  0.00000000E+00  0.00000000E+00  0.00000000E+00
  0.00000000E+00  0.00000000E+00  0.00000000E+00
  0.00000000E+00  0.00000000E+00  0.00000000E+00
  0.00000000E+00  0.00000000E+00  0.00000000E+00
  0.00000000E+00  0.00000000E+00  0.00000000E+00
  0.00000000E+00  0.00000000E+00  0.00000000E+00
  0.00000000E+00  0.00000000E+00  0.00000000E+00
  0.00000000E+00  0.00000000E+00  0.00000000E+00
  0.00000000E+00  0.00000000E+00  0.00000000E+00
  0.00000000E+00  0.00000000E+00  0.00000000E+00
  0.00000000E+00  0.00000000E+00  0.00000000E+00
  0.00000000E+00  0.00000000E+00  0.00000000E+00
  0.00000000E+00  0.00000000E+00  0.00000000E+00
  0.00000000E+00  0.00000000E+00  0.00000000E+00
  0.00000000E+00  0.00000000E+00  0.00000000E+00
  0.00000000E+00  0.00000000E+00  0.00000000E+00
  0.00000000E+00  0.00000000E+00  0.00000000E+00
  0.00000000E+00  0.00000000E+00  0.00000000E+00
