 Ga2 Ni1 S4                             
   1.00000000000000     
     3.6119564946912166    0.0000000000000000    0.0000000000000000
    -1.8059782473456083    3.1280456098190670    0.0000000000000000
     0.0000000000000000    0.0000000000000000   23.8685380278520043
   Ga   Ni   S 
     2     1     4
Direct
  0.3333330666760403  0.6666668908671554  0.6413724456733263
  0.6666669348730352  0.3333331109040643  0.3586275623188797
  0.0000000014789023  0.0000000019465389  0.4999999859909607
  0.6666667514522047  0.3333333036121502  0.4516155722861228
  0.3333332484042728  0.6666666946248938  0.5483844175961963
  0.6666666702823676  0.3333333135512433  0.6858834938517475
  0.3333333268331700  0.6666666844939542  0.3141165222827667
 
  0.00000000E+00  0.00000000E+00  0.00000000E+00
  0.00000000E+00  0.00000000E+00  0.00000000E+00
  0.00000000E+00  0.00000000E+00  0.00000000E+00
  0.00000000E+00  0.00000000E+00  0.00000000E+00
  0.00000000E+00  0.00000000E+00  0.00000000E+00
  0.00000000E+00  0.00000000E+00  0.00000000E+00
  0.00000000E+00  0.00000000E+00  0.00000000E+00
