CONTCAR\(2)                             
   1.00000000000000     
    12.6843996047999994    0.0000000000000000    0.0000000000000000
     0.0000000000000000   11.4939002990999999    0.0000000000000000
     0.0000000000000000    0.0000000000000000   18.8276996612999987
   Nb   Si   Te   O 
    12     4    24     1
Direct
  0.0841542551468905  0.0839097645970207  0.4993507601522378
  0.3353666596374654  0.9192393182341848  0.5017540453233763
  0.3499886012980488  0.2174212003276919  0.5034942151598847
  0.0998190869600407  0.7899113514314255  0.5010401903309859
  0.4872433477898397  0.5567008280348437  0.5129830473153258
  0.2268027435249749  0.4394660331711707  0.5037159518420626
  0.5825014328001472  0.0842251866275710  0.5017597762226923
  0.8339009873956978  0.9176579735143295  0.4993109361849715
  0.8498382161952439  0.2172839257017928  0.5006620413982363
  0.5981158400177574  0.7864503042128970  0.5023900795933686
  0.9853030082315420  0.5656555830604059  0.5002834561848322
  0.7361626455164639  0.4409752081771177  0.5030902932061304
  0.0366063044388212  0.3275621103415895  0.4978362362647866
  0.2899979247680642  0.6776036422663680  0.5060112509634347
  0.5431250164893640  0.3178810752738535  0.5017254932374096
  0.7912214430353703  0.6805091815834916  0.4988403211024566
  0.4264742126535419  0.0678569652795056  0.6057709624912415
  0.1770511551270161  0.9347965938884374  0.3970768204992709
  0.1750793211651016  0.9361197792145233  0.6044169082264103
  0.4245693317124926  0.0709228300332762  0.3987695292073020
  0.3609272515212847  0.3820579239236606  0.6167934468202363
  0.1517739738925399  0.5999854680810190  0.4028791668256675
  0.1442132385627066  0.6000274426779105  0.6024157890557720
  0.3964483641171796  0.4130490141646349  0.4078569224256905
  0.1678123623937881  0.2427760996732422  0.6005780169878320
  0.4264563608891632  0.7531300088404621  0.4077133582670087
  0.4283742563783603  0.7646989253411199  0.6006228739154519
  0.1804582685398212  0.2480972512315048  0.4042797165577559
  0.9252775776308316  0.0676811363011184  0.6025076651750531
  0.6734061286434079  0.9334859440880268  0.3981739629530960
  0.6775035415976856  0.9350912865632871  0.6037380941817833
  0.9243976917115212  0.0696527406408687  0.3966623203401178
  0.9006828649139414  0.4063524598158287  0.6004829202278684
  0.6481063080076588  0.5971330987277302  0.4041973275276928
  0.6669817256606174  0.6083057698018590  0.6026092182836774
  0.8979508638057140  0.4082243560801069  0.4003378987510837
  0.6802673084646577  0.2466982438203962  0.5993074039135123
  0.9318911585782510  0.7569535946256881  0.4020535177108541
  0.9279875866119656  0.7571385562095297  0.5972037191095105
  0.6760570791849239  0.2495150300927914  0.4046832972374380
  0.4790348819900737  0.5018565903277112  0.6105610038264706
 
  0.00000000E+00  0.00000000E+00  0.00000000E+00
  0.00000000E+00  0.00000000E+00  0.00000000E+00
  0.00000000E+00  0.00000000E+00  0.00000000E+00
  0.00000000E+00  0.00000000E+00  0.00000000E+00
  0.00000000E+00  0.00000000E+00  0.00000000E+00
  0.00000000E+00  0.00000000E+00  0.00000000E+00
  0.00000000E+00  0.00000000E+00  0.00000000E+00
  0.00000000E+00  0.00000000E+00  0.00000000E+00
  0.00000000E+00  0.00000000E+00  0.00000000E+00
  0.00000000E+00  0.00000000E+00  0.00000000E+00
  0.00000000E+00  0.00000000E+00  0.00000000E+00
  0.00000000E+00  0.00000000E+00  0.00000000E+00
  0.00000000E+00  0.00000000E+00  0.00000000E+00
  0.00000000E+00  0.00000000E+00  0.00000000E+00
  0.00000000E+00  0.00000000E+00  0.00000000E+00
  0.00000000E+00  0.00000000E+00  0.00000000E+00
  0.00000000E+00  0.00000000E+00  0.00000000E+00
  0.00000000E+00  0.00000000E+00  0.00000000E+00
  0.00000000E+00  0.00000000E+00  0.00000000E+00
  0.00000000E+00  0.00000000E+00  0.00000000E+00
  0.00000000E+00  0.00000000E+00  0.00000000E+00
  0.00000000E+00  0.00000000E+00  0.00000000E+00
  0.00000000E+00  0.00000000E+00  0.00000000E+00
  0.00000000E+00  0.00000000E+00  0.00000000E+00
  0.00000000E+00  0.00000000E+00  0.00000000E+00
  0.00000000E+00  0.00000000E+00  0.00000000E+00
  0.00000000E+00  0.00000000E+00  0.00000000E+00
  0.00000000E+00  0.00000000E+00  0.00000000E+00
  0.00000000E+00  0.00000000E+00  0.00000000E+00
  0.00000000E+00  0.00000000E+00  0.00000000E+00
  0.00000000E+00  0.00000000E+00  0.00000000E+00
  0.00000000E+00  0.00000000E+00  0.00000000E+00
  0.00000000E+00  0.00000000E+00  0.00000000E+00
  0.00000000E+00  0.00000000E+00  0.00000000E+00
  0.00000000E+00  0.00000000E+00  0.00000000E+00
  0.00000000E+00  0.00000000E+00  0.00000000E+00
  0.00000000E+00  0.00000000E+00  0.00000000E+00
  0.00000000E+00  0.00000000E+00  0.00000000E+00
  0.00000000E+00  0.00000000E+00  0.00000000E+00
  0.00000000E+00  0.00000000E+00  0.00000000E+00
  0.00000000E+00  0.00000000E+00  0.00000000E+00
