CONTCAR\(3)                             
   1.00000000000000     
    13.9118995667000007    0.0000000000000000    0.0000000000000000
     6.9559656922000004   12.0482805079999995    0.0000000000000000
     0.0000000000000000    0.0000000000000000   17.6690006255999990
   Co   Cl   O 
    16    32     1
Direct
 -0.0001757181062907 -0.0001757181062907  0.5037634814972790
  0.2489326384034725  0.0021347231930623  0.5057008214731603
  0.5003514362125743 -0.0001757181062907  0.5037634814972790
  0.7490628313073913  0.0018743373852174  0.5040066870835924
  0.0021347181930654  0.2489326424034728  0.5057008214731603
  0.2489326244034714  0.2489326424034728  0.5057008214731603
  0.5115147603967816  0.2456666393609264  0.5094687718568520
  0.7428186442422958  0.2456666393609264  0.5094687718568520
 -0.0001757291062880  0.5003514452125715  0.5037634814972790
  0.2456666073609237  0.5115147493967771  0.5094687718568520
  0.4999999719999977  0.5000000089999972  0.4304024366495294
  0.7428185962422919  0.5115147493967771  0.5094687718568520
  0.0018743103852187  0.7490628843073920  0.5040066870835924
  0.2456666083609274  0.7428186772422950  0.5094687718568520
  0.5115147133967812  0.7428186772422950  0.5094687718568520
  0.7490628043073926  0.7490628843073920  0.5040066870835924
  0.1666699849999986  0.1666700010000000  0.4272826994743367
  0.0834470607014420  0.0834470807014365  0.5830790896411607
  0.4174821464653395  0.1666155188801970  0.4305511620743023
  0.3330958475971209  0.0834470807014365  0.5830790896411607
  0.6671775616847503  0.1656549156305102  0.4248944418340744
  0.5853504721990980  0.0779257203018738  0.5823471358146346
  0.9159123396544708  0.1666155188801970  0.4305511620743023
  0.8367136774990285  0.0779257203018738  0.5823471358146346
  0.1666154988801953  0.4174821464653395  0.4305511620743023
  0.0834470547014415  0.3330958745971195  0.5830790896411607
  0.4085352918170734  0.4085352958170737  0.4159983897210476
  0.3359195536679928  0.3359195696679941  0.5776963263312319
  0.6829394273658467  0.4085352958170737  0.4159983897210476
  0.5967730596273639  0.3064437947452830  0.5936926077002292
  0.9159123696544662  0.4174821464653395  0.4305511620743023
  0.8281508596640049  0.3359195696679941  0.5776963263312319
  0.1656548956305085  0.6671775716847511  0.4248944418340744
  0.0779257003018793  0.5853505321990958  0.5823471358146346
  0.4085352918170734  0.6829394073658521  0.4159983897210476
  0.3064438187452849  0.5967731096273610  0.5936926077002292
  0.6671775926847493  0.6671775716847511  0.4248944418340744
  0.5967731006273638  0.5967731096273610  0.5936926077002292
  0.9165384356987520  0.6669332576024999  0.4268627758963187
  0.8367136594990270  0.5853505321990958  0.5823471358146346
  0.1666154998801990  0.9159123936544682  0.4305511620743023
  0.0779256863018781  0.8367137414990267  0.5823471358146346
  0.4174821434653428  0.9159123936544682  0.4305511620743023
  0.3359195456679921  0.8281509136640023  0.5776963263312319
  0.6669332796024946  0.9165384586987504  0.4268627758963187
  0.5853504751990947  0.8367137414990267  0.5823471358146346
  0.9165383676987535  0.9165384586987504  0.4268627758963187
  0.8333298670000033  0.8333299969999999  0.5786712144153811
  0.5000900069999972  0.4999200230000014  0.5216773974517435
 
  0.00000000E+00  0.00000000E+00  0.00000000E+00
  0.00000000E+00  0.00000000E+00  0.00000000E+00
  0.00000000E+00  0.00000000E+00  0.00000000E+00
  0.00000000E+00  0.00000000E+00  0.00000000E+00
  0.00000000E+00  0.00000000E+00  0.00000000E+00
  0.00000000E+00  0.00000000E+00  0.00000000E+00
  0.00000000E+00  0.00000000E+00  0.00000000E+00
  0.00000000E+00  0.00000000E+00  0.00000000E+00
  0.00000000E+00  0.00000000E+00  0.00000000E+00
  0.00000000E+00  0.00000000E+00  0.00000000E+00
  0.00000000E+00  0.00000000E+00  0.00000000E+00
  0.00000000E+00  0.00000000E+00  0.00000000E+00
  0.00000000E+00  0.00000000E+00  0.00000000E+00
  0.00000000E+00  0.00000000E+00  0.00000000E+00
  0.00000000E+00  0.00000000E+00  0.00000000E+00
  0.00000000E+00  0.00000000E+00  0.00000000E+00
  0.00000000E+00  0.00000000E+00  0.00000000E+00
  0.00000000E+00  0.00000000E+00  0.00000000E+00
  0.00000000E+00  0.00000000E+00  0.00000000E+00
  0.00000000E+00  0.00000000E+00  0.00000000E+00
  0.00000000E+00  0.00000000E+00  0.00000000E+00
  0.00000000E+00  0.00000000E+00  0.00000000E+00
  0.00000000E+00  0.00000000E+00  0.00000000E+00
  0.00000000E+00  0.00000000E+00  0.00000000E+00
  0.00000000E+00  0.00000000E+00  0.00000000E+00
  0.00000000E+00  0.00000000E+00  0.00000000E+00
  0.00000000E+00  0.00000000E+00  0.00000000E+00
  0.00000000E+00  0.00000000E+00  0.00000000E+00
  0.00000000E+00  0.00000000E+00  0.00000000E+00
  0.00000000E+00  0.00000000E+00  0.00000000E+00
  0.00000000E+00  0.00000000E+00  0.00000000E+00
  0.00000000E+00  0.00000000E+00  0.00000000E+00
  0.00000000E+00  0.00000000E+00  0.00000000E+00
  0.00000000E+00  0.00000000E+00  0.00000000E+00
  0.00000000E+00  0.00000000E+00  0.00000000E+00
  0.00000000E+00  0.00000000E+00  0.00000000E+00
  0.00000000E+00  0.00000000E+00  0.00000000E+00
  0.00000000E+00  0.00000000E+00  0.00000000E+00
  0.00000000E+00  0.00000000E+00  0.00000000E+00
  0.00000000E+00  0.00000000E+00  0.00000000E+00
  0.00000000E+00  0.00000000E+00  0.00000000E+00
  0.00000000E+00  0.00000000E+00  0.00000000E+00
  0.00000000E+00  0.00000000E+00  0.00000000E+00
  0.00000000E+00  0.00000000E+00  0.00000000E+00
  0.00000000E+00  0.00000000E+00  0.00000000E+00
  0.00000000E+00  0.00000000E+00  0.00000000E+00
  0.00000000E+00  0.00000000E+00  0.00000000E+00
  0.00000000E+00  0.00000000E+00  0.00000000E+00
  0.00000000E+00  0.00000000E+00  0.00000000E+00
