CONTCAR\(3)                             
   1.00000000000000     
    15.7593002318999993    0.0000000000000000    0.0000000000000000
     0.0000000000000000   15.7517004013000008    0.0000000000000000
     0.0000000000000000    0.0000000000000000   17.5345993042000003
   Fe   S    O    H 
    32    40     1     1
Direct
  0.4448340232156477  0.1307592361389736  0.4967198122770013
  0.3888773355948182  0.2822846692054561  0.4968846838793592
  0.3451193154880232  0.4348651514540846  0.5067093249471439
  0.2919303390178773  0.0913112159690162  0.5089998242892921
  0.0407360729188999  0.3398662938095459  0.4952581212976411
  0.0967112516811057  0.1872341522072366  0.4972249385252044
  0.1396118627969348  0.0339964486353282  0.5085590683625369
  0.1931233314783444  0.3793819116964499  0.5063385160336591
  0.9443367245242480  0.1309599097998368  0.4964789128537149
  0.8883852780787426  0.2835810511554890  0.4966614154545783
  0.8471702579576781  0.4373728556601066  0.5076339606283562
  0.7921692138316676  0.0901704073206653  0.5087150496703237
  0.5415799718423238  0.3404966278953727  0.4967531696411004
  0.5971781765632810  0.1877804113812442  0.4973995795246536
  0.6396435054417147  0.0342386119166018  0.5081642498557953
  0.6942536053789158  0.3817621842783090  0.5083211454128752
  0.4454208186769817  0.6357539257330390  0.4966049609594376
  0.3898162922930215  0.7869520438669622  0.4983577811710697
  0.3476144359505675  0.9393597708894115  0.5093159079010423
  0.2953462424785857  0.5879999516662561  0.5008255028072626
  0.0434061025116966  0.8395826179759907  0.4982568526873692
  0.0987063657610640  0.6868849197312497  0.4975366681552211
  0.1413484153532681  0.5331284209230688  0.5049303482847289
  0.1955680854104677  0.8813756104557091  0.5094642814993328
  0.9454484884766692  0.6311390153964999  0.4980213539357909
  0.8908937989422926  0.7839104218797918  0.4993566228388115
  0.8477257826984660  0.9374357099661828  0.5088720502032592
  0.7925705673228205  0.5904414661665465  0.5092146952477941
  0.5427079533777490  0.8417244601557329  0.4976724276654646
  0.5976821621374638  0.6887030345286110  0.4984760634453427
  0.6396536017364693  0.5347509841866168  0.5082009442632515
  0.6950934674714887  0.8815388525417041  0.5098043254903651
  0.4931220779563433  0.2356091751073921  0.5678608604948864
  0.3920797157039369  0.0432139320048371  0.5801842762912546
  0.3449329735887718  0.1787581442340080  0.4254780191196062
  0.2971538788083780  0.3334942492712366  0.5757896761909150
  0.2429899619348896  0.4823361845478771  0.4336801073883025
  0.0494196252000240  0.0851982358980225  0.4280782582529130
  0.0937448408279462  0.4304752312217693  0.5761945732950419
  0.1405152271194091  0.2900386012921471  0.4245384391505886
  0.1867530533408327  0.1360339694839140  0.5777649484059860
  0.4364201287363938  0.3840688206836482  0.4269265982076910
  0.9925970677331200  0.2360308672214619  0.5672790119535412
  0.8923259805467069  0.0418452753883183  0.5794593836475429
  0.8440990003902246  0.1792435428783835  0.4256551924268996
  0.7990057651555523  0.3359840982075435  0.5770405893045457
  0.7432476416260980  0.4865326021947089  0.4375459226388083
  0.5498519073403422  0.0860415320218556  0.4279500107360518
  0.5941029325022397  0.4306427189404607  0.5788037922066370
  0.6417365442631420  0.2919691267634454  0.4261716982267981
  0.6873230031139694  0.1359700296520042  0.5773930585185522
  0.9357365188058188  0.3847702433721059  0.4264643119929417
  0.4934903521562378  0.7379572468976929  0.5688989985736361
  0.3936260038822471  0.5412747461430142  0.5729117081370716
  0.3456851759179700  0.6844805987983367  0.4255743262346468
  0.3004862230480706  0.8379686448204419  0.5790689291414851
  0.2437148608617249  0.9862185430313288  0.4382887636089731
  0.0493186434502205  0.5862780894523599  0.4280470333300479
  0.0952716701448365  0.9300003823366285  0.5799705090726517
  0.1432311798129647  0.7913557954948609  0.4274102743515973
  0.1933072100679133  0.6336053727592664  0.5726508415686533
  0.4378725828674867  0.8880670670809185  0.4294065325167317
  0.9953464254464691  0.7347918502498615  0.5693063793112637
  0.8925450434793329  0.5407634936854703  0.5794057098992071
  0.8455231311151854  0.6806693494277853  0.4278612382585620
  0.8000888398920742  0.8360610204203404  0.5784135952373752
  0.7437326789482928  0.9852965586047281  0.4380327858172317
  0.5495159374952849  0.5874348700451221  0.4286654148948492
  0.5950212011524776  0.9310003137218690  0.5800427514849088
  0.6428187863248771  0.7921955079018640  0.4274016237818229
  0.6876159269033559  0.6358085698041501  0.5779523038875213
  0.9384602484417851  0.8852085175072036  0.4297719439780334
  0.3789520079229760  0.5582003363449309  0.6673274901642907
  0.3266951545647833  0.5917040194995847  0.6728294310911511
 
  0.00000000E+00  0.00000000E+00  0.00000000E+00
  0.00000000E+00  0.00000000E+00  0.00000000E+00
  0.00000000E+00  0.00000000E+00  0.00000000E+00
  0.00000000E+00  0.00000000E+00  0.00000000E+00
  0.00000000E+00  0.00000000E+00  0.00000000E+00
  0.00000000E+00  0.00000000E+00  0.00000000E+00
  0.00000000E+00  0.00000000E+00  0.00000000E+00
  0.00000000E+00  0.00000000E+00  0.00000000E+00
  0.00000000E+00  0.00000000E+00  0.00000000E+00
  0.00000000E+00  0.00000000E+00  0.00000000E+00
  0.00000000E+00  0.00000000E+00  0.00000000E+00
  0.00000000E+00  0.00000000E+00  0.00000000E+00
  0.00000000E+00  0.00000000E+00  0.00000000E+00
  0.00000000E+00  0.00000000E+00  0.00000000E+00
  0.00000000E+00  0.00000000E+00  0.00000000E+00
  0.00000000E+00  0.00000000E+00  0.00000000E+00
  0.00000000E+00  0.00000000E+00  0.00000000E+00
  0.00000000E+00  0.00000000E+00  0.00000000E+00
  0.00000000E+00  0.00000000E+00  0.00000000E+00
  0.00000000E+00  0.00000000E+00  0.00000000E+00
  0.00000000E+00  0.00000000E+00  0.00000000E+00
  0.00000000E+00  0.00000000E+00  0.00000000E+00
  0.00000000E+00  0.00000000E+00  0.00000000E+00
  0.00000000E+00  0.00000000E+00  0.00000000E+00
  0.00000000E+00  0.00000000E+00  0.00000000E+00
  0.00000000E+00  0.00000000E+00  0.00000000E+00
  0.00000000E+00  0.00000000E+00  0.00000000E+00
  0.00000000E+00  0.00000000E+00  0.00000000E+00
  0.00000000E+00  0.00000000E+00  0.00000000E+00
  0.00000000E+00  0.00000000E+00  0.00000000E+00
  0.00000000E+00  0.00000000E+00  0.00000000E+00
  0.00000000E+00  0.00000000E+00  0.00000000E+00
  0.00000000E+00  0.00000000E+00  0.00000000E+00
  0.00000000E+00  0.00000000E+00  0.00000000E+00
  0.00000000E+00  0.00000000E+00  0.00000000E+00
  0.00000000E+00  0.00000000E+00  0.00000000E+00
  0.00000000E+00  0.00000000E+00  0.00000000E+00
  0.00000000E+00  0.00000000E+00  0.00000000E+00
  0.00000000E+00  0.00000000E+00  0.00000000E+00
  0.00000000E+00  0.00000000E+00  0.00000000E+00
  0.00000000E+00  0.00000000E+00  0.00000000E+00
  0.00000000E+00  0.00000000E+00  0.00000000E+00
  0.00000000E+00  0.00000000E+00  0.00000000E+00
  0.00000000E+00  0.00000000E+00  0.00000000E+00
  0.00000000E+00  0.00000000E+00  0.00000000E+00
  0.00000000E+00  0.00000000E+00  0.00000000E+00
  0.00000000E+00  0.00000000E+00  0.00000000E+00
  0.00000000E+00  0.00000000E+00  0.00000000E+00
  0.00000000E+00  0.00000000E+00  0.00000000E+00
  0.00000000E+00  0.00000000E+00  0.00000000E+00
  0.00000000E+00  0.00000000E+00  0.00000000E+00
  0.00000000E+00  0.00000000E+00  0.00000000E+00
  0.00000000E+00  0.00000000E+00  0.00000000E+00
  0.00000000E+00  0.00000000E+00  0.00000000E+00
  0.00000000E+00  0.00000000E+00  0.00000000E+00
  0.00000000E+00  0.00000000E+00  0.00000000E+00
  0.00000000E+00  0.00000000E+00  0.00000000E+00
  0.00000000E+00  0.00000000E+00  0.00000000E+00
  0.00000000E+00  0.00000000E+00  0.00000000E+00
  0.00000000E+00  0.00000000E+00  0.00000000E+00
  0.00000000E+00  0.00000000E+00  0.00000000E+00
  0.00000000E+00  0.00000000E+00  0.00000000E+00
  0.00000000E+00  0.00000000E+00  0.00000000E+00
  0.00000000E+00  0.00000000E+00  0.00000000E+00
  0.00000000E+00  0.00000000E+00  0.00000000E+00
  0.00000000E+00  0.00000000E+00  0.00000000E+00
  0.00000000E+00  0.00000000E+00  0.00000000E+00
  0.00000000E+00  0.00000000E+00  0.00000000E+00
  0.00000000E+00  0.00000000E+00  0.00000000E+00
  0.00000000E+00  0.00000000E+00  0.00000000E+00
  0.00000000E+00  0.00000000E+00  0.00000000E+00
  0.00000000E+00  0.00000000E+00  0.00000000E+00
  0.00000000E+00  0.00000000E+00  0.00000000E+00
  0.00000000E+00  0.00000000E+00  0.00000000E+00
