CONTCAR\(5)                             
   1.00000000000000     
    10.8753004073999993    0.0000000000000000    0.0000000000000000
     0.0000000000000000   10.8753004073999993    0.0000000000000000
     0.0000000000000000    0.0000000000000000   21.9909000397000014
   Hf   Si   Te   O    H 
    18    18    18     1     1
Direct
  0.1641800748840683  0.0022914492389816  0.5950307179446567
  0.0004165420486776  0.1659255947487369  0.4038693568423962
  0.5010266329117541  0.9984918322439527  0.5968397388603822
  0.3344039354736944  0.1659214003927565  0.4047704220553093
  0.8365731104889909  0.0023869118276229  0.5950156192251669
  0.6664797934958312  0.1660070616684943  0.4046838121436164
  0.1641012495086772  0.3297295257656243  0.5950393750902732
  0.0003514069779949  0.4997706644546979  0.4046136311464913
  0.5004090515266069  0.3342652096289269  0.5970836571358787
  0.3345671303457223  0.4997843789365815  0.4059689435783744
  0.8365241272357412  0.3297396430412776  0.5950188173850258
  0.6663389457861680  0.4999225427581694  0.4059639714410250
  0.1679731928364221  0.6649893653334580  0.5968312541950057
  0.0004322544768641  0.8318485237122841  0.4047650695955882
  0.5003696035586923  0.6665083496650693  0.6059857813946545
  0.3345787345233609  0.8316562628208229  0.4061655730942715
  0.8325603233974346  0.6656950381021913  0.5969238191180443
  0.6664835064231649  0.8317213622346825  0.4060406556420346
  0.0004140005530565  0.9989347126484732  0.4994453405519783
  0.1674398988773730  0.1659762539977979  0.4994276742451597
  0.3340970955281775  0.9995069887789435  0.5007053266823963
  0.5004192562938748  0.1659808496057206  0.5007151186992115
  0.6667971536641149  0.9996152712319588  0.5006084110265936
  0.8332543062965011  0.1660345453856827  0.4993734817708786
  0.0003472597231428  0.3330757324827155  0.4994142329973542
  0.1667349781510878  0.4993605374287394  0.5005400889637960
  0.3339561527773303  0.3324019434455179  0.5007050040226396
  0.5004918589161906  0.5001746337808560  0.5025252158307066
  0.6668407845748489  0.3324405304848664  0.5006411644241077
  0.8339462990526695  0.4994663631016991  0.5005458361908333
  0.0003720246000621  0.6658254162976944  0.5006090236793417
  0.1669053588208435  0.8321973058374171  0.5006898335232344
  0.3346867074984317  0.6656246052240304  0.5025243611788501
  0.5005680532954961  0.8312948189307549  0.5027075288169146
  0.6664018944813948  0.6657788751123445  0.5024327475272803
  0.8339654162017652  0.8323572722668422  0.5006895335614633
  0.0003421614664839  0.1659595365606166  0.6620108667266746
  0.1677422223101334  0.9985213858844904  0.3409026994099944
  0.3343433663992634  0.1659178170295358  0.6599174122505100
  0.5004599020716766  0.9982202142984624  0.3412107711635569
  0.6664488374669070  0.1661330635566383  0.6600545762897578
  0.8332028311937235  0.9986750991970554  0.3408144924601645
  0.0002944549270344  0.4996417392890836  0.6600126622771837
  0.1676668115463861  0.3331727921785406  0.3407254061521211
  0.3248568865045317  0.4907337230129463  0.6597814776901071
  0.5003854289203500  0.3333261960174596  0.3407805695247726
  0.6761311003942786  0.4907818646311674  0.6594000197417720
  0.8331914564944024  0.3331708710304350  0.3406101254550120
  0.0004891116869031  0.8320389780979018  0.6598132669443306
  0.1680245178650630  0.6658734753101606  0.3410150796854647
  0.3247504295338704  0.8412096008098563  0.6588787550182119
  0.5004261468668803  0.6658862291519051  0.3415587977670607
  0.6761581933638970  0.8411739000979215  0.6594636785513822
  0.8329348920717867  0.6658963997692741  0.3408107548454423
  0.5059936215140625  0.6572340600520954  0.7018880204647220
  0.4742295161961436  0.7175712974080656  0.7305508260007954
 
  0.00000000E+00  0.00000000E+00  0.00000000E+00
  0.00000000E+00  0.00000000E+00  0.00000000E+00
  0.00000000E+00  0.00000000E+00  0.00000000E+00
  0.00000000E+00  0.00000000E+00  0.00000000E+00
  0.00000000E+00  0.00000000E+00  0.00000000E+00
  0.00000000E+00  0.00000000E+00  0.00000000E+00
  0.00000000E+00  0.00000000E+00  0.00000000E+00
  0.00000000E+00  0.00000000E+00  0.00000000E+00
  0.00000000E+00  0.00000000E+00  0.00000000E+00
  0.00000000E+00  0.00000000E+00  0.00000000E+00
  0.00000000E+00  0.00000000E+00  0.00000000E+00
  0.00000000E+00  0.00000000E+00  0.00000000E+00
  0.00000000E+00  0.00000000E+00  0.00000000E+00
  0.00000000E+00  0.00000000E+00  0.00000000E+00
  0.00000000E+00  0.00000000E+00  0.00000000E+00
  0.00000000E+00  0.00000000E+00  0.00000000E+00
  0.00000000E+00  0.00000000E+00  0.00000000E+00
  0.00000000E+00  0.00000000E+00  0.00000000E+00
  0.00000000E+00  0.00000000E+00  0.00000000E+00
  0.00000000E+00  0.00000000E+00  0.00000000E+00
  0.00000000E+00  0.00000000E+00  0.00000000E+00
  0.00000000E+00  0.00000000E+00  0.00000000E+00
  0.00000000E+00  0.00000000E+00  0.00000000E+00
  0.00000000E+00  0.00000000E+00  0.00000000E+00
  0.00000000E+00  0.00000000E+00  0.00000000E+00
  0.00000000E+00  0.00000000E+00  0.00000000E+00
  0.00000000E+00  0.00000000E+00  0.00000000E+00
  0.00000000E+00  0.00000000E+00  0.00000000E+00
  0.00000000E+00  0.00000000E+00  0.00000000E+00
  0.00000000E+00  0.00000000E+00  0.00000000E+00
  0.00000000E+00  0.00000000E+00  0.00000000E+00
  0.00000000E+00  0.00000000E+00  0.00000000E+00
  0.00000000E+00  0.00000000E+00  0.00000000E+00
  0.00000000E+00  0.00000000E+00  0.00000000E+00
  0.00000000E+00  0.00000000E+00  0.00000000E+00
  0.00000000E+00  0.00000000E+00  0.00000000E+00
  0.00000000E+00  0.00000000E+00  0.00000000E+00
  0.00000000E+00  0.00000000E+00  0.00000000E+00
  0.00000000E+00  0.00000000E+00  0.00000000E+00
  0.00000000E+00  0.00000000E+00  0.00000000E+00
  0.00000000E+00  0.00000000E+00  0.00000000E+00
  0.00000000E+00  0.00000000E+00  0.00000000E+00
  0.00000000E+00  0.00000000E+00  0.00000000E+00
  0.00000000E+00  0.00000000E+00  0.00000000E+00
  0.00000000E+00  0.00000000E+00  0.00000000E+00
  0.00000000E+00  0.00000000E+00  0.00000000E+00
  0.00000000E+00  0.00000000E+00  0.00000000E+00
  0.00000000E+00  0.00000000E+00  0.00000000E+00
  0.00000000E+00  0.00000000E+00  0.00000000E+00
  0.00000000E+00  0.00000000E+00  0.00000000E+00
  0.00000000E+00  0.00000000E+00  0.00000000E+00
  0.00000000E+00  0.00000000E+00  0.00000000E+00
  0.00000000E+00  0.00000000E+00  0.00000000E+00
  0.00000000E+00  0.00000000E+00  0.00000000E+00
  0.00000000E+00  0.00000000E+00  0.00000000E+00
  0.00000000E+00  0.00000000E+00  0.00000000E+00
