CONTCAR\(4)                             
   1.00000000000000     
    10.8315000533999992    0.0000000000000000    0.0000000000000000
     5.4156999588000003    9.3802674871999994    0.0000000000000000
     0.0000000000000000    0.0000000000000000   21.2775001525999983
   Ti   Te   P    O    H 
    18    18     9     1     1
Direct
  0.1181822270908413  0.1151568445504552  0.4387271325393201
  0.2286914114999448  0.2248798721093195  0.5627449108128246
  0.4524131933679669  0.1142071422011597  0.4389181992750792
  0.5715038026891577  0.2076346927325687  0.5627946627408136
  0.7847005012335231  0.1143946963478157  0.4390929879135541
  0.8975863927103447  0.2254121354707479  0.5629798259145602
  0.1174281922883154  0.4491138592730337  0.4389501423985109
  0.2117316318557627  0.5682394750095128  0.5622756407008254
  0.4515478620151683  0.4482711771540693  0.4408987567497462
  0.5714916916770107  0.5689835785482060  0.5629879548756094
  0.7848130960869995  0.4490276186580076  0.4391290305612543
  0.8947959216103811  0.5619553107929605  0.5628014041770157
  0.1173313693800324  0.7818071071466548  0.4389191588751444
  0.2285164837075868  0.8947872899501874  0.5626912803596440
  0.4523449152844634  0.7816523922195415  0.4389457164990986
  0.5645452875240125  0.8918111564177522  0.5629021501026656
  0.7847630349549490  0.7816425974802357  0.4364832239667464
  0.8949849349057786  0.8916146195641019  0.5627915069384244
  0.2296382595899331  0.2261052852367555  0.3522905733628079
  0.1183241192894684  0.1149848120936312  0.6507016772928864
  0.5619324669350121  0.2276763673937765  0.3526711162649505
  0.4505059653413710  0.1130720519468369  0.6505649968860254
  0.8954283348114345  0.2262818238109787  0.3524019952484352
  0.7876247261567428  0.1129856662715696  0.6505553433432709
  0.2308221762181972  0.5586063090244124  0.3526765961640024
  0.1162915358431249  0.4471765008075366  0.6502925447007257
  0.5620252442150289  0.5584548526235338  0.3527377009976647
  0.4505511811730614  0.4489781160204416  0.6339691841849344
  0.8971351660910969  0.5569030089488507  0.3508445580152824
  0.7878713127522943  0.4474836145155408  0.6506186248843093
  0.2296504269412125  0.8922891693633233  0.3522869487599536
  0.1163140618965173  0.7846881982184115  0.6502524083370957
  0.5601870867018803  0.8939028364442549  0.3507505122212748
  0.4504637490321031  0.7847167819731951  0.6506311907782631
  0.8969919933694754  0.8942348507492639  0.3508203981651690
  0.7847587714800710  0.7819575511205059  0.6505266722287928
  0.0068406358223072  0.0039428260216496  0.5007629891578205
  0.3408468930169164  0.0037449269686221  0.5006210441953840
  0.6764113105773646  0.9983788370339113  0.4988453213345281
  0.0068868632587780  0.3376709104400604  0.5008506786986473
  0.3404599074115069  0.3369506627053056  0.5027232689316250
  0.6734558799616721  0.3373500129372502  0.5031059875637496
  0.0014932967300822  0.6734107231029327  0.4986913138100135
  0.3404642327688876  0.6707608588168341  0.5027219381999686
  0.6763685203522769  0.6734282647498659  0.4988391503146303
  0.4429016974462456  0.4560794575799250  0.7279698960002960
  0.3453730319336970  0.4808125484544874  0.7393115135567072
 
  0.00000000E+00  0.00000000E+00  0.00000000E+00
  0.00000000E+00  0.00000000E+00  0.00000000E+00
  0.00000000E+00  0.00000000E+00  0.00000000E+00
  0.00000000E+00  0.00000000E+00  0.00000000E+00
  0.00000000E+00  0.00000000E+00  0.00000000E+00
  0.00000000E+00  0.00000000E+00  0.00000000E+00
  0.00000000E+00  0.00000000E+00  0.00000000E+00
  0.00000000E+00  0.00000000E+00  0.00000000E+00
  0.00000000E+00  0.00000000E+00  0.00000000E+00
  0.00000000E+00  0.00000000E+00  0.00000000E+00
  0.00000000E+00  0.00000000E+00  0.00000000E+00
  0.00000000E+00  0.00000000E+00  0.00000000E+00
  0.00000000E+00  0.00000000E+00  0.00000000E+00
  0.00000000E+00  0.00000000E+00  0.00000000E+00
  0.00000000E+00  0.00000000E+00  0.00000000E+00
  0.00000000E+00  0.00000000E+00  0.00000000E+00
  0.00000000E+00  0.00000000E+00  0.00000000E+00
  0.00000000E+00  0.00000000E+00  0.00000000E+00
  0.00000000E+00  0.00000000E+00  0.00000000E+00
  0.00000000E+00  0.00000000E+00  0.00000000E+00
  0.00000000E+00  0.00000000E+00  0.00000000E+00
  0.00000000E+00  0.00000000E+00  0.00000000E+00
  0.00000000E+00  0.00000000E+00  0.00000000E+00
  0.00000000E+00  0.00000000E+00  0.00000000E+00
  0.00000000E+00  0.00000000E+00  0.00000000E+00
  0.00000000E+00  0.00000000E+00  0.00000000E+00
  0.00000000E+00  0.00000000E+00  0.00000000E+00
  0.00000000E+00  0.00000000E+00  0.00000000E+00
  0.00000000E+00  0.00000000E+00  0.00000000E+00
  0.00000000E+00  0.00000000E+00  0.00000000E+00
  0.00000000E+00  0.00000000E+00  0.00000000E+00
  0.00000000E+00  0.00000000E+00  0.00000000E+00
  0.00000000E+00  0.00000000E+00  0.00000000E+00
  0.00000000E+00  0.00000000E+00  0.00000000E+00
  0.00000000E+00  0.00000000E+00  0.00000000E+00
  0.00000000E+00  0.00000000E+00  0.00000000E+00
  0.00000000E+00  0.00000000E+00  0.00000000E+00
  0.00000000E+00  0.00000000E+00  0.00000000E+00
  0.00000000E+00  0.00000000E+00  0.00000000E+00
  0.00000000E+00  0.00000000E+00  0.00000000E+00
  0.00000000E+00  0.00000000E+00  0.00000000E+00
  0.00000000E+00  0.00000000E+00  0.00000000E+00
  0.00000000E+00  0.00000000E+00  0.00000000E+00
  0.00000000E+00  0.00000000E+00  0.00000000E+00
  0.00000000E+00  0.00000000E+00  0.00000000E+00
  0.00000000E+00  0.00000000E+00  0.00000000E+00
  0.00000000E+00  0.00000000E+00  0.00000000E+00
