CONTCAR\(4)                             
   1.00000000000000     
    10.6176996231000000    0.0000000000000000    0.0000000000000000
     0.0000000000000000   17.6849002838000011    0.0000000000000000
     0.0000000000000000    0.0000000000000000   18.8054008484000015
   K    Fe   Se   O    H 
     8    16    24     2     1
Direct
  0.3740324111875726  0.2485447527170226  0.4108972329095464
  0.1232521543103691  0.2501665852755492  0.5893980068867506
  0.8735644268398148  0.2485643671516639  0.4115141344562291
  0.6252055881363662  0.2503560910434158  0.5894432208636711
  0.3737980875325867  0.7497820699740386  0.4036901665928032
  0.1447055360312447  0.7483462934890344  0.6176536194169843
  0.8736717671132371  0.7501108551748423  0.4096498452525191
  0.6034511395568138  0.7489879594592250  0.6198363607953886
  0.2493160819904267  0.0716379130777920  0.5006847891447974
  0.9991664416887122  0.0698796634081008  0.5015769724235088
  0.2490879396942729  0.9263651936742565  0.4943290354767035
  0.9990937272413548  0.9239639873343848  0.4986982966226431
  0.7491968916505249  0.0697772224135342  0.5012281755194701
  0.4989706271050641  0.0715432158457405  0.5003471217219618
  0.7493130792681292  0.9239928209064203  0.4983100846108461
  0.4989184288510318  0.9262898682347203  0.4940984955957904
  0.2489663463174489  0.5723151677228198  0.4920073819939334
  0.9991997003017623  0.5744973877935149  0.4961694877742047
  0.2491968815203889  0.4274041875146313  0.4968877788604582
  0.9990960802045191  0.4287599754855320  0.4982945007985725
  0.7494190862087893  0.5745800448023428  0.4962666515985816
  0.4994753625172958  0.5724131404103620  0.4921625932737262
  0.7489807085375885  0.4288755143389341  0.4984195689423432
  0.4987971915357917  0.4275881702274518  0.4975305064593158
  0.3737721544556948  0.0027060750092989  0.4234519999993400
  0.1262709980342852  0.9953915791735489  0.5722764812272904
  0.3745112709991615  0.1412576841155194  0.5725494119372607
  0.1223877343582715  0.1432744556442652  0.4317916801015023
  0.1225065650728556  0.8568804518410827  0.4245276326577754
  0.3743319569185810  0.8517739216160227  0.5586205189461904
  0.8747238621550092  0.9985808268934825  0.4267691279081027
  0.6219873846932321  0.9953225061009934  0.5718952884697410
  0.8737227720028263  0.1392005026150821  0.5736278108671876
  0.6258377857734543  0.1430381449119215  0.4313476725364913
  0.6255548341039573  0.8573482546377115  0.4238116977129850
  0.8739794522140374  0.8504470218910576  0.5665375475745978
  0.3743283459868867  0.4971003558622979  0.4207170313899110
  0.1261834986177926  0.5026193720410930  0.5693957794502084
  0.3739840271691851  0.6452992255866273  0.5583068615458865
  0.1225997583152986  0.6426775367380057  0.4228607079861456
  0.1222578789726453  0.3557895765881789  0.4280883144737356
  0.3737310990997526  0.3575995228604003  0.5691923023137083
  0.8741314136985858  0.5003975050686832  0.4239483078894314
  0.6222214589492753  0.5029799080553849  0.5697058949727736
  0.8744331241145996  0.6470317372610115  0.5651619875080666
  0.6258259264493861  0.6425789784713301  0.4228187852552061
  0.6251125195657352  0.3557541526141623  0.4286684877036411
  0.8741319380491012  0.3595066609438171  0.5706513688997653
  0.3691440143148074  0.7639884030318774  0.6789947284214843
  0.4557203076246319  0.7544505157588085  0.7394293014490446
  0.4253023059498678  0.7931425111930240  0.7722892198117620
 
  0.00000000E+00  0.00000000E+00  0.00000000E+00
  0.00000000E+00  0.00000000E+00  0.00000000E+00
  0.00000000E+00  0.00000000E+00  0.00000000E+00
  0.00000000E+00  0.00000000E+00  0.00000000E+00
  0.00000000E+00  0.00000000E+00  0.00000000E+00
  0.00000000E+00  0.00000000E+00  0.00000000E+00
  0.00000000E+00  0.00000000E+00  0.00000000E+00
  0.00000000E+00  0.00000000E+00  0.00000000E+00
  0.00000000E+00  0.00000000E+00  0.00000000E+00
  0.00000000E+00  0.00000000E+00  0.00000000E+00
  0.00000000E+00  0.00000000E+00  0.00000000E+00
  0.00000000E+00  0.00000000E+00  0.00000000E+00
  0.00000000E+00  0.00000000E+00  0.00000000E+00
  0.00000000E+00  0.00000000E+00  0.00000000E+00
  0.00000000E+00  0.00000000E+00  0.00000000E+00
  0.00000000E+00  0.00000000E+00  0.00000000E+00
  0.00000000E+00  0.00000000E+00  0.00000000E+00
  0.00000000E+00  0.00000000E+00  0.00000000E+00
  0.00000000E+00  0.00000000E+00  0.00000000E+00
  0.00000000E+00  0.00000000E+00  0.00000000E+00
  0.00000000E+00  0.00000000E+00  0.00000000E+00
  0.00000000E+00  0.00000000E+00  0.00000000E+00
  0.00000000E+00  0.00000000E+00  0.00000000E+00
  0.00000000E+00  0.00000000E+00  0.00000000E+00
  0.00000000E+00  0.00000000E+00  0.00000000E+00
  0.00000000E+00  0.00000000E+00  0.00000000E+00
  0.00000000E+00  0.00000000E+00  0.00000000E+00
  0.00000000E+00  0.00000000E+00  0.00000000E+00
  0.00000000E+00  0.00000000E+00  0.00000000E+00
  0.00000000E+00  0.00000000E+00  0.00000000E+00
  0.00000000E+00  0.00000000E+00  0.00000000E+00
  0.00000000E+00  0.00000000E+00  0.00000000E+00
  0.00000000E+00  0.00000000E+00  0.00000000E+00
  0.00000000E+00  0.00000000E+00  0.00000000E+00
  0.00000000E+00  0.00000000E+00  0.00000000E+00
  0.00000000E+00  0.00000000E+00  0.00000000E+00
  0.00000000E+00  0.00000000E+00  0.00000000E+00
  0.00000000E+00  0.00000000E+00  0.00000000E+00
  0.00000000E+00  0.00000000E+00  0.00000000E+00
  0.00000000E+00  0.00000000E+00  0.00000000E+00
  0.00000000E+00  0.00000000E+00  0.00000000E+00
  0.00000000E+00  0.00000000E+00  0.00000000E+00
  0.00000000E+00  0.00000000E+00  0.00000000E+00
  0.00000000E+00  0.00000000E+00  0.00000000E+00
  0.00000000E+00  0.00000000E+00  0.00000000E+00
  0.00000000E+00  0.00000000E+00  0.00000000E+00
  0.00000000E+00  0.00000000E+00  0.00000000E+00
  0.00000000E+00  0.00000000E+00  0.00000000E+00
  0.00000000E+00  0.00000000E+00  0.00000000E+00
  0.00000000E+00  0.00000000E+00  0.00000000E+00
  0.00000000E+00  0.00000000E+00  0.00000000E+00
