 Ti2 S6                                 
   1.00000000000000     
     3.3989388738978694    0.0000000000000000    0.0000000000000000
     0.0000000000000000    4.9627600743575186    0.0000000000000000
     0.0000000000000000    0.0000000000000000   20.6939919630559963
   Ti   S 
     2     6
Direct
  0.2499999965861832  0.1301878079824590  0.5648741579455177
  0.7499999886179580  0.6303671300882527  0.4351251272056018
  0.2499999978283469  0.4246409430775415  0.3623892571260754
  0.7500000051279656  0.3359227738983677  0.6376153370353848
  0.7500000044947086  0.1303189401251927  0.4787613123424848
  0.2500000042769699  0.6303074897495691  0.5212371880895432
  0.7500000033283953  0.9245965195237602  0.6376710724137098
  0.2499999997394724  0.8359803955548557  0.3623265478416826
 
  0.00000000E+00  0.00000000E+00  0.00000000E+00
  0.00000000E+00  0.00000000E+00  0.00000000E+00
  0.00000000E+00  0.00000000E+00  0.00000000E+00
  0.00000000E+00  0.00000000E+00  0.00000000E+00
  0.00000000E+00  0.00000000E+00  0.00000000E+00
  0.00000000E+00  0.00000000E+00  0.00000000E+00
  0.00000000E+00  0.00000000E+00  0.00000000E+00
  0.00000000E+00  0.00000000E+00  0.00000000E+00
