CONTCAR\(13)                            
   1.00000000000000     
    13.5039997101000004    0.0000000000000000    0.0000000000000000
    -1.6652898762999999    9.0626697148000002    0.0000000000000000
     0.0000000000000000    0.0000000000000000   22.9836997986000000
   Tl   Cu   Se   O 
     6     9    18    54
Direct
  0.2944394043862615  0.9166601887505573  0.6353671222441268
  0.2362231974197551  0.5703667637266115  0.3641179776160362
  0.6277694183862662  0.9166601887505573  0.6353671222441268
  0.5695631514197580  0.5703667637266115  0.3641179776160362
  0.9610993263862623  0.9166601887505573  0.6353671222441268
  0.9028932014197587  0.5703667637266115  0.3641179776160362
  0.0332316166306242  0.2952426653649337  0.4492500463905403
  0.1639641338056862  0.1929149761338131  0.5514704071558418
  0.0990831284830906  0.7441128384910571  0.5000067267352135
  0.3665715956306256  0.2952426653649337  0.4492500463905403
  0.4972941538056843  0.1929249731338196  0.5514704071558418
  0.4324131254830906  0.7441128384910571  0.5000067267352135
  0.6999016446306227  0.2952426653649337  0.4492500463905403
  0.8306341258056814  0.1929249731338196  0.5514704071558418
  0.7657532024830860  0.7441128384910571  0.5000067267352135
  0.2385738392991884  0.5173057184772485  0.5095641292220627
  0.1148967913042637  0.8387354198236361  0.3556924772610245
  0.0826598187443225  0.6485196294057013  0.6442549548774458
  0.3328575415013266  0.2505815725212312  0.6572872153273328
  0.1983848857086315  0.2368113665521028  0.3428276270212280
  0.2923061355072281  0.9701954823866971  0.4905613491477702
  0.5719138642991939  0.5173057184772485  0.5095641292220627
  0.4482367983042677  0.8387354198236361  0.3556924772610245
  0.4159898327443204  0.6485196294057013  0.6442549548774458
  0.6661875195013280  0.2505815725212312  0.6572872153273328
  0.5317148997086368  0.2368113665521028  0.3428276270212280
  0.6256361495072257  0.9701954823866971  0.4905613491477702
  0.9052438432991923  0.5173057184772485  0.5095641292220627
  0.7815668123042652  0.8387354198236361  0.3556924772610245
  0.7493298047443249  0.6485196294057013  0.6442549548774458
  0.9995274915013255  0.2505815725212312  0.6572872153273328
  0.8650449487086339  0.2368113665521028  0.3428276270212280
  0.9589760855072272  0.9701954823866971  0.4905613491477702
  0.1372007051785099  0.3697418572692764  0.5100675971534803
  0.2575138789737719  0.1108161610926160  0.6934888073827619
  0.0060515440972000  0.8462846800704947  0.5358479547217705
  0.0898257377735445  0.8574403492167296  0.4287796161177650
  0.0600512280862529  0.1182600574792329  0.4902001811201067
  0.2735020102703744  0.3762514218586194  0.3062642333816170
  0.1295571625774852  0.3556713371413391  0.3782042074424462
  0.3119390755683347  0.4764263961960029  0.4507575519975932
  0.1919246996374258  0.6416106764632269  0.4643055998753278
  0.2641903324458636  0.3123526426878624  0.6018470336388309
  0.2919786222865144  0.6731743293002447  0.6489235747893548
  0.2671080501222775  0.1760401221778257  0.3984658027422713
  0.1296367180176423  0.8337138728432020  0.6595370482999989
  0.2388831153918059  0.8140127878726320  0.3508899783462452
  0.0678740325658672  0.6536074870679138  0.3403279392847561
  0.1080459483791573  0.6298965047881869  0.5711435466087593
  0.0680025715566806  0.1315803556722752  0.6215700155276763
  0.2182541302808916  0.0104624001687039  0.5489691955706097
  0.4705307191785147  0.3697418572692764  0.5100675971534803
  0.5908438579737694  0.1108161610926160  0.6934888073827619
  0.3393915340971989  0.8462846800704947  0.5358479547217705
  0.4231557697735435  0.8574403492167296  0.4287796161177650
  0.3933812690862565  0.1182600574792329  0.4902001811201067
  0.6068320242703731  0.3762514218586194  0.3062642333816170
  0.4628971515774873  0.3556713371413391  0.3782042074424462
  0.6452690185683295  0.4764263961960029  0.4507575519975932
  0.5252546786374247  0.6416106764632269  0.4643055998753278
  0.5975202944458639  0.3123526426878624  0.6018470336388309
  0.6253186332865114  0.6731843793002449  0.6489235747893548
  0.6004380461222735  0.1760401221778257  0.3984658027422713
  0.4629666960176372  0.8337138728432020  0.6595370482999989
  0.5722231053918050  0.8140127878726320  0.3508899783462452
  0.4012140265658665  0.6536074870679138  0.3403279392847561
  0.4413759363791597  0.6298965047881869  0.5711435466087593
  0.4013325675566771  0.1315803556722752  0.6215700155276763
  0.5515841792808885  0.0104624001687039  0.5489691955706097
  0.8038707261785112  0.3697418572692764  0.5100675971534803
  0.9241738719737742  0.1108161610926160  0.6934888073827619
  0.6727215480971968  0.8462846800704947  0.5358479547217705
  0.7564957417735408  0.8574403492167296  0.4287796161177650
  0.7267212760862530  0.1182600574792329  0.4902001811201067
  0.9401719962703705  0.3762514218586194  0.3062642333816170
  0.7962271655774849  0.3556713371413391  0.3782042074424462
  0.9786090255683334  0.4764263961960029  0.4507575519975932
  0.8585947916374231  0.6416106764632269  0.4643055998753278
  0.9308503784458603  0.3123526426878624  0.6018470336388309
  0.9586486082865094  0.6731743293002447  0.6489235747893548
  0.9337679901222725  0.1760401221778257  0.3984658027422713
  0.7962967460176389  0.8337138728432020  0.6595370482999989
  0.9055530483918075  0.8140127878726320  0.3508899783462452
  0.7345440755658639  0.6536074870679138  0.3403279392847561
  0.7747159783791561  0.6298965047881869  0.5711435466087593
  0.7346725745566808  0.1315803556722752  0.6215700155276763
  0.8849141582808940  0.0104624001687039  0.5489691955706097
 
  0.00000000E+00  0.00000000E+00  0.00000000E+00
  0.00000000E+00  0.00000000E+00  0.00000000E+00
  0.00000000E+00  0.00000000E+00  0.00000000E+00
  0.00000000E+00  0.00000000E+00  0.00000000E+00
  0.00000000E+00  0.00000000E+00  0.00000000E+00
  0.00000000E+00  0.00000000E+00  0.00000000E+00
  0.00000000E+00  0.00000000E+00  0.00000000E+00
  0.00000000E+00  0.00000000E+00  0.00000000E+00
  0.00000000E+00  0.00000000E+00  0.00000000E+00
  0.00000000E+00  0.00000000E+00  0.00000000E+00
  0.00000000E+00  0.00000000E+00  0.00000000E+00
  0.00000000E+00  0.00000000E+00  0.00000000E+00
  0.00000000E+00  0.00000000E+00  0.00000000E+00
  0.00000000E+00  0.00000000E+00  0.00000000E+00
  0.00000000E+00  0.00000000E+00  0.00000000E+00
  0.00000000E+00  0.00000000E+00  0.00000000E+00
  0.00000000E+00  0.00000000E+00  0.00000000E+00
  0.00000000E+00  0.00000000E+00  0.00000000E+00
  0.00000000E+00  0.00000000E+00  0.00000000E+00
  0.00000000E+00  0.00000000E+00  0.00000000E+00
  0.00000000E+00  0.00000000E+00  0.00000000E+00
  0.00000000E+00  0.00000000E+00  0.00000000E+00
  0.00000000E+00  0.00000000E+00  0.00000000E+00
  0.00000000E+00  0.00000000E+00  0.00000000E+00
  0.00000000E+00  0.00000000E+00  0.00000000E+00
  0.00000000E+00  0.00000000E+00  0.00000000E+00
  0.00000000E+00  0.00000000E+00  0.00000000E+00
  0.00000000E+00  0.00000000E+00  0.00000000E+00
  0.00000000E+00  0.00000000E+00  0.00000000E+00
  0.00000000E+00  0.00000000E+00  0.00000000E+00
  0.00000000E+00  0.00000000E+00  0.00000000E+00
  0.00000000E+00  0.00000000E+00  0.00000000E+00
  0.00000000E+00  0.00000000E+00  0.00000000E+00
  0.00000000E+00  0.00000000E+00  0.00000000E+00
  0.00000000E+00  0.00000000E+00  0.00000000E+00
  0.00000000E+00  0.00000000E+00  0.00000000E+00
  0.00000000E+00  0.00000000E+00  0.00000000E+00
  0.00000000E+00  0.00000000E+00  0.00000000E+00
  0.00000000E+00  0.00000000E+00  0.00000000E+00
  0.00000000E+00  0.00000000E+00  0.00000000E+00
  0.00000000E+00  0.00000000E+00  0.00000000E+00
  0.00000000E+00  0.00000000E+00  0.00000000E+00
  0.00000000E+00  0.00000000E+00  0.00000000E+00
  0.00000000E+00  0.00000000E+00  0.00000000E+00
  0.00000000E+00  0.00000000E+00  0.00000000E+00
  0.00000000E+00  0.00000000E+00  0.00000000E+00
  0.00000000E+00  0.00000000E+00  0.00000000E+00
  0.00000000E+00  0.00000000E+00  0.00000000E+00
  0.00000000E+00  0.00000000E+00  0.00000000E+00
  0.00000000E+00  0.00000000E+00  0.00000000E+00
  0.00000000E+00  0.00000000E+00  0.00000000E+00
  0.00000000E+00  0.00000000E+00  0.00000000E+00
  0.00000000E+00  0.00000000E+00  0.00000000E+00
  0.00000000E+00  0.00000000E+00  0.00000000E+00
  0.00000000E+00  0.00000000E+00  0.00000000E+00
  0.00000000E+00  0.00000000E+00  0.00000000E+00
  0.00000000E+00  0.00000000E+00  0.00000000E+00
  0.00000000E+00  0.00000000E+00  0.00000000E+00
  0.00000000E+00  0.00000000E+00  0.00000000E+00
  0.00000000E+00  0.00000000E+00  0.00000000E+00
  0.00000000E+00  0.00000000E+00  0.00000000E+00
  0.00000000E+00  0.00000000E+00  0.00000000E+00
  0.00000000E+00  0.00000000E+00  0.00000000E+00
  0.00000000E+00  0.00000000E+00  0.00000000E+00
  0.00000000E+00  0.00000000E+00  0.00000000E+00
  0.00000000E+00  0.00000000E+00  0.00000000E+00
  0.00000000E+00  0.00000000E+00  0.00000000E+00
  0.00000000E+00  0.00000000E+00  0.00000000E+00
  0.00000000E+00  0.00000000E+00  0.00000000E+00
  0.00000000E+00  0.00000000E+00  0.00000000E+00
  0.00000000E+00  0.00000000E+00  0.00000000E+00
  0.00000000E+00  0.00000000E+00  0.00000000E+00
  0.00000000E+00  0.00000000E+00  0.00000000E+00
  0.00000000E+00  0.00000000E+00  0.00000000E+00
  0.00000000E+00  0.00000000E+00  0.00000000E+00
  0.00000000E+00  0.00000000E+00  0.00000000E+00
  0.00000000E+00  0.00000000E+00  0.00000000E+00
  0.00000000E+00  0.00000000E+00  0.00000000E+00
  0.00000000E+00  0.00000000E+00  0.00000000E+00
  0.00000000E+00  0.00000000E+00  0.00000000E+00
  0.00000000E+00  0.00000000E+00  0.00000000E+00
  0.00000000E+00  0.00000000E+00  0.00000000E+00
  0.00000000E+00  0.00000000E+00  0.00000000E+00
  0.00000000E+00  0.00000000E+00  0.00000000E+00
  0.00000000E+00  0.00000000E+00  0.00000000E+00
  0.00000000E+00  0.00000000E+00  0.00000000E+00
  0.00000000E+00  0.00000000E+00  0.00000000E+00
