CONTCAR\(2)                             
   1.00000000000000     
    14.8558998108000004    0.0000000000000000    0.0000000000000000
     0.0000000000000000   13.4555997849000004    0.0000000000000000
     0.0000000000000000    0.0000000000000000   21.2884006499999998
   Nb   S 
    24    72
Direct
  0.2345292455087352  0.4247760814221883  0.4367440154771732
  0.2346259326728945  0.1998723792451577  0.4330282593999611
  0.0677357931691332  0.0733105731604354  0.5632533960708066
  0.0676437792765308  0.2982230073840340  0.5669784271959007
  0.5678654491677376  0.4247762184473838  0.4367423264122410
  0.5679699768411465  0.1998745224729677  0.4330237158330767
  0.4010657265587413  0.0733068819484166  0.5632533053924408
  0.4009713594764883  0.2982224904410469  0.5669765784033098
  0.9012030800024554  0.4247742199470590  0.4367440295791949
  0.9012947533234534  0.1998777156697667  0.4330287316243095
  0.7343961964969511  0.0733134183370028  0.5632593740146621
  0.7343025921363610  0.2982204300898928  0.5669782266819885
  0.2345292455087352  0.9247761174221842  0.4367440154771732
  0.2346259326728945  0.6998723972451592  0.4330282593999611
  0.0677357931691332  0.5733105961604338  0.5632533960708066
  0.0676437792765308  0.7982230073840340  0.5669784271959007
  0.5678654491677376  0.9247762544473797  0.4367423264122410
  0.5679699768411465  0.6998745404729692  0.4330237158330767
  0.4010657265587413  0.5733069049484150  0.5632533053924408
  0.4009713594764883  0.7982224904410469  0.5669765784033098
  0.9012030800024554  0.9247742559470549  0.4367440295791949
  0.9012947533234534  0.6998777336697681  0.4330287316243095
  0.7343961964969511  0.5733134413370011  0.5632593740146621
  0.7343025921363610  0.7982204300898929  0.5669782266819885
  0.3319430657121197  0.1832665710818633  0.6458080806243823
  0.2344808090622593  0.0659018255669760  0.5187087678030448
  0.2343542667025616  0.3065324066041676  0.5266261899081176
  0.0679165459068506  0.1915506732755607  0.4733657988369324
  0.1677648120658170  0.3147309618508931  0.3527964244232749
  0.0677926919406666  0.4321670409885826  0.4812949940459602
  0.3329724975867416  0.4374617534028559  0.6348399943406575
  0.3026002909486858  0.0606413000576303  0.3651476720087359
  0.3036765620136532  0.3148201089731673  0.3542018846437788
  0.1344856892715109  0.1833740068125727  0.6472058828772920
  0.1354646295364410  0.4374028846286525  0.6349943148223726
  0.1667846084011647  0.0606698918042680  0.3650080041772593
  0.6652914206900004  0.1832611428775334  0.6457927694772233
  0.5677703046056976  0.0659269559365080  0.5187153423047565
  0.5676826340560686  0.3065195184530595  0.5266243650826260
  0.4012520358224477  0.1915455402601566  0.4733688722826496
  0.5011149681469664  0.3147304796131845  0.3527955677489178
  0.4011157561594469  0.4321738456585986  0.4812988559515258
  0.6663033158820457  0.4374469950068166  0.6348406666393460
  0.6359273647729136  0.0606577158878130  0.3651483003500701
  0.6369827647236248  0.3148364405271411  0.3542056379915774
  0.4678314811007396  0.1833774710086113  0.6472068589608836
  0.4688053185646349  0.4373846580555655  0.6350035524755577
  0.5001452239016809  0.0607033548343654  0.3649974723163628
  0.9986240435245635  0.1832626044733580  0.6457982313973804
  0.9011496113591576  0.0659124408563909  0.5187014920853017
  0.9010395183935236  0.3065173440539053  0.5266393579853114
  0.7345879951189678  0.1915808000006124  0.4733696600926657
  0.8344220333357227  0.3147253250310458  0.3527910622830029
  0.7344637855646224  0.4321706803003335  0.4812912269240464
  0.9996616527370151  0.4374392789680017  0.6348381142789929
  0.9692921179476341  0.0606274403995967  0.3651508160819932
  0.9703316931878500  0.3148112160776906  0.3542112923465637
  0.8011419055804945  0.1833511029863248  0.6472041293049681
  0.8021243110596653  0.4374053102203428  0.6349926589817189
  0.8334584489854298  0.0606648249004371  0.3650054340596959
  0.3319430657121197  0.6832665880818684  0.6458080806243823
  0.2344808090622593  0.5659018085669781  0.5187087678030448
  0.2343542667025616  0.8065324066041676  0.5266261899081176
  0.0679165459068506  0.6915506912755622  0.4733657988369324
  0.1677648120658170  0.8147309618508930  0.3527964244232749
  0.0677926919406666  0.9321670049885867  0.4812949940459602
  0.3329724975867416  0.9374617884028553  0.6348399943406575
  0.3026002909486858  0.5606413400576337  0.3651476720087359
  0.3036765620136532  0.8148201089731673  0.3542018846437788
  0.1344856892715109  0.6833740248125741  0.6472058828772920
  0.1354646295364410  0.9374028846286525  0.6349943148223726
  0.1667846084011647  0.5606698648042693  0.3650080041772593
  0.6652914206900004  0.6832611598775384  0.6457927694772233
  0.5677703046056976  0.5659269389365101  0.5187153423047565
  0.5676826340560686  0.8065195184530596  0.5266243650826260
  0.4012520358224477  0.6915455582601581  0.4733688722826496
  0.5011149681469664  0.8147304796131845  0.3527955677489178
  0.4011157561594469  0.9321738096586027  0.4812988559515258
  0.6663033158820457  0.9374470300068160  0.6348406666393460
  0.6359273647729136  0.5606577558878163  0.3651483003500701
  0.6369827647236248  0.8148364405271411  0.3542056379915774
  0.4678314811007396  0.6833774890086127  0.6472068589608836
  0.4688053185646349  0.9373846580555655  0.6350035524755577
  0.5001452239016809  0.5607033278343667  0.3649974723163628
  0.9986240435245635  0.6832626214733629  0.6457982313973804
  0.9011496113591576  0.5659124238563931  0.5187014920853017
  0.9010395183935236  0.8065173440539053  0.5266393579853114
  0.7345879951189678  0.6915808180006139  0.4733696600926657
  0.8344220333357227  0.8147253250310458  0.3527910622830029
  0.7344637855646224  0.9321706443003376  0.4812912269240464
  0.9996616527370151  0.9374393139680010  0.6348381142789929
  0.9692921179476341  0.5606274803996000  0.3651508160819932
  0.9703316931878500  0.8148112160776907  0.3542112923465637
  0.8011419055804945  0.6833511209863262  0.6472041293049681
  0.8021243110596653  0.9374053102203429  0.6349926589817189
  0.8334584489854298  0.5606647979004383  0.3650054340596959
 
  0.00000000E+00  0.00000000E+00  0.00000000E+00
  0.00000000E+00  0.00000000E+00  0.00000000E+00
  0.00000000E+00  0.00000000E+00  0.00000000E+00
  0.00000000E+00  0.00000000E+00  0.00000000E+00
  0.00000000E+00  0.00000000E+00  0.00000000E+00
  0.00000000E+00  0.00000000E+00  0.00000000E+00
  0.00000000E+00  0.00000000E+00  0.00000000E+00
  0.00000000E+00  0.00000000E+00  0.00000000E+00
  0.00000000E+00  0.00000000E+00  0.00000000E+00
  0.00000000E+00  0.00000000E+00  0.00000000E+00
  0.00000000E+00  0.00000000E+00  0.00000000E+00
  0.00000000E+00  0.00000000E+00  0.00000000E+00
  0.00000000E+00  0.00000000E+00  0.00000000E+00
  0.00000000E+00  0.00000000E+00  0.00000000E+00
  0.00000000E+00  0.00000000E+00  0.00000000E+00
  0.00000000E+00  0.00000000E+00  0.00000000E+00
  0.00000000E+00  0.00000000E+00  0.00000000E+00
  0.00000000E+00  0.00000000E+00  0.00000000E+00
  0.00000000E+00  0.00000000E+00  0.00000000E+00
  0.00000000E+00  0.00000000E+00  0.00000000E+00
  0.00000000E+00  0.00000000E+00  0.00000000E+00
  0.00000000E+00  0.00000000E+00  0.00000000E+00
  0.00000000E+00  0.00000000E+00  0.00000000E+00
  0.00000000E+00  0.00000000E+00  0.00000000E+00
  0.00000000E+00  0.00000000E+00  0.00000000E+00
  0.00000000E+00  0.00000000E+00  0.00000000E+00
  0.00000000E+00  0.00000000E+00  0.00000000E+00
  0.00000000E+00  0.00000000E+00  0.00000000E+00
  0.00000000E+00  0.00000000E+00  0.00000000E+00
  0.00000000E+00  0.00000000E+00  0.00000000E+00
  0.00000000E+00  0.00000000E+00  0.00000000E+00
  0.00000000E+00  0.00000000E+00  0.00000000E+00
  0.00000000E+00  0.00000000E+00  0.00000000E+00
  0.00000000E+00  0.00000000E+00  0.00000000E+00
  0.00000000E+00  0.00000000E+00  0.00000000E+00
  0.00000000E+00  0.00000000E+00  0.00000000E+00
  0.00000000E+00  0.00000000E+00  0.00000000E+00
  0.00000000E+00  0.00000000E+00  0.00000000E+00
  0.00000000E+00  0.00000000E+00  0.00000000E+00
  0.00000000E+00  0.00000000E+00  0.00000000E+00
  0.00000000E+00  0.00000000E+00  0.00000000E+00
  0.00000000E+00  0.00000000E+00  0.00000000E+00
  0.00000000E+00  0.00000000E+00  0.00000000E+00
  0.00000000E+00  0.00000000E+00  0.00000000E+00
  0.00000000E+00  0.00000000E+00  0.00000000E+00
  0.00000000E+00  0.00000000E+00  0.00000000E+00
  0.00000000E+00  0.00000000E+00  0.00000000E+00
  0.00000000E+00  0.00000000E+00  0.00000000E+00
  0.00000000E+00  0.00000000E+00  0.00000000E+00
  0.00000000E+00  0.00000000E+00  0.00000000E+00
  0.00000000E+00  0.00000000E+00  0.00000000E+00
  0.00000000E+00  0.00000000E+00  0.00000000E+00
  0.00000000E+00  0.00000000E+00  0.00000000E+00
  0.00000000E+00  0.00000000E+00  0.00000000E+00
  0.00000000E+00  0.00000000E+00  0.00000000E+00
  0.00000000E+00  0.00000000E+00  0.00000000E+00
  0.00000000E+00  0.00000000E+00  0.00000000E+00
  0.00000000E+00  0.00000000E+00  0.00000000E+00
  0.00000000E+00  0.00000000E+00  0.00000000E+00
  0.00000000E+00  0.00000000E+00  0.00000000E+00
  0.00000000E+00  0.00000000E+00  0.00000000E+00
  0.00000000E+00  0.00000000E+00  0.00000000E+00
  0.00000000E+00  0.00000000E+00  0.00000000E+00
  0.00000000E+00  0.00000000E+00  0.00000000E+00
  0.00000000E+00  0.00000000E+00  0.00000000E+00
  0.00000000E+00  0.00000000E+00  0.00000000E+00
  0.00000000E+00  0.00000000E+00  0.00000000E+00
  0.00000000E+00  0.00000000E+00  0.00000000E+00
  0.00000000E+00  0.00000000E+00  0.00000000E+00
  0.00000000E+00  0.00000000E+00  0.00000000E+00
  0.00000000E+00  0.00000000E+00  0.00000000E+00
  0.00000000E+00  0.00000000E+00  0.00000000E+00
  0.00000000E+00  0.00000000E+00  0.00000000E+00
  0.00000000E+00  0.00000000E+00  0.00000000E+00
  0.00000000E+00  0.00000000E+00  0.00000000E+00
  0.00000000E+00  0.00000000E+00  0.00000000E+00
  0.00000000E+00  0.00000000E+00  0.00000000E+00
  0.00000000E+00  0.00000000E+00  0.00000000E+00
  0.00000000E+00  0.00000000E+00  0.00000000E+00
  0.00000000E+00  0.00000000E+00  0.00000000E+00
  0.00000000E+00  0.00000000E+00  0.00000000E+00
  0.00000000E+00  0.00000000E+00  0.00000000E+00
  0.00000000E+00  0.00000000E+00  0.00000000E+00
  0.00000000E+00  0.00000000E+00  0.00000000E+00
  0.00000000E+00  0.00000000E+00  0.00000000E+00
  0.00000000E+00  0.00000000E+00  0.00000000E+00
  0.00000000E+00  0.00000000E+00  0.00000000E+00
  0.00000000E+00  0.00000000E+00  0.00000000E+00
  0.00000000E+00  0.00000000E+00  0.00000000E+00
  0.00000000E+00  0.00000000E+00  0.00000000E+00
  0.00000000E+00  0.00000000E+00  0.00000000E+00
  0.00000000E+00  0.00000000E+00  0.00000000E+00
  0.00000000E+00  0.00000000E+00  0.00000000E+00
  0.00000000E+00  0.00000000E+00  0.00000000E+00
  0.00000000E+00  0.00000000E+00  0.00000000E+00
  0.00000000E+00  0.00000000E+00  0.00000000E+00
