CONTCAR                                 
   1.00000000000000     
    12.2054004669000005    0.0000000000000000    0.0000000000000000
    -6.1026684629999997   10.5700895834999997    0.0000000000000000
     0.0000000000000000    0.0000000000000000   19.4676990508999985
   Mo   C    O    H 
    32    16    32     1
Selective dynamics
Direct
  0.1699140502292451  0.0888459121832454  0.5481907371110566   F   F   F
  0.0986233454510597  0.1572420236150762  0.4270645158645507   F   F   F
  0.4208986425745138  0.0828189862849626  0.5537388500418530   F   F   F
  0.3407767056193762  0.1750003025925508  0.4362350121735048   F   F   F
  0.6860203980066473  0.0932862447655083  0.5676544072838681   F   F   F
  0.5685636213540661  0.1440677351728041  0.4339645651574955   F   F   F
  0.8938646870443279  0.0847649841211506  0.5729102042719560   F   F   F
  0.8418554497628818  0.1709331528803304  0.4467207876015920   F   F   F
  0.1491947276119134  0.3435798000168404  0.5720410833594158   F   F   F
  0.0761569687941375  0.4113823828159298  0.4510501787397345   F   F   F
  0.4090295209736752  0.3295724801751589  0.5518483019882794   F   F   F
  0.3560448806802086  0.4187235155088302  0.4277129794721120   F   F   F
  0.6801664364479265  0.3513027994838041  0.5645690983516758   F   F   F
  0.5614577243368117  0.4051253590003157  0.4325509726248882   F   F   F
  0.9069214417177136  0.3258678593295130  0.5635423828023178   F   F   F
  0.8288602127380855  0.4162243672049399  0.4447012688433460   F   F   F
  0.1772648555532044  0.5968170330593310  0.5608552610355915   F   F   F
  0.0926186139266321  0.6763340656296393  0.4430609145827091   F   F   F
  0.3970125786192753  0.5871692898843293  0.5647473372833218   F   F   F
  0.3391005309335995  0.6720176934781890  0.4458653606506857   F   F   F
  0.6759231907450882  0.5764045466167715  0.5554385721634603   F   F   F
  0.6015548619944227  0.6550411999217900  0.4356499732155896   F   F   F
  0.8930429855004789  0.5600586764125453  0.5665088740547404   F   F   F
  0.8378352889628644  0.6889784882494823  0.4306039920656772   F   F   F
  0.1593770689377223  0.8225833193486167  0.5574214430377680   F   F   F
  0.0724259517881123  0.9058164784875160  0.4394659783700234   F   F   F
  0.4148819548806841  0.8105196197533360  0.5706245727839558   F   F   F
  0.3546620979474184  0.9380018684709768  0.4338578213393305   F   F   F
  0.6669269769763986  0.8598638888811010  0.5658557101098225   F   F   F
  0.5678394019952151  0.9123508693600613  0.4415509827766542   F   F   F
  0.9217442020440600  0.8375424091897514  0.5544861513552775   F   F   F
  0.8421914705484781  0.9047885629677097  0.4326220292415783   F   F   F
  0.9954416658085563  0.0082158756982267  0.4954200292965538   F   F   F
  0.2491661116777877  0.9977393359399258  0.4918048429611517   F   F   F
  0.5030375389477655  0.9916686573432045  0.5075817240982374   F   F   F
  0.7527349437991830  0.9984752321895698  0.4974281468704476   F   F   F
  0.0005666481582693  0.2392062049920369  0.5088981691260983   F   F   F
  0.2482398947507818  0.2622470062029691  0.4908213911968815   F   F   F
  0.5097477866057289  0.2530662899867266  0.4966049580286409   F   F   F
  0.7387081335880978  0.2446189653762048  0.5019837531658098   F   F   F
  0.9997373785777768  0.5029172612142858  0.5088852435354738   F   F   F
  0.2495566806267178  0.4931000310107052  0.5006900240847543   F   F   F
  0.4988540193845878  0.5074696162071319  0.5011218175484728   F   F   F
  0.7463555190788682  0.5045953370082756  0.4907878810515314   F   F   F
  0.9852719576082833  0.7349372898725335  0.4990606729732505   F   F   F
  0.2681524813333667  0.7674552886509929  0.5022533151403579   F   F   F
  0.5104533995295029  0.7471331712397955  0.5044648137480010   F   F   F
  0.7465682656786896  0.7541144729621294  0.5029404325960911   F   F   F
  0.0923511389851512  0.1712632380518286  0.6116272567590855   F   F   F
  0.1691264948559308  0.0760836634942663  0.3754640767268000   F   F   F
  0.3330675545286113  0.1672251346979294  0.6085284410926732   F   F   F
  0.4205062009727172  0.0912605059421807  0.3709325250672464   F   F   F
  0.5812551349087514  0.1704882933564420  0.6130822719765092   F   F   F
  0.6703752789384225  0.0816915428946672  0.3850140449197070   F   F   F
  0.8371119232996733  0.1760846296660361  0.6363060763868305   F   F   F
  0.9214939413469452  0.0926577566941162  0.3850726368903352   F   F   F
  0.0793543958050691  0.4240122338364998  0.6242751093441896   F   F   F
  0.1546600711235939  0.3294686953442749  0.3878849416265169   F   F   F
  0.3264041765641181  0.4071985415373618  0.6139175860524588   F   F   F
  0.4113461640470817  0.3256727212228441  0.3639121427667362   F   F   F
  0.5776607639729505  0.4154664922778721  0.6150786858364583   F   F   F
  0.6679454206125257  0.3288022066301650  0.3867379151288688   F   F   F
  0.8279692885660168  0.4085013533396022  0.6296771060862341   F   F   F
  0.9144799293274133  0.3325779198439847  0.3885602069036267   F   F   F
  0.0785590220253596  0.6716247057388003  0.6165775706129892   F   F   F
  0.1673827241381929  0.5788564552461040  0.3928528824761202   F   F   F
  0.3231219384515853  0.6625589853085430  0.6354048550218963   F   F   F
  0.4186478075363667  0.5880057394687839  0.3851214186796312   F   F   F
  0.5839510602306817  0.6665694709115328  0.6199592637784548   F   F   F
  0.6731223928490522  0.5752016726617839  0.3747934580281864   F   F   F
  0.8339939263517664  0.6687553708056839  0.6170451898307334   F   F   F
  0.9233974149141204  0.5845952387115432  0.3890261112872864   F   F   F
  0.0850352431023538  0.9237966180296553  0.6092315513240010   F   F   F
  0.1692082769322454  0.8270308149465393  0.3844919850863846   F   F   F
  0.3281972957872341  0.9166680770291578  0.6111079363740615   F   F   F
  0.4149851985986999  0.8309591452066982  0.3789511995690162   F   F   F
  0.5787078201452758  0.9250205879595654  0.6260885717221498   F   F   F
  0.6645731428455832  0.8308990846807092  0.3891119808796972   F   F   F
  0.8380827843379848  0.9170329273130449  0.6182708844529827   F   F   F
  0.9252524841915672  0.8364215641613271  0.3646645468943532   F   F   F
  0.5876006278567800  0.6594321032336977  0.6690419751596118   T   T   T
 
  0.00000000E+00  0.00000000E+00  0.00000000E+00
  0.00000000E+00  0.00000000E+00  0.00000000E+00
  0.00000000E+00  0.00000000E+00  0.00000000E+00
  0.00000000E+00  0.00000000E+00  0.00000000E+00
  0.00000000E+00  0.00000000E+00  0.00000000E+00
  0.00000000E+00  0.00000000E+00  0.00000000E+00
  0.00000000E+00  0.00000000E+00  0.00000000E+00
  0.00000000E+00  0.00000000E+00  0.00000000E+00
  0.00000000E+00  0.00000000E+00  0.00000000E+00
  0.00000000E+00  0.00000000E+00  0.00000000E+00
  0.00000000E+00  0.00000000E+00  0.00000000E+00
  0.00000000E+00  0.00000000E+00  0.00000000E+00
  0.00000000E+00  0.00000000E+00  0.00000000E+00
  0.00000000E+00  0.00000000E+00  0.00000000E+00
  0.00000000E+00  0.00000000E+00  0.00000000E+00
  0.00000000E+00  0.00000000E+00  0.00000000E+00
  0.00000000E+00  0.00000000E+00  0.00000000E+00
  0.00000000E+00  0.00000000E+00  0.00000000E+00
  0.00000000E+00  0.00000000E+00  0.00000000E+00
  0.00000000E+00  0.00000000E+00  0.00000000E+00
  0.00000000E+00  0.00000000E+00  0.00000000E+00
  0.00000000E+00  0.00000000E+00  0.00000000E+00
  0.00000000E+00  0.00000000E+00  0.00000000E+00
  0.00000000E+00  0.00000000E+00  0.00000000E+00
  0.00000000E+00  0.00000000E+00  0.00000000E+00
  0.00000000E+00  0.00000000E+00  0.00000000E+00
  0.00000000E+00  0.00000000E+00  0.00000000E+00
  0.00000000E+00  0.00000000E+00  0.00000000E+00
  0.00000000E+00  0.00000000E+00  0.00000000E+00
  0.00000000E+00  0.00000000E+00  0.00000000E+00
  0.00000000E+00  0.00000000E+00  0.00000000E+00
  0.00000000E+00  0.00000000E+00  0.00000000E+00
  0.00000000E+00  0.00000000E+00  0.00000000E+00
  0.00000000E+00  0.00000000E+00  0.00000000E+00
  0.00000000E+00  0.00000000E+00  0.00000000E+00
  0.00000000E+00  0.00000000E+00  0.00000000E+00
  0.00000000E+00  0.00000000E+00  0.00000000E+00
  0.00000000E+00  0.00000000E+00  0.00000000E+00
  0.00000000E+00  0.00000000E+00  0.00000000E+00
  0.00000000E+00  0.00000000E+00  0.00000000E+00
  0.00000000E+00  0.00000000E+00  0.00000000E+00
  0.00000000E+00  0.00000000E+00  0.00000000E+00
  0.00000000E+00  0.00000000E+00  0.00000000E+00
  0.00000000E+00  0.00000000E+00  0.00000000E+00
  0.00000000E+00  0.00000000E+00  0.00000000E+00
  0.00000000E+00  0.00000000E+00  0.00000000E+00
  0.00000000E+00  0.00000000E+00  0.00000000E+00
  0.00000000E+00  0.00000000E+00  0.00000000E+00
  0.00000000E+00  0.00000000E+00  0.00000000E+00
  0.00000000E+00  0.00000000E+00  0.00000000E+00
  0.00000000E+00  0.00000000E+00  0.00000000E+00
  0.00000000E+00  0.00000000E+00  0.00000000E+00
  0.00000000E+00  0.00000000E+00  0.00000000E+00
  0.00000000E+00  0.00000000E+00  0.00000000E+00
  0.00000000E+00  0.00000000E+00  0.00000000E+00
  0.00000000E+00  0.00000000E+00  0.00000000E+00
  0.00000000E+00  0.00000000E+00  0.00000000E+00
  0.00000000E+00  0.00000000E+00  0.00000000E+00
  0.00000000E+00  0.00000000E+00  0.00000000E+00
  0.00000000E+00  0.00000000E+00  0.00000000E+00
  0.00000000E+00  0.00000000E+00  0.00000000E+00
  0.00000000E+00  0.00000000E+00  0.00000000E+00
  0.00000000E+00  0.00000000E+00  0.00000000E+00
  0.00000000E+00  0.00000000E+00  0.00000000E+00
  0.00000000E+00  0.00000000E+00  0.00000000E+00
  0.00000000E+00  0.00000000E+00  0.00000000E+00
  0.00000000E+00  0.00000000E+00  0.00000000E+00
  0.00000000E+00  0.00000000E+00  0.00000000E+00
  0.00000000E+00  0.00000000E+00  0.00000000E+00
  0.00000000E+00  0.00000000E+00  0.00000000E+00
  0.00000000E+00  0.00000000E+00  0.00000000E+00
  0.00000000E+00  0.00000000E+00  0.00000000E+00
  0.00000000E+00  0.00000000E+00  0.00000000E+00
  0.00000000E+00  0.00000000E+00  0.00000000E+00
  0.00000000E+00  0.00000000E+00  0.00000000E+00
  0.00000000E+00  0.00000000E+00  0.00000000E+00
  0.00000000E+00  0.00000000E+00  0.00000000E+00
  0.00000000E+00  0.00000000E+00  0.00000000E+00
  0.00000000E+00  0.00000000E+00  0.00000000E+00
  0.00000000E+00  0.00000000E+00  0.00000000E+00
  0.00000000E+00  0.00000000E+00  0.00000000E+00
