CONTCAR\(6)                             
   1.00000000000000     
    11.2744998931999998    0.0000000000000000    0.0000000000000000
     0.0000000000000000   12.4884996414000007    0.0000000000000000
     0.0000000000000000    0.0000000000000000   19.0002002716000007
   Nb   Te   Ir   O    H 
     6    24     6     1     1
Selective dynamics
Direct
  0.0067701231271613  0.0569320076268909  0.5021109445696155   F   F   F
  0.1709487058601269  0.7376661435779184  0.4952352681009415   F   F   F
  0.3410906239120166  0.0570838723862437  0.5020412771117932   F   F   F
  0.5073991920037599  0.7341500729133941  0.4957273261385993   F   F   F
  0.6739667291238263  0.0577158876560517  0.5017698900989558   F   F   F
  0.8365495011372630  0.7372886620411379  0.4902749997995954   F   F   F
  0.1733942577802949  0.9412670113637489  0.4177186354916742   F   F   F
  0.0077030276993355  0.2012536545859263  0.3982456963562484   F   F   F
  0.0062107282679520  0.3556331764998149  0.5683928209499953   F   F   F
  0.1717182527959764  0.5917802808860273  0.5978506512738875   F   F   F
  0.1762453998571303  0.4428527712296386  0.4261652779465166   F   F   F
  0.0079841317145721  0.6848246580775026  0.3907991914462841   F   F   F
  0.0043976205181124  0.8532205316310666  0.5778660701300709   F   F   F
  0.1736939788754839  0.1130520523280438  0.6032956406276924   F   F   F
  0.5072023055912567  0.9386403036389765  0.4186254689451232   F   F   F
  0.3402859152600186  0.2012321861462993  0.3984239396067508   F   F   F
  0.3407098958795274  0.3533672515737578  0.5702996505507585   F   F   F
  0.5033764896091029  0.5915790998249477  0.6032690116388011   F   F   F
  0.5070717192671452  0.4441509965331036  0.4251497526582497   F   F   F
  0.3402083689897992  0.6831281659056430  0.3941849074382873   F   F   F
  0.3412490415148923  0.8532508563292964  0.5775479471149438   F   F   F
  0.5078614102529215  0.1148295269815804  0.6030202979050188   F   F   F
  0.8398852152476977  0.9425336938087128  0.4161017388245440   F   F   F
  0.6731321823816501  0.2011207305191292  0.3975809629836817   F   F   F
  0.6731741763895940  0.3605549312695544  0.5664459060456295   F   F   F
  0.8375117576208595  0.5925784858357872  0.5936535337776476   F   F   F
  0.8446294749404473  0.4389541763883926  0.4201763692186802   F   F   F
  0.6713337846299154  0.6882593464629210  0.3883447220241578   F   F   F
  0.6750744038489884  0.8540086464782419  0.5780245726247486   F   F   F
  0.8396697028577265  0.1151757862207958  0.6029111612634921   F   F   F
  0.0068518733823808  0.5436151371206819  0.4976352738457734   F   F   F
  0.1735348163827481  0.2529901472919391  0.4953728321818787   F   F   F
  0.3418257069279989  0.5430977037617453  0.5020829371988498   F   F   F
  0.5072264188232225  0.2539632241024137  0.4946814867549705   F   F   F
  0.6785449526861811  0.5469073440092629  0.4934656031610203   F   F   F
  0.8400552952618341  0.2535197264636935  0.4941554815221281   F   F   F
  0.3727608344787186  0.6486428302090772  0.6775381721009595   T   T   T
  0.3807021751023569  0.6047787853206471  0.7191451982092980   T   T   T
 
  0.00000000E+00  0.00000000E+00  0.00000000E+00
  0.00000000E+00  0.00000000E+00  0.00000000E+00
  0.00000000E+00  0.00000000E+00  0.00000000E+00
  0.00000000E+00  0.00000000E+00  0.00000000E+00
  0.00000000E+00  0.00000000E+00  0.00000000E+00
  0.00000000E+00  0.00000000E+00  0.00000000E+00
  0.00000000E+00  0.00000000E+00  0.00000000E+00
  0.00000000E+00  0.00000000E+00  0.00000000E+00
  0.00000000E+00  0.00000000E+00  0.00000000E+00
  0.00000000E+00  0.00000000E+00  0.00000000E+00
  0.00000000E+00  0.00000000E+00  0.00000000E+00
  0.00000000E+00  0.00000000E+00  0.00000000E+00
  0.00000000E+00  0.00000000E+00  0.00000000E+00
  0.00000000E+00  0.00000000E+00  0.00000000E+00
  0.00000000E+00  0.00000000E+00  0.00000000E+00
  0.00000000E+00  0.00000000E+00  0.00000000E+00
  0.00000000E+00  0.00000000E+00  0.00000000E+00
  0.00000000E+00  0.00000000E+00  0.00000000E+00
  0.00000000E+00  0.00000000E+00  0.00000000E+00
  0.00000000E+00  0.00000000E+00  0.00000000E+00
  0.00000000E+00  0.00000000E+00  0.00000000E+00
  0.00000000E+00  0.00000000E+00  0.00000000E+00
  0.00000000E+00  0.00000000E+00  0.00000000E+00
  0.00000000E+00  0.00000000E+00  0.00000000E+00
  0.00000000E+00  0.00000000E+00  0.00000000E+00
  0.00000000E+00  0.00000000E+00  0.00000000E+00
  0.00000000E+00  0.00000000E+00  0.00000000E+00
  0.00000000E+00  0.00000000E+00  0.00000000E+00
  0.00000000E+00  0.00000000E+00  0.00000000E+00
  0.00000000E+00  0.00000000E+00  0.00000000E+00
  0.00000000E+00  0.00000000E+00  0.00000000E+00
  0.00000000E+00  0.00000000E+00  0.00000000E+00
  0.00000000E+00  0.00000000E+00  0.00000000E+00
  0.00000000E+00  0.00000000E+00  0.00000000E+00
  0.00000000E+00  0.00000000E+00  0.00000000E+00
  0.00000000E+00  0.00000000E+00  0.00000000E+00
  0.00000000E+00  0.00000000E+00  0.00000000E+00
  0.00000000E+00  0.00000000E+00  0.00000000E+00
