CONTCAR\(7)                             
   1.00000000000000     
    13.5958003997999999    0.0000000000000000    0.0000000000000000
     0.0000000000000000   14.8882999419999997    0.0000000000000000
     0.0000000000000000    0.0000000000000000   20.6940002440999997
   Ti   S    O 
    24    72     1
Selective dynamics
Direct
  0.0611495066316508  0.0427988200220355  0.5650934698273318   F   F   F
  0.1863643843571978  0.2103251655670988  0.4355012565215972   F   F   F
  0.3105370477039315  0.0437265601122192  0.5655066733953760   F   F   F
  0.4362992294939332  0.2098948037730608  0.4360576354591572   F   F   F
  0.5606349829668886  0.0421318168885207  0.5666245526294631   F   F   F
  0.6862066979784700  0.2088884987161492  0.4358740813090520   F   F   F
  0.8111137313980876  0.0419124916124289  0.5658955349914692   F   F   F
  0.9362720882519753  0.2094948616244139  0.4355356770512628   F   F   F
  0.0613207126779756  0.3760639290050918  0.5661992678849330   F   F   F
  0.1881745024970911  0.5433009016365062  0.4372697201440872   F   F   F
  0.3111600124249705  0.3761771647330718  0.5670080408374574   F   F   F
  0.4372785210335906  0.5439052848371944  0.4380144718389118   F   F   F
  0.5613080277778479  0.3750267688407334  0.5666803129823421   F   F   F
  0.6875173091857860  0.5417354730048061  0.4354312293276053   F   F   F
  0.8113199118408190  0.3752928545398788  0.5657959898727540   F   F   F
  0.9375826884976917  0.5419140081677156  0.4349130344805019   F   F   F
  0.0597980188552896  0.7080195512339174  0.5634075960625680   F   F   F
  0.1844510990441108  0.8779619387035211  0.4329591331528917   F   F   F
  0.3071675018129625  0.7168058666463537  0.5674380691856769   F   F   F
  0.4351799319542096  0.8761909968656667  0.4366408568215334   F   F   F
  0.5674646344266208  0.7055206669647021  0.5675456570442847   F   F   F
  0.6850079075250335  0.8754905758189935  0.4371401625971956   F   F   F
  0.8141279420112113  0.7071389805791597  0.5635165175358949   F   F   F
  0.9351745280962831  0.8766447717213381  0.4342937309752912   F   F   F
  0.0617122029845945  0.1416603092178761  0.3626568166304622   F   F   F
  0.1852672180940047  0.1121075220002368  0.6377343063945915   F   F   F
  0.1855147992067998  0.0440257608768704  0.4786014434271664   F   F   F
  0.0612244806342588  0.2097693247241352  0.5217542931029513   F   F   F
  0.1868620782135721  0.3084647040194923  0.6400409386355932   F   F   F
  0.0608590444935899  0.2788193860498538  0.3627474150785659   F   F   F
  0.3115715275999023  0.1412562791054768  0.3634141906342236   F   F   F
  0.4373535803239790  0.1101543199980313  0.6399052747444074   F   F   F
  0.4362223863066745  0.0429478786311179  0.4798592904664218   F   F   F
  0.3109146912570395  0.2099574857017359  0.5219260452093479   F   F   F
  0.4364635923115472  0.3035795561452375  0.6370503294550502   F   F   F
  0.3117424526601553  0.2783833021790798  0.3623823136588484   F   F   F
  0.5608871805899724  0.1411459996076587  0.3627886520220116   F   F   F
  0.6869107489109041  0.1101936502765923  0.6391721699964847   F   F   F
  0.6856381682794606  0.0419985003849561  0.4802212096930489   F   F   F
  0.5613620938866362  0.2089619613812204  0.5221192116372038   F   F   F
  0.6873200587984059  0.3064339374466840  0.6389991826196493   F   F   F
  0.5615241903114025  0.2782887021787701  0.3633404154435524   F   F   F
  0.8112924595885787  0.1406927852184481  0.3626974446333904   F   F   F
  0.9362358303628326  0.1110635713047259  0.6378688371004557   F   F   F
  0.9356321017400049  0.0428623104300243  0.4791492073084100   F   F   F
  0.8112319256570046  0.2088845959940357  0.5219419581181981   F   F   F
  0.9370855322165355  0.3075944442035947  0.6391389305934823   F   F   F
  0.8109163863978281  0.2777942984200195  0.3629781970328096   F   F   F
  0.0637764965446408  0.4744177785308139  0.3630040676108948   F   F   F
  0.1844814230188376  0.4456397280820639  0.6388337620185993   F   F   F
  0.1869909831547147  0.3766532759485202  0.4803500934874592   F   F   F
  0.0618287400383295  0.5424294835326435  0.5220505998471054   F   F   F
  0.1940145407433675  0.6457024686995183  0.6412247498720021   F   F   F
  0.0644262401548161  0.6114711800214607  0.3637293859265895   F   F   F
  0.3126495687194222  0.4748337511064804  0.3651563383078482   F   F   F
  0.4356904818407443  0.4405160581563052  0.6424483123879270   F   F   F
  0.4362661834837809  0.3770503165202328  0.4807538394561703   F   F   F
  0.3123062495928295  0.5449407202529457  0.5245784917361149   F   F   F
  0.4551661870074071  0.6315913383901943  0.6408847249600385   F   F   F
  0.3136684487094925  0.6119257348044016  0.3644355462594433   F   F   F
  0.5602569644802600  0.4747742353509565  0.3635014222546005   F   F   F
  0.6856015294633409  0.4435881876212164  0.6391283000510199   F   F   F
  0.6861586144366143  0.3752002847121005  0.4798843190801634   F   F   F
  0.5638457701035833  0.5413938297819172  0.5226527976952084   F   F   F
  0.6988839035886585  0.6384323127483285  0.6394041696574106   F   F   F
  0.5621853196896751  0.6118702727920393  0.3644266768163646   F   F   F
  0.8117194132667436  0.4729046994132133  0.3624952231013552   F   F   F
  0.9347425377861782  0.4447222661028931  0.6385024227410554   F   F   F
  0.9367868799123684  0.3756277427366399  0.4796158435828772   F   F   F
  0.8128924303936529  0.5412781322623843  0.5211560070292194   F   F   F
  0.9431177143629483  0.6407651946341915  0.6388396859354941   F   F   F
  0.8131465504585762  0.6100443508445608  0.3619513050278869   F   F   F
  0.0588283335418964  0.8084531216539403  0.3604384382627543   F   F   F
  0.1674835824477796  0.7801433801251960  0.6383126473186422   F   F   F
  0.1873840904408013  0.7114605573150214  0.4793514320402323   F   F   F
  0.0600986496615832  0.8767845941045707  0.5200803668919534   F   F   F
  0.1867687707717280  0.9749002958831241  0.6383612583872917   F   F   F
  0.0589648650977210  0.9457636831152527  0.3607219464577582   F   F   F
  0.3108116074063005  0.8077925699447093  0.3627348200195399   F   F   F
  0.4682650006541991  0.7633157640583619  0.6639740404081991   F   F   F
  0.4370392137224357  0.7116651601264152  0.4836935984814446   F   F   F
  0.3055488381432454  0.8794071949023703  0.5191621670573454   F   F   F
  0.4330097047448263  0.9731856893014310  0.6374272307018245   F   F   F
  0.3121485672793369  0.9449136479396287  0.3610460937191391   F   F   F
  0.5594530027327735  0.8071692474572103  0.3640891098419132   F   F   F
  0.6934964306439753  0.7753860239749102  0.6378737461322004   F   F   F
  0.6883391363251832  0.7078052970430164  0.4793204973422007   F   F   F
  0.5589440609528324  0.8745022325591378  0.5244334550494898   F   F   F
  0.6854790573300065  0.9730813304716364  0.6391010418067680   F   F   F
  0.5607881368433141  0.9443478074562606  0.3644985527919573   F   F   F
  0.8079535044707669  0.8077337901275783  0.3626142376211163   F   F   F
  0.9323798427345196  0.7773051847987986  0.6359078058302075   F   F   F
  0.9373650590166633  0.7091267773936849  0.4771616261196385   F   F   F
  0.8114228754857464  0.8756540444153984  0.5215017100516661   F   F   F
  0.9370494848368551  0.9739284937867509  0.6388171951807351   F   F   F
  0.8085938733316809  0.9447938610293036  0.3630346957216020   F   F   F
  0.3700357991635315  0.8002434918598029  0.6310483365831808   T   T   T
 
  0.00000000E+00  0.00000000E+00  0.00000000E+00
  0.00000000E+00  0.00000000E+00  0.00000000E+00
  0.00000000E+00  0.00000000E+00  0.00000000E+00
  0.00000000E+00  0.00000000E+00  0.00000000E+00
  0.00000000E+00  0.00000000E+00  0.00000000E+00
  0.00000000E+00  0.00000000E+00  0.00000000E+00
  0.00000000E+00  0.00000000E+00  0.00000000E+00
  0.00000000E+00  0.00000000E+00  0.00000000E+00
  0.00000000E+00  0.00000000E+00  0.00000000E+00
  0.00000000E+00  0.00000000E+00  0.00000000E+00
  0.00000000E+00  0.00000000E+00  0.00000000E+00
  0.00000000E+00  0.00000000E+00  0.00000000E+00
  0.00000000E+00  0.00000000E+00  0.00000000E+00
  0.00000000E+00  0.00000000E+00  0.00000000E+00
  0.00000000E+00  0.00000000E+00  0.00000000E+00
  0.00000000E+00  0.00000000E+00  0.00000000E+00
  0.00000000E+00  0.00000000E+00  0.00000000E+00
  0.00000000E+00  0.00000000E+00  0.00000000E+00
  0.00000000E+00  0.00000000E+00  0.00000000E+00
  0.00000000E+00  0.00000000E+00  0.00000000E+00
  0.00000000E+00  0.00000000E+00  0.00000000E+00
  0.00000000E+00  0.00000000E+00  0.00000000E+00
  0.00000000E+00  0.00000000E+00  0.00000000E+00
  0.00000000E+00  0.00000000E+00  0.00000000E+00
  0.00000000E+00  0.00000000E+00  0.00000000E+00
  0.00000000E+00  0.00000000E+00  0.00000000E+00
  0.00000000E+00  0.00000000E+00  0.00000000E+00
  0.00000000E+00  0.00000000E+00  0.00000000E+00
  0.00000000E+00  0.00000000E+00  0.00000000E+00
  0.00000000E+00  0.00000000E+00  0.00000000E+00
  0.00000000E+00  0.00000000E+00  0.00000000E+00
  0.00000000E+00  0.00000000E+00  0.00000000E+00
  0.00000000E+00  0.00000000E+00  0.00000000E+00
  0.00000000E+00  0.00000000E+00  0.00000000E+00
  0.00000000E+00  0.00000000E+00  0.00000000E+00
  0.00000000E+00  0.00000000E+00  0.00000000E+00
  0.00000000E+00  0.00000000E+00  0.00000000E+00
  0.00000000E+00  0.00000000E+00  0.00000000E+00
  0.00000000E+00  0.00000000E+00  0.00000000E+00
  0.00000000E+00  0.00000000E+00  0.00000000E+00
  0.00000000E+00  0.00000000E+00  0.00000000E+00
  0.00000000E+00  0.00000000E+00  0.00000000E+00
  0.00000000E+00  0.00000000E+00  0.00000000E+00
  0.00000000E+00  0.00000000E+00  0.00000000E+00
  0.00000000E+00  0.00000000E+00  0.00000000E+00
  0.00000000E+00  0.00000000E+00  0.00000000E+00
  0.00000000E+00  0.00000000E+00  0.00000000E+00
  0.00000000E+00  0.00000000E+00  0.00000000E+00
  0.00000000E+00  0.00000000E+00  0.00000000E+00
  0.00000000E+00  0.00000000E+00  0.00000000E+00
  0.00000000E+00  0.00000000E+00  0.00000000E+00
  0.00000000E+00  0.00000000E+00  0.00000000E+00
  0.00000000E+00  0.00000000E+00  0.00000000E+00
  0.00000000E+00  0.00000000E+00  0.00000000E+00
  0.00000000E+00  0.00000000E+00  0.00000000E+00
  0.00000000E+00  0.00000000E+00  0.00000000E+00
  0.00000000E+00  0.00000000E+00  0.00000000E+00
  0.00000000E+00  0.00000000E+00  0.00000000E+00
  0.00000000E+00  0.00000000E+00  0.00000000E+00
  0.00000000E+00  0.00000000E+00  0.00000000E+00
  0.00000000E+00  0.00000000E+00  0.00000000E+00
  0.00000000E+00  0.00000000E+00  0.00000000E+00
  0.00000000E+00  0.00000000E+00  0.00000000E+00
  0.00000000E+00  0.00000000E+00  0.00000000E+00
  0.00000000E+00  0.00000000E+00  0.00000000E+00
  0.00000000E+00  0.00000000E+00  0.00000000E+00
  0.00000000E+00  0.00000000E+00  0.00000000E+00
  0.00000000E+00  0.00000000E+00  0.00000000E+00
  0.00000000E+00  0.00000000E+00  0.00000000E+00
  0.00000000E+00  0.00000000E+00  0.00000000E+00
  0.00000000E+00  0.00000000E+00  0.00000000E+00
  0.00000000E+00  0.00000000E+00  0.00000000E+00
  0.00000000E+00  0.00000000E+00  0.00000000E+00
  0.00000000E+00  0.00000000E+00  0.00000000E+00
  0.00000000E+00  0.00000000E+00  0.00000000E+00
  0.00000000E+00  0.00000000E+00  0.00000000E+00
  0.00000000E+00  0.00000000E+00  0.00000000E+00
  0.00000000E+00  0.00000000E+00  0.00000000E+00
  0.00000000E+00  0.00000000E+00  0.00000000E+00
  0.00000000E+00  0.00000000E+00  0.00000000E+00
  0.00000000E+00  0.00000000E+00  0.00000000E+00
  0.00000000E+00  0.00000000E+00  0.00000000E+00
  0.00000000E+00  0.00000000E+00  0.00000000E+00
  0.00000000E+00  0.00000000E+00  0.00000000E+00
  0.00000000E+00  0.00000000E+00  0.00000000E+00
  0.00000000E+00  0.00000000E+00  0.00000000E+00
  0.00000000E+00  0.00000000E+00  0.00000000E+00
  0.00000000E+00  0.00000000E+00  0.00000000E+00
  0.00000000E+00  0.00000000E+00  0.00000000E+00
  0.00000000E+00  0.00000000E+00  0.00000000E+00
  0.00000000E+00  0.00000000E+00  0.00000000E+00
  0.00000000E+00  0.00000000E+00  0.00000000E+00
  0.00000000E+00  0.00000000E+00  0.00000000E+00
  0.00000000E+00  0.00000000E+00  0.00000000E+00
  0.00000000E+00  0.00000000E+00  0.00000000E+00
  0.00000000E+00  0.00000000E+00  0.00000000E+00
  0.00000000E+00  0.00000000E+00  0.00000000E+00
