CONTCAR                                 
   1.00000000000000     
    11.4911003113000003    0.0000000000000000    0.0000000000000000
     0.0000000000000000   11.4911003113000003    0.0000000000000000
     0.0000000000000000    0.0000000000000000   24.1816997528000002
   Ca   Cu   Br   O 
    27    18    18    37
Direct
  0.9991865259547682  0.0000246709673714  0.6305211854558851
  0.9988794402505552  0.0000838778021753  0.3701192365884969
  0.9994976000828995  0.0000540693813522  0.5002989322598341
  0.3317293429405397  0.0000166651536603  0.6310904531465014
  0.3322295208259680  0.0000882321498402  0.3706855406364145
  0.3325206080484385  0.0000638588638071  0.5010412426676182
  0.6656229960021453  0.0000213521319837  0.6306593855338397
  0.6656214351746742  0.0000914922493766  0.3702849493226791
  0.6647153503546461  0.0000573738962129  0.5005145632245739
  0.9986011714234870  0.3326794345341705  0.6304468918326499
  0.9989756266393695  0.3335316168571480  0.3701797375940543
  0.9991142010181696  0.3333146213665337  0.5003292516098481
  0.3308229290477827  0.3393756054980768  0.6336954308299664
  0.3321739232153478  0.3335940719513574  0.3711053255352707
  0.3319612021953983  0.3330228791014226  0.5018428905651499
  0.6699876476461447  0.3296132140530331  0.6296305814749046
  0.6656068536176345  0.3334953429005331  0.3704980961649458
  0.6648690032261968  0.3334075933641480  0.5004418532481285
  0.9986167679406640  0.6673806717771869  0.6304337461206554
  0.9989664362982393  0.6666806823762959  0.3701694754230032
  0.9991161661194464  0.6667858158486428  0.5003284160877328
  0.3308264356559596  0.6606834897891264  0.6336773253992023
  0.3321648076515673  0.6666263002919014  0.3710923766275288
  0.3319574642591214  0.6670682760403190  0.5018151017147819
  0.6699940221705420  0.6704247993974116  0.6296256308676409
  0.6655995927716628  0.6666856202194807  0.3704872209552843
  0.6648715817767743  0.6666971655012690  0.5004298331706483
  0.1656397244214621  0.1667573090593010  0.4374455938055711
  0.1658696949294316  0.1669717989351396  0.5640579391526997
  0.4988132786662852  0.1667316765555220  0.4375915747738742
  0.4983414170242250  0.1673594175515243  0.5650178570163146
  0.8321911683089961  0.1667366757991278  0.4373972359858471
  0.8324499472625158  0.1662731696726739  0.5629261618838883
  0.1657184252626844  0.5000732209722158  0.4374773243739621
  0.1644761677120500  0.5000251362164535  0.5632447600375170
  0.4985728449859230  0.5000745319122569  0.4378192936850165
  0.4983099763522714  0.5000249512007575  0.5643834643975059
  0.8322737046096349  0.5000827389498392  0.4375030592453108
  0.8316780285631582  0.5000285502542641  0.5632598088690718
  0.1656274721757648  0.8334115978698263  0.4374437771088560
  0.1658821752883303  0.8330782511970788  0.5640507206978809
  0.4988302286026107  0.8334349853102754  0.4375841236387225
  0.4983301096841785  0.8327111222259126  0.5649960224335874
  0.8321874553588093  0.8334032963536873  0.4373841689466686
  0.8324622006592302  0.8338083434744993  0.5629139444076674
  0.1659057338354218  0.1668619400844217  0.3103882063937612
  0.1649246197043995  0.1662316109610907  0.6911826372704638
  0.4989205686386091  0.1672028894636464  0.3105577655195202
  0.4995250433774310  0.1689032185543038  0.6913791927483431
  0.8320536653902858  0.1671087852205303  0.3101404330892453
  0.8327199577744823  0.1661631218282072  0.6911496656830060
  0.1655336248379866  0.5001983556607741  0.3102019756112686
  0.1486941945181447  0.5000449739708501  0.6915357067661829
  0.4993124098492157  0.5000574335706374  0.3108915375805271
  0.5570427434443630  0.4999924947604993  0.7079573998140617
  0.8319249155701008  0.5000489804415178  0.3102520734399497
  0.8319295716610916  0.5001010375319415  0.6935814281837442
  0.1657271729223194  0.8333548994897694  0.3103442298852330
  0.1650548226069232  0.8338635016310590  0.6911613581184972
  0.4988936817903951  0.8330265784855454  0.3105587057932210
  0.4995457297865273  0.8310380689634809  0.6913994253707340
  0.8319908327629258  0.8330408852422890  0.3100930330360412
  0.8327867809382388  0.8339325219345982  0.6911158736868115
  0.9988851488891822  0.1668636717226821  0.4339519667977190
  0.9990524959082706  0.1661535894141921  0.5663397188225567
  0.1655315674845998  0.0000774438611722  0.4343876515542394
  0.1660350197418797  0.0000355113775021  0.5669833732895965
  0.3322208563617323  0.1666118094188979  0.4344397768095571
  0.3321127823887421  0.1668492071048012  0.5669960486852463
  0.4991292923175991  0.0000882432420445  0.4344965818440475
  0.4986872906759972  0.0000205514808019  0.5674035000696955
  0.6655113203006294  0.1670276338053021  0.4341452959317791
  0.6654879986237393  0.1661803823252637  0.5664076590319671
  0.8320663805439605  0.0000702082204208  0.4341180655669711
  0.8320083646213816  0.0000339097462000  0.5666542860414666
  0.9989769664948489  0.5000667401935911  0.4338222473541675
  0.9978023923394260  0.5000372191622710  0.5660270063807091
  0.1656608880004196  0.3333700088023693  0.4346774125179841
  0.1644411099410971  0.3335633634281683  0.5672337234601260
  0.3321358639417615  0.5000844072865894  0.4336760039861213
  0.3310694616636041  0.5000449527547849  0.5643870080101476
  0.4988928328847030  0.3333691391949133  0.4356167030996545
  0.4995452081776335  0.3345508068895068  0.5695883837323308
  0.6654542412926648  0.5000720344957393  0.4347588764926973
  0.6650239706093447  0.5000383094220349  0.5679110113727761
  0.8319618108236749  0.3334003594194211  0.4343262201665782
  0.8323012461749844  0.3331554080697333  0.5665970341325735
  0.9988813522436446  0.8332808758641448  0.4339521479322386
  0.9990577836372794  0.8339032429936976  0.5663343683878309
  0.1656637381093188  0.6667909035536184  0.4346815553281712
  0.1644443906657315  0.6665096029929175  0.5672277925409928
  0.3322137296778597  0.8335460860320115  0.4344326010033683
  0.3321280617970100  0.8332050854476721  0.5670003665184029
  0.4988995081607396  0.6667807298948856  0.4355892968483936
  0.4995542782380348  0.6655374526623915  0.5695665493568723
  0.6655253765410595  0.8331224929300990  0.4341260229097662
  0.6654844295334662  0.8338925884011859  0.5664060871389409
  0.8319573379044424  0.6667508151664800  0.4343077288608756
  0.8323066233398880  0.6669100434385811  0.5665877728502120
  0.4070598303650849  0.4999980030145644  0.6818998206653978
 
  0.00000000E+00  0.00000000E+00  0.00000000E+00
  0.00000000E+00  0.00000000E+00  0.00000000E+00
  0.00000000E+00  0.00000000E+00  0.00000000E+00
  0.00000000E+00  0.00000000E+00  0.00000000E+00
  0.00000000E+00  0.00000000E+00  0.00000000E+00
  0.00000000E+00  0.00000000E+00  0.00000000E+00
  0.00000000E+00  0.00000000E+00  0.00000000E+00
  0.00000000E+00  0.00000000E+00  0.00000000E+00
  0.00000000E+00  0.00000000E+00  0.00000000E+00
  0.00000000E+00  0.00000000E+00  0.00000000E+00
  0.00000000E+00  0.00000000E+00  0.00000000E+00
  0.00000000E+00  0.00000000E+00  0.00000000E+00
  0.00000000E+00  0.00000000E+00  0.00000000E+00
  0.00000000E+00  0.00000000E+00  0.00000000E+00
  0.00000000E+00  0.00000000E+00  0.00000000E+00
  0.00000000E+00  0.00000000E+00  0.00000000E+00
  0.00000000E+00  0.00000000E+00  0.00000000E+00
  0.00000000E+00  0.00000000E+00  0.00000000E+00
  0.00000000E+00  0.00000000E+00  0.00000000E+00
  0.00000000E+00  0.00000000E+00  0.00000000E+00
  0.00000000E+00  0.00000000E+00  0.00000000E+00
  0.00000000E+00  0.00000000E+00  0.00000000E+00
  0.00000000E+00  0.00000000E+00  0.00000000E+00
  0.00000000E+00  0.00000000E+00  0.00000000E+00
  0.00000000E+00  0.00000000E+00  0.00000000E+00
  0.00000000E+00  0.00000000E+00  0.00000000E+00
  0.00000000E+00  0.00000000E+00  0.00000000E+00
  0.00000000E+00  0.00000000E+00  0.00000000E+00
  0.00000000E+00  0.00000000E+00  0.00000000E+00
  0.00000000E+00  0.00000000E+00  0.00000000E+00
  0.00000000E+00  0.00000000E+00  0.00000000E+00
  0.00000000E+00  0.00000000E+00  0.00000000E+00
  0.00000000E+00  0.00000000E+00  0.00000000E+00
  0.00000000E+00  0.00000000E+00  0.00000000E+00
  0.00000000E+00  0.00000000E+00  0.00000000E+00
  0.00000000E+00  0.00000000E+00  0.00000000E+00
  0.00000000E+00  0.00000000E+00  0.00000000E+00
  0.00000000E+00  0.00000000E+00  0.00000000E+00
  0.00000000E+00  0.00000000E+00  0.00000000E+00
  0.00000000E+00  0.00000000E+00  0.00000000E+00
  0.00000000E+00  0.00000000E+00  0.00000000E+00
  0.00000000E+00  0.00000000E+00  0.00000000E+00
  0.00000000E+00  0.00000000E+00  0.00000000E+00
  0.00000000E+00  0.00000000E+00  0.00000000E+00
  0.00000000E+00  0.00000000E+00  0.00000000E+00
  0.00000000E+00  0.00000000E+00  0.00000000E+00
  0.00000000E+00  0.00000000E+00  0.00000000E+00
  0.00000000E+00  0.00000000E+00  0.00000000E+00
  0.00000000E+00  0.00000000E+00  0.00000000E+00
  0.00000000E+00  0.00000000E+00  0.00000000E+00
  0.00000000E+00  0.00000000E+00  0.00000000E+00
  0.00000000E+00  0.00000000E+00  0.00000000E+00
  0.00000000E+00  0.00000000E+00  0.00000000E+00
  0.00000000E+00  0.00000000E+00  0.00000000E+00
  0.00000000E+00  0.00000000E+00  0.00000000E+00
  0.00000000E+00  0.00000000E+00  0.00000000E+00
  0.00000000E+00  0.00000000E+00  0.00000000E+00
  0.00000000E+00  0.00000000E+00  0.00000000E+00
  0.00000000E+00  0.00000000E+00  0.00000000E+00
  0.00000000E+00  0.00000000E+00  0.00000000E+00
  0.00000000E+00  0.00000000E+00  0.00000000E+00
  0.00000000E+00  0.00000000E+00  0.00000000E+00
  0.00000000E+00  0.00000000E+00  0.00000000E+00
  0.00000000E+00  0.00000000E+00  0.00000000E+00
  0.00000000E+00  0.00000000E+00  0.00000000E+00
  0.00000000E+00  0.00000000E+00  0.00000000E+00
  0.00000000E+00  0.00000000E+00  0.00000000E+00
  0.00000000E+00  0.00000000E+00  0.00000000E+00
  0.00000000E+00  0.00000000E+00  0.00000000E+00
  0.00000000E+00  0.00000000E+00  0.00000000E+00
  0.00000000E+00  0.00000000E+00  0.00000000E+00
  0.00000000E+00  0.00000000E+00  0.00000000E+00
  0.00000000E+00  0.00000000E+00  0.00000000E+00
  0.00000000E+00  0.00000000E+00  0.00000000E+00
  0.00000000E+00  0.00000000E+00  0.00000000E+00
  0.00000000E+00  0.00000000E+00  0.00000000E+00
  0.00000000E+00  0.00000000E+00  0.00000000E+00
  0.00000000E+00  0.00000000E+00  0.00000000E+00
  0.00000000E+00  0.00000000E+00  0.00000000E+00
  0.00000000E+00  0.00000000E+00  0.00000000E+00
  0.00000000E+00  0.00000000E+00  0.00000000E+00
  0.00000000E+00  0.00000000E+00  0.00000000E+00
  0.00000000E+00  0.00000000E+00  0.00000000E+00
  0.00000000E+00  0.00000000E+00  0.00000000E+00
  0.00000000E+00  0.00000000E+00  0.00000000E+00
  0.00000000E+00  0.00000000E+00  0.00000000E+00
  0.00000000E+00  0.00000000E+00  0.00000000E+00
  0.00000000E+00  0.00000000E+00  0.00000000E+00
  0.00000000E+00  0.00000000E+00  0.00000000E+00
  0.00000000E+00  0.00000000E+00  0.00000000E+00
  0.00000000E+00  0.00000000E+00  0.00000000E+00
  0.00000000E+00  0.00000000E+00  0.00000000E+00
  0.00000000E+00  0.00000000E+00  0.00000000E+00
  0.00000000E+00  0.00000000E+00  0.00000000E+00
  0.00000000E+00  0.00000000E+00  0.00000000E+00
  0.00000000E+00  0.00000000E+00  0.00000000E+00
  0.00000000E+00  0.00000000E+00  0.00000000E+00
  0.00000000E+00  0.00000000E+00  0.00000000E+00
  0.00000000E+00  0.00000000E+00  0.00000000E+00
  0.00000000E+00  0.00000000E+00  0.00000000E+00
