CONTCAR                                 
   1.00000000000000     
     7.8446002007000004    0.0000000000000000    0.0000000000000000
     3.9223001003000002    6.7936230563000004    0.0000000000000000
     0.0000000000000000    0.0000000000000000   18.9503002167000005
   Te   Pt   O    H 
     8     8     6     3
Direct
  0.3274306121066672  0.3649505888693199  0.6086016655003093
  0.3247438762786956  0.3669880375321384  0.3988441193268741
  0.8235161435745653  0.3633621106178921  0.6100287451637527
  0.8226329544390936  0.3638681030481337  0.3826121743017126
  0.3233838504524158  0.8652586537900362  0.5942557141887121
  0.3225826248392707  0.8640352729294420  0.3825304840805615
  0.8244339188031091  0.8674095374463917  0.6084715720902594
  0.8226274996971199  0.8685463064187573  0.3988266775466442
  0.1530720701434589  0.2072816351579476  0.5394085173171490
  0.9964649767189826  0.0373032905319590  0.4550449287262168
  0.6578879267618376  0.1988103627671833  0.5385718188045061
  0.4847254487465875  0.0272771858809264  0.4563089793868116
  0.1536056084542494  0.6935795767869379  0.5380418803836378
  0.9856821676071803  0.5275812407215099  0.4552072496936717
  0.6660501333411730  0.6934118020554934  0.5393562455468199
  0.4962391056222160  0.5377245618708386  0.4550986381241060
  0.3048111627458283  0.3721896551595734  0.2862367693242547
  0.4967692348269708  0.3208032118459627  0.2575248776424388
  0.3217643156437333  0.8749284598298885  0.7052450057776056
  0.4138582499374621  0.6731263131595568  0.7312668861873703
  0.8136931371057869  0.8633605005488221  0.2864878371543611
  0.0081288959378725  0.8099803475293825  0.2599505536449342
  0.5632536755852868  0.1757133887966802  0.2537025396621075
  0.5467751141044843  0.6475875055608782  0.7427919773570864
  0.0768372165259450  0.6640823051443405  0.2582539990680743
 
  0.00000000E+00  0.00000000E+00  0.00000000E+00
  0.00000000E+00  0.00000000E+00  0.00000000E+00
  0.00000000E+00  0.00000000E+00  0.00000000E+00
  0.00000000E+00  0.00000000E+00  0.00000000E+00
  0.00000000E+00  0.00000000E+00  0.00000000E+00
  0.00000000E+00  0.00000000E+00  0.00000000E+00
  0.00000000E+00  0.00000000E+00  0.00000000E+00
  0.00000000E+00  0.00000000E+00  0.00000000E+00
  0.00000000E+00  0.00000000E+00  0.00000000E+00
  0.00000000E+00  0.00000000E+00  0.00000000E+00
  0.00000000E+00  0.00000000E+00  0.00000000E+00
  0.00000000E+00  0.00000000E+00  0.00000000E+00
  0.00000000E+00  0.00000000E+00  0.00000000E+00
  0.00000000E+00  0.00000000E+00  0.00000000E+00
  0.00000000E+00  0.00000000E+00  0.00000000E+00
  0.00000000E+00  0.00000000E+00  0.00000000E+00
  0.00000000E+00  0.00000000E+00  0.00000000E+00
  0.00000000E+00  0.00000000E+00  0.00000000E+00
  0.00000000E+00  0.00000000E+00  0.00000000E+00
  0.00000000E+00  0.00000000E+00  0.00000000E+00
  0.00000000E+00  0.00000000E+00  0.00000000E+00
  0.00000000E+00  0.00000000E+00  0.00000000E+00
  0.00000000E+00  0.00000000E+00  0.00000000E+00
  0.00000000E+00  0.00000000E+00  0.00000000E+00
  0.00000000E+00  0.00000000E+00  0.00000000E+00
