CONTCAR\(2)                             
   1.00000000000000     
    12.1801004410000004    0.0000000000000000    0.0000000000000000
    -1.4509505809000001   16.7930344431000016    0.0000000000000000
     0.0000000000000000    0.0000000000000000   21.1623001098999985
   Cu   Se   Cl   O 
    24    16    16    48
Direct
  0.4112335939950071  0.2760405992389607  0.3767275835044899
  0.2581481170623476  0.1672346390978419  0.4631444262648401
  0.4997976374468109  0.1834725618638728  0.6232175734914094
  0.3534444141461250  0.0109577200201088  0.5357248119779641
  0.1529457443731417  0.2918150060501290  0.5366943822130850
  0.0579437212249232  0.4488161696214874  0.4644695645364152
  0.9112335939950071  0.2760405992389607  0.3767275835044899
  0.7581481760623490  0.1672346390978419  0.4631444262648401
  0.9997976374468109  0.1834725618638728  0.6232175734914094
  0.8534443751461254  0.0109577200201088  0.5357248119779641
  0.6529457443731346  0.2918150060501290  0.5366943822130850
  0.5579436912249207  0.4488161696214874  0.4644695645364152
  0.4112335929950106  0.7760406022389645  0.3767275835044899
  0.2581481110623471  0.6672346000978422  0.4631444262648401
  0.4997976334468106  0.6834725368638743  0.6232175734914094
  0.3534444291461227  0.5109576970201104  0.5357248119779641
  0.1529457393731448  0.7918149810501305  0.5366943822130850
  0.0579437132249225  0.9488161166214866  0.4644695645364152
  0.9112335929950106  0.7760406022389645  0.3767275835044899
  0.7581481700623485  0.6672346000978422  0.4631444262648401
  0.9997976334468106  0.6834725368638743  0.6232175734914094
  0.8534443701461285  0.5109576970201104  0.5357248119779641
  0.6529457393731377  0.7918149810501305  0.5366943822130850
  0.5579436832249201  0.9488161166214866  0.4644695645364152
  0.1607441131072704  0.3261643661721294  0.3770368586955897
  0.2502633524199425  0.1334657317136418  0.6232009683163611
  0.0207769075118591  0.1221077358183322  0.4234749659746484
  0.3903220200117019  0.3374461869653373  0.5763552304265218
  0.6607441231072713  0.3261643661721294  0.3770368586955897
  0.7502633524199425  0.1334657317136418  0.6232009683163611
  0.5207768825118535  0.1221077358183322  0.4234749659746484
  0.8903220590117016  0.3374461869653373  0.5763552304265218
  0.1607441141072741  0.8261643121721249  0.3770368586955897
  0.2502633444199418  0.6334656787136410  0.6232009683163611
  0.0207769055118590  0.6221076958183289  0.4234749659746484
  0.3903220220117021  0.8374462179653364  0.5763552304265218
  0.6607441541072703  0.8261643121721249  0.3770368586955897
  0.7502633444199418  0.6334656787136410  0.6232009683163611
  0.5207769155118598  0.6221076958183289  0.4234749659746484
  0.8903219830117024  0.8374462179653364  0.5763552304265218
  0.2130420566129771  0.4422127273833780  0.5868776506566959
  0.1982466426852412  0.0175036611755175  0.4130950607059063
  0.4191191368924407  0.4014635351359956  0.3483377785618060
  0.4923128499456979  0.0580098563681162  0.6516442433854408
  0.7130420376129791  0.4422127273833780  0.5868776506566959
  0.6982465836852398  0.0175036611755175  0.4130950607059063
  0.9191190978924411  0.4014635351359956  0.3483377785618060
  0.9923128499456979  0.0580098563681162  0.6516442433854408
  0.2130420456129727  0.9422127303833747  0.5868776506566959
  0.1982466306852402  0.5174936281755151  0.4130950607059063
  0.4191191358924442  0.9014635381359994  0.3483377785618060
  0.4923128459456976  0.5580098383681147  0.6516442433854408
  0.7130420356129790  0.9422127303833747  0.5868776506566959
  0.6982466006852377  0.5174936281755151  0.4130950607059063
  0.9191190968924445  0.9014635381359994  0.3483377785618060
  0.9923128459456976  0.5580098383681147  0.6516442433854408
  0.0571067105766545  0.2561772900150459  0.3529098944515283
  0.4415475967937681  0.4197739970420429  0.5291854271747667
  0.1032491325288234  0.1721726609815164  0.4790937134743700
  0.3540905623446022  0.2033603035748399  0.6471673542941900
  0.2929443310622730  0.1122912437689578  0.5449428398532348
  0.1551472926222033  0.2035907859542334  0.6081791007510660
  0.4697708619309466  0.0400513663362716  0.4709121162816459
  0.4028851457910534  0.1763174867239030  0.4262852770341752
  0.3079599417073879  0.2875747749753259  0.5206286543223868
  0.1179095940579913  0.3472996989279338  0.4553048925980860
  0.0081128041979497  0.2830936585382844  0.5734964927203947
  0.2560257429508610  0.2561459235367920  0.3918932043329946
  0.5571067005766537  0.2561772900150459  0.3529098944515283
  0.9415476757937711  0.4197739970420429  0.5291854271747667
  0.6032491425288242  0.1721726609815164  0.4790937134743700
  0.8540905233446026  0.2033603035748399  0.6471673542941900
  0.7929443120622750  0.1122912437689578  0.5449428398532348
  0.6551472636221973  0.2035907859542334  0.6081791007510660
  0.9697707839309473  0.0400513663362716  0.4709121162816459
  0.9028851857910567  0.1763174867239030  0.4262852770341752
  0.8079598437073869  0.2875747749753259  0.5206286543223868
  0.6178996160579899  0.3472996989279338  0.4553048925980860
  0.5081127901979485  0.2830936585382844  0.5734964927203947
  0.7560257429508610  0.2561459235367920  0.3918932043329946
  0.0571067075766578  0.7561772360150485  0.3529098944515283
  0.4415475957937716  0.9197740000420538  0.5291854271747667
  0.1032491315288198  0.6721726219815167  0.4790937134743700
  0.3540905613446057  0.7033603075748402  0.6471673542941900
  0.2929443420622704  0.6122911827689563  0.5449428398532348
  0.1551472886222030  0.7035907609542278  0.6081791007510660
  0.4697708569309427  0.5400513343362690  0.4709121162816459
  0.4028851447910569  0.6763174897239068  0.4262852770341752
  0.3079599137073927  0.7875747209753285  0.5206286543223868
  0.1179095870579943  0.8472996169279341  0.4553048925980860
  0.0081127951979454  0.7830936325382822  0.5734964927203947
  0.2560257419508645  0.7561459265367887  0.3918932043329946
  0.5571067315766527  0.7561772360150485  0.3529098944515283
  0.9415476737937709  0.9197740000420538  0.5291854271747667
  0.6032491365288237  0.6721726219815167  0.4790937134743700
  0.8540905223446060  0.7033603075748402  0.6471673542941900
  0.7929443030622707  0.6122911827689563  0.5449428398532348
  0.6551472586222005  0.7035907609542278  0.6081791007510660
  0.9697707779309468  0.5400513343362690  0.4709121162816459
  0.9028851837910565  0.6763174897239068  0.4262852770341752
  0.8079598357073934  0.7875747209753285  0.5206286543223868
  0.6178996040579960  0.8472996169279341  0.4553048925980860
  0.5081127851979446  0.7830936325382822  0.5734964927203947
  0.7560257419508645  0.7561459265367887  0.3918932043329946
 
  0.00000000E+00  0.00000000E+00  0.00000000E+00
  0.00000000E+00  0.00000000E+00  0.00000000E+00
  0.00000000E+00  0.00000000E+00  0.00000000E+00
  0.00000000E+00  0.00000000E+00  0.00000000E+00
  0.00000000E+00  0.00000000E+00  0.00000000E+00
  0.00000000E+00  0.00000000E+00  0.00000000E+00
  0.00000000E+00  0.00000000E+00  0.00000000E+00
  0.00000000E+00  0.00000000E+00  0.00000000E+00
  0.00000000E+00  0.00000000E+00  0.00000000E+00
  0.00000000E+00  0.00000000E+00  0.00000000E+00
  0.00000000E+00  0.00000000E+00  0.00000000E+00
  0.00000000E+00  0.00000000E+00  0.00000000E+00
  0.00000000E+00  0.00000000E+00  0.00000000E+00
  0.00000000E+00  0.00000000E+00  0.00000000E+00
  0.00000000E+00  0.00000000E+00  0.00000000E+00
  0.00000000E+00  0.00000000E+00  0.00000000E+00
  0.00000000E+00  0.00000000E+00  0.00000000E+00
  0.00000000E+00  0.00000000E+00  0.00000000E+00
  0.00000000E+00  0.00000000E+00  0.00000000E+00
  0.00000000E+00  0.00000000E+00  0.00000000E+00
  0.00000000E+00  0.00000000E+00  0.00000000E+00
  0.00000000E+00  0.00000000E+00  0.00000000E+00
  0.00000000E+00  0.00000000E+00  0.00000000E+00
  0.00000000E+00  0.00000000E+00  0.00000000E+00
  0.00000000E+00  0.00000000E+00  0.00000000E+00
  0.00000000E+00  0.00000000E+00  0.00000000E+00
  0.00000000E+00  0.00000000E+00  0.00000000E+00
  0.00000000E+00  0.00000000E+00  0.00000000E+00
  0.00000000E+00  0.00000000E+00  0.00000000E+00
  0.00000000E+00  0.00000000E+00  0.00000000E+00
  0.00000000E+00  0.00000000E+00  0.00000000E+00
  0.00000000E+00  0.00000000E+00  0.00000000E+00
  0.00000000E+00  0.00000000E+00  0.00000000E+00
  0.00000000E+00  0.00000000E+00  0.00000000E+00
  0.00000000E+00  0.00000000E+00  0.00000000E+00
  0.00000000E+00  0.00000000E+00  0.00000000E+00
  0.00000000E+00  0.00000000E+00  0.00000000E+00
  0.00000000E+00  0.00000000E+00  0.00000000E+00
  0.00000000E+00  0.00000000E+00  0.00000000E+00
  0.00000000E+00  0.00000000E+00  0.00000000E+00
  0.00000000E+00  0.00000000E+00  0.00000000E+00
  0.00000000E+00  0.00000000E+00  0.00000000E+00
  0.00000000E+00  0.00000000E+00  0.00000000E+00
  0.00000000E+00  0.00000000E+00  0.00000000E+00
  0.00000000E+00  0.00000000E+00  0.00000000E+00
  0.00000000E+00  0.00000000E+00  0.00000000E+00
  0.00000000E+00  0.00000000E+00  0.00000000E+00
  0.00000000E+00  0.00000000E+00  0.00000000E+00
  0.00000000E+00  0.00000000E+00  0.00000000E+00
  0.00000000E+00  0.00000000E+00  0.00000000E+00
  0.00000000E+00  0.00000000E+00  0.00000000E+00
  0.00000000E+00  0.00000000E+00  0.00000000E+00
  0.00000000E+00  0.00000000E+00  0.00000000E+00
  0.00000000E+00  0.00000000E+00  0.00000000E+00
  0.00000000E+00  0.00000000E+00  0.00000000E+00
  0.00000000E+00  0.00000000E+00  0.00000000E+00
  0.00000000E+00  0.00000000E+00  0.00000000E+00
  0.00000000E+00  0.00000000E+00  0.00000000E+00
  0.00000000E+00  0.00000000E+00  0.00000000E+00
  0.00000000E+00  0.00000000E+00  0.00000000E+00
  0.00000000E+00  0.00000000E+00  0.00000000E+00
  0.00000000E+00  0.00000000E+00  0.00000000E+00
  0.00000000E+00  0.00000000E+00  0.00000000E+00
  0.00000000E+00  0.00000000E+00  0.00000000E+00
  0.00000000E+00  0.00000000E+00  0.00000000E+00
  0.00000000E+00  0.00000000E+00  0.00000000E+00
  0.00000000E+00  0.00000000E+00  0.00000000E+00
  0.00000000E+00  0.00000000E+00  0.00000000E+00
  0.00000000E+00  0.00000000E+00  0.00000000E+00
  0.00000000E+00  0.00000000E+00  0.00000000E+00
  0.00000000E+00  0.00000000E+00  0.00000000E+00
  0.00000000E+00  0.00000000E+00  0.00000000E+00
  0.00000000E+00  0.00000000E+00  0.00000000E+00
  0.00000000E+00  0.00000000E+00  0.00000000E+00
  0.00000000E+00  0.00000000E+00  0.00000000E+00
  0.00000000E+00  0.00000000E+00  0.00000000E+00
  0.00000000E+00  0.00000000E+00  0.00000000E+00
  0.00000000E+00  0.00000000E+00  0.00000000E+00
  0.00000000E+00  0.00000000E+00  0.00000000E+00
  0.00000000E+00  0.00000000E+00  0.00000000E+00
  0.00000000E+00  0.00000000E+00  0.00000000E+00
  0.00000000E+00  0.00000000E+00  0.00000000E+00
  0.00000000E+00  0.00000000E+00  0.00000000E+00
  0.00000000E+00  0.00000000E+00  0.00000000E+00
  0.00000000E+00  0.00000000E+00  0.00000000E+00
  0.00000000E+00  0.00000000E+00  0.00000000E+00
  0.00000000E+00  0.00000000E+00  0.00000000E+00
  0.00000000E+00  0.00000000E+00  0.00000000E+00
  0.00000000E+00  0.00000000E+00  0.00000000E+00
  0.00000000E+00  0.00000000E+00  0.00000000E+00
  0.00000000E+00  0.00000000E+00  0.00000000E+00
  0.00000000E+00  0.00000000E+00  0.00000000E+00
  0.00000000E+00  0.00000000E+00  0.00000000E+00
  0.00000000E+00  0.00000000E+00  0.00000000E+00
  0.00000000E+00  0.00000000E+00  0.00000000E+00
  0.00000000E+00  0.00000000E+00  0.00000000E+00
  0.00000000E+00  0.00000000E+00  0.00000000E+00
  0.00000000E+00  0.00000000E+00  0.00000000E+00
  0.00000000E+00  0.00000000E+00  0.00000000E+00
  0.00000000E+00  0.00000000E+00  0.00000000E+00
  0.00000000E+00  0.00000000E+00  0.00000000E+00
  0.00000000E+00  0.00000000E+00  0.00000000E+00
  0.00000000E+00  0.00000000E+00  0.00000000E+00
  0.00000000E+00  0.00000000E+00  0.00000000E+00
