CONTCAR\(7)                             
   1.00000000000000     
    12.4780998230000009    0.0000000000000000    0.0000000000000000
     0.0000000000000000   15.4434003830000002    0.0000000000000000
     0.0000000000000000    0.0000000000000000   19.6900997161999989
   Nb   Co   Te   O 
    16    16    32     1
Direct
  0.2395151192638223  0.1270423385468915  0.4941357139496499
  0.2558693424066971  0.3259317941606954  0.5072863425010666
  0.4895822210038738  0.0759182865433117  0.5067246566083587
  0.0046896055817286  0.3764134555896523  0.4953718494868766
  0.7397764661589213  0.1272957440857019  0.4939383717684554
  0.7570528877698182  0.3279434227157905  0.5039254163773299
  0.9896983537093096  0.0758883274391147  0.5064550791017068
  0.5050555753891819  0.3756244325402809  0.4953013915113813
  0.2385874737444157  0.6266422684972156  0.4954702019939677
  0.2571769663419947  0.8255589619595621  0.5073910053488022
  0.4896296997946342  0.5760218546863083  0.5073221455633591
  0.0067056371329906  0.8773163920979573  0.4947567037186819
  0.7408176757709125  0.6263773338685783  0.4936269120918542
  0.7566718828268094  0.8260749606854039  0.5066002582852142
  0.9869328922852314  0.5762065874726158  0.5073467595691858
  0.5065535419477399  0.8769334485664770  0.4948129633766951
  0.4251636895789043  0.2286531659719990  0.4591666622422994
  0.1751526102807400  0.4728784104242467  0.5425877539642766
  0.3200891741384328  0.4792094347453503  0.4602161996040694
  0.0717820766885750  0.2228842516954966  0.5415138969393574
  0.9259890248309002  0.2286678272651373  0.4585265679997542
  0.6798730869802754  0.4749393264205897  0.5410614867153634
  0.8191510589726936  0.4790056555521756  0.4525659153758435
  0.5707093789327469  0.2242881354795899  0.5415756904909909
  0.4249105404454923  0.7286818525735562  0.4599525476951568
  0.1760063425023843  0.9733862392323318  0.5417242559473975
  0.3210143107325372  0.9788749481148927  0.4596285205497346
  0.0707683810754508  0.7235939445521642  0.5417243708464483
  0.9254126210700050  0.7295874480097484  0.4594345063058537
  0.6760147084511109  0.9736879088222674  0.5416824815451379
  0.8211117899502887  0.9792299705261276  0.4593724785470347
  0.5707782991851452  0.7237229059815845  0.5418495940167947
  0.1243658276611730  0.4934272031117822  0.4146214137991782
  0.3694045156012911  0.3552482256110603  0.3825176130282208
  0.1172168887632133  0.3480272841442740  0.6197080990869351
  0.3759577014963835  0.2095684689913057  0.5882584516495127
  0.3749092260042009  0.1045840400894964  0.3815827792407035
  0.1253568072942632  0.0972668604932567  0.6192008830659068
  0.1202123976489547  0.2444889086899951  0.4125789740474445
  0.3705078298309326  0.4594228237477397  0.5891293145372991
  0.6244713762031517  0.4916144927433073  0.4134471398617918
  0.8720130845981857  0.3530339169477229  0.3793990387282570
  0.6227726124849017  0.3484893598672711  0.6184242882737901
  0.8758461792735089  0.2117494908413910  0.5866951908571661
  0.8758323732729548  0.1044725062892926  0.3812938155801941
  0.6262056472489484  0.0982311657930757  0.6189322512200444
  0.6196183893941463  0.2421687166848897  0.4123494957922184
  0.8671992674054787  0.4615992357528975  0.5865229383285954
  0.1259835406138557  0.9934956124025500  0.4130242097514181
  0.3705697835332882  0.8547775908078471  0.3822857658020044
  0.1208394448121174  0.8474777505271146  0.6195862445360851
  0.3757821455719111  0.7084827532482654  0.5891386955605754
  0.3744041383138124  0.6047812755845655  0.3826702584691380
  0.1216158281400863  0.5963237260980331  0.6198753741941453
  0.1206270063684757  0.7437880040192520  0.4134554776664829
  0.3707138102989387  0.9594138641034616  0.5885537149500044
  0.6257155055370819  0.9931218481963078  0.4132685040326934
  0.8710593026086498  0.8554653806628985  0.3818494724873254
  0.6209176226889647  0.8478106660567611  0.6194241897733623
  0.8750476982179023  0.7102357863648825  0.5881988133525680
  0.8763219735565457  0.6075260167049360  0.3801479838872305
  0.6271227330951179  0.5977881277536784  0.6191344076944758
  0.6201191765110108  0.7429523568391901  0.4132984379418319
  0.8705732384692396  0.9601058440833301  0.5883873321912826
  0.8656844885375703  0.4552998889253040  0.6809105045739324
 
  0.00000000E+00  0.00000000E+00  0.00000000E+00
  0.00000000E+00  0.00000000E+00  0.00000000E+00
  0.00000000E+00  0.00000000E+00  0.00000000E+00
  0.00000000E+00  0.00000000E+00  0.00000000E+00
  0.00000000E+00  0.00000000E+00  0.00000000E+00
  0.00000000E+00  0.00000000E+00  0.00000000E+00
  0.00000000E+00  0.00000000E+00  0.00000000E+00
  0.00000000E+00  0.00000000E+00  0.00000000E+00
  0.00000000E+00  0.00000000E+00  0.00000000E+00
  0.00000000E+00  0.00000000E+00  0.00000000E+00
  0.00000000E+00  0.00000000E+00  0.00000000E+00
  0.00000000E+00  0.00000000E+00  0.00000000E+00
  0.00000000E+00  0.00000000E+00  0.00000000E+00
  0.00000000E+00  0.00000000E+00  0.00000000E+00
  0.00000000E+00  0.00000000E+00  0.00000000E+00
  0.00000000E+00  0.00000000E+00  0.00000000E+00
  0.00000000E+00  0.00000000E+00  0.00000000E+00
  0.00000000E+00  0.00000000E+00  0.00000000E+00
  0.00000000E+00  0.00000000E+00  0.00000000E+00
  0.00000000E+00  0.00000000E+00  0.00000000E+00
  0.00000000E+00  0.00000000E+00  0.00000000E+00
  0.00000000E+00  0.00000000E+00  0.00000000E+00
  0.00000000E+00  0.00000000E+00  0.00000000E+00
  0.00000000E+00  0.00000000E+00  0.00000000E+00
  0.00000000E+00  0.00000000E+00  0.00000000E+00
  0.00000000E+00  0.00000000E+00  0.00000000E+00
  0.00000000E+00  0.00000000E+00  0.00000000E+00
  0.00000000E+00  0.00000000E+00  0.00000000E+00
  0.00000000E+00  0.00000000E+00  0.00000000E+00
  0.00000000E+00  0.00000000E+00  0.00000000E+00
  0.00000000E+00  0.00000000E+00  0.00000000E+00
  0.00000000E+00  0.00000000E+00  0.00000000E+00
  0.00000000E+00  0.00000000E+00  0.00000000E+00
  0.00000000E+00  0.00000000E+00  0.00000000E+00
  0.00000000E+00  0.00000000E+00  0.00000000E+00
  0.00000000E+00  0.00000000E+00  0.00000000E+00
  0.00000000E+00  0.00000000E+00  0.00000000E+00
  0.00000000E+00  0.00000000E+00  0.00000000E+00
  0.00000000E+00  0.00000000E+00  0.00000000E+00
  0.00000000E+00  0.00000000E+00  0.00000000E+00
  0.00000000E+00  0.00000000E+00  0.00000000E+00
  0.00000000E+00  0.00000000E+00  0.00000000E+00
  0.00000000E+00  0.00000000E+00  0.00000000E+00
  0.00000000E+00  0.00000000E+00  0.00000000E+00
  0.00000000E+00  0.00000000E+00  0.00000000E+00
  0.00000000E+00  0.00000000E+00  0.00000000E+00
  0.00000000E+00  0.00000000E+00  0.00000000E+00
  0.00000000E+00  0.00000000E+00  0.00000000E+00
  0.00000000E+00  0.00000000E+00  0.00000000E+00
  0.00000000E+00  0.00000000E+00  0.00000000E+00
  0.00000000E+00  0.00000000E+00  0.00000000E+00
  0.00000000E+00  0.00000000E+00  0.00000000E+00
  0.00000000E+00  0.00000000E+00  0.00000000E+00
  0.00000000E+00  0.00000000E+00  0.00000000E+00
  0.00000000E+00  0.00000000E+00  0.00000000E+00
  0.00000000E+00  0.00000000E+00  0.00000000E+00
  0.00000000E+00  0.00000000E+00  0.00000000E+00
  0.00000000E+00  0.00000000E+00  0.00000000E+00
  0.00000000E+00  0.00000000E+00  0.00000000E+00
  0.00000000E+00  0.00000000E+00  0.00000000E+00
  0.00000000E+00  0.00000000E+00  0.00000000E+00
  0.00000000E+00  0.00000000E+00  0.00000000E+00
  0.00000000E+00  0.00000000E+00  0.00000000E+00
  0.00000000E+00  0.00000000E+00  0.00000000E+00
  0.00000000E+00  0.00000000E+00  0.00000000E+00
