Repeated-UnitCell:     2    2    1      
   1.00000000000000     
     8.4392813981080455    0.0000000000000000    0.0000000000000000
    -4.2196406990540227    7.3091561583650071    0.0000000000000000
     0.0000000000000000    0.0000000000000000   35.9861849240740099
   Bi   Se
    24    24
Direct
  0.3333475071356986  0.1666950282087427  0.5250493035596652
  0.8333475071356986  0.1666950282087427  0.5250493035596652
  0.3333475071356986  0.6666950282087427  0.5250493035596652
  0.8333475071356986  0.6666950282087427  0.5250493035596652
  0.1666512267655591  0.3333024261989195  0.4749012163815360
  0.6666512267655591  0.3333024261989195  0.4749012163815360
  0.1666512267655591  0.8333024261989195  0.4749012163815360
  0.6666512267655591  0.8333024261989195  0.4749012163815360
  0.3333293529334398  0.1666586791084441  0.3590111633430790
  0.8333293529334398  0.1666586791084441  0.3590111633430790
  0.3333293529334398  0.6666586791084441  0.3590111633430790
  0.8333293529334398  0.6666586791084441  0.3590111633430790
  0.1666696342399518  0.3333392770696975  0.6409692989843279
  0.6666696342399518  0.3333392770696975  0.6409692989843279
  0.1666696342399518  0.8333392770696975  0.6409692989843279
  0.6666696342399518  0.8333392770696975  0.6409692989843279
  0.0000031260791147  0.0000061985985482  0.2532852930658893
  0.5000031260791147  0.0000061985985482  0.2532852930658893
  0.0000031260791147  0.5000061985985482  0.2532852930658893
  0.5000031260791147  0.5000061985985482  0.2532852930658893
  0.9999950530051365  0.9999901858358413  0.7467491624468362
  0.4999950530051365  0.9999901858358413  0.7467491624468362
  0.9999950530051365  0.4999901858358413  0.7467491624468362
  0.4999950530051365  0.4999901858358413  0.7467491624468362
  0.0000160178273845  0.0000319889021512  0.4025414104424934
  0.5000160178273845  0.0000319889021512  0.4025414104424934
  0.0000160178273845  0.5000319889021512  0.4025414104424934
  0.5000160178273845  0.5000319889021512  0.4025414104424934
  0.9999758931363587  0.9999518227117150  0.5974351054800474
  0.4999758931363587  0.9999518227117150  0.5974351054800474
  0.9999758931363587  0.4999518227117150  0.5974351054800474
  0.4999758931363587  0.4999518227117150  0.5974351054800474
  0.3333496796767434  0.1666993847887355  0.6929340935056124
  0.8333496796767434  0.1666993847887355  0.6929340935056124
  0.3333496796767434  0.6666993847887355  0.6929340935056124
  0.8333496796767434  0.6666993847887355  0.6929340935056124
  0.1666586215485992  0.3333172222393586  0.3070806907830323
  0.6666586215485992  0.3333172222393586  0.3070806907830323
  0.1666586215485992  0.8333172222393586  0.3070806907830323
  0.6666586215485992  0.8333172222393586  0.3070806907830323
  0.3333252174640364  0.1666504382545497  0.2110657824372805
  0.8333252174640364  0.1666504382545497  0.2110657824372805
  0.3333252174640364  0.6666504382545497  0.2110657824372805
  0.8333252174640364  0.6666504382545497  0.2110657824372805
  0.1666786701879630  0.3333573480832897  0.7889774795701928
  0.6666786701879630  0.3333573480832897  0.7889774795701928
  0.1666786701879630  0.8333573480832897  0.7889774795701928
  0.6666786701879630  0.8333573480832897  0.7889774795701928
 
  0.00000000E+00  0.00000000E+00  0.00000000E+00
  0.00000000E+00  0.00000000E+00  0.00000000E+00
  0.00000000E+00  0.00000000E+00  0.00000000E+00
  0.00000000E+00  0.00000000E+00  0.00000000E+00
  0.00000000E+00  0.00000000E+00  0.00000000E+00
  0.00000000E+00  0.00000000E+00  0.00000000E+00
  0.00000000E+00  0.00000000E+00  0.00000000E+00
  0.00000000E+00  0.00000000E+00  0.00000000E+00
  0.00000000E+00  0.00000000E+00  0.00000000E+00
  0.00000000E+00  0.00000000E+00  0.00000000E+00
  0.00000000E+00  0.00000000E+00  0.00000000E+00
  0.00000000E+00  0.00000000E+00  0.00000000E+00
  0.00000000E+00  0.00000000E+00  0.00000000E+00
  0.00000000E+00  0.00000000E+00  0.00000000E+00
  0.00000000E+00  0.00000000E+00  0.00000000E+00
  0.00000000E+00  0.00000000E+00  0.00000000E+00
  0.00000000E+00  0.00000000E+00  0.00000000E+00
  0.00000000E+00  0.00000000E+00  0.00000000E+00
  0.00000000E+00  0.00000000E+00  0.00000000E+00
  0.00000000E+00  0.00000000E+00  0.00000000E+00
  0.00000000E+00  0.00000000E+00  0.00000000E+00
  0.00000000E+00  0.00000000E+00  0.00000000E+00
  0.00000000E+00  0.00000000E+00  0.00000000E+00
  0.00000000E+00  0.00000000E+00  0.00000000E+00
  0.00000000E+00  0.00000000E+00  0.00000000E+00
  0.00000000E+00  0.00000000E+00  0.00000000E+00
  0.00000000E+00  0.00000000E+00  0.00000000E+00
  0.00000000E+00  0.00000000E+00  0.00000000E+00
  0.00000000E+00  0.00000000E+00  0.00000000E+00
  0.00000000E+00  0.00000000E+00  0.00000000E+00
  0.00000000E+00  0.00000000E+00  0.00000000E+00
  0.00000000E+00  0.00000000E+00  0.00000000E+00
  0.00000000E+00  0.00000000E+00  0.00000000E+00
  0.00000000E+00  0.00000000E+00  0.00000000E+00
  0.00000000E+00  0.00000000E+00  0.00000000E+00
  0.00000000E+00  0.00000000E+00  0.00000000E+00
  0.00000000E+00  0.00000000E+00  0.00000000E+00
  0.00000000E+00  0.00000000E+00  0.00000000E+00
  0.00000000E+00  0.00000000E+00  0.00000000E+00
  0.00000000E+00  0.00000000E+00  0.00000000E+00
  0.00000000E+00  0.00000000E+00  0.00000000E+00
  0.00000000E+00  0.00000000E+00  0.00000000E+00
  0.00000000E+00  0.00000000E+00  0.00000000E+00
  0.00000000E+00  0.00000000E+00  0.00000000E+00
  0.00000000E+00  0.00000000E+00  0.00000000E+00
  0.00000000E+00  0.00000000E+00  0.00000000E+00
  0.00000000E+00  0.00000000E+00  0.00000000E+00
  0.00000000E+00  0.00000000E+00  0.00000000E+00
