CONTCAR\(2)                             
   1.00000000000000     
    12.9092998505000001    0.0000000000000000    0.0000000000000000
     0.0000000000000000   11.5581998825000003    0.0000000000000000
     0.0000000000000000    0.0000000000000000   18.7824001311999993
   Nb   Ge   Te   O 
    12     4    24     1
Direct
  0.3485720742520101  0.7096734395633648  0.5166073138585481
  0.0946776970783407  0.2826492884136208  0.5002286788784254
  0.4796313877625881  0.0638926282342248  0.5002555905459019
  0.2304807372834593  0.9341058257801691  0.5030125822915748
  0.3309923931137844  0.4093928066302831  0.5006909630859732
  0.0819083884969575  0.5832749036967054  0.5033267868225874
  0.8445562361943969  0.7143212680755935  0.5009706797536323
  0.5942852072437271  0.2836605035615362  0.5022599400679967
  0.9781180829286400  0.0631142194774762  0.5001308527751362
  0.7282081685926265  0.9351296914820225  0.5015964242769836
  0.8332475035096846  0.4161454867490683  0.5002874078939290
  0.5930353514666814  0.5788488313864647  0.5017063760540277
  0.2827899845752457  0.1721904607880349  0.4981527039147365
  0.0321453854249698  0.8251780096354770  0.5001086805513885
  0.7847034220889757  0.1749323132817668  0.5006679660855476
  0.5347560846196058  0.8238586440736936  0.5062480302161182
  0.4469840439275515  0.5251105133612219  0.6058898277263580
  0.1731363906876017  0.4338297930167891  0.3992784079743299
  0.1744862744641750  0.4304213025532980  0.6034173677193250
  0.4228334423533725  0.5713439257839096  0.4065564038704028
  0.3896675156714445  0.9232901087487222  0.6040911937986443
  0.1390586924559156  0.0877643933491248  0.3998594515842042
  0.1380856024594000  0.0915196601452176  0.6008568850438428
  0.3919926252863083  0.9033399897094692  0.4040022213723424
  0.1643538982821248  0.7518417560199231  0.6022168188019479
  0.4307785091830678  0.2559082962484283  0.4019537829100731
  0.4259915353171825  0.2462413984424364  0.6004355054679638
  0.1827892791519728  0.7399539104511791  0.4087724096595802
  0.9231371935336169  0.5663813950144631  0.6038214690484693
  0.6740328239864745  0.4289065307064753  0.3983422326028019
  0.6822064560350899  0.4261247271999032  0.6060127953922788
  0.9243279046309970  0.5667517490087099  0.3991383128841210
  0.8889861458160059  0.9084419305322905  0.6012728697721248
  0.6407688333478414  0.0911030548673493  0.4003196111483220
  0.6406945789255929  0.0914980006001446  0.6022018896291590
  0.8859906936905851  0.9083726408988255  0.3998574431991178
  0.6818525936177268  0.7398658649219413  0.6009812778435298
  0.9290889283634025  0.2563928060125929  0.4020015917086578
  0.9298701900645617  0.2566755451964839  0.5985485709068120
  0.6764548797502878  0.7432650884670964  0.4038328248851815
  0.3673531553660318  0.6743872739144953  0.6182580609779259
 
  0.00000000E+00  0.00000000E+00  0.00000000E+00
  0.00000000E+00  0.00000000E+00  0.00000000E+00
  0.00000000E+00  0.00000000E+00  0.00000000E+00
  0.00000000E+00  0.00000000E+00  0.00000000E+00
  0.00000000E+00  0.00000000E+00  0.00000000E+00
  0.00000000E+00  0.00000000E+00  0.00000000E+00
  0.00000000E+00  0.00000000E+00  0.00000000E+00
  0.00000000E+00  0.00000000E+00  0.00000000E+00
  0.00000000E+00  0.00000000E+00  0.00000000E+00
  0.00000000E+00  0.00000000E+00  0.00000000E+00
  0.00000000E+00  0.00000000E+00  0.00000000E+00
  0.00000000E+00  0.00000000E+00  0.00000000E+00
  0.00000000E+00  0.00000000E+00  0.00000000E+00
  0.00000000E+00  0.00000000E+00  0.00000000E+00
  0.00000000E+00  0.00000000E+00  0.00000000E+00
  0.00000000E+00  0.00000000E+00  0.00000000E+00
  0.00000000E+00  0.00000000E+00  0.00000000E+00
  0.00000000E+00  0.00000000E+00  0.00000000E+00
  0.00000000E+00  0.00000000E+00  0.00000000E+00
  0.00000000E+00  0.00000000E+00  0.00000000E+00
  0.00000000E+00  0.00000000E+00  0.00000000E+00
  0.00000000E+00  0.00000000E+00  0.00000000E+00
  0.00000000E+00  0.00000000E+00  0.00000000E+00
  0.00000000E+00  0.00000000E+00  0.00000000E+00
  0.00000000E+00  0.00000000E+00  0.00000000E+00
  0.00000000E+00  0.00000000E+00  0.00000000E+00
  0.00000000E+00  0.00000000E+00  0.00000000E+00
  0.00000000E+00  0.00000000E+00  0.00000000E+00
  0.00000000E+00  0.00000000E+00  0.00000000E+00
  0.00000000E+00  0.00000000E+00  0.00000000E+00
  0.00000000E+00  0.00000000E+00  0.00000000E+00
  0.00000000E+00  0.00000000E+00  0.00000000E+00
  0.00000000E+00  0.00000000E+00  0.00000000E+00
  0.00000000E+00  0.00000000E+00  0.00000000E+00
  0.00000000E+00  0.00000000E+00  0.00000000E+00
  0.00000000E+00  0.00000000E+00  0.00000000E+00
  0.00000000E+00  0.00000000E+00  0.00000000E+00
  0.00000000E+00  0.00000000E+00  0.00000000E+00
  0.00000000E+00  0.00000000E+00  0.00000000E+00
  0.00000000E+00  0.00000000E+00  0.00000000E+00
  0.00000000E+00  0.00000000E+00  0.00000000E+00
