CONTCAR\(2)                             
   1.00000000000000     
    10.5677003860000003    0.0000000000000000    0.0000000000000000
    -1.7612875669000001   15.6418507631000008    0.0000000000000000
     0.0000000000000000    0.0000000000000000   21.6047992706000009
   Sc   Cl   O 
    21    30     1
Direct
  0.0755466908132893  0.4398278770742750  0.4613506547029256
  0.2577519225107936  0.5524329112698796  0.5505406269161651
  0.0615345809595836  0.3813311680983221  0.5985557778322923
  0.2674721777047863  0.6111182052033471  0.4144472593158374
  0.2151734608599621  0.2647267266541897  0.5034091581303517
  0.1234914068739321  0.7222112805946304  0.5128333711106445
  0.0055354238605632  0.9990788209976660  0.5002498819614745
  0.4048824431434049  0.4409320331601824  0.4606163656004445
  0.5905317892129985  0.5553791553646678  0.5504215340003312
  0.3967935143818906  0.3809076287623546  0.5967070043689467
  0.6007528182853021  0.6130406566463661  0.4141579677968677
  0.5132250109524048  0.2501876067600426  0.4851784700410536
  0.4490778732741424  0.7246989137197853  0.5122817749885540
  0.3470263711895124  0.0606035351012978  0.4843423312886570
  0.7347872375215780  0.4408511223755268  0.4599068455446045
  0.9236305304938190  0.5523712370547418  0.5503125502305518
  0.7239752726727789  0.3791656978494002  0.5949363418254827
  0.9346330824822284  0.6127832774266547  0.4142137732653794
  0.8799513899658064  0.2729214881123140  0.4984927482070371
  0.7864926084032903  0.7224684431441900  0.5121323460406851
  0.6617729758153007  0.9920063184121443  0.5066371794438539
  0.0241162169941056  0.1569374887118366  0.4647752303198657
  0.3024268714199660  0.8319927946197001  0.5427834728972333
  0.2062424870861571  0.2629037105818746  0.6209986472325428
  0.1215919738909666  0.7337598056392215  0.3963893410667914
  0.1686233251788933 -0.0166755053218046  0.4198167115615563
  0.1779378410029424  0.0290022316514020  0.5732977851227731
  0.2447941128909679  0.4681783878259640  0.6576820557256545
  0.1047104767270031  0.6470839328428403  0.6128274447059916
  0.2226130601474694  0.3407909827422161  0.4021026241699708
  0.0863715938749152  0.5255704941415048  0.3541156891757272
  0.4402100850689464  0.1470895572170287  0.3921735109188655
  0.6405269879229557  0.8378216817036817  0.5466326524070809
  0.5412716642402908  0.2594879749475110  0.6077696352772611
  0.4541846328894480  0.7336854725173275  0.3960102628769726
  0.4929912271716189 -0.0442696434422653  0.4318570287162939
  0.4960024157343817  0.0341384222021967  0.5760100395173595
  0.5760986014838158  0.4663504534788001  0.6569479639426071
  0.4402927359854952  0.6489932353867330  0.6124476298699500
  0.5573849332807793  0.3520782484250004  0.3970420557802055
  0.4193774455563345  0.5272222634162431  0.3530740778915648
  0.7005415189651081  0.1534669053369055  0.4793330868790273
  0.9750069787148403  0.8407064374748749  0.5321164734938708
  0.8724596061970249  0.2588188762701885  0.6141792936168542
  0.7881305783091946  0.7350938218115218  0.3962688902448519
  0.8245142416311937 -0.0331240481858815  0.4258733195669008
  0.8441916562674229  0.0245861626061017  0.5811924750190742
  0.9047144567725743  0.4649808138353271  0.6570470817649791
  0.7748065814034168  0.6496469213249293  0.6127986063336220
  0.8891225177081272  0.3451369689032019  0.3982124690030648
  0.7543363879558918  0.5284793373932060  0.3530061672462678
  0.3443981311504071  0.1803311701606731  0.5095445240430785
 
  0.00000000E+00  0.00000000E+00  0.00000000E+00
  0.00000000E+00  0.00000000E+00  0.00000000E+00
  0.00000000E+00  0.00000000E+00  0.00000000E+00
  0.00000000E+00  0.00000000E+00  0.00000000E+00
  0.00000000E+00  0.00000000E+00  0.00000000E+00
  0.00000000E+00  0.00000000E+00  0.00000000E+00
  0.00000000E+00  0.00000000E+00  0.00000000E+00
  0.00000000E+00  0.00000000E+00  0.00000000E+00
  0.00000000E+00  0.00000000E+00  0.00000000E+00
  0.00000000E+00  0.00000000E+00  0.00000000E+00
  0.00000000E+00  0.00000000E+00  0.00000000E+00
  0.00000000E+00  0.00000000E+00  0.00000000E+00
  0.00000000E+00  0.00000000E+00  0.00000000E+00
  0.00000000E+00  0.00000000E+00  0.00000000E+00
  0.00000000E+00  0.00000000E+00  0.00000000E+00
  0.00000000E+00  0.00000000E+00  0.00000000E+00
  0.00000000E+00  0.00000000E+00  0.00000000E+00
  0.00000000E+00  0.00000000E+00  0.00000000E+00
  0.00000000E+00  0.00000000E+00  0.00000000E+00
  0.00000000E+00  0.00000000E+00  0.00000000E+00
  0.00000000E+00  0.00000000E+00  0.00000000E+00
  0.00000000E+00  0.00000000E+00  0.00000000E+00
  0.00000000E+00  0.00000000E+00  0.00000000E+00
  0.00000000E+00  0.00000000E+00  0.00000000E+00
  0.00000000E+00  0.00000000E+00  0.00000000E+00
  0.00000000E+00  0.00000000E+00  0.00000000E+00
  0.00000000E+00  0.00000000E+00  0.00000000E+00
  0.00000000E+00  0.00000000E+00  0.00000000E+00
  0.00000000E+00  0.00000000E+00  0.00000000E+00
  0.00000000E+00  0.00000000E+00  0.00000000E+00
  0.00000000E+00  0.00000000E+00  0.00000000E+00
  0.00000000E+00  0.00000000E+00  0.00000000E+00
  0.00000000E+00  0.00000000E+00  0.00000000E+00
  0.00000000E+00  0.00000000E+00  0.00000000E+00
  0.00000000E+00  0.00000000E+00  0.00000000E+00
  0.00000000E+00  0.00000000E+00  0.00000000E+00
  0.00000000E+00  0.00000000E+00  0.00000000E+00
  0.00000000E+00  0.00000000E+00  0.00000000E+00
  0.00000000E+00  0.00000000E+00  0.00000000E+00
  0.00000000E+00  0.00000000E+00  0.00000000E+00
  0.00000000E+00  0.00000000E+00  0.00000000E+00
  0.00000000E+00  0.00000000E+00  0.00000000E+00
  0.00000000E+00  0.00000000E+00  0.00000000E+00
  0.00000000E+00  0.00000000E+00  0.00000000E+00
  0.00000000E+00  0.00000000E+00  0.00000000E+00
  0.00000000E+00  0.00000000E+00  0.00000000E+00
  0.00000000E+00  0.00000000E+00  0.00000000E+00
  0.00000000E+00  0.00000000E+00  0.00000000E+00
  0.00000000E+00  0.00000000E+00  0.00000000E+00
  0.00000000E+00  0.00000000E+00  0.00000000E+00
  0.00000000E+00  0.00000000E+00  0.00000000E+00
  0.00000000E+00  0.00000000E+00  0.00000000E+00
