G   36   34    1    0.005     # Parameters to Generate KPOINTS (Don't Edit This Line)
     614
Reciprocal lattice
    0.000000000000    0.000000000000    0.000000000000       1
    0.027777777778    0.000000000000    0.000000000000       2
    0.055555555556    0.000000000000    0.000000000000       2
    0.083333333333    0.000000000000    0.000000000000       2
    0.111111111111    0.000000000000    0.000000000000       2
    0.138888888889    0.000000000000    0.000000000000       2
    0.166666666667    0.000000000000    0.000000000000       2
    0.194444444444    0.000000000000    0.000000000000       2
    0.222222222222    0.000000000000    0.000000000000       2
    0.250000000000    0.000000000000    0.000000000000       2
    0.277777777778    0.000000000000    0.000000000000       2
    0.305555555556    0.000000000000    0.000000000000       2
    0.333333333333    0.000000000000    0.000000000000       2
    0.361111111111    0.000000000000    0.000000000000       2
    0.388888888889    0.000000000000    0.000000000000       2
    0.416666666667    0.000000000000    0.000000000000       2
    0.444444444444    0.000000000000    0.000000000000       2
    0.472222222222    0.000000000000    0.000000000000       2
    0.500000000000    0.000000000000    0.000000000000       1
    0.000000000000    0.029411764706    0.000000000000       2
    0.027777777778    0.029411764706    0.000000000000       2
    0.055555555556    0.029411764706    0.000000000000       2
    0.083333333333    0.029411764706    0.000000000000       2
    0.111111111111    0.029411764706    0.000000000000       2
    0.138888888889    0.029411764706    0.000000000000       2
    0.166666666667    0.029411764706    0.000000000000       2
    0.194444444444    0.029411764706    0.000000000000       2
    0.222222222222    0.029411764706    0.000000000000       2
    0.250000000000    0.029411764706    0.000000000000       2
    0.277777777778    0.029411764706    0.000000000000       2
    0.305555555556    0.029411764706    0.000000000000       2
    0.333333333333    0.029411764706    0.000000000000       2
    0.361111111111    0.029411764706    0.000000000000       2
    0.388888888889    0.029411764706    0.000000000000       2
    0.416666666667    0.029411764706    0.000000000000       2
    0.444444444444    0.029411764706    0.000000000000       2
    0.472222222222    0.029411764706    0.000000000000       2
    0.500000000000    0.029411764706    0.000000000000       2
   -0.472222222222    0.029411764706    0.000000000000       2
   -0.444444444444    0.029411764706    0.000000000000       2
   -0.416666666667    0.029411764706    0.000000000000       2
   -0.388888888889    0.029411764706    0.000000000000       2
   -0.361111111111    0.029411764706    0.000000000000       2
   -0.333333333333    0.029411764706    0.000000000000       2
   -0.305555555556    0.029411764706    0.000000000000       2
   -0.277777777778    0.029411764706    0.000000000000       2
   -0.250000000000    0.029411764706    0.000000000000       2
   -0.222222222222    0.029411764706    0.000000000000       2
   -0.194444444444    0.029411764706    0.000000000000       2
   -0.166666666667    0.029411764706    0.000000000000       2
   -0.138888888889    0.029411764706    0.000000000000       2
   -0.111111111111    0.029411764706    0.000000000000       2
   -0.083333333333    0.029411764706    0.000000000000       2
   -0.055555555556    0.029411764706    0.000000000000       2
   -0.027777777778    0.029411764706    0.000000000000       2
    0.000000000000    0.058823529412    0.000000000000       2
    0.027777777778    0.058823529412    0.000000000000       2
    0.055555555556    0.058823529412    0.000000000000       2
    0.083333333333    0.058823529412    0.000000000000       2
    0.111111111111    0.058823529412    0.000000000000       2
    0.138888888889    0.058823529412    0.000000000000       2
    0.166666666667    0.058823529412    0.000000000000       2
    0.194444444444    0.058823529412    0.000000000000       2
    0.222222222222    0.058823529412    0.000000000000       2
    0.250000000000    0.058823529412    0.000000000000       2
    0.277777777778    0.058823529412    0.000000000000       2
    0.305555555556    0.058823529412    0.000000000000       2
    0.333333333333    0.058823529412    0.000000000000       2
    0.361111111111    0.058823529412    0.000000000000       2
    0.388888888889    0.058823529412    0.000000000000       2
    0.416666666667    0.058823529412    0.000000000000       2
    0.444444444444    0.058823529412    0.000000000000       2
    0.472222222222    0.058823529412    0.000000000000       2
    0.500000000000    0.058823529412    0.000000000000       2
   -0.472222222222    0.058823529412    0.000000000000       2
   -0.444444444444    0.058823529412    0.000000000000       2
   -0.416666666667    0.058823529412    0.000000000000       2
   -0.388888888889    0.058823529412    0.000000000000       2
   -0.361111111111    0.058823529412    0.000000000000       2
   -0.333333333333    0.058823529412    0.000000000000       2
   -0.305555555556    0.058823529412    0.000000000000       2
   -0.277777777778    0.058823529412    0.000000000000       2
   -0.250000000000    0.058823529412    0.000000000000       2
   -0.222222222222    0.058823529412    0.000000000000       2
   -0.194444444444    0.058823529412    0.000000000000       2
   -0.166666666667    0.058823529412    0.000000000000       2
   -0.138888888889    0.058823529412    0.000000000000       2
   -0.111111111111    0.058823529412    0.000000000000       2
   -0.083333333333    0.058823529412    0.000000000000       2
   -0.055555555556    0.058823529412    0.000000000000       2
   -0.027777777778    0.058823529412    0.000000000000       2
    0.000000000000    0.088235294118    0.000000000000       2
    0.027777777778    0.088235294118    0.000000000000       2
    0.055555555556    0.088235294118    0.000000000000       2
    0.083333333333    0.088235294118    0.000000000000       2
    0.111111111111    0.088235294118    0.000000000000       2
    0.138888888889    0.088235294118    0.000000000000       2
    0.166666666667    0.088235294118    0.000000000000       2
    0.194444444444    0.088235294118    0.000000000000       2
    0.222222222222    0.088235294118    0.000000000000       2
    0.250000000000    0.088235294118    0.000000000000       2
    0.277777777778    0.088235294118    0.000000000000       2
    0.305555555556    0.088235294118    0.000000000000       2
    0.333333333333    0.088235294118    0.000000000000       2
    0.361111111111    0.088235294118    0.000000000000       2
    0.388888888889    0.088235294118    0.000000000000       2
    0.416666666667    0.088235294118    0.000000000000       2
    0.444444444444    0.088235294118    0.000000000000       2
    0.472222222222    0.088235294118    0.000000000000       2
    0.500000000000    0.088235294118    0.000000000000       2
   -0.472222222222    0.088235294118    0.000000000000       2
   -0.444444444444    0.088235294118    0.000000000000       2
   -0.416666666667    0.088235294118    0.000000000000       2
   -0.388888888889    0.088235294118    0.000000000000       2
   -0.361111111111    0.088235294118    0.000000000000       2
   -0.333333333333    0.088235294118    0.000000000000       2
   -0.305555555556    0.088235294118    0.000000000000       2
   -0.277777777778    0.088235294118    0.000000000000       2
   -0.250000000000    0.088235294118    0.000000000000       2
   -0.222222222222    0.088235294118    0.000000000000       2
   -0.194444444444    0.088235294118    0.000000000000       2
   -0.166666666667    0.088235294118    0.000000000000       2
   -0.138888888889    0.088235294118    0.000000000000       2
   -0.111111111111    0.088235294118    0.000000000000       2
   -0.083333333333    0.088235294118    0.000000000000       2
   -0.055555555556    0.088235294118    0.000000000000       2
   -0.027777777778    0.088235294118    0.000000000000       2
    0.000000000000    0.117647058824    0.000000000000       2
    0.027777777778    0.117647058824    0.000000000000       2
    0.055555555556    0.117647058824    0.000000000000       2
    0.083333333333    0.117647058824    0.000000000000       2
    0.111111111111    0.117647058824    0.000000000000       2
    0.138888888889    0.117647058824    0.000000000000       2
    0.166666666667    0.117647058824    0.000000000000       2
    0.194444444444    0.117647058824    0.000000000000       2
    0.222222222222    0.117647058824    0.000000000000       2
    0.250000000000    0.117647058824    0.000000000000       2
    0.277777777778    0.117647058824    0.000000000000       2
    0.305555555556    0.117647058824    0.000000000000       2
    0.333333333333    0.117647058824    0.000000000000       2
    0.361111111111    0.117647058824    0.000000000000       2
    0.388888888889    0.117647058824    0.000000000000       2
    0.416666666667    0.117647058824    0.000000000000       2
    0.444444444444    0.117647058824    0.000000000000       2
    0.472222222222    0.117647058824    0.000000000000       2
    0.500000000000    0.117647058824    0.000000000000       2
   -0.472222222222    0.117647058824    0.000000000000       2
   -0.444444444444    0.117647058824    0.000000000000       2
   -0.416666666667    0.117647058824    0.000000000000       2
   -0.388888888889    0.117647058824    0.000000000000       2
   -0.361111111111    0.117647058824    0.000000000000       2
   -0.333333333333    0.117647058824    0.000000000000       2
   -0.305555555556    0.117647058824    0.000000000000       2
   -0.277777777778    0.117647058824    0.000000000000       2
   -0.250000000000    0.117647058824    0.000000000000       2
   -0.222222222222    0.117647058824    0.000000000000       2
   -0.194444444444    0.117647058824    0.000000000000       2
   -0.166666666667    0.117647058824    0.000000000000       2
   -0.138888888889    0.117647058824    0.000000000000       2
   -0.111111111111    0.117647058824    0.000000000000       2
   -0.083333333333    0.117647058824    0.000000000000       2
   -0.055555555556    0.117647058824    0.000000000000       2
   -0.027777777778    0.117647058824    0.000000000000       2
    0.000000000000    0.147058823529    0.000000000000       2
    0.027777777778    0.147058823529    0.000000000000       2
    0.055555555556    0.147058823529    0.000000000000       2
    0.083333333333    0.147058823529    0.000000000000       2
    0.111111111111    0.147058823529    0.000000000000       2
    0.138888888889    0.147058823529    0.000000000000       2
    0.166666666667    0.147058823529    0.000000000000       2
    0.194444444444    0.147058823529    0.000000000000       2
    0.222222222222    0.147058823529    0.000000000000       2
    0.250000000000    0.147058823529    0.000000000000       2
    0.277777777778    0.147058823529    0.000000000000       2
    0.305555555556    0.147058823529    0.000000000000       2
    0.333333333333    0.147058823529    0.000000000000       2
    0.361111111111    0.147058823529    0.000000000000       2
    0.388888888889    0.147058823529    0.000000000000       2
    0.416666666667    0.147058823529    0.000000000000       2
    0.444444444444    0.147058823529    0.000000000000       2
    0.472222222222    0.147058823529    0.000000000000       2
    0.500000000000    0.147058823529    0.000000000000       2
   -0.472222222222    0.147058823529    0.000000000000       2
   -0.444444444444    0.147058823529    0.000000000000       2
   -0.416666666667    0.147058823529    0.000000000000       2
   -0.388888888889    0.147058823529    0.000000000000       2
   -0.361111111111    0.147058823529    0.000000000000       2
   -0.333333333333    0.147058823529    0.000000000000       2
   -0.305555555556    0.147058823529    0.000000000000       2
   -0.277777777778    0.147058823529    0.000000000000       2
   -0.250000000000    0.147058823529    0.000000000000       2
   -0.222222222222    0.147058823529    0.000000000000       2
   -0.194444444444    0.147058823529    0.000000000000       2
   -0.166666666667    0.147058823529    0.000000000000       2
   -0.138888888889    0.147058823529    0.000000000000       2
   -0.111111111111    0.147058823529    0.000000000000       2
   -0.083333333333    0.147058823529    0.000000000000       2
   -0.055555555556    0.147058823529    0.000000000000       2
   -0.027777777778    0.147058823529    0.000000000000       2
    0.000000000000    0.176470588235    0.000000000000       2
    0.027777777778    0.176470588235    0.000000000000       2
    0.055555555556    0.176470588235    0.000000000000       2
    0.083333333333    0.176470588235    0.000000000000       2
    0.111111111111    0.176470588235    0.000000000000       2
    0.138888888889    0.176470588235    0.000000000000       2
    0.166666666667    0.176470588235    0.000000000000       2
    0.194444444444    0.176470588235    0.000000000000       2
    0.222222222222    0.176470588235    0.000000000000       2
    0.250000000000    0.176470588235    0.000000000000       2
    0.277777777778    0.176470588235    0.000000000000       2
    0.305555555556    0.176470588235    0.000000000000       2
    0.333333333333    0.176470588235    0.000000000000       2
    0.361111111111    0.176470588235    0.000000000000       2
    0.388888888889    0.176470588235    0.000000000000       2
    0.416666666667    0.176470588235    0.000000000000       2
    0.444444444444    0.176470588235    0.000000000000       2
    0.472222222222    0.176470588235    0.000000000000       2
    0.500000000000    0.176470588235    0.000000000000       2
   -0.472222222222    0.176470588235    0.000000000000       2
   -0.444444444444    0.176470588235    0.000000000000       2
   -0.416666666667    0.176470588235    0.000000000000       2
   -0.388888888889    0.176470588235    0.000000000000       2
   -0.361111111111    0.176470588235    0.000000000000       2
   -0.333333333333    0.176470588235    0.000000000000       2
   -0.305555555556    0.176470588235    0.000000000000       2
   -0.277777777778    0.176470588235    0.000000000000       2
   -0.250000000000    0.176470588235    0.000000000000       2
   -0.222222222222    0.176470588235    0.000000000000       2
   -0.194444444444    0.176470588235    0.000000000000       2
   -0.166666666667    0.176470588235    0.000000000000       2
   -0.138888888889    0.176470588235    0.000000000000       2
   -0.111111111111    0.176470588235    0.000000000000       2
   -0.083333333333    0.176470588235    0.000000000000       2
   -0.055555555556    0.176470588235    0.000000000000       2
   -0.027777777778    0.176470588235    0.000000000000       2
    0.000000000000    0.205882352941    0.000000000000       2
    0.027777777778    0.205882352941    0.000000000000       2
    0.055555555556    0.205882352941    0.000000000000       2
    0.083333333333    0.205882352941    0.000000000000       2
    0.111111111111    0.205882352941    0.000000000000       2
    0.138888888889    0.205882352941    0.000000000000       2
    0.166666666667    0.205882352941    0.000000000000       2
    0.194444444444    0.205882352941    0.000000000000       2
    0.222222222222    0.205882352941    0.000000000000       2
    0.250000000000    0.205882352941    0.000000000000       2
    0.277777777778    0.205882352941    0.000000000000       2
    0.305555555556    0.205882352941    0.000000000000       2
    0.333333333333    0.205882352941    0.000000000000       2
    0.361111111111    0.205882352941    0.000000000000       2
    0.388888888889    0.205882352941    0.000000000000       2
    0.416666666667    0.205882352941    0.000000000000       2
    0.444444444444    0.205882352941    0.000000000000       2
    0.472222222222    0.205882352941    0.000000000000       2
    0.500000000000    0.205882352941    0.000000000000       2
   -0.472222222222    0.205882352941    0.000000000000       2
   -0.444444444444    0.205882352941    0.000000000000       2
   -0.416666666667    0.205882352941    0.000000000000       2
   -0.388888888889    0.205882352941    0.000000000000       2
   -0.361111111111    0.205882352941    0.000000000000       2
   -0.333333333333    0.205882352941    0.000000000000       2
   -0.305555555556    0.205882352941    0.000000000000       2
   -0.277777777778    0.205882352941    0.000000000000       2
   -0.250000000000    0.205882352941    0.000000000000       2
   -0.222222222222    0.205882352941    0.000000000000       2
   -0.194444444444    0.205882352941    0.000000000000       2
   -0.166666666667    0.205882352941    0.000000000000       2
   -0.138888888889    0.205882352941    0.000000000000       2
   -0.111111111111    0.205882352941    0.000000000000       2
   -0.083333333333    0.205882352941    0.000000000000       2
   -0.055555555556    0.205882352941    0.000000000000       2
   -0.027777777778    0.205882352941    0.000000000000       2
    0.000000000000    0.235294117647    0.000000000000       2
    0.027777777778    0.235294117647    0.000000000000       2
    0.055555555556    0.235294117647    0.000000000000       2
    0.083333333333    0.235294117647    0.000000000000       2
    0.111111111111    0.235294117647    0.000000000000       2
    0.138888888889    0.235294117647    0.000000000000       2
    0.166666666667    0.235294117647    0.000000000000       2
    0.194444444444    0.235294117647    0.000000000000       2
    0.222222222222    0.235294117647    0.000000000000       2
    0.250000000000    0.235294117647    0.000000000000       2
    0.277777777778    0.235294117647    0.000000000000       2
    0.305555555556    0.235294117647    0.000000000000       2
    0.333333333333    0.235294117647    0.000000000000       2
    0.361111111111    0.235294117647    0.000000000000       2
    0.388888888889    0.235294117647    0.000000000000       2
    0.416666666667    0.235294117647    0.000000000000       2
    0.444444444444    0.235294117647    0.000000000000       2
    0.472222222222    0.235294117647    0.000000000000       2
    0.500000000000    0.235294117647    0.000000000000       2
   -0.472222222222    0.235294117647    0.000000000000       2
   -0.444444444444    0.235294117647    0.000000000000       2
   -0.416666666667    0.235294117647    0.000000000000       2
   -0.388888888889    0.235294117647    0.000000000000       2
   -0.361111111111    0.235294117647    0.000000000000       2
   -0.333333333333    0.235294117647    0.000000000000       2
   -0.305555555556    0.235294117647    0.000000000000       2
   -0.277777777778    0.235294117647    0.000000000000       2
   -0.250000000000    0.235294117647    0.000000000000       2
   -0.222222222222    0.235294117647    0.000000000000       2
   -0.194444444444    0.235294117647    0.000000000000       2
   -0.166666666667    0.235294117647    0.000000000000       2
   -0.138888888889    0.235294117647    0.000000000000       2
   -0.111111111111    0.235294117647    0.000000000000       2
   -0.083333333333    0.235294117647    0.000000000000       2
   -0.055555555556    0.235294117647    0.000000000000       2
   -0.027777777778    0.235294117647    0.000000000000       2
    0.000000000000    0.264705882353    0.000000000000       2
    0.027777777778    0.264705882353    0.000000000000       2
    0.055555555556    0.264705882353    0.000000000000       2
    0.083333333333    0.264705882353    0.000000000000       2
    0.111111111111    0.264705882353    0.000000000000       2
    0.138888888889    0.264705882353    0.000000000000       2
    0.166666666667    0.264705882353    0.000000000000       2
    0.194444444444    0.264705882353    0.000000000000       2
    0.222222222222    0.264705882353    0.000000000000       2
    0.250000000000    0.264705882353    0.000000000000       2
    0.277777777778    0.264705882353    0.000000000000       2
    0.305555555556    0.264705882353    0.000000000000       2
    0.333333333333    0.264705882353    0.000000000000       2
    0.361111111111    0.264705882353    0.000000000000       2
    0.388888888889    0.264705882353    0.000000000000       2
    0.416666666667    0.264705882353    0.000000000000       2
    0.444444444444    0.264705882353    0.000000000000       2
    0.472222222222    0.264705882353    0.000000000000       2
    0.500000000000    0.264705882353    0.000000000000       2
   -0.472222222222    0.264705882353    0.000000000000       2
   -0.444444444444    0.264705882353    0.000000000000       2
   -0.416666666667    0.264705882353    0.000000000000       2
   -0.388888888889    0.264705882353    0.000000000000       2
   -0.361111111111    0.264705882353    0.000000000000       2
   -0.333333333333    0.264705882353    0.000000000000       2
   -0.305555555556    0.264705882353    0.000000000000       2
   -0.277777777778    0.264705882353    0.000000000000       2
   -0.250000000000    0.264705882353    0.000000000000       2
   -0.222222222222    0.264705882353    0.000000000000       2
   -0.194444444444    0.264705882353    0.000000000000       2
   -0.166666666667    0.264705882353    0.000000000000       2
   -0.138888888889    0.264705882353    0.000000000000       2
   -0.111111111111    0.264705882353    0.000000000000       2
   -0.083333333333    0.264705882353    0.000000000000       2
   -0.055555555556    0.264705882353    0.000000000000       2
   -0.027777777778    0.264705882353    0.000000000000       2
    0.000000000000    0.294117647059    0.000000000000       2
    0.027777777778    0.294117647059    0.000000000000       2
    0.055555555556    0.294117647059    0.000000000000       2
    0.083333333333    0.294117647059    0.000000000000       2
    0.111111111111    0.294117647059    0.000000000000       2
    0.138888888889    0.294117647059    0.000000000000       2
    0.166666666667    0.294117647059    0.000000000000       2
    0.194444444444    0.294117647059    0.000000000000       2
    0.222222222222    0.294117647059    0.000000000000       2
    0.250000000000    0.294117647059    0.000000000000       2
    0.277777777778    0.294117647059    0.000000000000       2
    0.305555555556    0.294117647059    0.000000000000       2
    0.333333333333    0.294117647059    0.000000000000       2
    0.361111111111    0.294117647059    0.000000000000       2
    0.388888888889    0.294117647059    0.000000000000       2
    0.416666666667    0.294117647059    0.000000000000       2
    0.444444444444    0.294117647059    0.000000000000       2
    0.472222222222    0.294117647059    0.000000000000       2
    0.500000000000    0.294117647059    0.000000000000       2
   -0.472222222222    0.294117647059    0.000000000000       2
   -0.444444444444    0.294117647059    0.000000000000       2
   -0.416666666667    0.294117647059    0.000000000000       2
   -0.388888888889    0.294117647059    0.000000000000       2
   -0.361111111111    0.294117647059    0.000000000000       2
   -0.333333333333    0.294117647059    0.000000000000       2
   -0.305555555556    0.294117647059    0.000000000000       2
   -0.277777777778    0.294117647059    0.000000000000       2
   -0.250000000000    0.294117647059    0.000000000000       2
   -0.222222222222    0.294117647059    0.000000000000       2
   -0.194444444444    0.294117647059    0.000000000000       2
   -0.166666666667    0.294117647059    0.000000000000       2
   -0.138888888889    0.294117647059    0.000000000000       2
   -0.111111111111    0.294117647059    0.000000000000       2
   -0.083333333333    0.294117647059    0.000000000000       2
   -0.055555555556    0.294117647059    0.000000000000       2
   -0.027777777778    0.294117647059    0.000000000000       2
    0.000000000000    0.323529411765    0.000000000000       2
    0.027777777778    0.323529411765    0.000000000000       2
    0.055555555556    0.323529411765    0.000000000000       2
    0.083333333333    0.323529411765    0.000000000000       2
    0.111111111111    0.323529411765    0.000000000000       2
    0.138888888889    0.323529411765    0.000000000000       2
    0.166666666667    0.323529411765    0.000000000000       2
    0.194444444444    0.323529411765    0.000000000000       2
    0.222222222222    0.323529411765    0.000000000000       2
    0.250000000000    0.323529411765    0.000000000000       2
    0.277777777778    0.323529411765    0.000000000000       2
    0.305555555556    0.323529411765    0.000000000000       2
    0.333333333333    0.323529411765    0.000000000000       2
    0.361111111111    0.323529411765    0.000000000000       2
    0.388888888889    0.323529411765    0.000000000000       2
    0.416666666667    0.323529411765    0.000000000000       2
    0.444444444444    0.323529411765    0.000000000000       2
    0.472222222222    0.323529411765    0.000000000000       2
    0.500000000000    0.323529411765    0.000000000000       2
   -0.472222222222    0.323529411765    0.000000000000       2
   -0.444444444444    0.323529411765    0.000000000000       2
   -0.416666666667    0.323529411765    0.000000000000       2
   -0.388888888889    0.323529411765    0.000000000000       2
   -0.361111111111    0.323529411765    0.000000000000       2
   -0.333333333333    0.323529411765    0.000000000000       2
   -0.305555555556    0.323529411765    0.000000000000       2
   -0.277777777778    0.323529411765    0.000000000000       2
   -0.250000000000    0.323529411765    0.000000000000       2
   -0.222222222222    0.323529411765    0.000000000000       2
   -0.194444444444    0.323529411765    0.000000000000       2
   -0.166666666667    0.323529411765    0.000000000000       2
   -0.138888888889    0.323529411765    0.000000000000       2
   -0.111111111111    0.323529411765    0.000000000000       2
   -0.083333333333    0.323529411765    0.000000000000       2
   -0.055555555556    0.323529411765    0.000000000000       2
   -0.027777777778    0.323529411765    0.000000000000       2
    0.000000000000    0.352941176471    0.000000000000       2
    0.027777777778    0.352941176471    0.000000000000       2
    0.055555555556    0.352941176471    0.000000000000       2
    0.083333333333    0.352941176471    0.000000000000       2
    0.111111111111    0.352941176471    0.000000000000       2
    0.138888888889    0.352941176471    0.000000000000       2
    0.166666666667    0.352941176471    0.000000000000       2
    0.194444444444    0.352941176471    0.000000000000       2
    0.222222222222    0.352941176471    0.000000000000       2
    0.250000000000    0.352941176471    0.000000000000       2
    0.277777777778    0.352941176471    0.000000000000       2
    0.305555555556    0.352941176471    0.000000000000       2
    0.333333333333    0.352941176471    0.000000000000       2
    0.361111111111    0.352941176471    0.000000000000       2
    0.388888888889    0.352941176471    0.000000000000       2
    0.416666666667    0.352941176471    0.000000000000       2
    0.444444444444    0.352941176471    0.000000000000       2
    0.472222222222    0.352941176471    0.000000000000       2
    0.500000000000    0.352941176471    0.000000000000       2
   -0.472222222222    0.352941176471    0.000000000000       2
   -0.444444444444    0.352941176471    0.000000000000       2
   -0.416666666667    0.352941176471    0.000000000000       2
   -0.388888888889    0.352941176471    0.000000000000       2
   -0.361111111111    0.352941176471    0.000000000000       2
   -0.333333333333    0.352941176471    0.000000000000       2
   -0.305555555556    0.352941176471    0.000000000000       2
   -0.277777777778    0.352941176471    0.000000000000       2
   -0.250000000000    0.352941176471    0.000000000000       2
   -0.222222222222    0.352941176471    0.000000000000       2
   -0.194444444444    0.352941176471    0.000000000000       2
   -0.166666666667    0.352941176471    0.000000000000       2
   -0.138888888889    0.352941176471    0.000000000000       2
   -0.111111111111    0.352941176471    0.000000000000       2
   -0.083333333333    0.352941176471    0.000000000000       2
   -0.055555555556    0.352941176471    0.000000000000       2
   -0.027777777778    0.352941176471    0.000000000000       2
    0.000000000000    0.382352941176    0.000000000000       2
    0.027777777778    0.382352941176    0.000000000000       2
    0.055555555556    0.382352941176    0.000000000000       2
    0.083333333333    0.382352941176    0.000000000000       2
    0.111111111111    0.382352941176    0.000000000000       2
    0.138888888889    0.382352941176    0.000000000000       2
    0.166666666667    0.382352941176    0.000000000000       2
    0.194444444444    0.382352941176    0.000000000000       2
    0.222222222222    0.382352941176    0.000000000000       2
    0.250000000000    0.382352941176    0.000000000000       2
    0.277777777778    0.382352941176    0.000000000000       2
    0.305555555556    0.382352941176    0.000000000000       2
    0.333333333333    0.382352941176    0.000000000000       2
    0.361111111111    0.382352941176    0.000000000000       2
    0.388888888889    0.382352941176    0.000000000000       2
    0.416666666667    0.382352941176    0.000000000000       2
    0.444444444444    0.382352941176    0.000000000000       2
    0.472222222222    0.382352941176    0.000000000000       2
    0.500000000000    0.382352941176    0.000000000000       2
   -0.472222222222    0.382352941176    0.000000000000       2
   -0.444444444444    0.382352941176    0.000000000000       2
   -0.416666666667    0.382352941176    0.000000000000       2
   -0.388888888889    0.382352941176    0.000000000000       2