CONTCAR\(2)                             
   1.00000000000000     
    12.8973999023000001    0.0000000000000000    0.0000000000000000
     0.0000000000000000   12.8970003127999995    0.0000000000000000
     0.0000000000000000    0.0000000000000000   24.0167007446000014
   Tm   Te
    18    54
Direct
  0.1666699940000029  0.0000000000000000  0.5846237226613408
  0.0000000000000000  0.1666700000000034  0.4153762773386593
  0.5000000000000000  0.0000000000000000  0.5846237226613408
  0.3333300059999971  0.1666700000000034  0.4153762773386593
  0.8333300059999971  0.0000000000000000  0.5846237226613408
  0.6666699940000029  0.1666700000000034  0.4153762773386593
  0.1666699940000029  0.3333300179999981  0.5846237226613408
  0.0000000000000000  0.5000000000000000  0.4153762773386593
  0.5000000000000000  0.3333300179999981  0.5846237226613408
  0.3333300059999971  0.5000000000000000  0.4153762773386593
  0.8333300059999971  0.3333300179999981  0.5846237226613408
  0.6666699940000029  0.5000000000000000  0.4153762773386593
  0.1666699940000029  0.6666700190000014  0.5846237226613408
  0.0000000000000000  0.8333299439999990  0.4153762773386593
  0.5000000000000000  0.6666700190000014  0.5846237226613408
  0.3333300059999971  0.8333299439999990  0.4153762773386593
  0.8333300059999971  0.6666700190000014  0.5846237226613408
  0.6666699940000029  0.8333299439999990  0.4153762773386593
  0.0000000000000000  0.0000000000000000  0.3127734051312501
  0.1666699940000029  0.1666700000000034  0.6872266148687515
  0.0000000000000000  0.0000000000000000  0.6872264827282925
  0.1666699940000029  0.1666700000000034  0.3127735372717090
  0.1666699940000029  0.0000000000000000  0.4538874920042839
  0.0000000000000000  0.1666700000000034  0.5461125079957162
  0.3333300059999971  0.0000000000000000  0.3127734051312501
  0.5000000000000000  0.1666700000000034  0.6872266148687515
  0.3333300059999971  0.0000000000000000  0.6872264827282925
  0.5000000000000000  0.1666700000000034  0.3127735372717090
  0.5000000000000000  0.0000000000000000  0.4538874920042839
  0.3333300059999971  0.1666700000000034  0.5461125079957162
  0.6666699940000029  0.0000000000000000  0.3127734051312501
  0.8333300059999971  0.1666700000000034  0.6872266148687515
  0.6666699940000029  0.0000000000000000  0.6872264827282925
  0.8333300059999971  0.1666700000000034  0.3127735372717090
  0.8333300059999971  0.0000000000000000  0.4538874920042839
  0.6666699940000029  0.1666700000000034  0.5461125079957162
  0.0000000000000000  0.3333300179999981  0.3127734051312501
  0.1666699940000029  0.5000000000000000  0.6872266148687515
  0.0000000000000000  0.3333300179999981  0.6872264827282925
  0.1666699940000029  0.5000000000000000  0.3127735372717090
  0.1666699940000029  0.3333300179999981  0.4538874920042839
  0.0000000000000000  0.5000000000000000  0.5461125079957162
  0.3333300059999971  0.3333300179999981  0.3127734051312501
  0.5000000000000000  0.5000000000000000  0.6872266148687515
  0.3333300059999971  0.3333300179999981  0.6872264827282925
  0.5000000000000000  0.5000000000000000  0.3127735372717090
  0.5000000000000000  0.3333300179999981  0.4538874920042839
  0.3333300059999971  0.5000000000000000  0.5461125079957162
  0.6666699940000029  0.3333300179999981  0.3127734051312501
  0.8333300059999971  0.5000000000000000  0.6872266148687515
  0.6666699940000029  0.3333300179999981  0.6872264827282925
  0.8333300059999971  0.5000000000000000  0.3127735372717090
  0.8333300059999971  0.3333300179999981  0.4538874920042839
  0.6666699940000029  0.5000000000000000  0.5461125079957162
  0.0000000000000000  0.6666700190000014  0.3127734051312501
  0.1666699940000029  0.8333299439999990  0.6872266148687515
 -0.0000000000000000  0.6666700190000014  0.6872264827282925
  0.1666699940000029  0.8333299439999990  0.3127735372717090
  0.1666699940000029  0.6666700190000014  0.4538874920042839
 -0.0000000000000000  0.8333299439999990  0.5461125079957162
  0.3333300059999971  0.6666700190000014  0.3127734051312501
  0.5000000000000000  0.8333299439999990  0.6872266148687515
  0.3333300059999971  0.6666700190000014  0.6872264827282925
  0.5000000000000000  0.8333299439999990  0.3127735372717090
  0.5000000000000000  0.6666700190000014  0.4538874920042839
  0.3333300059999971  0.8333299439999990  0.5461125079957162
  0.6666699940000029  0.6666700190000014  0.3127734051312501
  0.8333300059999971  0.8333299439999990  0.6872266148687515
  0.6666699940000029  0.6666700190000014  0.6872264827282925
  0.8333300059999971  0.8333299439999990  0.3127735372717090
  0.8333300059999971  0.6666700190000014  0.4538874920042839
  0.6666699940000029  0.8333299439999990  0.5461125079957162
 
  0.00000000E+00  0.00000000E+00  0.00000000E+00
  0.00000000E+00  0.00000000E+00  0.00000000E+00
  0.00000000E+00  0.00000000E+00  0.00000000E+00
  0.00000000E+00  0.00000000E+00  0.00000000E+00
  0.00000000E+00  0.00000000E+00  0.00000000E+00
  0.00000000E+00  0.00000000E+00  0.00000000E+00
  0.00000000E+00  0.00000000E+00  0.00000000E+00
  0.00000000E+00  0.00000000E+00  0.00000000E+00
  0.00000000E+00  0.00000000E+00  0.00000000E+00
  0.00000000E+00  0.00000000E+00  0.00000000E+00
  0.00000000E+00  0.00000000E+00  0.00000000E+00
  0.00000000E+00  0.00000000E+00  0.00000000E+00
  0.00000000E+00  0.00000000E+00  0.00000000E+00
  0.00000000E+00  0.00000000E+00  0.00000000E+00
  0.00000000E+00  0.00000000E+00  0.00000000E+00
  0.00000000E+00  0.00000000E+00  0.00000000E+00
  0.00000000E+00  0.00000000E+00  0.00000000E+00
  0.00000000E+00  0.00000000E+00  0.00000000E+00
  0.00000000E+00  0.00000000E+00  0.00000000E+00
  0.00000000E+00  0.00000000E+00  0.00000000E+00
  0.00000000E+00  0.00000000E+00  0.00000000E+00
  0.00000000E+00  0.00000000E+00  0.00000000E+00
  0.00000000E+00  0.00000000E+00  0.00000000E+00
  0.00000000E+00  0.00000000E+00  0.00000000E+00
  0.00000000E+00  0.00000000E+00  0.00000000E+00
  0.00000000E+00  0.00000000E+00  0.00000000E+00
  0.00000000E+00  0.00000000E+00  0.00000000E+00
  0.00000000E+00  0.00000000E+00  0.00000000E+00
  0.00000000E+00  0.00000000E+00  0.00000000E+00
  0.00000000E+00  0.00000000E+00  0.00000000E+00
  0.00000000E+00  0.00000000E+00  0.00000000E+00
  0.00000000E+00  0.00000000E+00  0.00000000E+00
  0.00000000E+00  0.00000000E+00  0.00000000E+00
  0.00000000E+00  0.00000000E+00  0.00000000E+00
  0.00000000E+00  0.00000000E+00  0.00000000E+00
  0.00000000E+00  0.00000000E+00  0.00000000E+00
  0.00000000E+00  0.00000000E+00  0.00000000E+00
  0.00000000E+00  0.00000000E+00  0.00000000E+00
  0.00000000E+00  0.00000000E+00  0.00000000E+00
  0.00000000E+00  0.00000000E+00  0.00000000E+00
  0.00000000E+00  0.00000000E+00  0.00000000E+00
  0.00000000E+00  0.00000000E+00  0.00000000E+00
  0.00000000E+00  0.00000000E+00  0.00000000E+00
  0.00000000E+00  0.00000000E+00  0.00000000E+00
  0.00000000E+00  0.00000000E+00  0.00000000E+00
  0.00000000E+00  0.00000000E+00  0.00000000E+00
  0.00000000E+00  0.00000000E+00  0.00000000E+00
  0.00000000E+00  0.00000000E+00  0.00000000E+00
  0.00000000E+00  0.00000000E+00  0.00000000E+00
  0.00000000E+00  0.00000000E+00  0.00000000E+00
  0.00000000E+00  0.00000000E+00  0.00000000E+00
  0.00000000E+00  0.00000000E+00  0.00000000E+00
  0.00000000E+00  0.00000000E+00  0.00000000E+00
  0.00000000E+00  0.00000000E+00  0.00000000E+00
  0.00000000E+00  0.00000000E+00  0.00000000E+00
  0.00000000E+00  0.00000000E+00  0.00000000E+00
  0.00000000E+00  0.00000000E+00  0.00000000E+00
  0.00000000E+00  0.00000000E+00  0.00000000E+00
  0.00000000E+00  0.00000000E+00  0.00000000E+00
  0.00000000E+00  0.00000000E+00  0.00000000E+00
  0.00000000E+00  0.00000000E+00  0.00000000E+00
  0.00000000E+00  0.00000000E+00  0.00000000E+00
  0.00000000E+00  0.00000000E+00  0.00000000E+00
  0.00000000E+00  0.00000000E+00  0.00000000E+00
  0.00000000E+00  0.00000000E+00  0.00000000E+00
  0.00000000E+00  0.00000000E+00  0.00000000E+00
  0.00000000E+00  0.00000000E+00  0.00000000E+00
  0.00000000E+00  0.00000000E+00  0.00000000E+00
  0.00000000E+00  0.00000000E+00  0.00000000E+00
  0.00000000E+00  0.00000000E+00  0.00000000E+00
  0.00000000E+00  0.00000000E+00  0.00000000E+00
  0.00000000E+00  0.00000000E+00  0.00000000E+00
