CONTCAR\(7)                             
   1.00000000000000     
    12.8648996353000005    0.0000000000000000    0.0000000000000000
    -6.4324498177000002   11.1413299013000007    0.0000000000000000
     0.0000000000000000    0.0000000000000000   18.7835006713999988
   Li   C    O 
     9   108     1
Direct
  0.0005498373189176  0.9987375018577950  0.4999238957588724
  0.3336654491866385  0.9911679795113728  0.5022098231146980
  0.6619121220699642  0.9970848526059052  0.5008737489287862
  0.0012729730224301  0.3342045963631218  0.4999032373773891
  0.3332283157681267  0.3323145854084921  0.4999516363515544
  0.6660299389572972  0.3311138735153977  0.4998940155386418
  0.0049655592930722  0.6686497918200878  0.5008901197089499
  0.3333875379628908  0.6683490256986504  0.5055170563191106
  0.6654061602247600  0.6660791443396439  0.4998743257366270
  0.2222719702836725  0.9996659861185677  0.3992314872441545
  0.9999379443154550  0.2218555663483710  0.3993967773349257
  0.1111008611544482  0.1107743863529873  0.3993549286862984
  0.1111091841103944  0.9996316725666805  0.3992703324995356
  0.9999586517912330  0.1107470468572681  0.3994688612886702
  0.2221923639574656  0.2218356138477359  0.3992735880542458
  0.1112390942850589  0.9987912156818517  0.6003077087908099
  0.0000026936007570  0.1097413019995978  0.6001043694830186
  0.2224484296323354  0.2210373986850113  0.6001285474335145
  0.2223446762051463  0.9988001309405476  0.6006841634925792
 -0.0000419393959260  0.2209172043509178  0.6000124298004511
  0.1112187588167466  0.1097944317245905  0.6001224209146425
  0.5554874740914870  0.9995839133363623  0.3988484404833065
  0.3333129105580187  0.2218476104012641  0.3993141625565697
  0.4443542955181066  0.1107082429594985  0.3993090236535203
  0.4443536645838326  0.9995969245334149  0.3988128598970440
  0.3333109910712647  0.1106670537030578  0.3993949748845362
  0.5555011459014733  0.2218294305284197  0.3993775072864283
  0.4438942543738442  0.9984163769067342  0.6022273375679028
  0.3333726930430714  0.1096054411803878  0.6005716110456003
  0.5554828993093035  0.2209130148693963  0.6001547267976948
  0.5555288491961213  0.9984484372540205  0.6017813105238069
  0.3333755810038129  0.2210783268291811  0.6002272290429812
  0.4444005748357138  0.1098225901913688  0.6006186899210613
  0.8888607316669830  0.9996434872909375  0.3994314316054371
  0.6665924913596720  0.2218505708742078  0.3993465821260642
  0.7776733559835168  0.1106688585801172  0.3994528808714670
  0.7776989088408479  0.9996442775887430  0.3993826642947041
  0.6666294755402249  0.1107326718175578  0.3992709980947446
  0.8888836390825611  0.2218850057978546  0.3994237120356920
  0.7777847090494711  0.9985398824016114  0.6001756444289266
  0.6663726046051412  0.1093719623462959  0.6010661432030407
  0.8888490651057298  0.2209251248032621  0.6003287002699441
  0.8889413865676500  0.9986136068069520  0.6002223702482350
  0.6666312317673572  0.2207342318006046  0.6005349845147484
  0.7775931580284183  0.1096722559615248  0.6004322142023175
  0.2222223702859117  0.3330465511364396  0.3992240569290248
  0.0000048975635309  0.5552404741430214  0.3992022116367388
  0.1111311681904173  0.4441474536220815  0.3990872714356389
  0.1111280010040342  0.3330363226557294  0.3992376065414509
  0.0000092856197541  0.4441199188775253  0.3992260072448222
  0.2222943812657240  0.5553131478092580  0.3990308234323958
  0.1110210451914563  0.3320533432866781  0.5998143743311951
  0.0001412022398139  0.4431641937019983  0.6003695427403253
  0.2220319393158510  0.5546482151845219  0.6011973079370738
  0.2224822722257706  0.3322594332810525  0.5999949096463753
  0.9999295332904045  0.5541601327853932  0.6003473360047005
  0.1109588367181985  0.4429594237567102  0.6000959677291653
  0.5555201091941823  0.3329807245770120  0.3994827744502554
  0.3333074449012140  0.5553187152113082  0.3991743659685175
  0.4444061555784194  0.4441381465809227  0.3993246649941753
  0.4444299895943986  0.3329538795148112  0.3993724346211374
  0.3333129432943836  0.4441401611010420  0.3991833869294421
  0.5554793499238787  0.5552051252663703  0.3993345031342221
  0.4442878213940311  0.3319527346244843  0.6000460177746749
  0.3333909256169644  0.4434733918605645  0.6002830597659654
  0.5557060949595251  0.5543710871554937  0.5997010406673191
  0.5555123188585249  0.3319340744562166  0.5999456631082168
  0.3333814299378685  0.5544625460700108  0.6007791818603890
  0.4442749449972802  0.4431415957427107  0.5999329315274364
  0.8888495544340657  0.3329741818570288  0.3993511469796696
  0.6666632146500164  0.5552009731088040  0.3995017224929087
  0.7777411853138403  0.4440759031394101  0.3995721304757883
  0.7777515698886743  0.3330140530526396  0.3994317357837653
  0.6666421462483494  0.4440805526344466  0.3996100222127167
  0.8888909705534527  0.5552293387391954  0.3995046941653296
  0.7777977557587890  0.3318458459689994  0.6003437366501423
  0.6667355625161611  0.4430831853906486  0.5998385176356875
  0.8889781448885496  0.5541271107201504  0.6000029383079921
  0.8887832343594059  0.3318260771188820  0.6003981729617073
  0.6667605330849201  0.5542850184663488  0.5997983089148071
  0.7778182529228312  0.4430576606710975  0.5999782653988120
  0.2223128326253439  0.6663272068049851  0.3986678070989018
  0.0000168013896094  0.8885549382912359  0.3992332275931851
  0.1111263240102813  0.7773919748185859  0.3987886773146639
  0.1111287393707075  0.6663139461741935  0.3987290102090055
  0.9999645382786959  0.7773870630458697  0.3991877451137645
  0.2222573644367992  0.8885424783251596  0.3987476767454479
  0.1113849916510975  0.6649862084765392  0.6016901249633891
  0.0003669566354729  0.7763388886072154  0.6011152789253387
  0.2228326027560867  0.8878869716854505  0.6022456280311872
  0.2211465805252747  0.6641221575879278  0.6036918774549437
  0.0000952643115270  0.8874315349340887  0.6006908404765560
  0.1112067000986035  0.7762840096551071  0.6017960658441532
  0.5554712792367044  0.6663043934585987  0.3990777018070699
  0.3333045067539293  0.8884930232222975  0.3984114603326930
  0.4442966615855238  0.7773206607065237  0.3986373516693852
  0.4443070046321246  0.6663164935090551  0.3990146303052014
  0.3332966734424748  0.7772925154656010  0.3983743364696049
  0.5554669740191370  0.8884931735334685  0.3986870073557581
  0.4447231639455300  0.6659856165272029  0.6011736238207434
  0.3333970006769146  0.7764197773862788  0.6282348618366737
  0.5553707128389882  0.8869770028577776  0.6017254131713610
  0.5557617329356919  0.6653280322733521  0.6000635878541903
  0.3333666066095431  0.8889087281056216  0.6054259322236585
  0.4456170404932234  0.7763395361375315  0.6037062701208770
  0.8889210877351046  0.6662718197608836  0.3994556883416405
  0.6665913979561066  0.8885249918518110  0.3990764979273458
  0.7777497937539187  0.7774126957481756  0.3992548081101515
  0.7777072383490773  0.6662796255898421  0.3994224832074481
  0.6665766451684546  0.7773846670529380  0.3991178043462427
  0.8888470432305591  0.8885574355869985  0.3993013821085674
  0.7778913321567027  0.6653888525544627  0.6002034339489994
  0.6665821157410532  0.7763310565139617  0.6003965719785357
  0.8889356455714400  0.8873897044483713  0.6005014883734983
  0.8891529132645786  0.6654155407417830  0.6003441853169491
  0.6668253498628777  0.8875839121790385  0.6004390176178400
  0.7779531847204321  0.7763630802776713  0.6004284506658989
  0.3335347378053060  0.7766880374779602  0.7004821505158095
 
  0.00000000E+00  0.00000000E+00  0.00000000E+00
  0.00000000E+00  0.00000000E+00  0.00000000E+00
  0.00000000E+00  0.00000000E+00  0.00000000E+00
  0.00000000E+00  0.00000000E+00  0.00000000E+00
  0.00000000E+00  0.00000000E+00  0.00000000E+00
  0.00000000E+00  0.00000000E+00  0.00000000E+00
  0.00000000E+00  0.00000000E+00  0.00000000E+00
  0.00000000E+00  0.00000000E+00  0.00000000E+00
  0.00000000E+00  0.00000000E+00  0.00000000E+00
  0.00000000E+00  0.00000000E+00  0.00000000E+00
  0.00000000E+00  0.00000000E+00  0.00000000E+00
  0.00000000E+00  0.00000000E+00  0.00000000E+00
  0.00000000E+00  0.00000000E+00  0.00000000E+00
  0.00000000E+00  0.00000000E+00  0.00000000E+00
  0.00000000E+00  0.00000000E+00  0.00000000E+00
  0.00000000E+00  0.00000000E+00  0.00000000E+00
  0.00000000E+00  0.00000000E+00  0.00000000E+00
  0.00000000E+00  0.00000000E+00  0.00000000E+00
  0.00000000E+00  0.00000000E+00  0.00000000E+00
  0.00000000E+00  0.00000000E+00  0.00000000E+00
  0.00000000E+00  0.00000000E+00  0.00000000E+00
  0.00000000E+00  0.00000000E+00  0.00000000E+00
  0.00000000E+00  0.00000000E+00  0.00000000E+00
  0.00000000E+00  0.00000000E+00  0.00000000E+00
  0.00000000E+00  0.00000000E+00  0.00000000E+00
  0.00000000E+00  0.00000000E+00  0.00000000E+00
  0.00000000E+00  0.00000000E+00  0.00000000E+00
  0.00000000E+00  0.00000000E+00  0.00000000E+00
  0.00000000E+00  0.00000000E+00  0.00000000E+00
  0.00000000E+00  0.00000000E+00  0.00000000E+00
  0.00000000E+00  0.00000000E+00  0.00000000E+00
  0.00000000E+00  0.00000000E+00  0.00000000E+00
  0.00000000E+00  0.00000000E+00  0.00000000E+00
  0.00000000E+00  0.00000000E+00  0.00000000E+00
  0.00000000E+00  0.00000000E+00  0.00000000E+00
  0.00000000E+00  0.00000000E+00  0.00000000E+00
  0.00000000E+00  0.00000000E+00  0.00000000E+00
  0.00000000E+00  0.00000000E+00  0.00000000E+00
  0.00000000E+00  0.00000000E+00  0.00000000E+00
  0.00000000E+00  0.00000000E+00  0.00000000E+00
  0.00000000E+00  0.00000000E+00  0.00000000E+00
  0.00000000E+00  0.00000000E+00  0.00000000E+00
  0.00000000E+00  0.00000000E+00  0.00000000E+00
  0.00000000E+00  0.00000000E+00  0.00000000E+00
  0.00000000E+00  0.00000000E+00  0.00000000E+00
  0.00000000E+00  0.00000000E+00  0.00000000E+00
  0.00000000E+00  0.00000000E+00  0.00000000E+00
  0.00000000E+00  0.00000000E+00  0.00000000E+00
  0.00000000E+00  0.00000000E+00  0.00000000E+00
  0.00000000E+00  0.00000000E+00  0.00000000E+00
  0.00000000E+00  0.00000000E+00  0.00000000E+00
  0.00000000E+00  0.00000000E+00  0.00000000E+00
  0.00000000E+00  0.00000000E+00  0.00000000E+00
  0.00000000E+00  0.00000000E+00  0.00000000E+00
  0.00000000E+00  0.00000000E+00  0.00000000E+00
  0.00000000E+00  0.00000000E+00  0.00000000E+00
  0.00000000E+00  0.00000000E+00  0.00000000E+00
  0.00000000E+00  0.00000000E+00  0.00000000E+00
  0.00000000E+00  0.00000000E+00  0.00000000E+00
  0.00000000E+00  0.00000000E+00  0.00000000E+00
  0.00000000E+00  0.00000000E+00  0.00000000E+00
  0.00000000E+00  0.00000000E+00  0.00000000E+00
  0.00000000E+00  0.00000000E+00  0.00000000E+00
  0.00000000E+00  0.00000000E+00  0.00000000E+00
  0.00000000E+00  0.00000000E+00  0.00000000E+00
  0.00000000E+00  0.00000000E+00  0.00000000E+00
  0.00000000E+00  0.00000000E+00  0.00000000E+00
  0.00000000E+00  0.00000000E+00  0.00000000E+00
  0.00000000E+00  0.00000000E+00  0.00000000E+00
  0.00000000E+00  0.00000000E+00  0.00000000E+00
  0.00000000E+00  0.00000000E+00  0.00000000E+00
  0.00000000E+00  0.00000000E+00  0.00000000E+00
  0.00000000E+00  0.00000000E+00  0.00000000E+00
  0.00000000E+00  0.00000000E+00  0.00000000E+00
  0.00000000E+00  0.00000000E+00  0.00000000E+00
  0.00000000E+00  0.00000000E+00  0.00000000E+00
  0.00000000E+00  0.00000000E+00  0.00000000E+00
  0.00000000E+00  0.00000000E+00  0.00000000E+00
  0.00000000E+00  0.00000000E+00  0.00000000E+00
  0.00000000E+00  0.00000000E+00  0.00000000E+00
  0.00000000E+00  0.00000000E+00  0.00000000E+00
  0.00000000E+00  0.00000000E+00  0.00000000E+00
  0.00000000E+00  0.00000000E+00  0.00000000E+00
  0.00000000E+00  0.00000000E+00  0.00000000E+00
  0.00000000E+00  0.00000000E+00  0.00000000E+00
  0.00000000E+00  0.00000000E+00  0.00000000E+00
  0.00000000E+00  0.00000000E+00  0.00000000E+00
  0.00000000E+00  0.00000000E+00  0.00000000E+00
  0.00000000E+00  0.00000000E+00  0.00000000E+00
  0.00000000E+00  0.00000000E+00  0.00000000E+00
  0.00000000E+00  0.00000000E+00  0.00000000E+00
  0.00000000E+00  0.00000000E+00  0.00000000E+00
  0.00000000E+00  0.00000000E+00  0.00000000E+00
  0.00000000E+00  0.00000000E+00  0.00000000E+00
  0.00000000E+00  0.00000000E+00  0.00000000E+00
  0.00000000E+00  0.00000000E+00  0.00000000E+00
  0.00000000E+00  0.00000000E+00  0.00000000E+00
  0.00000000E+00  0.00000000E+00  0.00000000E+00
  0.00000000E+00  0.00000000E+00  0.00000000E+00
  0.00000000E+00  0.00000000E+00  0.00000000E+00
  0.00000000E+00  0.00000000E+00  0.00000000E+00
  0.00000000E+00  0.00000000E+00  0.00000000E+00
  0.00000000E+00  0.00000000E+00  0.00000000E+00
  0.00000000E+00  0.00000000E+00  0.00000000E+00
  0.00000000E+00  0.00000000E+00  0.00000000E+00
  0.00000000E+00  0.00000000E+00  0.00000000E+00
  0.00000000E+00  0.00000000E+00  0.00000000E+00
  0.00000000E+00  0.00000000E+00  0.00000000E+00
  0.00000000E+00  0.00000000E+00  0.00000000E+00
  0.00000000E+00  0.00000000E+00  0.00000000E+00
  0.00000000E+00  0.00000000E+00  0.00000000E+00
  0.00000000E+00  0.00000000E+00  0.00000000E+00
  0.00000000E+00  0.00000000E+00  0.00000000E+00
  0.00000000E+00  0.00000000E+00  0.00000000E+00
  0.00000000E+00  0.00000000E+00  0.00000000E+00
  0.00000000E+00  0.00000000E+00  0.00000000E+00
  0.00000000E+00  0.00000000E+00  0.00000000E+00
  0.00000000E+00  0.00000000E+00  0.00000000E+00
