CONTCAR\(4)                             
   1.00000000000000     
    15.1381998061999994    0.0000000000000000    0.0000000000000000
     0.0000000000000000   18.7124004363999994    0.0000000000000000
     0.0000000000000000    0.0000000000000000   17.8572998046999984
   Cu   Te   O    H 
    16    16    49     1
Direct
  0.3457408070749360  0.2557505046592865  0.5202001958432881
  0.0958249917604983  0.4918317537604167  0.5289556332009961
  0.1548678081570198  0.2450182631116916  0.4680498496968054
  0.4038458632045118  0.0028746163340961  0.4749950477999801
  0.8464951859142367  0.2557292918223043  0.5193002095596464
  0.5963319211616691  0.4927275914481746  0.5291456961516012
  0.6549340248788784  0.2455618108054453  0.4681393707471826
  0.9050334575177501  0.0022518100575588  0.4744850299340765
  0.3477757279502989  0.7479561714935685  0.5279885319943250
  0.0965092343528132  0.9933058520776378  0.5262663500356030
  0.1566327524363135  0.7393762273728751  0.4797081654664582
  0.4050233613789609  0.5036486529021686  0.4789606931026100
  0.8463658702222161  0.7518179670070475  0.5345775756823887
  0.5969664144078037  0.9939457733601905  0.5264827256436129
  0.6540655933876055  0.7414319222356720  0.4850620789724914
  0.9053463113041397  0.5059877527189167  0.4774163009603510
  0.2768471232768733  0.1048069553841564  0.5724046328535154
  0.2236334756103822  0.3987108432051472  0.4246830363803356
  0.4746014749687786  0.3554165594455417  0.4214109340402071
  0.0275489093092043  0.1473025526916259  0.5698698307626272
  0.7774513509946301  0.1047113112233213  0.5714833348358828
  0.7246962536095872  0.3990931092662789  0.4236011384070135
  0.9749285146544130  0.3565377702650685  0.4199253788686392
  0.5276020591323690  0.1479011293111195  0.5699852279251622
  0.2748507272022656  0.5999479690997961  0.5889721904627012
  0.2238826099986432  0.8920081083132152  0.4285568125397633
  0.4734766958262821  0.8491199031186739  0.4310110276476157
  0.0287500736138086  0.6413395623767619  0.5853048322703794
  0.7774408805410867  0.6004572547764855  0.5829919958357281
  0.7241212056764987  0.8912236783474430  0.4294421307450152
  0.9741932046042705  0.8482044890033855  0.4315350990077065
  0.5251064661739120  0.6411681664121841  0.5861026880184047
  0.3052080493506192  0.0645615896368508  0.4791414472898421
  0.2613249104219094  0.3022960916131558  0.4509156204032155
  0.4005796626735115  0.1755617434954073  0.5709196131058433
  0.4915880961821299  0.0521359510860571  0.5382420771965745
  0.3506156223931498  0.4269097156806584  0.4244433166418320
  0.1506108316813885  0.0756093103035938  0.5740306685637887
  0.4465823892143826  0.3153427767158721  0.5146984352159321
  0.1934305103025239  0.4285798199602138  0.5213906013732125
  0.0121386004814560  0.4499245681377618  0.4556160733399100
  0.2398558236550332  0.1986780728057406  0.5376032743585809
  0.0560295782454833  0.1826689039445188  0.4746567770329041
  0.1005293770326764  0.3260101597298519  0.4178961171657479
  0.8056988878538334  0.0640874896003972  0.4785779751561794
  0.7612659241905575  0.3028674180931455  0.4519609302977741
  0.9003110110020444  0.1756801534327034  0.5710066076696096
  0.9905891016005045  0.0516748776021405  0.5403006605068280
  0.8507205396746085  0.4281292652180879  0.4220880398154662
  0.6503580868793012  0.0759479203173534  0.5744358639216505
  0.9463389863757388  0.3162127073558762  0.5130187403735937
  0.6961371539511361  0.4318210619824718  0.5197624862185800
  0.5116639954302468  0.4489024007666972  0.4575227630210465
  0.7404635343031494  0.1984021239799202  0.5356872740377534
  0.5563387942442504  0.1834239795786060  0.4748788600925997
  0.6004366796976623  0.3260992209011942  0.4180722231048793
  0.3076178854520718  0.5610462090280550  0.4888633271899034
  0.2622046665565604  0.7975842671518502  0.4608838996919484
  0.3993170572365381  0.6735522771123051  0.5898703013538624
  0.4888448195716518  0.5475789295970075  0.5495334069201385
  0.3506526969375380  0.9216643022054292  0.4255570166185367
  0.1487332326570649  0.5698762447274537  0.5830546537974194
  0.4432206293605665  0.8132863953370589  0.5255761453351852
  0.1961362363443110  0.9316840696512643  0.5221350662746168
  0.0108258793637490  0.9442287426606505  0.4599934649813066
  0.2465903948871501  0.6881485626673071  0.5332893102451339
  0.0558992404324707  0.6807541758648908  0.4913743194375012
  0.1009504862600815  0.8202492903115545  0.4313279652271404
  0.8049294397840011  0.5658765825215963  0.4871732320307440
  0.7605455489798586  0.7976962086061000  0.4654182234032422
  0.9006230321216828  0.6709603148375919  0.5845261382572606
  0.9898032645009103  0.5478445526552663  0.5495707407058279
  0.8503675137070219  0.9202750307265403  0.4270176192695466
  0.6502326406680138  0.5713216737451040  0.5830792741971580
  0.9450695685408655  0.8139741658711712  0.5270028402085617
  0.6956860961372687  0.9324663089687103  0.5222032939639908
  0.5091494498860041  0.9446441753942910  0.4639077264650336
  0.7396514990896494  0.6959733447449108  0.5538194156585867
  0.5531044299918799  0.6820029664309477  0.4932513426624212
  0.5999425002244761  0.8203374304190086  0.4314491570445700
  0.2334625426826615  0.6551134343019622  0.6843462144964042
  0.2748730394859667  0.6942679331164477  0.6933955532685450
 
  0.00000000E+00  0.00000000E+00  0.00000000E+00
  0.00000000E+00  0.00000000E+00  0.00000000E+00
  0.00000000E+00  0.00000000E+00  0.00000000E+00
  0.00000000E+00  0.00000000E+00  0.00000000E+00
  0.00000000E+00  0.00000000E+00  0.00000000E+00
  0.00000000E+00  0.00000000E+00  0.00000000E+00
  0.00000000E+00  0.00000000E+00  0.00000000E+00
  0.00000000E+00  0.00000000E+00  0.00000000E+00
  0.00000000E+00  0.00000000E+00  0.00000000E+00
  0.00000000E+00  0.00000000E+00  0.00000000E+00
  0.00000000E+00  0.00000000E+00  0.00000000E+00
  0.00000000E+00  0.00000000E+00  0.00000000E+00
  0.00000000E+00  0.00000000E+00  0.00000000E+00
  0.00000000E+00  0.00000000E+00  0.00000000E+00
  0.00000000E+00  0.00000000E+00  0.00000000E+00
  0.00000000E+00  0.00000000E+00  0.00000000E+00
  0.00000000E+00  0.00000000E+00  0.00000000E+00
  0.00000000E+00  0.00000000E+00  0.00000000E+00
  0.00000000E+00  0.00000000E+00  0.00000000E+00
  0.00000000E+00  0.00000000E+00  0.00000000E+00
  0.00000000E+00  0.00000000E+00  0.00000000E+00
  0.00000000E+00  0.00000000E+00  0.00000000E+00
  0.00000000E+00  0.00000000E+00  0.00000000E+00
  0.00000000E+00  0.00000000E+00  0.00000000E+00
  0.00000000E+00  0.00000000E+00  0.00000000E+00
  0.00000000E+00  0.00000000E+00  0.00000000E+00
  0.00000000E+00  0.00000000E+00  0.00000000E+00
  0.00000000E+00  0.00000000E+00  0.00000000E+00
  0.00000000E+00  0.00000000E+00  0.00000000E+00
  0.00000000E+00  0.00000000E+00  0.00000000E+00
  0.00000000E+00  0.00000000E+00  0.00000000E+00
  0.00000000E+00  0.00000000E+00  0.00000000E+00
  0.00000000E+00  0.00000000E+00  0.00000000E+00
  0.00000000E+00  0.00000000E+00  0.00000000E+00
  0.00000000E+00  0.00000000E+00  0.00000000E+00
  0.00000000E+00  0.00000000E+00  0.00000000E+00
  0.00000000E+00  0.00000000E+00  0.00000000E+00
  0.00000000E+00  0.00000000E+00  0.00000000E+00
  0.00000000E+00  0.00000000E+00  0.00000000E+00
  0.00000000E+00  0.00000000E+00  0.00000000E+00
  0.00000000E+00  0.00000000E+00  0.00000000E+00
  0.00000000E+00  0.00000000E+00  0.00000000E+00
  0.00000000E+00  0.00000000E+00  0.00000000E+00
  0.00000000E+00  0.00000000E+00  0.00000000E+00
  0.00000000E+00  0.00000000E+00  0.00000000E+00
  0.00000000E+00  0.00000000E+00  0.00000000E+00
  0.00000000E+00  0.00000000E+00  0.00000000E+00
  0.00000000E+00  0.00000000E+00  0.00000000E+00
  0.00000000E+00  0.00000000E+00  0.00000000E+00
  0.00000000E+00  0.00000000E+00  0.00000000E+00
  0.00000000E+00  0.00000000E+00  0.00000000E+00
  0.00000000E+00  0.00000000E+00  0.00000000E+00
  0.00000000E+00  0.00000000E+00  0.00000000E+00
  0.00000000E+00  0.00000000E+00  0.00000000E+00
  0.00000000E+00  0.00000000E+00  0.00000000E+00
  0.00000000E+00  0.00000000E+00  0.00000000E+00
  0.00000000E+00  0.00000000E+00  0.00000000E+00
  0.00000000E+00  0.00000000E+00  0.00000000E+00
  0.00000000E+00  0.00000000E+00  0.00000000E+00
  0.00000000E+00  0.00000000E+00  0.00000000E+00
  0.00000000E+00  0.00000000E+00  0.00000000E+00
  0.00000000E+00  0.00000000E+00  0.00000000E+00
  0.00000000E+00  0.00000000E+00  0.00000000E+00
  0.00000000E+00  0.00000000E+00  0.00000000E+00
  0.00000000E+00  0.00000000E+00  0.00000000E+00
  0.00000000E+00  0.00000000E+00  0.00000000E+00
  0.00000000E+00  0.00000000E+00  0.00000000E+00
  0.00000000E+00  0.00000000E+00  0.00000000E+00
  0.00000000E+00  0.00000000E+00  0.00000000E+00
  0.00000000E+00  0.00000000E+00  0.00000000E+00
  0.00000000E+00  0.00000000E+00  0.00000000E+00
  0.00000000E+00  0.00000000E+00  0.00000000E+00
  0.00000000E+00  0.00000000E+00  0.00000000E+00
  0.00000000E+00  0.00000000E+00  0.00000000E+00
  0.00000000E+00  0.00000000E+00  0.00000000E+00
  0.00000000E+00  0.00000000E+00  0.00000000E+00
  0.00000000E+00  0.00000000E+00  0.00000000E+00
  0.00000000E+00  0.00000000E+00  0.00000000E+00
  0.00000000E+00  0.00000000E+00  0.00000000E+00
  0.00000000E+00  0.00000000E+00  0.00000000E+00
  0.00000000E+00  0.00000000E+00  0.00000000E+00
  0.00000000E+00  0.00000000E+00  0.00000000E+00
