CONTCAR\(20)                            
   1.00000000000000     
    14.4448003769000000    0.0000000000000000    0.0000000000000000
     0.0000000000000000   10.3396997452000008    0.0000000000000000
     0.0000000000000000    0.0000000000000000   18.5883998870999996
   Cu   Mo   F    O 
     6     6    36     1
Direct
  0.9947474377131796  0.9951153870615570  0.4888573948330721
  0.3404320461464738  0.0092996661408818  0.5019735082025597
  0.6680555586344362  0.0007874577428784  0.4961694680390123
  0.9988372746525863  0.4970001223753746  0.5003931002404464
  0.3341573282673060  0.5062175078589195  0.4992029212442650
  0.6548140703605914  0.5001124970925417  0.5917721816580789
  0.1693719265646434  0.2514445511287148  0.5052734150519649
  0.5110259944954975  0.2742205658830828  0.4890397067894617
  0.8304463161107917  0.2454645356901870  0.4763771938944871
  0.1652215884173263  0.7528670101987021  0.4912805444111397
  0.5021339653627307  0.7584974740872492  0.5126710905737054
  0.8237883354706109  0.7289220180649657  0.5092199900788925
  0.2261066006977246  0.0957899559641644  0.5452459807118200
  0.1140111217654395  0.4076625732677258  0.4637805219488710
  0.1099488692319070  0.2864601473673934  0.5922162288570019
  0.2277653158508827  0.2185367230912051  0.4174268451514953
  0.0621185473203785  0.1560877344806606  0.4708135927582632
  0.2771259103269276  0.3487827402805299  0.5382927438822144
  0.5756738313559139  0.1265777890719811  0.5330898332122891
  0.4402450703743514  0.4184717920028693  0.4487399944325526
  0.4688827190039576  0.3206041875202591  0.5807398924708683
  0.5495226376377502  0.2235748298001166  0.3981268354134111
  0.3987841324674317  0.1712737739471638  0.4764222840875997
  0.6167103402205508  0.3860991289231638  0.5035711612789482
  0.8767434124070144  0.0814841718299854  0.5187882797134233
  0.7901352239638645  0.3998000486279413  0.4351267646370130
  0.7677157651317889  0.2653652739883484  0.5632457629121329
  0.8992926739181467  0.1995363479973177  0.3953913364010813
  0.7265962728618897  0.1444322557885158  0.4391607141253636
  0.9364143466453195  0.3331033175928935  0.5198796741926341
  0.2211659937190633  0.6000917530378654  0.5363593072909995
  0.1085325139485254  0.9064897350343791  0.4481358525140748
  0.1099963398788868  0.7959608834336531  0.5788905386007154
  0.2218656264414448  0.7102511850617585  0.4042362613318999
  0.0564823751193677  0.6547920071532908  0.4621353759329294
  0.2749363825034213  0.8486823987848739  0.5205478182845489
  0.5386512408363408  0.5982460845277146  0.5609892468236921
  0.4581086619027163  0.9185956419707121  0.4673558638353185
  0.4355518029224438  0.8038100179433534  0.5949694056200564
  0.5689287372858131  0.7204240502936974  0.4299902096245117
  0.3956517695042310  0.6686242646192102  0.4719287823730364
  0.6074746675806585  0.8553732669421633  0.5508904792101756
  0.8946816423082176  0.5868227496963867  0.5523118908299668
  0.7585013672847023  0.8708130007536219  0.4601786149809868
  0.7919247138506509  0.7962002726880726  0.5985953456300928
  0.8619174713147393  0.6698945915570437  0.4192397329951874
  0.7160833901627210  0.6203597577597806  0.5100561070131628
  0.9370063525681064  0.8314809204441554  0.5154223958128811
  0.7084643504905032  0.4706657024310090  0.6728575730916244
 
  0.00000000E+00  0.00000000E+00  0.00000000E+00
  0.00000000E+00  0.00000000E+00  0.00000000E+00
  0.00000000E+00  0.00000000E+00  0.00000000E+00
  0.00000000E+00  0.00000000E+00  0.00000000E+00
  0.00000000E+00  0.00000000E+00  0.00000000E+00
  0.00000000E+00  0.00000000E+00  0.00000000E+00
  0.00000000E+00  0.00000000E+00  0.00000000E+00
  0.00000000E+00  0.00000000E+00  0.00000000E+00
  0.00000000E+00  0.00000000E+00  0.00000000E+00
  0.00000000E+00  0.00000000E+00  0.00000000E+00
  0.00000000E+00  0.00000000E+00  0.00000000E+00
  0.00000000E+00  0.00000000E+00  0.00000000E+00
  0.00000000E+00  0.00000000E+00  0.00000000E+00
  0.00000000E+00  0.00000000E+00  0.00000000E+00
  0.00000000E+00  0.00000000E+00  0.00000000E+00
  0.00000000E+00  0.00000000E+00  0.00000000E+00
  0.00000000E+00  0.00000000E+00  0.00000000E+00
  0.00000000E+00  0.00000000E+00  0.00000000E+00
  0.00000000E+00  0.00000000E+00  0.00000000E+00
  0.00000000E+00  0.00000000E+00  0.00000000E+00
  0.00000000E+00  0.00000000E+00  0.00000000E+00
  0.00000000E+00  0.00000000E+00  0.00000000E+00
  0.00000000E+00  0.00000000E+00  0.00000000E+00
  0.00000000E+00  0.00000000E+00  0.00000000E+00
  0.00000000E+00  0.00000000E+00  0.00000000E+00
  0.00000000E+00  0.00000000E+00  0.00000000E+00
  0.00000000E+00  0.00000000E+00  0.00000000E+00
  0.00000000E+00  0.00000000E+00  0.00000000E+00
  0.00000000E+00  0.00000000E+00  0.00000000E+00
  0.00000000E+00  0.00000000E+00  0.00000000E+00
  0.00000000E+00  0.00000000E+00  0.00000000E+00
  0.00000000E+00  0.00000000E+00  0.00000000E+00
  0.00000000E+00  0.00000000E+00  0.00000000E+00
  0.00000000E+00  0.00000000E+00  0.00000000E+00
  0.00000000E+00  0.00000000E+00  0.00000000E+00
  0.00000000E+00  0.00000000E+00  0.00000000E+00
  0.00000000E+00  0.00000000E+00  0.00000000E+00
  0.00000000E+00  0.00000000E+00  0.00000000E+00
  0.00000000E+00  0.00000000E+00  0.00000000E+00
  0.00000000E+00  0.00000000E+00  0.00000000E+00
  0.00000000E+00  0.00000000E+00  0.00000000E+00
  0.00000000E+00  0.00000000E+00  0.00000000E+00
  0.00000000E+00  0.00000000E+00  0.00000000E+00
  0.00000000E+00  0.00000000E+00  0.00000000E+00
  0.00000000E+00  0.00000000E+00  0.00000000E+00
  0.00000000E+00  0.00000000E+00  0.00000000E+00
  0.00000000E+00  0.00000000E+00  0.00000000E+00
  0.00000000E+00  0.00000000E+00  0.00000000E+00
  0.00000000E+00  0.00000000E+00  0.00000000E+00
