CONTCAR\(4)                             
   1.00000000000000     
    12.5853996276999993    0.0000000000000000    0.0000000000000000
     0.0000000000000000   10.3535003662000005    0.0000000000000000
     0.0000000000000000    0.0000000000000000   22.0041007995999998
   Cu   O    F    H 
    36    13    60     1
Direct
  0.0061113949935105  0.2187943337973834  0.3626907717264771
  0.1717356608770828  0.4763703648349491  0.3626566423810118
  0.9996347125562934  0.0228574313521293  0.6385791165939168
  0.1634943449258373  0.2800294718847880  0.6424252716087508
  0.1468786565110349  0.1301837640208632  0.4850326486512273
  0.3098735157362569  0.3686211108849378  0.5232949101230204
  0.3340173607109236  0.2178527821548570  0.3618016810441915
  0.5004912920968678  0.4772443628437131  0.3634861128687206
  0.3404635378969232  0.0244622413463489  0.6409678659477080
  0.5116279163227730  0.2811429819019651  0.6379024604009516
  0.4751710123817361  0.1308770376367860  0.4845351232091204
  0.6457319671790742  0.3695054202990917  0.5143848711978123
  0.6676184206140121  0.2188836332532489  0.3616527345110470
  0.8374647721642461  0.4773659950787632  0.3615310577960074
  0.6742489068050688  0.0241787114324268  0.6385057568584429
  0.8345703592239317  0.2824777755738950  0.6379617927923107
  0.8144356832135031  0.1287991522524052  0.4822762959312215
  0.9806396435470148  0.3699996322408410  0.5146536481771662
  0.0059807127423284  0.7182679532983371  0.3633359566871022
  0.1718084477592612  0.9760363023636671  0.3619808834524392
  0.9966393148064228  0.5244293368185353  0.6365987005762790
  0.1672330445564043  0.7818613474920681  0.6405882991677174
  0.1482647469842391  0.6299407726518353  0.4859939676514315
  0.3102942438704090  0.8715920791308065  0.5201823025097738
  0.3352259527125767  0.7175082667367434  0.3634433572651758
  0.5012880954902172  0.9770140308548676  0.3621513381354902
  0.3363652730404567  0.5240708518500270  0.6444559434511419
  0.5122430363368551  0.7844740825565211  0.6371897621035671
  0.4738538262246124  0.6270531600863904  0.4887941386476911
  0.6474104149692792  0.8711444387887326  0.5131052910784106
  0.6676455953718161  0.7186518059236207  0.3628408041179512
  0.8377091275122552  0.9770994298170805  0.3611122241167806
  0.6736807868576662  0.5239340623931099  0.6385292850064204
  0.8350507684692303  0.7826766438084789  0.6377355362066552
  0.8150156921585321  0.6285628638156098  0.4833695095703376
  0.9802435059381693  0.8712427882471658  0.5152624356064592
  0.2703603498338865  0.3759263802862094  0.6087848116459398
  0.1124944802609988  0.1216578844593030  0.3971198595765557
  0.6172832548858835  0.3769747905991352  0.6027030547342491
  0.4391714741650929  0.1211029532861829  0.3973062611063298
  0.9358778154712653  0.3812221631000412  0.6004302411563458
  0.7749147992839553  0.1220388381723652  0.3951308431198086
  0.2750894398681112  0.8799763142382488  0.6077524842600965
  0.1123665137900716  0.6212836458820021  0.3982740614933249
  0.6172961178964869  0.8793746414007799  0.6019089101462569
  0.4390128022198709  0.6203920679209389  0.4001424224334613
  0.9394916664516941  0.8797115869414185  0.6020325576003245
  0.7748714975312510  0.6218520930284512  0.3962071786969688
  0.2774525101023357  0.5157284532364343  0.7239549704438275
  0.2792113204813305  0.0725777266844219  0.3214524186593692
  0.0554390089263350  0.1737672389992326  0.6772715402269895
  0.2272979001933351  0.3237012067316414  0.3247494652857981
  0.0956790292308867  0.4224176559065498  0.6776100200905120
  0.2263043663266799  0.1282429017147635  0.6129617088433363
  0.0550308156899888  0.0316529110604122  0.5360364159969819
  0.1078701985244024  0.2759606281113420  0.5370427077626729
  0.2275294046494807  0.4716757724516896  0.4690341979332473
  0.2760397738648805  0.2251498748083165  0.4679539084153532
  0.0646343142980825  0.3710679609040568  0.3967074072131638
  0.6091963740045401  0.0744787270761122  0.3224263575808308
  0.4041536106097325  0.1774774933562568  0.6750483332994364
  0.5598998022361741  0.3258478769519755  0.3261431980556537
  0.4618086607429177  0.4279767167212896  0.6764620081260233
  0.5664687403296824  0.1278326761428374  0.6042309296032613
  0.3872284480536123  0.0323661119264500  0.5381351170328941
  0.4416119465050556  0.2756663668392108  0.5385995399717984
  0.5463070832334083  0.4670088544738746  0.4680554191766220
  0.6040362327654591  0.2243586835546978  0.4630664819510599
  0.3908996942881018  0.3712054305913526  0.3938810908792618
  0.9483449115372053  0.0743558201732100  0.3229691268062069
  0.7297373249054075  0.1762642212781742  0.6763943379040498
  0.8994136305072189  0.3253790975124105  0.3262042273633696
  0.7812041869529907  0.4272578395677016  0.6793326132043873
  0.8918849914144715  0.1297853603873662  0.6048731909049749
  0.7226983061139762  0.0310156158960666  0.5328208658993816
  0.7749858239911021  0.2765649808403694  0.5314869541183214
  0.8899567102490025  0.4686238550935258  0.4630050439277653
  0.9438219443144931  0.2219514029952308  0.4638043091980109
  0.7268990649922884  0.3721723949977545  0.3929758583066700
  0.2803437012667445  0.5725819606174412  0.3229663532434586
  0.0555081663283872  0.6758277474688086  0.6732265438703422
  0.2290831828779645  0.8228339079947347  0.3254481060538552
  0.1071012735184880  0.9250797098116692  0.6790563665633513
  0.2270097339027615  0.6331368429376028  0.6079520256754307
  0.0548314555778120  0.5310590617635000  0.5355331680724262
  0.1085114852725440  0.7781291316647270  0.5360474238574895
  0.2234311563006912  0.9698896292291153  0.4664077447479968
  0.2770505987926057  0.7239639572153820  0.4680316701320066
  0.0641345162583704  0.8713094164030295  0.3959395899225910
  0.6085805841052050  0.5743436247578373  0.3240783486958847
  0.4100047516186720  0.6821356655266229  0.6744554054426430
  0.5608550194292192  0.8247578231876673  0.3260632425479386
  0.4555980079535189  0.9295317762239392  0.6764261108719936
  0.5691522506911042  0.6319768976722315  0.6033422507241468
  0.3897136022626668  0.5288095425462771  0.5488951496701659
  0.4398196908922856  0.7774730327957045  0.5379742858343022
  0.5522599666797703  0.9696644535308323  0.4647567206998460
  0.6039693446641010  0.7227208846726327  0.4654821386237700
  0.3925905020440723  0.8713939796710264  0.3944533609651515
  0.9484499867635563  0.5739989257660909  0.3235808842614105
  0.7305674997840939  0.6761791473210792  0.6761692599414246
  0.8993036653060784  0.8244901028219687  0.3263103322555665
  0.7815063595098906  0.9274332402925154  0.6791568562186185
  0.8901949955407673  0.6300461721070931  0.6028095823845234
  0.7219085208645950  0.5302122218963774  0.5325640984254676
  0.7759108119271900  0.7776579593515862  0.5319491712596829
  0.8903597567278041  0.9691995336523931  0.4628441946484259
  0.9436293152084545  0.7227885104418803  0.4643953201965374
  0.7275310333149179  0.8718340722677169  0.3934979040221478
  0.3384007773656776  0.5126889106677481  0.7518059328505871
 
  0.00000000E+00  0.00000000E+00  0.00000000E+00
  0.00000000E+00  0.00000000E+00  0.00000000E+00
  0.00000000E+00  0.00000000E+00  0.00000000E+00
  0.00000000E+00  0.00000000E+00  0.00000000E+00
  0.00000000E+00  0.00000000E+00  0.00000000E+00
  0.00000000E+00  0.00000000E+00  0.00000000E+00
  0.00000000E+00  0.00000000E+00  0.00000000E+00
  0.00000000E+00  0.00000000E+00  0.00000000E+00
  0.00000000E+00  0.00000000E+00  0.00000000E+00
  0.00000000E+00  0.00000000E+00  0.00000000E+00
  0.00000000E+00  0.00000000E+00  0.00000000E+00
  0.00000000E+00  0.00000000E+00  0.00000000E+00
  0.00000000E+00  0.00000000E+00  0.00000000E+00
  0.00000000E+00  0.00000000E+00  0.00000000E+00
  0.00000000E+00  0.00000000E+00  0.00000000E+00
  0.00000000E+00  0.00000000E+00  0.00000000E+00
  0.00000000E+00  0.00000000E+00  0.00000000E+00
  0.00000000E+00  0.00000000E+00  0.00000000E+00
  0.00000000E+00  0.00000000E+00  0.00000000E+00
  0.00000000E+00  0.00000000E+00  0.00000000E+00
  0.00000000E+00  0.00000000E+00  0.00000000E+00
  0.00000000E+00  0.00000000E+00  0.00000000E+00
  0.00000000E+00  0.00000000E+00  0.00000000E+00
  0.00000000E+00  0.00000000E+00  0.00000000E+00
  0.00000000E+00  0.00000000E+00  0.00000000E+00
  0.00000000E+00  0.00000000E+00  0.00000000E+00
  0.00000000E+00  0.00000000E+00  0.00000000E+00
  0.00000000E+00  0.00000000E+00  0.00000000E+00
  0.00000000E+00  0.00000000E+00  0.00000000E+00
  0.00000000E+00  0.00000000E+00  0.00000000E+00
  0.00000000E+00  0.00000000E+00  0.00000000E+00
  0.00000000E+00  0.00000000E+00  0.00000000E+00
  0.00000000E+00  0.00000000E+00  0.00000000E+00
  0.00000000E+00  0.00000000E+00  0.00000000E+00
  0.00000000E+00  0.00000000E+00  0.00000000E+00
  0.00000000E+00  0.00000000E+00  0.00000000E+00
  0.00000000E+00  0.00000000E+00  0.00000000E+00
  0.00000000E+00  0.00000000E+00  0.00000000E+00
  0.00000000E+00  0.00000000E+00  0.00000000E+00
  0.00000000E+00  0.00000000E+00  0.00000000E+00
  0.00000000E+00  0.00000000E+00  0.00000000E+00
  0.00000000E+00  0.00000000E+00  0.00000000E+00
  0.00000000E+00  0.00000000E+00  0.00000000E+00
  0.00000000E+00  0.00000000E+00  0.00000000E+00
  0.00000000E+00  0.00000000E+00  0.00000000E+00
  0.00000000E+00  0.00000000E+00  0.00000000E+00
  0.00000000E+00  0.00000000E+00  0.00000000E+00
  0.00000000E+00  0.00000000E+00  0.00000000E+00
  0.00000000E+00  0.00000000E+00  0.00000000E+00
  0.00000000E+00  0.00000000E+00  0.00000000E+00
  0.00000000E+00  0.00000000E+00  0.00000000E+00
  0.00000000E+00  0.00000000E+00  0.00000000E+00
  0.00000000E+00  0.00000000E+00  0.00000000E+00
  0.00000000E+00  0.00000000E+00  0.00000000E+00
  0.00000000E+00  0.00000000E+00  0.00000000E+00
  0.00000000E+00  0.00000000E+00  0.00000000E+00
  0.00000000E+00  0.00000000E+00  0.00000000E+00
  0.00000000E+00  0.00000000E+00  0.00000000E+00
  0.00000000E+00  0.00000000E+00  0.00000000E+00
  0.00000000E+00  0.00000000E+00  0.00000000E+00
  0.00000000E+00  0.00000000E+00  0.00000000E+00
  0.00000000E+00  0.00000000E+00  0.00000000E+00
  0.00000000E+00  0.00000000E+00  0.00000000E+00
  0.00000000E+00  0.00000000E+00  0.00000000E+00
  0.00000000E+00  0.00000000E+00  0.00000000E+00
  0.00000000E+00  0.00000000E+00  0.00000000E+00
  0.00000000E+00  0.00000000E+00  0.00000000E+00
  0.00000000E+00  0.00000000E+00  0.00000000E+00
  0.00000000E+00  0.00000000E+00  0.00000000E+00
  0.00000000E+00  0.00000000E+00  0.00000000E+00
  0.00000000E+00  0.00000000E+00  0.00000000E+00
  0.00000000E+00  0.00000000E+00  0.00000000E+00
  0.00000000E+00  0.00000000E+00  0.00000000E+00
  0.00000000E+00  0.00000000E+00  0.00000000E+00
  0.00000000E+00  0.00000000E+00  0.00000000E+00
  0.00000000E+00  0.00000000E+00  0.00000000E+00
  0.00000000E+00  0.00000000E+00  0.00000000E+00
  0.00000000E+00  0.00000000E+00  0.00000000E+00
  0.00000000E+00  0.00000000E+00  0.00000000E+00
  0.00000000E+00  0.00000000E+00  0.00000000E+00
  0.00000000E+00  0.00000000E+00  0.00000000E+00
  0.00000000E+00  0.00000000E+00  0.00000000E+00
  0.00000000E+00  0.00000000E+00  0.00000000E+00
  0.00000000E+00  0.00000000E+00  0.00000000E+00
  0.00000000E+00  0.00000000E+00  0.00000000E+00
  0.00000000E+00  0.00000000E+00  0.00000000E+00
  0.00000000E+00  0.00000000E+00  0.00000000E+00
  0.00000000E+00  0.00000000E+00  0.00000000E+00
  0.00000000E+00  0.00000000E+00  0.00000000E+00
  0.00000000E+00  0.00000000E+00  0.00000000E+00
  0.00000000E+00  0.00000000E+00  0.00000000E+00
  0.00000000E+00  0.00000000E+00  0.00000000E+00
  0.00000000E+00  0.00000000E+00  0.00000000E+00
  0.00000000E+00  0.00000000E+00  0.00000000E+00
  0.00000000E+00  0.00000000E+00  0.00000000E+00
  0.00000000E+00  0.00000000E+00  0.00000000E+00
  0.00000000E+00  0.00000000E+00  0.00000000E+00
  0.00000000E+00  0.00000000E+00  0.00000000E+00
  0.00000000E+00  0.00000000E+00  0.00000000E+00
  0.00000000E+00  0.00000000E+00  0.00000000E+00
  0.00000000E+00  0.00000000E+00  0.00000000E+00
  0.00000000E+00  0.00000000E+00  0.00000000E+00
  0.00000000E+00  0.00000000E+00  0.00000000E+00
  0.00000000E+00  0.00000000E+00  0.00000000E+00
  0.00000000E+00  0.00000000E+00  0.00000000E+00
  0.00000000E+00  0.00000000E+00  0.00000000E+00
  0.00000000E+00  0.00000000E+00  0.00000000E+00
  0.00000000E+00  0.00000000E+00  0.00000000E+00
  0.00000000E+00  0.00000000E+00  0.00000000E+00
  0.00000000E+00  0.00000000E+00  0.00000000E+00
