 Ag1 Te6 Mo6                            
   1.00000000000000     
     4.5729232313007717    0.0000000000000000    0.0000000000000000
    -2.2864616156503859    8.9989007019491183    0.0000000000000000
     0.0000000000000000    0.0000000000000000   21.4340416850000004
   Ag   Te   Mo
     1     6     6
Direct
  0.0000004611209415  0.0000009511631983  0.4999991524702238
  0.7729167584806145  0.5455781690134350  0.6494842639058802
  0.4146726085104342  0.8295229045236713  0.5645551346941571
  0.5853239481604804  0.1704760278408274  0.4354462189364363
  0.1071038558890118  0.2152384247580544  0.5966510703647315
  0.8928966839914096  0.7847607676195910  0.4033489726889789
  0.2270845075390223  0.4544226275424210  0.3505161986894340
  0.3183745426837237  0.6365395541299753  0.4568944888425133
  0.6816260490624437  0.3634603867104487  0.5431048799971194
  0.1710377161132680  0.3421129765100397  0.4731175140587925
  0.8289623832746293  0.6578876573535797  0.5268819002746233
  0.2606049211514985  0.5212011965431009  0.5710170112675135
  0.7393955640225227  0.4787983562916565  0.4289831938095973
 
  0.00000000E+00  0.00000000E+00  0.00000000E+00
  0.00000000E+00  0.00000000E+00  0.00000000E+00
  0.00000000E+00  0.00000000E+00  0.00000000E+00
  0.00000000E+00  0.00000000E+00  0.00000000E+00
  0.00000000E+00  0.00000000E+00  0.00000000E+00
  0.00000000E+00  0.00000000E+00  0.00000000E+00
  0.00000000E+00  0.00000000E+00  0.00000000E+00
  0.00000000E+00  0.00000000E+00  0.00000000E+00
  0.00000000E+00  0.00000000E+00  0.00000000E+00
  0.00000000E+00  0.00000000E+00  0.00000000E+00
  0.00000000E+00  0.00000000E+00  0.00000000E+00
  0.00000000E+00  0.00000000E+00  0.00000000E+00
  0.00000000E+00  0.00000000E+00  0.00000000E+00
