CONTCAR\(2)                             
   1.00000000000000     
    10.5677003860000003    0.0000000000000000    0.0000000000000000
    -1.7612875669000001   15.6418507631000008    0.0000000000000000
     0.0000000000000000    0.0000000000000000   21.6047992706000009
   Sc   Cl   O 
    21    30     1
Direct
  0.0699029549649426  0.4313828941033200  0.4647894948535088
  0.2539244547997833  0.5683882655395684  0.5318952037149883
  0.0699374611797102  0.4205317930788874  0.6087768044037287
  0.2632800790257875  0.5797847629089563  0.3899219128234652
  0.2156498724630789  0.2831695194773122  0.5344706224343571
  0.1200650105211462  0.7214758531885122  0.4632863891879843
  0.0004328468853000  0.0009913426191117  0.4978019671420506
  0.4046489352577194  0.4268185287711657  0.4599928447442811
  0.6023076105702555  0.5683887583098803  0.5319599921556090
  0.4027175338186778  0.4162048190899910  0.6772096957493451
  0.5969376706022478  0.5797661691469824  0.3899963061091313
  0.5455422669153024  0.2831513348335767  0.5345375524741450
  0.4531786940722580  0.7188869371348807  0.4666823314859392
  0.3335926836994256  0.0013247973017790  0.4988269950193126
  0.7407527810406319  0.4313746751797041  0.4648427902762327
  0.9283678025835619  0.5698433256622660  0.5313826191815921
  0.7370675862547121  0.4205140340931589  0.6088469168183747
  0.9301506469594343  0.5800635633699469  0.3891119585582039
  0.8798563627134425  0.2789664918023229  0.5328196248418768
  0.7873075953894547  0.7213838976146553  0.4633295167587501
  0.6662445393149198  0.0007702185767994  0.4980703127989987
  0.0286783379433748  0.1585143618549832  0.5364590105315205
  0.3084738038526368  0.8430247229734426  0.4594344538715129
  0.2057359843170810  0.3023738679144876  0.6489466535283466
  0.1163791587359648  0.6919342102018001  0.3489524017488338
  0.1740403930281638  0.0383014521259111  0.4210415555115379
  0.1596615566517121  0.9627084246496724  0.5752195210718033
  0.2447367186769322  0.5283773887397106  0.6514866334334494
  0.1135312140292541  0.6871666071766653  0.5736239056555658
  0.2168346218651586  0.3125347257048381  0.4224550076125074
  0.0801420298168981  0.4767261050025400  0.3454995375590914
  0.3597578487208815  0.1587108374429457  0.5399883258677534
  0.6391454148937569  0.8428416120276900  0.4585014433568692
  0.5617471504370567  0.3023525754008657  0.6490293420321391
  0.4488624738043130  0.6919426572975871  0.3515441124132661
  0.5055528410491464  0.0382595547853102  0.4211394995090340
  0.4941831619752933  0.9632193976382889  0.5756462682834177
  0.5981616744755470  0.5283645535359357  0.6515809064403457
  0.4465709147315653  0.6795862643614580  0.5761697463699252
  0.5542637933265424  0.3124589513306871  0.4225152413788914
  0.4129461832945543  0.4761926160829208  0.3445349135484294
  0.6908876299400378  0.1584796175650840  0.5365926356148700
  0.9740669382908546  0.8441036877476826  0.4566131300101032
  0.8847848782449766  0.3081026855643581  0.6469502649218103
  0.7812123452918277  0.6918638375463491  0.3489718224316392
  0.8391716060089904  0.0375995149717366  0.4206450529307733
  0.8275432757170805  0.9641455487089735  0.5750419977624345
  0.9207870421206829  0.5243875257563094  0.6504368583620403
  0.7820877153693709  0.6872491251308837  0.5736977305497356
  0.8858096991283140  0.3138357245340008  0.4225494310347744
  0.7456764298531628  0.4767229671769880  0.3455492393154990
  0.4012717243770818  0.4090663482471177  0.7557317548102015
 
  0.00000000E+00  0.00000000E+00  0.00000000E+00
  0.00000000E+00  0.00000000E+00  0.00000000E+00
  0.00000000E+00  0.00000000E+00  0.00000000E+00
  0.00000000E+00  0.00000000E+00  0.00000000E+00
  0.00000000E+00  0.00000000E+00  0.00000000E+00
  0.00000000E+00  0.00000000E+00  0.00000000E+00
  0.00000000E+00  0.00000000E+00  0.00000000E+00
  0.00000000E+00  0.00000000E+00  0.00000000E+00
  0.00000000E+00  0.00000000E+00  0.00000000E+00
  0.00000000E+00  0.00000000E+00  0.00000000E+00
  0.00000000E+00  0.00000000E+00  0.00000000E+00
  0.00000000E+00  0.00000000E+00  0.00000000E+00
  0.00000000E+00  0.00000000E+00  0.00000000E+00
  0.00000000E+00  0.00000000E+00  0.00000000E+00
  0.00000000E+00  0.00000000E+00  0.00000000E+00
  0.00000000E+00  0.00000000E+00  0.00000000E+00
  0.00000000E+00  0.00000000E+00  0.00000000E+00
  0.00000000E+00  0.00000000E+00  0.00000000E+00
  0.00000000E+00  0.00000000E+00  0.00000000E+00
  0.00000000E+00  0.00000000E+00  0.00000000E+00
  0.00000000E+00  0.00000000E+00  0.00000000E+00
  0.00000000E+00  0.00000000E+00  0.00000000E+00
  0.00000000E+00  0.00000000E+00  0.00000000E+00
  0.00000000E+00  0.00000000E+00  0.00000000E+00
  0.00000000E+00  0.00000000E+00  0.00000000E+00
  0.00000000E+00  0.00000000E+00  0.00000000E+00
  0.00000000E+00  0.00000000E+00  0.00000000E+00
  0.00000000E+00  0.00000000E+00  0.00000000E+00
  0.00000000E+00  0.00000000E+00  0.00000000E+00
  0.00000000E+00  0.00000000E+00  0.00000000E+00
  0.00000000E+00  0.00000000E+00  0.00000000E+00
  0.00000000E+00  0.00000000E+00  0.00000000E+00
  0.00000000E+00  0.00000000E+00  0.00000000E+00
  0.00000000E+00  0.00000000E+00  0.00000000E+00
  0.00000000E+00  0.00000000E+00  0.00000000E+00
  0.00000000E+00  0.00000000E+00  0.00000000E+00
  0.00000000E+00  0.00000000E+00  0.00000000E+00
  0.00000000E+00  0.00000000E+00  0.00000000E+00
  0.00000000E+00  0.00000000E+00  0.00000000E+00
  0.00000000E+00  0.00000000E+00  0.00000000E+00
  0.00000000E+00  0.00000000E+00  0.00000000E+00
  0.00000000E+00  0.00000000E+00  0.00000000E+00
  0.00000000E+00  0.00000000E+00  0.00000000E+00
  0.00000000E+00  0.00000000E+00  0.00000000E+00
  0.00000000E+00  0.00000000E+00  0.00000000E+00
  0.00000000E+00  0.00000000E+00  0.00000000E+00
  0.00000000E+00  0.00000000E+00  0.00000000E+00
  0.00000000E+00  0.00000000E+00  0.00000000E+00
  0.00000000E+00  0.00000000E+00  0.00000000E+00
  0.00000000E+00  0.00000000E+00  0.00000000E+00
  0.00000000E+00  0.00000000E+00  0.00000000E+00
  0.00000000E+00  0.00000000E+00  0.00000000E+00
