 Ti2 Br6                                
   1.00000000000000     
     6.3435359427944462    0.0000000000000000    0.0000000000000000
     3.1569077881798560    5.5425113416928795    0.0000000000000000
     0.0000000000000000    0.0000000000000000   18.1028862542720006
   Ti   Br
     2     6
Direct
  0.1668020776830358  0.6701986737598362  0.5000785202013541
  0.5144405847163757  0.9734745277238338  0.4999556644013345
  0.1835462829327757  0.9776079681388034  0.4142357114553205
  0.4981389971535505  0.6659991855065929  0.5858234444748384
  0.4974290096524779  0.3221107192506809  0.4200861831844554
  0.1837085638369574  0.3215083756863290  0.5798957155436809
  0.8421153836791136  0.9791423879381128  0.5851682613650604
  0.8389793963786029  0.6649595189473433  0.4147564993739554
 
  0.00000000E+00  0.00000000E+00  0.00000000E+00
  0.00000000E+00  0.00000000E+00  0.00000000E+00
  0.00000000E+00  0.00000000E+00  0.00000000E+00
  0.00000000E+00  0.00000000E+00  0.00000000E+00
  0.00000000E+00  0.00000000E+00  0.00000000E+00
  0.00000000E+00  0.00000000E+00  0.00000000E+00
  0.00000000E+00  0.00000000E+00  0.00000000E+00
  0.00000000E+00  0.00000000E+00  0.00000000E+00
