CONTCAR\(3)                             
   1.00000000000000     
    12.6589002608999994    0.0000000000000000    0.0000000000000000
    -6.3294555933999996   10.9637343354999999    0.0000000000000000
     0.0000000000000000    0.0000000000000000   35.9861984253000031
   Bi   Se   O 
    54    54     1
Direct
  0.2216718388892934  0.1100040602900199  0.5259439715279315
  0.1106313948843268  0.2201036376218118  0.4746306863448878
  0.2225974991178754  0.1118928131456305  0.3608593419322792
  0.1117959747781396  0.2210155969708347  0.6371131319439610
  0.0009453176648113  0.0007851018234039  0.2553782059607305
  0.9989853263234425  0.3331295391876069  0.7429869781627438
  0.5548296675709536  0.1114185122553658  0.5259131676359162
  0.4428587035669400  0.2208307226700273  0.4749209661956937
  0.5559303976356393  0.1116428484913936  0.3606865034792382
  0.4459168046532773  0.2248838949002351  0.6387794742180888
  0.3335375174207532  0.0004370377225338  0.2550089724083205
  0.3337432045762769  0.3366586174399554  0.7430262554743636
  0.8880122466791170  0.1110171107493315  0.5249793969198244
  0.7757133237557674  0.2212326747870424  0.4744353218283353
  0.8897751648434831  0.1122074366370248  0.3610431189905526
  0.7754010935787295  0.2211698288468326  0.6372697283603239
  0.6677703757022786  0.0002047805506693  0.2553860707887688
  0.6677307139867081  0.3353117710520774  0.7431765711231445
  0.2224442575929886  0.4442696801931481  0.5244492294307134
  0.1122718213533135  0.5570240264759305  0.4742011021306456
  0.2231492103490370  0.4457071238639098  0.3606843797246860
  0.1116289951624528  0.5567519437294048  0.6372687650920905
  0.0002787829880866  0.3331856344229585  0.2551806796173981
  0.9956268839865613  0.6632401499442210  0.7431881940184046
  0.5556064396439517  0.4444983098155411  0.5248093297657658
  0.4449950029312070  0.5559985102389927  0.4741563976021019
  0.5561637710839040  0.4442863603797308  0.3605814356611971
  0.4479844145935611  0.5573525452168417  0.6394256120611064
  0.3333749834576905  0.3335198076071376  0.2550321178674119
  0.3340250586292056  0.6644199274398112  0.7429953282828187
  0.8890407399677663  0.4445272309174466  0.5245243559026240
  0.7774944182550633  0.5551733904692782  0.4740815740547799
  0.8895574291398176  0.4447254640486968  0.3608613267551296
  0.7762619036228248  0.5576051217853532  0.6394336826026508
  0.6668633333511629  0.3335855199223565  0.2554757658127969
  0.6660720588400519  0.6653477733782340  0.7904117982795384
  0.2225699108801155  0.7773949835828784  0.5259430805016021
  0.1122907728873079  0.8886591703537944  0.4749463153231628
  0.2232417332441166  0.7784359976618915  0.3605734598982481
  0.1083757501087367  0.8872410681491016  0.6388419257596580
  0.0003429736092974  0.6675240712232069  0.2552421092994506
  0.9961146040585076  0.9988234513339220  0.7432959784195059
  0.5555965747254674  0.7776603470646796  0.5250380600792488
  0.4439286134293662  0.8893252022978824  0.4749870805327542
  0.5565591410326106  0.7784910876847758  0.3606127078526929
  0.4446970996623102  0.8868525341929705  0.6385090608911491
  0.3334300026406058  0.6667695632151486  0.2553695079101845
  0.3323367707833016 -0.0004286062678029  0.7433495506067861
  0.8887327423555474  0.7770724316310990  0.5249173386709511
  0.7778815517767279  0.8887984014064256  0.4745362945789002
  0.8898823015762107  0.7779395337706704  0.3609449733897754
  0.7762468207389085  0.8860456660604055  0.6394027657383046
  0.6677582946380379  0.6677951749936915  0.2555072147757170
  0.6683817971895190  0.9986132990498492  0.7432844184783554
  0.0005797464252117  0.0003502013054764  0.4046316170372799
  0.3334000677635626  0.3345379879520800  0.5940927472873510
  0.2226621436983388  0.1103258064132147  0.6885142312397826
  0.1115670723758332  0.2227343501338770  0.3093496191489541
  0.2222259502604166  0.1115147920019894  0.2130816979788245
  0.1123335160743904  0.2205112449576491  0.7836182662979168
  0.3339119421853226  0.0003563543611717  0.4042596130085075
  0.6679820014333777  0.3352931266101448  0.5940633718205737
  0.5534154579962801  0.1095986045018641  0.6884815599592403
  0.4443633136990573  0.2223375912213209  0.3091636861363980
  0.5563343962145033  0.1114070032705070  0.2135539773109519
  0.4440219672651350  0.2231973691492444  0.7851294894293190
  0.6667162527069525  0.0002242827402544  0.4043711801336033
 -0.0005407969311361  0.3328219557304554  0.5939004532478274
  0.8891778930892067  0.1125111279162028  0.6887939279104146
  0.7786389855332654  0.2227546692912740  0.3092759092692881
  0.8894936546519325  0.1111791661125153  0.2132975837719755
  0.7733431669699222  0.2197416688763978  0.7838881259822204
  0.0010144289102618  0.3343248701229564  0.4046695013110273
  0.3328288570431980  0.6642632317763318  0.5940468009832180
  0.2203377002187746  0.4431477055776772  0.6886528691197251
  0.1113184787206634  0.5559023228101933  0.3091029401776604
  0.2224172774877147  0.4448127451315097  0.2132407190230685
  0.1127043591354027  0.5590878629219783  0.7836397838948307
  0.3342198898952030  0.3343144427517459  0.4043020863347551
  0.6668177665135072  0.6670261486483066  0.5941234846881488
  0.5564974496757562  0.4463452712884539  0.6888777520617114
  0.4450658455867288  0.5557734935721602  0.3091352596687603
  0.5562431861377360  0.4454637077807712  0.2135775726205657
  0.3965604020158012  0.5317932773004495  0.7913732432953700
  0.6670157981365058  0.3334578801963705  0.4044384895308274
  0.9981892467297684  0.6653656802591067  0.5941120364386969
  0.8888023112593920  0.4429288997148275  0.6887233444030225
  0.7786992152431906  0.5560540100219663  0.3092975287733989
  0.8891044348619398  0.4447154042136576  0.2136027476841522
  0.8010252519791512  0.5300400416909894  0.7915582198570988
  0.0011935998896644  0.6672111814913975  0.4044501099552639
  0.3327956675935694  0.0000378607283359  0.5944391367266331
  0.2221079381552691  0.7785220865554084  0.6885538000570123
  0.1115443065846790  0.8893937846299712  0.3092465656395982
  0.2226512230535292  0.7781734008202148  0.2132776866893627
  0.1086731504628541  0.8872659517953491  0.7850372853034180
  0.3343542838888645  0.6676794310391292  0.4042832262882328
  0.6673287074040514  0.9994685053047465  0.5940783351153692
  0.5559644940434580  0.7769445747034043  0.6886920916673326
  0.4449224707997903  0.8895221705704039  0.3089856758799776
  0.5562181537626036  0.7780765459063724  0.2135451015518928
  0.4441748178166385  0.8874134181116035  0.7850707726482166
  0.6669766636345354  0.6668598875303083  0.4042234615988731
  0.9983269432115742  0.9993020350407377  0.5941435113956324
  0.8867669643241648  0.7767943303021588  0.6887691405610298
  0.7789926400816729  0.8898339888710085  0.3094095826192442
  0.8894484536201204  0.7787005373940658  0.2133877658812330
  0.8010455326094831  0.9359510875801462  0.7915245276484724
  0.6658033461879422  0.6652787099048070  0.8448696572732562
 
  0.00000000E+00  0.00000000E+00  0.00000000E+00
  0.00000000E+00  0.00000000E+00  0.00000000E+00
  0.00000000E+00  0.00000000E+00  0.00000000E+00
  0.00000000E+00  0.00000000E+00  0.00000000E+00
  0.00000000E+00  0.00000000E+00  0.00000000E+00
  0.00000000E+00  0.00000000E+00  0.00000000E+00
  0.00000000E+00  0.00000000E+00  0.00000000E+00
  0.00000000E+00  0.00000000E+00  0.00000000E+00
  0.00000000E+00  0.00000000E+00  0.00000000E+00
  0.00000000E+00  0.00000000E+00  0.00000000E+00
  0.00000000E+00  0.00000000E+00  0.00000000E+00
  0.00000000E+00  0.00000000E+00  0.00000000E+00
  0.00000000E+00  0.00000000E+00  0.00000000E+00
  0.00000000E+00  0.00000000E+00  0.00000000E+00
  0.00000000E+00  0.00000000E+00  0.00000000E+00
  0.00000000E+00  0.00000000E+00  0.00000000E+00
  0.00000000E+00  0.00000000E+00  0.00000000E+00
  0.00000000E+00  0.00000000E+00  0.00000000E+00
  0.00000000E+00  0.00000000E+00  0.00000000E+00
  0.00000000E+00  0.00000000E+00  0.00000000E+00
  0.00000000E+00  0.00000000E+00  0.00000000E+00
  0.00000000E+00  0.00000000E+00  0.00000000E+00
  0.00000000E+00  0.00000000E+00  0.00000000E+00
  0.00000000E+00  0.00000000E+00  0.00000000E+00
  0.00000000E+00  0.00000000E+00  0.00000000E+00
  0.00000000E+00  0.00000000E+00  0.00000000E+00
  0.00000000E+00  0.00000000E+00  0.00000000E+00
  0.00000000E+00  0.00000000E+00  0.00000000E+00
  0.00000000E+00  0.00000000E+00  0.00000000E+00
  0.00000000E+00  0.00000000E+00  0.00000000E+00
  0.00000000E+00  0.00000000E+00  0.00000000E+00
  0.00000000E+00  0.00000000E+00  0.00000000E+00
  0.00000000E+00  0.00000000E+00  0.00000000E+00
  0.00000000E+00  0.00000000E+00  0.00000000E+00
  0.00000000E+00  0.00000000E+00  0.00000000E+00
  0.00000000E+00  0.00000000E+00  0.00000000E+00
  0.00000000E+00  0.00000000E+00  0.00000000E+00
  0.00000000E+00  0.00000000E+00  0.00000000E+00
  0.00000000E+00  0.00000000E+00  0.00000000E+00
  0.00000000E+00  0.00000000E+00  0.00000000E+00
  0.00000000E+00  0.00000000E+00  0.00000000E+00
  0.00000000E+00  0.00000000E+00  0.00000000E+00
  0.00000000E+00  0.00000000E+00  0.00000000E+00
  0.00000000E+00  0.00000000E+00  0.00000000E+00
  0.00000000E+00  0.00000000E+00  0.00000000E+00
  0.00000000E+00  0.00000000E+00  0.00000000E+00
  0.00000000E+00  0.00000000E+00  0.00000000E+00
  0.00000000E+00  0.00000000E+00  0.00000000E+00
  0.00000000E+00  0.00000000E+00  0.00000000E+00
  0.00000000E+00  0.00000000E+00  0.00000000E+00
  0.00000000E+00  0.00000000E+00  0.00000000E+00
  0.00000000E+00  0.00000000E+00  0.00000000E+00
  0.00000000E+00  0.00000000E+00  0.00000000E+00
  0.00000000E+00  0.00000000E+00  0.00000000E+00
  0.00000000E+00  0.00000000E+00  0.00000000E+00
  0.00000000E+00  0.00000000E+00  0.00000000E+00
  0.00000000E+00  0.00000000E+00  0.00000000E+00
  0.00000000E+00  0.00000000E+00  0.00000000E+00
  0.00000000E+00  0.00000000E+00  0.00000000E+00
  0.00000000E+00  0.00000000E+00  0.00000000E+00
  0.00000000E+00  0.00000000E+00  0.00000000E+00
  0.00000000E+00  0.00000000E+00  0.00000000E+00
  0.00000000E+00  0.00000000E+00  0.00000000E+00
  0.00000000E+00  0.00000000E+00  0.00000000E+00
  0.00000000E+00  0.00000000E+00  0.00000000E+00
  0.00000000E+00  0.00000000E+00  0.00000000E+00
  0.00000000E+00  0.00000000E+00  0.00000000E+00
  0.00000000E+00  0.00000000E+00  0.00000000E+00
  0.00000000E+00  0.00000000E+00  0.00000000E+00
  0.00000000E+00  0.00000000E+00  0.00000000E+00
  0.00000000E+00  0.00000000E+00  0.00000000E+00
  0.00000000E+00  0.00000000E+00  0.00000000E+00
  0.00000000E+00  0.00000000E+00  0.00000000E+00
  0.00000000E+00  0.00000000E+00  0.00000000E+00
  0.00000000E+00  0.00000000E+00  0.00000000E+00
  0.00000000E+00  0.00000000E+00  0.00000000E+00
  0.00000000E+00  0.00000000E+00  0.00000000E+00
  0.00000000E+00  0.00000000E+00  0.00000000E+00
  0.00000000E+00  0.00000000E+00  0.00000000E+00
  0.00000000E+00  0.00000000E+00  0.00000000E+00
  0.00000000E+00  0.00000000E+00  0.00000000E+00
  0.00000000E+00  0.00000000E+00  0.00000000E+00
  0.00000000E+00  0.00000000E+00  0.00000000E+00
  0.00000000E+00  0.00000000E+00  0.00000000E+00
  0.00000000E+00  0.00000000E+00  0.00000000E+00
  0.00000000E+00  0.00000000E+00  0.00000000E+00
  0.00000000E+00  0.00000000E+00  0.00000000E+00
  0.00000000E+00  0.00000000E+00  0.00000000E+00
  0.00000000E+00  0.00000000E+00  0.00000000E+00
  0.00000000E+00  0.00000000E+00  0.00000000E+00
  0.00000000E+00  0.00000000E+00  0.00000000E+00
  0.00000000E+00  0.00000000E+00  0.00000000E+00
  0.00000000E+00  0.00000000E+00  0.00000000E+00
  0.00000000E+00  0.00000000E+00  0.00000000E+00
  0.00000000E+00  0.00000000E+00  0.00000000E+00
  0.00000000E+00  0.00000000E+00  0.00000000E+00
  0.00000000E+00  0.00000000E+00  0.00000000E+00
  0.00000000E+00  0.00000000E+00  0.00000000E+00
  0.00000000E+00  0.00000000E+00  0.00000000E+00
  0.00000000E+00  0.00000000E+00  0.00000000E+00
  0.00000000E+00  0.00000000E+00  0.00000000E+00
  0.00000000E+00  0.00000000E+00  0.00000000E+00
  0.00000000E+00  0.00000000E+00  0.00000000E+00
  0.00000000E+00  0.00000000E+00  0.00000000E+00
  0.00000000E+00  0.00000000E+00  0.00000000E+00
  0.00000000E+00  0.00000000E+00  0.00000000E+00
  0.00000000E+00  0.00000000E+00  0.00000000E+00
  0.00000000E+00  0.00000000E+00  0.00000000E+00
  0.00000000E+00  0.00000000E+00  0.00000000E+00
