CONTCAR\(17)                            
   1.00000000000000     
    13.8212003707999997    0.0000000000000000    0.0000000000000000
     2.2957132678000001   11.9646463987999994    0.0000000000000000
     0.0000000000000000    0.0000000000000000   19.5161991119000007
   Li   Cr   C    O 
     6     9    18    54
Direct
  0.0027155515988661  0.9992818715913612  0.5985980656604822
  0.2582190657525762  0.4476294209239059  0.4013756524009145
  0.3360455625988672  0.9992918355913614  0.5985980656604822
  0.5915590117525716  0.4476294209239059  0.4013756524009145
  0.6693756055988707  0.9992818715913612  0.5985980656604822
  0.9248890557525719  0.4476294209239059  0.4013756524009145
  0.1878083400343429  0.8882421234024940  0.5017483269497222
  0.2970483347701732  0.2234784885612913  0.5000013926353227
  0.0731125478721801  0.5586617016228471  0.4982771005620373
  0.5211383150343478  0.8882421234024940  0.5017483269497222
  0.6303783097701783  0.2234784885612913  0.5000013926353227
  0.4064425578721777  0.5586617016228471  0.4982771005620373
  0.8544782950343459  0.8882421234024940  0.5017483269497222
  0.9637183587701785  0.2234784885612913  0.5000013926353227
  0.7397725668721784  0.5586617016228471  0.4982771005620373
  0.1488736566817535  0.1153157863829632  0.5621851608252195
  0.2585431452526494  0.4467534300826611  0.5541426720147864
  0.1119924557898210  0.3315124950478560  0.4377902329281668
  0.0386796454102305  0.7757020359447075  0.5602252204840785
  0.2222207696351016  0.6711145141804623  0.4398029888120476
  0.0023570633869654  0.0000353545859598  0.4458690087001936
  0.4822136196817537  0.1153157863829632  0.5621851608252195
  0.5918830912526515  0.4467534300826611  0.5541426720147864
  0.4453224827898234  0.3315124950478560  0.4377902329281668
  0.3720096724102329  0.7757020359447075  0.5602252204840785
  0.5555607496350997  0.6711145141804623  0.4398029888120476
  0.3356870973869648  0.0000353545859598  0.4458690087001936
  0.8155436646817505  0.1153157863829632  0.5621851608252195
  0.9252131352526517  0.4467534300826611  0.5541426720147864
  0.7786624627898211  0.3315124950478560  0.4377902329281668
  0.7053495844102323  0.7757020359447075  0.5602252204840785
  0.8888907246351049  0.6711145141804623  0.4398029888120476
  0.6690270773869631  0.0000353545859598  0.4458690087001936
  0.1639271255135716  0.4550051684788359  0.5526292782345216
  0.0969811485274771  0.9918197877602138  0.4473837472070211
  0.0742504911687042  0.2443236794830847  0.4416465610067224
  0.0571753116127809  0.4312726054225728  0.4326245478504256
  0.2037365908479228  0.0155888978397741  0.5673840468224961
  0.3148945165112713  0.3492685316060794  0.5554945197021625
  0.1866430141149817  0.2025119457261672  0.5583549233542620
  0.2967539236373655  0.5356998567099607  0.5535539603664007
  0.2775622467214151  0.7883704296772476  0.5615687275399032
  0.2072411427638659  0.3235641873284795  0.4357028650528783
  0.1811916839544597  0.5826333203440875  0.4343191472012289
  0.2975131144542146  0.9110446065820810  0.4464204887812147
  0.1665353413752790  0.7674374104745704  0.4440619188144104
  0.2793626993373721  0.0975144140988599  0.4445313991825767
  0.0943827130430813  0.6793787471849182  0.5559561447575930
  0.0797130465961421  0.8641661431627060  0.5656531313969753
  0.0536518799340375  0.1233271645530694  0.5642295369916464
  0.3166534087013831  0.6585056592407851  0.4384792257645789
  0.4972571355135690  0.4550051684788359  0.5526292782345216
  0.4303211115274774  0.9918197877602138  0.4473837472070211
  0.4075804841687038  0.2443236794830847  0.4416465610067224
  0.3905153266127783  0.4312726054225728  0.4326245478504256
  0.5370665658479207  0.0155888978397741  0.5673840468224961
  0.6482245255112725  0.3492685316060794  0.5554945197021625
  0.5199830291149864  0.2025119457261672  0.5583549233542620
  0.6300940076373651  0.5356998567099607  0.5535539603664007
  0.6108922567214193  0.7883704296772476  0.5615687275399032
  0.5405710837638684  0.3235641873284795  0.4357028650528783
  0.5145316469544603  0.5826333203440875  0.4343191472012289
  0.6308430894542126  0.9110446065820810  0.4464204887812147
  0.4998753563752764  0.7674374104745704  0.4440619188144104
  0.6126926063373789  0.0975144140988599  0.4445313991825767
  0.4277127400430764  0.6793787471849182  0.5559561447575930
  0.4130430735961444  0.8641661431627060  0.5656531313969753
  0.3869818639340400  0.1233271645530694  0.5642295369916464
  0.6499934587013796  0.6585056592407851  0.4384792257645789
  0.8305871455135735  0.4550051684788359  0.5526292782345216
  0.7636511565274744  0.9918197877602138  0.4473837472070211
  0.7409104941687013  0.2443236794830847  0.4416465610067224
  0.7238453366127758  0.4312726054225728  0.4326245478504256
  0.8704065808479252  0.0155888978397741  0.5673840468224961
  0.9815545015112671  0.3492685316060794  0.5554945197021625
  0.8533130041149845  0.2025119457261672  0.5583549233542620
  0.9634239136373681  0.5356998567099607  0.5535539603664007
  0.9442322367214174  0.7883704296772476  0.5615687275399032
  0.8739111337638652  0.3235641873284795  0.4357028650528783
  0.8478616909544605  0.5826333203440875  0.4343191472012289
  0.9641731334542128  0.9110446065820810  0.4464204887812147
  0.8332054013752807  0.7674374104745704  0.4440619188144104
  0.9460226503373791  0.0975144140988599  0.4445313991825767
  0.7610526860430787  0.6793787471849182  0.5559561447575930
  0.7463730145961471  0.8641661431627060  0.5656531313969753
  0.7203118389340382  0.1233271645530694  0.5642295369916464
  0.9833234337013848  0.6585056592407851  0.4384792257645789
 
  0.00000000E+00  0.00000000E+00  0.00000000E+00
  0.00000000E+00  0.00000000E+00  0.00000000E+00
  0.00000000E+00  0.00000000E+00  0.00000000E+00
  0.00000000E+00  0.00000000E+00  0.00000000E+00
  0.00000000E+00  0.00000000E+00  0.00000000E+00
  0.00000000E+00  0.00000000E+00  0.00000000E+00
  0.00000000E+00  0.00000000E+00  0.00000000E+00
  0.00000000E+00  0.00000000E+00  0.00000000E+00
  0.00000000E+00  0.00000000E+00  0.00000000E+00
  0.00000000E+00  0.00000000E+00  0.00000000E+00
  0.00000000E+00  0.00000000E+00  0.00000000E+00
  0.00000000E+00  0.00000000E+00  0.00000000E+00
  0.00000000E+00  0.00000000E+00  0.00000000E+00
  0.00000000E+00  0.00000000E+00  0.00000000E+00
  0.00000000E+00  0.00000000E+00  0.00000000E+00
  0.00000000E+00  0.00000000E+00  0.00000000E+00
  0.00000000E+00  0.00000000E+00  0.00000000E+00
  0.00000000E+00  0.00000000E+00  0.00000000E+00
  0.00000000E+00  0.00000000E+00  0.00000000E+00
  0.00000000E+00  0.00000000E+00  0.00000000E+00
  0.00000000E+00  0.00000000E+00  0.00000000E+00
  0.00000000E+00  0.00000000E+00  0.00000000E+00
  0.00000000E+00  0.00000000E+00  0.00000000E+00
  0.00000000E+00  0.00000000E+00  0.00000000E+00
  0.00000000E+00  0.00000000E+00  0.00000000E+00
  0.00000000E+00  0.00000000E+00  0.00000000E+00
  0.00000000E+00  0.00000000E+00  0.00000000E+00
  0.00000000E+00  0.00000000E+00  0.00000000E+00
  0.00000000E+00  0.00000000E+00  0.00000000E+00
  0.00000000E+00  0.00000000E+00  0.00000000E+00
  0.00000000E+00  0.00000000E+00  0.00000000E+00
  0.00000000E+00  0.00000000E+00  0.00000000E+00
  0.00000000E+00  0.00000000E+00  0.00000000E+00
  0.00000000E+00  0.00000000E+00  0.00000000E+00
  0.00000000E+00  0.00000000E+00  0.00000000E+00
  0.00000000E+00  0.00000000E+00  0.00000000E+00
  0.00000000E+00  0.00000000E+00  0.00000000E+00
  0.00000000E+00  0.00000000E+00  0.00000000E+00
  0.00000000E+00  0.00000000E+00  0.00000000E+00
  0.00000000E+00  0.00000000E+00  0.00000000E+00
  0.00000000E+00  0.00000000E+00  0.00000000E+00
  0.00000000E+00  0.00000000E+00  0.00000000E+00
  0.00000000E+00  0.00000000E+00  0.00000000E+00
  0.00000000E+00  0.00000000E+00  0.00000000E+00
  0.00000000E+00  0.00000000E+00  0.00000000E+00
  0.00000000E+00  0.00000000E+00  0.00000000E+00
  0.00000000E+00  0.00000000E+00  0.00000000E+00
  0.00000000E+00  0.00000000E+00  0.00000000E+00
  0.00000000E+00  0.00000000E+00  0.00000000E+00
  0.00000000E+00  0.00000000E+00  0.00000000E+00
  0.00000000E+00  0.00000000E+00  0.00000000E+00
  0.00000000E+00  0.00000000E+00  0.00000000E+00
  0.00000000E+00  0.00000000E+00  0.00000000E+00
  0.00000000E+00  0.00000000E+00  0.00000000E+00
  0.00000000E+00  0.00000000E+00  0.00000000E+00
  0.00000000E+00  0.00000000E+00  0.00000000E+00
  0.00000000E+00  0.00000000E+00  0.00000000E+00
  0.00000000E+00  0.00000000E+00  0.00000000E+00
  0.00000000E+00  0.00000000E+00  0.00000000E+00
  0.00000000E+00  0.00000000E+00  0.00000000E+00
  0.00000000E+00  0.00000000E+00  0.00000000E+00
  0.00000000E+00  0.00000000E+00  0.00000000E+00
  0.00000000E+00  0.00000000E+00  0.00000000E+00
  0.00000000E+00  0.00000000E+00  0.00000000E+00
  0.00000000E+00  0.00000000E+00  0.00000000E+00
  0.00000000E+00  0.00000000E+00  0.00000000E+00
  0.00000000E+00  0.00000000E+00  0.00000000E+00
  0.00000000E+00  0.00000000E+00  0.00000000E+00
  0.00000000E+00  0.00000000E+00  0.00000000E+00
  0.00000000E+00  0.00000000E+00  0.00000000E+00
  0.00000000E+00  0.00000000E+00  0.00000000E+00
  0.00000000E+00  0.00000000E+00  0.00000000E+00
  0.00000000E+00  0.00000000E+00  0.00000000E+00
  0.00000000E+00  0.00000000E+00  0.00000000E+00
  0.00000000E+00  0.00000000E+00  0.00000000E+00
  0.00000000E+00  0.00000000E+00  0.00000000E+00
  0.00000000E+00  0.00000000E+00  0.00000000E+00
  0.00000000E+00  0.00000000E+00  0.00000000E+00
  0.00000000E+00  0.00000000E+00  0.00000000E+00
  0.00000000E+00  0.00000000E+00  0.00000000E+00
  0.00000000E+00  0.00000000E+00  0.00000000E+00
  0.00000000E+00  0.00000000E+00  0.00000000E+00
  0.00000000E+00  0.00000000E+00  0.00000000E+00
  0.00000000E+00  0.00000000E+00  0.00000000E+00
  0.00000000E+00  0.00000000E+00  0.00000000E+00
  0.00000000E+00  0.00000000E+00  0.00000000E+00
  0.00000000E+00  0.00000000E+00  0.00000000E+00
