CONTCAR\(3)                             
   1.00000000000000     
    15.1086997986000000    0.0000000000000000    0.0000000000000000
     3.7771669926999998   12.0335217063000002    0.0000000000000000
     0.0000000000000000    0.0000000000000000   20.2071990966999984
   Au   Se
    32    32
Direct
  0.2497057486119587  0.0039626979724119  0.6217003301047228
  0.0002942663880390  0.9960373270275866  0.3782996698952772
  0.0882183447334839  0.1484967652761355  0.4983674193353096
  0.1617816712665174  0.8514932837238689  0.5016325806646904
  0.4997057336119610  0.0039626979724119  0.6217003301047228
  0.2502942503880377  0.9960373270275866  0.3782996698952772
  0.3382183757334829  0.1484967652761355  0.4983674193353096
  0.4117816082665158  0.8514932837238689  0.5016325806646904
  0.7497057336119610  0.0039626979724119  0.6217003301047228
  0.5002942823880403  0.9960373270275866  0.3782996698952772
  0.5882183127334812  0.1484967652761355  0.4983674193353096
  0.6617816712665174  0.8514932837238689  0.5016325806646904
  0.9997057336119610  0.0039626979724119  0.6217003301047228
  0.7502942193880386  0.9960373270275866  0.3782996698952772
  0.8382183127334812  0.1484967652761355  0.4983674193353096
  0.9117817342665191  0.8514932837238689  0.5016325806646904
  0.2497057516119625  0.5039626659724163  0.6217003301047228
  0.0002942633880423  0.4960373300275833  0.3782996698952772
  0.0882183497334807  0.6484967242761357  0.4983674193353096
  0.1617816642665204  0.3514932067238661  0.5016325806646904
  0.4997057206119635  0.5039626659724163  0.6217003301047228
  0.2502942393880403  0.4960373300275833  0.3782996698952772
  0.3382183657334821  0.6484967242761357  0.4983674193353096
  0.4117816482665191  0.3514932067238661  0.5016325806646904
  0.7497057836119581  0.5039626659724163  0.6217003301047228
  0.5002942393880403  0.4960373300275833  0.3782996698952772
  0.5882183657334821  0.6484967242761357  0.4983674193353096
  0.6617816482665191  0.3514932067238661  0.5016325806646904
  0.9997057206119635  0.5039626659724163  0.6217003301047228
  0.7502942393880403  0.4960373300275833  0.3782996698952772
  0.8382183027334804  0.6484967242761357  0.4983674193353096
  0.9117817112665136  0.3514932067238661  0.5016325806646904
  0.0901087856940137  0.1428159878526927  0.6193904693520977
  0.1592196946172137  0.8650664841271691  0.6225824782231797
  0.0907803383827925  0.1349335008728261  0.3774175217768203
  0.1598911853059874  0.8571840271473050  0.3805995016479002
  0.3401087696940124  0.1428159878526927  0.6193904693520977
  0.4092196946172137  0.8650664841271691  0.6225824782231797
  0.3407803303827919  0.1349335008728261  0.3774175217768203
  0.4098912483059891  0.8571840271473050  0.3805995016479002
  0.5901087696940124  0.1428159878526927  0.6193904693520977
  0.6592196316172121  0.8650664841271691  0.6225824782231797
  0.5907803933827864  0.1349335008728261  0.3774175217768203
  0.6598912483059891  0.8571840271473050  0.3805995016479002
  0.8401087696940124  0.1428159878526927  0.6193904693520977
  0.9092196946172137  0.8650664841271691  0.6225824782231797
  0.8407803303827919  0.1349335008728261  0.3774175217768203
  0.9098911853059874  0.8571840271473050  0.3805995016479002
  0.0901087916940071  0.6428160058526942  0.6193904693520977
  0.1592196736172085  0.3650665261271726  0.6225824782231797
  0.0907803493827899  0.6349334698728271  0.3774175217768203
  0.1598911993059886  0.3571839901473055  0.3805995016479002
  0.3401087756940129  0.6428160058526942  0.6193904693520977
  0.4092196736172085  0.3650665261271726  0.6225824782231797
  0.3407803173827872  0.6349334698728271  0.3774175217768203
  0.4098912153059899  0.3571839901473055  0.3805995016479002
  0.5901088076940084  0.6428160058526942  0.6193904693520977
  0.6592196416172129  0.3650665261271726  0.6225824782231797
  0.5907803813827925  0.6349334698728271  0.3774175217768203
  0.6598912153059899  0.3571839901473055  0.3805995016479002
  0.8401087446940139  0.6428160058526942  0.6193904693520977
  0.9092196416172129  0.3650665261271726  0.6225824782231797
  0.8407803813827925  0.6349334698728271  0.3774175217768203
  0.9098912153059899  0.3571839901473055  0.3805995016479002
 
  0.00000000E+00  0.00000000E+00  0.00000000E+00
  0.00000000E+00  0.00000000E+00  0.00000000E+00
  0.00000000E+00  0.00000000E+00  0.00000000E+00
  0.00000000E+00  0.00000000E+00  0.00000000E+00
  0.00000000E+00  0.00000000E+00  0.00000000E+00
  0.00000000E+00  0.00000000E+00  0.00000000E+00
  0.00000000E+00  0.00000000E+00  0.00000000E+00
  0.00000000E+00  0.00000000E+00  0.00000000E+00
  0.00000000E+00  0.00000000E+00  0.00000000E+00
  0.00000000E+00  0.00000000E+00  0.00000000E+00
  0.00000000E+00  0.00000000E+00  0.00000000E+00
  0.00000000E+00  0.00000000E+00  0.00000000E+00
  0.00000000E+00  0.00000000E+00  0.00000000E+00
  0.00000000E+00  0.00000000E+00  0.00000000E+00
  0.00000000E+00  0.00000000E+00  0.00000000E+00
  0.00000000E+00  0.00000000E+00  0.00000000E+00
  0.00000000E+00  0.00000000E+00  0.00000000E+00
  0.00000000E+00  0.00000000E+00  0.00000000E+00
  0.00000000E+00  0.00000000E+00  0.00000000E+00
  0.00000000E+00  0.00000000E+00  0.00000000E+00
  0.00000000E+00  0.00000000E+00  0.00000000E+00
  0.00000000E+00  0.00000000E+00  0.00000000E+00
  0.00000000E+00  0.00000000E+00  0.00000000E+00
  0.00000000E+00  0.00000000E+00  0.00000000E+00
  0.00000000E+00  0.00000000E+00  0.00000000E+00
  0.00000000E+00  0.00000000E+00  0.00000000E+00
  0.00000000E+00  0.00000000E+00  0.00000000E+00
  0.00000000E+00  0.00000000E+00  0.00000000E+00
  0.00000000E+00  0.00000000E+00  0.00000000E+00
  0.00000000E+00  0.00000000E+00  0.00000000E+00
  0.00000000E+00  0.00000000E+00  0.00000000E+00
  0.00000000E+00  0.00000000E+00  0.00000000E+00
  0.00000000E+00  0.00000000E+00  0.00000000E+00
  0.00000000E+00  0.00000000E+00  0.00000000E+00
  0.00000000E+00  0.00000000E+00  0.00000000E+00
  0.00000000E+00  0.00000000E+00  0.00000000E+00
  0.00000000E+00  0.00000000E+00  0.00000000E+00
  0.00000000E+00  0.00000000E+00  0.00000000E+00
  0.00000000E+00  0.00000000E+00  0.00000000E+00
  0.00000000E+00  0.00000000E+00  0.00000000E+00
  0.00000000E+00  0.00000000E+00  0.00000000E+00
  0.00000000E+00  0.00000000E+00  0.00000000E+00
  0.00000000E+00  0.00000000E+00  0.00000000E+00
  0.00000000E+00  0.00000000E+00  0.00000000E+00
  0.00000000E+00  0.00000000E+00  0.00000000E+00
  0.00000000E+00  0.00000000E+00  0.00000000E+00
  0.00000000E+00  0.00000000E+00  0.00000000E+00
  0.00000000E+00  0.00000000E+00  0.00000000E+00
  0.00000000E+00  0.00000000E+00  0.00000000E+00
  0.00000000E+00  0.00000000E+00  0.00000000E+00
  0.00000000E+00  0.00000000E+00  0.00000000E+00
  0.00000000E+00  0.00000000E+00  0.00000000E+00
  0.00000000E+00  0.00000000E+00  0.00000000E+00
  0.00000000E+00  0.00000000E+00  0.00000000E+00
  0.00000000E+00  0.00000000E+00  0.00000000E+00
  0.00000000E+00  0.00000000E+00  0.00000000E+00
  0.00000000E+00  0.00000000E+00  0.00000000E+00
  0.00000000E+00  0.00000000E+00  0.00000000E+00
  0.00000000E+00  0.00000000E+00  0.00000000E+00
  0.00000000E+00  0.00000000E+00  0.00000000E+00
  0.00000000E+00  0.00000000E+00  0.00000000E+00
  0.00000000E+00  0.00000000E+00  0.00000000E+00
  0.00000000E+00  0.00000000E+00  0.00000000E+00
  0.00000000E+00  0.00000000E+00  0.00000000E+00
