CONTCAR\(8)                             
   1.00000000000000     
    12.8318004608000003    0.0000000000000000    0.0000000000000000
     0.0000000000000000   12.8378000259000000    0.0000000000000000
     0.0000000000000000    0.0000000000000000   24.0013999939000016
   Nd   Te   Se   O    H 
    18    36    18     1     1
Direct
  0.1662991480623751  0.1670258885208904  0.5758070901490653
  0.9984039420913594  0.0000457649255311  0.4215327152190190
  0.5006433064699990  0.1611854981525258  0.5732991131369976
  0.3320287527912157  0.9997672871138307  0.4214596624880466
  0.8332621327347310  0.1668246437630637  0.5754426894355125
  0.6654576424731037  0.9993879165895418  0.4209794882737677
  0.1648551481827021  0.4994744551859236  0.5756894319210922
  0.9985582012362201  0.3332542897825264  0.4216827757687677
  0.4990547255161420  0.5066479837665433  0.5738730952562126
  0.3319188951841392  0.3334168776223428  0.4225328782938738
  0.8328997704808493  0.5000289726590426  0.5757226078248098
  0.6650808258604279  0.3337531143819650  0.4221039040435645
  0.1637710177218316  0.8332128442103360  0.5756398683488620
  0.9987565154206490  0.6667781311702299  0.4215649609499115
  0.4983679143794252  0.8341699042655282  0.5762824254232680
  0.3319358976408217  0.6672806478512127  0.4214532557663918
  0.8324897562471727  0.8334750931478636  0.5754971011366293
  0.6654649364979268  0.6666233164415987  0.4213344977417804
  0.1654117891220789  0.0000668612846105  0.3123901364541570
  0.0014056599980213  0.1709825254186782  0.6852876866509225
  0.9984840763954504  0.1664497898965385  0.3123967703729777
  0.1677949677703768  0.0004700857867869  0.6847186325829496
  0.4989909583661783  0.9998367910352491  0.3120478182351378
  0.3441080975437763  0.1709791243497454  0.6875393529403533
  0.3322516090058332  0.1666305652662090  0.3127960116925067
  0.5007073975270014  0.0039778296389106  0.6865988729066911
  0.8314933729616967  0.9999346437078724  0.3120664166669966
  0.6614037158328381  0.1707992778918943  0.6813871331137461
  0.6652992843113679  0.1670935908160830  0.3122371222089533
  0.8342487990856394 -0.0006437212748286  0.6850507243666835
  0.1653810076786402  0.3329368653914909  0.3126874013975803
  0.9986173650824726  0.5036091667123412  0.6860918926073301
  0.9990636437144738  0.4997858973732643  0.3124550840290221
  0.1657162082384514  0.3324906923150932  0.6854739333935115
  0.4983304626434920  0.3336624347510628  0.3133539482741748
  0.3338148245221125  0.5008962518285449  0.6857512969885552
  0.3313036245330299  0.4999526396407477  0.3127360958696935
  0.4944928500982788  0.3416256420921465  0.7308264205523703
  0.8322088705942723  0.3334283568047229  0.3125760134914137
  0.6608654017689367  0.4948030984138534  0.6889478393503090
  0.6654823233823396  0.4999735327363506  0.3125202781243165
  0.8276488051158035  0.3351838229338968  0.6859471591423374
  0.1653597905122965  0.6669455578072708  0.3123562794033984
  0.9964851424882902  0.8387623006356474  0.6850142797046472
  0.9986177265089804  0.8335375074983762  0.3121943968535162
  0.1698772561326478  0.6634260316096463  0.6847298398867578
  0.4984437572157578  0.6663545010913795  0.3122027272712810
  0.3293540324502898  0.8355493894546742  0.6851885909987988
  0.3322955538304199  0.8333818887341528  0.3121481331628329
  0.5010688484406489  0.6701747228051214  0.6864082839220448
  0.8323634217088923  0.6665245003439270  0.3121361564467084
  0.6651139218295083  0.8317233667943649  0.6853064832262336
  0.6652928950983596  0.8328449715676719  0.3119469064237660
  0.8337448848884441  0.6648289750692532  0.6851798014688502
  0.1655312944615702  0.1673170069662279  0.4511979294576862
  0.9992801434884172  0.0013245598174854  0.5465467210423923
  0.4990236093854626  0.1654992779285299  0.4499540923201745
  0.3320152188099396  0.0005253314014092  0.5469861675303908
  0.8314416550485135  0.1670791370906708  0.4509831871170269
  0.6663411446263742  0.9987071090753676  0.5462017023341059
  0.1656058807696485  0.4996348949265921  0.4513110610194782
  0.9986057782830010  0.3338446441093592  0.5471184920123416
  0.4981646736224926  0.5015666331306109  0.4506235580780664
  0.3374993593990821  0.3334138003350331  0.5487828804885558
  0.8317619878924770  0.4998660364037015  0.4511960374825233
  0.6609150910893049  0.3350808796665088  0.5482057359200926
  0.1651431900229135  0.8335825401832386  0.4508833573808342
  0.9990347685648635  0.6665659544351323  0.5467535654837303
  0.4988980123872484  0.8333852694306203  0.4512678891552364
  0.3319529193618230  0.6677041414116222  0.5468450708283202
  0.8322839802421724  0.8331758410024249  0.4507264546495642
  0.6660077745258733  0.6663651930326204  0.5470743432691768
  0.4382169558900508  0.4138369817224397  0.8002004970329678
  0.4753457007406095  0.3847530681571553  0.8322781720382316
 
  0.00000000E+00  0.00000000E+00  0.00000000E+00
  0.00000000E+00  0.00000000E+00  0.00000000E+00
  0.00000000E+00  0.00000000E+00  0.00000000E+00
  0.00000000E+00  0.00000000E+00  0.00000000E+00
  0.00000000E+00  0.00000000E+00  0.00000000E+00
  0.00000000E+00  0.00000000E+00  0.00000000E+00
  0.00000000E+00  0.00000000E+00  0.00000000E+00
  0.00000000E+00  0.00000000E+00  0.00000000E+00
  0.00000000E+00  0.00000000E+00  0.00000000E+00
  0.00000000E+00  0.00000000E+00  0.00000000E+00
  0.00000000E+00  0.00000000E+00  0.00000000E+00
  0.00000000E+00  0.00000000E+00  0.00000000E+00
  0.00000000E+00  0.00000000E+00  0.00000000E+00
  0.00000000E+00  0.00000000E+00  0.00000000E+00
  0.00000000E+00  0.00000000E+00  0.00000000E+00
  0.00000000E+00  0.00000000E+00  0.00000000E+00
  0.00000000E+00  0.00000000E+00  0.00000000E+00
  0.00000000E+00  0.00000000E+00  0.00000000E+00
  0.00000000E+00  0.00000000E+00  0.00000000E+00
  0.00000000E+00  0.00000000E+00  0.00000000E+00
  0.00000000E+00  0.00000000E+00  0.00000000E+00
  0.00000000E+00  0.00000000E+00  0.00000000E+00
  0.00000000E+00  0.00000000E+00  0.00000000E+00
  0.00000000E+00  0.00000000E+00  0.00000000E+00
  0.00000000E+00  0.00000000E+00  0.00000000E+00
  0.00000000E+00  0.00000000E+00  0.00000000E+00
  0.00000000E+00  0.00000000E+00  0.00000000E+00
  0.00000000E+00  0.00000000E+00  0.00000000E+00
  0.00000000E+00  0.00000000E+00  0.00000000E+00
  0.00000000E+00  0.00000000E+00  0.00000000E+00
  0.00000000E+00  0.00000000E+00  0.00000000E+00
  0.00000000E+00  0.00000000E+00  0.00000000E+00
  0.00000000E+00  0.00000000E+00  0.00000000E+00
  0.00000000E+00  0.00000000E+00  0.00000000E+00
  0.00000000E+00  0.00000000E+00  0.00000000E+00
  0.00000000E+00  0.00000000E+00  0.00000000E+00
  0.00000000E+00  0.00000000E+00  0.00000000E+00
  0.00000000E+00  0.00000000E+00  0.00000000E+00
  0.00000000E+00  0.00000000E+00  0.00000000E+00
  0.00000000E+00  0.00000000E+00  0.00000000E+00
  0.00000000E+00  0.00000000E+00  0.00000000E+00
  0.00000000E+00  0.00000000E+00  0.00000000E+00
  0.00000000E+00  0.00000000E+00  0.00000000E+00
  0.00000000E+00  0.00000000E+00  0.00000000E+00
  0.00000000E+00  0.00000000E+00  0.00000000E+00
  0.00000000E+00  0.00000000E+00  0.00000000E+00
  0.00000000E+00  0.00000000E+00  0.00000000E+00
  0.00000000E+00  0.00000000E+00  0.00000000E+00
  0.00000000E+00  0.00000000E+00  0.00000000E+00
  0.00000000E+00  0.00000000E+00  0.00000000E+00
  0.00000000E+00  0.00000000E+00  0.00000000E+00
  0.00000000E+00  0.00000000E+00  0.00000000E+00
  0.00000000E+00  0.00000000E+00  0.00000000E+00
  0.00000000E+00  0.00000000E+00  0.00000000E+00
  0.00000000E+00  0.00000000E+00  0.00000000E+00
  0.00000000E+00  0.00000000E+00  0.00000000E+00
  0.00000000E+00  0.00000000E+00  0.00000000E+00
  0.00000000E+00  0.00000000E+00  0.00000000E+00
  0.00000000E+00  0.00000000E+00  0.00000000E+00
  0.00000000E+00  0.00000000E+00  0.00000000E+00
  0.00000000E+00  0.00000000E+00  0.00000000E+00
  0.00000000E+00  0.00000000E+00  0.00000000E+00
  0.00000000E+00  0.00000000E+00  0.00000000E+00
  0.00000000E+00  0.00000000E+00  0.00000000E+00
  0.00000000E+00  0.00000000E+00  0.00000000E+00
  0.00000000E+00  0.00000000E+00  0.00000000E+00
  0.00000000E+00  0.00000000E+00  0.00000000E+00
  0.00000000E+00  0.00000000E+00  0.00000000E+00
  0.00000000E+00  0.00000000E+00  0.00000000E+00
  0.00000000E+00  0.00000000E+00  0.00000000E+00
  0.00000000E+00  0.00000000E+00  0.00000000E+00
  0.00000000E+00  0.00000000E+00  0.00000000E+00
  0.00000000E+00  0.00000000E+00  0.00000000E+00
  0.00000000E+00  0.00000000E+00  0.00000000E+00
