CONTCAR\(4)                             
   1.00000000000000     
    12.6962003707999997    0.0000000000000000    0.0000000000000000
     6.3480846718999997   11.0165970520999998    0.0000000000000000
     0.0000000000000000    0.0000000000000000   18.4927997588999986
   V    Ag   P    Se   O 
     4     4     8    24     1
Direct
  0.1639152981212829  0.1688990502947306  0.4995999861845803
  0.6614695856003879  0.1700358904523163  0.4981291134059726
  0.1732019582582339  0.6699025500644331  0.5069005211254040
  0.6689020002064308  0.6653034351206896  0.4990641061374104
  0.3376611512250442  0.3300550935521311  0.4996306067302820
  0.8305608020090323  0.3390822848665584  0.4964131789911020
  0.3252041425584664  0.8211648286984042  0.5186744543129951
  0.8143652485645648  0.8321259391862116  0.4868733709914058
  0.5002782943546166  0.9983304258849328  0.5568073166501244
  0.4947223201876830  0.0011771415219420  0.4366901013724865
  0.9959129725273289  0.0094013114629843  0.5623889009929833
  0.0007768768304661  0.0011504560347408  0.4429192517949959
  0.4999429463634055  0.4990891875947139  0.5608709695349654
  0.5005314509725720  0.4986334375575069  0.4414920702930111
 -0.0009200327530960  0.5013838255571816  0.5611098541492097
  0.0005447272322375  0.5032546288797787  0.4411289337144134
  0.1569925811864768  0.3254658023869932  0.4072483793697745
  0.0194260550177548  0.3228536262871721  0.5930172388428315
  0.3249541439270138  0.1582148863351528  0.5909582368480302
  0.0208875389503567  0.1579183484777766  0.4060877586545463
  0.3152363661723718  0.0259011371033247  0.4052002169991800
  0.1551096422611258  0.0261034450801211  0.5959563224365404
  0.6574721488052669  0.3217784652603952  0.4052927505979944
  0.5246658411579843  0.3183423425530123  0.5932766347584285
  0.8159874404213122  0.1661845758311522  0.5911601634662907
  0.5242473185684884  0.1546162848780660  0.4036703642906786
  0.8252623817014940  0.0171887305689509  0.4087181285653534
  0.6639125512071083  0.0113010208241593  0.5872745527653795
  0.1616211424991727  0.8209492269362896  0.4130792317113821
  0.0274554655266262  0.8177139040556796  0.6052192947435968
  0.3187543432208854  0.6517445340143589  0.6082857285778441
  0.0192408166306142  0.6649107934843949  0.4146928399837085
  0.3210201990310647  0.5192850874192700  0.4121260675450314
  0.1569364551292794  0.5200858868192789  0.5955229275947085
  0.6473408041996705  0.8200762313375839  0.4010661753089566
  0.5176265923865698  0.8216992563681569  0.5901916239637819
  0.8201661919060244  0.6601682175200413  0.5926036398206634
  0.5149918619164321  0.6592237746035411  0.4096465444764469
  0.8228503515638774  0.5245093699202180  0.4048151638591136
  0.6589917476215268  0.5206541814110847  0.5918842459112359
  0.1380603437328552  0.7894710827945528  0.6691934055271341
 
  0.00000000E+00  0.00000000E+00  0.00000000E+00
  0.00000000E+00  0.00000000E+00  0.00000000E+00
  0.00000000E+00  0.00000000E+00  0.00000000E+00
  0.00000000E+00  0.00000000E+00  0.00000000E+00
  0.00000000E+00  0.00000000E+00  0.00000000E+00
  0.00000000E+00  0.00000000E+00  0.00000000E+00
  0.00000000E+00  0.00000000E+00  0.00000000E+00
  0.00000000E+00  0.00000000E+00  0.00000000E+00
  0.00000000E+00  0.00000000E+00  0.00000000E+00
  0.00000000E+00  0.00000000E+00  0.00000000E+00
  0.00000000E+00  0.00000000E+00  0.00000000E+00
  0.00000000E+00  0.00000000E+00  0.00000000E+00
  0.00000000E+00  0.00000000E+00  0.00000000E+00
  0.00000000E+00  0.00000000E+00  0.00000000E+00
  0.00000000E+00  0.00000000E+00  0.00000000E+00
  0.00000000E+00  0.00000000E+00  0.00000000E+00
  0.00000000E+00  0.00000000E+00  0.00000000E+00
  0.00000000E+00  0.00000000E+00  0.00000000E+00
  0.00000000E+00  0.00000000E+00  0.00000000E+00
  0.00000000E+00  0.00000000E+00  0.00000000E+00
  0.00000000E+00  0.00000000E+00  0.00000000E+00
  0.00000000E+00  0.00000000E+00  0.00000000E+00
  0.00000000E+00  0.00000000E+00  0.00000000E+00
  0.00000000E+00  0.00000000E+00  0.00000000E+00
  0.00000000E+00  0.00000000E+00  0.00000000E+00
  0.00000000E+00  0.00000000E+00  0.00000000E+00
  0.00000000E+00  0.00000000E+00  0.00000000E+00
  0.00000000E+00  0.00000000E+00  0.00000000E+00
  0.00000000E+00  0.00000000E+00  0.00000000E+00
  0.00000000E+00  0.00000000E+00  0.00000000E+00
  0.00000000E+00  0.00000000E+00  0.00000000E+00
  0.00000000E+00  0.00000000E+00  0.00000000E+00
  0.00000000E+00  0.00000000E+00  0.00000000E+00
  0.00000000E+00  0.00000000E+00  0.00000000E+00
  0.00000000E+00  0.00000000E+00  0.00000000E+00
  0.00000000E+00  0.00000000E+00  0.00000000E+00
  0.00000000E+00  0.00000000E+00  0.00000000E+00
  0.00000000E+00  0.00000000E+00  0.00000000E+00
  0.00000000E+00  0.00000000E+00  0.00000000E+00
  0.00000000E+00  0.00000000E+00  0.00000000E+00
  0.00000000E+00  0.00000000E+00  0.00000000E+00
