CONTCAR\(2)                             
   1.00000000000000     
    15.6181001662999996    0.0000000000000000    0.0000000000000000
     0.0000000000000000   13.6417999267999992    0.0000000000000000
     0.0000000000000000    0.0000000000000000   21.1772994994999983
   Tb   Br   O 
    20    32     1
Direct
  0.1276582522215051  0.5061663590093897  0.4286296546866659
  0.1271920526560865  0.4943333381031361  0.5822028216794704
  0.9987519003209734  0.6972466290447681  0.5109144628998596
 -0.0000031602672286  0.3019389936159479  0.4998685097202988
  0.1058377321603959  0.9983251822114741  0.5036191313302315
  0.3750016194306896  0.5108327060826875  0.4299801138696390
  0.3749828915641282  0.4981352500560899  0.5822224039746651
  0.2506759677384307  0.7067351148124370  0.5119661094682170
  0.2609229229376812  0.2941751698022699  0.4993869322957510
  0.3749968302666717  0.0464805722051128  0.4804190431315057
  0.6223821309554785  0.5060901562957378  0.4286339502435774
  0.6228298432627317  0.4942800922034714  0.5822151259139572
  0.4993382438919292  0.7067557428452256  0.5119610805717886
  0.4890778047222644  0.2941441769517862  0.4994159762598257
  0.6441417993523098  0.9983503207107313  0.5036143779432414
  0.8750364875200564  0.5055540912481623  0.4283410387564121
  0.8749807932983568  0.4927192766591092  0.5832208678517526
  0.7512560763586866  0.6971595478208993  0.5109123314197285
  0.7500730781781371  0.3019369818467097  0.4998650738165182
  0.8749716888229290  0.9994223669095800  0.5033496459784985
  0.1251862555764542  0.1694219627594144  0.4294139964765607
  0.1185607355227878  0.8313357702422267  0.5821418662060471
  0.0011071272797034  0.3763945235585848  0.3712827106486875
  0.0000063076617197  0.6227145404373824  0.6397672357083031
  0.9946772110087558  0.1099401541927578  0.5813903334057499
  0.0018834501966104  0.3541508249187560  0.6314109393209935
  0.0007278448281686  0.6436341487136199  0.3794362355038589
  0.9945138886454883  0.8876121744253510  0.4263494556169322
  0.3749582643901091  0.0924104213878493  0.3573675204474799
  0.3750004457133213  0.8407539551828419  0.5705154861981593
  0.2538323477843806  0.3745255362201784  0.3727339447887262
  0.2499609313923662  0.6276884489296995  0.6397652827193452
  0.2413027318075788  0.0870902260798079  0.5750489038756788
  0.2525531533295344  0.3517182299607555  0.6300274679344769
  0.2498306260317260  0.6510055911672292  0.3808955829814167
  0.2407761789868303  0.9025074757432423  0.4347796173829407
  0.6249038701206052  0.1693808406991430  0.4294130318147291
  0.6314699058308324  0.8312959566369421  0.5820914113374571
  0.4960954266139362  0.3744160809712584  0.3727900859496746
  0.5000353929523583  0.6276126757224605  0.6397520721041955
  0.5086801267573510  0.0870586929109714  0.5751259815102460
  0.4974678845265847  0.3517102420910633  0.6300494095284264
  0.5002237285081339  0.6509381425540707  0.3808915279889050
  0.5091077232812936  0.9025140582320224  0.4348100670237978
  0.8749818602749704  0.1692934756003969  0.4272568529558324
  0.8749911015682997  0.8308247824967255  0.5811510801368315
  0.7490162192163845  0.3763181657532961  0.3712853620570187
  0.7499867994494678  0.6226837416133175  0.6397983288616335
  0.7553090503821696  0.1099429524752338  0.5813599785758171
  0.7481431239770112  0.3540110611731527  0.6313932623530791
  0.7492404199174024  0.6435540899155890  0.3794197613243172
  0.7554307126619381  0.8875684598746915  0.4263245027831865
  0.3750042184135147  0.2053507139252762  0.4904022036679563
 
  0.00000000E+00  0.00000000E+00  0.00000000E+00
  0.00000000E+00  0.00000000E+00  0.00000000E+00
  0.00000000E+00  0.00000000E+00  0.00000000E+00
  0.00000000E+00  0.00000000E+00  0.00000000E+00
  0.00000000E+00  0.00000000E+00  0.00000000E+00
  0.00000000E+00  0.00000000E+00  0.00000000E+00
  0.00000000E+00  0.00000000E+00  0.00000000E+00
  0.00000000E+00  0.00000000E+00  0.00000000E+00
  0.00000000E+00  0.00000000E+00  0.00000000E+00
  0.00000000E+00  0.00000000E+00  0.00000000E+00
  0.00000000E+00  0.00000000E+00  0.00000000E+00
  0.00000000E+00  0.00000000E+00  0.00000000E+00
  0.00000000E+00  0.00000000E+00  0.00000000E+00
  0.00000000E+00  0.00000000E+00  0.00000000E+00
  0.00000000E+00  0.00000000E+00  0.00000000E+00
  0.00000000E+00  0.00000000E+00  0.00000000E+00
  0.00000000E+00  0.00000000E+00  0.00000000E+00
  0.00000000E+00  0.00000000E+00  0.00000000E+00
  0.00000000E+00  0.00000000E+00  0.00000000E+00
  0.00000000E+00  0.00000000E+00  0.00000000E+00
  0.00000000E+00  0.00000000E+00  0.00000000E+00
  0.00000000E+00  0.00000000E+00  0.00000000E+00
  0.00000000E+00  0.00000000E+00  0.00000000E+00
  0.00000000E+00  0.00000000E+00  0.00000000E+00
  0.00000000E+00  0.00000000E+00  0.00000000E+00
  0.00000000E+00  0.00000000E+00  0.00000000E+00
  0.00000000E+00  0.00000000E+00  0.00000000E+00
  0.00000000E+00  0.00000000E+00  0.00000000E+00
  0.00000000E+00  0.00000000E+00  0.00000000E+00
  0.00000000E+00  0.00000000E+00  0.00000000E+00
  0.00000000E+00  0.00000000E+00  0.00000000E+00
  0.00000000E+00  0.00000000E+00  0.00000000E+00
  0.00000000E+00  0.00000000E+00  0.00000000E+00
  0.00000000E+00  0.00000000E+00  0.00000000E+00
  0.00000000E+00  0.00000000E+00  0.00000000E+00
  0.00000000E+00  0.00000000E+00  0.00000000E+00
  0.00000000E+00  0.00000000E+00  0.00000000E+00
  0.00000000E+00  0.00000000E+00  0.00000000E+00
  0.00000000E+00  0.00000000E+00  0.00000000E+00
  0.00000000E+00  0.00000000E+00  0.00000000E+00
  0.00000000E+00  0.00000000E+00  0.00000000E+00
  0.00000000E+00  0.00000000E+00  0.00000000E+00
  0.00000000E+00  0.00000000E+00  0.00000000E+00
  0.00000000E+00  0.00000000E+00  0.00000000E+00
  0.00000000E+00  0.00000000E+00  0.00000000E+00
  0.00000000E+00  0.00000000E+00  0.00000000E+00
  0.00000000E+00  0.00000000E+00  0.00000000E+00
  0.00000000E+00  0.00000000E+00  0.00000000E+00
  0.00000000E+00  0.00000000E+00  0.00000000E+00
  0.00000000E+00  0.00000000E+00  0.00000000E+00
  0.00000000E+00  0.00000000E+00  0.00000000E+00
  0.00000000E+00  0.00000000E+00  0.00000000E+00
  0.00000000E+00  0.00000000E+00  0.00000000E+00
