 Sr2 Co1 Cl2 O2                         
   1.00000000000000     
     3.8406725341004719    0.0000000000000000    0.0000000000000000
     0.0000000000000000    3.8466459215587756    0.0000000000000000
     0.0000000000000000    0.0000000000000000   20.4392021679719988
   Sr   Co   Cl   O 
     2     1     2     2
Direct
  0.4999999796134418  0.5000243092896680  0.4126837122728209
  0.5000000207560831  0.4999756899838163  0.5873162840267436
  0.0000000037973749  0.9999999966336190  0.5000000303286711
  0.9999999637947212  0.0000332176581488  0.3459136712724583
  0.0000000241770834  0.9999667933431773  0.6540862606318829
  0.5000000038572878  0.9999999963150401  0.5000000201927435
  0.0000000040040078  0.4999999967765021  0.5000000212747224
 
  0.00000000E+00  0.00000000E+00  0.00000000E+00
  0.00000000E+00  0.00000000E+00  0.00000000E+00
  0.00000000E+00  0.00000000E+00  0.00000000E+00
  0.00000000E+00  0.00000000E+00  0.00000000E+00
  0.00000000E+00  0.00000000E+00  0.00000000E+00
  0.00000000E+00  0.00000000E+00  0.00000000E+00
  0.00000000E+00  0.00000000E+00  0.00000000E+00
