CONTCAR                                 
   1.00000000000000     
    11.3112001419000006    0.0000000000000000    0.0000000000000000
    -5.6555817499999996   10.5064091515999998    0.0000000000000000
     0.0000000000000000    0.0000000000000000   21.6791000366000013
   Tb   C    Br   O    H 
    18    18    18     1     1
Direct
  0.1250432197100797  0.2503303604034298  0.5678747872935439
  0.2089126715360954  0.0843039765158156  0.4326401294631588
  0.4584711178059114  0.2503659573298611  0.5678737698183252
  0.5411132053857551  0.0824034316470691  0.4322948396659206
  0.7911391485275377  0.2492657612411769  0.5672484092878982
  0.8746154475816503  0.0824975957219813  0.4322380610244374
  0.1242252584002512  0.5812255703286151  0.5679189326391358
  0.2081285082811145  0.4160988014595228  0.4325144080962593
  0.4577712869391273  0.5819703958206677  0.5711434987445778
  0.5414535480391550  0.4160773640407604  0.4323981041852602
  0.7904043993556715  0.5813406898204906  0.5677613348496995
  0.8749432864346428  0.4163999752758943  0.4319042913115127
  0.1245559043658589  0.9159666433122444  0.5675898858305691
  0.2085186909295633  0.7499256776678783  0.4328227604780400
  0.4583710366564068  0.9155536963743667  0.5681695888808683
  0.5407700889840552  0.7482397725790584  0.4334157907209290
  0.7904528517024805  0.9156042535079834  0.5679815725936438
  0.8748273976520320  0.7499967036120485  0.4326400189688267
  0.3598130785251721  0.3861912596474693  0.5180394826421036
  0.3077257901450776  0.2819743226985956  0.4828906486387314
  0.6930661127519024  0.3852589542470202  0.5164314789852955
  0.6401409643561958  0.2799395299772290  0.4822188028896550
  0.0254116810044152  0.3852465022551878  0.5165322083342674
  0.9730664185896291  0.2799300222587451  0.4823079629149112
  0.3593558440061180  0.7180354851999072  0.5177291871260530
  0.3067769533136698  0.6125580888785173  0.4836481827415131
  0.6920721481385166  0.7180623109968529  0.5175376979454679
  0.6392552203269970  0.6125581219973016  0.4834755711778290
  0.0261722363628543  0.7190848444661958  0.5167709507029974
  0.9733715278600614  0.6133781364576344  0.4827883553450185
  0.3595901358088977  0.0526704682147529  0.5171079669022596
  0.3070416773108143  0.9470364702115742  0.4830174475693910
  0.6927831859346504  0.0525712898974323  0.5164246454185558
  0.6397971497289379  0.9463741020918729  0.4828280014707294
  0.0264093980351152  0.0527349570808200  0.5169850360313843
  0.9734350670358030  0.9471087419329405  0.4828834172309236
  0.0943374824368937  0.1884046521103368  0.3453810689722552
  0.2382686324823888  0.1435716332420776  0.6543168085746418
  0.4275005261433811  0.1884426434613513  0.3452860944020339
  0.5721613878885727  0.1439653201756401  0.6542593711380693
  0.7605194754394745  0.1878952696888587  0.3451812808508029
  0.9046840296697102  0.1437735869461100  0.6541709895486288
  0.0951204042192770  0.5224960557058582  0.3454575224783704
  0.2342397350081435  0.4741212162802745  0.6535478440353500
  0.4277701072526405  0.5222510806188280  0.3456493994374674
  0.5736577466271104  0.4740797762658776  0.6535049001488948
  0.7608232120110954  0.5221447531991450  0.3452719191871323
  0.9047080992768625  0.4761354667384936  0.6542878117784644
  0.0946619622777660  0.8557057220240777  0.3459330148431272
  0.2380893466523532  0.8101370379559205  0.6543301225487816
  0.4274485940151339  0.8542160433830901  0.3457609354812318
  0.5740758817368470  0.8144401180923808  0.6536227703878015
  0.7598491116085451  0.8540825986195604  0.3456026721693088
  0.9050299879219064  0.8100440453831269  0.6542240966607549
  0.4650964127694567  0.5963236424377578  0.7426276295450102
  0.4650453530402699  0.5984077455022860  0.7877270278921759
 
  0.00000000E+00  0.00000000E+00  0.00000000E+00
  0.00000000E+00  0.00000000E+00  0.00000000E+00
  0.00000000E+00  0.00000000E+00  0.00000000E+00
  0.00000000E+00  0.00000000E+00  0.00000000E+00
  0.00000000E+00  0.00000000E+00  0.00000000E+00
  0.00000000E+00  0.00000000E+00  0.00000000E+00
  0.00000000E+00  0.00000000E+00  0.00000000E+00
  0.00000000E+00  0.00000000E+00  0.00000000E+00
  0.00000000E+00  0.00000000E+00  0.00000000E+00
  0.00000000E+00  0.00000000E+00  0.00000000E+00
  0.00000000E+00  0.00000000E+00  0.00000000E+00
  0.00000000E+00  0.00000000E+00  0.00000000E+00
  0.00000000E+00  0.00000000E+00  0.00000000E+00
  0.00000000E+00  0.00000000E+00  0.00000000E+00
  0.00000000E+00  0.00000000E+00  0.00000000E+00
  0.00000000E+00  0.00000000E+00  0.00000000E+00
  0.00000000E+00  0.00000000E+00  0.00000000E+00
  0.00000000E+00  0.00000000E+00  0.00000000E+00
  0.00000000E+00  0.00000000E+00  0.00000000E+00
  0.00000000E+00  0.00000000E+00  0.00000000E+00
  0.00000000E+00  0.00000000E+00  0.00000000E+00
  0.00000000E+00  0.00000000E+00  0.00000000E+00
  0.00000000E+00  0.00000000E+00  0.00000000E+00
  0.00000000E+00  0.00000000E+00  0.00000000E+00
  0.00000000E+00  0.00000000E+00  0.00000000E+00
  0.00000000E+00  0.00000000E+00  0.00000000E+00
  0.00000000E+00  0.00000000E+00  0.00000000E+00
  0.00000000E+00  0.00000000E+00  0.00000000E+00
  0.00000000E+00  0.00000000E+00  0.00000000E+00
  0.00000000E+00  0.00000000E+00  0.00000000E+00
  0.00000000E+00  0.00000000E+00  0.00000000E+00
  0.00000000E+00  0.00000000E+00  0.00000000E+00
  0.00000000E+00  0.00000000E+00  0.00000000E+00
  0.00000000E+00  0.00000000E+00  0.00000000E+00
  0.00000000E+00  0.00000000E+00  0.00000000E+00
  0.00000000E+00  0.00000000E+00  0.00000000E+00
  0.00000000E+00  0.00000000E+00  0.00000000E+00
  0.00000000E+00  0.00000000E+00  0.00000000E+00
  0.00000000E+00  0.00000000E+00  0.00000000E+00
  0.00000000E+00  0.00000000E+00  0.00000000E+00
  0.00000000E+00  0.00000000E+00  0.00000000E+00
  0.00000000E+00  0.00000000E+00  0.00000000E+00
  0.00000000E+00  0.00000000E+00  0.00000000E+00
  0.00000000E+00  0.00000000E+00  0.00000000E+00
  0.00000000E+00  0.00000000E+00  0.00000000E+00
  0.00000000E+00  0.00000000E+00  0.00000000E+00
  0.00000000E+00  0.00000000E+00  0.00000000E+00
  0.00000000E+00  0.00000000E+00  0.00000000E+00
  0.00000000E+00  0.00000000E+00  0.00000000E+00
  0.00000000E+00  0.00000000E+00  0.00000000E+00
  0.00000000E+00  0.00000000E+00  0.00000000E+00
  0.00000000E+00  0.00000000E+00  0.00000000E+00
  0.00000000E+00  0.00000000E+00  0.00000000E+00
  0.00000000E+00  0.00000000E+00  0.00000000E+00
  0.00000000E+00  0.00000000E+00  0.00000000E+00
  0.00000000E+00  0.00000000E+00  0.00000000E+00
