CONTCAR\(5)                             
   1.00000000000000     
    11.3364000320000002    0.0000000000000000    0.0000000000000000
     0.0000000000000000   11.1918001174999997    0.0000000000000000
     0.0000000000000000    0.0000000000000000   20.5198993682999991
   Mn   Sb   Se   Br   O 
     6     6    12     6     1
Direct
  0.1684544340888959  0.5173674647827082  0.5049361122872353
  0.1685437188623267 -0.0085543008980369  0.4944669720185388
  0.4999882730358905  0.5116079906616040  0.5098448176580123
  0.5000009501802153 -0.0004710691337987  0.4954460303136870
  0.8315178160010600  0.5173252479751664  0.5049291614341982
  0.8314801938773044 -0.0085735320781394  0.4944437725430776
 -0.0000068632237219  0.7776206355144428  0.5928598810079049
  0.3322119381417140  0.2884386508130393  0.3995917043116339
  0.3514429598720838  0.7980719209542081  0.6201833053777829
  0.6677629444783357  0.2885178453817662  0.3995378663796701
  0.6486064240037313  0.7979871953430278  0.6201962758743556
  0.0001264792598198  0.2834506472940123  0.3997457717265894
  0.3358384685740718  0.5170599390727203  0.4169722050819465
  0.1670423324435703  0.2453656068623745  0.4883612587220357
  0.1691305365503455  0.7512525308912373  0.5083533752891063
 -0.0001196769379666  0.0131865838465412  0.5797831060519516
  0.6640963599939950  0.5170580856824522  0.4169736814075315
  0.5000537607743747  0.2465683082753387  0.4870485895634896
  0.5000128433996633  0.7502053971850932  0.5207960176288926
  0.3321724874545614  0.0226566648314040  0.5814929195729933
  0.9999987073049283  0.5127061071350191  0.4161877556442035
  0.8329570842738084  0.2453559560667816  0.4882826095578794
  0.8308114406935466  0.7512416637079249  0.5083419648048305
  0.6679220577712357  0.0225304571948848  0.5814400933905598
  0.0000105695706352  0.4837523913514199  0.5923616776485872
 -0.0000121446310717  0.9846301438318275  0.4049627626619109
  0.3310838260464544  0.4764950704044565  0.5938328076024219
  0.3349851338110074  0.9793827013279658  0.4057835335676511
  0.6689536293923082  0.4765571068001459  0.5938429084013946
  0.6651432683288723  0.9793723747748642  0.4057620868088638
  0.5000201796080065  0.8212442861475547  0.6722693156610278
 
  0.00000000E+00  0.00000000E+00  0.00000000E+00
  0.00000000E+00  0.00000000E+00  0.00000000E+00
  0.00000000E+00  0.00000000E+00  0.00000000E+00
  0.00000000E+00  0.00000000E+00  0.00000000E+00
  0.00000000E+00  0.00000000E+00  0.00000000E+00
  0.00000000E+00  0.00000000E+00  0.00000000E+00
  0.00000000E+00  0.00000000E+00  0.00000000E+00
  0.00000000E+00  0.00000000E+00  0.00000000E+00
  0.00000000E+00  0.00000000E+00  0.00000000E+00
  0.00000000E+00  0.00000000E+00  0.00000000E+00
  0.00000000E+00  0.00000000E+00  0.00000000E+00
  0.00000000E+00  0.00000000E+00  0.00000000E+00
  0.00000000E+00  0.00000000E+00  0.00000000E+00
  0.00000000E+00  0.00000000E+00  0.00000000E+00
  0.00000000E+00  0.00000000E+00  0.00000000E+00
  0.00000000E+00  0.00000000E+00  0.00000000E+00
  0.00000000E+00  0.00000000E+00  0.00000000E+00
  0.00000000E+00  0.00000000E+00  0.00000000E+00
  0.00000000E+00  0.00000000E+00  0.00000000E+00
  0.00000000E+00  0.00000000E+00  0.00000000E+00
  0.00000000E+00  0.00000000E+00  0.00000000E+00
  0.00000000E+00  0.00000000E+00  0.00000000E+00
  0.00000000E+00  0.00000000E+00  0.00000000E+00
  0.00000000E+00  0.00000000E+00  0.00000000E+00
  0.00000000E+00  0.00000000E+00  0.00000000E+00
  0.00000000E+00  0.00000000E+00  0.00000000E+00
  0.00000000E+00  0.00000000E+00  0.00000000E+00
  0.00000000E+00  0.00000000E+00  0.00000000E+00
  0.00000000E+00  0.00000000E+00  0.00000000E+00
  0.00000000E+00  0.00000000E+00  0.00000000E+00
  0.00000000E+00  0.00000000E+00  0.00000000E+00
