CONTCAR\(6)                             
   1.00000000000000     
    12.8154001235999999    0.0000000000000000    0.0000000000000000
     6.4077083683999998   11.0983416437999995    0.0000000000000000
     0.0000000000000000    0.0000000000000000   33.6823997497999983
   Ge   Bi   Te   O 
    27    18    54     1
Direct
  0.1078061396252416  0.1087113265981371  0.2643131257162871
  0.2218654796748493  0.2221126508181414  0.7378661614484990
  0.2205929621574712  0.2210463906602622  0.3743859216191388
  0.4405235146959999  0.1089734233649567  0.2655249804766689
  0.5553906789558446  0.2219533576137100  0.7378052771971698
  0.5544163839828186  0.2227137905880431  0.3735326378712442
  0.7734488679768610  0.1095125320594475  0.2642251917194900
  0.8887772099026549  0.2218178232501525  0.7377959222057473
  0.8855936275784745  0.2212801115514906  0.3737063690769896
  0.1100868424871675  0.4416427273667091  0.2654575692197487
  0.2217131906781379  0.5556037906880117  0.7378311769840141
  0.2225181585087944  0.5542904970218687  0.3735453549837937
  0.4431973665532022  0.4395819044861701  0.2573461802333740
  0.5552166426630258  0.5553218769511951  0.7377367748434536
  0.5537523091985901  0.5539034160148988  0.3733778176009059
  0.7817931669242035  0.4455094750524135  0.2644030481931236
  0.8888403867760335  0.5553174319730017  0.7377727973387453
  0.8880684993086202  0.5543690148409274  0.3739117832173828
  0.1093741686125388  0.7734871722624954  0.2642450325103984
  0.2217472342351209  0.8888743186932875  0.7377912812638916
  0.2207589813762858  0.8856016711254975  0.3737417936300723
  0.4436918520573604  0.7815740833315211  0.2645903733371511
  0.5552092566561697  0.8889961513915769  0.7377558736607590
  0.5541418556728801  0.8882456384253546  0.3739225727191643
  0.7776800610707840  0.7780110366077537  0.2654178665220235
  0.8887091506829152  0.8888597589574210  0.7377730928234332
  0.8878057559059228  0.8880947341431553  0.3739052069221523
  0.9994515847663726  0.9996141091636821  0.4935525463966814
  0.1106475038422796  0.1106479570499068  0.6180803155635205
  0.3330037040400163  0.9997688604691695  0.4933924715912950
  0.4436394337587062  0.1109779227300831  0.6181491889344989
  0.6661929869666688  0.9998812499709205  0.4935438573854750
  0.7778625506431488  0.1106721781279683  0.6182254908389457
  0.9997271404418366  0.3330420232523459  0.4933990136661808
  0.1108695010706424  0.4437411404118132  0.6181529924932077
  0.3331908030919882  0.3332225953521467  0.4932103357835652
  0.4442073776817649  0.4442189530029180  0.6181193425895291
  0.6660599527163293  0.3332673270655903  0.4934784000305222
  0.7776468711077248  0.4442517092154662  0.6182246509181328
  0.9997741101228288  0.6662805915444071  0.4935841281333597
  0.1105845019145415  0.7779372115389336  0.6182332621308967
  0.3332752727662820  0.6660542724726811  0.4934812114583157
  0.4442386464760034  0.7776807474299148  0.6182242758519856
  0.6663775580748428  0.6664151808784474  0.4932378902883986
  0.7774391735842340  0.7775777891302501  0.6181319740712851
  0.9982595978575824  0.9986402082222847  0.3315888834368410
  0.1107417251397316  0.1108133605919061  0.7796692218980096
  0.1100868179932975  0.1102464399756662  0.4396997094176275
  0.2217566012842646  0.2217971520409047  0.5553938078201863
  0.2195990263658066  0.2202602589043955  0.2234636122681280
  0.9997069277648989  0.9998472368371212  0.6717538552764987
  0.3311472917320193  0.9985964678984530  0.3322112364750811
  0.4441653049460413  0.1110626053360810  0.7796288382134245
  0.4442141565522998  0.1106545328773904  0.4395149379341513
  0.5549709697570000  0.2218365979496844  0.5555611594029707
  0.5529140301942815  0.2084971725771645  0.2219600976395542
  0.3327216951574817  0.9999757231974051  0.6715684904754078
  0.6654869607414156  0.9995005567961635  0.3317812534075834
  0.7778241795085510  0.1108560284265859  0.7796492318799791
  0.7769615581999574  0.1109653079452842  0.4396409551543360
  0.8881652301251656  0.2222291465284553  0.5553705631928868
  0.8853189414579640  0.2220556511123221  0.2228776194226026
  0.6661441464060400  0.9999549312036899  0.6714913327254370
  0.9984078418497536  0.3316634014462460  0.3320942348165546
  0.1108198940815122  0.4443941420868101  0.7796650041869985
  0.1105964047228020  0.4443514039085913  0.4395502188262069
  0.2216516314250636  0.5551972101104899  0.5555440613734189
  0.2104975992046264  0.5532708405724865  0.2219495366144846
  0.9999178001090675  0.3327449936541912  0.6715668566092416
  0.3315287868027418  0.3314627084339297  0.3317716362468161
  0.4440429222271274  0.4443041177164668  0.7795518596037956
  0.4440843595129395  0.4440822135733515  0.4393584900838405
  0.5552972809739763  0.5553542238860496  0.5555682935089244
  0.5838084940733876  0.5843799264231873  0.2137109672386086
  0.3329966581396896  0.3330587510017177  0.6715641274485744
  0.6642141915512585  0.3332205099678017  0.3305849254738403
  0.7774897865407978  0.4442303311520623  0.7795136787585560
  0.7773625503290424  0.4437854685234699  0.4395457858870378
  0.8884196624628962  0.5553403837522459  0.5554947023010376
  0.8891269866272190  0.5557707715406572  0.2234239240064977
  0.6664318431952673  0.3329525806112441  0.6715056993320317
  0.9993451684655431  0.6656430589530430  0.3317984393130977
  0.1106818547066860  0.7780613665789723  0.7796560072825327
  0.1108500682908457  0.7771298183752167  0.4396737001993672
  0.2222020211183185  0.8881779649203484  0.5553494574338238
  0.2210263284787463  0.8857588565506820  0.2228633071481486
  0.9998414054104657  0.6662091761691954  0.6714854363208109
  0.3329092996526117  0.6642719114509923  0.3306508356251522
  0.4441879632193722  0.7776622246469097  0.7795042960543096
  0.4436451740497363  0.7774913550109414  0.4395304885317128
  0.5552210322210211  0.8885495356923685  0.5554967270893182
  0.5551840336823736  0.8878911412487218  0.2234005211207781
  0.3329017856530362  0.6664287964662969  0.6715089942939144
  0.6654563222930506  0.6655411475586648  0.3318625004926554
  0.7775930374872276  0.7776796955153922  0.7794968379141084
  0.7774175633635094  0.7774632955496079  0.4396757308871524
  0.8881961958952452  0.8883617560689453  0.5554870980769999
  0.8872151050503132  0.8875675416467141  0.2230162524611708
  0.6663168726162246  0.6664865317970893  0.6716162975828956
  0.5009188673484409  0.4900561013737488  0.2145953133543504
 
  0.00000000E+00  0.00000000E+00  0.00000000E+00
  0.00000000E+00  0.00000000E+00  0.00000000E+00
  0.00000000E+00  0.00000000E+00  0.00000000E+00
  0.00000000E+00  0.00000000E+00  0.00000000E+00
  0.00000000E+00  0.00000000E+00  0.00000000E+00
  0.00000000E+00  0.00000000E+00  0.00000000E+00
  0.00000000E+00  0.00000000E+00  0.00000000E+00
  0.00000000E+00  0.00000000E+00  0.00000000E+00
  0.00000000E+00  0.00000000E+00  0.00000000E+00
  0.00000000E+00  0.00000000E+00  0.00000000E+00
  0.00000000E+00  0.00000000E+00  0.00000000E+00
  0.00000000E+00  0.00000000E+00  0.00000000E+00
  0.00000000E+00  0.00000000E+00  0.00000000E+00
  0.00000000E+00  0.00000000E+00  0.00000000E+00
  0.00000000E+00  0.00000000E+00  0.00000000E+00
  0.00000000E+00  0.00000000E+00  0.00000000E+00
  0.00000000E+00  0.00000000E+00  0.00000000E+00
  0.00000000E+00  0.00000000E+00  0.00000000E+00
  0.00000000E+00  0.00000000E+00  0.00000000E+00
  0.00000000E+00  0.00000000E+00  0.00000000E+00
  0.00000000E+00  0.00000000E+00  0.00000000E+00
  0.00000000E+00  0.00000000E+00  0.00000000E+00
  0.00000000E+00  0.00000000E+00  0.00000000E+00
  0.00000000E+00  0.00000000E+00  0.00000000E+00
  0.00000000E+00  0.00000000E+00  0.00000000E+00
  0.00000000E+00  0.00000000E+00  0.00000000E+00
  0.00000000E+00  0.00000000E+00  0.00000000E+00
  0.00000000E+00  0.00000000E+00  0.00000000E+00
  0.00000000E+00  0.00000000E+00  0.00000000E+00
  0.00000000E+00  0.00000000E+00  0.00000000E+00
  0.00000000E+00  0.00000000E+00  0.00000000E+00
  0.00000000E+00  0.00000000E+00  0.00000000E+00
  0.00000000E+00  0.00000000E+00  0.00000000E+00
  0.00000000E+00  0.00000000E+00  0.00000000E+00
  0.00000000E+00  0.00000000E+00  0.00000000E+00
  0.00000000E+00  0.00000000E+00  0.00000000E+00
  0.00000000E+00  0.00000000E+00  0.00000000E+00
  0.00000000E+00  0.00000000E+00  0.00000000E+00
  0.00000000E+00  0.00000000E+00  0.00000000E+00
  0.00000000E+00  0.00000000E+00  0.00000000E+00
  0.00000000E+00  0.00000000E+00  0.00000000E+00
  0.00000000E+00  0.00000000E+00  0.00000000E+00
  0.00000000E+00  0.00000000E+00  0.00000000E+00
  0.00000000E+00  0.00000000E+00  0.00000000E+00
  0.00000000E+00  0.00000000E+00  0.00000000E+00
  0.00000000E+00  0.00000000E+00  0.00000000E+00
  0.00000000E+00  0.00000000E+00  0.00000000E+00
  0.00000000E+00  0.00000000E+00  0.00000000E+00
  0.00000000E+00  0.00000000E+00  0.00000000E+00
  0.00000000E+00  0.00000000E+00  0.00000000E+00
  0.00000000E+00  0.00000000E+00  0.00000000E+00
  0.00000000E+00  0.00000000E+00  0.00000000E+00
  0.00000000E+00  0.00000000E+00  0.00000000E+00
  0.00000000E+00  0.00000000E+00  0.00000000E+00
  0.00000000E+00  0.00000000E+00  0.00000000E+00
  0.00000000E+00  0.00000000E+00  0.00000000E+00
  0.00000000E+00  0.00000000E+00  0.00000000E+00
  0.00000000E+00  0.00000000E+00  0.00000000E+00
  0.00000000E+00  0.00000000E+00  0.00000000E+00
  0.00000000E+00  0.00000000E+00  0.00000000E+00
  0.00000000E+00  0.00000000E+00  0.00000000E+00
  0.00000000E+00  0.00000000E+00  0.00000000E+00
  0.00000000E+00  0.00000000E+00  0.00000000E+00
  0.00000000E+00  0.00000000E+00  0.00000000E+00
  0.00000000E+00  0.00000000E+00  0.00000000E+00
  0.00000000E+00  0.00000000E+00  0.00000000E+00
  0.00000000E+00  0.00000000E+00  0.00000000E+00
  0.00000000E+00  0.00000000E+00  0.00000000E+00
  0.00000000E+00  0.00000000E+00  0.00000000E+00
  0.00000000E+00  0.00000000E+00  0.00000000E+00
  0.00000000E+00  0.00000000E+00  0.00000000E+00
  0.00000000E+00  0.00000000E+00  0.00000000E+00
  0.00000000E+00  0.00000000E+00  0.00000000E+00
  0.00000000E+00  0.00000000E+00  0.00000000E+00
  0.00000000E+00  0.00000000E+00  0.00000000E+00
  0.00000000E+00  0.00000000E+00  0.00000000E+00
  0.00000000E+00  0.00000000E+00  0.00000000E+00
  0.00000000E+00  0.00000000E+00  0.00000000E+00
  0.00000000E+00  0.00000000E+00  0.00000000E+00
  0.00000000E+00  0.00000000E+00  0.00000000E+00
  0.00000000E+00  0.00000000E+00  0.00000000E+00
  0.00000000E+00  0.00000000E+00  0.00000000E+00
  0.00000000E+00  0.00000000E+00  0.00000000E+00
  0.00000000E+00  0.00000000E+00  0.00000000E+00
  0.00000000E+00  0.00000000E+00  0.00000000E+00
  0.00000000E+00  0.00000000E+00  0.00000000E+00
  0.00000000E+00  0.00000000E+00  0.00000000E+00
  0.00000000E+00  0.00000000E+00  0.00000000E+00
  0.00000000E+00  0.00000000E+00  0.00000000E+00
  0.00000000E+00  0.00000000E+00  0.00000000E+00
  0.00000000E+00  0.00000000E+00  0.00000000E+00
  0.00000000E+00  0.00000000E+00  0.00000000E+00
  0.00000000E+00  0.00000000E+00  0.00000000E+00
  0.00000000E+00  0.00000000E+00  0.00000000E+00
  0.00000000E+00  0.00000000E+00  0.00000000E+00
  0.00000000E+00  0.00000000E+00  0.00000000E+00
  0.00000000E+00  0.00000000E+00  0.00000000E+00
  0.00000000E+00  0.00000000E+00  0.00000000E+00
  0.00000000E+00  0.00000000E+00  0.00000000E+00
  0.00000000E+00  0.00000000E+00  0.00000000E+00
