 Tl2 Cu3 Se6 O18                        
   1.00000000000000     
     4.6185821028784169    0.0000000000000000    0.0000000000000000
    -1.7086658146354063    9.4250463310341051    0.0000000000000000
     0.0000000000000000    0.0000000000000000   22.9836813747860056
   Tl   Cu   Se   O 
     2     3     6    18
Direct
  0.8806186653878270  0.9180258176125451  0.6335689659518676
  0.7111140434061386  0.5692014549083630  0.3658680779461038
  0.1019921621485022  0.2996197429963285  0.4506439781255147
  0.4888072321267409  0.1883826784283515  0.5499964848481538
  0.2969299029085601  0.7437524941516060  0.5000701314933640
  0.7045908078557747  0.5124291118277290  0.5096978038385953
  0.3468067113063730  0.8285956703901965  0.3569777533446785
  0.2463529708379273  0.6588149264619209  0.6430401819605145
  0.9934218491463205  0.2418115319193131  0.6536940641279170
  0.6000515249648063  0.2457501698876105  0.3463965992576486
  0.8880888585771466  0.9749789407388838  0.4903479208968763
  0.4159256250792612  0.3666390370767599  0.5094269942955643
  0.7722794291608970  0.1060016311098266  0.6891048335407303
  0.0294535360717649  0.8540551304483475  0.5349224395751138
  0.2815309118215235  0.8547174471893200  0.4298862185403284
  0.1753336010332921  0.1214936616681781  0.4909093708080537
  0.8210059162345922  0.3809668750948604  0.3105796406926004
  0.3957346419857235  0.3597825995082262  0.3807814450507766
  0.9294504047714888  0.4754036050789435  0.4524322284620216
  0.5648987151663279  0.6340057224677663  0.4653586029372971
  0.7892234205187385  0.3008816350977938  0.5987185661385533
  0.8842334421691029  0.6856874838821371  0.6467521694720106
  0.8041192336981421  0.1873548081170766  0.4015980621061985
  0.3919798833038445  0.8364310386635534  0.6556233364146568
  0.7089083308930372  0.8016857364339169  0.3530463224389346
  0.2008585567728232  0.6511546942528812  0.3441443625311979
  0.3122965320671848  0.6321315435996071  0.5701851161061511
  0.1973427101700112  0.1277324336185654  0.6189730776627141
  0.6611483804161928  0.0113103773694011  0.5472552514358490
 
  0.00000000E+00  0.00000000E+00  0.00000000E+00
  0.00000000E+00  0.00000000E+00  0.00000000E+00
  0.00000000E+00  0.00000000E+00  0.00000000E+00
  0.00000000E+00  0.00000000E+00  0.00000000E+00
  0.00000000E+00  0.00000000E+00  0.00000000E+00
  0.00000000E+00  0.00000000E+00  0.00000000E+00
  0.00000000E+00  0.00000000E+00  0.00000000E+00
  0.00000000E+00  0.00000000E+00  0.00000000E+00
  0.00000000E+00  0.00000000E+00  0.00000000E+00
  0.00000000E+00  0.00000000E+00  0.00000000E+00
  0.00000000E+00  0.00000000E+00  0.00000000E+00
  0.00000000E+00  0.00000000E+00  0.00000000E+00
  0.00000000E+00  0.00000000E+00  0.00000000E+00
  0.00000000E+00  0.00000000E+00  0.00000000E+00
  0.00000000E+00  0.00000000E+00  0.00000000E+00
  0.00000000E+00  0.00000000E+00  0.00000000E+00
  0.00000000E+00  0.00000000E+00  0.00000000E+00
  0.00000000E+00  0.00000000E+00  0.00000000E+00
  0.00000000E+00  0.00000000E+00  0.00000000E+00
  0.00000000E+00  0.00000000E+00  0.00000000E+00
  0.00000000E+00  0.00000000E+00  0.00000000E+00
  0.00000000E+00  0.00000000E+00  0.00000000E+00
  0.00000000E+00  0.00000000E+00  0.00000000E+00
  0.00000000E+00  0.00000000E+00  0.00000000E+00
  0.00000000E+00  0.00000000E+00  0.00000000E+00
  0.00000000E+00  0.00000000E+00  0.00000000E+00
  0.00000000E+00  0.00000000E+00  0.00000000E+00
  0.00000000E+00  0.00000000E+00  0.00000000E+00
  0.00000000E+00  0.00000000E+00  0.00000000E+00
