CONTCAR\(7)                             
   1.00000000000000     
    12.5420999526999992    0.0000000000000000    0.0000000000000000
     0.0000000000000000   15.8683996200999999    0.0000000000000000
     0.0000000000000000    0.0000000000000000   20.3181991577000005
   La   Br   O 
    12    30     1
Direct
  0.2516019316577440  0.8476038509561816  0.4785908675966893
  0.0865854589462092  0.1183242706561258  0.5116832094661389
  0.2428884608140359  0.3450815924018656  0.4655012051148907
  0.0814925595840328  0.6155911412295731  0.5237889245773264
  0.5815385394379172  0.8474963592521816  0.4788634360358104
  0.4165816069669528  0.1115709837549406  0.6268453174908356
  0.5910084146071789  0.3450417180878513  0.4663641598629075
  0.4168244098208369  0.6132625376596827  0.5281125148286814
  0.9165637963980656  0.8433279161300229  0.4735194228788617
  0.7464199807117585  0.1185471772680449  0.5120759715571842
  0.9167142395925576  0.3476675079275228  0.4615091065943596
  0.7522885285810214  0.6155613226961181  0.5242793921721104
  0.2477008116927668  0.6011448874596501  0.6267317815020003
  0.0841130792778405  0.3631360279679457  0.3611758221097801
  0.2278723598530206  0.9913578605962895  0.5800543825016533
  0.0844159602905758  0.9635095302397567  0.4151672347703327
  0.0776395230452533  0.4237798080400249  0.5555166681672373
  0.2521565016045823  0.5401910355099706  0.4345193903026930
  0.0882955654114423  0.7375756052891164  0.4043501095772568
  0.2231083717243057  0.2344475813099514  0.5920052350387154
  0.0790856225925797  0.7955301507166509  0.5770972268034037
  0.2482373460410465  0.1677053622419973  0.4171848229103606
  0.5856334886244638  0.6012238972756121  0.6270422615201453
  0.4175168878707643  0.3556249921709694  0.3693272753187581
  0.6054994567117519  0.9917108610842659  0.5803482687953424
  0.4166345177391907  0.9643806730790482  0.4288459207343560
  0.4165858860715311  0.4133963782010370  0.5574762986936852
  0.5817415772681130  0.5400347062958117  0.4347791855080376
  0.4167010571312249  0.7350658625622707  0.4093886189682808
  0.6104207137407961  0.2346084674850070  0.5931182965923588
  0.4162561189995119  0.7974572238782648  0.5812564768594485
  0.5837320627437064  0.1675282103339001  0.4182769809011913
  0.9173939518925778  0.6032712810025277  0.6266965856863533
  0.7492054225917745  0.3631900249667919  0.3616158652558618
  0.9167153321203875  0.9970285911855952  0.5682883403686428
  0.7481300010633591  0.9635442095922474  0.4153798160035806
  0.7564800658504460  0.4239164611232477  0.5561816782563573
  0.9167452565902079  0.5434619032916922  0.4296643322261176
  0.7454772421539264  0.7373214813878133  0.4046429144595387
  0.9166344892037936  0.2248046776357221  0.5811788899992013
  0.7540124014779240  0.7958888392110965  0.5772348759116922
  0.9162318426806666  0.1636522714840090  0.4102709532440121
  0.4158795728221820  0.0995145003616024  0.7171101668377899
 
  0.00000000E+00  0.00000000E+00  0.00000000E+00
  0.00000000E+00  0.00000000E+00  0.00000000E+00
  0.00000000E+00  0.00000000E+00  0.00000000E+00
  0.00000000E+00  0.00000000E+00  0.00000000E+00
  0.00000000E+00  0.00000000E+00  0.00000000E+00
  0.00000000E+00  0.00000000E+00  0.00000000E+00
  0.00000000E+00  0.00000000E+00  0.00000000E+00
  0.00000000E+00  0.00000000E+00  0.00000000E+00
  0.00000000E+00  0.00000000E+00  0.00000000E+00
  0.00000000E+00  0.00000000E+00  0.00000000E+00
  0.00000000E+00  0.00000000E+00  0.00000000E+00
  0.00000000E+00  0.00000000E+00  0.00000000E+00
  0.00000000E+00  0.00000000E+00  0.00000000E+00
  0.00000000E+00  0.00000000E+00  0.00000000E+00
  0.00000000E+00  0.00000000E+00  0.00000000E+00
  0.00000000E+00  0.00000000E+00  0.00000000E+00
  0.00000000E+00  0.00000000E+00  0.00000000E+00
  0.00000000E+00  0.00000000E+00  0.00000000E+00
  0.00000000E+00  0.00000000E+00  0.00000000E+00
  0.00000000E+00  0.00000000E+00  0.00000000E+00
  0.00000000E+00  0.00000000E+00  0.00000000E+00
  0.00000000E+00  0.00000000E+00  0.00000000E+00
  0.00000000E+00  0.00000000E+00  0.00000000E+00
  0.00000000E+00  0.00000000E+00  0.00000000E+00
  0.00000000E+00  0.00000000E+00  0.00000000E+00
  0.00000000E+00  0.00000000E+00  0.00000000E+00
  0.00000000E+00  0.00000000E+00  0.00000000E+00
  0.00000000E+00  0.00000000E+00  0.00000000E+00
  0.00000000E+00  0.00000000E+00  0.00000000E+00
  0.00000000E+00  0.00000000E+00  0.00000000E+00
  0.00000000E+00  0.00000000E+00  0.00000000E+00
  0.00000000E+00  0.00000000E+00  0.00000000E+00
  0.00000000E+00  0.00000000E+00  0.00000000E+00
  0.00000000E+00  0.00000000E+00  0.00000000E+00
  0.00000000E+00  0.00000000E+00  0.00000000E+00
  0.00000000E+00  0.00000000E+00  0.00000000E+00
  0.00000000E+00  0.00000000E+00  0.00000000E+00
  0.00000000E+00  0.00000000E+00  0.00000000E+00
  0.00000000E+00  0.00000000E+00  0.00000000E+00
  0.00000000E+00  0.00000000E+00  0.00000000E+00
  0.00000000E+00  0.00000000E+00  0.00000000E+00
  0.00000000E+00  0.00000000E+00  0.00000000E+00
  0.00000000E+00  0.00000000E+00  0.00000000E+00
