CONTCAR\(8)                             
   1.00000000000000     
    13.5726995467999991    0.0000000000000000    0.0000000000000000
     0.0000000000000000   13.5726995467999991    0.0000000000000000
     0.0000000000000000    0.0000000000000000   18.0848999022999983
   Pt   Pb   O 
     8    32     1
Direct
  0.0000503877171783 -0.0000537791174654  0.5024240544957856
  0.2475745220617194  0.2478901245180197  0.5004402130439575
  0.4998507828829842  0.0001001727846781  0.4984607790130461
  0.7522498550278743  0.2473051645001707  0.5004570481330270
  0.9995831592246838  0.5000390224817939  0.4986663153457805
  0.2478726237933954  0.7520813235542491  0.5003548273243444
  0.5000088261681727  0.5000212999679585  0.4927245892386709
  0.7523672451184249  0.7523339267853615  0.5002745923692783
  0.3341682726092086  0.4128621850829201  0.4196869352829025
  0.0847217401443906  0.3355491606592139  0.4186700357674870
  0.0825721722304015  0.1660884424294515  0.5831593475208555
  0.4187568464284043  0.3450229883061573  0.5907309823963338
  0.1653701393781501  0.4155603023025239  0.5803464970932039
  0.3347269808199523  0.0866904722797386  0.5797743588574601
  0.1643825003089124  0.0828468705076392  0.4189362828590622
  0.4115643325363182  0.1646444861837074  0.4163365070035681
  0.8354154796007343  0.4114717439499882  0.4162740836496137
  0.5872251846397134  0.3340145590341427  0.4196570031904543
  0.5845812569340172  0.1653089834027989  0.5804730435943568
  0.9135184973044487  0.3346935379268797  0.5796683807750105
  0.6549615939614409  0.4184787865014498  0.5910494961653439
  0.8342088397711795  0.0827058291881539  0.5834128587562742
  0.6644495032977460  0.0848101878244517  0.4186336474790663
  0.9171406453326647  0.1643624134298158  0.4190635476591443
  0.3354028682688610  0.9151427239377197  0.4186148484482449
  0.0827930872623756  0.8354011300581723  0.4188878508312190
  0.0862713089755127  0.6654986575593710  0.5796525893986773
  0.4154082776257575  0.8347596940363469  0.5803797480046993
  0.1662786145472251  0.9173818759444391  0.5829198846249763
  0.3450615907911478  0.5811915368986796  0.5908255196215330
  0.1646559415410944  0.5871116597817598  0.4167053292903576
  0.4128285105550180  0.6659970517998037  0.4196377719121493
  0.8356292211808157  0.9171546626669353  0.4190923165207078
  0.5879522651667404  0.8356899230432331  0.4159451950663716
  0.5813550654561237  0.6548921872154830  0.5910574788812192
  0.9172256874975964  0.8342354905919042  0.5833263173839209
  0.6653564805565645  0.9137945274117256  0.5794129312296714
  0.8345764306104273  0.5846882577419028  0.5805099135931329
  0.6660529229039595  0.5872514977865710  0.4196514156896061
  0.9151222230996980  0.6644143380983540  0.4186423909148101
  0.5011878426689904  0.5006462929438019  0.6383730425746442
 
  0.00000000E+00  0.00000000E+00  0.00000000E+00
  0.00000000E+00  0.00000000E+00  0.00000000E+00
  0.00000000E+00  0.00000000E+00  0.00000000E+00
  0.00000000E+00  0.00000000E+00  0.00000000E+00
  0.00000000E+00  0.00000000E+00  0.00000000E+00
  0.00000000E+00  0.00000000E+00  0.00000000E+00
  0.00000000E+00  0.00000000E+00  0.00000000E+00
  0.00000000E+00  0.00000000E+00  0.00000000E+00
  0.00000000E+00  0.00000000E+00  0.00000000E+00
  0.00000000E+00  0.00000000E+00  0.00000000E+00
  0.00000000E+00  0.00000000E+00  0.00000000E+00
  0.00000000E+00  0.00000000E+00  0.00000000E+00
  0.00000000E+00  0.00000000E+00  0.00000000E+00
  0.00000000E+00  0.00000000E+00  0.00000000E+00
  0.00000000E+00  0.00000000E+00  0.00000000E+00
  0.00000000E+00  0.00000000E+00  0.00000000E+00
  0.00000000E+00  0.00000000E+00  0.00000000E+00
  0.00000000E+00  0.00000000E+00  0.00000000E+00
  0.00000000E+00  0.00000000E+00  0.00000000E+00
  0.00000000E+00  0.00000000E+00  0.00000000E+00
  0.00000000E+00  0.00000000E+00  0.00000000E+00
  0.00000000E+00  0.00000000E+00  0.00000000E+00
  0.00000000E+00  0.00000000E+00  0.00000000E+00
  0.00000000E+00  0.00000000E+00  0.00000000E+00
  0.00000000E+00  0.00000000E+00  0.00000000E+00
  0.00000000E+00  0.00000000E+00  0.00000000E+00
  0.00000000E+00  0.00000000E+00  0.00000000E+00
  0.00000000E+00  0.00000000E+00  0.00000000E+00
  0.00000000E+00  0.00000000E+00  0.00000000E+00
  0.00000000E+00  0.00000000E+00  0.00000000E+00
  0.00000000E+00  0.00000000E+00  0.00000000E+00
  0.00000000E+00  0.00000000E+00  0.00000000E+00
  0.00000000E+00  0.00000000E+00  0.00000000E+00
  0.00000000E+00  0.00000000E+00  0.00000000E+00
  0.00000000E+00  0.00000000E+00  0.00000000E+00
  0.00000000E+00  0.00000000E+00  0.00000000E+00
  0.00000000E+00  0.00000000E+00  0.00000000E+00
  0.00000000E+00  0.00000000E+00  0.00000000E+00
  0.00000000E+00  0.00000000E+00  0.00000000E+00
  0.00000000E+00  0.00000000E+00  0.00000000E+00
  0.00000000E+00  0.00000000E+00  0.00000000E+00
