Ta8 Te20 Pd12                           
   1.00000000000000     
     3.7463938313791014    0.0000000000000000    0.0000000000000000
     0.0000000000000000   14.2822720847269000    0.0000000000000000
     0.0000000000000000    0.0000000000000000   18.7364552724225071
   Ta   Te   Pd
     8    20    12
Direct
  0.2500000000000000  0.7499108781035693  0.9156452542232861
  0.7500000000000000  0.2500890748964305  0.0843547647767119
  0.2500000000000000  0.2499109251035695  0.5843547957767180
  0.7500000000000000  0.7500890908964317  0.4156452292232876
  0.2500000000000000  0.7548074275113124  0.1677618882146679
  0.7500000000000000  0.2451925884886892  0.8322381247853295
  0.2500000000000000  0.2548074115113108  0.3322380997853311
  0.7500000000000000  0.7451926034886938  0.6677618752146705
  0.2500000000000000  0.6065519486323581  0.7178793025215271
  0.7500000000000000  0.3934480513676418  0.2821206974784730
  0.2500000000000000  0.1065519566323588  0.7821206974784729
  0.7500000000000000  0.8872325343380967  0.8632082482295457
  0.7500000000000000  0.8934480823676409  0.2178793025215271
  0.2500000000000000  0.6127674346618972  0.3632082222295435
  0.7500000000000000  0.3872325343380970  0.6367917517704543
  0.2500000000000000  0.1127674656619031  0.1367917647704519
  0.2500000000000000  0.8951287936969162  0.6465848877879248
  0.7500000000000000  0.1048712143030845  0.3534151372120739
  0.2500000000000000  0.3951287936969161  0.8534151632120759
  0.7500000000000000  0.6048712373030828  0.1465848747879271
  0.7500000000000000  0.6366282810117757  0.5404048745389877
  0.2500000000000000  0.3633717509882269  0.4595951254610123
  0.7500000000000000  0.1366282810117758  0.9595950744610117
  0.2500000000000000  0.8633716879882253  0.0404048615389902
  0.2500000000000000  0.8994296205293614  0.4397245537648587
  0.7500000000000000  0.1005704114706343  0.5602753952351407
  0.2500000000000000  0.3994295885293657  0.0602754202351391
  0.7500000000000000  0.6005704114706342  0.9397245537648586
  0.2500000000000000  0.8185697625004399  0.3103521427145681
  0.2500000000000000  0.8086252114167352  0.7731449526422931
  0.7500000000000000  0.1913748355832653  0.2268550733577091
  0.2500000000000000  0.3086251804167361  0.7268550473577069
  0.7500000000000000  0.6913748195832639  0.2731449266422910
  0.7500000000000000  0.1814302534995614  0.6896478572854319
  0.2500000000000000  0.3185697315004409  0.1896478692854259
  0.7500000000000000  0.6814302684995591  0.8103521427145681
  0.2500000000000000  0.7706996548406966  0.5417036407265929
  0.7500000000000000  0.2293003451593036  0.4582963592734072
  0.2500000000000000  0.2706996228406937  0.9582963592734071
  0.7500000000000000  0.7293003771593061  0.0417036337265958
 
  0.00000000E+00  0.00000000E+00  0.00000000E+00
  0.00000000E+00  0.00000000E+00  0.00000000E+00
  0.00000000E+00  0.00000000E+00  0.00000000E+00
  0.00000000E+00  0.00000000E+00  0.00000000E+00
  0.00000000E+00  0.00000000E+00  0.00000000E+00
  0.00000000E+00  0.00000000E+00  0.00000000E+00
  0.00000000E+00  0.00000000E+00  0.00000000E+00
  0.00000000E+00  0.00000000E+00  0.00000000E+00
  0.00000000E+00  0.00000000E+00  0.00000000E+00
  0.00000000E+00  0.00000000E+00  0.00000000E+00
  0.00000000E+00  0.00000000E+00  0.00000000E+00
  0.00000000E+00  0.00000000E+00  0.00000000E+00
  0.00000000E+00  0.00000000E+00  0.00000000E+00
  0.00000000E+00  0.00000000E+00  0.00000000E+00
  0.00000000E+00  0.00000000E+00  0.00000000E+00
  0.00000000E+00  0.00000000E+00  0.00000000E+00
  0.00000000E+00  0.00000000E+00  0.00000000E+00
  0.00000000E+00  0.00000000E+00  0.00000000E+00
  0.00000000E+00  0.00000000E+00  0.00000000E+00
  0.00000000E+00  0.00000000E+00  0.00000000E+00
  0.00000000E+00  0.00000000E+00  0.00000000E+00
  0.00000000E+00  0.00000000E+00  0.00000000E+00
  0.00000000E+00  0.00000000E+00  0.00000000E+00
  0.00000000E+00  0.00000000E+00  0.00000000E+00
  0.00000000E+00  0.00000000E+00  0.00000000E+00
  0.00000000E+00  0.00000000E+00  0.00000000E+00
  0.00000000E+00  0.00000000E+00  0.00000000E+00
  0.00000000E+00  0.00000000E+00  0.00000000E+00
  0.00000000E+00  0.00000000E+00  0.00000000E+00
  0.00000000E+00  0.00000000E+00  0.00000000E+00
  0.00000000E+00  0.00000000E+00  0.00000000E+00
  0.00000000E+00  0.00000000E+00  0.00000000E+00
  0.00000000E+00  0.00000000E+00  0.00000000E+00
  0.00000000E+00  0.00000000E+00  0.00000000E+00
  0.00000000E+00  0.00000000E+00  0.00000000E+00
  0.00000000E+00  0.00000000E+00  0.00000000E+00
  0.00000000E+00  0.00000000E+00  0.00000000E+00
  0.00000000E+00  0.00000000E+00  0.00000000E+00
  0.00000000E+00  0.00000000E+00  0.00000000E+00
  0.00000000E+00  0.00000000E+00  0.00000000E+00
