K-Spacing Value to Generate K-Mesh: 0.030
0
Gamma
   9   2   2
0.0  0.0  0.0
