CONTCAR\(7)                             
   1.00000000000000     
    14.3652000426999997    0.0000000000000000    0.0000000000000000
     7.1792291409000004   12.4398023524999992    0.0000000000000000
     0.0000000000000000    0.0000000000000000   17.6567993164000008
   Co   Te   O 
    16    32     1
Direct
  0.0151526269674019  0.9975504447050861  0.5085841126806961
  0.2314078620844390  0.9890699093141662  0.5090871146185617
  0.4942644923765346  0.9851203508682143  0.4939533636598222
  0.7614435189486466  0.9844226581776064  0.4922560590287146
  0.0095979954251862  0.2617382946856042  0.4966357446596417
  0.2230029930256034  0.2572235450725203  0.4965429616002368
  0.4934374117256828  0.2438610218571280  0.4892952209579280
  0.7490394822705976  0.2581978071700641  0.5049033215469078
  0.0111927757767228  0.4770462321457775  0.4981153587798630
  0.2615720058408492  0.4965795902485596  0.5079477701496049
  0.5211993296432224  0.5034560842281105  0.5114226589233184
  0.7369393227899644  0.4969350356439244  0.5039358945825018
  0.9592555039254115  0.7670668194715321  0.4903026135627010
  0.2494614161058410  0.7625495265990497  0.5138813176417506
  0.5022345077453162  0.7703155744142629  0.4941338255318213
  0.7685924784546089  0.7489004391976655  0.4876478235466609
  0.1636621830411994  0.1610530710961014  0.5876410107234997
  0.0765921475637913  0.0902092207641708  0.4174071261574969
  0.4060600930151877  0.1649742729413469  0.5675059815194806
  0.3161067504336992  0.0771273968666460  0.4223557458122963
  0.6616416995577555  0.1635613493021731  0.5711265499742321
  0.5843984178980287  0.0722966922996884  0.4193695092024518
  0.9226168429760873  0.1753799879298002  0.5813458382888542
  0.8432844729159811  0.0846589578447321  0.4266506988940486
  0.1716069882498600  0.4140366677435692  0.5860171829005432
  0.0803148080466054  0.3359601101796517  0.3980958950087513
  0.4217978069855922  0.4346206852864332  0.5955936282695120
  0.3209974248764721  0.3366837185037410  0.4167995261591035
  0.6755626614910450  0.4102979213779320  0.6008631945264636
  0.5790603237038985  0.3395009542991290  0.4234245355935107
  0.9074841574610495  0.4205067271835107  0.5852208976631064
  0.8364120750841550  0.3324927217570617  0.4179655388119462
  0.1915490952695447  0.6544512625030546  0.5944180267963658
  0.0880703801266238  0.5838351335586847  0.4290859889173789
  0.4288529938081677  0.6817760378222435  0.5845575318924910
  0.3444810278398275  0.5881823513575899  0.4334972941016539
  0.6723328539806359  0.6768345890615179  0.5737329656831976
  0.5787407623415198  0.5970042817089239  0.4172719420039438
  0.9244576055211018  0.6525312472785794  0.5788940520842212
  0.8365836186372955  0.5702002519135393  0.4202453227052335
  0.1609724130276372  0.9157711365809950  0.6070883586652237
  0.0840067868287790  0.8251093712168240  0.4302728143062923
  0.4043728712992926  0.9212840256350731  0.5860580465523855
  0.3311373009950535  0.8337546260700064  0.4171233640872206
  0.6645163303824813  0.9129513332709687  0.5745563722972020
  0.5984721735519752  0.8287179297895128  0.4045660459025550
  0.9188136438179372  0.9162810013691759  0.5836235095499371
  0.8241780276001895  0.8411303986083183  0.3909992143153154
  0.3264197695654686  0.5700106950800496  0.6597910491634008
 
  0.00000000E+00  0.00000000E+00  0.00000000E+00
  0.00000000E+00  0.00000000E+00  0.00000000E+00
  0.00000000E+00  0.00000000E+00  0.00000000E+00
  0.00000000E+00  0.00000000E+00  0.00000000E+00
  0.00000000E+00  0.00000000E+00  0.00000000E+00
  0.00000000E+00  0.00000000E+00  0.00000000E+00
  0.00000000E+00  0.00000000E+00  0.00000000E+00
  0.00000000E+00  0.00000000E+00  0.00000000E+00
  0.00000000E+00  0.00000000E+00  0.00000000E+00
  0.00000000E+00  0.00000000E+00  0.00000000E+00
  0.00000000E+00  0.00000000E+00  0.00000000E+00
  0.00000000E+00  0.00000000E+00  0.00000000E+00
  0.00000000E+00  0.00000000E+00  0.00000000E+00
  0.00000000E+00  0.00000000E+00  0.00000000E+00
  0.00000000E+00  0.00000000E+00  0.00000000E+00
  0.00000000E+00  0.00000000E+00  0.00000000E+00
  0.00000000E+00  0.00000000E+00  0.00000000E+00
  0.00000000E+00  0.00000000E+00  0.00000000E+00
  0.00000000E+00  0.00000000E+00  0.00000000E+00
  0.00000000E+00  0.00000000E+00  0.00000000E+00
  0.00000000E+00  0.00000000E+00  0.00000000E+00
  0.00000000E+00  0.00000000E+00  0.00000000E+00
  0.00000000E+00  0.00000000E+00  0.00000000E+00
  0.00000000E+00  0.00000000E+00  0.00000000E+00
  0.00000000E+00  0.00000000E+00  0.00000000E+00
  0.00000000E+00  0.00000000E+00  0.00000000E+00
  0.00000000E+00  0.00000000E+00  0.00000000E+00
  0.00000000E+00  0.00000000E+00  0.00000000E+00
  0.00000000E+00  0.00000000E+00  0.00000000E+00
  0.00000000E+00  0.00000000E+00  0.00000000E+00
  0.00000000E+00  0.00000000E+00  0.00000000E+00
  0.00000000E+00  0.00000000E+00  0.00000000E+00
  0.00000000E+00  0.00000000E+00  0.00000000E+00
  0.00000000E+00  0.00000000E+00  0.00000000E+00
  0.00000000E+00  0.00000000E+00  0.00000000E+00
  0.00000000E+00  0.00000000E+00  0.00000000E+00
  0.00000000E+00  0.00000000E+00  0.00000000E+00
  0.00000000E+00  0.00000000E+00  0.00000000E+00
  0.00000000E+00  0.00000000E+00  0.00000000E+00
  0.00000000E+00  0.00000000E+00  0.00000000E+00
  0.00000000E+00  0.00000000E+00  0.00000000E+00
  0.00000000E+00  0.00000000E+00  0.00000000E+00
  0.00000000E+00  0.00000000E+00  0.00000000E+00
  0.00000000E+00  0.00000000E+00  0.00000000E+00
  0.00000000E+00  0.00000000E+00  0.00000000E+00
  0.00000000E+00  0.00000000E+00  0.00000000E+00
  0.00000000E+00  0.00000000E+00  0.00000000E+00
  0.00000000E+00  0.00000000E+00  0.00000000E+00
  0.00000000E+00  0.00000000E+00  0.00000000E+00
