 Ti2 O2 F2                              
   1.00000000000000     
     2.9526989730966542    0.0000000000000000    0.0000000000000000
     0.0000000000000000    3.9482006598790216    0.0000000000000000
     0.0000000000000000    0.0000000000000000   19.0768333165800037
   Ti   O    F 
     2     2     2
Direct
  0.4999999990489314  0.0000000001850324  0.5404178571209215
  0.0000000008948859  0.4999999997831495  0.4595834449917646
  0.9999999992946655  0.9999999996966977  0.4644068089169622
  0.5000000007772769  0.5000000001825455  0.5355956767148200
  0.9999999995525144  0.9999999998132694  0.6107538752020503
  0.5000000004317329  0.5000000003393126  0.3892423370534814
 
  0.00000000E+00  0.00000000E+00  0.00000000E+00
  0.00000000E+00  0.00000000E+00  0.00000000E+00
  0.00000000E+00  0.00000000E+00  0.00000000E+00
  0.00000000E+00  0.00000000E+00  0.00000000E+00
  0.00000000E+00  0.00000000E+00  0.00000000E+00
  0.00000000E+00  0.00000000E+00  0.00000000E+00
