G   68   51    1    0.005     # Parameters to Generate KPOINTS (Don't Edit This Line)
     910
Reciprocal lattice
    0.000000000000    0.000000000000    0.000000000000       1
    0.014705882353    0.000000000000    0.000000000000       2
    0.029411764706    0.000000000000    0.000000000000       2
    0.044117647059    0.000000000000    0.000000000000       2
    0.058823529412    0.000000000000    0.000000000000       2
    0.073529411765    0.000000000000    0.000000000000       2
    0.088235294118    0.000000000000    0.000000000000       2
    0.102941176471    0.000000000000    0.000000000000       2
    0.117647058824    0.000000000000    0.000000000000       2
    0.132352941176    0.000000000000    0.000000000000       2
    0.147058823529    0.000000000000    0.000000000000       2
    0.161764705882    0.000000000000    0.000000000000       2
    0.176470588235    0.000000000000    0.000000000000       2
    0.191176470588    0.000000000000    0.000000000000       2
    0.205882352941    0.000000000000    0.000000000000       2
    0.220588235294    0.000000000000    0.000000000000       2
    0.235294117647    0.000000000000    0.000000000000       2
    0.250000000000    0.000000000000    0.000000000000       2
    0.264705882353    0.000000000000    0.000000000000       2
    0.279411764706    0.000000000000    0.000000000000       2
    0.294117647059    0.000000000000    0.000000000000       2
    0.308823529412    0.000000000000    0.000000000000       2
    0.323529411765    0.000000000000    0.000000000000       2
    0.338235294118    0.000000000000    0.000000000000       2
    0.352941176471    0.000000000000    0.000000000000       2
    0.367647058824    0.000000000000    0.000000000000       2
    0.382352941176    0.000000000000    0.000000000000       2
    0.397058823529    0.000000000000    0.000000000000       2
    0.411764705882    0.000000000000    0.000000000000       2
    0.426470588235    0.000000000000    0.000000000000       2
    0.441176470588    0.000000000000    0.000000000000       2
    0.455882352941    0.000000000000    0.000000000000       2
    0.470588235294    0.000000000000    0.000000000000       2
    0.485294117647    0.000000000000    0.000000000000       2
    0.500000000000    0.000000000000    0.000000000000       1
    0.000000000000    0.019607843137    0.000000000000       2
    0.014705882353    0.019607843137    0.000000000000       4
    0.029411764706    0.019607843137    0.000000000000       4
    0.044117647059    0.019607843137    0.000000000000       4
    0.058823529412    0.019607843137    0.000000000000       4
    0.073529411765    0.019607843137    0.000000000000       4
    0.088235294118    0.019607843137    0.000000000000       4
    0.102941176471    0.019607843137    0.000000000000       4
    0.117647058824    0.019607843137    0.000000000000       4
    0.132352941176    0.019607843137    0.000000000000       4
    0.147058823529    0.019607843137    0.000000000000       4
    0.161764705882    0.019607843137    0.000000000000       4
    0.176470588235    0.019607843137    0.000000000000       4
    0.191176470588    0.019607843137    0.000000000000       4
    0.205882352941    0.019607843137    0.000000000000       4
    0.220588235294    0.019607843137    0.000000000000       4
    0.235294117647    0.019607843137    0.000000000000       4
    0.250000000000    0.019607843137    0.000000000000       4
    0.264705882353    0.019607843137    0.000000000000       4
    0.279411764706    0.019607843137    0.000000000000       4
    0.294117647059    0.019607843137    0.000000000000       4
    0.308823529412    0.019607843137    0.000000000000       4
    0.323529411765    0.019607843137    0.000000000000       4
    0.338235294118    0.019607843137    0.000000000000       4
    0.352941176471    0.019607843137    0.000000000000       4
    0.367647058824    0.019607843137    0.000000000000       4
    0.382352941176    0.019607843137    0.000000000000       4
    0.397058823529    0.019607843137    0.000000000000       4
    0.411764705882    0.019607843137    0.000000000000       4
    0.426470588235    0.019607843137    0.000000000000       4
    0.441176470588    0.019607843137    0.000000000000       4
    0.455882352941    0.019607843137    0.000000000000       4
    0.470588235294    0.019607843137    0.000000000000       4
    0.485294117647    0.019607843137    0.000000000000       4
    0.500000000000    0.019607843137    0.000000000000       2
    0.000000000000    0.039215686275    0.000000000000       2
    0.014705882353    0.039215686275    0.000000000000       4
    0.029411764706    0.039215686275    0.000000000000       4
    0.044117647059    0.039215686275    0.000000000000       4
    0.058823529412    0.039215686275    0.000000000000       4
    0.073529411765    0.039215686275    0.000000000000       4
    0.088235294118    0.039215686275    0.000000000000       4
    0.102941176471    0.039215686275    0.000000000000       4
    0.117647058824    0.039215686275    0.000000000000       4
    0.132352941176    0.039215686275    0.000000000000       4
    0.147058823529    0.039215686275    0.000000000000       4
    0.161764705882    0.039215686275    0.000000000000       4
    0.176470588235    0.039215686275    0.000000000000       4
    0.191176470588    0.039215686275    0.000000000000       4
    0.205882352941    0.039215686275    0.000000000000       4
    0.220588235294    0.039215686275    0.000000000000       4
    0.235294117647    0.039215686275    0.000000000000       4
    0.250000000000    0.039215686275    0.000000000000       4
    0.264705882353    0.039215686275    0.000000000000       4
    0.279411764706    0.039215686275    0.000000000000       4
    0.294117647059    0.039215686275    0.000000000000       4
    0.308823529412    0.039215686275    0.000000000000       4
    0.323529411765    0.039215686275    0.000000000000       4
    0.338235294118    0.039215686275    0.000000000000       4
    0.352941176471    0.039215686275    0.000000000000       4
    0.367647058824    0.039215686275    0.000000000000       4
    0.382352941176    0.039215686275    0.000000000000       4
    0.397058823529    0.039215686275    0.000000000000       4
    0.411764705882    0.039215686275    0.000000000000       4
    0.426470588235    0.039215686275    0.000000000000       4
    0.441176470588    0.039215686275    0.000000000000       4
    0.455882352941    0.039215686275    0.000000000000       4
    0.470588235294    0.039215686275    0.000000000000       4
    0.485294117647    0.039215686275    0.000000000000       4
    0.500000000000    0.039215686275    0.000000000000       2
    0.000000000000    0.058823529412    0.000000000000       2
    0.014705882353    0.058823529412    0.000000000000       4
    0.029411764706    0.058823529412    0.000000000000       4
    0.044117647059    0.058823529412    0.000000000000       4
    0.058823529412    0.058823529412    0.000000000000       4
    0.073529411765    0.058823529412    0.000000000000       4
    0.088235294118    0.058823529412    0.000000000000       4
    0.102941176471    0.058823529412    0.000000000000       4
    0.117647058824    0.058823529412    0.000000000000       4
    0.132352941176    0.058823529412    0.000000000000       4
    0.147058823529    0.058823529412    0.000000000000       4
    0.161764705882    0.058823529412    0.000000000000       4
    0.176470588235    0.058823529412    0.000000000000       4
    0.191176470588    0.058823529412    0.000000000000       4
    0.205882352941    0.058823529412    0.000000000000       4
    0.220588235294    0.058823529412    0.000000000000       4
    0.235294117647    0.058823529412    0.000000000000       4
    0.250000000000    0.058823529412    0.000000000000       4
    0.264705882353    0.058823529412    0.000000000000       4
    0.279411764706    0.058823529412    0.000000000000       4
    0.294117647059    0.058823529412    0.000000000000       4
    0.308823529412    0.058823529412    0.000000000000       4
    0.323529411765    0.058823529412    0.000000000000       4
    0.338235294118    0.058823529412    0.000000000000       4
    0.352941176471    0.058823529412    0.000000000000       4
    0.367647058824    0.058823529412    0.000000000000       4
    0.382352941176    0.058823529412    0.000000000000       4
    0.397058823529    0.058823529412    0.000000000000       4
    0.411764705882    0.058823529412    0.000000000000       4
    0.426470588235    0.058823529412    0.000000000000       4
    0.441176470588    0.058823529412    0.000000000000       4
    0.455882352941    0.058823529412    0.000000000000       4
    0.470588235294    0.058823529412    0.000000000000       4
    0.485294117647    0.058823529412    0.000000000000       4
    0.500000000000    0.058823529412    0.000000000000       2
    0.000000000000    0.078431372549    0.000000000000       2
    0.014705882353    0.078431372549    0.000000000000       4
    0.029411764706    0.078431372549    0.000000000000       4
    0.044117647059    0.078431372549    0.000000000000       4
    0.058823529412    0.078431372549    0.000000000000       4
    0.073529411765    0.078431372549    0.000000000000       4
    0.088235294118    0.078431372549    0.000000000000       4
    0.102941176471    0.078431372549    0.000000000000       4
    0.117647058824    0.078431372549    0.000000000000       4
    0.132352941176    0.078431372549    0.000000000000       4
    0.147058823529    0.078431372549    0.000000000000       4
    0.161764705882    0.078431372549    0.000000000000       4
    0.176470588235    0.078431372549    0.000000000000       4
    0.191176470588    0.078431372549    0.000000000000       4
    0.205882352941    0.078431372549    0.000000000000       4
    0.220588235294    0.078431372549    0.000000000000       4
    0.235294117647    0.078431372549    0.000000000000       4
    0.250000000000    0.078431372549    0.000000000000       4
    0.264705882353    0.078431372549    0.000000000000       4
    0.279411764706    0.078431372549    0.000000000000       4
    0.294117647059    0.078431372549    0.000000000000       4
    0.308823529412    0.078431372549    0.000000000000       4
    0.323529411765    0.078431372549    0.000000000000       4
    0.338235294118    0.078431372549    0.000000000000       4
    0.352941176471    0.078431372549    0.000000000000       4
    0.367647058824    0.078431372549    0.000000000000       4
    0.382352941176    0.078431372549    0.000000000000       4
    0.397058823529    0.078431372549    0.000000000000       4
    0.411764705882    0.078431372549    0.000000000000       4
    0.426470588235    0.078431372549    0.000000000000       4
    0.441176470588    0.078431372549    0.000000000000       4
    0.455882352941    0.078431372549    0.000000000000       4
    0.470588235294    0.078431372549    0.000000000000       4
    0.485294117647    0.078431372549    0.000000000000       4
    0.500000000000    0.078431372549    0.000000000000       2
    0.000000000000    0.098039215686    0.000000000000       2
    0.014705882353    0.098039215686    0.000000000000       4
    0.029411764706    0.098039215686    0.000000000000       4
    0.044117647059    0.098039215686    0.000000000000       4
    0.058823529412    0.098039215686    0.000000000000       4
    0.073529411765    0.098039215686    0.000000000000       4
    0.088235294118    0.098039215686    0.000000000000       4
    0.102941176471    0.098039215686    0.000000000000       4
    0.117647058824    0.098039215686    0.000000000000       4
    0.132352941176    0.098039215686    0.000000000000       4
    0.147058823529    0.098039215686    0.000000000000       4
    0.161764705882    0.098039215686    0.000000000000       4
    0.176470588235    0.098039215686    0.000000000000       4
    0.191176470588    0.098039215686    0.000000000000       4
    0.205882352941    0.098039215686    0.000000000000       4
    0.220588235294    0.098039215686    0.000000000000       4
    0.235294117647    0.098039215686    0.000000000000       4
    0.250000000000    0.098039215686    0.000000000000       4
    0.264705882353    0.098039215686    0.000000000000       4
    0.279411764706    0.098039215686    0.000000000000       4
    0.294117647059    0.098039215686    0.000000000000       4
    0.308823529412    0.098039215686    0.000000000000       4
    0.323529411765    0.098039215686    0.000000000000       4
    0.338235294118    0.098039215686    0.000000000000       4
    0.352941176471    0.098039215686    0.000000000000       4
    0.367647058824    0.098039215686    0.000000000000       4
    0.382352941176    0.098039215686    0.000000000000       4
    0.397058823529    0.098039215686    0.000000000000       4
    0.411764705882    0.098039215686    0.000000000000       4
    0.426470588235    0.098039215686    0.000000000000       4
    0.441176470588    0.098039215686    0.000000000000       4
    0.455882352941    0.098039215686    0.000000000000       4
    0.470588235294    0.098039215686    0.000000000000       4
    0.485294117647    0.098039215686    0.000000000000       4
    0.500000000000    0.098039215686    0.000000000000       2
    0.000000000000    0.117647058824    0.000000000000       2
    0.014705882353    0.117647058824    0.000000000000       4
    0.029411764706    0.117647058824    0.000000000000       4
    0.044117647059    0.117647058824    0.000000000000       4
    0.058823529412    0.117647058824    0.000000000000       4
    0.073529411765    0.117647058824    0.000000000000       4
    0.088235294118    0.117647058824    0.000000000000       4
    0.102941176471    0.117647058824    0.000000000000       4
    0.117647058824    0.117647058824    0.000000000000       4
    0.132352941176    0.117647058824    0.000000000000       4
    0.147058823529    0.117647058824    0.000000000000       4
    0.161764705882    0.117647058824    0.000000000000       4
    0.176470588235    0.117647058824    0.000000000000       4
    0.191176470588    0.117647058824    0.000000000000       4
    0.205882352941    0.117647058824    0.000000000000       4
    0.220588235294    0.117647058824    0.000000000000       4
    0.235294117647    0.117647058824    0.000000000000       4
    0.250000000000    0.117647058824    0.000000000000       4
    0.264705882353    0.117647058824    0.000000000000       4
    0.279411764706    0.117647058824    0.000000000000       4
    0.294117647059    0.117647058824    0.000000000000       4
    0.308823529412    0.117647058824    0.000000000000       4
    0.323529411765    0.117647058824    0.000000000000       4
    0.338235294118    0.117647058824    0.000000000000       4
    0.352941176471    0.117647058824    0.000000000000       4
    0.367647058824    0.117647058824    0.000000000000       4
    0.382352941176    0.117647058824    0.000000000000       4
    0.397058823529    0.117647058824    0.000000000000       4
    0.411764705882    0.117647058824    0.000000000000       4
    0.426470588235    0.117647058824    0.000000000000       4
    0.441176470588    0.117647058824    0.000000000000       4
    0.455882352941    0.117647058824    0.000000000000       4
    0.470588235294    0.117647058824    0.000000000000       4
    0.485294117647    0.117647058824    0.000000000000       4
    0.500000000000    0.117647058824    0.000000000000       2
    0.000000000000    0.137254901961    0.000000000000       2
    0.014705882353    0.137254901961    0.000000000000       4
    0.029411764706    0.137254901961    0.000000000000       4
    0.044117647059    0.137254901961    0.000000000000       4
    0.058823529412    0.137254901961    0.000000000000       4
    0.073529411765    0.137254901961    0.000000000000       4
    0.088235294118    0.137254901961    0.000000000000       4
    0.102941176471    0.137254901961    0.000000000000       4
    0.117647058824    0.137254901961    0.000000000000       4
    0.132352941176    0.137254901961    0.000000000000       4
    0.147058823529    0.137254901961    0.000000000000       4
    0.161764705882    0.137254901961    0.000000000000       4
    0.176470588235    0.137254901961    0.000000000000       4
    0.191176470588    0.137254901961    0.000000000000       4
    0.205882352941    0.137254901961    0.000000000000       4
    0.220588235294    0.137254901961    0.000000000000       4
    0.235294117647    0.137254901961    0.000000000000       4
    0.250000000000    0.137254901961    0.000000000000       4
    0.264705882353    0.137254901961    0.000000000000       4
    0.279411764706    0.137254901961    0.000000000000       4
    0.294117647059    0.137254901961    0.000000000000       4
    0.308823529412    0.137254901961    0.000000000000       4
    0.323529411765    0.137254901961    0.000000000000       4
    0.338235294118    0.137254901961    0.000000000000       4
    0.352941176471    0.137254901961    0.000000000000       4
    0.367647058824    0.137254901961    0.000000000000       4
    0.382352941176    0.137254901961    0.000000000000       4
    0.397058823529    0.137254901961    0.000000000000       4
    0.411764705882    0.137254901961    0.000000000000       4
    0.426470588235    0.137254901961    0.000000000000       4
    0.441176470588    0.137254901961    0.000000000000       4
    0.455882352941    0.137254901961    0.000000000000       4
    0.470588235294    0.137254901961    0.000000000000       4
    0.485294117647    0.137254901961    0.000000000000       4
    0.500000000000    0.137254901961    0.000000000000       2
    0.000000000000    0.156862745098    0.000000000000       2
    0.014705882353    0.156862745098    0.000000000000       4
    0.029411764706    0.156862745098    0.000000000000       4
    0.044117647059    0.156862745098    0.000000000000       4
    0.058823529412    0.156862745098    0.000000000000       4
    0.073529411765    0.156862745098    0.000000000000       4
    0.088235294118    0.156862745098    0.000000000000       4
    0.102941176471    0.156862745098    0.000000000000       4
    0.117647058824    0.156862745098    0.000000000000       4
    0.132352941176    0.156862745098    0.000000000000       4
    0.147058823529    0.156862745098    0.000000000000       4
    0.161764705882    0.156862745098    0.000000000000       4
    0.176470588235    0.156862745098    0.000000000000       4
    0.191176470588    0.156862745098    0.000000000000       4
    0.205882352941    0.156862745098    0.000000000000       4
    0.220588235294    0.156862745098    0.000000000000       4
    0.235294117647    0.156862745098    0.000000000000       4
    0.250000000000    0.156862745098    0.000000000000       4
    0.264705882353    0.156862745098    0.000000000000       4
    0.279411764706    0.156862745098    0.000000000000       4
    0.294117647059    0.156862745098    0.000000000000       4
    0.308823529412    0.156862745098    0.000000000000       4
    0.323529411765    0.156862745098    0.000000000000       4
    0.338235294118    0.156862745098    0.000000000000       4
    0.352941176471    0.156862745098    0.000000000000       4
    0.367647058824    0.156862745098    0.000000000000       4
    0.382352941176    0.156862745098    0.000000000000       4
    0.397058823529    0.156862745098    0.000000000000       4
    0.411764705882    0.156862745098    0.000000000000       4
    0.426470588235    0.156862745098    0.000000000000       4
    0.441176470588    0.156862745098    0.000000000000       4
    0.455882352941    0.156862745098    0.000000000000       4
    0.470588235294    0.156862745098    0.000000000000       4
    0.485294117647    0.156862745098    0.000000000000       4
    0.500000000000    0.156862745098    0.000000000000       2
    0.000000000000    0.176470588235    0.000000000000       2
    0.014705882353    0.176470588235    0.000000000000       4
    0.029411764706    0.176470588235    0.000000000000       4
    0.044117647059    0.176470588235    0.000000000000       4
    0.058823529412    0.176470588235    0.000000000000       4
    0.073529411765    0.176470588235    0.000000000000       4
    0.088235294118    0.176470588235    0.000000000000       4
    0.102941176471    0.176470588235    0.000000000000       4
    0.117647058824    0.176470588235    0.000000000000       4
    0.132352941176    0.176470588235    0.000000000000       4
    0.147058823529    0.176470588235    0.000000000000       4
    0.161764705882    0.176470588235    0.000000000000       4
    0.176470588235    0.176470588235    0.000000000000       4
    0.191176470588    0.176470588235    0.000000000000       4
    0.205882352941    0.176470588235    0.000000000000       4
    0.220588235294    0.176470588235    0.000000000000       4
    0.235294117647    0.176470588235    0.000000000000       4
    0.250000000000    0.176470588235    0.000000000000       4
    0.264705882353    0.176470588235    0.000000000000       4
    0.279411764706    0.176470588235    0.000000000000       4
    0.294117647059    0.176470588235    0.000000000000       4
    0.308823529412    0.176470588235    0.000000000000       4
    0.323529411765    0.176470588235    0.000000000000       4
    0.338235294118    0.176470588235    0.000000000000       4
    0.352941176471    0.176470588235    0.000000000000       4
    0.367647058824    0.176470588235    0.000000000000       4
    0.382352941176    0.176470588235    0.000000000000       4
    0.397058823529    0.176470588235    0.000000000000       4
    0.411764705882    0.176470588235    0.000000000000       4
    0.426470588235    0.176470588235    0.000000000000       4
    0.441176470588    0.176470588235    0.000000000000       4
    0.455882352941    0.176470588235    0.000000000000       4
    0.470588235294    0.176470588235    0.000000000000       4
    0.485294117647    0.176470588235    0.000000000000       4
    0.500000000000    0.176470588235    0.000000000000       2
    0.000000000000    0.196078431373    0.000000000000       2
    0.014705882353    0.196078431373    0.000000000000       4
    0.029411764706    0.196078431373    0.000000000000       4
    0.044117647059    0.196078431373    0.000000000000       4
    0.058823529412    0.196078431373    0.000000000000       4
    0.073529411765    0.196078431373    0.000000000000       4
    0.088235294118    0.196078431373    0.000000000000       4
    0.102941176471    0.196078431373    0.000000000000       4
    0.117647058824    0.196078431373    0.000000000000       4
    0.132352941176    0.196078431373    0.000000000000       4
    0.147058823529    0.196078431373    0.000000000000       4
    0.161764705882    0.196078431373    0.000000000000       4
    0.176470588235    0.196078431373    0.000000000000       4
    0.191176470588    0.196078431373    0.000000000000       4
    0.205882352941    0.196078431373    0.000000000000       4
    0.220588235294    0.196078431373    0.000000000000       4
    0.235294117647    0.196078431373    0.000000000000       4
    0.250000000000    0.196078431373    0.000000000000       4
    0.264705882353    0.196078431373    0.000000000000       4
    0.279411764706    0.196078431373    0.000000000000       4
    0.294117647059    0.196078431373    0.000000000000       4
    0.308823529412    0.196078431373    0.000000000000       4
    0.323529411765    0.196078431373    0.000000000000       4
    0.338235294118    0.196078431373    0.000000000000       4
    0.352941176471    0.196078431373    0.000000000000       4
    0.367647058824    0.196078431373    0.000000000000       4
    0.382352941176    0.196078431373    0.000000000000       4
    0.397058823529    0.196078431373    0.000000000000       4
    0.411764705882    0.196078431373    0.000000000000       4
    0.426470588235    0.196078431373    0.000000000000       4
    0.441176470588    0.196078431373    0.000000000000       4
    0.455882352941    0.196078431373    0.000000000000       4
    0.470588235294    0.196078431373    0.000000000000       4
    0.485294117647    0.196078431373    0.000000000000       4
    0.500000000000    0.196078431373    0.000000000000       2
    0.000000000000    0.215686274510    0.000000000000       2
    0.014705882353    0.215686274510    0.000000000000       4
    0.029411764706    0.215686274510    0.000000000000       4
    0.044117647059    0.215686274510    0.000000000000       4
    0.058823529412    0.215686274510    0.000000000000       4
    0.073529411765    0.215686274510    0.000000000000       4
    0.088235294118    0.215686274510    0.000000000000       4
    0.102941176471    0.215686274510    0.000000000000       4
    0.117647058824    0.215686274510    0.000000000000       4
    0.132352941176    0.215686274510    0.000000000000       4
    0.147058823529    0.215686274510    0.000000000000       4
    0.161764705882    0.215686274510    0.000000000000       4
    0.176470588235    0.215686274510    0.000000000000       4
    0.191176470588    0.215686274510    0.000000000000       4
    0.205882352941    0.215686274510    0.000000000000       4
    0.220588235294    0.215686274510    0.000000000000       4
    0.235294117647    0.215686274510    0.000000000000       4
    0.250000000000    0.215686274510    0.000000000000       4
    0.264705882353    0.215686274510    0.000000000000       4
    0.279411764706    0.215686274510    0.000000000000       4
    0.294117647059    0.215686274510    0.000000000000       4
    0.308823529412    0.215686274510    0.000000000000       4
    0.323529411765    0.215686274510    0.000000000000       4
    0.338235294118    0.215686274510    0.000000000000       4
    0.352941176471    0.215686274510    0.000000000000       4
    0.367647058824    0.215686274510    0.000000000000       4
    0.382352941176    0.215686274510    0.000000000000       4
    0.397058823529    0.215686274510    0.000000000000       4
    0.411764705882    0.215686274510    0.000000000000       4
    0.426470588235    0.215686274510    0.000000000000       4
    0.441176470588    0.215686274510    0.000000000000       4
    0.455882352941    0.215686274510    0.000000000000       4
    0.470588235294    0.215686274510    0.000000000000       4
    0.485294117647    0.215686274510    0.000000000000       4
    0.500000000000    0.215686274510    0.000000000000       2
    0.000000000000    0.235294117647    0.000000000000       2
    0.014705882353    0.235294117647    0.000000000000       4
    0.029411764706    0.235294117647    0.000000000000       4
    0.044117647059    0.235294117647    0.000000000000       4
    0.058823529412    0.235294117647    0.000000000000       4
    0.073529411765    0.235294117647    0.000000000000       4
    0.088235294118    0.235294117647    0.000000000000       4
    0.102941176471    0.235294117647    0.000000000000       4
    0.117647058824    0.235294117647    0.000000000000       4
    0.132352941176    0.235294117647    0.000000000000       4
    0.147058823529    0.235294117647    0.000000000000       4
    0.161764705882    0.235294117647    0.000000000000       4
    0.176470588235    0.235294117647    0.000000000000       4
    0.191176470588    0.235294117647    0.000000000000       4
    0.205882352941    0.235294117647    0.000000000000       4
    0.220588235294    0.235294117647    0.000000000000       4
    0.235294117647    0.235294117647    0.000000000000       4
    0.250000000000    0.235294117647    0.000000000000       4
    0.264705882353    0.235294117647    0.000000000000       4
    0.279411764706    0.235294117647    0.000000000000       4
    0.294117647059    0.235294117647    0.000000000000       4
    0.308823529412    0.235294117647    0.000000000000       4
    0.323529411765    0.235294117647    0.000000000000       4
    0.338235294118    0.235294117647    0.000000000000       4
    0.352941176471    0.235294117647    0.000000000000       4
    0.367647058824    0.235294117647    0.000000000000       4
    0.382352941176    0.235294117647    0.000000000000       4
    0.397058823529    0.235294117647    0.000000000000       4
    0.411764705882    0.235294117647    0.000000000000       4
    0.426470588235    0.235294117647    0.000000000000       4
    0.441176470588    0.235294117647    0.000000000000       4
    0.455882352941    0.235294117647    0.000000000000       4
    0.470588235294    0.235294117647    0.000000000000       4
    0.485294117647    0.235294117647    0.000000000000       4
    0.500000000000    0.235294117647    0.000000000000       2
    0.000000000000    0.254901960784    0.000000000000       2
    0.014705882353    0.254901960784    0.000000000000       4
    0.029411764706    0.254901960784    0.000000000000       4
    0.044117647059    0.254901960784    0.000000000000       4
    0.058823529412    0.254901960784    0.000000000000       4
    0.073529411765    0.254901960784    0.000000000000       4
    0.088235294118    0.254901960784    0.000000000000       4
    0.102941176471    0.254901960784    0.000000000000       4
    0.117647058824    0.254901960784    0.000000000000       4
    0.132352941176    0.254901960784    0.000000000000       4
    0.147058823529    0.254901960784    0.000000000000       4
    0.161764705882    0.254901960784    0.000000000000       4
    0.176470588235    0.254901960784    0.000000000000       4
    0.191176470588    0.254901960784    0.000000000000       4
    0.205882352941    0.254901960784    0.000000000000       4
    0.220588235294    0.254901960784    0.000000000000       4
    0.235294117647    0.254901960784    0.000000000000       4
    0.250000000000    0.254901960784    0.000000000000       4
    0.264705882353    0.254901960784    0.000000000000       4