CONTCAR                                 
   1.00000000000000     
    11.1955995559999995    0.0000000000000000    0.0000000000000000
    -5.5977997779999997    9.6956736260999996    0.0000000000000000
     0.0000000000000000    0.0000000000000000   18.4459991455000001
   Ti   Te   O    H 
     9    18     1     1
Direct
  0.0042016942770999  0.0018767429456545  0.5025305253680230
  0.3360983000798683  0.0024753451094668  0.5025289434776710
  0.6813689504852789  0.0248339788856171  0.5021134591467913
  0.0019523850900072  0.3350665774227792  0.5033740490786016
  0.3360242500286219  0.3330897907221626  0.5026200050668521
  0.6707605275847044  0.3353553288312057  0.5033689292509393
  0.0018924530786606  0.6660795756067728  0.5033657649032506
  0.3133241296234814  0.6561275870167051  0.5020737470300958
  0.6815563733156011  0.6559832842290803  0.5021968036277755
  0.2252456392534015  0.1123575523327602  0.5987976891863838
  0.1143045372490832  0.2236374896394651  0.4076317388488633
  0.5578316905648251  0.1140528313292108  0.5992665117368574
  0.4472324558941594  0.2233751166688407  0.4074442045065538
  0.8942902094480516  0.1138443692837683  0.5991922506695104
  0.7838906566748562  0.2306920387003757  0.4043887737204059
  0.2235596147130821  0.4428910970707278  0.5992187461135430
  0.1062310080907380  0.5526074935603589  0.4044695404341070
  0.5579260935902823  0.4435892926074985  0.5993483604338365
  0.4486729854469615  0.5588966710987791  0.4120282389909491
  0.8915045670170869  0.4453523456839719  0.5990470481687566
  0.7839667692180896  0.5526439866122885  0.4042061209839858
  0.2235477691801222  0.7801875845353976  0.5992389470646984
  0.1143054000470300  0.8899524528739917  0.4076687361578664
  0.5586222731079715  0.7783603201952047  0.5767556323305243
  0.4488302517348259  0.8888769486630110  0.4121759301521593
  0.8947177940118678  0.7800895371426151  0.5992325094844873
  0.7781551583154496  0.8887963232775107  0.4121417372889553
  0.5615619567806149  0.7750057896909226  0.6856770771885508
  0.4684743500981838  0.7495230662638548  0.7018778925890103
 
  0.00000000E+00  0.00000000E+00  0.00000000E+00
  0.00000000E+00  0.00000000E+00  0.00000000E+00
  0.00000000E+00  0.00000000E+00  0.00000000E+00
  0.00000000E+00  0.00000000E+00  0.00000000E+00
  0.00000000E+00  0.00000000E+00  0.00000000E+00
  0.00000000E+00  0.00000000E+00  0.00000000E+00
  0.00000000E+00  0.00000000E+00  0.00000000E+00
  0.00000000E+00  0.00000000E+00  0.00000000E+00
  0.00000000E+00  0.00000000E+00  0.00000000E+00
  0.00000000E+00  0.00000000E+00  0.00000000E+00
  0.00000000E+00  0.00000000E+00  0.00000000E+00
  0.00000000E+00  0.00000000E+00  0.00000000E+00
  0.00000000E+00  0.00000000E+00  0.00000000E+00
  0.00000000E+00  0.00000000E+00  0.00000000E+00
  0.00000000E+00  0.00000000E+00  0.00000000E+00
  0.00000000E+00  0.00000000E+00  0.00000000E+00
  0.00000000E+00  0.00000000E+00  0.00000000E+00
  0.00000000E+00  0.00000000E+00  0.00000000E+00
  0.00000000E+00  0.00000000E+00  0.00000000E+00
  0.00000000E+00  0.00000000E+00  0.00000000E+00
  0.00000000E+00  0.00000000E+00  0.00000000E+00
  0.00000000E+00  0.00000000E+00  0.00000000E+00
  0.00000000E+00  0.00000000E+00  0.00000000E+00
  0.00000000E+00  0.00000000E+00  0.00000000E+00
  0.00000000E+00  0.00000000E+00  0.00000000E+00
  0.00000000E+00  0.00000000E+00  0.00000000E+00
  0.00000000E+00  0.00000000E+00  0.00000000E+00
  0.00000000E+00  0.00000000E+00  0.00000000E+00
  0.00000000E+00  0.00000000E+00  0.00000000E+00
