CONTCAR\(4)                             
   1.00000000000000     
    11.3158998488999991    0.0000000000000000    0.0000000000000000
     0.0000000000000000   12.4995002747000008    0.0000000000000000
     0.0000000000000000    0.0000000000000000   18.9974002838000011
   Ta   Te   Ir   O    H 
     6    24     6     2     1
Direct
 -0.0030891980313861  0.0468353295022015  0.5045559364411195
  0.1619029941819312  0.7241584019301490  0.4981021457636011
  0.3304075354263106  0.0454802768563499  0.5055166806221465
  0.4988220204564731  0.7236257182872073  0.4981309357358345
  0.6637655415720858  0.0469241269053231  0.5044581508731319
  0.8298417258894759  0.7250288278184905  0.4924772145642249
  0.1631558523233212  0.1008963516156423  0.6063182286329554
 -0.0055531877103185  0.8416312414562213  0.5788763497100603
 -0.0010749632977115  0.6751955483609005  0.3920613386143035
  0.1660271898753119  0.4314711891837854  0.4294209677512417
  0.1636810107715849  0.9295286782062786  0.4222802537263741
 -0.0017846702950496  0.1902370316651805  0.4003083375243670
 -0.0036069994370777  0.3461603538160186  0.5698124031180279
  0.1600473373551919  0.5805056635179596  0.6026365852397043
  0.4977160575398886  0.1012244200138081  0.6062184036041889
  0.3305298367283583  0.8393728623402253  0.5801046656719067
  0.3305013813449517  0.6717140857595901  0.3974146967561502
  0.4948312063765952  0.4318205354198229  0.4291437642500877
  0.4968804516228905  0.9292877773290900  0.4223715069163791
  0.3301749001298923  0.1891344060367953  0.4015191310259215
  0.3303493279736989  0.3417733572887722  0.5736972083328644
  0.5004397463229324  0.5795744150885741  0.6029708805626287
  0.8302740456649410  0.1034916822602990  0.6053170218540305
  0.6660102967949488  0.8416797432089758  0.5789370307835796
  0.6620021186622050  0.6760235523072434  0.3915465121189931
  0.8312622919194108  0.4284095956452692  0.4227016764701348
  0.8303240197454097  0.9318963869534015  0.4201474018689225
  0.6624456545297845  0.1902996764967936  0.4001671419083691
  0.6639591900004217  0.3469700956340863  0.5693615914590558
  0.8297839878948643  0.5808138748110397  0.5959757280501894
 -0.0040668244214126  0.5337737762284905  0.4985042029500194
  0.1637484760463375  0.2419232169141495  0.4983872237152972
  0.3305025888027579  0.5310570653448529  0.5059226479185652
  0.4967596406035125  0.2421810442268542  0.4981214445750577
  0.6655398372381355  0.5343832224492923  0.4975771594625930
  0.8303053018032636  0.2425026648938828  0.4963382452445076
  0.3348893628866609  0.6002690072313882  0.6780950025587599
  0.3434732876114755  0.6751824089322461  0.7365191468591443
  0.3486814280979114  0.6252522560633738  0.7762050427655980
 
  0.00000000E+00  0.00000000E+00  0.00000000E+00
  0.00000000E+00  0.00000000E+00  0.00000000E+00
  0.00000000E+00  0.00000000E+00  0.00000000E+00
  0.00000000E+00  0.00000000E+00  0.00000000E+00
  0.00000000E+00  0.00000000E+00  0.00000000E+00
  0.00000000E+00  0.00000000E+00  0.00000000E+00
  0.00000000E+00  0.00000000E+00  0.00000000E+00
  0.00000000E+00  0.00000000E+00  0.00000000E+00
  0.00000000E+00  0.00000000E+00  0.00000000E+00
  0.00000000E+00  0.00000000E+00  0.00000000E+00
  0.00000000E+00  0.00000000E+00  0.00000000E+00
  0.00000000E+00  0.00000000E+00  0.00000000E+00
  0.00000000E+00  0.00000000E+00  0.00000000E+00
  0.00000000E+00  0.00000000E+00  0.00000000E+00
  0.00000000E+00  0.00000000E+00  0.00000000E+00
  0.00000000E+00  0.00000000E+00  0.00000000E+00
  0.00000000E+00  0.00000000E+00  0.00000000E+00
  0.00000000E+00  0.00000000E+00  0.00000000E+00
  0.00000000E+00  0.00000000E+00  0.00000000E+00
  0.00000000E+00  0.00000000E+00  0.00000000E+00
  0.00000000E+00  0.00000000E+00  0.00000000E+00
  0.00000000E+00  0.00000000E+00  0.00000000E+00
  0.00000000E+00  0.00000000E+00  0.00000000E+00
  0.00000000E+00  0.00000000E+00  0.00000000E+00
  0.00000000E+00  0.00000000E+00  0.00000000E+00
  0.00000000E+00  0.00000000E+00  0.00000000E+00
  0.00000000E+00  0.00000000E+00  0.00000000E+00
  0.00000000E+00  0.00000000E+00  0.00000000E+00
  0.00000000E+00  0.00000000E+00  0.00000000E+00
  0.00000000E+00  0.00000000E+00  0.00000000E+00
  0.00000000E+00  0.00000000E+00  0.00000000E+00
  0.00000000E+00  0.00000000E+00  0.00000000E+00
  0.00000000E+00  0.00000000E+00  0.00000000E+00
  0.00000000E+00  0.00000000E+00  0.00000000E+00
  0.00000000E+00  0.00000000E+00  0.00000000E+00
  0.00000000E+00  0.00000000E+00  0.00000000E+00
  0.00000000E+00  0.00000000E+00  0.00000000E+00
  0.00000000E+00  0.00000000E+00  0.00000000E+00
  0.00000000E+00  0.00000000E+00  0.00000000E+00
