CONTCAR\(2)                             
   1.00000000000000     
    21.4713001251000009    0.0000000000000000    0.0000000000000000
    10.7356067371999995   19.1142855119999986    0.0000000000000000
     0.0000000000000000    0.0000000000000000   19.1464004516999999
   Ta   Te   O    H 
    36    72     2     1
Direct
  0.4036002833405812  0.3594362799113376  0.5004602490566638
  0.2619167313551169  0.1429771613183635  0.4964646236225973
  0.0979901957896939  0.1431971949775272  0.4954772387962538
  0.2409142437689145  0.3567806628934909  0.4983479860616040
  0.4310314283119527  0.1434690650589820  0.4947060804606778
  0.0736249137725393  0.3552915921238002  0.4996446361166198
  0.0989160430397512  0.9990742088103783  0.4982428823107257
  0.4031777851843170  0.9977161982342826  0.5006355313150365
  0.2520298528116216  0.9978209449356256  0.4995099918150616
  0.9066467797141434  0.3546707717927629  0.4991756015077448
  0.7587866234540854  0.1447897589295095  0.4972563370173080
  0.5975017898335684  0.1445574946590359  0.4963522699508870
  0.7416907226397792  0.3579519755254099  0.5082267424520132
  0.9267859451179864  0.1442862206624645  0.4938570670158100
  0.5724809480918589  0.3608236570309673  0.5064870513474469
  0.5987652733887122  0.0010930831446198  0.4989830117568414
  0.9001976015482280  0.0015975659322050  0.4980933487073539
  0.7493071753975885  0.0019974361253297  0.4982263497578776
  0.3977764930797074  0.8571288483210441  0.5052303258267279
  0.2524881857457844  0.6454002661262626  0.4982234031108348
  0.0967887328236303  0.6436275264734774  0.4952787034384881
  0.2444415467476656  0.8522654915839731  0.5032849657939659
  0.3823632574925561  0.6726018810637705  0.5011097625018779
  0.0762074398905408  0.8550737585883764  0.5018157871691697
  0.0975939766817134  0.5003033599285804  0.4970731261702778
  0.3963059547407866  0.5082984469985836  0.5013126508104224
  0.2493967879813534  0.5030223883042053  0.4978661196235907
  0.9046529174822621  0.8570182085236105  0.4995629541647345
  0.7632101993935390  0.6413295625460079  0.5026864416368350
  0.6077470201261665  0.6372303867237173  0.5159257258406779
  0.7412910826310359  0.8568412167480149  0.5008040122362696
  0.9305473028715889  0.6427715426155637  0.4953843127549158
  0.5700356033257027  0.8559994131556417  0.5079473551877381
  0.6053269577226569  0.4938953800841746  0.5124662665922591
  0.9048572381409272  0.4983006872626584  0.5004464486979315
  0.7552228795782056  0.4970888035618553  0.5068024367882444
  0.4716740335462764  0.2257680049081342  0.5766640611332753
  0.1974146558227750  0.2751758630240983  0.4181782970847500
  0.0300277483710719  0.2753194863730092  0.4171074607768918
  0.3062680164785052  0.2242840902221318  0.5762142202880979
  0.3643608549417852  0.2761457321305518  0.4187599337830364
  0.1393794353196738  0.2243657273183504  0.5776122602611382
  0.3586315587878904  0.4489915023509666  0.3914696453010387
  0.3038647010371066  0.0550950426980699  0.6070833031747596
  0.1418890107446308  0.0548233572082374  0.6058227341653368
  0.1987232936218704  0.1059713927220593  0.3918791067210189
  0.3035005233930254  0.3926912971200492  0.6040638664836855
  0.3646901099358857  0.1046895599290949  0.3940512334440250
  0.4656680368784080  0.3985321864521587  0.6050211797971284
  0.1397896680302318  0.3922409134245488  0.6019313482323405
  0.0316802122979955  0.1071329860511526  0.3930135434225518
  0.0240489447848654  0.4524242132807033  0.4008430867884145
  0.4770883908812320  0.0479578683683780  0.5950373275444462
  0.1967319231280085  0.4473148367928380  0.3896925598223395
  0.9736353422077062  0.2220125258530284  0.5768719429029123
  0.6950034856700014  0.2799777162842062  0.4238645572579205
  0.5299159103010717  0.2803887242889248  0.4219362529791237
  0.8066729505829412  0.2220074179937055  0.5802967102327374
  0.8600223764972562  0.2775919437364014  0.4182787345808525
  0.6369693059293721  0.2258796741032421  0.5802770977096758
  0.8569771591235917  0.4476403350491916  0.3927041798368088
  0.8030883169512457  0.0551935378112192  0.6068202454462635
  0.6422136021476906  0.0556421883260231  0.6066234526325955
  0.6960012630965193  0.1093803726251317  0.3907763857565495
  0.8174139286472458  0.3813745404287718  0.6105401769168423
  0.8595156207236093  0.1086586792004951  0.3922464626946098
  0.9736537545849839  0.3897755173400458  0.6034929983409707
  0.6422866209842180  0.3835436216044305  0.6144474313839924
  0.5330907583406396  0.1069994139288502  0.3922095041168564
  0.5232035263209430  0.4620748320553457  0.4104268973736193
  0.9749863539422611  0.0486627798407573  0.5938317809278875
  0.6947179494075166  0.4501799411749401  0.3987444816671367
  0.4303057423106716  0.7429115900735366  0.5965132809350867
  0.1931473811459404  0.7767313934425070  0.4176361119946115
  0.0279990735557176  0.7768368129177966  0.4180918657239958
  0.2817052488661393  0.7291600833977380  0.5997491386317656
  0.3577819266775625  0.7817778017829794  0.4084831355705346
  0.1308920555049501  0.7260884701088924  0.5843355295449776
  0.3600887296431196  0.9438083168747312  0.3924546962575625
  0.2991599622769525  0.5559655780687094  0.6093956752196699
  0.1409150485454123  0.5541712387575443  0.6053503546153509
  0.1948678599634850  0.6081834539383766  0.3890850851229637
  0.2973957176963463  0.8983813575403911  0.6118677994080278
  0.3555643256317753  0.6090152498620021  0.3917957732583255
  0.4663310855033958  0.8932994307556882  0.6086304900610202
  0.1348872164887036  0.8975722236131120  0.6044711427416692
  0.0314211979209413  0.6074398174732041  0.3916685806105855
  0.0227660544096186  0.9536907986803272  0.4037571332824972
  0.4701877330064246  0.5609260843707783  0.5881549918226566
  0.1974983899313135  0.9434971906595329  0.3933565569704446
  0.9722293729700388  0.7249852563958552  0.5784493077208768
  0.6953196411153085  0.7748311240262518  0.4244550193020473
  0.5301237142418911  0.7674822288996099  0.4349705600017698
  0.8097510961130453  0.7248303526188923  0.5796427272881247
  0.8627163898778623  0.7748707612123712  0.4188708267835530
  0.6476814456998091  0.7278305230334778  0.5863206054609376
  0.8571396345514216  0.9469810488282059  0.3900895176425861
  0.8113675614383159  0.5502914671005741  0.6120118720274966
  0.6662818002448336  0.5183707667057982  0.6325822794285033
  0.6965500891512346  0.6073057450590233  0.3988995820861749
  0.8047727867469034  0.8931125692692566  0.6050246910157073
  0.8617009114539330  0.6069627589578951  0.3957564912417770
  0.9680968148154336  0.8945850280142232  0.6023948559081176
  0.6397311363528720  0.8946186765156391  0.6053342135035725
  0.5205318172319816  0.6161265029987075  0.4253385427906445
  0.5255309976963737  0.9491522791274201  0.4053990387429225
  0.9787367891414777  0.5464012425459545  0.5954798294826947
  0.6964303399558675  0.9462236781054317  0.3909741859611194
  0.5379569876502304  0.6738715195567594  0.5861535061409968
  0.6307395448877202  0.6079401646003102  0.6877185721967620
  0.5874490381086702  0.6442561534155736  0.6640043781067487
 
  0.00000000E+00  0.00000000E+00  0.00000000E+00
  0.00000000E+00  0.00000000E+00  0.00000000E+00
  0.00000000E+00  0.00000000E+00  0.00000000E+00
  0.00000000E+00  0.00000000E+00  0.00000000E+00
  0.00000000E+00  0.00000000E+00  0.00000000E+00
  0.00000000E+00  0.00000000E+00  0.00000000E+00
  0.00000000E+00  0.00000000E+00  0.00000000E+00
  0.00000000E+00  0.00000000E+00  0.00000000E+00
  0.00000000E+00  0.00000000E+00  0.00000000E+00
  0.00000000E+00  0.00000000E+00  0.00000000E+00
  0.00000000E+00  0.00000000E+00  0.00000000E+00
  0.00000000E+00  0.00000000E+00  0.00000000E+00
  0.00000000E+00  0.00000000E+00  0.00000000E+00
  0.00000000E+00  0.00000000E+00  0.00000000E+00
  0.00000000E+00  0.00000000E+00  0.00000000E+00
  0.00000000E+00  0.00000000E+00  0.00000000E+00
  0.00000000E+00  0.00000000E+00  0.00000000E+00
  0.00000000E+00  0.00000000E+00  0.00000000E+00
  0.00000000E+00  0.00000000E+00  0.00000000E+00
  0.00000000E+00  0.00000000E+00  0.00000000E+00
  0.00000000E+00  0.00000000E+00  0.00000000E+00
  0.00000000E+00  0.00000000E+00  0.00000000E+00
  0.00000000E+00  0.00000000E+00  0.00000000E+00
  0.00000000E+00  0.00000000E+00  0.00000000E+00
  0.00000000E+00  0.00000000E+00  0.00000000E+00
  0.00000000E+00  0.00000000E+00  0.00000000E+00
  0.00000000E+00  0.00000000E+00  0.00000000E+00
  0.00000000E+00  0.00000000E+00  0.00000000E+00
  0.00000000E+00  0.00000000E+00  0.00000000E+00
  0.00000000E+00  0.00000000E+00  0.00000000E+00
  0.00000000E+00  0.00000000E+00  0.00000000E+00
  0.00000000E+00  0.00000000E+00  0.00000000E+00
  0.00000000E+00  0.00000000E+00  0.00000000E+00
  0.00000000E+00  0.00000000E+00  0.00000000E+00
  0.00000000E+00  0.00000000E+00  0.00000000E+00
  0.00000000E+00  0.00000000E+00  0.00000000E+00
  0.00000000E+00  0.00000000E+00  0.00000000E+00
  0.00000000E+00  0.00000000E+00  0.00000000E+00
  0.00000000E+00  0.00000000E+00  0.00000000E+00
  0.00000000E+00  0.00000000E+00  0.00000000E+00
  0.00000000E+00  0.00000000E+00  0.00000000E+00
  0.00000000E+00  0.00000000E+00  0.00000000E+00
  0.00000000E+00  0.00000000E+00  0.00000000E+00
  0.00000000E+00  0.00000000E+00  0.00000000E+00
  0.00000000E+00  0.00000000E+00  0.00000000E+00
  0.00000000E+00  0.00000000E+00  0.00000000E+00
  0.00000000E+00  0.00000000E+00  0.00000000E+00
  0.00000000E+00  0.00000000E+00  0.00000000E+00
  0.00000000E+00  0.00000000E+00  0.00000000E+00
  0.00000000E+00  0.00000000E+00  0.00000000E+00
  0.00000000E+00  0.00000000E+00  0.00000000E+00
  0.00000000E+00  0.00000000E+00  0.00000000E+00
  0.00000000E+00  0.00000000E+00  0.00000000E+00
  0.00000000E+00  0.00000000E+00  0.00000000E+00
  0.00000000E+00  0.00000000E+00  0.00000000E+00
  0.00000000E+00  0.00000000E+00  0.00000000E+00
  0.00000000E+00  0.00000000E+00  0.00000000E+00
  0.00000000E+00  0.00000000E+00  0.00000000E+00
  0.00000000E+00  0.00000000E+00  0.00000000E+00
  0.00000000E+00  0.00000000E+00  0.00000000E+00
  0.00000000E+00  0.00000000E+00  0.00000000E+00
  0.00000000E+00  0.00000000E+00  0.00000000E+00
  0.00000000E+00  0.00000000E+00  0.00000000E+00
  0.00000000E+00  0.00000000E+00  0.00000000E+00
  0.00000000E+00  0.00000000E+00  0.00000000E+00
  0.00000000E+00  0.00000000E+00  0.00000000E+00
  0.00000000E+00  0.00000000E+00  0.00000000E+00
  0.00000000E+00  0.00000000E+00  0.00000000E+00
  0.00000000E+00  0.00000000E+00  0.00000000E+00
  0.00000000E+00  0.00000000E+00  0.00000000E+00
  0.00000000E+00  0.00000000E+00  0.00000000E+00
  0.00000000E+00  0.00000000E+00  0.00000000E+00
  0.00000000E+00  0.00000000E+00  0.00000000E+00
  0.00000000E+00  0.00000000E+00  0.00000000E+00
  0.00000000E+00  0.00000000E+00  0.00000000E+00
  0.00000000E+00  0.00000000E+00  0.00000000E+00
  0.00000000E+00  0.00000000E+00  0.00000000E+00
  0.00000000E+00  0.00000000E+00  0.00000000E+00
  0.00000000E+00  0.00000000E+00  0.00000000E+00
  0.00000000E+00  0.00000000E+00  0.00000000E+00
  0.00000000E+00  0.00000000E+00  0.00000000E+00
  0.00000000E+00  0.00000000E+00  0.00000000E+00
  0.00000000E+00  0.00000000E+00  0.00000000E+00
  0.00000000E+00  0.00000000E+00  0.00000000E+00
  0.00000000E+00  0.00000000E+00  0.00000000E+00
  0.00000000E+00  0.00000000E+00  0.00000000E+00
  0.00000000E+00  0.00000000E+00  0.00000000E+00
  0.00000000E+00  0.00000000E+00  0.00000000E+00
  0.00000000E+00  0.00000000E+00  0.00000000E+00
  0.00000000E+00  0.00000000E+00  0.00000000E+00
  0.00000000E+00  0.00000000E+00  0.00000000E+00
  0.00000000E+00  0.00000000E+00  0.00000000E+00
  0.00000000E+00  0.00000000E+00  0.00000000E+00
  0.00000000E+00  0.00000000E+00  0.00000000E+00
  0.00000000E+00  0.00000000E+00  0.00000000E+00
  0.00000000E+00  0.00000000E+00  0.00000000E+00
  0.00000000E+00  0.00000000E+00  0.00000000E+00
  0.00000000E+00  0.00000000E+00  0.00000000E+00
  0.00000000E+00  0.00000000E+00  0.00000000E+00
  0.00000000E+00  0.00000000E+00  0.00000000E+00
  0.00000000E+00  0.00000000E+00  0.00000000E+00
  0.00000000E+00  0.00000000E+00  0.00000000E+00
  0.00000000E+00  0.00000000E+00  0.00000000E+00
  0.00000000E+00  0.00000000E+00  0.00000000E+00
  0.00000000E+00  0.00000000E+00  0.00000000E+00
  0.00000000E+00  0.00000000E+00  0.00000000E+00
  0.00000000E+00  0.00000000E+00  0.00000000E+00
  0.00000000E+00  0.00000000E+00  0.00000000E+00
  0.00000000E+00  0.00000000E+00  0.00000000E+00
  0.00000000E+00  0.00000000E+00  0.00000000E+00
  0.00000000E+00  0.00000000E+00  0.00000000E+00
