CONTCAR                                 
   1.00000000000000     
    14.0806999207000008    0.0000000000000000    0.0000000000000000
     0.0000000000000000   14.0806999207000008    0.0000000000000000
     0.0000000000000000    0.0000000000000000   21.7063999175999989
   Zr   Si   Se
    32    32    32
Direct
  0.1250000000000000  0.0000000000000000  0.5997475552058447
  0.0000000000000000  0.1250000000000000  0.4002524447941553
  0.3750000000000000  0.0000000000000000  0.5997475552058447
  0.2500000000000000  0.1250000000000000  0.4002524447941553
  0.6250000340000028  0.0000000000000000  0.5997475552058447
  0.5000000000000000  0.1250000000000000  0.4002524447941553
  0.8749999659999972  0.0000000000000000  0.5997475552058447
  0.7500000000000000  0.1250000000000000  0.4002524447941553
  0.1250000000000000  0.2500000000000000  0.5997475552058447
  0.0000000000000000  0.3750000000000000  0.4002524447941553
  0.3750000000000000  0.2500000000000000  0.5997475552058447
  0.2500000000000000  0.3750000000000000  0.4002524447941553
  0.6250000340000028  0.2500000000000000  0.5997475552058447
  0.5000000000000000  0.3750000000000000  0.4002524447941553
  0.8749999659999972  0.2500000000000000  0.5997475552058447
  0.7500000000000000  0.3750000000000000  0.4002524447941553
  0.1250000000000000  0.5000000000000000  0.5997475552058447
  0.0000000000000000  0.6250000340000028  0.4002524447941553
  0.3750000000000000  0.5000000000000000  0.5997475552058447
  0.2500000000000000  0.6250000340000028  0.4002524447941553
  0.6250000340000028  0.5000000000000000  0.5997475552058447
  0.5000000000000000  0.6250000340000028  0.4002524447941553
  0.8749999659999972  0.5000000000000000  0.5997475552058447
  0.7500000000000000  0.6250000340000028  0.4002524447941553
  0.1250000000000000  0.7500000000000000  0.5997475552058447
  0.0000000000000000  0.8749999659999972  0.4002524447941553
  0.3750000000000000  0.7500000000000000  0.5997475552058447
  0.2500000000000000  0.8749999659999972  0.4002524447941553
  0.6250000340000028  0.7500000000000000  0.5997475552058447
  0.5000000000000000  0.8749999659999972  0.4002524447941553
  0.8749999659999972  0.7500000000000000  0.5997475552058447
  0.7500000000000000  0.8749999659999972  0.4002524447941553
  0.0000000000000000  0.0000000000000000  0.5000000000000000
  0.1250000000000000  0.1250000000000000  0.5000000000000000
  0.2500000000000000  0.0000000000000000  0.5000000000000000
  0.3750000000000000  0.1250000000000000  0.5000000000000000
  0.5000000000000000  0.0000000000000000  0.5000000000000000
  0.6250000340000028  0.1250000000000000  0.5000000000000000
  0.7500000000000000  0.0000000000000000  0.5000000000000000
  0.8749999659999972  0.1250000000000000  0.5000000000000000
  0.0000000000000000  0.2500000000000000  0.5000000000000000
  0.1250000000000000  0.3750000000000000  0.5000000000000000
  0.2500000000000000  0.2500000000000000  0.5000000000000000
  0.3750000000000000  0.3750000000000000  0.5000000000000000
  0.5000000000000000  0.2500000000000000  0.5000000000000000
  0.6250000340000028  0.3750000000000000  0.5000000000000000
  0.7500000000000000  0.2500000000000000  0.5000000000000000
  0.8749999659999972  0.3750000000000000  0.5000000000000000
  0.0000000000000000  0.5000000000000000  0.5000000000000000
  0.1250000000000000  0.6250000340000028  0.5000000000000000
  0.2500000000000000  0.5000000000000000  0.5000000000000000
  0.3750000000000000  0.6250000340000028  0.5000000000000000
  0.5000000000000000  0.5000000000000000  0.5000000000000000
  0.6250000340000028  0.6250000340000028  0.5000000000000000
  0.7500000000000000  0.5000000000000000  0.5000000000000000
  0.8749999659999972  0.6250000340000028  0.5000000000000000
  0.0000000000000000  0.7500000000000000  0.5000000000000000
  0.1250000000000000  0.8749999659999972  0.5000000000000000
  0.2500000000000000  0.7500000000000000  0.5000000000000000
  0.3750000000000000  0.8749999659999972  0.5000000000000000
  0.5000000000000000  0.7500000000000000  0.5000000000000000
  0.6250000340000028  0.8749999659999972  0.5000000000000000
  0.7500000000000000  0.7500000000000000  0.5000000000000000
  0.8749999659999972  0.8749999659999972  0.5000000000000000
  0.0000000000000000  0.1250000000000000  0.6541610071770592
  0.1250000000000000  0.0000000000000000  0.3458389488229372
  0.2500000000000000  0.1250000000000000  0.6541610071770592
  0.3750000000000000  0.0000000000000000  0.3458389488229372
  0.5000000000000000  0.1250000000000000  0.6541610071770592
  0.6250000340000028  0.0000000000000000  0.3458389488229372
  0.7500000000000000  0.1250000000000000  0.6541610071770592
  0.8749999659999972  0.0000000000000000  0.3458389488229372
  0.0000000000000000  0.3750000000000000  0.6541610071770592
  0.1250000000000000  0.2500000000000000  0.3458389488229372
  0.2500000000000000  0.3750000000000000  0.6541610071770592
  0.3750000000000000  0.2500000000000000  0.3458389488229372
  0.5000000000000000  0.3750000000000000  0.6541610071770592
  0.6250000340000028  0.2500000000000000  0.3458389488229372
  0.7500000000000000  0.3750000000000000  0.6541610071770592
  0.8749999659999972  0.2500000000000000  0.3458389488229372
  0.0000000000000000  0.6250000340000028  0.6541610071770592
  0.1250000000000000  0.5000000000000000  0.3458389488229372
  0.2500000000000000  0.6250000340000028  0.6541610071770592
  0.3750000000000000  0.5000000000000000  0.3458389488229372
  0.5000000000000000  0.6250000340000028  0.6541610071770592
  0.6250000340000028  0.5000000000000000  0.3458389488229372
  0.7500000000000000  0.6250000340000028  0.6541610071770592
  0.8749999659999972  0.5000000000000000  0.3458389488229372
  0.0000000000000000  0.8749999659999972  0.6541610071770592
  0.1250000000000000  0.7500000000000000  0.3458389488229372
  0.2500000000000000  0.8749999659999972  0.6541610071770592
  0.3750000000000000  0.7500000000000000  0.3458389488229372
  0.5000000000000000  0.8749999659999972  0.6541610071770592
  0.6250000340000028  0.7500000000000000  0.3458389488229372
  0.7500000000000000  0.8749999659999972  0.6541610071770592
  0.8749999659999972  0.7500000000000000  0.3458389488229372
 
  0.00000000E+00  0.00000000E+00  0.00000000E+00
  0.00000000E+00  0.00000000E+00  0.00000000E+00
  0.00000000E+00  0.00000000E+00  0.00000000E+00
  0.00000000E+00  0.00000000E+00  0.00000000E+00
  0.00000000E+00  0.00000000E+00  0.00000000E+00
  0.00000000E+00  0.00000000E+00  0.00000000E+00
  0.00000000E+00  0.00000000E+00  0.00000000E+00
  0.00000000E+00  0.00000000E+00  0.00000000E+00
  0.00000000E+00  0.00000000E+00  0.00000000E+00
  0.00000000E+00  0.00000000E+00  0.00000000E+00
  0.00000000E+00  0.00000000E+00  0.00000000E+00
  0.00000000E+00  0.00000000E+00  0.00000000E+00
  0.00000000E+00  0.00000000E+00  0.00000000E+00
  0.00000000E+00  0.00000000E+00  0.00000000E+00
  0.00000000E+00  0.00000000E+00  0.00000000E+00
  0.00000000E+00  0.00000000E+00  0.00000000E+00
  0.00000000E+00  0.00000000E+00  0.00000000E+00
  0.00000000E+00  0.00000000E+00  0.00000000E+00
  0.00000000E+00  0.00000000E+00  0.00000000E+00
  0.00000000E+00  0.00000000E+00  0.00000000E+00
  0.00000000E+00  0.00000000E+00  0.00000000E+00
  0.00000000E+00  0.00000000E+00  0.00000000E+00
  0.00000000E+00  0.00000000E+00  0.00000000E+00
  0.00000000E+00  0.00000000E+00  0.00000000E+00
  0.00000000E+00  0.00000000E+00  0.00000000E+00
  0.00000000E+00  0.00000000E+00  0.00000000E+00
  0.00000000E+00  0.00000000E+00  0.00000000E+00
  0.00000000E+00  0.00000000E+00  0.00000000E+00
  0.00000000E+00  0.00000000E+00  0.00000000E+00
  0.00000000E+00  0.00000000E+00  0.00000000E+00
  0.00000000E+00  0.00000000E+00  0.00000000E+00
  0.00000000E+00  0.00000000E+00  0.00000000E+00
  0.00000000E+00  0.00000000E+00  0.00000000E+00
  0.00000000E+00  0.00000000E+00  0.00000000E+00
  0.00000000E+00  0.00000000E+00  0.00000000E+00
  0.00000000E+00  0.00000000E+00  0.00000000E+00
  0.00000000E+00  0.00000000E+00  0.00000000E+00
  0.00000000E+00  0.00000000E+00  0.00000000E+00
  0.00000000E+00  0.00000000E+00  0.00000000E+00
  0.00000000E+00  0.00000000E+00  0.00000000E+00
  0.00000000E+00  0.00000000E+00  0.00000000E+00
  0.00000000E+00  0.00000000E+00  0.00000000E+00
  0.00000000E+00  0.00000000E+00  0.00000000E+00
  0.00000000E+00  0.00000000E+00  0.00000000E+00
  0.00000000E+00  0.00000000E+00  0.00000000E+00
  0.00000000E+00  0.00000000E+00  0.00000000E+00
  0.00000000E+00  0.00000000E+00  0.00000000E+00
  0.00000000E+00  0.00000000E+00  0.00000000E+00
  0.00000000E+00  0.00000000E+00  0.00000000E+00
  0.00000000E+00  0.00000000E+00  0.00000000E+00
  0.00000000E+00  0.00000000E+00  0.00000000E+00
  0.00000000E+00  0.00000000E+00  0.00000000E+00
  0.00000000E+00  0.00000000E+00  0.00000000E+00
  0.00000000E+00  0.00000000E+00  0.00000000E+00
  0.00000000E+00  0.00000000E+00  0.00000000E+00
  0.00000000E+00  0.00000000E+00  0.00000000E+00
  0.00000000E+00  0.00000000E+00  0.00000000E+00
  0.00000000E+00  0.00000000E+00  0.00000000E+00
  0.00000000E+00  0.00000000E+00  0.00000000E+00
  0.00000000E+00  0.00000000E+00  0.00000000E+00
  0.00000000E+00  0.00000000E+00  0.00000000E+00
  0.00000000E+00  0.00000000E+00  0.00000000E+00
  0.00000000E+00  0.00000000E+00  0.00000000E+00
  0.00000000E+00  0.00000000E+00  0.00000000E+00
  0.00000000E+00  0.00000000E+00  0.00000000E+00
  0.00000000E+00  0.00000000E+00  0.00000000E+00
  0.00000000E+00  0.00000000E+00  0.00000000E+00
  0.00000000E+00  0.00000000E+00  0.00000000E+00
  0.00000000E+00  0.00000000E+00  0.00000000E+00
  0.00000000E+00  0.00000000E+00  0.00000000E+00
  0.00000000E+00  0.00000000E+00  0.00000000E+00
  0.00000000E+00  0.00000000E+00  0.00000000E+00
  0.00000000E+00  0.00000000E+00  0.00000000E+00
  0.00000000E+00  0.00000000E+00  0.00000000E+00
  0.00000000E+00  0.00000000E+00  0.00000000E+00
  0.00000000E+00  0.00000000E+00  0.00000000E+00
  0.00000000E+00  0.00000000E+00  0.00000000E+00
  0.00000000E+00  0.00000000E+00  0.00000000E+00
  0.00000000E+00  0.00000000E+00  0.00000000E+00
  0.00000000E+00  0.00000000E+00  0.00000000E+00
  0.00000000E+00  0.00000000E+00  0.00000000E+00
  0.00000000E+00  0.00000000E+00  0.00000000E+00
  0.00000000E+00  0.00000000E+00  0.00000000E+00
  0.00000000E+00  0.00000000E+00  0.00000000E+00
  0.00000000E+00  0.00000000E+00  0.00000000E+00
  0.00000000E+00  0.00000000E+00  0.00000000E+00
  0.00000000E+00  0.00000000E+00  0.00000000E+00
  0.00000000E+00  0.00000000E+00  0.00000000E+00
  0.00000000E+00  0.00000000E+00  0.00000000E+00
  0.00000000E+00  0.00000000E+00  0.00000000E+00
  0.00000000E+00  0.00000000E+00  0.00000000E+00
  0.00000000E+00  0.00000000E+00  0.00000000E+00
  0.00000000E+00  0.00000000E+00  0.00000000E+00
  0.00000000E+00  0.00000000E+00  0.00000000E+00
  0.00000000E+00  0.00000000E+00  0.00000000E+00
  0.00000000E+00  0.00000000E+00  0.00000000E+00
