CONTCAR\(3)                             
   1.00000000000000     
    13.8212003707999997    0.0000000000000000    0.0000000000000000
     2.2957132678000001   11.9646463987999994    0.0000000000000000
     0.0000000000000000    0.0000000000000000   19.5161991119000007
   Li   Cr   C    O    H 
     6     9    18    56     1
Direct
  0.0040025756357238  0.9942412887350830  0.6002950184298066
  0.2591666097946658  0.4422173559586475  0.4012938286758586
  0.3360514157665246  0.9928386235780177  0.6105349342454662
  0.5925779338263922  0.4421782932278220  0.4015011768146153
  0.6684078301609055  0.9941518854856104  0.6004459819870150
  0.9257552918824948  0.4423582787513287  0.4015286139817311
  0.1885595259421950  0.8836223677072784  0.5011939492962295
  0.2979148676520119  0.2173177535708306  0.5003502352883058
  0.0741171329841836  0.5536883954778068  0.4982621943062984
  0.5207490230671897  0.8833472304358029  0.5014298521142279
  0.6306272141659364  0.2179850825268818  0.5008991399951871
  0.4073343826166068  0.5540203059458191  0.4984637625334286
  0.8547076443700802  0.8831692479962362  0.5027342807069580
  0.9645703572377017  0.2178828218482735  0.5005862508867099
  0.7406713872908427  0.5536525421338780  0.4986584044447954
  0.1503965699904056  0.1091795477041079  0.5612867565623733
  0.2594716332446406  0.4411145082878190  0.5539111835230385
  0.1127335461147662  0.3263548984941090  0.4379641186879205
  0.0395036985377420  0.7710361356428534  0.5601377244705306
  0.2231355291443046  0.6660628209321483  0.4395327163654990
  0.0022845126902270 -0.0049707445679407  0.4461991037650125
  0.4819642187516067  0.1090307800278244  0.5618259265849109
  0.5926372829583577  0.4415554173750700  0.5544029173423350
  0.4460746411399598  0.3264905814856291  0.4381575585749464
  0.3720761593352542  0.7717313797815200  0.5589781413141430
  0.5566380967044144  0.6659413587328520  0.4396768102175324
  0.3359793351710139 -0.0046499152958786  0.4452984788876924
  0.8161288113754962  0.1097386049759579  0.5630835643655073
  0.9264205081806390  0.4415327957427458  0.5542496022301695
  0.7792913536870474  0.3263819420662621  0.4385454882271271
  0.7050371619968663  0.7708542369537537  0.5604461175046911
  0.8897158514773795  0.6661814979926097  0.4402453092075679
  0.6694485372375407 -0.0048523383667580  0.4464805572869304
  0.1648040296686075  0.4496837509600516  0.5524039676912226
  0.0968725338468400  0.9866854757401924  0.4468549299290829
  0.0746085042004542  0.2393786319348288  0.4417574497016614
  0.0579548754477866  0.4262253709914977  0.4328316131888862
  0.2055903166469769  0.0101276481978009  0.5646985003174251
  0.3155892157421560  0.3435145853146497  0.5553315072113499
  0.1875448066816738  0.1970680722178885  0.5580112070028578
  0.2977799908432534  0.5300063872511914  0.5533105847517810
  0.2776261831922309  0.7830497026029745  0.5600107691998447
  0.2079310430969306  0.3182343240810552  0.4359467822819684
  0.1822144132271243  0.5774025315574388  0.4343912026964569
  0.2971049759758259  0.9068941655238396  0.4452371771092097
  0.1674260597045055  0.7623545387849684  0.4434620609080828
  0.2802029353535117  0.0931992701951303  0.4439030640992220
  0.0953067841623058  0.6747596983239552  0.5556371579875025
  0.0802645759877375  0.8596899740099450  0.5650528760353919
  0.0548945469048905  0.1174312239500086  0.5640522463989806
  0.3176340695102944  0.6534381310924883  0.4383086878135729
  0.4979914175190399  0.4502157949202615  0.5527496128798687
  0.4306044862224887  0.9865027460699803  0.4465703849864677
  0.4081610962130417  0.2394382501264956  0.4418235469092139
  0.3914019638782739  0.4263116349301768  0.4328883752932949
  0.5375641848706468  0.0095715728718172  0.5662515696624857
  0.6485691464476531  0.3438258825217282  0.5561153967322140
  0.5201311172628130  0.1964037763464229  0.5588135288087163
  0.6312052752853098  0.5302326836716033  0.5537651485311877
  0.6106394034226437  0.7830619325550618  0.5609955941702661
  0.5413549846004426  0.3184593933691060  0.4364234426414419
  0.5158242243687869  0.5771968657039667  0.4346786538831859
  0.6309787187214372  0.9064658582831231  0.4466449672274279
  0.5008263408932290  0.7622106997419004  0.4432643097727393
  0.6133767966757803  0.0928316888797951  0.4448879850140718
  0.4280332691092216  0.6750140070550950  0.5556216048458446
  0.4120869732379187  0.8604861382018971  0.5629719158996369
  0.3871351613699397  0.1163538492877696  0.5633364544620270
  0.6511126889428934  0.6534283105879869  0.4385844723374186
  0.8317820243877306  0.4499836564404734  0.5527890409930797
  0.7640476423888558  0.9868402663254192  0.4484240017025406
  0.7413297188079448  0.2394063882113905  0.4426608895741277
  0.7245521438314014  0.4262050918617279  0.4332685091112664
  0.8710419522261049  0.0100237850199846  0.5684191401178811
  0.9825482608959787  0.3439283808568865  0.5556813019484234
  0.8540919652879760  0.1968249446648958  0.5591007100134981
  0.9647427829152485  0.5303996562068442  0.5535911408836414
  0.9450412803843723  0.7831704034491432  0.5621260161178588
  0.8745349748280891  0.3183129618907770  0.4363612537645760
  0.8489161810974112  0.5774928961312221  0.4349020569089367
  0.9639589722184558  0.9061951227811293  0.4471247592814200
  0.8338216324357706  0.7623184226716578  0.4448431283219508
  0.9460068211377602  0.0925888338235755  0.4451963353335098
  0.7610684305912712  0.6745680721930621  0.5564621334380908
  0.7459724534039989  0.8593716406302493  0.5662401694940713
  0.7208447347689191  0.1177699480255861  0.5650423970279020
  0.9841506257697777  0.6538478621504190  0.4385699240668907
  0.3264594045534978  0.9750565354006901  0.7093931637338214
  0.3772494569132659  0.8683144627670490  0.7248788542207931
  0.3616404937903460  0.8595510072997532  0.7736164607391567
 
  0.00000000E+00  0.00000000E+00  0.00000000E+00
  0.00000000E+00  0.00000000E+00  0.00000000E+00
  0.00000000E+00  0.00000000E+00  0.00000000E+00
  0.00000000E+00  0.00000000E+00  0.00000000E+00
  0.00000000E+00  0.00000000E+00  0.00000000E+00
  0.00000000E+00  0.00000000E+00  0.00000000E+00
  0.00000000E+00  0.00000000E+00  0.00000000E+00
  0.00000000E+00  0.00000000E+00  0.00000000E+00
  0.00000000E+00  0.00000000E+00  0.00000000E+00
  0.00000000E+00  0.00000000E+00  0.00000000E+00
  0.00000000E+00  0.00000000E+00  0.00000000E+00
  0.00000000E+00  0.00000000E+00  0.00000000E+00
  0.00000000E+00  0.00000000E+00  0.00000000E+00
  0.00000000E+00  0.00000000E+00  0.00000000E+00
  0.00000000E+00  0.00000000E+00  0.00000000E+00
  0.00000000E+00  0.00000000E+00  0.00000000E+00
  0.00000000E+00  0.00000000E+00  0.00000000E+00
  0.00000000E+00  0.00000000E+00  0.00000000E+00
  0.00000000E+00  0.00000000E+00  0.00000000E+00
  0.00000000E+00  0.00000000E+00  0.00000000E+00
  0.00000000E+00  0.00000000E+00  0.00000000E+00
  0.00000000E+00  0.00000000E+00  0.00000000E+00
  0.00000000E+00  0.00000000E+00  0.00000000E+00
  0.00000000E+00  0.00000000E+00  0.00000000E+00
  0.00000000E+00  0.00000000E+00  0.00000000E+00
  0.00000000E+00  0.00000000E+00  0.00000000E+00
  0.00000000E+00  0.00000000E+00  0.00000000E+00
  0.00000000E+00  0.00000000E+00  0.00000000E+00
  0.00000000E+00  0.00000000E+00  0.00000000E+00
  0.00000000E+00  0.00000000E+00  0.00000000E+00
  0.00000000E+00  0.00000000E+00  0.00000000E+00
  0.00000000E+00  0.00000000E+00  0.00000000E+00
  0.00000000E+00  0.00000000E+00  0.00000000E+00
  0.00000000E+00  0.00000000E+00  0.00000000E+00
  0.00000000E+00  0.00000000E+00  0.00000000E+00
  0.00000000E+00  0.00000000E+00  0.00000000E+00
  0.00000000E+00  0.00000000E+00  0.00000000E+00
  0.00000000E+00  0.00000000E+00  0.00000000E+00
  0.00000000E+00  0.00000000E+00  0.00000000E+00
  0.00000000E+00  0.00000000E+00  0.00000000E+00
  0.00000000E+00  0.00000000E+00  0.00000000E+00
  0.00000000E+00  0.00000000E+00  0.00000000E+00
  0.00000000E+00  0.00000000E+00  0.00000000E+00
  0.00000000E+00  0.00000000E+00  0.00000000E+00
  0.00000000E+00  0.00000000E+00  0.00000000E+00
  0.00000000E+00  0.00000000E+00  0.00000000E+00
  0.00000000E+00  0.00000000E+00  0.00000000E+00
  0.00000000E+00  0.00000000E+00  0.00000000E+00
  0.00000000E+00  0.00000000E+00  0.00000000E+00
  0.00000000E+00  0.00000000E+00  0.00000000E+00
  0.00000000E+00  0.00000000E+00  0.00000000E+00
  0.00000000E+00  0.00000000E+00  0.00000000E+00
  0.00000000E+00  0.00000000E+00  0.00000000E+00
  0.00000000E+00  0.00000000E+00  0.00000000E+00
  0.00000000E+00  0.00000000E+00  0.00000000E+00
  0.00000000E+00  0.00000000E+00  0.00000000E+00
  0.00000000E+00  0.00000000E+00  0.00000000E+00
  0.00000000E+00  0.00000000E+00  0.00000000E+00
  0.00000000E+00  0.00000000E+00  0.00000000E+00
  0.00000000E+00  0.00000000E+00  0.00000000E+00
  0.00000000E+00  0.00000000E+00  0.00000000E+00
  0.00000000E+00  0.00000000E+00  0.00000000E+00
  0.00000000E+00  0.00000000E+00  0.00000000E+00
  0.00000000E+00  0.00000000E+00  0.00000000E+00
  0.00000000E+00  0.00000000E+00  0.00000000E+00
  0.00000000E+00  0.00000000E+00  0.00000000E+00
  0.00000000E+00  0.00000000E+00  0.00000000E+00
  0.00000000E+00  0.00000000E+00  0.00000000E+00
  0.00000000E+00  0.00000000E+00  0.00000000E+00
  0.00000000E+00  0.00000000E+00  0.00000000E+00
  0.00000000E+00  0.00000000E+00  0.00000000E+00
  0.00000000E+00  0.00000000E+00  0.00000000E+00
  0.00000000E+00  0.00000000E+00  0.00000000E+00
  0.00000000E+00  0.00000000E+00  0.00000000E+00
  0.00000000E+00  0.00000000E+00  0.00000000E+00
  0.00000000E+00  0.00000000E+00  0.00000000E+00
  0.00000000E+00  0.00000000E+00  0.00000000E+00
  0.00000000E+00  0.00000000E+00  0.00000000E+00
  0.00000000E+00  0.00000000E+00  0.00000000E+00
  0.00000000E+00  0.00000000E+00  0.00000000E+00
  0.00000000E+00  0.00000000E+00  0.00000000E+00
  0.00000000E+00  0.00000000E+00  0.00000000E+00
  0.00000000E+00  0.00000000E+00  0.00000000E+00
  0.00000000E+00  0.00000000E+00  0.00000000E+00
  0.00000000E+00  0.00000000E+00  0.00000000E+00
  0.00000000E+00  0.00000000E+00  0.00000000E+00
  0.00000000E+00  0.00000000E+00  0.00000000E+00
  0.00000000E+00  0.00000000E+00  0.00000000E+00
  0.00000000E+00  0.00000000E+00  0.00000000E+00
  0.00000000E+00  0.00000000E+00  0.00000000E+00
