 Ag1 Bi2 F12                            
   1.00000000000000     
     4.7773956066714494    0.0000000000000000    0.0000000000000000
    -2.1875030216511075    4.7696329047835562    0.0000000000000000
     0.0000000000000000    0.0000000000000000   23.1357392679619949
   Ag   Bi   F 
     1     2    12
Direct
  0.8313154045239628  0.9094876897906587  0.5000039991811391
  0.1148307507639572  0.5109433646846142  0.6158609618829729
  0.5476712907317349  0.3080005668486621  0.3841463947222792
  0.5142022383539242  0.6059184982451598  0.4433946016572676
  0.1484840132415712  0.2131092043302658  0.5565869214520376
  0.9977904291812791  0.5600712554683653  0.3818193247268695
  0.0837528128250753  0.8385433675411775  0.6544420269020250
  0.5789318826111796  0.9804795944185969  0.3455572575265293
  0.5593182034869884  0.7301924100312220  0.5906493949328606
  0.1032754872070214  0.0885477138490813  0.4093593110112295
  0.0406914947943733  0.6552568148648419  0.5318929445334319
  0.6220696468257998  0.1637905761140388  0.4681062527695232
  0.2265089611570232  0.3704819765311385  0.6884105481540388
  0.4361830471435084  0.4485539153403906  0.3115795942489541
  0.6648133371525802  0.2586150519417814  0.6181904662988131
 
  0.00000000E+00  0.00000000E+00  0.00000000E+00
  0.00000000E+00  0.00000000E+00  0.00000000E+00
  0.00000000E+00  0.00000000E+00  0.00000000E+00
  0.00000000E+00  0.00000000E+00  0.00000000E+00
  0.00000000E+00  0.00000000E+00  0.00000000E+00
  0.00000000E+00  0.00000000E+00  0.00000000E+00
  0.00000000E+00  0.00000000E+00  0.00000000E+00
  0.00000000E+00  0.00000000E+00  0.00000000E+00
  0.00000000E+00  0.00000000E+00  0.00000000E+00
  0.00000000E+00  0.00000000E+00  0.00000000E+00
  0.00000000E+00  0.00000000E+00  0.00000000E+00
  0.00000000E+00  0.00000000E+00  0.00000000E+00
  0.00000000E+00  0.00000000E+00  0.00000000E+00
  0.00000000E+00  0.00000000E+00  0.00000000E+00
  0.00000000E+00  0.00000000E+00  0.00000000E+00
