G   46   42    1    0.005     # Parameters to Generate KPOINTS (Don't Edit This Line)
     968
Reciprocal lattice
    0.000000000000    0.000000000000    0.000000000000       1
    0.021739130435    0.000000000000    0.000000000000       2
    0.043478260870    0.000000000000    0.000000000000       2
    0.065217391304    0.000000000000    0.000000000000       2
    0.086956521739    0.000000000000    0.000000000000       2
    0.108695652174    0.000000000000    0.000000000000       2
    0.130434782609    0.000000000000    0.000000000000       2
    0.152173913043    0.000000000000    0.000000000000       2
    0.173913043478    0.000000000000    0.000000000000       2
    0.195652173913    0.000000000000    0.000000000000       2
    0.217391304348    0.000000000000    0.000000000000       2
    0.239130434783    0.000000000000    0.000000000000       2
    0.260869565217    0.000000000000    0.000000000000       2
    0.282608695652    0.000000000000    0.000000000000       2
    0.304347826087    0.000000000000    0.000000000000       2
    0.326086956522    0.000000000000    0.000000000000       2
    0.347826086957    0.000000000000    0.000000000000       2
    0.369565217391    0.000000000000    0.000000000000       2
    0.391304347826    0.000000000000    0.000000000000       2
    0.413043478261    0.000000000000    0.000000000000       2
    0.434782608696    0.000000000000    0.000000000000       2
    0.456521739130    0.000000000000    0.000000000000       2
    0.478260869565    0.000000000000    0.000000000000       2
    0.500000000000    0.000000000000    0.000000000000       1
    0.000000000000    0.023809523810    0.000000000000       2
    0.021739130435    0.023809523810    0.000000000000       2
    0.043478260870    0.023809523810    0.000000000000       2
    0.065217391304    0.023809523810    0.000000000000       2
    0.086956521739    0.023809523810    0.000000000000       2
    0.108695652174    0.023809523810    0.000000000000       2
    0.130434782609    0.023809523810    0.000000000000       2
    0.152173913043    0.023809523810    0.000000000000       2
    0.173913043478    0.023809523810    0.000000000000       2
    0.195652173913    0.023809523810    0.000000000000       2
    0.217391304348    0.023809523810    0.000000000000       2
    0.239130434783    0.023809523810    0.000000000000       2
    0.260869565217    0.023809523810    0.000000000000       2
    0.282608695652    0.023809523810    0.000000000000       2
    0.304347826087    0.023809523810    0.000000000000       2
    0.326086956522    0.023809523810    0.000000000000       2
    0.347826086957    0.023809523810    0.000000000000       2
    0.369565217391    0.023809523810    0.000000000000       2
    0.391304347826    0.023809523810    0.000000000000       2
    0.413043478261    0.023809523810    0.000000000000       2
    0.434782608696    0.023809523810    0.000000000000       2
    0.456521739130    0.023809523810    0.000000000000       2
    0.478260869565    0.023809523810    0.000000000000       2
    0.500000000000    0.023809523810    0.000000000000       2
   -0.478260869565    0.023809523810    0.000000000000       2
   -0.456521739130    0.023809523810    0.000000000000       2
   -0.434782608696    0.023809523810    0.000000000000       2
   -0.413043478261    0.023809523810    0.000000000000       2
   -0.391304347826    0.023809523810    0.000000000000       2
   -0.369565217391    0.023809523810    0.000000000000       2
   -0.347826086957    0.023809523810    0.000000000000       2
   -0.326086956522    0.023809523810    0.000000000000       2
   -0.304347826087    0.023809523810    0.000000000000       2
   -0.282608695652    0.023809523810    0.000000000000       2
   -0.260869565217    0.023809523810    0.000000000000       2
   -0.239130434783    0.023809523810    0.000000000000       2
   -0.217391304348    0.023809523810    0.000000000000       2
   -0.195652173913    0.023809523810    0.000000000000       2
   -0.173913043478    0.023809523810    0.000000000000       2
   -0.152173913043    0.023809523810    0.000000000000       2
   -0.130434782609    0.023809523810    0.000000000000       2
   -0.108695652174    0.023809523810    0.000000000000       2
   -0.086956521739    0.023809523810    0.000000000000       2
   -0.065217391304    0.023809523810    0.000000000000       2
   -0.043478260870    0.023809523810    0.000000000000       2
   -0.021739130435    0.023809523810    0.000000000000       2
    0.000000000000    0.047619047619    0.000000000000       2
    0.021739130435    0.047619047619    0.000000000000       2
    0.043478260870    0.047619047619    0.000000000000       2
    0.065217391304    0.047619047619    0.000000000000       2
    0.086956521739    0.047619047619    0.000000000000       2
    0.108695652174    0.047619047619    0.000000000000       2
    0.130434782609    0.047619047619    0.000000000000       2
    0.152173913043    0.047619047619    0.000000000000       2
    0.173913043478    0.047619047619    0.000000000000       2
    0.195652173913    0.047619047619    0.000000000000       2
    0.217391304348    0.047619047619    0.000000000000       2
    0.239130434783    0.047619047619    0.000000000000       2
    0.260869565217    0.047619047619    0.000000000000       2
    0.282608695652    0.047619047619    0.000000000000       2
    0.304347826087    0.047619047619    0.000000000000       2
    0.326086956522    0.047619047619    0.000000000000       2
    0.347826086957    0.047619047619    0.000000000000       2
    0.369565217391    0.047619047619    0.000000000000       2
    0.391304347826    0.047619047619    0.000000000000       2
    0.413043478261    0.047619047619    0.000000000000       2
    0.434782608696    0.047619047619    0.000000000000       2
    0.456521739130    0.047619047619    0.000000000000       2
    0.478260869565    0.047619047619    0.000000000000       2
    0.500000000000    0.047619047619    0.000000000000       2
   -0.478260869565    0.047619047619    0.000000000000       2
   -0.456521739130    0.047619047619    0.000000000000       2
   -0.434782608696    0.047619047619    0.000000000000       2
   -0.413043478261    0.047619047619    0.000000000000       2
   -0.391304347826    0.047619047619    0.000000000000       2
   -0.369565217391    0.047619047619    0.000000000000       2
   -0.347826086957    0.047619047619    0.000000000000       2
   -0.326086956522    0.047619047619    0.000000000000       2
   -0.304347826087    0.047619047619    0.000000000000       2
   -0.282608695652    0.047619047619    0.000000000000       2
   -0.260869565217    0.047619047619    0.000000000000       2
   -0.239130434783    0.047619047619    0.000000000000       2
   -0.217391304348    0.047619047619    0.000000000000       2
   -0.195652173913    0.047619047619    0.000000000000       2
   -0.173913043478    0.047619047619    0.000000000000       2
   -0.152173913043    0.047619047619    0.000000000000       2
   -0.130434782609    0.047619047619    0.000000000000       2
   -0.108695652174    0.047619047619    0.000000000000       2
   -0.086956521739    0.047619047619    0.000000000000       2
   -0.065217391304    0.047619047619    0.000000000000       2
   -0.043478260870    0.047619047619    0.000000000000       2
   -0.021739130435    0.047619047619    0.000000000000       2
    0.000000000000    0.071428571429    0.000000000000       2
    0.021739130435    0.071428571429    0.000000000000       2
    0.043478260870    0.071428571429    0.000000000000       2
    0.065217391304    0.071428571429    0.000000000000       2
    0.086956521739    0.071428571429    0.000000000000       2
    0.108695652174    0.071428571429    0.000000000000       2
    0.130434782609    0.071428571429    0.000000000000       2
    0.152173913043    0.071428571429    0.000000000000       2
    0.173913043478    0.071428571429    0.000000000000       2
    0.195652173913    0.071428571429    0.000000000000       2
    0.217391304348    0.071428571429    0.000000000000       2
    0.239130434783    0.071428571429    0.000000000000       2
    0.260869565217    0.071428571429    0.000000000000       2
    0.282608695652    0.071428571429    0.000000000000       2
    0.304347826087    0.071428571429    0.000000000000       2
    0.326086956522    0.071428571429    0.000000000000       2
    0.347826086957    0.071428571429    0.000000000000       2
    0.369565217391    0.071428571429    0.000000000000       2
    0.391304347826    0.071428571429    0.000000000000       2
    0.413043478261    0.071428571429    0.000000000000       2
    0.434782608696    0.071428571429    0.000000000000       2
    0.456521739130    0.071428571429    0.000000000000       2
    0.478260869565    0.071428571429    0.000000000000       2
    0.500000000000    0.071428571429    0.000000000000       2
   -0.478260869565    0.071428571429    0.000000000000       2
   -0.456521739130    0.071428571429    0.000000000000       2
   -0.434782608696    0.071428571429    0.000000000000       2
   -0.413043478261    0.071428571429    0.000000000000       2
   -0.391304347826    0.071428571429    0.000000000000       2
   -0.369565217391    0.071428571429    0.000000000000       2
   -0.347826086957    0.071428571429    0.000000000000       2
   -0.326086956522    0.071428571429    0.000000000000       2
   -0.304347826087    0.071428571429    0.000000000000       2
   -0.282608695652    0.071428571429    0.000000000000       2
   -0.260869565217    0.071428571429    0.000000000000       2
   -0.239130434783    0.071428571429    0.000000000000       2
   -0.217391304348    0.071428571429    0.000000000000       2
   -0.195652173913    0.071428571429    0.000000000000       2
   -0.173913043478    0.071428571429    0.000000000000       2
   -0.152173913043    0.071428571429    0.000000000000       2
   -0.130434782609    0.071428571429    0.000000000000       2
   -0.108695652174    0.071428571429    0.000000000000       2
   -0.086956521739    0.071428571429    0.000000000000       2
   -0.065217391304    0.071428571429    0.000000000000       2
   -0.043478260870    0.071428571429    0.000000000000       2
   -0.021739130435    0.071428571429    0.000000000000       2
    0.000000000000    0.095238095238    0.000000000000       2
    0.021739130435    0.095238095238    0.000000000000       2
    0.043478260870    0.095238095238    0.000000000000       2
    0.065217391304    0.095238095238    0.000000000000       2
    0.086956521739    0.095238095238    0.000000000000       2
    0.108695652174    0.095238095238    0.000000000000       2
    0.130434782609    0.095238095238    0.000000000000       2
    0.152173913043    0.095238095238    0.000000000000       2
    0.173913043478    0.095238095238    0.000000000000       2
    0.195652173913    0.095238095238    0.000000000000       2
    0.217391304348    0.095238095238    0.000000000000       2
    0.239130434783    0.095238095238    0.000000000000       2
    0.260869565217    0.095238095238    0.000000000000       2
    0.282608695652    0.095238095238    0.000000000000       2
    0.304347826087    0.095238095238    0.000000000000       2
    0.326086956522    0.095238095238    0.000000000000       2
    0.347826086957    0.095238095238    0.000000000000       2
    0.369565217391    0.095238095238    0.000000000000       2
    0.391304347826    0.095238095238    0.000000000000       2
    0.413043478261    0.095238095238    0.000000000000       2
    0.434782608696    0.095238095238    0.000000000000       2
    0.456521739130    0.095238095238    0.000000000000       2
    0.478260869565    0.095238095238    0.000000000000       2
    0.500000000000    0.095238095238    0.000000000000       2
   -0.478260869565    0.095238095238    0.000000000000       2
   -0.456521739130    0.095238095238    0.000000000000       2
   -0.434782608696    0.095238095238    0.000000000000       2
   -0.413043478261    0.095238095238    0.000000000000       2
   -0.391304347826    0.095238095238    0.000000000000       2
   -0.369565217391    0.095238095238    0.000000000000       2
   -0.347826086957    0.095238095238    0.000000000000       2
   -0.326086956522    0.095238095238    0.000000000000       2
   -0.304347826087    0.095238095238    0.000000000000       2
   -0.282608695652    0.095238095238    0.000000000000       2
   -0.260869565217    0.095238095238    0.000000000000       2
   -0.239130434783    0.095238095238    0.000000000000       2
   -0.217391304348    0.095238095238    0.000000000000       2
   -0.195652173913    0.095238095238    0.000000000000       2
   -0.173913043478    0.095238095238    0.000000000000       2
   -0.152173913043    0.095238095238    0.000000000000       2
   -0.130434782609    0.095238095238    0.000000000000       2
   -0.108695652174    0.095238095238    0.000000000000       2
   -0.086956521739    0.095238095238    0.000000000000       2
   -0.065217391304    0.095238095238    0.000000000000       2
   -0.043478260870    0.095238095238    0.000000000000       2
   -0.021739130435    0.095238095238    0.000000000000       2
    0.000000000000    0.119047619048    0.000000000000       2
    0.021739130435    0.119047619048    0.000000000000       2
    0.043478260870    0.119047619048    0.000000000000       2
    0.065217391304    0.119047619048    0.000000000000       2
    0.086956521739    0.119047619048    0.000000000000       2
    0.108695652174    0.119047619048    0.000000000000       2
    0.130434782609    0.119047619048    0.000000000000       2
    0.152173913043    0.119047619048    0.000000000000       2
    0.173913043478    0.119047619048    0.000000000000       2
    0.195652173913    0.119047619048    0.000000000000       2
    0.217391304348    0.119047619048    0.000000000000       2
    0.239130434783    0.119047619048    0.000000000000       2
    0.260869565217    0.119047619048    0.000000000000       2
    0.282608695652    0.119047619048    0.000000000000       2
    0.304347826087    0.119047619048    0.000000000000       2
    0.326086956522    0.119047619048    0.000000000000       2
    0.347826086957    0.119047619048    0.000000000000       2
    0.369565217391    0.119047619048    0.000000000000       2
    0.391304347826    0.119047619048    0.000000000000       2
    0.413043478261    0.119047619048    0.000000000000       2
    0.434782608696    0.119047619048    0.000000000000       2
    0.456521739130    0.119047619048    0.000000000000       2
    0.478260869565    0.119047619048    0.000000000000       2
    0.500000000000    0.119047619048    0.000000000000       2
   -0.478260869565    0.119047619048    0.000000000000       2
   -0.456521739130    0.119047619048    0.000000000000       2
   -0.434782608696    0.119047619048    0.000000000000       2
   -0.413043478261    0.119047619048    0.000000000000       2
   -0.391304347826    0.119047619048    0.000000000000       2
   -0.369565217391    0.119047619048    0.000000000000       2
   -0.347826086957    0.119047619048    0.000000000000       2
   -0.326086956522    0.119047619048    0.000000000000       2
   -0.304347826087    0.119047619048    0.000000000000       2
   -0.282608695652    0.119047619048    0.000000000000       2
   -0.260869565217    0.119047619048    0.000000000000       2
   -0.239130434783    0.119047619048    0.000000000000       2
   -0.217391304348    0.119047619048    0.000000000000       2
   -0.195652173913    0.119047619048    0.000000000000       2
   -0.173913043478    0.119047619048    0.000000000000       2
   -0.152173913043    0.119047619048    0.000000000000       2
   -0.130434782609    0.119047619048    0.000000000000       2
   -0.108695652174    0.119047619048    0.000000000000       2
   -0.086956521739    0.119047619048    0.000000000000       2
   -0.065217391304    0.119047619048    0.000000000000       2
   -0.043478260870    0.119047619048    0.000000000000       2
   -0.021739130435    0.119047619048    0.000000000000       2
    0.000000000000    0.142857142857    0.000000000000       2
    0.021739130435    0.142857142857    0.000000000000       2
    0.043478260870    0.142857142857    0.000000000000       2
    0.065217391304    0.142857142857    0.000000000000       2
    0.086956521739    0.142857142857    0.000000000000       2
    0.108695652174    0.142857142857    0.000000000000       2
    0.130434782609    0.142857142857    0.000000000000       2
    0.152173913043    0.142857142857    0.000000000000       2
    0.173913043478    0.142857142857    0.000000000000       2
    0.195652173913    0.142857142857    0.000000000000       2
    0.217391304348    0.142857142857    0.000000000000       2
    0.239130434783    0.142857142857    0.000000000000       2
    0.260869565217    0.142857142857    0.000000000000       2
    0.282608695652    0.142857142857    0.000000000000       2
    0.304347826087    0.142857142857    0.000000000000       2
    0.326086956522    0.142857142857    0.000000000000       2
    0.347826086957    0.142857142857    0.000000000000       2
    0.369565217391    0.142857142857    0.000000000000       2
    0.391304347826    0.142857142857    0.000000000000       2
    0.413043478261    0.142857142857    0.000000000000       2
    0.434782608696    0.142857142857    0.000000000000       2
    0.456521739130    0.142857142857    0.000000000000       2
    0.478260869565    0.142857142857    0.000000000000       2
    0.500000000000    0.142857142857    0.000000000000       2
   -0.478260869565    0.142857142857    0.000000000000       2
   -0.456521739130    0.142857142857    0.000000000000       2
   -0.434782608696    0.142857142857    0.000000000000       2
   -0.413043478261    0.142857142857    0.000000000000       2
   -0.391304347826    0.142857142857    0.000000000000       2
   -0.369565217391    0.142857142857    0.000000000000       2
   -0.347826086957    0.142857142857    0.000000000000       2
   -0.326086956522    0.142857142857    0.000000000000       2
   -0.304347826087    0.142857142857    0.000000000000       2
   -0.282608695652    0.142857142857    0.000000000000       2
   -0.260869565217    0.142857142857    0.000000000000       2
   -0.239130434783    0.142857142857    0.000000000000       2
   -0.217391304348    0.142857142857    0.000000000000       2
   -0.195652173913    0.142857142857    0.000000000000       2
   -0.173913043478    0.142857142857    0.000000000000       2
   -0.152173913043    0.142857142857    0.000000000000       2
   -0.130434782609    0.142857142857    0.000000000000       2
   -0.108695652174    0.142857142857    0.000000000000       2
   -0.086956521739    0.142857142857    0.000000000000       2
   -0.065217391304    0.142857142857    0.000000000000       2
   -0.043478260870    0.142857142857    0.000000000000       2
   -0.021739130435    0.142857142857    0.000000000000       2
    0.000000000000    0.166666666667    0.000000000000       2
    0.021739130435    0.166666666667    0.000000000000       2
    0.043478260870    0.166666666667    0.000000000000       2
    0.065217391304    0.166666666667    0.000000000000       2
    0.086956521739    0.166666666667    0.000000000000       2
    0.108695652174    0.166666666667    0.000000000000       2
    0.130434782609    0.166666666667    0.000000000000       2
    0.152173913043    0.166666666667    0.000000000000       2
    0.173913043478    0.166666666667    0.000000000000       2
    0.195652173913    0.166666666667    0.000000000000       2
    0.217391304348    0.166666666667    0.000000000000       2
    0.239130434783    0.166666666667    0.000000000000       2
    0.260869565217    0.166666666667    0.000000000000       2
    0.282608695652    0.166666666667    0.000000000000       2
    0.304347826087    0.166666666667    0.000000000000       2
    0.326086956522    0.166666666667    0.000000000000       2
    0.347826086957    0.166666666667    0.000000000000       2
    0.369565217391    0.166666666667    0.000000000000       2
    0.391304347826    0.166666666667    0.000000000000       2
    0.413043478261    0.166666666667    0.000000000000       2
    0.434782608696    0.166666666667    0.000000000000       2
    0.456521739130    0.166666666667    0.000000000000       2
    0.478260869565    0.166666666667    0.000000000000       2
    0.500000000000    0.166666666667    0.000000000000       2
   -0.478260869565    0.166666666667    0.000000000000       2
   -0.456521739130    0.166666666667    0.000000000000       2
   -0.434782608696    0.166666666667    0.000000000000       2
   -0.413043478261    0.166666666667    0.000000000000       2
   -0.391304347826    0.166666666667    0.000000000000       2
   -0.369565217391    0.166666666667    0.000000000000       2
   -0.347826086957    0.166666666667    0.000000000000       2
   -0.326086956522    0.166666666667    0.000000000000       2
   -0.304347826087    0.166666666667    0.000000000000       2
   -0.282608695652    0.166666666667    0.000000000000       2
   -0.260869565217    0.166666666667    0.000000000000       2
   -0.239130434783    0.166666666667    0.000000000000       2
   -0.217391304348    0.166666666667    0.000000000000       2
   -0.195652173913    0.166666666667    0.000000000000       2
   -0.173913043478    0.166666666667    0.000000000000       2
   -0.152173913043    0.166666666667    0.000000000000       2
   -0.130434782609    0.166666666667    0.000000000000       2
   -0.108695652174    0.166666666667    0.000000000000       2
   -0.086956521739    0.166666666667    0.000000000000       2
   -0.065217391304    0.166666666667    0.000000000000       2
   -0.043478260870    0.166666666667    0.000000000000       2
   -0.021739130435    0.166666666667    0.000000000000       2
    0.000000000000    0.190476190476    0.000000000000       2
    0.021739130435    0.190476190476    0.000000000000       2
    0.043478260870    0.190476190476    0.000000000000       2
    0.065217391304    0.190476190476    0.000000000000       2
    0.086956521739    0.190476190476    0.000000000000       2
    0.108695652174    0.190476190476    0.000000000000       2
    0.130434782609    0.190476190476    0.000000000000       2
    0.152173913043    0.190476190476    0.000000000000       2
    0.173913043478    0.190476190476    0.000000000000       2
    0.195652173913    0.190476190476    0.000000000000       2
    0.217391304348    0.190476190476    0.000000000000       2
    0.239130434783    0.190476190476    0.000000000000       2
    0.260869565217    0.190476190476    0.000000000000       2
    0.282608695652    0.190476190476    0.000000000000       2
    0.304347826087    0.190476190476    0.000000000000       2
    0.326086956522    0.190476190476    0.000000000000       2
    0.347826086957    0.190476190476    0.000000000000       2
    0.369565217391    0.190476190476    0.000000000000       2
    0.391304347826    0.190476190476    0.000000000000       2
    0.413043478261    0.190476190476    0.000000000000       2
    0.434782608696    0.190476190476    0.000000000000       2
    0.456521739130    0.190476190476    0.000000000000       2
    0.478260869565    0.190476190476    0.000000000000       2
    0.500000000000    0.190476190476    0.000000000000       2
   -0.478260869565    0.190476190476    0.000000000000       2
   -0.456521739130    0.190476190476    0.000000000000       2
   -0.434782608696    0.190476190476    0.000000000000       2
   -0.413043478261    0.190476190476    0.000000000000       2
   -0.391304347826    0.190476190476    0.000000000000       2
   -0.369565217391    0.190476190476    0.000000000000       2
   -0.347826086957    0.190476190476    0.000000000000       2
   -0.326086956522    0.190476190476    0.000000000000       2
   -0.304347826087    0.190476190476    0.000000000000       2
   -0.282608695652    0.190476190476    0.000000000000       2
   -0.260869565217    0.190476190476    0.000000000000       2
   -0.239130434783    0.190476190476    0.000000000000       2
   -0.217391304348    0.190476190476    0.000000000000       2
   -0.195652173913    0.190476190476    0.000000000000       2
   -0.173913043478    0.190476190476    0.000000000000       2
   -0.152173913043    0.190476190476    0.000000000000       2
   -0.130434782609    0.190476190476    0.000000000000       2
   -0.108695652174    0.190476190476    0.000000000000       2
   -0.086956521739    0.190476190476    0.000000000000       2
   -0.065217391304    0.190476190476    0.000000000000       2
   -0.043478260870    0.190476190476    0.000000000000       2
   -0.021739130435    0.190476190476    0.000000000000       2
    0.000000000000    0.214285714286    0.000000000000       2
    0.021739130435    0.214285714286    0.000000000000       2
    0.043478260870    0.214285714286    0.000000000000       2
    0.065217391304    0.214285714286    0.000000000000       2
    0.086956521739    0.214285714286    0.000000000000       2
    0.108695652174    0.214285714286    0.000000000000       2
    0.130434782609    0.214285714286    0.000000000000       2
    0.152173913043    0.214285714286    0.000000000000       2
    0.173913043478    0.214285714286    0.000000000000       2
    0.195652173913    0.214285714286    0.000000000000       2
    0.217391304348    0.214285714286    0.000000000000       2
    0.239130434783    0.214285714286    0.000000000000       2
    0.260869565217    0.214285714286    0.000000000000       2
    0.282608695652    0.214285714286    0.000000000000       2
    0.304347826087    0.214285714286    0.000000000000       2
    0.326086956522    0.214285714286    0.000000000000       2
    0.347826086957    0.214285714286    0.000000000000       2
    0.369565217391    0.214285714286    0.000000000000       2
    0.391304347826    0.214285714286    0.000000000000       2
    0.413043478261    0.214285714286    0.000000000000       2
    0.434782608696    0.214285714286    0.000000000000       2
    0.456521739130    0.214285714286    0.000000000000       2
    0.478260869565    0.214285714286    0.000000000000       2
    0.500000000000    0.214285714286    0.000000000000       2
   -0.478260869565    0.214285714286    0.000000000000       2
   -0.456521739130    0.214285714286    0.000000000000       2
   -0.434782608696    0.214285714286    0.000000000000       2
   -0.413043478261    0.214285714286    0.000000000000       2
   -0.391304347826    0.214285714286    0.000000000000       2
   -0.369565217391    0.214285714286    0.000000000000       2
   -0.347826086957    0.214285714286    0.000000000000       2
   -0.326086956522    0.214285714286    0.000000000000       2
   -0.304347826087    0.214285714286    0.000000000000       2
   -0.282608695652    0.214285714286    0.000000000000       2
   -0.260869565217    0.214285714286    0.000000000000       2
   -0.239130434783    0.214285714286    0.000000000000       2
   -0.217391304348    0.214285714286    0.000000000000       2
   -0.195652173913    0.214285714286    0.000000000000       2
   -0.173913043478    0.214285714286    0.000000000000       2
   -0.152173913043    0.214285714286    0.000000000000       2
   -0.130434782609    0.214285714286    0.000000000000       2
   -0.108695652174    0.214285714286    0.000000000000       2
   -0.086956521739    0.214285714286    0.000000000000       2
   -0.065217391304    0.214285714286    0.000000000000       2
   -0.043478260870    0.214285714286    0.000000000000       2
   -0.021739130435    0.214285714286    0.000000000000       2
    0.000000000000    0.238095238095    0.000000000000       2
    0.021739130435    0.238095238095    0.000000000000       2
    0.043478260870    0.238095238095    0.000000000000       2
    0.065217391304    0.238095238095    0.000000000000       2
    0.086956521739    0.238095238095    0.000000000000       2
    0.108695652174    0.238095238095    0.000000000000       2
    0.130434782609    0.238095238095    0.000000000000       2
    0.152173913043    0.238095238095    0.000000000000       2
    0.173913043478    0.238095238095    0.000000000000       2
    0.195652173913    0.238095238095    0.000000000000       2
    0.217391304348    0.238095238095    0.000000000000       2
    0.239130434783    0.238095238095    0.000000000000       2
    0.260869565217    0.238095238095    0.000000000000       2
    0.282608695652    0.238095238095    0.000000000000       2
    0.304347826087    0.238095238095    0.000000000000       2
    0.326086956522    0.238095238095    0.000000000000       2
    0.347826086957    0.238095238095    0.000000000000       2
    0.369565217391    0.238095238095    0.000000000000       2
    0.391304347826    0.238095238095    0.000000000000       2
    0.413043478261    0.238095238095    0.000000000000       2
    0.434782608696    0.238095238095    0.000000000000       2
    0.456521739130    0.238095238095    0.000000000000       2
    0.478260869565    0.238095238095    0.000000000000       2
    0.500000000000    0.238095238095    0.000000000000       2
   -0.478260869565    0.238095238095    0.000000000000       2
   -0.456521739130    0.238095238095    0.000000000000       2
   -0.434782608696    0.238095238095    0.000000000000       2
   -0.413043478261    0.238095238095    0.000000000000       2
   -0.391304347826    0.238095238095    0.000000000000       2
   -0.369565217391    0.238095238095    0.000000000000       2
   -0.347826086957    0.238095238095    0.000000000000       2
   -0.326086956522    0.238095238095    0.000000000000       2
   -0.304347826087    0.238095238095    0.000000000000       2
   -0.282608695652    0.238095238095    0.000000000000       2
   -0.260869565217    0.238095238095    0.000000000000       2
   -0.239130434783    0.238095238095    0.000000000000       2