CONTCAR\(5)                             
   1.00000000000000     
    11.7227001190000006    0.0000000000000000    0.0000000000000000
     1.9537737858999999   10.6868737691000000    0.0000000000000000
     0.0000000000000000    0.0000000000000000   24.3673000335999994
   Y    C    I    O 
    18     6    21     1
Direct
  0.2786000309495924  0.3327316359788352  0.6354018971305534
  0.2562485346797380  0.4642482401511635  0.4438167359426013
  0.2057988618468029  0.7666801121376414  0.4756913692962160
  0.1271602752125890  0.2378503032373084  0.5232050947454637
  0.0766393314867017  0.5407605763683909  0.5545639593926699
  0.0547139576261192  0.6737890736776153  0.3633775453161249
  0.6103895668868334  0.3324903456464588  0.6352766845694604
  0.5890398790195217  0.4642977860027425  0.4438018599819949
  0.5389117284687077  0.7667363179949569  0.4756306534941784
  0.4600030866822938  0.2388442167616870  0.5241663365310448
  0.4100275404566374  0.5399587025198747  0.5546334610104852
  0.3879548989260660  0.6739655141266404  0.3631553581216417
  0.9446755572595241  0.3308767911946111  0.6361439839324067
  0.9226063353580634  0.4644056730144623  0.4438647257996870
  0.8722368510045617  0.7668331608107042  0.4755969562795992
  0.7933333616075001  0.2378727995052537  0.5231732114653127
  0.7429289438664810  0.5407568507126346  0.5545893264140410
  0.7210248429990533  0.6738184055012831  0.3634027582992671
  0.2675343775682978  0.3795583293642688  0.5408313579339082
  0.0625939976529134  0.6246253322606107  0.4571898492790528
  0.6057926370600967  0.3795688565611922  0.5407562441050587
  0.3960356634131830  0.6241019043361851  0.4566943223313160
  0.9367424073201301  0.3798856408848842  0.5416206803654661
  0.7293929175149374  0.6246194954665788  0.4572098076272157
  0.1850790350549937  0.8920170466275388  0.3569318195570310
  0.1480184878629497  0.1131088608519779  0.6417287126666433
  0.2090059920763186  0.7474085216680855  0.5978459851583441
  0.1237858704539194  0.2561895327746579  0.4005366144632250
  0.9992816632143008  0.0022774918201244  0.4994405721016825
  0.2499930157743974  0.5007574059895277  0.3068151209598508
  0.0822234321604324  0.5044871953913670  0.6915835177565145
  0.5183970418848568  0.8920633468929398  0.3566908363796442
  0.4812364024942072  0.1118429895996651  0.6417888442849332
  0.5412634967852757  0.7474804648477483  0.5977341700945780
  0.4573127596759713  0.2556203689418698  0.4011870340961827
  0.3326938881006168  0.0024341196194647  0.4994357976443727
  0.5833993501410299  0.5006130157197556  0.3068516595606835
  0.4157558904041604  0.5071264090345478  0.6852595973521206
  0.8519404837883213  0.8916614053290841  0.3568474447794824
  0.8145462137909496  0.1126705511791083  0.6417643082104927
  0.8750204332940722  0.7477557888230679  0.5979722793403232
  0.7905073308542706  0.2562081648529273  0.4005317464884822
  0.6657312983754139  0.0024006269693321  0.4995151243017563
  0.9165002310759942  0.5009838669612776  0.3071085748785680
  0.7487812155546792  0.5042356214492631  0.6918044690939347
  0.3903912023165397  0.6641903524407263  0.7219816894663542
 
  0.00000000E+00  0.00000000E+00  0.00000000E+00
  0.00000000E+00  0.00000000E+00  0.00000000E+00
  0.00000000E+00  0.00000000E+00  0.00000000E+00
  0.00000000E+00  0.00000000E+00  0.00000000E+00
  0.00000000E+00  0.00000000E+00  0.00000000E+00
  0.00000000E+00  0.00000000E+00  0.00000000E+00
  0.00000000E+00  0.00000000E+00  0.00000000E+00
  0.00000000E+00  0.00000000E+00  0.00000000E+00
  0.00000000E+00  0.00000000E+00  0.00000000E+00
  0.00000000E+00  0.00000000E+00  0.00000000E+00
  0.00000000E+00  0.00000000E+00  0.00000000E+00
  0.00000000E+00  0.00000000E+00  0.00000000E+00
  0.00000000E+00  0.00000000E+00  0.00000000E+00
  0.00000000E+00  0.00000000E+00  0.00000000E+00
  0.00000000E+00  0.00000000E+00  0.00000000E+00
  0.00000000E+00  0.00000000E+00  0.00000000E+00
  0.00000000E+00  0.00000000E+00  0.00000000E+00
  0.00000000E+00  0.00000000E+00  0.00000000E+00
  0.00000000E+00  0.00000000E+00  0.00000000E+00
  0.00000000E+00  0.00000000E+00  0.00000000E+00
  0.00000000E+00  0.00000000E+00  0.00000000E+00
  0.00000000E+00  0.00000000E+00  0.00000000E+00
  0.00000000E+00  0.00000000E+00  0.00000000E+00
  0.00000000E+00  0.00000000E+00  0.00000000E+00
  0.00000000E+00  0.00000000E+00  0.00000000E+00
  0.00000000E+00  0.00000000E+00  0.00000000E+00
  0.00000000E+00  0.00000000E+00  0.00000000E+00
  0.00000000E+00  0.00000000E+00  0.00000000E+00
  0.00000000E+00  0.00000000E+00  0.00000000E+00
  0.00000000E+00  0.00000000E+00  0.00000000E+00
  0.00000000E+00  0.00000000E+00  0.00000000E+00
  0.00000000E+00  0.00000000E+00  0.00000000E+00
  0.00000000E+00  0.00000000E+00  0.00000000E+00
  0.00000000E+00  0.00000000E+00  0.00000000E+00
  0.00000000E+00  0.00000000E+00  0.00000000E+00
  0.00000000E+00  0.00000000E+00  0.00000000E+00
  0.00000000E+00  0.00000000E+00  0.00000000E+00
  0.00000000E+00  0.00000000E+00  0.00000000E+00
  0.00000000E+00  0.00000000E+00  0.00000000E+00
  0.00000000E+00  0.00000000E+00  0.00000000E+00
  0.00000000E+00  0.00000000E+00  0.00000000E+00
  0.00000000E+00  0.00000000E+00  0.00000000E+00
  0.00000000E+00  0.00000000E+00  0.00000000E+00
  0.00000000E+00  0.00000000E+00  0.00000000E+00
  0.00000000E+00  0.00000000E+00  0.00000000E+00
  0.00000000E+00  0.00000000E+00  0.00000000E+00
