Mn3 S6                                  
   1.00000000000000     
     3.3455068147653573    0.0000000000001430    0.0000000000000001
    -1.6727534074324608    2.8972938901378034   -0.0000000000000001
     0.0000000000000017    0.0000000000000022   18.6669238587754123
   Mn   S 
     3     6
Direct
  0.0000000000000000  0.0000000000000000 -0.0000000000000000
  0.6666667080000011  0.3333333449999998  0.3333333329999988
  0.3333333449999998  0.6666666910000032  0.6666666670000012
  0.3333333449999998  0.6666666910000032  0.0709288881154803
  0.3333333449999998  0.6666666910000032  0.2624044558845158
  0.0000000000000000  0.0000000000000000  0.4042622111154854
 -0.0000000000000000 -0.0000000000000000  0.5957377888845145
  0.6666667080000011  0.3333333449999998  0.7375955441154843
  0.6666667080000011  0.3333333449999998  0.9290711228845170
 
  0.00000000E+00  0.00000000E+00  0.00000000E+00
  0.00000000E+00  0.00000000E+00  0.00000000E+00
  0.00000000E+00  0.00000000E+00  0.00000000E+00
  0.00000000E+00  0.00000000E+00  0.00000000E+00
  0.00000000E+00  0.00000000E+00  0.00000000E+00
  0.00000000E+00  0.00000000E+00  0.00000000E+00
  0.00000000E+00  0.00000000E+00  0.00000000E+00
  0.00000000E+00  0.00000000E+00  0.00000000E+00
  0.00000000E+00  0.00000000E+00  0.00000000E+00
