Ta6 Te28 Pd6                            
   1.00000000000000     
    14.5256784272944106    0.0000000000000000    0.1307497493760400
     0.0000000000000000    3.8024581735158232    0.0000000000000000
    -5.6067622835817934    0.0000000000000000   20.2458742807584535
   Ta   Te   Pd
     6    28     6
Direct
  0.3005975833130072  0.7499999839999987  0.5432398326206711
  0.6994023936869944  0.2500000000000000  0.4567602493793282
  0.9455670215148626  0.7499999839999987  0.1897609328846408
  0.0544330224851338  0.2500000000000000  0.8102391131153562
  0.5765341186168816  0.7499999839999987  0.8456337906793484
  0.4234659063831170  0.2500000000000000  0.1543662093206515
  0.3155510412732716  0.2500000000000000  0.4441867478602188
  0.6844490297267306  0.7499999839999987  0.5558132861397770
  0.1433976917440813  0.7499999839999987  0.2761947316962846
  0.8566022902559172  0.2500000000000000  0.7238053023037182
  0.6103149028366107  0.7499999839999987  0.9895771613272251
  0.3896851061633936  0.2500000000000000  0.0104228786727781
  0.7259569434825754  0.2500000000000000  0.8864058451837172
  0.2740430915174309  0.7499999839999987  0.1135942598162807
  0.4524443677348124  0.2500000000000000  0.5872939658386224
  0.5475556032651887  0.7499999839999987  0.4127060221613765
  0.1841105598471151  0.2500000000000000  0.5896458783832841
  0.8158894471528821  0.7499999839999987  0.4103541566167152
  0.8878272729943858  0.7499999839999987  0.0445131504913956
  0.1121727220056174  0.2500000000000000  0.9554868545086014
  0.7919200742830312  0.2500000000000000  0.1547903070913506
  0.2080799667169685  0.7499999839999987  0.8452097749086490
  0.3393445956136034  0.7499999839999987  0.6874520043302950
  0.6606553783864016  0.2500000000000000  0.3125480306697044
  0.9438983137801256  0.2500000000000000  0.2924734695016899
  0.0561017062198762  0.7499999839999987  0.7075265194983127
  0.6197161688540864  0.7499999839999987  0.7295327852495485
  0.3802838231459129  0.2500000000000000  0.2704672967504512
  0.0558536893410210  0.2500000000000000  0.1387353887330574
  0.9441463956589755  0.7499999839999987  0.8612646812669412
  0.4382927935852115  0.2500000000000000  0.8481766052055677
  0.5617073134147866  0.7499999839999987  0.1518234417944326
  0.1071630797424264  0.7499999839999987  0.4530724582532953
  0.8928369352575711  0.2500000000000000  0.5469275767467041
  0.7489467278171144  0.2500000000000000  0.0191146774447336
  0.2510532771828895  0.7499999839999987  0.9808853925552722
  0.1289271614295676  0.2500000000000000  0.3654020519179426
  0.8710728685704348  0.7499999839999987  0.6345979820820600
  0.4810118473373396  0.2500000000000000  0.7267980465751470
  0.5189881356626556  0.7499999839999987  0.2732020114248576
 
  0.00000000E+00  0.00000000E+00  0.00000000E+00
  0.00000000E+00  0.00000000E+00  0.00000000E+00
  0.00000000E+00  0.00000000E+00  0.00000000E+00
  0.00000000E+00  0.00000000E+00  0.00000000E+00
  0.00000000E+00  0.00000000E+00  0.00000000E+00
  0.00000000E+00  0.00000000E+00  0.00000000E+00
  0.00000000E+00  0.00000000E+00  0.00000000E+00
  0.00000000E+00  0.00000000E+00  0.00000000E+00
  0.00000000E+00  0.00000000E+00  0.00000000E+00
  0.00000000E+00  0.00000000E+00  0.00000000E+00
  0.00000000E+00  0.00000000E+00  0.00000000E+00
  0.00000000E+00  0.00000000E+00  0.00000000E+00
  0.00000000E+00  0.00000000E+00  0.00000000E+00
  0.00000000E+00  0.00000000E+00  0.00000000E+00
  0.00000000E+00  0.00000000E+00  0.00000000E+00
  0.00000000E+00  0.00000000E+00  0.00000000E+00
  0.00000000E+00  0.00000000E+00  0.00000000E+00
  0.00000000E+00  0.00000000E+00  0.00000000E+00
  0.00000000E+00  0.00000000E+00  0.00000000E+00
  0.00000000E+00  0.00000000E+00  0.00000000E+00
  0.00000000E+00  0.00000000E+00  0.00000000E+00
  0.00000000E+00  0.00000000E+00  0.00000000E+00
  0.00000000E+00  0.00000000E+00  0.00000000E+00
  0.00000000E+00  0.00000000E+00  0.00000000E+00
  0.00000000E+00  0.00000000E+00  0.00000000E+00
  0.00000000E+00  0.00000000E+00  0.00000000E+00
  0.00000000E+00  0.00000000E+00  0.00000000E+00
  0.00000000E+00  0.00000000E+00  0.00000000E+00
  0.00000000E+00  0.00000000E+00  0.00000000E+00
  0.00000000E+00  0.00000000E+00  0.00000000E+00
  0.00000000E+00  0.00000000E+00  0.00000000E+00
  0.00000000E+00  0.00000000E+00  0.00000000E+00
  0.00000000E+00  0.00000000E+00  0.00000000E+00
  0.00000000E+00  0.00000000E+00  0.00000000E+00
  0.00000000E+00  0.00000000E+00  0.00000000E+00
  0.00000000E+00  0.00000000E+00  0.00000000E+00
  0.00000000E+00  0.00000000E+00  0.00000000E+00
  0.00000000E+00  0.00000000E+00  0.00000000E+00
  0.00000000E+00  0.00000000E+00  0.00000000E+00
  0.00000000E+00  0.00000000E+00  0.00000000E+00
