CONTCAR\(3)                             
   1.00000000000000     
    12.6589002608999994    0.0000000000000000    0.0000000000000000
    -6.3294555933999996   10.9637343354999999    0.0000000000000000
     0.0000000000000000    0.0000000000000000   35.9861984253000031
   Bi   Se   O 
    54    54     1
Direct
  0.2229607705887986  0.1108851025595072  0.5267246974034734
  0.1107608369179260  0.2200889507069377  0.4753314971770806
  0.2224921084739933  0.1113628194466401  0.3587993450491780
  0.1127423544869188  0.2213303134894247  0.6387251296022356
  0.0001814099407653  0.0002963757321552  0.2529357001880612
  0.9997826835760364  0.3324254986477939  0.7447198338817955
  0.5548164446957600  0.1113770746642970  0.5263192672465280
  0.4429182149401001  0.2206899225424550  0.4750667895249521
  0.5557872837978550  0.1114241548222807  0.3588417036850089
  0.4460147172307742  0.2242129772430914  0.6404816669288707
  0.3337568258980781  0.0002884465328918  0.2528988879335827
  0.3341770805041619  0.3378176591954798  0.7458573202296108
  0.8881399658633597  0.1105894060939079  0.5256470052784437
  0.7760790267102777  0.2210670406158854  0.4749651833133370
  0.8894285491116491  0.1115785467179791  0.3590348249612276
  0.7752653747229061  0.2210060274287216  0.6388113558451991
  0.6667066870846625  0.0004553218211072  0.2530106948017661
  0.6696147604013305  0.3369589212591038  0.7458488869764182
  0.2220698456663897  0.4443626568223706  0.5256056878119040
  0.1113221361716654  0.5560181257100680  0.4749842217752800
  0.2225067679205353  0.4449581482145391  0.3591365278406684
  0.1120843401465237  0.5572620989865840  0.6386851055480776
  0.0003631740523531  0.3339829290257370  0.2529677856223103
  0.9950339647676287  0.6624949130095672  0.7459163570950196
  0.5555668294106653  0.4441153240919817  0.5254510402663257
  0.4440940218082048  0.5551803342869661  0.4750188086076079
  0.5556619127336262  0.4444434409955846  0.3588354242595884
  0.4479833319636839  0.5571973714899698  0.6411213426375468
  0.3338661997817240  0.3339376638644325  0.2527954438891200
  0.3338288667337466  0.6630984955414903  0.7458135215709518
  0.8886282007525068  0.4443614624338608  0.5254232001748420
  0.7777467110178407  0.5555610242403759  0.4748564971332030
  0.8889211601784055  0.4445005078161088  0.3588915520381661
  0.7761561986961780  0.5573198073212211  0.6411149116911403
  0.6669872908422079  0.3337656516972416  0.2529075548825972
  0.6660977810958926  0.6660398551538904  0.7933605256569862
  0.2226217047118624  0.7780930491874898  0.5262578069000909
  0.1123777625491371  0.8895285706768306  0.4752573189812281
  0.2225114712713960  0.7775860922234230  0.3590189320087447
  0.1088915764225717  0.8879072783885533  0.6405298899794900
  0.0003114236071795  0.6672445691698812  0.2530293715825920
  0.9955508638422117  0.9984386522476925  0.7459177820791254
  0.5547364386834559  0.7774055676187572  0.5258613243509416
  0.4441679887496974  0.8890347266507632  0.4752715302738224
  0.5551800381137397  0.7776298778090691  0.3590001954403377
  0.4447628888771078  0.8871812683800897  0.6405054587494874
  0.3335818185952633  0.6668983025341078  0.2528478952915094
  0.3331329996145982  0.9997906440434363  0.7452333931718300
  0.8894711431770403  0.7783812698878307  0.5255318176534516
  0.7767660400701288  0.8881240233934093  0.4750540120560700
  0.8892890780282912  0.7784601855800801  0.3589988036166432
  0.7762386512765431  0.8856933967719982  0.6411674139852082
  0.6670063637900228  0.6672189877447181  0.2531270345929144
  0.6701690025072793  0.9985936693308943  0.7458964601513998
  0.0004227539017805  0.0004938655760327  0.4026241382224924
  0.3339232489237673  0.3345670508779293  0.5955380858070853
  0.2228477353715164  0.1106745485270793  0.6900891995915757
  0.1115770291094620  0.2230397084785096  0.3068076923993104
  0.2224394374834020  0.1112854107542205  0.2105627705323201
  0.1126624716421460  0.2202245774630214  0.7861364342525476
  0.3338343862257318  0.0003322341126122  0.4023480081125470
  0.6679150576052422  0.3347100082111893  0.5955296815776236
  0.5543073215945071  0.1101125685312923  0.6901468221650475
  0.4446012478857995  0.2226206359576892  0.3066499232639970
  0.5558924622925261  0.1115906988739184  0.2104180215360358
  0.4448282235411369  0.2231884811009408  0.7875201476520104
  0.6666030581483469  0.0003571364086170  0.4023912428127403
  0.9998473760529691  0.3330553398805449  0.5953295993932812
  0.8894938770921996  0.1122559193361354  0.6904310844056241
  0.7782289133980314  0.2228794098866018  0.3067349303934321
  0.8890644949001398  0.1114553455324483  0.2106471139921950
  0.7745113957851899  0.2201471426906494  0.7861233983703642
  0.0001971573066726  0.3340715588303738  0.4026387278070729
  0.3333809050290313  0.6652032643438162  0.5955063468946804
  0.2207972194496790  0.4436297639611908  0.6904782628169883
  0.1116817122183065  0.5560234781925217  0.3067154192585164
  0.2223002880561751  0.4445216775614469  0.2103897082858026
  0.1120197531953480  0.5579169377712532  0.7860237719921059
  0.3338504729736016  0.3337798065170148  0.4024437983381901
  0.6666780363026774  0.6666767227649046  0.5956130830586943
  0.5563636695535408  0.4460225993602549  0.6903463670296190
  0.4442718238648027  0.5559549676680646  0.3067012433440439
  0.5561357940069200  0.4450302616468065  0.2104849387137335
  0.3939135466019081  0.5303773651560277  0.7945599956735450
  0.6669206569152379  0.3339352311404440  0.4025082138790097
  0.9985648482387219  0.6653353463263088  0.5955230835231333
  0.8895807005415080  0.4434280368010164  0.6905350390668232
  0.7781201775729656  0.5561711172897219  0.3067238796576106
  0.8890914217678585  0.4449044689698596  0.2105491059645601
  0.8020075350593103  0.5299555398272915  0.7944998108388148
  0.0002445804466191  0.6667932619103354  0.4024673268817907
  0.3334908350330394  0.0000835952358784  0.5957922091112522
  0.2223908366956167  0.7789189706281050  0.6900416052716878
  0.1114343872788197  0.8891008768622868  0.3067700267455820
  0.2221982520518750  0.7782827323765886  0.2105303350074124
  0.1101922012852299  0.8881172993032465  0.7875597977588811
  0.3336278387620339  0.6671295599401788  0.4027691827571402
  0.6674595378823724  0.9995271786296840  0.5955660956896480
  0.5560466866415297  0.7769464082742985  0.6902312479479704
  0.4444475599170659  0.8889044432921480  0.3067097275775055
  0.5562921907480103  0.7785172439226997  0.2105973053877150
  0.4446781364587054  0.8878283317686382  0.7875032607966759
  0.6665849909660650  0.6666755715842640  0.4024229162424504
  0.9986164025997226  0.0000070642195098  0.5954464571430123
  0.8876945012118895  0.7771473656796815  0.6902048519740873
  0.7779458410984645  0.8892443933990322  0.3068205442792546
  0.8889897417126917  0.7781974536198817  0.2106313879256732
  0.8025492011319884  0.9382127914345020  0.7945744801201045
  0.6657604998973312  0.6655943987306756  0.8472100633659565
 
  0.00000000E+00  0.00000000E+00  0.00000000E+00
  0.00000000E+00  0.00000000E+00  0.00000000E+00
  0.00000000E+00  0.00000000E+00  0.00000000E+00
  0.00000000E+00  0.00000000E+00  0.00000000E+00
  0.00000000E+00  0.00000000E+00  0.00000000E+00
  0.00000000E+00  0.00000000E+00  0.00000000E+00
  0.00000000E+00  0.00000000E+00  0.00000000E+00
  0.00000000E+00  0.00000000E+00  0.00000000E+00
  0.00000000E+00  0.00000000E+00  0.00000000E+00
  0.00000000E+00  0.00000000E+00  0.00000000E+00
  0.00000000E+00  0.00000000E+00  0.00000000E+00
  0.00000000E+00  0.00000000E+00  0.00000000E+00
  0.00000000E+00  0.00000000E+00  0.00000000E+00
  0.00000000E+00  0.00000000E+00  0.00000000E+00
  0.00000000E+00  0.00000000E+00  0.00000000E+00
  0.00000000E+00  0.00000000E+00  0.00000000E+00
  0.00000000E+00  0.00000000E+00  0.00000000E+00
  0.00000000E+00  0.00000000E+00  0.00000000E+00
  0.00000000E+00  0.00000000E+00  0.00000000E+00
  0.00000000E+00  0.00000000E+00  0.00000000E+00
  0.00000000E+00  0.00000000E+00  0.00000000E+00
  0.00000000E+00  0.00000000E+00  0.00000000E+00
  0.00000000E+00  0.00000000E+00  0.00000000E+00
  0.00000000E+00  0.00000000E+00  0.00000000E+00
  0.00000000E+00  0.00000000E+00  0.00000000E+00
  0.00000000E+00  0.00000000E+00  0.00000000E+00
  0.00000000E+00  0.00000000E+00  0.00000000E+00
  0.00000000E+00  0.00000000E+00  0.00000000E+00
  0.00000000E+00  0.00000000E+00  0.00000000E+00
  0.00000000E+00  0.00000000E+00  0.00000000E+00
  0.00000000E+00  0.00000000E+00  0.00000000E+00
  0.00000000E+00  0.00000000E+00  0.00000000E+00
  0.00000000E+00  0.00000000E+00  0.00000000E+00
  0.00000000E+00  0.00000000E+00  0.00000000E+00
  0.00000000E+00  0.00000000E+00  0.00000000E+00
  0.00000000E+00  0.00000000E+00  0.00000000E+00
  0.00000000E+00  0.00000000E+00  0.00000000E+00
  0.00000000E+00  0.00000000E+00  0.00000000E+00
  0.00000000E+00  0.00000000E+00  0.00000000E+00
  0.00000000E+00  0.00000000E+00  0.00000000E+00
  0.00000000E+00  0.00000000E+00  0.00000000E+00
  0.00000000E+00  0.00000000E+00  0.00000000E+00
  0.00000000E+00  0.00000000E+00  0.00000000E+00
  0.00000000E+00  0.00000000E+00  0.00000000E+00
  0.00000000E+00  0.00000000E+00  0.00000000E+00
  0.00000000E+00  0.00000000E+00  0.00000000E+00
  0.00000000E+00  0.00000000E+00  0.00000000E+00
  0.00000000E+00  0.00000000E+00  0.00000000E+00
  0.00000000E+00  0.00000000E+00  0.00000000E+00
  0.00000000E+00  0.00000000E+00  0.00000000E+00
  0.00000000E+00  0.00000000E+00  0.00000000E+00
  0.00000000E+00  0.00000000E+00  0.00000000E+00
  0.00000000E+00  0.00000000E+00  0.00000000E+00
  0.00000000E+00  0.00000000E+00  0.00000000E+00
  0.00000000E+00  0.00000000E+00  0.00000000E+00
  0.00000000E+00  0.00000000E+00  0.00000000E+00
  0.00000000E+00  0.00000000E+00  0.00000000E+00
  0.00000000E+00  0.00000000E+00  0.00000000E+00
  0.00000000E+00  0.00000000E+00  0.00000000E+00
  0.00000000E+00  0.00000000E+00  0.00000000E+00
  0.00000000E+00  0.00000000E+00  0.00000000E+00
  0.00000000E+00  0.00000000E+00  0.00000000E+00
  0.00000000E+00  0.00000000E+00  0.00000000E+00
  0.00000000E+00  0.00000000E+00  0.00000000E+00
  0.00000000E+00  0.00000000E+00  0.00000000E+00
  0.00000000E+00  0.00000000E+00  0.00000000E+00
  0.00000000E+00  0.00000000E+00  0.00000000E+00
  0.00000000E+00  0.00000000E+00  0.00000000E+00
  0.00000000E+00  0.00000000E+00  0.00000000E+00
  0.00000000E+00  0.00000000E+00  0.00000000E+00
  0.00000000E+00  0.00000000E+00  0.00000000E+00
  0.00000000E+00  0.00000000E+00  0.00000000E+00
  0.00000000E+00  0.00000000E+00  0.00000000E+00
  0.00000000E+00  0.00000000E+00  0.00000000E+00
  0.00000000E+00  0.00000000E+00  0.00000000E+00
  0.00000000E+00  0.00000000E+00  0.00000000E+00
  0.00000000E+00  0.00000000E+00  0.00000000E+00
  0.00000000E+00  0.00000000E+00  0.00000000E+00
  0.00000000E+00  0.00000000E+00  0.00000000E+00
  0.00000000E+00  0.00000000E+00  0.00000000E+00
  0.00000000E+00  0.00000000E+00  0.00000000E+00
  0.00000000E+00  0.00000000E+00  0.00000000E+00
  0.00000000E+00  0.00000000E+00  0.00000000E+00
  0.00000000E+00  0.00000000E+00  0.00000000E+00
  0.00000000E+00  0.00000000E+00  0.00000000E+00
  0.00000000E+00  0.00000000E+00  0.00000000E+00
  0.00000000E+00  0.00000000E+00  0.00000000E+00
  0.00000000E+00  0.00000000E+00  0.00000000E+00
  0.00000000E+00  0.00000000E+00  0.00000000E+00
  0.00000000E+00  0.00000000E+00  0.00000000E+00
  0.00000000E+00  0.00000000E+00  0.00000000E+00
  0.00000000E+00  0.00000000E+00  0.00000000E+00
  0.00000000E+00  0.00000000E+00  0.00000000E+00
  0.00000000E+00  0.00000000E+00  0.00000000E+00
  0.00000000E+00  0.00000000E+00  0.00000000E+00
  0.00000000E+00  0.00000000E+00  0.00000000E+00
  0.00000000E+00  0.00000000E+00  0.00000000E+00
  0.00000000E+00  0.00000000E+00  0.00000000E+00
  0.00000000E+00  0.00000000E+00  0.00000000E+00
  0.00000000E+00  0.00000000E+00  0.00000000E+00
  0.00000000E+00  0.00000000E+00  0.00000000E+00
  0.00000000E+00  0.00000000E+00  0.00000000E+00
  0.00000000E+00  0.00000000E+00  0.00000000E+00
  0.00000000E+00  0.00000000E+00  0.00000000E+00
  0.00000000E+00  0.00000000E+00  0.00000000E+00
  0.00000000E+00  0.00000000E+00  0.00000000E+00
  0.00000000E+00  0.00000000E+00  0.00000000E+00
  0.00000000E+00  0.00000000E+00  0.00000000E+00
  0.00000000E+00  0.00000000E+00  0.00000000E+00
