 Ca3 Cu2 Cl2 O4                         
   1.00000000000000     
     3.8086410516963691    0.0000000000000000    0.0000000000000000
     0.0000000000000000    3.8086410380028166    0.0000000000000000
     0.0000000000000000    0.0000000000000000   23.7810525762959983
   Ca   Cu   Cl   O 
     3     2     2     4
Direct
  0.0000000053758509 -0.0000000028250840  0.5000008401095635
  0.0000000130020802  0.0000000092682618  0.3669216762692582
  0.0000000045608638 -0.0000000027962621  0.6330761286050879
  0.4999999754323767  0.4999999826257980  0.5632770898282762
  0.4999999832738044  0.4999999887925299  0.4367243045491981
  0.5000000078126275  0.5000000001578432  0.6859403117469586
  0.4999999946399792  0.5000000126316293  0.3140633228139008
  0.0000000206255063  0.4999999973019216  0.5676702448026046
  0.4999999911467272  0.0000000102851077  0.5676702477345850
  0.4999999909785902  0.0000000069542204  0.4323279175310671
  0.0000000131515930  0.4999999976040337  0.4323279160094998
 
  0.00000000E+00  0.00000000E+00  0.00000000E+00
  0.00000000E+00  0.00000000E+00  0.00000000E+00
  0.00000000E+00  0.00000000E+00  0.00000000E+00
  0.00000000E+00  0.00000000E+00  0.00000000E+00
  0.00000000E+00  0.00000000E+00  0.00000000E+00
  0.00000000E+00  0.00000000E+00  0.00000000E+00
  0.00000000E+00  0.00000000E+00  0.00000000E+00
  0.00000000E+00  0.00000000E+00  0.00000000E+00
  0.00000000E+00  0.00000000E+00  0.00000000E+00
  0.00000000E+00  0.00000000E+00  0.00000000E+00
  0.00000000E+00  0.00000000E+00  0.00000000E+00
