CONTCAR\(5)                             
   1.00000000000000     
    10.2070999146000005    0.0000000000000000    0.0000000000000000
    -1.7011927660999999   18.1179073708000011    0.0000000000000000
     0.0000000000000000    0.0000000000000000   20.2910003661999987
   Ta   Co   Pd   Se   O    H 
    12     6     3    36     1     1
Selective dynamics
Direct
  0.0276934728588216  0.1524833886013326  0.4684350861836108   F   F   F
  0.3085488789887521  0.8453387165308754  0.5376680717325826   F   F   F
  0.0699752567227989  0.4095497680289455  0.4731354646695536   F   F   F
  0.2658791842368444  0.5901222084798476  0.5313718961694320   F   F   F
  0.3491970090687460  0.1540052815167101  0.4668822920499451   F   F   F
  0.6423660012480923  0.8455081585034705  0.5375944124928793   F   F   F
  0.4035013962531906  0.4092830356315105  0.4734533768018494   F   F   F
  0.5996628012637117  0.5901553857001858  0.5313342370821204   F   F   F
  0.7067526758269196  0.1541684049029968  0.4675735197542963   F   F   F
  0.9757103625087709  0.8483407110581069  0.5365317029641048   F   F   F
  0.7366517427647921  0.4092882366062156  0.4733826584155096   F   F   F
  0.9329535624582022  0.5912096737502495  0.5305751159897554   F   F   F
  0.2161939266450688  0.2847868699381522  0.4413762978880911   F   F   F
  0.1197708771144832  0.7145597415096887  0.5627199097316478   F   F   F
  0.5494488724775977  0.2837245626922353  0.4419529682190415   F   F   F
  0.4528153305693934  0.7126971670052100  0.5634418047006875   F   F   F
  0.8828898981606486  0.2846324780981035  0.4413117775346933   F   F   F
  0.7871667470402457  0.7144606769672706  0.5627393840013397   F   F   F
  0.1721676683687434  0.0018216466385823  0.5025401355744421   F   F   F
  0.4998547472339112  0.9896084305395760  0.5079833484239771   F   F   F
  0.8324835369843626  0.0020901243044946  0.5019947493809127   F   F   F
  0.1874025186617203  0.1199918410339293  0.5632282587193913   F   F   F
  0.1495675367335281  0.8826249227957064  0.4443811945662191   F   F   F
  0.1006530645047192  0.6025748262357098  0.6243338864318346   F   F   F
  0.2343993070077914  0.3966249035854048  0.3798147709584256   F   F   F
  0.2417099304137267  0.4465178138045260  0.5652860769782251   F   F   F
  0.0937956447060060  0.5522925297415284  0.4388353558416966   F   F   F
  0.0419520674272320  0.2391124477405810  0.3707842915892883   F   F   F
  0.2931684146624249  0.7583297494012129  0.6345634656216248   F   F   F
  0.1787213849356490  0.0743159976007775  0.3985646283349453   F   F   F
  0.1563278560140731  0.9262633367753637  0.6043012180425791   F   F   F
  0.0492136046134988  0.2812834968183253  0.5256499238191878   F   F   F
  0.2873217261853824  0.7175283531510317  0.4785579622675655   F   F   F
  0.5205420505276237  0.1129901408116254  0.5498888858207422   F   F   F
  0.4806029601802564  0.8757827751648009  0.4443475050797545   F   F   F
  0.4346438520191214  0.6010010635185665  0.6248061257358373   F   F   F
  0.5674878700389101  0.3956294892245822  0.3800877024582050   F   F   F
  0.5757882266140726  0.4467421761101917  0.5654858541487116   F   F   F
  0.4269603881114463  0.5518220342897493  0.4393256579593157   F   F   F
  0.3748833769676736  0.2394868808092809  0.3696461691685329   F   F   F
  0.6282522940046604  0.7583430084405762  0.6343279452971728   F   F   F
  0.5146906240173834  0.0718122099617275  0.4087821745094686   F   F   F
  0.4873702769229311  0.9172391225879295  0.6098202323776363   F   F   F
  0.3825675623179805  0.2811658215780497  0.5263553732570401   F   F   F
  0.6201137242142067  0.7176139617190671  0.4785088887333941   F   F   F
  0.8575634312613118  0.1200712413279916  0.5629751305515995   F   F   F
  0.8139242799390161  0.8824985706960646  0.4442547470826241   F   F   F
  0.7692571001683817  0.6024601273021517  0.6243177374692195   F   F   F
  0.9005889133495941  0.3963044141196619  0.3796575167921503   F   F   F
  0.9093032035189594  0.4473926298871831  0.5649673773958526   F   F   F
  0.7601553224283464  0.5522120988297132  0.4388670266143251   F   F   F
  0.7087220257346090  0.2392848715040685  0.3698991157239391   F   F   F
  0.9612205056332783  0.7612074637178665  0.6335451939276879   F   F   F
  0.8502775229437987  0.0750131484152590  0.3983010413402823   F   F   F
  0.8216904091875605  0.9267861982368046  0.6039237065927026   F   F   F
  0.7156778047845691  0.2814352787869367  0.5265240031024376   F   F   F
  0.9541914746331841  0.7192817233361595  0.4780877905620358   F   F   F
  0.5277958705133443  0.1414071592566231  0.6371646994137521   T   T   T
  0.4360117263079388  0.1350902646795191  0.6515943309676304   T   T   T
 
  0.00000000E+00  0.00000000E+00  0.00000000E+00
  0.00000000E+00  0.00000000E+00  0.00000000E+00
  0.00000000E+00  0.00000000E+00  0.00000000E+00
  0.00000000E+00  0.00000000E+00  0.00000000E+00
  0.00000000E+00  0.00000000E+00  0.00000000E+00
  0.00000000E+00  0.00000000E+00  0.00000000E+00
  0.00000000E+00  0.00000000E+00  0.00000000E+00
  0.00000000E+00  0.00000000E+00  0.00000000E+00
  0.00000000E+00  0.00000000E+00  0.00000000E+00
  0.00000000E+00  0.00000000E+00  0.00000000E+00
  0.00000000E+00  0.00000000E+00  0.00000000E+00
  0.00000000E+00  0.00000000E+00  0.00000000E+00
  0.00000000E+00  0.00000000E+00  0.00000000E+00
  0.00000000E+00  0.00000000E+00  0.00000000E+00
  0.00000000E+00  0.00000000E+00  0.00000000E+00
  0.00000000E+00  0.00000000E+00  0.00000000E+00
  0.00000000E+00  0.00000000E+00  0.00000000E+00
  0.00000000E+00  0.00000000E+00  0.00000000E+00
  0.00000000E+00  0.00000000E+00  0.00000000E+00
  0.00000000E+00  0.00000000E+00  0.00000000E+00
  0.00000000E+00  0.00000000E+00  0.00000000E+00
  0.00000000E+00  0.00000000E+00  0.00000000E+00
  0.00000000E+00  0.00000000E+00  0.00000000E+00
  0.00000000E+00  0.00000000E+00  0.00000000E+00
  0.00000000E+00  0.00000000E+00  0.00000000E+00
  0.00000000E+00  0.00000000E+00  0.00000000E+00
  0.00000000E+00  0.00000000E+00  0.00000000E+00
  0.00000000E+00  0.00000000E+00  0.00000000E+00
  0.00000000E+00  0.00000000E+00  0.00000000E+00
  0.00000000E+00  0.00000000E+00  0.00000000E+00
  0.00000000E+00  0.00000000E+00  0.00000000E+00
  0.00000000E+00  0.00000000E+00  0.00000000E+00
  0.00000000E+00  0.00000000E+00  0.00000000E+00
  0.00000000E+00  0.00000000E+00  0.00000000E+00
  0.00000000E+00  0.00000000E+00  0.00000000E+00
  0.00000000E+00  0.00000000E+00  0.00000000E+00
  0.00000000E+00  0.00000000E+00  0.00000000E+00
  0.00000000E+00  0.00000000E+00  0.00000000E+00
  0.00000000E+00  0.00000000E+00  0.00000000E+00
  0.00000000E+00  0.00000000E+00  0.00000000E+00
  0.00000000E+00  0.00000000E+00  0.00000000E+00
  0.00000000E+00  0.00000000E+00  0.00000000E+00
  0.00000000E+00  0.00000000E+00  0.00000000E+00
  0.00000000E+00  0.00000000E+00  0.00000000E+00
  0.00000000E+00  0.00000000E+00  0.00000000E+00
  0.00000000E+00  0.00000000E+00  0.00000000E+00
  0.00000000E+00  0.00000000E+00  0.00000000E+00
  0.00000000E+00  0.00000000E+00  0.00000000E+00
  0.00000000E+00  0.00000000E+00  0.00000000E+00
  0.00000000E+00  0.00000000E+00  0.00000000E+00
  0.00000000E+00  0.00000000E+00  0.00000000E+00
  0.00000000E+00  0.00000000E+00  0.00000000E+00
  0.00000000E+00  0.00000000E+00  0.00000000E+00
  0.00000000E+00  0.00000000E+00  0.00000000E+00
  0.00000000E+00  0.00000000E+00  0.00000000E+00
  0.00000000E+00  0.00000000E+00  0.00000000E+00
  0.00000000E+00  0.00000000E+00  0.00000000E+00
  0.00000000E+00  0.00000000E+00  0.00000000E+00
  0.00000000E+00  0.00000000E+00  0.00000000E+00
