CONTCAR\(4)                             
   1.00000000000000     
    12.6408004761000008    0.0000000000000000    0.0000000000000000
    -6.3204002380000004   10.9472543365000003    0.0000000000000000
     0.0000000000000000    0.0000000000000000   17.9836006164999986
   V    S    O    H 
    16    32     1     1
Direct
  0.0847249150224102  0.1684286733980472  0.5037592539402935
  0.3353612455494683  0.1683839364143735  0.5036288651732838
  0.5856090925563014  0.1691423405759913  0.5038018164706365
  0.8352656444245573  0.1691329848276049  0.5038635014571308
  0.0838375885500078  0.4178414645883468  0.5040768297437737
  0.3352807328259226  0.4184580806183789  0.5030338282868384
  0.5855856183823993  0.4176606004875679  0.5036217542706252
  0.8349415539394951  0.4181158647244074  0.5039379881515627
  0.0838605432900843  0.6675172797467476  0.5036462008510605
  0.3228101606691302  0.6625421725638412  0.5020769182990720
  0.5909550368391565  0.6621488770232530  0.5022230703170696
  0.8353958512384344  0.6676075998453463  0.5035047246008570
  0.0847325294044222  0.9178627506936058  0.5036479386971698
  0.3353093385087236  0.9182665858309306  0.5032553551024216
  0.5909394442508121  0.9305808084951507  0.5035080482757656
  0.8344245267959715  0.9180481986944875  0.5032566245766233
  0.0018705105023139  0.0017953712263301  0.4208472102849830
  0.0011219042695221  0.0012511911326257  0.5862746910989834
  0.2515018751032461  0.0017885108367453  0.4208021686044925
  0.2517038582254991  0.0014237598736670  0.5862224721223884
  0.5018197924997047  0.0040226131658742  0.4200511032340243
  0.5015813773383042  0.0034851848692737  0.5871189986542148
  0.7538540472670914  0.0039416784976995  0.4201038110004646
  0.7532238087271248  0.0031867176090330  0.5871388563226860
  0.0015122446936936  0.2517916793857404  0.4210112266012818
  0.0014866969925541  0.2515431095803157  0.5868305076734945
  0.2513488965451099  0.2510627845600336  0.4207826472793508
  0.2518777775375131  0.2519925839300170  0.5862007237420244
  0.5018586070198159  0.2514546001921611  0.4207652623453794
  0.5017437890128584  0.2516666849542347  0.5866203472081186
  0.7519539153360391  0.2521047832622741  0.4209469231526680
  0.7518305701739403  0.2520431481801386  0.5867712591135450
  0.0010058134190078  0.5010382516768437  0.4210158844855603
  0.0009613757962859  0.5013472718007036  0.5868240039605112
  0.2490319150597480  0.4987638795436697  0.4200096764987782
  0.2508740808823997  0.5007182778304448  0.5869837481227540
  0.5015043744012609  0.4987800011370075  0.4196497615593856
  0.5017759400786479  0.5002565742532931  0.5866212088217754
  0.7520023559823681  0.5011162212397677  0.4208268420433200
  0.7517423763395570  0.5013227753554413  0.5865758970137338
  0.0016438574414395  0.7514131836757952  0.4206924337796497
  0.0013487093918307  0.7512729985537125  0.5865550205491513
  0.2492196174915181  0.7520443813268486  0.4195994505965907
  0.2499386554788084  0.7514639176363767  0.5865684083402080
  0.5021607178096830  0.7522656947968344  0.4290780218608846
  0.5002807431347400  0.7511873547022406  0.5731914102958533
  0.7543909738632032  0.7519051652099709  0.4195749673811116
  0.7526122389368015  0.7511696458042134  0.5864898099139833
  0.4997359740426744  0.7540950753486251  0.6646310591510878
  0.4296861999584437  0.6765365613240142  0.6816206439733515
 
  0.00000000E+00  0.00000000E+00  0.00000000E+00
  0.00000000E+00  0.00000000E+00  0.00000000E+00
  0.00000000E+00  0.00000000E+00  0.00000000E+00
  0.00000000E+00  0.00000000E+00  0.00000000E+00
  0.00000000E+00  0.00000000E+00  0.00000000E+00
  0.00000000E+00  0.00000000E+00  0.00000000E+00
  0.00000000E+00  0.00000000E+00  0.00000000E+00
  0.00000000E+00  0.00000000E+00  0.00000000E+00
  0.00000000E+00  0.00000000E+00  0.00000000E+00
  0.00000000E+00  0.00000000E+00  0.00000000E+00
  0.00000000E+00  0.00000000E+00  0.00000000E+00
  0.00000000E+00  0.00000000E+00  0.00000000E+00
  0.00000000E+00  0.00000000E+00  0.00000000E+00
  0.00000000E+00  0.00000000E+00  0.00000000E+00
  0.00000000E+00  0.00000000E+00  0.00000000E+00
  0.00000000E+00  0.00000000E+00  0.00000000E+00
  0.00000000E+00  0.00000000E+00  0.00000000E+00
  0.00000000E+00  0.00000000E+00  0.00000000E+00
  0.00000000E+00  0.00000000E+00  0.00000000E+00
  0.00000000E+00  0.00000000E+00  0.00000000E+00
  0.00000000E+00  0.00000000E+00  0.00000000E+00
  0.00000000E+00  0.00000000E+00  0.00000000E+00
  0.00000000E+00  0.00000000E+00  0.00000000E+00
  0.00000000E+00  0.00000000E+00  0.00000000E+00
  0.00000000E+00  0.00000000E+00  0.00000000E+00
  0.00000000E+00  0.00000000E+00  0.00000000E+00
  0.00000000E+00  0.00000000E+00  0.00000000E+00
  0.00000000E+00  0.00000000E+00  0.00000000E+00
  0.00000000E+00  0.00000000E+00  0.00000000E+00
  0.00000000E+00  0.00000000E+00  0.00000000E+00
  0.00000000E+00  0.00000000E+00  0.00000000E+00
  0.00000000E+00  0.00000000E+00  0.00000000E+00
  0.00000000E+00  0.00000000E+00  0.00000000E+00
  0.00000000E+00  0.00000000E+00  0.00000000E+00
  0.00000000E+00  0.00000000E+00  0.00000000E+00
  0.00000000E+00  0.00000000E+00  0.00000000E+00
  0.00000000E+00  0.00000000E+00  0.00000000E+00
  0.00000000E+00  0.00000000E+00  0.00000000E+00
  0.00000000E+00  0.00000000E+00  0.00000000E+00
  0.00000000E+00  0.00000000E+00  0.00000000E+00
  0.00000000E+00  0.00000000E+00  0.00000000E+00
  0.00000000E+00  0.00000000E+00  0.00000000E+00
  0.00000000E+00  0.00000000E+00  0.00000000E+00
  0.00000000E+00  0.00000000E+00  0.00000000E+00
  0.00000000E+00  0.00000000E+00  0.00000000E+00
  0.00000000E+00  0.00000000E+00  0.00000000E+00
  0.00000000E+00  0.00000000E+00  0.00000000E+00
  0.00000000E+00  0.00000000E+00  0.00000000E+00
  0.00000000E+00  0.00000000E+00  0.00000000E+00
  0.00000000E+00  0.00000000E+00  0.00000000E+00
