CONTCAR\(5)                             
   1.00000000000000     
    11.2482995986999992    0.0000000000000000    0.0000000000000000
     0.0000000000000000   13.7291002274000000    0.0000000000000000
     0.0000000000000000    0.0000000000000000   19.4125995636000006
   Zr   I    O 
    12    24     1
Direct
  0.0000000000000000  0.2509931599719252  0.5025318808339807
  0.1630441759560352  0.0618481718974621  0.4982813275592641
  0.3246482296644237  0.2531310532931260  0.5031124651941635
  0.5000000000000000  0.0584394808599275  0.4978823210063302
  0.6753518133355764  0.2531310532931260  0.5031124651941635
  0.8369558350439690  0.0618481718974621  0.4982813275592641
  0.0000000000000000  0.7512170977349671  0.5025312182768513
  0.1663028190534949  0.5625464968181860  0.4964972444782135
  0.3333609154880797  0.7510462771472769  0.5026217601156371
  0.5000000000000000  0.5619810736954528  0.4973528082447710
  0.6666391275119206  0.7510462771472769  0.5026217601156371
  0.8336971919465094  0.5625464968181860  0.4964972444782135
  0.0000000000000000  0.4464877062787593  0.5837324787114236
  0.0000000000000000  0.1166826329153330  0.3866802133440059
  0.1651165739765416  0.3683237883965965  0.4127738836783286
  0.1649788900294847  0.1965834341975287  0.6141929917927674
  0.3317917205766224  0.4464823382702721  0.5847537175802561
  0.3321831878753306  0.1159721192399548  0.3887174965331356
  0.5000000000000000  0.3667310327336373  0.4166130641732545
  0.5000000000000000  0.2000166458567108  0.6022238812238426
  0.6682083224233777  0.4464823382702721  0.5847537175802561
  0.6678168551246695  0.1159721192399548  0.3887174965331356
  0.8348834370234632  0.3683237883965965  0.4127738836783286
  0.8350211209705197  0.1965834341975287  0.6141929917927674
  0.0000000000000000  0.9448452576445556  0.5866821566282520
  0.0000000000000000  0.6183350778824311  0.3859822408202166
  0.1664827064739061  0.8676185120714803  0.4152917569704678
  0.1665864394883630  0.6960350335466114  0.6125731158821495
  0.3329234735433974  0.9462644861937863  0.5852749789379041
  0.3336954397498207  0.6168238874403347  0.3868780324733903
  0.5000000000000000  0.8664184365341928  0.4142446204191302
  0.5000000000000000  0.6962383517060821  0.6130035709223457
  0.6670765694566024  0.9462644861937863  0.5852749789379041
  0.6663046032501790  0.6168238874403347  0.3868780324733903
  0.8335173045260986  0.8676185120714803  0.4152917569704678
  0.8334135715116411  0.6960350335466114  0.6125731158821495
  0.5000399759999965  0.1956827621607722  0.6992718800042440
 
  0.00000000E+00  0.00000000E+00  0.00000000E+00
  0.00000000E+00  0.00000000E+00  0.00000000E+00
  0.00000000E+00  0.00000000E+00  0.00000000E+00
  0.00000000E+00  0.00000000E+00  0.00000000E+00
  0.00000000E+00  0.00000000E+00  0.00000000E+00
  0.00000000E+00  0.00000000E+00  0.00000000E+00
  0.00000000E+00  0.00000000E+00  0.00000000E+00
  0.00000000E+00  0.00000000E+00  0.00000000E+00
  0.00000000E+00  0.00000000E+00  0.00000000E+00
  0.00000000E+00  0.00000000E+00  0.00000000E+00
  0.00000000E+00  0.00000000E+00  0.00000000E+00
  0.00000000E+00  0.00000000E+00  0.00000000E+00
  0.00000000E+00  0.00000000E+00  0.00000000E+00
  0.00000000E+00  0.00000000E+00  0.00000000E+00
  0.00000000E+00  0.00000000E+00  0.00000000E+00
  0.00000000E+00  0.00000000E+00  0.00000000E+00
  0.00000000E+00  0.00000000E+00  0.00000000E+00
  0.00000000E+00  0.00000000E+00  0.00000000E+00
  0.00000000E+00  0.00000000E+00  0.00000000E+00
  0.00000000E+00  0.00000000E+00  0.00000000E+00
  0.00000000E+00  0.00000000E+00  0.00000000E+00
  0.00000000E+00  0.00000000E+00  0.00000000E+00
  0.00000000E+00  0.00000000E+00  0.00000000E+00
  0.00000000E+00  0.00000000E+00  0.00000000E+00
  0.00000000E+00  0.00000000E+00  0.00000000E+00
  0.00000000E+00  0.00000000E+00  0.00000000E+00
  0.00000000E+00  0.00000000E+00  0.00000000E+00
  0.00000000E+00  0.00000000E+00  0.00000000E+00
  0.00000000E+00  0.00000000E+00  0.00000000E+00
  0.00000000E+00  0.00000000E+00  0.00000000E+00
  0.00000000E+00  0.00000000E+00  0.00000000E+00
  0.00000000E+00  0.00000000E+00  0.00000000E+00
  0.00000000E+00  0.00000000E+00  0.00000000E+00
  0.00000000E+00  0.00000000E+00  0.00000000E+00
  0.00000000E+00  0.00000000E+00  0.00000000E+00
  0.00000000E+00  0.00000000E+00  0.00000000E+00
  0.00000000E+00  0.00000000E+00  0.00000000E+00
