CONTCAR                                 
   1.00000000000000     
     9.7571001052999993    0.0000000000000000    0.0000000000000000
    -3.0063686365000000   15.8319856181999992    0.0000000000000000
     0.0000000000000000    0.0000000000000000   18.2793006897000012
   V    P    S    O    H 
     4     8    26     1     1
Direct
  0.6237970925375080  0.6041368700772267  0.4942033518470197
  0.6166218741309919  0.1043833676821819  0.4958560850000708
  0.3804412190359159  0.3926297622117048  0.5177770422933889
  0.3873042653467849  0.8953451167119084  0.4949591571900527
  0.8297388644927040  0.2589106781005199  0.4811323258060582
  0.7047598679706795  0.4337211530395990  0.5304206166984429
  0.1773610750726107  0.7383699545807545  0.5032427367384642
  0.1555014857152628  0.2425001479799249  0.5015583924228793
  0.3029383251713895  0.0647963466371948  0.5343815535845806
  0.6989740809482186  0.9337855164722555  0.4578919558823671
  0.3123362301849824  0.5651674158068261  0.4645286564332309
  0.8338686243478932  0.7614706081338412  0.5004138006313426
  0.1127310707902751  0.1045394930335490  0.5283852482276288
  0.8918881513077821  0.8920395579888734  0.4711309983747327
  0.0041609596822454  0.7507066281108763  0.5713644654099213
  0.3909759398717014  0.0371009859951457  0.4356563018199324
  0.5614464347341794  0.3545010966178310  0.5901653109177829
  0.2460759006434117  0.4486147094663622  0.4228426025376066
  0.2371775375797043  0.3495825269530997  0.6125365460120875
  0.6673475065370056  0.7320903777731189  0.5668916979050636
  0.4614807571058464  0.6428749836229954  0.4074945165896651
  0.6010954301771250  0.4581038919605831  0.4374045498005685
  0.6565584309692909  0.2295221676550128  0.4192881167025391
  0.8926155504802011  0.3901171208731427  0.5077732190561406
  0.0008394793464461  0.2426113841293258  0.4154534322113008
  0.6126785786064346  0.9621423408184882  0.5561263391460756
  0.8077418283124942  0.6822140485068644  0.4149599732757423
  0.4060712629207401  0.5453658852991055  0.5627758447491260
  0.2041155109622537  0.8173988709242366  0.4172662188372342
  0.7748321601283692  0.5464940087135446  0.5783483643720686
  0.5460268153474317  0.8510235092554410  0.4084241288135928
  0.2523703774737527  0.9513925936911534  0.5856039417004624
  0.3436974492770304  0.7671273133802856  0.5694633997909619
  0.8041029826388808  0.1838328736112729  0.5701717384367768
  0.7577975917158852  0.0453668710460988  0.4065417918445746
  0.4622837386169607  0.1449083148903867  0.5838611758224275
  0.1197226343473830  0.6077385095610310  0.4754668549091150
  0.3364685133169090  0.2699066510124339  0.4423603344334666
  0.3126312667324953  0.4087850032458391  0.6847711598952557
  0.2579729924228431  0.3865914934299610  0.7277061588802667
 
  0.00000000E+00  0.00000000E+00  0.00000000E+00
  0.00000000E+00  0.00000000E+00  0.00000000E+00
  0.00000000E+00  0.00000000E+00  0.00000000E+00
  0.00000000E+00  0.00000000E+00  0.00000000E+00
  0.00000000E+00  0.00000000E+00  0.00000000E+00
  0.00000000E+00  0.00000000E+00  0.00000000E+00
  0.00000000E+00  0.00000000E+00  0.00000000E+00
  0.00000000E+00  0.00000000E+00  0.00000000E+00
  0.00000000E+00  0.00000000E+00  0.00000000E+00
  0.00000000E+00  0.00000000E+00  0.00000000E+00
  0.00000000E+00  0.00000000E+00  0.00000000E+00
  0.00000000E+00  0.00000000E+00  0.00000000E+00
  0.00000000E+00  0.00000000E+00  0.00000000E+00
  0.00000000E+00  0.00000000E+00  0.00000000E+00
  0.00000000E+00  0.00000000E+00  0.00000000E+00
  0.00000000E+00  0.00000000E+00  0.00000000E+00
  0.00000000E+00  0.00000000E+00  0.00000000E+00
  0.00000000E+00  0.00000000E+00  0.00000000E+00
  0.00000000E+00  0.00000000E+00  0.00000000E+00
  0.00000000E+00  0.00000000E+00  0.00000000E+00
  0.00000000E+00  0.00000000E+00  0.00000000E+00
  0.00000000E+00  0.00000000E+00  0.00000000E+00
  0.00000000E+00  0.00000000E+00  0.00000000E+00
  0.00000000E+00  0.00000000E+00  0.00000000E+00
  0.00000000E+00  0.00000000E+00  0.00000000E+00
  0.00000000E+00  0.00000000E+00  0.00000000E+00
  0.00000000E+00  0.00000000E+00  0.00000000E+00
  0.00000000E+00  0.00000000E+00  0.00000000E+00
  0.00000000E+00  0.00000000E+00  0.00000000E+00
  0.00000000E+00  0.00000000E+00  0.00000000E+00
  0.00000000E+00  0.00000000E+00  0.00000000E+00
  0.00000000E+00  0.00000000E+00  0.00000000E+00
  0.00000000E+00  0.00000000E+00  0.00000000E+00
  0.00000000E+00  0.00000000E+00  0.00000000E+00
  0.00000000E+00  0.00000000E+00  0.00000000E+00
  0.00000000E+00  0.00000000E+00  0.00000000E+00
  0.00000000E+00  0.00000000E+00  0.00000000E+00
  0.00000000E+00  0.00000000E+00  0.00000000E+00
  0.00000000E+00  0.00000000E+00  0.00000000E+00
  0.00000000E+00  0.00000000E+00  0.00000000E+00
