CONTCAR\(14)                            
   1.00000000000000     
    11.5652999877999996    0.0000000000000000    0.0000000000000000
     0.0000000000000000   13.3549995421999999    0.0000000000000000
     0.0000000000000000    0.0000000000000000   25.4929008484000015
   Ta   Ag   S    O 
    32     8    64     1
Direct
  0.2455732295636746  0.4981485171340226  0.3616893422120468
  0.2455630160796761  0.2524248858863971  0.3616409865381012
  0.0005441939257807  0.3753025260540616  0.3636404889315126
  0.0843610954162614  0.2507351083526026  0.6392796870331711
  0.0013192620886894  0.1251972354164043  0.3612334638518456
  0.0860651052461599  0.0025038115776686  0.6395744733847361
  0.3313305023813017  0.1266199469515931  0.6369022370826798
  0.3227378042742443  0.3762931865963833  0.6386557639064139
  0.7453657596595852  0.4983844059764434  0.3618491321327449
  0.7453311230459243  0.2521541272966787  0.3618800829783356
  0.5004771792746818  0.3753537488496195  0.3636492074331885
  0.5890624556963948  0.2437070443586953  0.6379856116808799
  0.5015319721664685  0.1253728395800000  0.3614464473641280
  0.5868957134594307  0.0038285233906613  0.6388640129195595
  0.8300025785716674  0.1260568283206500  0.6372103170633224
  0.8305976026768555  0.3763281046708125  0.6390738715177675
  0.2454303986079273  0.9981478652448232  0.3614432875408899
  0.2454439734610082  0.7522998360963430  0.3614201500901740
  0.0004903322504121  0.8752245556031394  0.3634222743573535
  0.0860244998511366  0.7500380176571531  0.6396049488304452
  0.0013196626447081  0.6253023802480058  0.3612426918275624
  0.0841720853898890  0.5017859873102566  0.6392010970761662
  0.3313104424859851  0.6261937238091202  0.6369155459603245
  0.3299079706224211  0.8763534640323938  0.6397965547810834
  0.7455190418251241  0.9983382136019432  0.3616360516075643
  0.7455387194480994  0.7521497307282683  0.3616064509921783
  0.5005162398478935  0.8752833587847434  0.3635647388433074
  0.5869534113058733  0.7490370939568463  0.6388631442601536
  0.5015690456983311  0.6252238567659089  0.3614472592400144
  0.5891667928397301  0.5093003126246867  0.6378551784972748
  0.8300147442678463  0.6266501948790721  0.6371442646691849
  0.8303210126997925  0.8762967419126533  0.6395513017645099
  0.4965767679884528  0.3756064099312345  0.4893135448010359
  0.3313972064665072  0.1245361836993570  0.5127173593617151
  0.9975913534222518  0.3752667353207318  0.4872245477390250
  0.8365115459014336  0.1247975197310720  0.5130676416568444
  0.4967956744833429  0.8752938100974667  0.4878394164417116
  0.3313747931470187  0.6285463797204097  0.5127328391500512
  0.9977279560307947  0.8751487360142934  0.4877607976282566
  0.8360001688108254  0.6276097092005286  0.5130681006942286
  0.2460131347997924  0.4982058927331888  0.5756346131641492
  0.2516826224439273  0.0032323935019226  0.6998974020595314
  0.2459048333823578  0.2545119886874444  0.5755996100638140
  0.2510680186036771  0.2496262998904223  0.6997680600769464
  0.0801734295871354  0.2517386331252039  0.3010390977644646
  0.0838845430946702  0.2454413976352006  0.4245353463565707
  0.4983571484992241  0.3764421438062814  0.5825880943550764
  0.9987789243689824  0.3761961995583236  0.6991069124722610
  0.0802442958508284  0.4988317723757511  0.3010553820458942
  0.0836536481537596  0.0047877827737842  0.4244257628929391
  0.0050714341046122  0.1260135340939257  0.5774737841882575
  0.4969322266275171  0.1265331515492409  0.6988307254799753
  0.3312449826196067  0.1253664321229765  0.3022497033668992
  0.3322264033318771  0.1251895556314259  0.4206238491408696
  0.3343615512357020  0.3752165632739787  0.3019467255760153
  0.3266451465627978  0.3752866715245631  0.4241563428519647
  0.7491120943923979  0.4964554137416877  0.5752430049706699
  0.7513472579185133  0.0026039380151869  0.6998571415546123
  0.7489035533289861  0.2560643185344312  0.5752623357760352
  0.7503911489361550  0.2508398991630427  0.6996710805910361
  0.5802555389752515  0.2517243623596868  0.3011812779463462
  0.5832430524723954  0.2461631698070845  0.4248915813804831
  0.9987023610238365  0.3760599463072180  0.5794055236725403
  0.4998684441477988  0.3769472628791934  0.6940287591296629
  0.5802488656307081  0.4988799269977394  0.3011558826462630
  0.5836722846049209  0.0048997855174069  0.4246043807445277
  0.5041262094352594  0.1247540122221372  0.5756899627363778
  0.9968869883334570  0.1265430511787797  0.6987400953951823
  0.8309410174697743  0.1254586578241517  0.3022706476228286
  0.8325603238519942  0.1252043178358581  0.4208471881270024
  0.8340694262483079  0.3751722024402945  0.3021205900762943
  0.8262665888108884  0.3752611820976826  0.4240273521359992
  0.2472249392991340  0.9962654683751236  0.5765029470749151
  0.2508945997915612  0.5030165276105292  0.6996620207015940
  0.2471313339771473  0.7564671152939425  0.5765331389452130
  0.2516508731286530  0.7494500707416224  0.6999319746901671
  0.0800898598960841  0.7515376881371972  0.3008579121294610
  0.0837812344042899  0.7457604249218831  0.4244476528586362
  0.4990243271207067  0.8763494734739286  0.5801523195100904
  0.9997519211411420  0.8762392774481598  0.6990451747474075
  0.0800971816293005  0.9989384307519918  0.3008869453826218
  0.0837814083965771  0.5052229947931793  0.4245592968425689
  0.0050477554811848  0.6266345238421729  0.5773878277788855
  0.4969758947288652  0.6264366542528855  0.6987886490635805
  0.3312733303310194  0.6251313274119327  0.3022440126666233
  0.3323035282792062  0.6254672391395472  0.4206494283896648
  0.3343999570451018  0.8751391859438794  0.3017424276294597
  0.3262927708345481  0.8752385322597263  0.4237498112737408
  0.7482594683637070  0.9962775059849474  0.5760040711157591
  0.7503790092636080  0.5019680218810763  0.6995980529332201
  0.7482224217676727  0.7564016680375680  0.5759474795625922
  0.7513784302842624  0.7501159040257144  0.6998764813147846
  0.5801330657022130  0.7515971183219030  0.3010443089315056
  0.5838240421462687  0.7457898325389209  0.4246233433052657
  0.9989083006549966  0.8761775693080709  0.5801060418313719
  0.5011299864687639  0.8763936955106016  0.6981777556095706
  0.5801668353230692  0.9989939529491498  0.3010663204373825
  0.5833609879205998  0.5046017157807144  0.4248757040084428
  0.5040935703257556  0.6282022653267150  0.5756394802129833
  0.9967887791992948  0.6260525068789786  0.6987036948457330
  0.8310003976235780  0.6250721600480189  0.3022331724852191
  0.8325749442460088  0.6253821527457588  0.4208454882107059
  0.8340707511028640  0.8751798141305922  0.3018427511863681
  0.8265314530469635  0.8752518643244113  0.4238400444369712
  0.5006469542051034  0.3775334822207696  0.7526527436845399
 
  0.00000000E+00  0.00000000E+00  0.00000000E+00
  0.00000000E+00  0.00000000E+00  0.00000000E+00
  0.00000000E+00  0.00000000E+00  0.00000000E+00
  0.00000000E+00  0.00000000E+00  0.00000000E+00
  0.00000000E+00  0.00000000E+00  0.00000000E+00
  0.00000000E+00  0.00000000E+00  0.00000000E+00
  0.00000000E+00  0.00000000E+00  0.00000000E+00
  0.00000000E+00  0.00000000E+00  0.00000000E+00
  0.00000000E+00  0.00000000E+00  0.00000000E+00
  0.00000000E+00  0.00000000E+00  0.00000000E+00
  0.00000000E+00  0.00000000E+00  0.00000000E+00
  0.00000000E+00  0.00000000E+00  0.00000000E+00
  0.00000000E+00  0.00000000E+00  0.00000000E+00
  0.00000000E+00  0.00000000E+00  0.00000000E+00
  0.00000000E+00  0.00000000E+00  0.00000000E+00
  0.00000000E+00  0.00000000E+00  0.00000000E+00
  0.00000000E+00  0.00000000E+00  0.00000000E+00
  0.00000000E+00  0.00000000E+00  0.00000000E+00
  0.00000000E+00  0.00000000E+00  0.00000000E+00
  0.00000000E+00  0.00000000E+00  0.00000000E+00
  0.00000000E+00  0.00000000E+00  0.00000000E+00
  0.00000000E+00  0.00000000E+00  0.00000000E+00
  0.00000000E+00  0.00000000E+00  0.00000000E+00
  0.00000000E+00  0.00000000E+00  0.00000000E+00
  0.00000000E+00  0.00000000E+00  0.00000000E+00
  0.00000000E+00  0.00000000E+00  0.00000000E+00
  0.00000000E+00  0.00000000E+00  0.00000000E+00
  0.00000000E+00  0.00000000E+00  0.00000000E+00
  0.00000000E+00  0.00000000E+00  0.00000000E+00
  0.00000000E+00  0.00000000E+00  0.00000000E+00
  0.00000000E+00  0.00000000E+00  0.00000000E+00
  0.00000000E+00  0.00000000E+00  0.00000000E+00
  0.00000000E+00  0.00000000E+00  0.00000000E+00
  0.00000000E+00  0.00000000E+00  0.00000000E+00
  0.00000000E+00  0.00000000E+00  0.00000000E+00
  0.00000000E+00  0.00000000E+00  0.00000000E+00
  0.00000000E+00  0.00000000E+00  0.00000000E+00
  0.00000000E+00  0.00000000E+00  0.00000000E+00
  0.00000000E+00  0.00000000E+00  0.00000000E+00
  0.00000000E+00  0.00000000E+00  0.00000000E+00
  0.00000000E+00  0.00000000E+00  0.00000000E+00
  0.00000000E+00  0.00000000E+00  0.00000000E+00
  0.00000000E+00  0.00000000E+00  0.00000000E+00
  0.00000000E+00  0.00000000E+00  0.00000000E+00
  0.00000000E+00  0.00000000E+00  0.00000000E+00
  0.00000000E+00  0.00000000E+00  0.00000000E+00
  0.00000000E+00  0.00000000E+00  0.00000000E+00
  0.00000000E+00  0.00000000E+00  0.00000000E+00
  0.00000000E+00  0.00000000E+00  0.00000000E+00
  0.00000000E+00  0.00000000E+00  0.00000000E+00
  0.00000000E+00  0.00000000E+00  0.00000000E+00
  0.00000000E+00  0.00000000E+00  0.00000000E+00
  0.00000000E+00  0.00000000E+00  0.00000000E+00
  0.00000000E+00  0.00000000E+00  0.00000000E+00
  0.00000000E+00  0.00000000E+00  0.00000000E+00
  0.00000000E+00  0.00000000E+00  0.00000000E+00
  0.00000000E+00  0.00000000E+00  0.00000000E+00
  0.00000000E+00  0.00000000E+00  0.00000000E+00
  0.00000000E+00  0.00000000E+00  0.00000000E+00
  0.00000000E+00  0.00000000E+00  0.00000000E+00
  0.00000000E+00  0.00000000E+00  0.00000000E+00
  0.00000000E+00  0.00000000E+00  0.00000000E+00
  0.00000000E+00  0.00000000E+00  0.00000000E+00
  0.00000000E+00  0.00000000E+00  0.00000000E+00
  0.00000000E+00  0.00000000E+00  0.00000000E+00
  0.00000000E+00  0.00000000E+00  0.00000000E+00
  0.00000000E+00  0.00000000E+00  0.00000000E+00
  0.00000000E+00  0.00000000E+00  0.00000000E+00
  0.00000000E+00  0.00000000E+00  0.00000000E+00
  0.00000000E+00  0.00000000E+00  0.00000000E+00
  0.00000000E+00  0.00000000E+00  0.00000000E+00
  0.00000000E+00  0.00000000E+00  0.00000000E+00
  0.00000000E+00  0.00000000E+00  0.00000000E+00
  0.00000000E+00  0.00000000E+00  0.00000000E+00
  0.00000000E+00  0.00000000E+00  0.00000000E+00
  0.00000000E+00  0.00000000E+00  0.00000000E+00
  0.00000000E+00  0.00000000E+00  0.00000000E+00
  0.00000000E+00  0.00000000E+00  0.00000000E+00
  0.00000000E+00  0.00000000E+00  0.00000000E+00
  0.00000000E+00  0.00000000E+00  0.00000000E+00
  0.00000000E+00  0.00000000E+00  0.00000000E+00
  0.00000000E+00  0.00000000E+00  0.00000000E+00
  0.00000000E+00  0.00000000E+00  0.00000000E+00
  0.00000000E+00  0.00000000E+00  0.00000000E+00
  0.00000000E+00  0.00000000E+00  0.00000000E+00
  0.00000000E+00  0.00000000E+00  0.00000000E+00
  0.00000000E+00  0.00000000E+00  0.00000000E+00
  0.00000000E+00  0.00000000E+00  0.00000000E+00
  0.00000000E+00  0.00000000E+00  0.00000000E+00
  0.00000000E+00  0.00000000E+00  0.00000000E+00
  0.00000000E+00  0.00000000E+00  0.00000000E+00
  0.00000000E+00  0.00000000E+00  0.00000000E+00
  0.00000000E+00  0.00000000E+00  0.00000000E+00
  0.00000000E+00  0.00000000E+00  0.00000000E+00
  0.00000000E+00  0.00000000E+00  0.00000000E+00
  0.00000000E+00  0.00000000E+00  0.00000000E+00
  0.00000000E+00  0.00000000E+00  0.00000000E+00
  0.00000000E+00  0.00000000E+00  0.00000000E+00
  0.00000000E+00  0.00000000E+00  0.00000000E+00
  0.00000000E+00  0.00000000E+00  0.00000000E+00
  0.00000000E+00  0.00000000E+00  0.00000000E+00
  0.00000000E+00  0.00000000E+00  0.00000000E+00
  0.00000000E+00  0.00000000E+00  0.00000000E+00
  0.00000000E+00  0.00000000E+00  0.00000000E+00
  0.00000000E+00  0.00000000E+00  0.00000000E+00
