CONTCAR\(3)                             
   1.00000000000000     
    11.2130002975000007    0.0000000000000000    0.0000000000000000
     0.0000000000000000   15.4723997115999996    0.0000000000000000
     0.0000000000000000    0.0000000000000000   19.4957008362000010
   Ta   Te   Pt   O    H 
     6    30     6     2     1
Selective dynamics
Direct
  0.0070174398904328  0.2484027812302330  0.5057889418682819   F   F   F
  0.0069215417094597  0.7497664066231238  0.4967828296605816   F   F   F
  0.3411800563453014  0.2461563133781368  0.5056905536495506   F   F   F
  0.3407763851962642  0.7501313797935580  0.4982633250396802   F   F   F
  0.6752403029924139  0.2485033873958571  0.5057981773215374   F   F   F
  0.6742807432925986  0.7500366870739725  0.4971124408498468   F   F   F
  0.1726801480538853  0.2474608077413194  0.6171912777959534   F   F   F
  0.1752770325042903  0.7498860172510504  0.3863347370245478   F   F   F
  0.0081846217695798  0.9157328191467045  0.4251737946513572   F   F   F
  0.0058910551377522  0.0819884308384005  0.5770540828337118   F   F   F
  0.1737301281030170  0.1462847922474708  0.4281767536907992   F   F   F
  0.1731421002109599  0.8508412554206970  0.5756569934059428   F   F   F
  0.1720213972139177  0.6488513636872852  0.5748116486974340   F   F   F
  0.1741832068643916  0.3494926068361863  0.4280329672544667   F   F   F
  0.0057282687369025  0.5837730777901342  0.4248814715863958   F   F   F
  0.0050533255421499  0.4150426397220670  0.5772575876926496   F   F   F
  0.5091666513999016  0.2463035298413416  0.6168922328108408   F   F   F
  0.5061345546400560  0.7503960513796315  0.3864066729114484   F   F   F
  0.3404413698199988  0.9161860661706385  0.4269040237931208   F   F   F
  0.3405544708342063  0.0807812504505847  0.5773403331057949   F   F   F
  0.5083612120478804  0.1466604190699670  0.4280203972587557   F   F   F
  0.5080471044800632  0.8513567339927448  0.5756170934462759   F   F   F
  0.5089451958956701  0.6497627780417972  0.5757002991035591   F   F   F
  0.5076441895204269  0.3503726588803389  0.4288283194050635   F   F   F
  0.3404587620046229  0.5840837662183276  0.4274562297432354   F   F   F
  0.3385619728136788  0.4153725928158281  0.5646618271784405   F   F   F
  0.8411116910189236  0.2483926891043922  0.6171008125540496   F   F   F
  0.8401856674619097  0.7482339485706007  0.3854452619041666   F   F   F
  0.6736620776251812  0.9160464636636974  0.4252073069979474   F   F   F
  0.6758685859353690  0.0817688846755757  0.5765505031543228   F   F   F
  0.8408921070680790  0.1470195519796320  0.4274902298120296   F   F   F
  0.8410386780515964  0.8509139281584410  0.5746433971775033   F   F   F
  0.8408144555918255  0.6479546316289628  0.5740702617483819   F   F   F
  0.8412463954235605  0.3502661276355425  0.4278944291736195   F   F   F
  0.6736422205699384  0.5834178147672944  0.4262489280372890   F   F   F
  0.6773136154816797  0.4150407076585054  0.5771873174143849   F   F   F
  0.1730146398639931  0.9988433700978163  0.5020685445440520   F   F   F
  0.1690409208496888  0.5009050830603954  0.5011323490316713   F   F   F
  0.5080517878922919  0.9990848183599752  0.5017618357744240   F   F   F
  0.5107378184288862  0.5010752969754151  0.5030991562979921   F   F   F
  0.8411517085538875  0.9988675285641406  0.5007788674597151   F   F   F
  0.8410561515403288  0.4991722142855508  0.5006214780406495   F   F   F
  0.3340025641674345  0.4233972734903730  0.6735320902183375   T   T   T
  0.4366169591887612  0.4702347272694283  0.6990774400899582   T   T   T
  0.4958390092667742  0.4234581670169176  0.7031655753913647   T   T   T
 
  0.00000000E+00  0.00000000E+00  0.00000000E+00
  0.00000000E+00  0.00000000E+00  0.00000000E+00
  0.00000000E+00  0.00000000E+00  0.00000000E+00
  0.00000000E+00  0.00000000E+00  0.00000000E+00
  0.00000000E+00  0.00000000E+00  0.00000000E+00
  0.00000000E+00  0.00000000E+00  0.00000000E+00
  0.00000000E+00  0.00000000E+00  0.00000000E+00
  0.00000000E+00  0.00000000E+00  0.00000000E+00
  0.00000000E+00  0.00000000E+00  0.00000000E+00
  0.00000000E+00  0.00000000E+00  0.00000000E+00
  0.00000000E+00  0.00000000E+00  0.00000000E+00
  0.00000000E+00  0.00000000E+00  0.00000000E+00
  0.00000000E+00  0.00000000E+00  0.00000000E+00
  0.00000000E+00  0.00000000E+00  0.00000000E+00
  0.00000000E+00  0.00000000E+00  0.00000000E+00
  0.00000000E+00  0.00000000E+00  0.00000000E+00
  0.00000000E+00  0.00000000E+00  0.00000000E+00
  0.00000000E+00  0.00000000E+00  0.00000000E+00
  0.00000000E+00  0.00000000E+00  0.00000000E+00
  0.00000000E+00  0.00000000E+00  0.00000000E+00
  0.00000000E+00  0.00000000E+00  0.00000000E+00
  0.00000000E+00  0.00000000E+00  0.00000000E+00
  0.00000000E+00  0.00000000E+00  0.00000000E+00
  0.00000000E+00  0.00000000E+00  0.00000000E+00
  0.00000000E+00  0.00000000E+00  0.00000000E+00
  0.00000000E+00  0.00000000E+00  0.00000000E+00
  0.00000000E+00  0.00000000E+00  0.00000000E+00
  0.00000000E+00  0.00000000E+00  0.00000000E+00
  0.00000000E+00  0.00000000E+00  0.00000000E+00
  0.00000000E+00  0.00000000E+00  0.00000000E+00
  0.00000000E+00  0.00000000E+00  0.00000000E+00
  0.00000000E+00  0.00000000E+00  0.00000000E+00
  0.00000000E+00  0.00000000E+00  0.00000000E+00
  0.00000000E+00  0.00000000E+00  0.00000000E+00
  0.00000000E+00  0.00000000E+00  0.00000000E+00
  0.00000000E+00  0.00000000E+00  0.00000000E+00
  0.00000000E+00  0.00000000E+00  0.00000000E+00
  0.00000000E+00  0.00000000E+00  0.00000000E+00
  0.00000000E+00  0.00000000E+00  0.00000000E+00
  0.00000000E+00  0.00000000E+00  0.00000000E+00
  0.00000000E+00  0.00000000E+00  0.00000000E+00
  0.00000000E+00  0.00000000E+00  0.00000000E+00
  0.00000000E+00  0.00000000E+00  0.00000000E+00
  0.00000000E+00  0.00000000E+00  0.00000000E+00
  0.00000000E+00  0.00000000E+00  0.00000000E+00
