 Nb9 Ir1 Se20                           
   1.00000000000000     
     6.9101671233558291    0.0000000000000000    0.0000000000000000
     1.7075291546144076   15.0073757373094772    0.0000000000000000
     0.0000000000000000    0.0000000000000000   18.4675706551199994
   Nb   Ir   Se
     9     1    20
Direct
  0.1710565169108796  0.1837857608752189  0.5029962587843546
  0.0112286346515497  0.9783618030127192  0.4962270898221183
  0.8008259871664739  0.8015113411134573  0.4992589316786578
  0.5878463709968975  0.6232686508824560  0.5015467254047502
  0.5019108863074928 -0.0170688750210855  0.4980934264669570
  0.3778463945933157  0.4243285824248017  0.5055438335610410
  0.2992100804613829  0.8036880458116471  0.4995296215835130
  0.0915485354712298  0.6220200032597187  0.5010653932066285
  0.8874481232445240  0.3829882660688058  0.4984934079495206
  0.7376009381071444  0.2101154852079940  0.4987043994301303
  0.9403909863200721  0.2664414688677741  0.5979689719834616
  0.1682089411894563  0.3351838967737710  0.4156817991369537
  0.7362602577202670  0.0708408130744570  0.5750798819237158
  0.9672039507632035  0.1280629944158554  0.4071617690848073
  0.5358235236171931  0.8654392278348455  0.5951514300948729
  0.4424596656463636  0.2670529256184113  0.5730249150777659
  0.7643009457514203  0.9325520801009400  0.4028417217516519
  0.6550638285795036  0.3357116269893120  0.4095020823459691
  0.3276296813382091  0.6735331497958377  0.5968500428558465
  0.2288079194609894  0.0577128417858050  0.5907381301419435
  0.4823550554352041  0.1396773871871708  0.4240200290362954
  0.5641104560270546  0.7401665644000576  0.4041438210047164
  0.1176472887736727  0.4745736198754877  0.5907005952095129
  0.0320853506880029  0.8636278949639150  0.5953306675896389
  0.3591926485269833  0.5435988888738413  0.4099789921180824
  0.2705672389153189  0.9331863264600498  0.4004670084152751
  0.8284891492345754  0.6722067644712613  0.5963808882711127
  0.0634484761632976  0.7396798393417761  0.4040592146021588
  0.6363205913746702  0.4737961215056413  0.5875647617684422
  0.8600665765636413  0.5355765040281051  0.4218941897000567
 
  0.00000000E+00  0.00000000E+00  0.00000000E+00
  0.00000000E+00  0.00000000E+00  0.00000000E+00
  0.00000000E+00  0.00000000E+00  0.00000000E+00
  0.00000000E+00  0.00000000E+00  0.00000000E+00
  0.00000000E+00  0.00000000E+00  0.00000000E+00
  0.00000000E+00  0.00000000E+00  0.00000000E+00
  0.00000000E+00  0.00000000E+00  0.00000000E+00
  0.00000000E+00  0.00000000E+00  0.00000000E+00
  0.00000000E+00  0.00000000E+00  0.00000000E+00
  0.00000000E+00  0.00000000E+00  0.00000000E+00
  0.00000000E+00  0.00000000E+00  0.00000000E+00
  0.00000000E+00  0.00000000E+00  0.00000000E+00
  0.00000000E+00  0.00000000E+00  0.00000000E+00
  0.00000000E+00  0.00000000E+00  0.00000000E+00
  0.00000000E+00  0.00000000E+00  0.00000000E+00
  0.00000000E+00  0.00000000E+00  0.00000000E+00
  0.00000000E+00  0.00000000E+00  0.00000000E+00
  0.00000000E+00  0.00000000E+00  0.00000000E+00
  0.00000000E+00  0.00000000E+00  0.00000000E+00
  0.00000000E+00  0.00000000E+00  0.00000000E+00
  0.00000000E+00  0.00000000E+00  0.00000000E+00
  0.00000000E+00  0.00000000E+00  0.00000000E+00
  0.00000000E+00  0.00000000E+00  0.00000000E+00
  0.00000000E+00  0.00000000E+00  0.00000000E+00
  0.00000000E+00  0.00000000E+00  0.00000000E+00
  0.00000000E+00  0.00000000E+00  0.00000000E+00
  0.00000000E+00  0.00000000E+00  0.00000000E+00
  0.00000000E+00  0.00000000E+00  0.00000000E+00
  0.00000000E+00  0.00000000E+00  0.00000000E+00
  0.00000000E+00  0.00000000E+00  0.00000000E+00
