 Sc2 H2 Cl2                             
   1.00000000000000     
     3.4676281040179262    0.0000000000000000    0.0000000000000000
     1.7338140520089631    3.0030490097017322    0.0000000000000000
     0.0000000000000000    0.0000000000000000   20.7413426901600033
   Sc   H    Cl
     2     2     2
Direct
  0.3333326488030093  0.3333337240021584  0.4393822424541659
  0.6666672802228581  0.6666666648471603  0.5606260548605080
  0.3333333165566366  0.3333332696321800  0.5357268412888055
  0.6666668023328464  0.6666665066482584  0.4642663902677532
 -0.0000001439834311 -0.0000002108143319  0.6386673932379578
  0.0000000960680807  0.0000000456845746  0.3613310778908094
 
  0.00000000E+00  0.00000000E+00  0.00000000E+00
  0.00000000E+00  0.00000000E+00  0.00000000E+00
  0.00000000E+00  0.00000000E+00  0.00000000E+00
  0.00000000E+00  0.00000000E+00  0.00000000E+00
  0.00000000E+00  0.00000000E+00  0.00000000E+00
  0.00000000E+00  0.00000000E+00  0.00000000E+00
