CONTCAR                                 
   1.00000000000000     
    14.0088996886999997    0.0000000000000000    0.0000000000000000
     5.5188320969999998   13.5818590718000003    0.0000000000000000
     0.0000000000000000    0.0000000000000000   20.1937999724999990
   Cu   H    S    O 
    12    25    12    61
Direct
  0.1662494612897803  0.2507410200695285  0.5204412304559802
  0.0090262873415238  0.9904453623074843  0.5045268120618271
  0.5133572000685909  0.2591500903332043  0.4690983040056410
  0.3344755904484307  0.0077146178787289  0.4958946216869425
  0.8322882741949815  0.2655800724134756  0.5046028086126042
  0.6749046621845761  0.0036695875219978  0.4993015613524149
  0.1647119080906948  0.7384700277617263  0.4987648666838434
  0.0157117706715526  0.5139440737468239  0.5150432488784648
  0.4777957828998791  0.7574639658254446  0.4976652441838095
  0.3574850594253503  0.4952650782623079  0.5309034308620472
  0.8078298307459614  0.7542036063414753  0.4858394096187245
  0.6895036490769655  0.4976870830799046  0.5197897476825069
  0.2403824553431871  0.1824336868607393  0.4039562095804766
  0.0693978668886322  0.2704608468748731  0.6233067517710750
  0.0005860612304882  0.1685644602398715  0.4625780208559442
  0.4155242240410055  0.2953291971768920  0.5753292061630377
  0.6374820512314556  0.1684662705623067  0.3744470257861945
  0.5125164060085561  0.3272672693676199  0.5852309842843947
  0.3289070833440219  0.1827729285397487  0.4537888431712948
  0.6868712153819981  0.3432724314873080  0.5788041504113438
  0.9352378767865845  0.2274307288380041  0.4023636660318713
  0.6557891619803076  0.2460959075579524  0.6423052529343649
  0.5682295737833074  0.1074067973025404  0.3937420608437706
 -0.0010185783822621  0.3405475785489428  0.5684205864649734
  0.2626809931047652  0.6995301875873871  0.3898882565910108
  0.0614006828481922  0.7947057981069540  0.6027519534517968
  0.8863140372062446  0.6170835605056332  0.4028772823399631
  0.3238371926434007  0.8404980563706215  0.5571749836894482
  0.5621693581123686  0.7235939057735393  0.3846492792065468
  0.4078329299159619  0.7921212328751736  0.6118278444049932
  0.2593492250936919  0.5965501810306133  0.4168494978862221
  0.6425335198015480  0.8440950508953642  0.5358758428251446
  0.9000088311537764  0.7166861418410365  0.3755708238669864
  0.7232199017784144  0.8120666677158158  0.5953804243149040
  0.5541173407756147  0.6224339948241254  0.4151437359952911
  0.9902963497475897  0.8229890349353147  0.5389428970008538
  0.5873587697068248  0.3526864641598445  0.6725768695117863
  0.1375259086993627  0.0868838114591564  0.5778220273529914
  0.2270701049838575  0.3952837213807190  0.4584509731895897
  0.4646911663661409  0.1179201503105426  0.5557790003274934
  0.5363852108541720  0.4430255537778885  0.4203783856067050
  0.8032625265250734  0.1030462663473087  0.5738466842214971
  0.8873320474651665  0.4161079433145707  0.4367258148444833
  0.1378130637921897  0.5988715047893401  0.5905470154085222
  0.2107317289665120  0.8897538744419023  0.4318461812703788
  0.4778340497606682  0.6052712172786122  0.5891886281176039
  0.5321477080581267  0.9102836582599920  0.4223589427885008
  0.7974197730661958  0.6188691951954558  0.5753003461098415
  0.8737360986107748  0.9017634328579073  0.4251729134917089
  0.2533561909114852  0.4827902572631423  0.4733057790329288
  0.1156678925019399 -0.0029772451735704  0.5646193833159949
  0.1122248368188606  0.4340344518717377  0.4475716323244177
  0.2521963991388622  0.0586146748711726  0.5768193159034103
  0.2472547677224481  0.3333900181744731  0.5210850047820695
  0.0955687028536837  0.1570652132271038  0.5182106998192108
  0.2813007971653262  0.3405467128145088  0.4012950671148144
  0.0949709037626353  0.1376428892752024  0.6390226343517446
  0.0664726778008313  0.3233525615329736  0.5913226795154300
  0.2638979079862007  0.1685393624563998  0.4497894224376834
  0.5829970291468152  0.5099466479515408  0.4526410091440918
  0.4406682567093669  0.0282161627629518  0.5497067381282827
  0.4259639979194146  0.4784826534542838  0.4419618327873733
  0.5786092365539914  0.0864920031103400  0.5658692514148029
  0.5913631318095206  0.3407991069950549  0.4493819002410116
  0.4408231079896577  0.1708272401963066  0.4879869564143395
  0.5442974086643183  0.4457239544638256  0.3494760284533740
  0.4083780407763828  0.1850386260136311  0.6077919536802595
  0.4540322460843922  0.3319078025979189  0.5526668999611027
  0.5691514438437074  0.1744133727111909  0.3894383589117738
  0.9192562041746370  0.5021963333999592  0.4478804787319792
  0.7804188660351328  0.0142097426787724  0.5576173034496982
  0.7728179379122473  0.4562889124371267  0.4339443655551099
  0.9180058913220310  0.0732432755339779  0.5734885356427083
  0.9180835984544413  0.3507210101046494  0.4985722472530799
  0.7593994848604468  0.1771401873985721  0.5174318092171436
  0.9331373580566862  0.3590392610644063  0.3781967863717283
  0.7625014537356135  0.1452791987709341  0.6378396115605676
  0.7399688190758623  0.3617241443707986  0.5561570640960476
  0.9339726038800542  0.1819722516435411  0.4385323972297502
  0.2316556483829519  0.9803837323439778  0.4444791403767888
  0.1081830233156726  0.5109299538036792  0.5895123451009566
  0.0956036979770630  0.9213248077339322  0.4289811319296342
  0.2529803172730354  0.5663242911169236  0.5975811617675443
  0.2448860002311763  0.8227823348010059  0.4930844623763179
  0.1049438546314193  0.6442684221101977  0.5215152721184823
  0.2587574472346573  0.8357091415943088  0.3729810820974769
  0.0894178960558570  0.6701336905479828  0.6423669986320002
  0.0529518716233774  0.8296224532036101  0.5594526132150780
  0.2222183013202456  0.6683300716267375  0.4145770731182098
  0.5710693537676622  0.9905312813949840  0.4365231982633333
  0.4592912251484125  0.5113335772311643  0.5913291355340616
  0.4177872778345886  0.9581319607827061  0.4149544799502499
  0.5923024284588738  0.5798443659843887  0.5864391842640176
  0.5517054429255908  0.8465398230308857  0.4852992622816327
  0.4292377504294116  0.6548727156327787  0.5247048542614020
  0.5798051414193423  0.8501961096462843  0.3656638124848961
  0.4365509261146060  0.6696033301261678  0.6457571577586013
  0.3926084496233910  0.8374343871324142  0.5727507788035285
  0.5204908511022150  0.6955579068659694  0.4110178104131885
  0.9045267003610721  0.9848444591593357  0.4438207746251543
  0.7965959800615919  0.5180365417196774  0.5800532659026988
  0.7580897405489280  0.9451126110508278  0.4202749962652911
  0.9074831457932367  0.6125290757405432  0.5666778948968871
  0.8984328511436427  0.8288386958127979  0.4838074502003039
  0.7420101707066827  0.6615299066262699  0.5099875591632318
  0.9189547320318332  0.8497944774288378  0.3651415004812799
  0.7519469544984531  0.6833616481575797  0.6308621474439610
  0.7096685193528602  0.8469471056576688  0.5520217518319128
  0.8550775178956059  0.6898080745367411  0.3994950930000160
  0.6028673789573777  0.3132172424929786  0.6323724594020950
 
  0.00000000E+00  0.00000000E+00  0.00000000E+00
  0.00000000E+00  0.00000000E+00  0.00000000E+00
  0.00000000E+00  0.00000000E+00  0.00000000E+00
  0.00000000E+00  0.00000000E+00  0.00000000E+00
  0.00000000E+00  0.00000000E+00  0.00000000E+00
  0.00000000E+00  0.00000000E+00  0.00000000E+00
  0.00000000E+00  0.00000000E+00  0.00000000E+00
  0.00000000E+00  0.00000000E+00  0.00000000E+00
  0.00000000E+00  0.00000000E+00  0.00000000E+00
  0.00000000E+00  0.00000000E+00  0.00000000E+00
  0.00000000E+00  0.00000000E+00  0.00000000E+00
  0.00000000E+00  0.00000000E+00  0.00000000E+00
  0.00000000E+00  0.00000000E+00  0.00000000E+00
  0.00000000E+00  0.00000000E+00  0.00000000E+00
  0.00000000E+00  0.00000000E+00  0.00000000E+00
  0.00000000E+00  0.00000000E+00  0.00000000E+00
  0.00000000E+00  0.00000000E+00  0.00000000E+00
  0.00000000E+00  0.00000000E+00  0.00000000E+00
  0.00000000E+00  0.00000000E+00  0.00000000E+00
  0.00000000E+00  0.00000000E+00  0.00000000E+00
  0.00000000E+00  0.00000000E+00  0.00000000E+00
  0.00000000E+00  0.00000000E+00  0.00000000E+00
  0.00000000E+00  0.00000000E+00  0.00000000E+00
  0.00000000E+00  0.00000000E+00  0.00000000E+00
  0.00000000E+00  0.00000000E+00  0.00000000E+00
  0.00000000E+00  0.00000000E+00  0.00000000E+00
  0.00000000E+00  0.00000000E+00  0.00000000E+00
  0.00000000E+00  0.00000000E+00  0.00000000E+00
  0.00000000E+00  0.00000000E+00  0.00000000E+00
  0.00000000E+00  0.00000000E+00  0.00000000E+00
  0.00000000E+00  0.00000000E+00  0.00000000E+00
  0.00000000E+00  0.00000000E+00  0.00000000E+00
  0.00000000E+00  0.00000000E+00  0.00000000E+00
  0.00000000E+00  0.00000000E+00  0.00000000E+00
  0.00000000E+00  0.00000000E+00  0.00000000E+00
  0.00000000E+00  0.00000000E+00  0.00000000E+00
  0.00000000E+00  0.00000000E+00  0.00000000E+00
  0.00000000E+00  0.00000000E+00  0.00000000E+00
  0.00000000E+00  0.00000000E+00  0.00000000E+00
  0.00000000E+00  0.00000000E+00  0.00000000E+00
  0.00000000E+00  0.00000000E+00  0.00000000E+00
  0.00000000E+00  0.00000000E+00  0.00000000E+00
  0.00000000E+00  0.00000000E+00  0.00000000E+00
  0.00000000E+00  0.00000000E+00  0.00000000E+00
  0.00000000E+00  0.00000000E+00  0.00000000E+00
  0.00000000E+00  0.00000000E+00  0.00000000E+00
  0.00000000E+00  0.00000000E+00  0.00000000E+00
  0.00000000E+00  0.00000000E+00  0.00000000E+00
  0.00000000E+00  0.00000000E+00  0.00000000E+00
  0.00000000E+00  0.00000000E+00  0.00000000E+00
  0.00000000E+00  0.00000000E+00  0.00000000E+00
  0.00000000E+00  0.00000000E+00  0.00000000E+00
  0.00000000E+00  0.00000000E+00  0.00000000E+00
  0.00000000E+00  0.00000000E+00  0.00000000E+00
  0.00000000E+00  0.00000000E+00  0.00000000E+00
  0.00000000E+00  0.00000000E+00  0.00000000E+00
  0.00000000E+00  0.00000000E+00  0.00000000E+00
  0.00000000E+00  0.00000000E+00  0.00000000E+00
  0.00000000E+00  0.00000000E+00  0.00000000E+00
  0.00000000E+00  0.00000000E+00  0.00000000E+00
  0.00000000E+00  0.00000000E+00  0.00000000E+00
  0.00000000E+00  0.00000000E+00  0.00000000E+00
  0.00000000E+00  0.00000000E+00  0.00000000E+00
  0.00000000E+00  0.00000000E+00  0.00000000E+00
  0.00000000E+00  0.00000000E+00  0.00000000E+00
  0.00000000E+00  0.00000000E+00  0.00000000E+00
  0.00000000E+00  0.00000000E+00  0.00000000E+00
  0.00000000E+00  0.00000000E+00  0.00000000E+00
  0.00000000E+00  0.00000000E+00  0.00000000E+00
  0.00000000E+00  0.00000000E+00  0.00000000E+00
  0.00000000E+00  0.00000000E+00  0.00000000E+00
  0.00000000E+00  0.00000000E+00  0.00000000E+00
  0.00000000E+00  0.00000000E+00  0.00000000E+00
  0.00000000E+00  0.00000000E+00  0.00000000E+00
  0.00000000E+00  0.00000000E+00  0.00000000E+00
  0.00000000E+00  0.00000000E+00  0.00000000E+00
  0.00000000E+00  0.00000000E+00  0.00000000E+00
  0.00000000E+00  0.00000000E+00  0.00000000E+00
  0.00000000E+00  0.00000000E+00  0.00000000E+00
  0.00000000E+00  0.00000000E+00  0.00000000E+00
  0.00000000E+00  0.00000000E+00  0.00000000E+00
  0.00000000E+00  0.00000000E+00  0.00000000E+00
  0.00000000E+00  0.00000000E+00  0.00000000E+00
  0.00000000E+00  0.00000000E+00  0.00000000E+00
  0.00000000E+00  0.00000000E+00  0.00000000E+00
  0.00000000E+00  0.00000000E+00  0.00000000E+00
  0.00000000E+00  0.00000000E+00  0.00000000E+00
  0.00000000E+00  0.00000000E+00  0.00000000E+00
  0.00000000E+00  0.00000000E+00  0.00000000E+00
  0.00000000E+00  0.00000000E+00  0.00000000E+00
  0.00000000E+00  0.00000000E+00  0.00000000E+00
  0.00000000E+00  0.00000000E+00  0.00000000E+00
  0.00000000E+00  0.00000000E+00  0.00000000E+00
  0.00000000E+00  0.00000000E+00  0.00000000E+00
  0.00000000E+00  0.00000000E+00  0.00000000E+00
  0.00000000E+00  0.00000000E+00  0.00000000E+00
  0.00000000E+00  0.00000000E+00  0.00000000E+00
  0.00000000E+00  0.00000000E+00  0.00000000E+00
  0.00000000E+00  0.00000000E+00  0.00000000E+00
  0.00000000E+00  0.00000000E+00  0.00000000E+00
  0.00000000E+00  0.00000000E+00  0.00000000E+00
  0.00000000E+00  0.00000000E+00  0.00000000E+00
  0.00000000E+00  0.00000000E+00  0.00000000E+00
  0.00000000E+00  0.00000000E+00  0.00000000E+00
  0.00000000E+00  0.00000000E+00  0.00000000E+00
  0.00000000E+00  0.00000000E+00  0.00000000E+00
  0.00000000E+00  0.00000000E+00  0.00000000E+00
  0.00000000E+00  0.00000000E+00  0.00000000E+00
  0.00000000E+00  0.00000000E+00  0.00000000E+00
  0.00000000E+00  0.00000000E+00  0.00000000E+00
