Repeated-UnitCell:     3    3    1      
   1.00000000000000     
    10.5605211257999994    0.0000000000000000    0.0000000000000000
     0.0000000000000000   10.5605220795000001    0.0000000000000000
     0.0000000000000000    0.0000000000000000   21.7057113647000008
   Zr   Si   Se
    18    18    17
Direct
  0.1673522839010777  0.0000000000000000  0.5999685187419045
  0.4993143860989201  0.0000000000000000  0.5999685187419045
  0.8333334089999980  0.0000000000000000  0.6001107945402908
  0.1658264099947167  0.3324930729947176  0.5982290776503497
  0.5008402600052815  0.3324930729947176  0.5982290776503497
  0.8333334089999980  0.3340189469010786  0.5999685187419045
  0.1658264099947167  0.6675069270052827  0.5982290776503497
  0.5008402600052815  0.6675069270052827  0.5982290776503497
  0.8333334089999980  0.6659810530989214  0.5999685187419045
 -0.0000289237265590  0.1666376982734420  0.4002267778161859
  0.3333332730000009  0.1664752737299934  0.4001423386371742
  0.6666955607265576  0.1666376982734420  0.4002267778161859
 -0.0001913482700076  0.4999999549999998  0.4001423386371742
  0.3333332730000009  0.4999999549999998  0.4001887937241173
  0.6668579852700064  0.4999999549999998  0.4001423386371742
 -0.0000289237265590  0.8333622567265576  0.4002267778161859
  0.3333332730000009  0.8335246812700065  0.4001423386371742
  0.6666955607265576  0.8333622567265576  0.4002267778161859
  0.0000935073270040  0.0000000000000000  0.5001920950638028
  0.3333333409999995  0.0000000000000000  0.5001762936004583
  0.6665731746729948  0.0000000000000000  0.5001920950638028
  0.0002429692516279  0.3332843490173507  0.4999657880256944
  0.3333333409999995  0.3341526352229107  0.5003469592313747
  0.6664237127483709  0.3332843490173507  0.4999657880256944
  0.0002429692516279  0.6667156509826493  0.4999657880256944
  0.3333333409999995  0.6658473647770892  0.5003469592313747
  0.6664237127483709  0.6667156509826493  0.4999657880256944
  0.1666176750173524  0.1669096362516292  0.4999657880256944
  0.5000489839826481  0.1669096362516292  0.4999657880256944
  0.8333333180000011  0.1667601743270052  0.5001920950638028
  0.1674859612229125  0.5000000000000000  0.5003469592313747
  0.4991806977770881  0.5000000000000000  0.5003469592313747
  0.8333333180000011  0.5000000000000000  0.5001762936004583
  0.1666176750173524  0.8330903637483708  0.4999657880256944
  0.5000489839826481  0.8330903637483708  0.4999657880256944
  0.8333333180000011  0.8332398256729947  0.5001920950638028
 -0.0003560219364324  0.1663106450635688  0.6542535149270785
  0.3333333409999995  0.1739206776817346  0.6546503736567939
  0.6670227039364313  0.1663106450635688  0.6542535149270785
  0.0072540106817334  0.5000000000000000  0.6546503736567939
  0.6594126713182654  0.5000000000000000  0.6546503736567939
 -0.0003560219364324  0.8336893549364311  0.6542535149270785
  0.3333333409999995  0.8260793223182653  0.6546503736567939
  0.6670227039364313  0.8336893549364311  0.6542535149270785
  0.1665475073761852  0.0000000000000000  0.3459172893055976
  0.5001191626238126  0.0000000000000000  0.3459172893055976
  0.8333333180000011  0.0000000000000000  0.3457196104383698
  0.1667651822452562  0.3334318452452572  0.3459455726924345
  0.4999014877547416  0.3334318452452572  0.3459455726924345
  0.8333333180000011  0.3332141703761861  0.3459172893055976
  0.1667651822452562  0.6665681547547428  0.3459455726924345
  0.4999014877547416  0.6665681547547428  0.3459455726924345
  0.8333333180000011  0.6667858296238138  0.3459172893055976
 
  0.00000000E+00  0.00000000E+00  0.00000000E+00
  0.00000000E+00  0.00000000E+00  0.00000000E+00
  0.00000000E+00  0.00000000E+00  0.00000000E+00
  0.00000000E+00  0.00000000E+00  0.00000000E+00
  0.00000000E+00  0.00000000E+00  0.00000000E+00
  0.00000000E+00  0.00000000E+00  0.00000000E+00
  0.00000000E+00  0.00000000E+00  0.00000000E+00
  0.00000000E+00  0.00000000E+00  0.00000000E+00
  0.00000000E+00  0.00000000E+00  0.00000000E+00
  0.00000000E+00  0.00000000E+00  0.00000000E+00
  0.00000000E+00  0.00000000E+00  0.00000000E+00
  0.00000000E+00  0.00000000E+00  0.00000000E+00
  0.00000000E+00  0.00000000E+00  0.00000000E+00
  0.00000000E+00  0.00000000E+00  0.00000000E+00
  0.00000000E+00  0.00000000E+00  0.00000000E+00
  0.00000000E+00  0.00000000E+00  0.00000000E+00
  0.00000000E+00  0.00000000E+00  0.00000000E+00
  0.00000000E+00  0.00000000E+00  0.00000000E+00
  0.00000000E+00  0.00000000E+00  0.00000000E+00
  0.00000000E+00  0.00000000E+00  0.00000000E+00
  0.00000000E+00  0.00000000E+00  0.00000000E+00
  0.00000000E+00  0.00000000E+00  0.00000000E+00
  0.00000000E+00  0.00000000E+00  0.00000000E+00
  0.00000000E+00  0.00000000E+00  0.00000000E+00
  0.00000000E+00  0.00000000E+00  0.00000000E+00
  0.00000000E+00  0.00000000E+00  0.00000000E+00
  0.00000000E+00  0.00000000E+00  0.00000000E+00
  0.00000000E+00  0.00000000E+00  0.00000000E+00
  0.00000000E+00  0.00000000E+00  0.00000000E+00
  0.00000000E+00  0.00000000E+00  0.00000000E+00
  0.00000000E+00  0.00000000E+00  0.00000000E+00
  0.00000000E+00  0.00000000E+00  0.00000000E+00
  0.00000000E+00  0.00000000E+00  0.00000000E+00
  0.00000000E+00  0.00000000E+00  0.00000000E+00
  0.00000000E+00  0.00000000E+00  0.00000000E+00
  0.00000000E+00  0.00000000E+00  0.00000000E+00
  0.00000000E+00  0.00000000E+00  0.00000000E+00
  0.00000000E+00  0.00000000E+00  0.00000000E+00
  0.00000000E+00  0.00000000E+00  0.00000000E+00
  0.00000000E+00  0.00000000E+00  0.00000000E+00
  0.00000000E+00  0.00000000E+00  0.00000000E+00
  0.00000000E+00  0.00000000E+00  0.00000000E+00
  0.00000000E+00  0.00000000E+00  0.00000000E+00
  0.00000000E+00  0.00000000E+00  0.00000000E+00
  0.00000000E+00  0.00000000E+00  0.00000000E+00
  0.00000000E+00  0.00000000E+00  0.00000000E+00
  0.00000000E+00  0.00000000E+00  0.00000000E+00
  0.00000000E+00  0.00000000E+00  0.00000000E+00
  0.00000000E+00  0.00000000E+00  0.00000000E+00
  0.00000000E+00  0.00000000E+00  0.00000000E+00
  0.00000000E+00  0.00000000E+00  0.00000000E+00
  0.00000000E+00  0.00000000E+00  0.00000000E+00
  0.00000000E+00  0.00000000E+00  0.00000000E+00
