CONTCAR                                 
   1.00000000000000     
    13.2014999389999996    0.0000000000000000    0.0000000000000000
     0.0000000000000000   13.2058000564999993    0.0000000000000000
     0.0000000000000000    0.0000000000000000   24.5515995025999985
   La   Te   O    H 
    18    54     1     1
Direct
  0.1674192462227921  0.1675754000559380  0.5883385367524241
  0.0002388714791195  0.0000722995585889  0.4124538088604268
  0.4999582758822427  0.1650392025331300  0.5882276577269110
  0.3334027341035721  0.9999536915298961  0.4130306285010619
  0.8350643091526422  0.1665058369833190  0.5861318821174990
  0.6665052760390751  0.9995852542225236  0.4127518947044635
  0.1650456297045011  0.5000692139152250  0.5880968752597653
  0.0000827380305992  0.3332355735610690  0.4130337224722851
  0.5007019700093380  0.5007165087690666  0.5925012431536132
  0.3336146781245120  0.3334513165049628  0.4144935142371651
  0.8333470852982998  0.4994741827527065  0.5880616495486848
  0.6662484538165430  0.3333101248717369  0.4139077982108645
  0.1663731562563342  0.8353088962603508  0.5860290595756013
  0.9997863690410824  0.6664124653610912  0.4127750855537187
  0.4996276377094802  0.8333692829665864  0.5879619572840298
  0.3336097824619770  0.6660306689264957  0.4139286704730836
  0.8327716721255385  0.8328759013412466  0.5865655977161950
  0.6664066511151177  0.6661504775981228  0.4135860722596334
  0.1669599555667389  0.9995244417651890  0.3066270186059015
  0.0009350086186757  0.1707445349761798  0.6940295114368169
  0.1710471996013183  0.0014890272063894  0.6939576044380757
  0.0000527178523839  0.1668622569048779  0.3065820131299404
  0.1669089288292867  0.1667567555179374  0.4516625184848380
  0.0006584675369652  0.0007893355432671  0.5487762112971737
  0.4998898251953037  0.0000219628723457  0.3069503779061051
  0.3336398995354131  0.1657090351133590  0.6955860196842991
  0.4995575110237098  0.9967004082035089  0.6945344442627643
  0.3332545899383277  0.1668042122683531  0.3076178582361919
  0.4999882720021986  0.1663023405138944  0.4520738274941536
  0.3336242688577897  0.0005183917833094  0.5495952428340161
  0.8333174041874329  0.9998212517460559  0.3064463215099664
  0.6702891501242689  0.1572570707047234  0.6886671907826951
  0.8426136191824796  0.9976573224037182  0.6933008769806221
  0.6662645252180113  0.1663567046233112  0.3072585908544241
  0.8331400290869766  0.1664814886929804  0.4507142427804425
  0.6667307691544480  0.9990574302295059  0.5491255276157432
  0.1669157607767247  0.3328744644086683  0.3076429936444995
  0.9972573063342480  0.4990848467532061  0.6944691619323606
  0.1656185572669457  0.3344178045163986  0.6955125624207739
  0.9999891470222337  0.4998496199341602  0.3069430668360837
  0.1664007302739066  0.4998672116376994  0.4520201641384389
  0.0004437277559219  0.3335501260437894  0.5495812399659457
  0.4997369764009676  0.3334662072644790  0.3081382728455750
  0.3153089306666033  0.5249498328831734  0.7049197147693462
  0.5242063681658351  0.3153072336437432  0.7051798627401027
  0.3335159987838452  0.4995618018772561  0.3081377368068274
  0.5000614479516443  0.4998801675778282  0.4540078551352522
  0.3353652526806528  0.3354040342893754  0.5530667330665580
  0.8331522037027952  0.3332280856001972  0.3073812366496753
  0.6714405994000714  0.4979549424418366  0.6970783768922857
  0.8375363868777725  0.3335416796785680  0.6939565664696161
  0.6665214537003763  0.4993278038981401  0.3077743139790030
  0.8332182013757503  0.4996677834788628  0.4515554442315235
  0.6651758639407319  0.3339444458337084  0.5513596688555182
  0.1669179522191229  0.6658044854200043  0.3072839719029190
  0.9970420961610387  0.8426182219482925  0.6930608255343955
  0.1564787581991141  0.6708444962279074  0.6883846498069914
  0.0000094136280566  0.8332494100156680  0.3064259569587122
  0.1667395685525506  0.8329991415774600  0.4507057579204243
  0.9988101559624099  0.6666552839838289  0.5491297335466854
  0.4999384511317828  0.6664527268175533  0.3078514613157779
  0.3339850008795722  0.8371303386307787  0.6936890173388690
  0.4974936992416090  0.6715674855371176  0.6971253244540847
  0.3334250303893498  0.8329726113158316  0.3073922119167847
  0.4998906242075378  0.8331078692470513  0.4514945738838705
  0.3339527022032556  0.6652456724464599  0.5513414602076878
  0.8329302568481651  0.6663046338656784  0.3071185420002323
  0.6667958480106151  0.8307952431465893  0.6937562966053363
  0.8301995473035575  0.6666476371179186  0.6937829564747844
  0.6665449606696825  0.8325187612334233  0.3070784519865768
  0.8333164244609748  0.8331881873610811  0.4507690737175025
  0.6650522731941138  0.6650552105910634  0.5507856664345496
  0.3977800253787720  0.3994806779620959  0.7478132845609906
  0.4237356361972218  0.4260339290121991  0.7824146353119090
 
  0.00000000E+00  0.00000000E+00  0.00000000E+00
  0.00000000E+00  0.00000000E+00  0.00000000E+00
  0.00000000E+00  0.00000000E+00  0.00000000E+00
  0.00000000E+00  0.00000000E+00  0.00000000E+00
  0.00000000E+00  0.00000000E+00  0.00000000E+00
  0.00000000E+00  0.00000000E+00  0.00000000E+00
  0.00000000E+00  0.00000000E+00  0.00000000E+00
  0.00000000E+00  0.00000000E+00  0.00000000E+00
  0.00000000E+00  0.00000000E+00  0.00000000E+00
  0.00000000E+00  0.00000000E+00  0.00000000E+00
  0.00000000E+00  0.00000000E+00  0.00000000E+00
  0.00000000E+00  0.00000000E+00  0.00000000E+00
  0.00000000E+00  0.00000000E+00  0.00000000E+00
  0.00000000E+00  0.00000000E+00  0.00000000E+00
  0.00000000E+00  0.00000000E+00  0.00000000E+00
  0.00000000E+00  0.00000000E+00  0.00000000E+00
  0.00000000E+00  0.00000000E+00  0.00000000E+00
  0.00000000E+00  0.00000000E+00  0.00000000E+00
  0.00000000E+00  0.00000000E+00  0.00000000E+00
  0.00000000E+00  0.00000000E+00  0.00000000E+00
  0.00000000E+00  0.00000000E+00  0.00000000E+00
  0.00000000E+00  0.00000000E+00  0.00000000E+00
  0.00000000E+00  0.00000000E+00  0.00000000E+00
  0.00000000E+00  0.00000000E+00  0.00000000E+00
  0.00000000E+00  0.00000000E+00  0.00000000E+00
  0.00000000E+00  0.00000000E+00  0.00000000E+00
  0.00000000E+00  0.00000000E+00  0.00000000E+00
  0.00000000E+00  0.00000000E+00  0.00000000E+00
  0.00000000E+00  0.00000000E+00  0.00000000E+00
  0.00000000E+00  0.00000000E+00  0.00000000E+00
  0.00000000E+00  0.00000000E+00  0.00000000E+00
  0.00000000E+00  0.00000000E+00  0.00000000E+00
  0.00000000E+00  0.00000000E+00  0.00000000E+00
  0.00000000E+00  0.00000000E+00  0.00000000E+00
  0.00000000E+00  0.00000000E+00  0.00000000E+00
  0.00000000E+00  0.00000000E+00  0.00000000E+00
  0.00000000E+00  0.00000000E+00  0.00000000E+00
  0.00000000E+00  0.00000000E+00  0.00000000E+00
  0.00000000E+00  0.00000000E+00  0.00000000E+00
  0.00000000E+00  0.00000000E+00  0.00000000E+00
  0.00000000E+00  0.00000000E+00  0.00000000E+00
  0.00000000E+00  0.00000000E+00  0.00000000E+00
  0.00000000E+00  0.00000000E+00  0.00000000E+00
  0.00000000E+00  0.00000000E+00  0.00000000E+00
  0.00000000E+00  0.00000000E+00  0.00000000E+00
  0.00000000E+00  0.00000000E+00  0.00000000E+00
  0.00000000E+00  0.00000000E+00  0.00000000E+00
  0.00000000E+00  0.00000000E+00  0.00000000E+00
  0.00000000E+00  0.00000000E+00  0.00000000E+00
  0.00000000E+00  0.00000000E+00  0.00000000E+00
  0.00000000E+00  0.00000000E+00  0.00000000E+00
  0.00000000E+00  0.00000000E+00  0.00000000E+00
  0.00000000E+00  0.00000000E+00  0.00000000E+00
  0.00000000E+00  0.00000000E+00  0.00000000E+00
  0.00000000E+00  0.00000000E+00  0.00000000E+00
  0.00000000E+00  0.00000000E+00  0.00000000E+00
  0.00000000E+00  0.00000000E+00  0.00000000E+00
  0.00000000E+00  0.00000000E+00  0.00000000E+00
  0.00000000E+00  0.00000000E+00  0.00000000E+00
  0.00000000E+00  0.00000000E+00  0.00000000E+00
  0.00000000E+00  0.00000000E+00  0.00000000E+00
  0.00000000E+00  0.00000000E+00  0.00000000E+00
  0.00000000E+00  0.00000000E+00  0.00000000E+00
  0.00000000E+00  0.00000000E+00  0.00000000E+00
  0.00000000E+00  0.00000000E+00  0.00000000E+00
  0.00000000E+00  0.00000000E+00  0.00000000E+00
  0.00000000E+00  0.00000000E+00  0.00000000E+00
  0.00000000E+00  0.00000000E+00  0.00000000E+00
  0.00000000E+00  0.00000000E+00  0.00000000E+00
  0.00000000E+00  0.00000000E+00  0.00000000E+00
  0.00000000E+00  0.00000000E+00  0.00000000E+00
  0.00000000E+00  0.00000000E+00  0.00000000E+00
  0.00000000E+00  0.00000000E+00  0.00000000E+00
  0.00000000E+00  0.00000000E+00  0.00000000E+00
