 Ce2 Te6                                
   1.00000000000000     
     4.3902709629951033    0.0000000000000000    0.0000000000000000
     0.0000000000000000    4.3872753118539798    0.0000000000000000
     0.0000000000000000    0.0000000000000000   24.0959807954239977
   Ce   Te
     2     6
Direct
  0.9205313389289813  0.5000000009179004  0.4128952958763819
  0.4205315123340796  0.9999999968410975  0.5871074435368797
  0.9211503408659070  0.0000000007308927  0.3107649047149010
  0.4211084300296690  0.4999999999674358  0.3107748360454679
  0.4207067766254369  0.0000000019995170  0.4513981726184824
  0.4211503201311118  0.5000000000237534  0.6892340664678827
  0.9211083855132856  0.0000000007212506  0.6892241395417500
  0.9207068955715272  0.4999999987981525  0.5486011411982474
 
  0.00000000E+00  0.00000000E+00  0.00000000E+00
  0.00000000E+00  0.00000000E+00  0.00000000E+00
  0.00000000E+00  0.00000000E+00  0.00000000E+00
  0.00000000E+00  0.00000000E+00  0.00000000E+00
  0.00000000E+00  0.00000000E+00  0.00000000E+00
  0.00000000E+00  0.00000000E+00  0.00000000E+00
  0.00000000E+00  0.00000000E+00  0.00000000E+00
  0.00000000E+00  0.00000000E+00  0.00000000E+00
