CONTCAR\(11)                            
   1.00000000000000     
    15.9806995391999997    0.0000000000000000    0.0000000000000000
     5.6024719189000001   15.1421999817999993    0.0000000000000000
     0.0000000000000000    0.0000000000000000   20.5363998412999997
   Cu   Se   Cl   O 
    27    18    18    54
Direct
  0.2931729189323501  0.2925465389558331  0.4335116104397675
  0.1670416029046296  0.1656644589516252  0.5000017563104181
  0.0408475217617659  0.0388491306011819  0.5664667381462477
  0.6265029199323505  0.2925465389558331  0.4335116104397675
  0.5003716039046296  0.1656644589516252  0.5000017563104181
  0.3741875117617648  0.0388491306011819  0.5664667381462477
  0.9598428579323451  0.2925465389558331  0.4335116104397675
  0.8337015759046310  0.1656644589516252  0.5000017563104181
  0.7075175127617650  0.0388491306011819  0.5664667381462477
  0.2931729429323450  0.6258865479558370  0.4335116104397675
  0.1670415979046328  0.4990044679516291  0.5000017563104181
  0.0408475277617664  0.3721791296011820  0.5664667381462477
  0.6265029149323466  0.6258865479558370  0.4335116104397675
  0.5003715989046328  0.4990044679516291  0.5000017563104181
  0.3741875247617623  0.3721791296011820  0.5664667381462477
  0.9598429119323496  0.6258865479558370  0.4335116104397675
  0.8337015709046341  0.4990044679516291  0.5000017563104181
  0.7075175557617650  0.3721791296011820  0.5664667381462477
  0.2931729389323446  0.9592165129558342  0.4335116104397675
  0.1670416229046313  0.8323344319516300  0.5000017563104181
  0.0408475227617624  0.7055090936011826  0.5664667381462477
  0.6265029109323462  0.9592165129558342  0.4335116104397675
  0.5003715949046325  0.8323344319516300  0.5000017563104181
  0.3741875197617655  0.7055090936011826  0.5664667381462477
  0.9598429079323493  0.9592165129558342  0.4335116104397675
  0.8337015659046302  0.8323344319516300  0.5000017563104181
  0.7075175517617647  0.7055090936011826  0.5664667381462477
  0.0870589487463488  0.0869558641801191  0.4027350722409168
  0.2469173423902181  0.2444721968782184  0.5972815770815320
  0.4203989457463448  0.0869558641801191  0.4027350722409168
  0.5802573393902145  0.2444721968782184  0.5972815770815320
  0.7537289767463472  0.0869558641801191  0.4027350722409168
  0.9135873113902159  0.2444721968782184  0.5972815770815320
  0.0870589507463490  0.4202858521801147  0.4027350722409168
  0.2469173483902186  0.5778121748782162  0.5972815770815320
  0.4203989337463510  0.4202858521801147  0.4027350722409168
  0.5802573453902150  0.5778121748782162  0.5972815770815320
  0.7537289647463462  0.4202858521801147  0.4027350722409168
  0.9135873173902164  0.5778121748782162  0.5972815770815320
  0.0870589307463473  0.7536258621801151  0.4027350722409168
  0.2469173223902165  0.9111422018782186  0.5972815770815320
  0.4203989277463505  0.7536258621801151  0.4027350722409168
  0.5802573793902178  0.9111422018782186  0.5972815770815320
  0.7537290187463507  0.7536258621801151  0.4027350722409168
  0.9135872913902213  0.9111422018782186  0.5972815770815320
  0.1019617826093412  0.0976659528948532  0.6418503914054673
  0.2321934672386338  0.2335170560688998  0.3581644996040782
  0.4352917696093401  0.0976659528948532  0.6418503914054673
  0.5655334052386357  0.2335170560688998  0.3581644996040782
  0.7686318266093410  0.0976659528948532  0.6418503914054673
  0.8988634362386313  0.2335170560688998  0.3581644996040782
  0.1019617826093412  0.4309959488948565  0.6418503914054673
  0.2321934792386348  0.5668570180688960  0.3581644996040782
  0.4352917546093353  0.4309959488948565  0.6418503914054673
  0.5655334162386331  0.5668570180688960  0.3581644996040782
  0.7686318106093397  0.4309959488948565  0.6418503914054673
  0.8988635072386336  0.5668570180688960  0.3581644996040782
  0.1019617886093417  0.7643359268948542  0.6418503914054673
  0.2321934522386361  0.9001870450688984  0.3581644996040782
  0.4352918196093372  0.7643359268948542  0.6418503914054673
  0.5655334492386322  0.9001870450688984  0.3581644996040782
  0.7686318766093381  0.7643359268948542  0.6418503914054673
  0.8988634812386315  0.9001870450688984  0.3581644996040782
  0.1415643715657274  0.2669638245305558  0.5579538875185410
  0.1923781569994271  0.0643924446663664  0.4420153680496870
  0.0377960015198837  0.0345870577155136  0.4529653593127891
  0.2961669470794483  0.2968365816828364  0.5470470296014689
  0.0635620065287224  0.1903382381157346  0.4434558554388812
  0.2704689887235169  0.1410705977582489  0.5565608148502048
  0.4749043985657258  0.2669638245305558  0.5579538875185410
  0.5257081729994251  0.0643924446663664  0.4420153680496870
  0.3711260025198840  0.0345870577155136  0.4529653593127891
  0.6295069150794524  0.2968365816828364  0.5470470296014689
  0.3968920085287193  0.1903382381157346  0.4434558554388812
  0.6038089267235183  0.1410705977582489  0.5565608148502048
  0.8082343105657290  0.2669638245305558  0.5579538875185410
  0.8590382039994278  0.0643924446663664  0.4420153680496870
  0.7044659705198810  0.0345870577155136  0.4529653593127891
  0.9628368860794502  0.2968365816828364  0.5470470296014689
  0.7302320055287225  0.1903382381157346  0.4434558554388812
  0.9371390177235188  0.1410705977582489  0.5565608148502048
  0.1415643775657279  0.6003038025305537  0.5579538875185410
  0.1923781579994307  0.3977224366663696  0.4420153680496870
  0.0377960055198769  0.3679170417155159  0.4529653593127891
  0.2961669350794473  0.6301765286828426  0.5470470296014689
  0.0635619975287181  0.5236682181157366  0.4434558554388812
  0.2704689737235192  0.4744005937582523  0.5565608148502048
  0.4749043445657284  0.6003038025305537  0.5579538875185410
  0.5257081589994239  0.3977224366663696  0.4420153680496870
  0.3711260215198820  0.3679170417155159  0.4529653593127891
  0.6295069320794503  0.6301765286828426  0.5470470296014689
  0.3968919985287184  0.5236682181157366  0.4434558554388812
  0.6038089707235148  0.4744005937582523  0.5565608148502048
  0.8082343755657238  0.6003038025305537  0.5579538875185410
  0.8590381899994266  0.3977224366663696  0.4420153680496870
  0.7044659595198837  0.3679170417155159  0.4529653593127891
  0.9628369630794530  0.6301765286828426  0.5470470296014689
  0.7302319955287216  0.5236682181157366  0.4434558554388812
  0.9371390017235175  0.4744005937582523  0.5565608148502048
  0.1415643725657239  0.9336337665305544  0.5579538875185410
  0.1923781719994248  0.7310524316663689  0.4420153680496870
  0.0377960045198804  0.7012470377155118  0.4529653593127891
  0.2961669900794483  0.9635064926828362  0.5470470296014689
  0.0635620005287219  0.8569982451157390  0.4434558554388812
  0.2704689797235197  0.8077405717582501  0.5565608148502048
  0.4749043405657281  0.9336337665305544  0.5579538875185410
  0.5257081439994262  0.7310524316663689  0.4420153680496870
  0.3711260065198771  0.7012470377155118  0.4529653593127891
  0.6295069270794463  0.9635064926828362  0.5470470296014689
  0.3968920315287176  0.8569982451157390  0.4434558554388812
  0.6038089167235174  0.8077405717582501  0.5565608148502048
  0.8082343715657234  0.9336337665305544  0.5579538875185410
  0.8590381749994289  0.7310524316663689  0.4420153680496870
  0.7044659435198823  0.7012470377155118  0.4529653593127891
  0.9628369590794527  0.9635064926828362  0.5470470296014689
  0.7302320295287174  0.8569982451157390  0.4434558554388812
  0.9371390677235159  0.8077405717582501  0.5565608148502048
 
  0.00000000E+00  0.00000000E+00  0.00000000E+00
  0.00000000E+00  0.00000000E+00  0.00000000E+00
  0.00000000E+00  0.00000000E+00  0.00000000E+00
  0.00000000E+00  0.00000000E+00  0.00000000E+00
  0.00000000E+00  0.00000000E+00  0.00000000E+00
  0.00000000E+00  0.00000000E+00  0.00000000E+00
  0.00000000E+00  0.00000000E+00  0.00000000E+00
  0.00000000E+00  0.00000000E+00  0.00000000E+00
  0.00000000E+00  0.00000000E+00  0.00000000E+00
  0.00000000E+00  0.00000000E+00  0.00000000E+00
  0.00000000E+00  0.00000000E+00  0.00000000E+00
  0.00000000E+00  0.00000000E+00  0.00000000E+00
  0.00000000E+00  0.00000000E+00  0.00000000E+00
  0.00000000E+00  0.00000000E+00  0.00000000E+00
  0.00000000E+00  0.00000000E+00  0.00000000E+00
  0.00000000E+00  0.00000000E+00  0.00000000E+00
  0.00000000E+00  0.00000000E+00  0.00000000E+00
  0.00000000E+00  0.00000000E+00  0.00000000E+00
  0.00000000E+00  0.00000000E+00  0.00000000E+00
  0.00000000E+00  0.00000000E+00  0.00000000E+00
  0.00000000E+00  0.00000000E+00  0.00000000E+00
  0.00000000E+00  0.00000000E+00  0.00000000E+00
  0.00000000E+00  0.00000000E+00  0.00000000E+00
  0.00000000E+00  0.00000000E+00  0.00000000E+00
  0.00000000E+00  0.00000000E+00  0.00000000E+00
  0.00000000E+00  0.00000000E+00  0.00000000E+00
  0.00000000E+00  0.00000000E+00  0.00000000E+00
  0.00000000E+00  0.00000000E+00  0.00000000E+00
  0.00000000E+00  0.00000000E+00  0.00000000E+00
  0.00000000E+00  0.00000000E+00  0.00000000E+00
  0.00000000E+00  0.00000000E+00  0.00000000E+00
  0.00000000E+00  0.00000000E+00  0.00000000E+00
  0.00000000E+00  0.00000000E+00  0.00000000E+00
  0.00000000E+00  0.00000000E+00  0.00000000E+00
  0.00000000E+00  0.00000000E+00  0.00000000E+00
  0.00000000E+00  0.00000000E+00  0.00000000E+00
  0.00000000E+00  0.00000000E+00  0.00000000E+00
  0.00000000E+00  0.00000000E+00  0.00000000E+00
  0.00000000E+00  0.00000000E+00  0.00000000E+00
  0.00000000E+00  0.00000000E+00  0.00000000E+00
  0.00000000E+00  0.00000000E+00  0.00000000E+00
  0.00000000E+00  0.00000000E+00  0.00000000E+00
  0.00000000E+00  0.00000000E+00  0.00000000E+00
  0.00000000E+00  0.00000000E+00  0.00000000E+00
  0.00000000E+00  0.00000000E+00  0.00000000E+00
  0.00000000E+00  0.00000000E+00  0.00000000E+00
  0.00000000E+00  0.00000000E+00  0.00000000E+00
  0.00000000E+00  0.00000000E+00  0.00000000E+00
  0.00000000E+00  0.00000000E+00  0.00000000E+00
  0.00000000E+00  0.00000000E+00  0.00000000E+00
  0.00000000E+00  0.00000000E+00  0.00000000E+00
  0.00000000E+00  0.00000000E+00  0.00000000E+00
  0.00000000E+00  0.00000000E+00  0.00000000E+00
  0.00000000E+00  0.00000000E+00  0.00000000E+00
  0.00000000E+00  0.00000000E+00  0.00000000E+00
  0.00000000E+00  0.00000000E+00  0.00000000E+00
  0.00000000E+00  0.00000000E+00  0.00000000E+00
  0.00000000E+00  0.00000000E+00  0.00000000E+00
  0.00000000E+00  0.00000000E+00  0.00000000E+00
  0.00000000E+00  0.00000000E+00  0.00000000E+00
  0.00000000E+00  0.00000000E+00  0.00000000E+00
  0.00000000E+00  0.00000000E+00  0.00000000E+00
  0.00000000E+00  0.00000000E+00  0.00000000E+00
  0.00000000E+00  0.00000000E+00  0.00000000E+00
  0.00000000E+00  0.00000000E+00  0.00000000E+00
  0.00000000E+00  0.00000000E+00  0.00000000E+00
  0.00000000E+00  0.00000000E+00  0.00000000E+00
  0.00000000E+00  0.00000000E+00  0.00000000E+00
  0.00000000E+00  0.00000000E+00  0.00000000E+00
  0.00000000E+00  0.00000000E+00  0.00000000E+00
  0.00000000E+00  0.00000000E+00  0.00000000E+00
  0.00000000E+00  0.00000000E+00  0.00000000E+00
  0.00000000E+00  0.00000000E+00  0.00000000E+00
  0.00000000E+00  0.00000000E+00  0.00000000E+00
  0.00000000E+00  0.00000000E+00  0.00000000E+00
  0.00000000E+00  0.00000000E+00  0.00000000E+00
  0.00000000E+00  0.00000000E+00  0.00000000E+00
  0.00000000E+00  0.00000000E+00  0.00000000E+00
  0.00000000E+00  0.00000000E+00  0.00000000E+00
  0.00000000E+00  0.00000000E+00  0.00000000E+00
  0.00000000E+00  0.00000000E+00  0.00000000E+00
  0.00000000E+00  0.00000000E+00  0.00000000E+00
  0.00000000E+00  0.00000000E+00  0.00000000E+00
  0.00000000E+00  0.00000000E+00  0.00000000E+00
  0.00000000E+00  0.00000000E+00  0.00000000E+00
  0.00000000E+00  0.00000000E+00  0.00000000E+00
  0.00000000E+00  0.00000000E+00  0.00000000E+00
  0.00000000E+00  0.00000000E+00  0.00000000E+00
  0.00000000E+00  0.00000000E+00  0.00000000E+00
  0.00000000E+00  0.00000000E+00  0.00000000E+00
  0.00000000E+00  0.00000000E+00  0.00000000E+00
  0.00000000E+00  0.00000000E+00  0.00000000E+00
  0.00000000E+00  0.00000000E+00  0.00000000E+00
  0.00000000E+00  0.00000000E+00  0.00000000E+00
  0.00000000E+00  0.00000000E+00  0.00000000E+00
  0.00000000E+00  0.00000000E+00  0.00000000E+00
  0.00000000E+00  0.00000000E+00  0.00000000E+00
  0.00000000E+00  0.00000000E+00  0.00000000E+00
  0.00000000E+00  0.00000000E+00  0.00000000E+00
  0.00000000E+00  0.00000000E+00  0.00000000E+00
  0.00000000E+00  0.00000000E+00  0.00000000E+00
  0.00000000E+00  0.00000000E+00  0.00000000E+00
  0.00000000E+00  0.00000000E+00  0.00000000E+00
  0.00000000E+00  0.00000000E+00  0.00000000E+00
  0.00000000E+00  0.00000000E+00  0.00000000E+00
  0.00000000E+00  0.00000000E+00  0.00000000E+00
  0.00000000E+00  0.00000000E+00  0.00000000E+00
  0.00000000E+00  0.00000000E+00  0.00000000E+00
  0.00000000E+00  0.00000000E+00  0.00000000E+00
  0.00000000E+00  0.00000000E+00  0.00000000E+00
  0.00000000E+00  0.00000000E+00  0.00000000E+00
  0.00000000E+00  0.00000000E+00  0.00000000E+00
  0.00000000E+00  0.00000000E+00  0.00000000E+00
  0.00000000E+00  0.00000000E+00  0.00000000E+00
  0.00000000E+00  0.00000000E+00  0.00000000E+00
  0.00000000E+00  0.00000000E+00  0.00000000E+00
  0.00000000E+00  0.00000000E+00  0.00000000E+00
