CONTCAR\(12)                            
   1.00000000000000     
    13.8203001021999992    0.0000000000000000    0.0000000000000000
     1.7075399424000000   15.0073707208999991    0.0000000000000000
     0.0000000000000000    0.0000000000000000   18.4675998688000007
   Nb   Ir   Se   O    H 
    18     2    40     2     1
Direct
  0.0855549659176349  0.1835974203718223  0.4998238480817774
  0.0111326566524577  0.9805282627540336  0.4924496841266022
  0.3908923943821080  0.8025706006355900  0.4947457281908754
  0.2934882208318227  0.6237251097916170  0.4962530766925666
  0.2500572950472303  0.9836337177798133  0.4954407006332038
  0.1904326608944752  0.4257555184344233  0.5013860400348702
  0.1567143084406361  0.8042466814423405  0.4952284002573225
  0.0520295103672210  0.6213148850152461  0.4971682209881854
  0.4445739632730655  0.3824727053096568  0.4952111640019464
  0.5852666773740477  0.1841836106979829  0.4992477018418054
  0.4988639010348477  0.9786819906720851  0.4921444474316242
  0.9123828691329824  0.8022240129901166  0.4951001004935760
  0.7954968479917996  0.6249700819074329  0.4986327897502248
  0.7511361354088261  0.9825777196089610  0.4928285318690062
  0.6895849113834901  0.4243650994983053  0.5036634111855914
  0.6391846056797480  0.8043696695134324  0.4949965036215276
  0.5406112509215977  0.6232290349125993  0.4966393852671773
  0.9450595715099325  0.3833937477598504  0.4955762964315777
  0.3683396647434918  0.2103876183434580  0.4950581620447845
  0.8688077394940006  0.2107146422915312  0.4949985361559123
  0.4694806590311299  0.2662888929172291  0.5945455568472926
  0.0838505986041213  0.3352001265204603  0.4124802460410043
  0.3668742647865075  0.0722222204502725  0.5727102466800881
  0.4830639857083580  0.1288202775547406  0.4033465891800289
  0.2675040259499634  0.8672641666715787  0.5944352684608192
  0.2208162119864248  0.2682121809931236  0.5691380055360191
  0.3788719819618769  0.9331497044618488  0.3976840671725364
  0.3270611360631877  0.3362290607114725  0.4062848968497257
  0.1659830124331367  0.6749829948457521  0.5937031973788113
  0.1148412878899642  0.0589018773094837  0.5891059323291153
  0.2403629434917380  0.1400631130017387  0.4202867158596985
  0.2818684712880850  0.7390240757052928  0.3963428585320467
  0.0598397280891360  0.4750915450594274  0.5870272810504634
  0.0196803292509066  0.8654067069556906  0.5919460073354711
  0.1809254617592337  0.5429568376129671  0.4041815658675099
  0.1368681662233441  0.9332281369599209  0.3956000469525318
  0.4120219910404701  0.6736212019390916  0.5926431625006529
  0.0357666385891335  0.7390448369495483  0.3991970881670831
  0.3184307026351549  0.4748739107772333  0.5836994934585324
  0.4299947998757402  0.5347090010780504  0.4170593223283350
  0.9701159717742696  0.2664890096988791  0.5947515352028733
  0.5840934686806746  0.3357500110672286  0.4124234292109502
  0.8674721106869886  0.0705724290208318  0.5700175926705372
  0.9838773247160454  0.1289935843945879  0.4033787738006616
  0.7681303737860624  0.8638949672478339  0.5867561873869799
  0.7212762302324055  0.2666983138342684  0.5697776347533787
  0.8848092259731273  0.9335050978553995  0.3997852320475636
  0.8273059778003203  0.3373970557471034  0.4068906789828532
  0.6617642107766685  0.6737591292727089  0.5915430657082272
  0.6131618293337394  0.0572526768630369  0.5853194911849655
  0.7411860662784300  0.1408149184394385  0.4202811843791036
  0.7824845125123017  0.7427189902202368  0.4041694986586407
  0.5574892464705412  0.4756689603518406  0.5865808074106139
  0.5119274670147960  0.8643953771898681  0.5914211593527020
  0.6797344819994993  0.5439468367445213  0.4086535397359882
  0.6322669207874665  0.9352432171923226  0.3973640484922311
  0.9174292479973769  0.6729688984892904  0.5918152642807364
  0.5278521655063878  0.7400605230281452  0.3991920900959271
  0.8183112883395308  0.4745476866488042  0.5847560418029926
  0.9306080904861725  0.5364787901186713  0.4195861842611743
  0.4800591152545315  0.3771655823723776  0.7253578196264239
  0.4405447300224228  0.3469459850256699  0.7866979833757164
  0.3704132514312171  0.3686292329716781  0.7830807299508613
 
  0.00000000E+00  0.00000000E+00  0.00000000E+00
  0.00000000E+00  0.00000000E+00  0.00000000E+00
  0.00000000E+00  0.00000000E+00  0.00000000E+00
  0.00000000E+00  0.00000000E+00  0.00000000E+00
  0.00000000E+00  0.00000000E+00  0.00000000E+00
  0.00000000E+00  0.00000000E+00  0.00000000E+00
  0.00000000E+00  0.00000000E+00  0.00000000E+00
  0.00000000E+00  0.00000000E+00  0.00000000E+00
  0.00000000E+00  0.00000000E+00  0.00000000E+00
  0.00000000E+00  0.00000000E+00  0.00000000E+00
  0.00000000E+00  0.00000000E+00  0.00000000E+00
  0.00000000E+00  0.00000000E+00  0.00000000E+00
  0.00000000E+00  0.00000000E+00  0.00000000E+00
  0.00000000E+00  0.00000000E+00  0.00000000E+00
  0.00000000E+00  0.00000000E+00  0.00000000E+00
  0.00000000E+00  0.00000000E+00  0.00000000E+00
  0.00000000E+00  0.00000000E+00  0.00000000E+00
  0.00000000E+00  0.00000000E+00  0.00000000E+00
  0.00000000E+00  0.00000000E+00  0.00000000E+00
  0.00000000E+00  0.00000000E+00  0.00000000E+00
  0.00000000E+00  0.00000000E+00  0.00000000E+00
  0.00000000E+00  0.00000000E+00  0.00000000E+00
  0.00000000E+00  0.00000000E+00  0.00000000E+00
  0.00000000E+00  0.00000000E+00  0.00000000E+00
  0.00000000E+00  0.00000000E+00  0.00000000E+00
  0.00000000E+00  0.00000000E+00  0.00000000E+00
  0.00000000E+00  0.00000000E+00  0.00000000E+00
  0.00000000E+00  0.00000000E+00  0.00000000E+00
  0.00000000E+00  0.00000000E+00  0.00000000E+00
  0.00000000E+00  0.00000000E+00  0.00000000E+00
  0.00000000E+00  0.00000000E+00  0.00000000E+00
  0.00000000E+00  0.00000000E+00  0.00000000E+00
  0.00000000E+00  0.00000000E+00  0.00000000E+00
  0.00000000E+00  0.00000000E+00  0.00000000E+00
  0.00000000E+00  0.00000000E+00  0.00000000E+00
  0.00000000E+00  0.00000000E+00  0.00000000E+00
  0.00000000E+00  0.00000000E+00  0.00000000E+00
  0.00000000E+00  0.00000000E+00  0.00000000E+00
  0.00000000E+00  0.00000000E+00  0.00000000E+00
  0.00000000E+00  0.00000000E+00  0.00000000E+00
  0.00000000E+00  0.00000000E+00  0.00000000E+00
  0.00000000E+00  0.00000000E+00  0.00000000E+00
  0.00000000E+00  0.00000000E+00  0.00000000E+00
  0.00000000E+00  0.00000000E+00  0.00000000E+00
  0.00000000E+00  0.00000000E+00  0.00000000E+00
  0.00000000E+00  0.00000000E+00  0.00000000E+00
  0.00000000E+00  0.00000000E+00  0.00000000E+00
  0.00000000E+00  0.00000000E+00  0.00000000E+00
  0.00000000E+00  0.00000000E+00  0.00000000E+00
  0.00000000E+00  0.00000000E+00  0.00000000E+00
  0.00000000E+00  0.00000000E+00  0.00000000E+00
  0.00000000E+00  0.00000000E+00  0.00000000E+00
  0.00000000E+00  0.00000000E+00  0.00000000E+00
  0.00000000E+00  0.00000000E+00  0.00000000E+00
  0.00000000E+00  0.00000000E+00  0.00000000E+00
  0.00000000E+00  0.00000000E+00  0.00000000E+00
  0.00000000E+00  0.00000000E+00  0.00000000E+00
  0.00000000E+00  0.00000000E+00  0.00000000E+00
  0.00000000E+00  0.00000000E+00  0.00000000E+00
  0.00000000E+00  0.00000000E+00  0.00000000E+00
  0.00000000E+00  0.00000000E+00  0.00000000E+00
  0.00000000E+00  0.00000000E+00  0.00000000E+00
  0.00000000E+00  0.00000000E+00  0.00000000E+00
