CONTCAR\(6)                             
   1.00000000000000     
    12.8154001235999999    0.0000000000000000    0.0000000000000000
     6.4077083683999998   11.0983416437999995    0.0000000000000000
     0.0000000000000000    0.0000000000000000   33.6823997497999983
   Ge   Bi   Te   O 
    27    18    54     1
Direct
  0.1112095554906460  0.1114037705717479  0.2646035438492405
  0.2217552995830374  0.2216227200087388  0.7376690196987354
  0.2227666037075622  0.2228905080314334  0.3740770314981532
  0.4447968144365859  0.1111275821320916  0.2647089176368382
  0.5540682505968988  0.2181418458865565  0.7390422825242879
  0.5557022006087493  0.2227028634472319  0.3739696495434472
  0.7781737309434220  0.1112172421867044  0.2645756522593459
  0.8898206100579813  0.2259466655970286  0.7386786066384943
  0.8892391619479625  0.2228463242467384  0.3740062662205972
  0.1110321562284184  0.4449075749022740  0.2647125880646684
  0.2184565692054719  0.5556923116248385  0.7389492080550113
  0.2225004592191695  0.5559614611360217  0.3739720518492788
  0.4447939579890132  0.4448127210306936  0.2647159661515914
  0.5581029805797257  0.5548074605346400  0.7462062567574961
  0.5555793067511132  0.5558212055893463  0.3740343757661222
  0.7779917698847001  0.4449968058194784  0.2649151909529763
  0.8898465779398848  0.5591842823066671  0.7374300351176757
  0.8898124226767479  0.5559223578127828  0.3741635983222764
  0.1112044146670996  0.7782118738252635  0.2645789787612927
  0.2260242299957227  0.8893624030728589  0.7387412370827491
  0.2226145642994695  0.8894683952450038  0.3740375425079989
  0.4449168730165596  0.7781048335644059  0.2649308778760471
  0.5585192857851951  0.8886649387666807  0.7374715631399908
  0.5558122824064071  0.8899024003089551  0.3741738760894506
  0.7777852010060542  0.7778799009236792  0.2649227323564247
  0.8910378944936213  0.8919442212258417  0.7389418611977732
  0.8893378026023839  0.8894637493034452  0.3741156371819017
  0.0008893494570898  0.0009039189713889  0.4939702733783022
  0.1120828877891924  0.1121400607432221  0.6183155625735282
  0.3338827105647368  0.0012354149727543  0.4937598248030497
  0.4460422222209957  0.1120736408873171  0.6184735079537802
  0.6681030806734185  0.0005769082845788  0.4941875356337988
  0.7788152264745847  0.1134250317074645  0.6190556314336462
  0.0009114222990618  0.3340425104751361  0.4937563905418898
  0.1116473294351579  0.4466492148555830  0.6184553071711250
  0.3338491472398317  0.3343528028940028  0.4937434356735295
  0.4455551524666106  0.4459156064069845  0.6190448693055686
  0.6671327070015849  0.3339565958861002  0.4937686771944456
  0.7779235596595839  0.4445767678909078  0.6184724799359813
  0.0003428059055537  0.6680021147799380  0.4942481055420060
  0.1133992047584869  0.7790596400946654  0.6189811713558129
  0.3340200857732327  0.6671175050095712  0.4937788376611749
  0.4447060475239795  0.7781114113878047  0.6183864027923249
  0.6671383365818429  0.6673892967514519  0.4935595168142157
  0.7788475580257668  0.7790487310857017  0.6181809043585602
  0.0005053110284621  0.0006073746585216  0.3319820348962566
  0.1120194381461559  0.1119300717708214  0.7801768202499986
  0.1119155210840219  0.1120013340235317  0.4398668835575492
  0.2232563760309532  0.2236066114930750  0.5561484110800237
  0.2225167924633951  0.2225940592276174  0.2232799934530192
  0.0015895030230055  0.0014890154967588  0.6722968594574183
  0.3337593910453620  0.0006158134447745  0.3318479688478106
  0.4441925121120605  0.1094701945699299  0.7798762442856955
  0.4456002246762978  0.1118866274555472  0.4400634079967105
  0.5564064856499300  0.2235257711618601  0.5559958565688063
  0.5556495851921497  0.2226094814488988  0.2232402682415895
  0.3343272831355790  0.0006846968834964  0.6716260068966022
  0.6672570644745335  0.0005847474796639  0.3318233475750674
  0.7775987109266467  0.1143119282291494  0.7808009836509555
  0.7787897412437985  0.1115467565432695  0.4400291389176871
  0.8898042973003868  0.2232902123893652  0.5556536380342720
  0.8886402879265916  0.2233622118184613  0.2232066532840165
  0.6688547882936859  0.0008917145899829  0.6718716579292021
  0.0004962236439709  0.3339299148326091  0.3318329798703843
  0.1107262059506411  0.4445146863471905  0.7798698573441953
  0.1116415912614528  0.4455402737900016  0.4399591791260988
  0.2233883328644808  0.5566588780455675  0.5560019381703540
  0.2225944056210878  0.5556709928350756  0.2232396240445880
  0.0005840343113874  0.3344017561278605  0.6716153423710622
  0.3337567667701222  0.3339269675380194  0.3316954892087978
  0.4146225336790650  0.4148469003551511  0.7902327955968502
  0.4449837996140289  0.4451838317530346  0.4398156595634859
  0.5562044834154136  0.5563782369184338  0.5558046200745110
  0.5560615670789062  0.5561165766851772  0.2233445223710078
  0.3340713461069527  0.3344397237553096  0.6720183125634236
  0.6669054546644233  0.3336533372123469  0.3317869233764554
  0.7900783277018846  0.4466633013431434  0.7811394210399953
  0.7784678823999087  0.4449356410968264  0.4399558984112417
  0.8890778128499690  0.5564253452662911  0.5561496471829770
  0.8886623784979122  0.5561155459634008  0.2232725005650451
  0.6669049510525085  0.3354452328610833  0.6727996944595702
  0.0004276821490450  0.6673716692290128  0.3318068868128705
  0.1137620085440361  0.7785734499729244  0.7809103570693026
  0.1114750639392241  0.7785952394080837  0.4401306623958661
  0.2231333746386639  0.8901245573214354  0.5556849023238328
  0.2232796335954319  0.8889172407098656  0.2232412805771133
  0.0009078934270335  0.6692685663707891  0.6718615276517852
  0.3333906798030739  0.6673478520830400  0.3318180299921423
  0.4467413793479693  0.7880609621684371  0.7811904289561227
  0.4448145367308385  0.7787926827120302  0.4399965326983235
  0.5564497072144547  0.8894403111516596  0.5560941724200248
  0.5560763241822997  0.8886733439052534  0.2232780067182247
  0.3353241746142075  0.6672291298999724  0.6727834551395446
  0.6670051431484580  0.6672856152775424  0.3322016490827835
  0.7796867270054690  0.7799683057229601  0.7799616094106412
  0.7785632167612917  0.7785738035982703  0.4400420643336957
  0.8901574167519613  0.8903400421440466  0.5556604030848860
  0.8886327186410270  0.8886247652698955  0.2232044493263601
  0.6676844074146899  0.6677177062642272  0.6714678729956702
  0.5079451288833283  0.4989659051936073  0.7895719205255034
 
  0.00000000E+00  0.00000000E+00  0.00000000E+00
  0.00000000E+00  0.00000000E+00  0.00000000E+00
  0.00000000E+00  0.00000000E+00  0.00000000E+00
  0.00000000E+00  0.00000000E+00  0.00000000E+00
  0.00000000E+00  0.00000000E+00  0.00000000E+00
  0.00000000E+00  0.00000000E+00  0.00000000E+00
  0.00000000E+00  0.00000000E+00  0.00000000E+00
  0.00000000E+00  0.00000000E+00  0.00000000E+00
  0.00000000E+00  0.00000000E+00  0.00000000E+00
  0.00000000E+00  0.00000000E+00  0.00000000E+00
  0.00000000E+00  0.00000000E+00  0.00000000E+00
  0.00000000E+00  0.00000000E+00  0.00000000E+00
  0.00000000E+00  0.00000000E+00  0.00000000E+00
  0.00000000E+00  0.00000000E+00  0.00000000E+00
  0.00000000E+00  0.00000000E+00  0.00000000E+00
  0.00000000E+00  0.00000000E+00  0.00000000E+00
  0.00000000E+00  0.00000000E+00  0.00000000E+00
  0.00000000E+00  0.00000000E+00  0.00000000E+00
  0.00000000E+00  0.00000000E+00  0.00000000E+00
  0.00000000E+00  0.00000000E+00  0.00000000E+00
  0.00000000E+00  0.00000000E+00  0.00000000E+00
  0.00000000E+00  0.00000000E+00  0.00000000E+00
  0.00000000E+00  0.00000000E+00  0.00000000E+00
  0.00000000E+00  0.00000000E+00  0.00000000E+00
  0.00000000E+00  0.00000000E+00  0.00000000E+00
  0.00000000E+00  0.00000000E+00  0.00000000E+00
  0.00000000E+00  0.00000000E+00  0.00000000E+00
  0.00000000E+00  0.00000000E+00  0.00000000E+00
  0.00000000E+00  0.00000000E+00  0.00000000E+00
  0.00000000E+00  0.00000000E+00  0.00000000E+00
  0.00000000E+00  0.00000000E+00  0.00000000E+00
  0.00000000E+00  0.00000000E+00  0.00000000E+00
  0.00000000E+00  0.00000000E+00  0.00000000E+00
  0.00000000E+00  0.00000000E+00  0.00000000E+00
  0.00000000E+00  0.00000000E+00  0.00000000E+00
  0.00000000E+00  0.00000000E+00  0.00000000E+00
  0.00000000E+00  0.00000000E+00  0.00000000E+00
  0.00000000E+00  0.00000000E+00  0.00000000E+00
  0.00000000E+00  0.00000000E+00  0.00000000E+00
  0.00000000E+00  0.00000000E+00  0.00000000E+00
  0.00000000E+00  0.00000000E+00  0.00000000E+00
  0.00000000E+00  0.00000000E+00  0.00000000E+00
  0.00000000E+00  0.00000000E+00  0.00000000E+00
  0.00000000E+00  0.00000000E+00  0.00000000E+00
  0.00000000E+00  0.00000000E+00  0.00000000E+00
  0.00000000E+00  0.00000000E+00  0.00000000E+00
  0.00000000E+00  0.00000000E+00  0.00000000E+00
  0.00000000E+00  0.00000000E+00  0.00000000E+00
  0.00000000E+00  0.00000000E+00  0.00000000E+00
  0.00000000E+00  0.00000000E+00  0.00000000E+00
  0.00000000E+00  0.00000000E+00  0.00000000E+00
  0.00000000E+00  0.00000000E+00  0.00000000E+00
  0.00000000E+00  0.00000000E+00  0.00000000E+00
  0.00000000E+00  0.00000000E+00  0.00000000E+00
  0.00000000E+00  0.00000000E+00  0.00000000E+00
  0.00000000E+00  0.00000000E+00  0.00000000E+00
  0.00000000E+00  0.00000000E+00  0.00000000E+00
  0.00000000E+00  0.00000000E+00  0.00000000E+00
  0.00000000E+00  0.00000000E+00  0.00000000E+00
  0.00000000E+00  0.00000000E+00  0.00000000E+00
  0.00000000E+00  0.00000000E+00  0.00000000E+00
  0.00000000E+00  0.00000000E+00  0.00000000E+00
  0.00000000E+00  0.00000000E+00  0.00000000E+00
  0.00000000E+00  0.00000000E+00  0.00000000E+00
  0.00000000E+00  0.00000000E+00  0.00000000E+00
  0.00000000E+00  0.00000000E+00  0.00000000E+00
  0.00000000E+00  0.00000000E+00  0.00000000E+00
  0.00000000E+00  0.00000000E+00  0.00000000E+00
  0.00000000E+00  0.00000000E+00  0.00000000E+00
  0.00000000E+00  0.00000000E+00  0.00000000E+00
  0.00000000E+00  0.00000000E+00  0.00000000E+00
  0.00000000E+00  0.00000000E+00  0.00000000E+00
  0.00000000E+00  0.00000000E+00  0.00000000E+00
  0.00000000E+00  0.00000000E+00  0.00000000E+00
  0.00000000E+00  0.00000000E+00  0.00000000E+00
  0.00000000E+00  0.00000000E+00  0.00000000E+00
  0.00000000E+00  0.00000000E+00  0.00000000E+00
  0.00000000E+00  0.00000000E+00  0.00000000E+00
  0.00000000E+00  0.00000000E+00  0.00000000E+00
  0.00000000E+00  0.00000000E+00  0.00000000E+00
  0.00000000E+00  0.00000000E+00  0.00000000E+00
  0.00000000E+00  0.00000000E+00  0.00000000E+00
  0.00000000E+00  0.00000000E+00  0.00000000E+00
  0.00000000E+00  0.00000000E+00  0.00000000E+00
  0.00000000E+00  0.00000000E+00  0.00000000E+00
  0.00000000E+00  0.00000000E+00  0.00000000E+00
  0.00000000E+00  0.00000000E+00  0.00000000E+00
  0.00000000E+00  0.00000000E+00  0.00000000E+00
  0.00000000E+00  0.00000000E+00  0.00000000E+00
  0.00000000E+00  0.00000000E+00  0.00000000E+00
  0.00000000E+00  0.00000000E+00  0.00000000E+00
  0.00000000E+00  0.00000000E+00  0.00000000E+00
  0.00000000E+00  0.00000000E+00  0.00000000E+00
  0.00000000E+00  0.00000000E+00  0.00000000E+00
  0.00000000E+00  0.00000000E+00  0.00000000E+00
  0.00000000E+00  0.00000000E+00  0.00000000E+00
  0.00000000E+00  0.00000000E+00  0.00000000E+00
  0.00000000E+00  0.00000000E+00  0.00000000E+00
  0.00000000E+00  0.00000000E+00  0.00000000E+00
  0.00000000E+00  0.00000000E+00  0.00000000E+00
