CONTCAR                                 
   1.00000000000000     
    11.5825996398999997    0.0000000000000000    0.0000000000000000
     0.0000000000000000   12.9533996582000004    0.0000000000000000
     0.0000000000000000    0.0000000000000000   20.9237995147999989
   K    As   Pd   O 
    16    16     8     1
Direct
  0.1254555060487139  0.0044432182062961  0.4470227855216868
  0.3791026029062486  0.0006145582135421  0.5534011377627581
  0.1251276469828348  0.2500000000000000  0.3564951424667958
  0.3746246317076516  0.2500000000000000  0.6434557881328560
  0.6255025599659282  0.9989262846866149  0.4486243509153834
  0.8717831046026363  0.0006798039303381  0.5535644732616306
  0.6250204778056225  0.2500000000000000  0.3573463848938450
  0.8758017054509374  0.2500000000000000  0.6433871527624470
  0.1254555060487139  0.4955567817936968  0.4470227855216868
  0.3791026029062486  0.4993854417864579  0.5534011377627581
  0.1260160628804518  0.7500000000000000  0.3611658114258233
  0.3624635255016639  0.7500000000000000  0.6487916574936902
  0.6255025599659282  0.5010737153133851  0.4486243509153834
  0.8717831046026363  0.4993201960696620  0.5535644732616306
  0.6264106169749405  0.7500000000000000  0.3610239022560519
  0.8895642266498249  0.7500000000000000  0.6489713492308407
  0.3748902248056046  0.3443682927382484  0.4188621726269107
  0.1251018148045217  0.1553041578882732  0.5821130659966672
  0.1251018148045217  0.3446958601117284  0.5821130659966672
  0.3748902248056046  0.1556317252617531  0.4188621726269107
  0.8756830819776523  0.3443688281835448  0.4187097833185170
  0.6253489277333042  0.1558007869738899  0.5816177532921820
  0.6253489277333042  0.3441992310261116  0.5816177532921820
  0.8756830819776523  0.1556311898164567  0.4187097833185170
  0.3755133728113413  0.8442204944033292  0.4215651197857837
  0.1262714050041310  0.6439423863862208  0.5782952681678279
  0.1262714050041310  0.8560576136137792  0.5782952681678279
  0.3755133728113413  0.6557795055966708  0.4215651197857837
  0.8762967398509022  0.8442519156506811  0.4219223692997454
  0.6260600138081339  0.6561342679794708  0.5851882200199457
  0.6260600138081339  0.8438657320205292  0.5851882200199457
  0.8762967398509022  0.6557480843493189  0.4219223692997454
  0.0002640483542772  0.2500000000000000  0.5004032686320394
  0.2499992040872900  0.2500000000000000  0.5004238792315204
  0.5000808797323751  0.2500000000000000  0.5002138298378969
  0.7503297637133381  0.2500000000000000  0.5000316244750355
  0.0026452426503696  0.7500000000000000  0.5058842727709764
  0.2496248716775583  0.7500000000000000  0.5057386228098113
  0.5003988332245164  0.7500000000000000  0.5039966625915319
  0.7515960802462025  0.7500000000000000  0.5041192964131791
  0.1262838027219251  0.7500100130000007  0.6461286866375886
 
  0.00000000E+00  0.00000000E+00  0.00000000E+00
  0.00000000E+00  0.00000000E+00  0.00000000E+00
  0.00000000E+00  0.00000000E+00  0.00000000E+00
  0.00000000E+00  0.00000000E+00  0.00000000E+00
  0.00000000E+00  0.00000000E+00  0.00000000E+00
  0.00000000E+00  0.00000000E+00  0.00000000E+00
  0.00000000E+00  0.00000000E+00  0.00000000E+00
  0.00000000E+00  0.00000000E+00  0.00000000E+00
  0.00000000E+00  0.00000000E+00  0.00000000E+00
  0.00000000E+00  0.00000000E+00  0.00000000E+00
  0.00000000E+00  0.00000000E+00  0.00000000E+00
  0.00000000E+00  0.00000000E+00  0.00000000E+00
  0.00000000E+00  0.00000000E+00  0.00000000E+00
  0.00000000E+00  0.00000000E+00  0.00000000E+00
  0.00000000E+00  0.00000000E+00  0.00000000E+00
  0.00000000E+00  0.00000000E+00  0.00000000E+00
  0.00000000E+00  0.00000000E+00  0.00000000E+00
  0.00000000E+00  0.00000000E+00  0.00000000E+00
  0.00000000E+00  0.00000000E+00  0.00000000E+00
  0.00000000E+00  0.00000000E+00  0.00000000E+00
  0.00000000E+00  0.00000000E+00  0.00000000E+00
  0.00000000E+00  0.00000000E+00  0.00000000E+00
  0.00000000E+00  0.00000000E+00  0.00000000E+00
  0.00000000E+00  0.00000000E+00  0.00000000E+00
  0.00000000E+00  0.00000000E+00  0.00000000E+00
  0.00000000E+00  0.00000000E+00  0.00000000E+00
  0.00000000E+00  0.00000000E+00  0.00000000E+00
  0.00000000E+00  0.00000000E+00  0.00000000E+00
  0.00000000E+00  0.00000000E+00  0.00000000E+00
  0.00000000E+00  0.00000000E+00  0.00000000E+00
  0.00000000E+00  0.00000000E+00  0.00000000E+00
  0.00000000E+00  0.00000000E+00  0.00000000E+00
  0.00000000E+00  0.00000000E+00  0.00000000E+00
  0.00000000E+00  0.00000000E+00  0.00000000E+00
  0.00000000E+00  0.00000000E+00  0.00000000E+00
  0.00000000E+00  0.00000000E+00  0.00000000E+00
  0.00000000E+00  0.00000000E+00  0.00000000E+00
  0.00000000E+00  0.00000000E+00  0.00000000E+00
  0.00000000E+00  0.00000000E+00  0.00000000E+00
  0.00000000E+00  0.00000000E+00  0.00000000E+00
  0.00000000E+00  0.00000000E+00  0.00000000E+00
