CONTCAR\(3)                             
   1.00000000000000     
     4.2993001937999997    0.0000000000000000    0.0000000000000000
    -2.1496500968999999    3.7233031862999999    0.0000000000000000
     0.0000000000000000    0.0000000000000000   22.5037994384999998
   La   P    I    O 
     2     1     2     2
Direct
  0.4121573589684985  0.7060836574842457  0.5719741735008483
  0.7574781178628918  0.3787340589314478  0.4198223289370550
  0.0773589069537196  0.0386794534768598  0.4987482131796042
  0.7381570610520112  0.3690735305260076  0.6704116319294954
  0.3868543749342329  0.6934321654671124  0.3234367794796019
  0.2762678353955399  0.6381288741977703  0.6697472153279783
  0.3393263598331193  0.1696681299165607  0.3458596786454163
 
  0.00000000E+00  0.00000000E+00  0.00000000E+00
  0.00000000E+00  0.00000000E+00  0.00000000E+00
  0.00000000E+00  0.00000000E+00  0.00000000E+00
  0.00000000E+00  0.00000000E+00  0.00000000E+00
  0.00000000E+00  0.00000000E+00  0.00000000E+00
  0.00000000E+00  0.00000000E+00  0.00000000E+00
  0.00000000E+00  0.00000000E+00  0.00000000E+00
