 Y2 Cl2                                 
   1.00000000000000     
     3.7172416361969063    0.0000000000000000    0.0000000000000000
     1.8586208180984531    3.2192260442794085    0.0000000000000000
     0.0000000000000000    0.0000000000000000   21.2708473596999994
   Y    Cl
     2     2
Direct
  0.3333332226656580  0.3333332374983300  0.4344441863224020
  0.0000000715579773  0.0000000727102289  0.5655564772343098
  0.6666668850737665  0.6666669137911896  0.6472775148099359
  0.6666668207025950  0.6666667760002483  0.3527218216333523
 
  0.00000000E+00  0.00000000E+00  0.00000000E+00
  0.00000000E+00  0.00000000E+00  0.00000000E+00
  0.00000000E+00  0.00000000E+00  0.00000000E+00
  0.00000000E+00  0.00000000E+00  0.00000000E+00
