G   48   13    1    0.005     # Parameters to Generate KPOINTS (Don't Edit This Line)
     313
Reciprocal lattice
    0.000000000000    0.000000000000    0.000000000000       1
    0.020833333333    0.000000000000    0.000000000000       2
    0.041666666667    0.000000000000    0.000000000000       2
    0.062500000000    0.000000000000    0.000000000000       2
    0.083333333333    0.000000000000    0.000000000000       2
    0.104166666667    0.000000000000    0.000000000000       2
    0.125000000000    0.000000000000    0.000000000000       2
    0.145833333333    0.000000000000    0.000000000000       2
    0.166666666667    0.000000000000    0.000000000000       2
    0.187500000000    0.000000000000    0.000000000000       2
    0.208333333333    0.000000000000    0.000000000000       2
    0.229166666667    0.000000000000    0.000000000000       2
    0.250000000000    0.000000000000    0.000000000000       2
    0.270833333333    0.000000000000    0.000000000000       2
    0.291666666667    0.000000000000    0.000000000000       2
    0.312500000000    0.000000000000    0.000000000000       2
    0.333333333333    0.000000000000    0.000000000000       2
    0.354166666667    0.000000000000    0.000000000000       2
    0.375000000000    0.000000000000    0.000000000000       2
    0.395833333333    0.000000000000    0.000000000000       2
    0.416666666667    0.000000000000    0.000000000000       2
    0.437500000000    0.000000000000    0.000000000000       2
    0.458333333333    0.000000000000    0.000000000000       2
    0.479166666667    0.000000000000    0.000000000000       2
    0.500000000000    0.000000000000    0.000000000000       1
    0.000000000000    0.076923076923    0.000000000000       2
    0.020833333333    0.076923076923    0.000000000000       2
    0.041666666667    0.076923076923    0.000000000000       2
    0.062500000000    0.076923076923    0.000000000000       2
    0.083333333333    0.076923076923    0.000000000000       2
    0.104166666667    0.076923076923    0.000000000000       2
    0.125000000000    0.076923076923    0.000000000000       2
    0.145833333333    0.076923076923    0.000000000000       2
    0.166666666667    0.076923076923    0.000000000000       2
    0.187500000000    0.076923076923    0.000000000000       2
    0.208333333333    0.076923076923    0.000000000000       2
    0.229166666667    0.076923076923    0.000000000000       2
    0.250000000000    0.076923076923    0.000000000000       2
    0.270833333333    0.076923076923    0.000000000000       2
    0.291666666667    0.076923076923    0.000000000000       2
    0.312500000000    0.076923076923    0.000000000000       2
    0.333333333333    0.076923076923    0.000000000000       2
    0.354166666667    0.076923076923    0.000000000000       2
    0.375000000000    0.076923076923    0.000000000000       2
    0.395833333333    0.076923076923    0.000000000000       2
    0.416666666667    0.076923076923    0.000000000000       2
    0.437500000000    0.076923076923    0.000000000000       2
    0.458333333333    0.076923076923    0.000000000000       2
    0.479166666667    0.076923076923    0.000000000000       2
    0.500000000000    0.076923076923    0.000000000000       2
   -0.479166666667    0.076923076923    0.000000000000       2
   -0.458333333333    0.076923076923    0.000000000000       2
   -0.437500000000    0.076923076923    0.000000000000       2
   -0.416666666667    0.076923076923    0.000000000000       2
   -0.395833333333    0.076923076923    0.000000000000       2
   -0.375000000000    0.076923076923    0.000000000000       2
   -0.354166666667    0.076923076923    0.000000000000       2
   -0.333333333333    0.076923076923    0.000000000000       2
   -0.312500000000    0.076923076923    0.000000000000       2
   -0.291666666667    0.076923076923    0.000000000000       2
   -0.270833333333    0.076923076923    0.000000000000       2
   -0.250000000000    0.076923076923    0.000000000000       2
   -0.229166666667    0.076923076923    0.000000000000       2
   -0.208333333333    0.076923076923    0.000000000000       2
   -0.187500000000    0.076923076923    0.000000000000       2
   -0.166666666667    0.076923076923    0.000000000000       2
   -0.145833333333    0.076923076923    0.000000000000       2
   -0.125000000000    0.076923076923    0.000000000000       2
   -0.104166666667    0.076923076923    0.000000000000       2
   -0.083333333333    0.076923076923    0.000000000000       2
   -0.062500000000    0.076923076923    0.000000000000       2
   -0.041666666667    0.076923076923    0.000000000000       2
   -0.020833333333    0.076923076923    0.000000000000       2
    0.000000000000    0.153846153846    0.000000000000       2
    0.020833333333    0.153846153846    0.000000000000       2
    0.041666666667    0.153846153846    0.000000000000       2
    0.062500000000    0.153846153846    0.000000000000       2
    0.083333333333    0.153846153846    0.000000000000       2
    0.104166666667    0.153846153846    0.000000000000       2
    0.125000000000    0.153846153846    0.000000000000       2
    0.145833333333    0.153846153846    0.000000000000       2
    0.166666666667    0.153846153846    0.000000000000       2
    0.187500000000    0.153846153846    0.000000000000       2
    0.208333333333    0.153846153846    0.000000000000       2
    0.229166666667    0.153846153846    0.000000000000       2
    0.250000000000    0.153846153846    0.000000000000       2
    0.270833333333    0.153846153846    0.000000000000       2
    0.291666666667    0.153846153846    0.000000000000       2
    0.312500000000    0.153846153846    0.000000000000       2
    0.333333333333    0.153846153846    0.000000000000       2
    0.354166666667    0.153846153846    0.000000000000       2
    0.375000000000    0.153846153846    0.000000000000       2
    0.395833333333    0.153846153846    0.000000000000       2
    0.416666666667    0.153846153846    0.000000000000       2
    0.437500000000    0.153846153846    0.000000000000       2
    0.458333333333    0.153846153846    0.000000000000       2
    0.479166666667    0.153846153846    0.000000000000       2
    0.500000000000    0.153846153846    0.000000000000       2
   -0.479166666667    0.153846153846    0.000000000000       2
   -0.458333333333    0.153846153846    0.000000000000       2
   -0.437500000000    0.153846153846    0.000000000000       2
   -0.416666666667    0.153846153846    0.000000000000       2
   -0.395833333333    0.153846153846    0.000000000000       2
   -0.375000000000    0.153846153846    0.000000000000       2
   -0.354166666667    0.153846153846    0.000000000000       2
   -0.333333333333    0.153846153846    0.000000000000       2
   -0.312500000000    0.153846153846    0.000000000000       2
   -0.291666666667    0.153846153846    0.000000000000       2
   -0.270833333333    0.153846153846    0.000000000000       2
   -0.250000000000    0.153846153846    0.000000000000       2
   -0.229166666667    0.153846153846    0.000000000000       2
   -0.208333333333    0.153846153846    0.000000000000       2
   -0.187500000000    0.153846153846    0.000000000000       2
   -0.166666666667    0.153846153846    0.000000000000       2
   -0.145833333333    0.153846153846    0.000000000000       2
   -0.125000000000    0.153846153846    0.000000000000       2
   -0.104166666667    0.153846153846    0.000000000000       2
   -0.083333333333    0.153846153846    0.000000000000       2
   -0.062500000000    0.153846153846    0.000000000000       2
   -0.041666666667    0.153846153846    0.000000000000       2
   -0.020833333333    0.153846153846    0.000000000000       2
    0.000000000000    0.230769230769    0.000000000000       2
    0.020833333333    0.230769230769    0.000000000000       2
    0.041666666667    0.230769230769    0.000000000000       2
    0.062500000000    0.230769230769    0.000000000000       2
    0.083333333333    0.230769230769    0.000000000000       2
    0.104166666667    0.230769230769    0.000000000000       2
    0.125000000000    0.230769230769    0.000000000000       2
    0.145833333333    0.230769230769    0.000000000000       2
    0.166666666667    0.230769230769    0.000000000000       2
    0.187500000000    0.230769230769    0.000000000000       2
    0.208333333333    0.230769230769    0.000000000000       2
    0.229166666667    0.230769230769    0.000000000000       2
    0.250000000000    0.230769230769    0.000000000000       2
    0.270833333333    0.230769230769    0.000000000000       2
    0.291666666667    0.230769230769    0.000000000000       2
    0.312500000000    0.230769230769    0.000000000000       2
    0.333333333333    0.230769230769    0.000000000000       2
    0.354166666667    0.230769230769    0.000000000000       2
    0.375000000000    0.230769230769    0.000000000000       2
    0.395833333333    0.230769230769    0.000000000000       2
    0.416666666667    0.230769230769    0.000000000000       2
    0.437500000000    0.230769230769    0.000000000000       2
    0.458333333333    0.230769230769    0.000000000000       2
    0.479166666667    0.230769230769    0.000000000000       2
    0.500000000000    0.230769230769    0.000000000000       2
   -0.479166666667    0.230769230769    0.000000000000       2
   -0.458333333333    0.230769230769    0.000000000000       2
   -0.437500000000    0.230769230769    0.000000000000       2
   -0.416666666667    0.230769230769    0.000000000000       2
   -0.395833333333    0.230769230769    0.000000000000       2
   -0.375000000000    0.230769230769    0.000000000000       2
   -0.354166666667    0.230769230769    0.000000000000       2
   -0.333333333333    0.230769230769    0.000000000000       2
   -0.312500000000    0.230769230769    0.000000000000       2
   -0.291666666667    0.230769230769    0.000000000000       2
   -0.270833333333    0.230769230769    0.000000000000       2
   -0.250000000000    0.230769230769    0.000000000000       2
   -0.229166666667    0.230769230769    0.000000000000       2
   -0.208333333333    0.230769230769    0.000000000000       2
   -0.187500000000    0.230769230769    0.000000000000       2
   -0.166666666667    0.230769230769    0.000000000000       2
   -0.145833333333    0.230769230769    0.000000000000       2
   -0.125000000000    0.230769230769    0.000000000000       2
   -0.104166666667    0.230769230769    0.000000000000       2
   -0.083333333333    0.230769230769    0.000000000000       2
   -0.062500000000    0.230769230769    0.000000000000       2
   -0.041666666667    0.230769230769    0.000000000000       2
   -0.020833333333    0.230769230769    0.000000000000       2
    0.000000000000    0.307692307692    0.000000000000       2
    0.020833333333    0.307692307692    0.000000000000       2
    0.041666666667    0.307692307692    0.000000000000       2
    0.062500000000    0.307692307692    0.000000000000       2
    0.083333333333    0.307692307692    0.000000000000       2
    0.104166666667    0.307692307692    0.000000000000       2
    0.125000000000    0.307692307692    0.000000000000       2
    0.145833333333    0.307692307692    0.000000000000       2
    0.166666666667    0.307692307692    0.000000000000       2
    0.187500000000    0.307692307692    0.000000000000       2
    0.208333333333    0.307692307692    0.000000000000       2
    0.229166666667    0.307692307692    0.000000000000       2
    0.250000000000    0.307692307692    0.000000000000       2
    0.270833333333    0.307692307692    0.000000000000       2
    0.291666666667    0.307692307692    0.000000000000       2
    0.312500000000    0.307692307692    0.000000000000       2
    0.333333333333    0.307692307692    0.000000000000       2
    0.354166666667    0.307692307692    0.000000000000       2
    0.375000000000    0.307692307692    0.000000000000       2
    0.395833333333    0.307692307692    0.000000000000       2
    0.416666666667    0.307692307692    0.000000000000       2
    0.437500000000    0.307692307692    0.000000000000       2
    0.458333333333    0.307692307692    0.000000000000       2
    0.479166666667    0.307692307692    0.000000000000       2
    0.500000000000    0.307692307692    0.000000000000       2
   -0.479166666667    0.307692307692    0.000000000000       2
   -0.458333333333    0.307692307692    0.000000000000       2
   -0.437500000000    0.307692307692    0.000000000000       2
   -0.416666666667    0.307692307692    0.000000000000       2
   -0.395833333333    0.307692307692    0.000000000000       2
   -0.375000000000    0.307692307692    0.000000000000       2
   -0.354166666667    0.307692307692    0.000000000000       2
   -0.333333333333    0.307692307692    0.000000000000       2
   -0.312500000000    0.307692307692    0.000000000000       2
   -0.291666666667    0.307692307692    0.000000000000       2
   -0.270833333333    0.307692307692    0.000000000000       2
   -0.250000000000    0.307692307692    0.000000000000       2
   -0.229166666667    0.307692307692    0.000000000000       2
   -0.208333333333    0.307692307692    0.000000000000       2
   -0.187500000000    0.307692307692    0.000000000000       2
   -0.166666666667    0.307692307692    0.000000000000       2
   -0.145833333333    0.307692307692    0.000000000000       2
   -0.125000000000    0.307692307692    0.000000000000       2
   -0.104166666667    0.307692307692    0.000000000000       2
   -0.083333333333    0.307692307692    0.000000000000       2
   -0.062500000000    0.307692307692    0.000000000000       2
   -0.041666666667    0.307692307692    0.000000000000       2
   -0.020833333333    0.307692307692    0.000000000000       2
    0.000000000000    0.384615384615    0.000000000000       2
    0.020833333333    0.384615384615    0.000000000000       2
    0.041666666667    0.384615384615    0.000000000000       2
    0.062500000000    0.384615384615    0.000000000000       2
    0.083333333333    0.384615384615    0.000000000000       2
    0.104166666667    0.384615384615    0.000000000000       2
    0.125000000000    0.384615384615    0.000000000000       2
    0.145833333333    0.384615384615    0.000000000000       2
    0.166666666667    0.384615384615    0.000000000000       2
    0.187500000000    0.384615384615    0.000000000000       2
    0.208333333333    0.384615384615    0.000000000000       2
    0.229166666667    0.384615384615    0.000000000000       2
    0.250000000000    0.384615384615    0.000000000000       2
    0.270833333333    0.384615384615    0.000000000000       2
    0.291666666667    0.384615384615    0.000000000000       2
    0.312500000000    0.384615384615    0.000000000000       2
    0.333333333333    0.384615384615    0.000000000000       2
    0.354166666667    0.384615384615    0.000000000000       2
    0.375000000000    0.384615384615    0.000000000000       2
    0.395833333333    0.384615384615    0.000000000000       2
    0.416666666667    0.384615384615    0.000000000000       2
    0.437500000000    0.384615384615    0.000000000000       2
    0.458333333333    0.384615384615    0.000000000000       2
    0.479166666667    0.384615384615    0.000000000000       2
    0.500000000000    0.384615384615    0.000000000000       2
   -0.479166666667    0.384615384615    0.000000000000       2
   -0.458333333333    0.384615384615    0.000000000000       2
   -0.437500000000    0.384615384615    0.000000000000       2
   -0.416666666667    0.384615384615    0.000000000000       2
   -0.395833333333    0.384615384615    0.000000000000       2
   -0.375000000000    0.384615384615    0.000000000000       2
   -0.354166666667    0.384615384615    0.000000000000       2
   -0.333333333333    0.384615384615    0.000000000000       2
   -0.312500000000    0.384615384615    0.000000000000       2
   -0.291666666667    0.384615384615    0.000000000000       2
   -0.270833333333    0.384615384615    0.000000000000       2
   -0.250000000000    0.384615384615    0.000000000000       2
   -0.229166666667    0.384615384615    0.000000000000       2
   -0.208333333333    0.384615384615    0.000000000000       2
   -0.187500000000    0.384615384615    0.000000000000       2
   -0.166666666667    0.384615384615    0.000000000000       2
   -0.145833333333    0.384615384615    0.000000000000       2
   -0.125000000000    0.384615384615    0.000000000000       2
   -0.104166666667    0.384615384615    0.000000000000       2
   -0.083333333333    0.384615384615    0.000000000000       2
   -0.062500000000    0.384615384615    0.000000000000       2
   -0.041666666667    0.384615384615    0.000000000000       2
   -0.020833333333    0.384615384615    0.000000000000       2
    0.000000000000    0.461538461538    0.000000000000       2
    0.020833333333    0.461538461538    0.000000000000       2
    0.041666666667    0.461538461538    0.000000000000       2
    0.062500000000    0.461538461538    0.000000000000       2
    0.083333333333    0.461538461538    0.000000000000       2
    0.104166666667    0.461538461538    0.000000000000       2
    0.125000000000    0.461538461538    0.000000000000       2
    0.145833333333    0.461538461538    0.000000000000       2
    0.166666666667    0.461538461538    0.000000000000       2
    0.187500000000    0.461538461538    0.000000000000       2
    0.208333333333    0.461538461538    0.000000000000       2
    0.229166666667    0.461538461538    0.000000000000       2
    0.250000000000    0.461538461538    0.000000000000       2
    0.270833333333    0.461538461538    0.000000000000       2
    0.291666666667    0.461538461538    0.000000000000       2
    0.312500000000    0.461538461538    0.000000000000       2
    0.333333333333    0.461538461538    0.000000000000       2
    0.354166666667    0.461538461538    0.000000000000       2
    0.375000000000    0.461538461538    0.000000000000       2
    0.395833333333    0.461538461538    0.000000000000       2
    0.416666666667    0.461538461538    0.000000000000       2
    0.437500000000    0.461538461538    0.000000000000       2
    0.458333333333    0.461538461538    0.000000000000       2
    0.479166666667    0.461538461538    0.000000000000       2
    0.500000000000    0.461538461538    0.000000000000       2
   -0.479166666667    0.461538461538    0.000000000000       2
   -0.458333333333    0.461538461538    0.000000000000       2
   -0.437500000000    0.461538461538    0.000000000000       2
   -0.416666666667    0.461538461538    0.000000000000       2
   -0.395833333333    0.461538461538    0.000000000000       2
   -0.375000000000    0.461538461538    0.000000000000       2
   -0.354166666667    0.461538461538    0.000000000000       2
   -0.333333333333    0.461538461538    0.000000000000       2
   -0.312500000000    0.461538461538    0.000000000000       2
   -0.291666666667    0.461538461538    0.000000000000       2
   -0.270833333333    0.461538461538    0.000000000000       2
   -0.250000000000    0.461538461538    0.000000000000       2
   -0.229166666667    0.461538461538    0.000000000000       2
   -0.208333333333    0.461538461538    0.000000000000       2
   -0.187500000000    0.461538461538    0.000000000000       2
   -0.166666666667    0.461538461538    0.000000000000       2
   -0.145833333333    0.461538461538    0.000000000000       2
   -0.125000000000    0.461538461538    0.000000000000       2
   -0.104166666667    0.461538461538    0.000000000000       2
   -0.083333333333    0.461538461538    0.000000000000       2
   -0.062500000000    0.461538461538    0.000000000000       2
   -0.041666666667    0.461538461538    0.000000000000       2
   -0.020833333333    0.461538461538    0.000000000000       2
