 Cu2 O4 F2                              
   1.00000000000000     
     3.7507359138977518    0.0000000000000000    0.0000000000000000
     0.0000000000000000    3.2916879673058843    0.0000000000000000
     0.0000000000000000    0.0000000000000000   21.0970603331400000
   Cu   O    F 
     2     4     2
Direct
  0.0000000140500234  0.6773213824583942  0.4156902833992391
  0.5000000083720266  0.1774421035679986  0.5843210750334500
  0.0000000031778598  0.0609083154712844  0.5386428566046055
  0.5000000306635712  0.5609192664425869  0.4611725711353601
  0.5000000363967061  0.6113012736872738  0.5230404087675116
  0.0000000096756025  0.1113041278263360  0.4770980269221648
  0.0000000574297658  0.1959997759758014  0.3645127030970801
  0.4999998402344517  0.6957437545703292  0.6355220750405889
 
  0.00000000E+00  0.00000000E+00  0.00000000E+00
  0.00000000E+00  0.00000000E+00  0.00000000E+00
  0.00000000E+00  0.00000000E+00  0.00000000E+00
  0.00000000E+00  0.00000000E+00  0.00000000E+00
  0.00000000E+00  0.00000000E+00  0.00000000E+00
  0.00000000E+00  0.00000000E+00  0.00000000E+00
  0.00000000E+00  0.00000000E+00  0.00000000E+00
  0.00000000E+00  0.00000000E+00  0.00000000E+00
