CONTCAR\(4)                             
   1.00000000000000     
    10.2070999146000005    0.0000000000000000    0.0000000000000000
    -1.7011927660999999   18.1179073708000011    0.0000000000000000
     0.0000000000000000    0.0000000000000000   20.2910003661999987
   Ta   Co   Pd   Se   O    H 
    12     6     3    36     2     1
Direct
  0.0247402710396191  0.1509271927223823  0.4674243719804936
  0.3067234247379160  0.8481678739646044  0.5329280466459476
  0.0676788300027607  0.4075608989758047  0.4712166859260714
  0.2637202772230797  0.5918333276135707  0.5279645598654277
  0.3580119902611159  0.1508715036050887  0.4673221636661884
  0.6400117143682756  0.8482748612518741  0.5329343859693005
  0.4010852621258615  0.4074557613323376  0.4711866449350014
  0.5968394497931242  0.5919227263863419  0.5284564301260128
  0.6913556672270337  0.1509698634014824  0.4672640665292584
  0.9733451094721904  0.8481739552013519  0.5328699424004655
  0.7342852851722838  0.4075262789221594  0.4712460251429348
  0.9301070441346114  0.5919579943597383  0.5282687074091242
  0.2145019195806958  0.2847111647588029  0.4408679299680609
  0.1177347930571245  0.7144218368111512  0.5589341809743761
  0.5472140906301888  0.2847189942170604  0.4407972951164288
  0.4512165244066755  0.7142237042947255  0.5590366273330556
  0.8806197643356393  0.2847290484815823  0.4408958419365366
  0.7841432512160682  0.7145390619700378  0.5589506129655238
  0.1656743971928464 -0.0006008038041469  0.5001144871288886
  0.4991414895338607 -0.0003884071245855  0.5001056751213149
  0.8329241719265656 -0.0001937745744341  0.5002098229307067
  0.1858866635165421  0.1173235398269430  0.5602663446150693
  0.1457072231764689  0.8814183304211732  0.4399770266812465
  0.0995483986248047  0.6033875684365990  0.6214822908624186
  0.2316805992318107  0.3954536400515186  0.3778571719033109
  0.2399604301902007  0.4475076309993065  0.5623474328360676
  0.0911452076973391  0.5519369002954752  0.4368223014281074
  0.0397599022979493  0.2379714593702367  0.3704698896151623
  0.2924484172084161  0.7608647637998129  0.6296996393201886
  0.1783624656942031  0.0742068279445444  0.3982592393862198
  0.1527818885169042  0.9247041669193096  0.6020547730692741
  0.0471021973015326  0.2804893784397184  0.5250914711021710
  0.2852539998518788  0.7189674557472592  0.4746657030617127
  0.5190232150235903  0.1176208581034151  0.5602145830902491
  0.4790538223180231  0.8816347473184092  0.4400041430205641
  0.4327760195020384  0.6033311352644550  0.6213112065902654
  0.5649186397295139  0.3954032779795180  0.3777913820067728
  0.5730326406154378  0.4473313057720075  0.5625126273555284
  0.4248016049167123  0.5517364736940809  0.4367795220055250
  0.3727240685805319  0.2378845295812131  0.3702868521607817
  0.6254972859414804  0.7610166742665622  0.6297287486917796
  0.5118477970692804  0.0742471969410791  0.3982245985359556
  0.4861283087979208  0.9249042066043424  0.6020502012015798
  0.3802686014564443  0.2803200813547159  0.5251882577940844
  0.6184320265007740  0.7189727812201064  0.4746726763305076
  0.8522602826586471  0.1178246270063432  0.5602821533733218
  0.8123912336468353  0.8818864068158563  0.4400584164533133
  0.7659809846750062  0.6035335582178438  0.6217604807186149
  0.8982115124990770  0.3954847451110033  0.3778801292649490
  0.9064877364305705  0.4475035726589692  0.5624140836659116
  0.7576493566868862  0.5518064879539236  0.4370736000205245
  0.7060581952297605  0.2379688507145048  0.3703129183256751
  0.9587634768755213  0.7609960272197209  0.6296671142736984
  0.8452806827892112  0.0743171291751878  0.3982499785972699
  0.8197052786531259  0.9249226904512207  0.6020227041476562
  0.7131657673826866  0.2804754291627043  0.5251042720844471
  0.9514254050075276  0.7189561987264486  0.4746681180021624
  0.4144454228792546  0.5988636444370380  0.8061361997474151
  0.5116343106730630  0.6214143374704282  0.7627976014492989
  0.4257840077155008  0.5462070327600538  0.8142700141400524
 
  0.00000000E+00  0.00000000E+00  0.00000000E+00
  0.00000000E+00  0.00000000E+00  0.00000000E+00
  0.00000000E+00  0.00000000E+00  0.00000000E+00
  0.00000000E+00  0.00000000E+00  0.00000000E+00
  0.00000000E+00  0.00000000E+00  0.00000000E+00
  0.00000000E+00  0.00000000E+00  0.00000000E+00
  0.00000000E+00  0.00000000E+00  0.00000000E+00
  0.00000000E+00  0.00000000E+00  0.00000000E+00
  0.00000000E+00  0.00000000E+00  0.00000000E+00
  0.00000000E+00  0.00000000E+00  0.00000000E+00
  0.00000000E+00  0.00000000E+00  0.00000000E+00
  0.00000000E+00  0.00000000E+00  0.00000000E+00
  0.00000000E+00  0.00000000E+00  0.00000000E+00
  0.00000000E+00  0.00000000E+00  0.00000000E+00
  0.00000000E+00  0.00000000E+00  0.00000000E+00
  0.00000000E+00  0.00000000E+00  0.00000000E+00
  0.00000000E+00  0.00000000E+00  0.00000000E+00
  0.00000000E+00  0.00000000E+00  0.00000000E+00
  0.00000000E+00  0.00000000E+00  0.00000000E+00
  0.00000000E+00  0.00000000E+00  0.00000000E+00
  0.00000000E+00  0.00000000E+00  0.00000000E+00
  0.00000000E+00  0.00000000E+00  0.00000000E+00
  0.00000000E+00  0.00000000E+00  0.00000000E+00
  0.00000000E+00  0.00000000E+00  0.00000000E+00
  0.00000000E+00  0.00000000E+00  0.00000000E+00
  0.00000000E+00  0.00000000E+00  0.00000000E+00
  0.00000000E+00  0.00000000E+00  0.00000000E+00
  0.00000000E+00  0.00000000E+00  0.00000000E+00
  0.00000000E+00  0.00000000E+00  0.00000000E+00
  0.00000000E+00  0.00000000E+00  0.00000000E+00
  0.00000000E+00  0.00000000E+00  0.00000000E+00
  0.00000000E+00  0.00000000E+00  0.00000000E+00
  0.00000000E+00  0.00000000E+00  0.00000000E+00
  0.00000000E+00  0.00000000E+00  0.00000000E+00
  0.00000000E+00  0.00000000E+00  0.00000000E+00
  0.00000000E+00  0.00000000E+00  0.00000000E+00
  0.00000000E+00  0.00000000E+00  0.00000000E+00
  0.00000000E+00  0.00000000E+00  0.00000000E+00
  0.00000000E+00  0.00000000E+00  0.00000000E+00
  0.00000000E+00  0.00000000E+00  0.00000000E+00
  0.00000000E+00  0.00000000E+00  0.00000000E+00
  0.00000000E+00  0.00000000E+00  0.00000000E+00
  0.00000000E+00  0.00000000E+00  0.00000000E+00
  0.00000000E+00  0.00000000E+00  0.00000000E+00
  0.00000000E+00  0.00000000E+00  0.00000000E+00
  0.00000000E+00  0.00000000E+00  0.00000000E+00
  0.00000000E+00  0.00000000E+00  0.00000000E+00
  0.00000000E+00  0.00000000E+00  0.00000000E+00
  0.00000000E+00  0.00000000E+00  0.00000000E+00
  0.00000000E+00  0.00000000E+00  0.00000000E+00
  0.00000000E+00  0.00000000E+00  0.00000000E+00
  0.00000000E+00  0.00000000E+00  0.00000000E+00
  0.00000000E+00  0.00000000E+00  0.00000000E+00
  0.00000000E+00  0.00000000E+00  0.00000000E+00
  0.00000000E+00  0.00000000E+00  0.00000000E+00
  0.00000000E+00  0.00000000E+00  0.00000000E+00
  0.00000000E+00  0.00000000E+00  0.00000000E+00
  0.00000000E+00  0.00000000E+00  0.00000000E+00
  0.00000000E+00  0.00000000E+00  0.00000000E+00
  0.00000000E+00  0.00000000E+00  0.00000000E+00
