CONTCAR\(2)                             
   1.00000000000000     
    13.5958003997999999    0.0000000000000000    0.0000000000000000
     0.0000000000000000   14.8882999419999997    0.0000000000000000
     0.0000000000000000    0.0000000000000000   20.6940002440999997
   Ti   S    O    H 
    24    72     1     1
Direct
  0.0639488762201896  0.0430974735889472  0.5665261550870071
  0.1891541426236754  0.2097554846567307  0.4364783997590764
  0.3137110616594971  0.0439050257871931  0.5670215796993265
  0.4388551007343762  0.2096334409484170  0.4366361759807597
  0.5644865839997850  0.0438661388683306  0.5669988664562651
  0.6889250514059234  0.2092711674059685  0.4363142257860461
  0.8143188927534221  0.0429366590491663  0.5664849243408938
  0.9389465812475742  0.2093601650275051  0.4361687018806520
  0.0639991295216020  0.3763820460669304  0.5660209745528830
  0.1893724655542549  0.5427253372117775  0.4355662066418556
  0.3139648190860460  0.3775937262823798  0.5664842594564453
  0.4383342005861030  0.5435966016551640  0.4351393428930830
  0.5640353508552429  0.3766402193822364  0.5663555843137893
  0.6902925561856362  0.5406452227957770  0.4335430328523261
  0.8141238209928142  0.3761676645933900  0.5658662214820492
  0.9399251383840792  0.5413707377054754  0.4343288568762315
  0.0620802018956161  0.7090491722222370  0.5644623911570603
  0.1886776449431891  0.8766272757818522  0.4365330715936180
  0.3091822437087646  0.7124883261424503  0.5667855966247741
  0.4381711872882409  0.8762276941528193  0.4358966679817709
  0.5797299980317387  0.7072733550313485  0.5533469499432377
  0.6891867788057356  0.8769008407970991  0.4356183031514705
  0.8178569551298420  0.7095853031258972  0.5641707231060314
  0.9390143403659890  0.8771168440359537  0.4352050833273587
  0.0641637032634321  0.1406646101070694  0.3636880927829118
  0.1874908261375197  0.1129997871707036  0.6389174981780633
  0.1891089666018527  0.0429869362907498  0.4805762720714809
  0.0639223627488396  0.2097128785396534  0.5224984931278969
  0.1898355889164288  0.3096250868599500  0.6400111548428270
  0.0640292260156534  0.2777366421198440  0.3633175516628386
  0.3140158336079476  0.1406404456783930  0.3639823802349862
  0.4378495529071613  0.1142375083526548  0.6389371273606633
  0.4390352837979639  0.0427261115731096  0.4809371153071033
  0.3139566058172898  0.2102439208789394  0.5228672717514493
  0.4398516699543374  0.3111987851130785  0.6406323990199730
  0.3142353642253672  0.2777555700397087  0.3632458912038852
  0.5635780570476180  0.1408802147088162  0.3634532781103960
  0.6887473291470966  0.1111274286340927  0.6401817627563566
  0.6885140564188375  0.0425213499905094  0.4805273628256560
  0.5640359624561250  0.2099330395300754  0.5227577434746999
  0.6899513445445835  0.3075386838198742  0.6385098646293045
  0.5640007580737160  0.2779478294947408  0.3638264567820193
  0.8136668886717924  0.1406472002718948  0.3632641980891827
  0.9382245924542824  0.1113738153752854  0.6394946366974084
  0.9389967033733648  0.0429968637339612  0.4801242954506598
  0.8139578596451160  0.2094166734349005  0.5224783275121798
  0.9395763056229389  0.3079571778659359  0.6389207104216829
  0.8137939213590176  0.2776774646327668  0.3633560417329503
  0.0653228602392458  0.4733579459337390  0.3620286112393867
  0.1876377886868690  0.4467421464885027  0.6382433756326553
  0.1893094951846759  0.3764535796811684  0.4800032808526210
  0.0637042312102902  0.5426663333246077  0.5213790466503695
  0.1896502009321766  0.6434542614963256  0.6403309277521384
  0.0649764297144759  0.6105150702668398  0.3618736611655660
  0.3139946064137394  0.4738346701874957  0.3632005290706457
  0.4382023011497492  0.4483286423006952  0.6381483940093067
  0.4389186050660141  0.3769019924710800  0.4801427096979091
  0.3141577748780962  0.5447640740035723  0.5223664938120233
  0.4443140609252658  0.6538770458776777  0.6364553309971798
  0.3141873459238210  0.6110066465300964  0.3617582024308731
  0.5627854960426261  0.4736768620286402  0.3617443320783991
  0.6881731640236145  0.4446270238647405  0.6396690330215733
  0.6888664645177089  0.3758796048929889  0.4796584787322872
  0.5643046372316596  0.5425272023510853  0.5208338299535877
  0.6926672138162224  0.6394316379898808  0.6342064637955137
  0.5643818247548995  0.6107372216350160  0.3618336645019934
  0.8146537722332211  0.4716871138823044  0.3613062080230373
  0.9380386517476749  0.4451030710932144  0.6387911723980223
  0.9392288818227009  0.3757715046528586  0.4795925144665596
  0.8145637802159930  0.5420352096071698  0.5204272389059065
  0.9409951189192860  0.6404534719366823  0.6378929931723837
  0.8154095188121226  0.6087809014735726  0.3602716332348844
  0.0639189849410238  0.8081865877313396  0.3630483296611602
  0.1790629046403551  0.7801569511901805  0.6367094000574715
  0.1887232756493586  0.7089287490205359  0.4793572701358327
  0.0628618268786117  0.8764150094705033  0.5219798696367470
  0.1901507700357483  0.9758668635788388  0.6407554327143892
  0.0646852774412859  0.9453475049381179  0.3627518074435288
  0.3130481556612979  0.8079219017395466  0.3637265461262282
  0.4168500719236157  0.7838302631239422  0.6603865766941182
  0.4379556785237043  0.7110030195452249  0.4796382557918202
  0.3139961635639680  0.8766710539349362  0.5234877439444068
  0.4408590028536128  0.9773382190844440  0.6408585507422934
  0.3137794233156833  0.9451419240219409  0.3633593723576174
  0.5632624654902529  0.8083657481622245  0.3629749315975770
  0.6794557021776551  0.7758452312611858  0.6355046802652980
  0.6975914619892257  0.7082359019346361  0.4732470216667208
  0.5619014464065645  0.8743627652162685  0.5236495204540647
  0.6904662556925915  0.9739684723617827  0.6394472545584121
  0.5636890693841488  0.9454864730973040  0.3636690561572385
  0.8132765824994581  0.8094043384056259  0.3618099553469165
  0.9342815315326733  0.7776117551898852  0.6388692417534884
  0.9391667873056694  0.7092188427672070  0.4774782231941668
  0.8138423633447921  0.8761534726444413  0.5217370980616139
  0.9398872659832290  0.9742262043612480  0.6393455823243527
  0.8136872495600241  0.9464292245550494  0.3627818366075698
  0.3503974622061637  0.7846115583602721  0.7279017443610024
  0.3965870177495512  0.7934568098016374  0.7637580637805200
 
  0.00000000E+00  0.00000000E+00  0.00000000E+00
  0.00000000E+00  0.00000000E+00  0.00000000E+00
  0.00000000E+00  0.00000000E+00  0.00000000E+00
  0.00000000E+00  0.00000000E+00  0.00000000E+00
  0.00000000E+00  0.00000000E+00  0.00000000E+00
  0.00000000E+00  0.00000000E+00  0.00000000E+00
  0.00000000E+00  0.00000000E+00  0.00000000E+00
  0.00000000E+00  0.00000000E+00  0.00000000E+00
  0.00000000E+00  0.00000000E+00  0.00000000E+00
  0.00000000E+00  0.00000000E+00  0.00000000E+00
  0.00000000E+00  0.00000000E+00  0.00000000E+00
  0.00000000E+00  0.00000000E+00  0.00000000E+00
  0.00000000E+00  0.00000000E+00  0.00000000E+00
  0.00000000E+00  0.00000000E+00  0.00000000E+00
  0.00000000E+00  0.00000000E+00  0.00000000E+00
  0.00000000E+00  0.00000000E+00  0.00000000E+00
  0.00000000E+00  0.00000000E+00  0.00000000E+00
  0.00000000E+00  0.00000000E+00  0.00000000E+00
  0.00000000E+00  0.00000000E+00  0.00000000E+00
  0.00000000E+00  0.00000000E+00  0.00000000E+00
  0.00000000E+00  0.00000000E+00  0.00000000E+00
  0.00000000E+00  0.00000000E+00  0.00000000E+00
  0.00000000E+00  0.00000000E+00  0.00000000E+00
  0.00000000E+00  0.00000000E+00  0.00000000E+00
  0.00000000E+00  0.00000000E+00  0.00000000E+00
  0.00000000E+00  0.00000000E+00  0.00000000E+00
  0.00000000E+00  0.00000000E+00  0.00000000E+00
  0.00000000E+00  0.00000000E+00  0.00000000E+00
  0.00000000E+00  0.00000000E+00  0.00000000E+00
  0.00000000E+00  0.00000000E+00  0.00000000E+00
  0.00000000E+00  0.00000000E+00  0.00000000E+00
  0.00000000E+00  0.00000000E+00  0.00000000E+00
  0.00000000E+00  0.00000000E+00  0.00000000E+00
  0.00000000E+00  0.00000000E+00  0.00000000E+00
  0.00000000E+00  0.00000000E+00  0.00000000E+00
  0.00000000E+00  0.00000000E+00  0.00000000E+00
  0.00000000E+00  0.00000000E+00  0.00000000E+00
  0.00000000E+00  0.00000000E+00  0.00000000E+00
  0.00000000E+00  0.00000000E+00  0.00000000E+00
  0.00000000E+00  0.00000000E+00  0.00000000E+00
  0.00000000E+00  0.00000000E+00  0.00000000E+00
  0.00000000E+00  0.00000000E+00  0.00000000E+00
  0.00000000E+00  0.00000000E+00  0.00000000E+00
  0.00000000E+00  0.00000000E+00  0.00000000E+00
  0.00000000E+00  0.00000000E+00  0.00000000E+00
  0.00000000E+00  0.00000000E+00  0.00000000E+00
  0.00000000E+00  0.00000000E+00  0.00000000E+00
  0.00000000E+00  0.00000000E+00  0.00000000E+00
  0.00000000E+00  0.00000000E+00  0.00000000E+00
  0.00000000E+00  0.00000000E+00  0.00000000E+00
  0.00000000E+00  0.00000000E+00  0.00000000E+00
  0.00000000E+00  0.00000000E+00  0.00000000E+00
  0.00000000E+00  0.00000000E+00  0.00000000E+00
  0.00000000E+00  0.00000000E+00  0.00000000E+00
  0.00000000E+00  0.00000000E+00  0.00000000E+00
  0.00000000E+00  0.00000000E+00  0.00000000E+00
  0.00000000E+00  0.00000000E+00  0.00000000E+00
  0.00000000E+00  0.00000000E+00  0.00000000E+00
  0.00000000E+00  0.00000000E+00  0.00000000E+00
  0.00000000E+00  0.00000000E+00  0.00000000E+00
  0.00000000E+00  0.00000000E+00  0.00000000E+00
  0.00000000E+00  0.00000000E+00  0.00000000E+00
  0.00000000E+00  0.00000000E+00  0.00000000E+00
  0.00000000E+00  0.00000000E+00  0.00000000E+00
  0.00000000E+00  0.00000000E+00  0.00000000E+00
  0.00000000E+00  0.00000000E+00  0.00000000E+00
  0.00000000E+00  0.00000000E+00  0.00000000E+00
  0.00000000E+00  0.00000000E+00  0.00000000E+00
  0.00000000E+00  0.00000000E+00  0.00000000E+00
  0.00000000E+00  0.00000000E+00  0.00000000E+00
  0.00000000E+00  0.00000000E+00  0.00000000E+00
  0.00000000E+00  0.00000000E+00  0.00000000E+00
  0.00000000E+00  0.00000000E+00  0.00000000E+00
  0.00000000E+00  0.00000000E+00  0.00000000E+00
  0.00000000E+00  0.00000000E+00  0.00000000E+00
  0.00000000E+00  0.00000000E+00  0.00000000E+00
  0.00000000E+00  0.00000000E+00  0.00000000E+00
  0.00000000E+00  0.00000000E+00  0.00000000E+00
  0.00000000E+00  0.00000000E+00  0.00000000E+00
  0.00000000E+00  0.00000000E+00  0.00000000E+00
  0.00000000E+00  0.00000000E+00  0.00000000E+00
  0.00000000E+00  0.00000000E+00  0.00000000E+00
  0.00000000E+00  0.00000000E+00  0.00000000E+00
  0.00000000E+00  0.00000000E+00  0.00000000E+00
  0.00000000E+00  0.00000000E+00  0.00000000E+00
  0.00000000E+00  0.00000000E+00  0.00000000E+00
  0.00000000E+00  0.00000000E+00  0.00000000E+00
  0.00000000E+00  0.00000000E+00  0.00000000E+00
  0.00000000E+00  0.00000000E+00  0.00000000E+00
  0.00000000E+00  0.00000000E+00  0.00000000E+00
  0.00000000E+00  0.00000000E+00  0.00000000E+00
  0.00000000E+00  0.00000000E+00  0.00000000E+00
  0.00000000E+00  0.00000000E+00  0.00000000E+00
  0.00000000E+00  0.00000000E+00  0.00000000E+00
  0.00000000E+00  0.00000000E+00  0.00000000E+00
  0.00000000E+00  0.00000000E+00  0.00000000E+00
  0.00000000E+00  0.00000000E+00  0.00000000E+00
  0.00000000E+00  0.00000000E+00  0.00000000E+00
