CONTCAR                                 
   1.00000000000000     
    11.9881000519000001    0.0000000000000000    0.0000000000000000
    -5.9940500259000000   10.3819991880000000    0.0000000000000000
     0.0000000000000000    0.0000000000000000   19.4675998688000007
   Ti   C    O    H 
    32    16    32     1
Direct
  0.1665432627536882  0.0832336333992228  0.5664073148621050
  0.0832497431914566  0.1667141038841115  0.4319117929730367
  0.4165897229996531  0.0833363446923883  0.5666207438713621
  0.3332560860469345  0.1667072156994312  0.4319147983353903
  0.6666287763186477  0.0833973552633338  0.5664176594647851
  0.5832011492212097  0.1666577983800057  0.4318229448449584
  0.9165817950115179  0.0833332759485139  0.5666202591773568
  0.8332527664685081  0.1666534894530294  0.4318149114373948
  0.1665407201400061  0.3333003310723401  0.5664828612809790
  0.0832969887191734  0.4167025015882130  0.4319680962650568
  0.4166381144764804  0.3333269007185158  0.5664745817441724
  0.3332573753610870  0.4166921800924647  0.4319180428604520
  0.6666371072454980  0.3333155363257729  0.5664281556514604
  0.5832218783239356  0.4166929268574674  0.4319718969442347
  0.9165460430879657  0.3333151781083480  0.5664184183803422
  0.8332516410136717  0.4167076007445134  0.4318218271233459
  0.1665098572508454  0.5833017072970134  0.5664890392235907
  0.0832682821775499  0.6666294604943994  0.4318968749105944
  0.4165769676955681  0.5833325058206313  0.5667081100665755
  0.3332619687183144  0.6666609584937188  0.4319399800804742
  0.6666098878500517  0.5833102929003182  0.5664782655021046
  0.5832366884044871  0.6666645482750726  0.4319056316323897
  0.9165821039177118  0.5833354588179217  0.5666188933636321
  0.8332233725527247  0.6666613416986271  0.4319233681607101
  0.1665396897560011  0.8333748353251507  0.5663819441693915
  0.0832453695125616  0.9166737459012640  0.4317409052298746
  0.4166305757298428  0.8334131075464809  0.5664917749026710
  0.3332789331679809  0.9166477187849803  0.4318986049710861
  0.6666120028786986  0.8333869526722714  0.5664736335504497
  0.5832126332629857  0.9166196463505426  0.4319662753816286
  0.9166934516304422  0.8333925528810843  0.5664103824876026
  0.8332169571914819  0.9166686978918991  0.4319171845517898
 -0.0000891124994768  0.0000168188576201  0.4991757745834214
  0.2499495784078865  0.0000162852066378  0.4991671427804372
  0.4999220815846769  0.0000053648701641  0.4991913385126553
  0.7499290463879632  0.0000165172049315  0.4991919451209385
 -0.0000783869471943  0.2500068430931193  0.4991928046791088
  0.2499038189564337  0.2499631819141606  0.4991486092473232
  0.4999202132052434  0.2499904190081342  0.4991916693712710
  0.7499214867881007  0.2500036919473330  0.4991749699250327
 -0.0000725201706234  0.5000028538778665  0.4991915472641559
  0.2500024575067534  0.5000380246876864  0.4992783961841502
  0.4998948628394250  0.5000370737646500  0.4992675213962420
  0.7499430014264115  0.5000057697521586  0.4991921431780564
 -0.0000867143538233  0.7499811711499045  0.4991682769351017
  0.2499041863631117  0.7500233602305703  0.4991439062308684
  0.4998930439994873  0.7499336016176663  0.4992748923832223
  0.7499623334788020  0.7500255231633524  0.4991469980545272
  0.0832468210884519  0.1665997737982677  0.6139626518831568
  0.1665622371900879  0.0833032588588054  0.3843789730673965
  0.3331963197134749  0.1666119118423327  0.6139603472379954
  0.4166438963297591  0.0833662444605084  0.3844339552231818
  0.5833187743558025  0.1667040329597339  0.6139749275975531
  0.6665633162163070  0.0832937460714464  0.3844104890813241
  0.8332279538022795  0.1667087976840548  0.6139771566353173
  0.9165489489633695  0.0833845856250289  0.3844336536801145
  0.0832038082926139  0.4166381581622700  0.6139567204399212
  0.1666468326785171  0.3334178769616388  0.3844713963671784
  0.3331295160566696  0.4164263474312576  0.6139810831350364
  0.4166100020998635  0.3333982844606636  0.3844681167459059
  0.5832843581245487  0.4166451749027587  0.6139492437273988
  0.6665633263613699  0.3333523446514108  0.3844146485596253
  0.8332306349130236  0.4166124070696364  0.6139745663218954
  0.9166294762970119  0.3333593896967813  0.3844103676372597
  0.0832555606737316  0.6667415289591797  0.6139592670561693
  0.1666543294478017  0.5833123068187875  0.3844735489809571
  0.3331272565520242  0.6667886224157092  0.6139900853862743
  0.4165956931628404  0.5833360873829494  0.3843972267203746
  0.5835110342116990  0.6667999429453203  0.6139730316942641
  0.6665321331051566  0.5833173861531725  0.3844680500054029
  0.8333130797833584  0.6667343574996334  0.6139580614283564
  0.9165602639415118  0.5832725316645733  0.3844352521173268
  0.0832535120592927  0.9166689995859237  0.6139438655247188
  0.1665665806840865  0.8333528037742336  0.3843704254296755
  0.3331859735592003  0.9166695800828918  0.6139591912281930
  0.4166146292344269  0.8332778905298808  0.3844712799780092
  0.5832855502301467  0.9167245448852769  0.6139538474176804
  0.6665151352689420  0.8332886106788849  0.3844679708835323
  0.8333162676934667  0.9166774609475159  0.6139597231491619
  0.9166310197375759  0.8333636581764788  0.3843832679126316
  0.4201344411217228  0.5835450421380428  0.7325643174994959
 
  0.00000000E+00  0.00000000E+00  0.00000000E+00
  0.00000000E+00  0.00000000E+00  0.00000000E+00
  0.00000000E+00  0.00000000E+00  0.00000000E+00
  0.00000000E+00  0.00000000E+00  0.00000000E+00
  0.00000000E+00  0.00000000E+00  0.00000000E+00
  0.00000000E+00  0.00000000E+00  0.00000000E+00
  0.00000000E+00  0.00000000E+00  0.00000000E+00
  0.00000000E+00  0.00000000E+00  0.00000000E+00
  0.00000000E+00  0.00000000E+00  0.00000000E+00
  0.00000000E+00  0.00000000E+00  0.00000000E+00
  0.00000000E+00  0.00000000E+00  0.00000000E+00
  0.00000000E+00  0.00000000E+00  0.00000000E+00
  0.00000000E+00  0.00000000E+00  0.00000000E+00
  0.00000000E+00  0.00000000E+00  0.00000000E+00
  0.00000000E+00  0.00000000E+00  0.00000000E+00
  0.00000000E+00  0.00000000E+00  0.00000000E+00
  0.00000000E+00  0.00000000E+00  0.00000000E+00
  0.00000000E+00  0.00000000E+00  0.00000000E+00
  0.00000000E+00  0.00000000E+00  0.00000000E+00
  0.00000000E+00  0.00000000E+00  0.00000000E+00
  0.00000000E+00  0.00000000E+00  0.00000000E+00
  0.00000000E+00  0.00000000E+00  0.00000000E+00
  0.00000000E+00  0.00000000E+00  0.00000000E+00
  0.00000000E+00  0.00000000E+00  0.00000000E+00
  0.00000000E+00  0.00000000E+00  0.00000000E+00
  0.00000000E+00  0.00000000E+00  0.00000000E+00
  0.00000000E+00  0.00000000E+00  0.00000000E+00
  0.00000000E+00  0.00000000E+00  0.00000000E+00
  0.00000000E+00  0.00000000E+00  0.00000000E+00
  0.00000000E+00  0.00000000E+00  0.00000000E+00
  0.00000000E+00  0.00000000E+00  0.00000000E+00
  0.00000000E+00  0.00000000E+00  0.00000000E+00
  0.00000000E+00  0.00000000E+00  0.00000000E+00
  0.00000000E+00  0.00000000E+00  0.00000000E+00
  0.00000000E+00  0.00000000E+00  0.00000000E+00
  0.00000000E+00  0.00000000E+00  0.00000000E+00
  0.00000000E+00  0.00000000E+00  0.00000000E+00
  0.00000000E+00  0.00000000E+00  0.00000000E+00
  0.00000000E+00  0.00000000E+00  0.00000000E+00
  0.00000000E+00  0.00000000E+00  0.00000000E+00
  0.00000000E+00  0.00000000E+00  0.00000000E+00
  0.00000000E+00  0.00000000E+00  0.00000000E+00
  0.00000000E+00  0.00000000E+00  0.00000000E+00
  0.00000000E+00  0.00000000E+00  0.00000000E+00
  0.00000000E+00  0.00000000E+00  0.00000000E+00
  0.00000000E+00  0.00000000E+00  0.00000000E+00
  0.00000000E+00  0.00000000E+00  0.00000000E+00
  0.00000000E+00  0.00000000E+00  0.00000000E+00
  0.00000000E+00  0.00000000E+00  0.00000000E+00
  0.00000000E+00  0.00000000E+00  0.00000000E+00
  0.00000000E+00  0.00000000E+00  0.00000000E+00
  0.00000000E+00  0.00000000E+00  0.00000000E+00
  0.00000000E+00  0.00000000E+00  0.00000000E+00
  0.00000000E+00  0.00000000E+00  0.00000000E+00
  0.00000000E+00  0.00000000E+00  0.00000000E+00
  0.00000000E+00  0.00000000E+00  0.00000000E+00
  0.00000000E+00  0.00000000E+00  0.00000000E+00
  0.00000000E+00  0.00000000E+00  0.00000000E+00
  0.00000000E+00  0.00000000E+00  0.00000000E+00
  0.00000000E+00  0.00000000E+00  0.00000000E+00
  0.00000000E+00  0.00000000E+00  0.00000000E+00
  0.00000000E+00  0.00000000E+00  0.00000000E+00
  0.00000000E+00  0.00000000E+00  0.00000000E+00
  0.00000000E+00  0.00000000E+00  0.00000000E+00
  0.00000000E+00  0.00000000E+00  0.00000000E+00
  0.00000000E+00  0.00000000E+00  0.00000000E+00
  0.00000000E+00  0.00000000E+00  0.00000000E+00
  0.00000000E+00  0.00000000E+00  0.00000000E+00
  0.00000000E+00  0.00000000E+00  0.00000000E+00
  0.00000000E+00  0.00000000E+00  0.00000000E+00
  0.00000000E+00  0.00000000E+00  0.00000000E+00
  0.00000000E+00  0.00000000E+00  0.00000000E+00
  0.00000000E+00  0.00000000E+00  0.00000000E+00
  0.00000000E+00  0.00000000E+00  0.00000000E+00
  0.00000000E+00  0.00000000E+00  0.00000000E+00
  0.00000000E+00  0.00000000E+00  0.00000000E+00
  0.00000000E+00  0.00000000E+00  0.00000000E+00
  0.00000000E+00  0.00000000E+00  0.00000000E+00
  0.00000000E+00  0.00000000E+00  0.00000000E+00
  0.00000000E+00  0.00000000E+00  0.00000000E+00
  0.00000000E+00  0.00000000E+00  0.00000000E+00
