CONTCAR                                 
   1.00000000000000     
    10.2439002990999999    0.0000000000000000    0.0000000000000000
    -5.1219302098000004    8.8769157374999992    0.0000000000000000
     0.0000000000000000    0.0000000000000000   20.8738994598000005
   Zr   Cl   O 
    18    18     1
Selective dynamics
Direct
  0.0564137257529111  0.1111016983281630  0.5560501066036636   F   F   F
  0.1679195051291771  0.0024605952861947  0.4416213395112649   F   F   F
  0.3880473118756882  0.1111505866928653  0.5560401090584293   F   F   F
  0.5017505465585259  0.0012104761472713  0.4428048362155437   F   F   F
  0.7225453565958944  0.1117134581279089  0.5574414694225567   F   F   F
  0.8328992776648789  0.0011724199735283  0.4428206978708999   F   F   F
  0.0563861305126707  0.4461211685334519  0.5560530932138406   F   F   F
  0.1763356781741194  0.3385557904110357  0.4460056947672228   F   F   F
  0.3889140988797877  0.4448397834103588  0.6085134023781009   F   F   F
  0.4954988981114425  0.3385207061546254  0.4459776935295565   F   F   F
  0.7229057988155034  0.4461221997233977  0.5560293355787991   F   F   F
  0.8328962790881036  0.3324869195582494  0.4428139500241386   F   F   F
  0.0557626504789184  0.7782889966110389  0.5540868248177233   F   F   F
  0.1678560798260733  0.6661957259440499  0.4416074854435053   F   F   F
  0.3880280429963179  0.7776850296353928  0.5560204641804489   F   F   F
  0.4954597290628300  0.6576185278250790  0.4459783978537857   F   F   F
  0.7229028551681793  0.7776397511600948  0.5560396340782958   F   F   F
  0.8316836649881481  0.6662220236342122  0.4415978777718834   F   F   F
  0.2521301833665461  0.1710143869347007  0.6435522303666446   F   F   F
  0.2796711709038249  0.2261204345308698  0.3600344451157440   F   F   F
  0.6112080409926719  0.2230245970147493  0.6402931894025485   F   F   F
  0.6087602365201548  0.2253124459602205  0.3607901579860027   F   F   F
  0.9451306794605188  0.2229851192123178  0.6403300793684608   F   F   F
  0.9498570632378573  0.2253009911892576  0.3608349375180495   F   F   F
  0.2521448199559444  0.5819854123743866  0.6435400042806876   F   F   F
  0.2796357606490361  0.5542810798708260  0.3600339357902413   F   F   F
  0.6627715393015308  0.5818245266682922  0.6435033783446116   F   F   F
  0.6079833275733506  0.5543039568926318  0.3600357162809757   F   F   F
  0.9441895355599428  0.5553022736681896  0.6380005651064309   F   F   F
  0.9439238497212799  0.5545235711139753  0.3584456689417408   F   F   F
  0.2788318240894156  0.8898329797342655  0.6379924880419665   F   F   F
  0.2794695710865156  0.8900868505483999  0.3584955888478021   F   F   F
  0.6111239948300948  0.8890937522872662  0.6402834564289890   F   F   F
  0.6087829699080842  0.8841157403565276  0.3607894749548777   F   F   F
  0.9441676810200903  0.8898161376347389  0.6379908501601435   F   F   F
  0.9439722668969139  0.8901214242766216  0.3584807261954452   F   F   F
  0.3889007782470770  0.4447387025748526  0.6942520827897318   T   T   T
 
  0.00000000E+00  0.00000000E+00  0.00000000E+00
  0.00000000E+00  0.00000000E+00  0.00000000E+00
  0.00000000E+00  0.00000000E+00  0.00000000E+00
  0.00000000E+00  0.00000000E+00  0.00000000E+00
  0.00000000E+00  0.00000000E+00  0.00000000E+00
  0.00000000E+00  0.00000000E+00  0.00000000E+00
  0.00000000E+00  0.00000000E+00  0.00000000E+00
  0.00000000E+00  0.00000000E+00  0.00000000E+00
  0.00000000E+00  0.00000000E+00  0.00000000E+00
  0.00000000E+00  0.00000000E+00  0.00000000E+00
  0.00000000E+00  0.00000000E+00  0.00000000E+00
  0.00000000E+00  0.00000000E+00  0.00000000E+00
  0.00000000E+00  0.00000000E+00  0.00000000E+00
  0.00000000E+00  0.00000000E+00  0.00000000E+00
  0.00000000E+00  0.00000000E+00  0.00000000E+00
  0.00000000E+00  0.00000000E+00  0.00000000E+00
  0.00000000E+00  0.00000000E+00  0.00000000E+00
  0.00000000E+00  0.00000000E+00  0.00000000E+00
  0.00000000E+00  0.00000000E+00  0.00000000E+00
  0.00000000E+00  0.00000000E+00  0.00000000E+00
  0.00000000E+00  0.00000000E+00  0.00000000E+00
  0.00000000E+00  0.00000000E+00  0.00000000E+00
  0.00000000E+00  0.00000000E+00  0.00000000E+00
  0.00000000E+00  0.00000000E+00  0.00000000E+00
  0.00000000E+00  0.00000000E+00  0.00000000E+00
  0.00000000E+00  0.00000000E+00  0.00000000E+00
  0.00000000E+00  0.00000000E+00  0.00000000E+00
  0.00000000E+00  0.00000000E+00  0.00000000E+00
  0.00000000E+00  0.00000000E+00  0.00000000E+00
  0.00000000E+00  0.00000000E+00  0.00000000E+00
  0.00000000E+00  0.00000000E+00  0.00000000E+00
  0.00000000E+00  0.00000000E+00  0.00000000E+00
  0.00000000E+00  0.00000000E+00  0.00000000E+00
  0.00000000E+00  0.00000000E+00  0.00000000E+00
  0.00000000E+00  0.00000000E+00  0.00000000E+00
  0.00000000E+00  0.00000000E+00  0.00000000E+00
  0.00000000E+00  0.00000000E+00  0.00000000E+00
