Tm4 Te12                                
   1.00000000000000     
     4.3231130498110950    0.0000000000000000    0.0000000000000000
     0.0000000000000000   25.7192274271681640   -0.0000000000000000
     0.0000000000000000   -0.0000000000000000    4.3275677282196714
   Tm   Te
     4    12
Direct
 -0.0000000000000000  0.8293391473023408  0.7500000000000000
  0.5000000000000000  0.6706608526976592  0.2500000000000000
  0.5000000000000000  0.3293391843023403  0.7500000000000000
  0.0000000000000000  0.1706607976976653  0.2500000000000000
  0.5000000000000000  0.5753150152008819  0.7500000000000000
  0.0000000000000000  0.9246849847991181  0.2500000000000000
  0.5000000000000000  0.9246539440410024  0.7500000000000000
  0.0000000000000000  0.5753460559589976  0.2500000000000000
 -0.0000000000000000  0.7066824395477309  0.7500000000000000
  0.5000000000000000  0.7933175604522691  0.2500000000000000
  0.0000000000000000  0.0753150112008816  0.7500000000000000
  0.5000000000000000  0.4246849847991181  0.2500000000000000
 -0.0000000000000000  0.4246539440410024  0.7500000000000000
  0.5000000000000000  0.0753460469590004  0.2500000000000000
  0.5000000000000000  0.2066824395477310  0.7500000000000000
 -0.0000000000000000  0.2933175604522690  0.2500000000000000
 
  0.00000000E+00  0.00000000E+00  0.00000000E+00
  0.00000000E+00  0.00000000E+00  0.00000000E+00
  0.00000000E+00  0.00000000E+00  0.00000000E+00
  0.00000000E+00  0.00000000E+00  0.00000000E+00
  0.00000000E+00  0.00000000E+00  0.00000000E+00
  0.00000000E+00  0.00000000E+00  0.00000000E+00
  0.00000000E+00  0.00000000E+00  0.00000000E+00
  0.00000000E+00  0.00000000E+00  0.00000000E+00
  0.00000000E+00  0.00000000E+00  0.00000000E+00
  0.00000000E+00  0.00000000E+00  0.00000000E+00
  0.00000000E+00  0.00000000E+00  0.00000000E+00
  0.00000000E+00  0.00000000E+00  0.00000000E+00
  0.00000000E+00  0.00000000E+00  0.00000000E+00
  0.00000000E+00  0.00000000E+00  0.00000000E+00
  0.00000000E+00  0.00000000E+00  0.00000000E+00
  0.00000000E+00  0.00000000E+00  0.00000000E+00
