CONTCAR\(6)                             
   1.00000000000000     
    13.7857999802000002    0.0000000000000000    0.0000000000000000
    -6.8928999901000001   11.9388529942999995    0.0000000000000000
     0.0000000000000000    0.0000000000000000   18.1305007935000013
   Ru   Se
    16    32
Direct
  0.1666699900000026  0.0833300019999967  0.5000000000000000
  0.4166700079999970  0.0833300019999967  0.5000000000000000
  0.6666699900000026  0.0833300019999967  0.5000000000000000
  0.9166700079999970  0.0833300019999967  0.5000000000000000
  0.1666700039999967  0.3333300130000012  0.5000000000000000
  0.4166700039999967  0.3333300130000012  0.5000000000000000
  0.6666700219999981  0.3333300130000012  0.5000000000000000
  0.9166700390000031  0.3333300130000012  0.5000000000000000
  0.1666699889999990  0.5833299979999964  0.5000000000000000
  0.4166699889999990  0.5833299979999964  0.5000000000000000
  0.6666700059999968  0.5833299979999964  0.5000000000000000
  0.9166699889999990  0.5833299979999964  0.5000000000000000
  0.1666700070000005  0.8333299840000024  0.5000000000000000
  0.4166700070000005  0.8333299840000024  0.5000000000000000
  0.6666700250000019  0.8333299840000024  0.5000000000000000
  0.9166700419999998  0.8333299840000024  0.5000000000000000
  0.0000000000000000  0.0000000000000000  0.5831999729999993
  0.0000000000000000  0.0000000000000000  0.4168000000000021
  0.2500000000000000  0.0000000000000000  0.5831999729999993
  0.2500000000000000  0.0000000000000000  0.4168000000000021
  0.5000000000000000  0.0000000000000000  0.5831999729999993
  0.5000000000000000  0.0000000000000000  0.4168000000000021
  0.7499999830000021  0.0000000000000000  0.5831999729999993
  0.7499999830000021  0.0000000000000000  0.4168000000000021
  0.0000000029999967  0.2500000060000005  0.5831999729999993
  0.0000000029999967  0.2500000060000005  0.4168000000000021
  0.2500000029999967  0.2500000060000005  0.5831999729999993
  0.2500000029999967  0.2500000060000005  0.4168000000000021
  0.4999999939999995  0.2500000060000005  0.5831999729999993
  0.4999999939999995  0.2500000060000005  0.4168000000000021
  0.7500000109999974  0.2500000060000005  0.5831999729999993
  0.7500000109999974  0.2500000060000005  0.4168000000000021
  0.0000000060000005  0.5000000109999974  0.5831999729999993
  0.0000000060000005  0.5000000109999974  0.4168000000000021
  0.2500000060000005  0.5000000109999974  0.5831999729999993
  0.2500000060000005  0.5000000109999974  0.4168000000000021
  0.5000000060000005  0.5000000109999974  0.5831999729999993
  0.5000000060000005  0.5000000109999974  0.4168000000000021
  0.7499999710000012  0.5000000109999974  0.5831999729999993
  0.7499999710000012  0.5000000109999974  0.4168000000000021
  0.0000000069999970  0.7499999970000033  0.5831999729999993
  0.0000000069999970  0.7499999970000033  0.4168000000000021
  0.2500000069999970  0.7499999970000033  0.5831999729999993
  0.2500000069999970  0.7499999970000033  0.4168000000000021
  0.5000000069999970  0.7499999970000033  0.5831999729999993
  0.5000000069999970  0.7499999970000033  0.4168000000000021
  0.7499999899999992  0.7499999970000033  0.5831999729999993
  0.7499999899999992  0.7499999970000033  0.4168000000000021
 
  0.00000000E+00  0.00000000E+00  0.00000000E+00
  0.00000000E+00  0.00000000E+00  0.00000000E+00
  0.00000000E+00  0.00000000E+00  0.00000000E+00
  0.00000000E+00  0.00000000E+00  0.00000000E+00
  0.00000000E+00  0.00000000E+00  0.00000000E+00
  0.00000000E+00  0.00000000E+00  0.00000000E+00
  0.00000000E+00  0.00000000E+00  0.00000000E+00
  0.00000000E+00  0.00000000E+00  0.00000000E+00
  0.00000000E+00  0.00000000E+00  0.00000000E+00
  0.00000000E+00  0.00000000E+00  0.00000000E+00
  0.00000000E+00  0.00000000E+00  0.00000000E+00
  0.00000000E+00  0.00000000E+00  0.00000000E+00
  0.00000000E+00  0.00000000E+00  0.00000000E+00
  0.00000000E+00  0.00000000E+00  0.00000000E+00
  0.00000000E+00  0.00000000E+00  0.00000000E+00
  0.00000000E+00  0.00000000E+00  0.00000000E+00
  0.00000000E+00  0.00000000E+00  0.00000000E+00
  0.00000000E+00  0.00000000E+00  0.00000000E+00
  0.00000000E+00  0.00000000E+00  0.00000000E+00
  0.00000000E+00  0.00000000E+00  0.00000000E+00
  0.00000000E+00  0.00000000E+00  0.00000000E+00
  0.00000000E+00  0.00000000E+00  0.00000000E+00
  0.00000000E+00  0.00000000E+00  0.00000000E+00
  0.00000000E+00  0.00000000E+00  0.00000000E+00
  0.00000000E+00  0.00000000E+00  0.00000000E+00
  0.00000000E+00  0.00000000E+00  0.00000000E+00
  0.00000000E+00  0.00000000E+00  0.00000000E+00
  0.00000000E+00  0.00000000E+00  0.00000000E+00
  0.00000000E+00  0.00000000E+00  0.00000000E+00
  0.00000000E+00  0.00000000E+00  0.00000000E+00
  0.00000000E+00  0.00000000E+00  0.00000000E+00
  0.00000000E+00  0.00000000E+00  0.00000000E+00
  0.00000000E+00  0.00000000E+00  0.00000000E+00
  0.00000000E+00  0.00000000E+00  0.00000000E+00
  0.00000000E+00  0.00000000E+00  0.00000000E+00
  0.00000000E+00  0.00000000E+00  0.00000000E+00
  0.00000000E+00  0.00000000E+00  0.00000000E+00
  0.00000000E+00  0.00000000E+00  0.00000000E+00
  0.00000000E+00  0.00000000E+00  0.00000000E+00
  0.00000000E+00  0.00000000E+00  0.00000000E+00
  0.00000000E+00  0.00000000E+00  0.00000000E+00
  0.00000000E+00  0.00000000E+00  0.00000000E+00
  0.00000000E+00  0.00000000E+00  0.00000000E+00
  0.00000000E+00  0.00000000E+00  0.00000000E+00
  0.00000000E+00  0.00000000E+00  0.00000000E+00
  0.00000000E+00  0.00000000E+00  0.00000000E+00
  0.00000000E+00  0.00000000E+00  0.00000000E+00
  0.00000000E+00  0.00000000E+00  0.00000000E+00
