CONTCAR\(4)                             
   1.00000000000000     
    13.4069995879999997    0.0000000000000000    0.0000000000000000
     0.0000000000000000   14.7997999190999998    0.0000000000000000
     0.0000000000000000    0.0000000000000000   22.4342994689999990
   Ta   S    O 
    24    72     1
Direct
  0.1863220989237719  0.0867188826358862  0.4406910101366669
  0.0633720138889354  0.9143808189051371  0.5603976135130994
  0.1871542054353082  0.7550251593932615  0.4265143804597303
  0.0610467219526312  0.2465515230061383  0.5739769899447315
  0.1862788167103073  0.5054999192057850  0.5818927185362039
  0.0612473004507772  0.4963886669490800  0.4183178599305163
  0.4361090826348384  0.0872982368231339  0.4402460464990378
  0.3126162051132610  0.9149732323649656  0.5612040505138596
  0.4362663398569423  0.7549935736802840  0.4267442560597055
  0.3104194038565977  0.2465947373739831  0.5731711320482420
  0.4363384939914074  0.5049554129129123  0.5819988248743102
  0.3113352710039550  0.4959367886407045  0.4181564347803849
  0.6858968013962060  0.0867043127481110  0.4407345246462787
  0.5597366340780058  0.9150502552748526  0.5613124488776859
  0.6853344904299469  0.7549143676760930  0.4265390335570488
  0.5620188574243916  0.2465926677529071  0.5731698364706993
  0.6863803033979798  0.5055212858048185  0.5818674867302697
  0.5612268749179736  0.4959401571489496  0.4181865291646561
  0.9361133297035341  0.0863009193877696  0.4407943273903686
  0.8089468430004803  0.9143856657753444  0.5603783179429138
  0.9362335091352408  0.7553295142716174  0.4271518040869653
  0.8113470422666813  0.2465813680024522  0.5739804612708083
  0.9362727674513275  0.5056888806180818  0.5820857812332653
  0.8113546647691797  0.4962727624007897  0.4182648093164706
  0.1864934452463694  0.9214852319542313  0.4774940414026883
  0.0614473905820018  0.0797982875721417  0.5234988398889384
  0.1860582150613601  0.9786710805002393  0.6334503832663627
  0.0611858746909295  0.0214266203840225  0.3682776157147130
  0.1869338762499945  0.8336102042831317  0.6259050248150672
  0.0609295047911950  0.1673937399952213  0.3762857703450277
  0.1862146887331189  0.1582449812381076  0.6302885843001543
  0.0611033436231037  0.8439499793087246  0.3705643461624692
  0.1861751998799643  0.3463691313806135  0.6267185294225719
  0.0612143130374542  0.6559434023730939  0.3736223617924353
  0.1857648949826259  0.2452183484214488  0.4891753163037414
  0.0621080444499475  0.7564060060964498  0.5112598942744876
  0.1861750091573566  0.4809921431394681  0.3344920213572559
  0.0615357413451168  0.5212253394667710  0.6656818815438714
  0.1865261518876437  0.5826392977373402  0.4779508699367881
  0.0611029783097303  0.4190280509337259  0.5222331855683718
  0.1860136187064179  0.3733948854980007  0.3946425588441474
  0.0615273287560542  0.6285481851069361  0.6051998592630234
  0.4362038687186657  0.9223245719594771  0.4774263117222085
  0.3117125102132112  0.0802793685658070  0.5234759808279444
  0.4360455273155842  0.9858189211630889  0.6335495698575214
  0.3110763670859490  0.0227998231761949  0.3674307490981992
  0.4361264971858886  0.8305775988865813  0.6217344370940917
  0.3108273689556579  0.1678873054070706  0.3756988708104048
  0.4361639663374214  0.1584775525267418  0.6300636183526486
  0.3113767847675750  0.8437467839393665  0.3699926293887709
  0.4362651510830906  0.3446752610933498  0.6269426400179479
  0.3115323145017010  0.6552287151909322  0.3732848149431785
  0.4361731772809667  0.2452244881941158  0.4890046440931459
  0.3112147446210726  0.7564493902006070  0.5109117780287341
  0.4363396783436597  0.4800762396582017  0.3344641238364703
  0.3112826394472757  0.5208357969513235  0.6655939878890735
  0.4362608476870993  0.5823889018704804  0.4781101066813455
  0.3112453860653622  0.4186531978011164  0.5221764026299484
  0.4362771501249649  0.3728880630795493  0.3950859820896753
  0.3115865858640730  0.6280954765639700  0.6050514064690937
  0.6857577315348089  0.9214644488013163  0.4774788779427459
  0.5605078081714865  0.0802669961507392  0.5235114156741081
  0.6863563342494213  0.9788699195596288  0.6334390226716307
  0.5612094956525560  0.0227834739724048  0.3674637529064090
  0.6853153989107380  0.8337012623032253  0.6259574553314455
  0.5613490275557257  0.1679111617807486  0.3757662810531288
  0.6861546403359085  0.1582671024204302  0.6303124237168367
  0.5611117203924224  0.8436948403683373  0.3700351780452537
  0.6863141278360931  0.3463825571706680  0.6267435493016250
  0.5610153330788367  0.6551939149183762  0.3732502843087638
  0.6865719695030845  0.2452410718574480  0.4891893438151398
  0.5611757438246675  0.7564720049717039  0.5109347465112972
  0.6863549443311405  0.4809057219882353  0.3344933470331555
  0.5615654463104645  0.5209051181371901  0.6655629758350999
  0.6860577743952604  0.5826268956137347  0.4779110281263546
  0.5613659814646511  0.4186590078648587  0.5221775894959272
  0.6864838676423990  0.3733367834114990  0.3946553409027863
  0.5610830630846582  0.6281224385081731  0.6049741988292443
  0.9361373180686737  0.9211628793900672  0.4781815614695134
  0.8108035791405988  0.0798882786504430  0.5235341759829922
  0.9361037361326917  0.9792249513011856  0.6318846794134286
  0.8110250966391106  0.0213928414869698  0.3683243623178805
  0.9361053857087031  0.8334574359315259  0.6237831769139326
  0.8112330183841134  0.1673118769670574  0.3762565037381969
  0.9361639409962755  0.1578282360761793  0.6305030785192748
  0.8112421421846511  0.8438590316791729  0.3706062009354401
  0.9362418770733932  0.3462296202618746  0.6271537580121459
  0.8114400050147001  0.6558146426064343  0.3736158993095582
  0.9361390796846312  0.2447321078861103  0.4895499386653888
  0.8103032596709372  0.7564029539969789  0.5112797539660826
  0.9363714440598228  0.4802932343673232  0.3346036431989202
  0.8111764191999485  0.5213555013586763  0.6657056199496505
  0.9361894032825864  0.5829189226916230  0.4781563658159047
  0.8114724181918667  0.4189714412582805  0.5222179590783440
  0.9363747506922721  0.3732597517751390  0.3952231706397675
  0.8111047942726416  0.6286316884652042  0.6051557872277600
  0.4356937784487296  0.9942894036803033  0.6995614703284337
 
  0.00000000E+00  0.00000000E+00  0.00000000E+00
  0.00000000E+00  0.00000000E+00  0.00000000E+00
  0.00000000E+00  0.00000000E+00  0.00000000E+00
  0.00000000E+00  0.00000000E+00  0.00000000E+00
  0.00000000E+00  0.00000000E+00  0.00000000E+00
  0.00000000E+00  0.00000000E+00  0.00000000E+00
  0.00000000E+00  0.00000000E+00  0.00000000E+00
  0.00000000E+00  0.00000000E+00  0.00000000E+00
  0.00000000E+00  0.00000000E+00  0.00000000E+00
  0.00000000E+00  0.00000000E+00  0.00000000E+00
  0.00000000E+00  0.00000000E+00  0.00000000E+00
  0.00000000E+00  0.00000000E+00  0.00000000E+00
  0.00000000E+00  0.00000000E+00  0.00000000E+00
  0.00000000E+00  0.00000000E+00  0.00000000E+00
  0.00000000E+00  0.00000000E+00  0.00000000E+00
  0.00000000E+00  0.00000000E+00  0.00000000E+00
  0.00000000E+00  0.00000000E+00  0.00000000E+00
  0.00000000E+00  0.00000000E+00  0.00000000E+00
  0.00000000E+00  0.00000000E+00  0.00000000E+00
  0.00000000E+00  0.00000000E+00  0.00000000E+00
  0.00000000E+00  0.00000000E+00  0.00000000E+00
  0.00000000E+00  0.00000000E+00  0.00000000E+00
  0.00000000E+00  0.00000000E+00  0.00000000E+00
  0.00000000E+00  0.00000000E+00  0.00000000E+00
  0.00000000E+00  0.00000000E+00  0.00000000E+00
  0.00000000E+00  0.00000000E+00  0.00000000E+00
  0.00000000E+00  0.00000000E+00  0.00000000E+00
  0.00000000E+00  0.00000000E+00  0.00000000E+00
  0.00000000E+00  0.00000000E+00  0.00000000E+00
  0.00000000E+00  0.00000000E+00  0.00000000E+00
  0.00000000E+00  0.00000000E+00  0.00000000E+00
  0.00000000E+00  0.00000000E+00  0.00000000E+00
  0.00000000E+00  0.00000000E+00  0.00000000E+00
  0.00000000E+00  0.00000000E+00  0.00000000E+00
  0.00000000E+00  0.00000000E+00  0.00000000E+00
  0.00000000E+00  0.00000000E+00  0.00000000E+00
  0.00000000E+00  0.00000000E+00  0.00000000E+00
  0.00000000E+00  0.00000000E+00  0.00000000E+00
  0.00000000E+00  0.00000000E+00  0.00000000E+00
  0.00000000E+00  0.00000000E+00  0.00000000E+00
  0.00000000E+00  0.00000000E+00  0.00000000E+00
  0.00000000E+00  0.00000000E+00  0.00000000E+00
  0.00000000E+00  0.00000000E+00  0.00000000E+00
  0.00000000E+00  0.00000000E+00  0.00000000E+00
  0.00000000E+00  0.00000000E+00  0.00000000E+00
  0.00000000E+00  0.00000000E+00  0.00000000E+00
  0.00000000E+00  0.00000000E+00  0.00000000E+00
  0.00000000E+00  0.00000000E+00  0.00000000E+00
  0.00000000E+00  0.00000000E+00  0.00000000E+00
  0.00000000E+00  0.00000000E+00  0.00000000E+00
  0.00000000E+00  0.00000000E+00  0.00000000E+00
  0.00000000E+00  0.00000000E+00  0.00000000E+00
  0.00000000E+00  0.00000000E+00  0.00000000E+00
  0.00000000E+00  0.00000000E+00  0.00000000E+00
  0.00000000E+00  0.00000000E+00  0.00000000E+00
  0.00000000E+00  0.00000000E+00  0.00000000E+00
  0.00000000E+00  0.00000000E+00  0.00000000E+00
  0.00000000E+00  0.00000000E+00  0.00000000E+00
  0.00000000E+00  0.00000000E+00  0.00000000E+00
  0.00000000E+00  0.00000000E+00  0.00000000E+00
  0.00000000E+00  0.00000000E+00  0.00000000E+00
  0.00000000E+00  0.00000000E+00  0.00000000E+00
  0.00000000E+00  0.00000000E+00  0.00000000E+00
  0.00000000E+00  0.00000000E+00  0.00000000E+00
  0.00000000E+00  0.00000000E+00  0.00000000E+00
  0.00000000E+00  0.00000000E+00  0.00000000E+00
  0.00000000E+00  0.00000000E+00  0.00000000E+00
  0.00000000E+00  0.00000000E+00  0.00000000E+00
  0.00000000E+00  0.00000000E+00  0.00000000E+00
  0.00000000E+00  0.00000000E+00  0.00000000E+00
  0.00000000E+00  0.00000000E+00  0.00000000E+00
  0.00000000E+00  0.00000000E+00  0.00000000E+00
  0.00000000E+00  0.00000000E+00  0.00000000E+00
  0.00000000E+00  0.00000000E+00  0.00000000E+00
  0.00000000E+00  0.00000000E+00  0.00000000E+00
  0.00000000E+00  0.00000000E+00  0.00000000E+00
  0.00000000E+00  0.00000000E+00  0.00000000E+00
  0.00000000E+00  0.00000000E+00  0.00000000E+00
  0.00000000E+00  0.00000000E+00  0.00000000E+00
  0.00000000E+00  0.00000000E+00  0.00000000E+00
  0.00000000E+00  0.00000000E+00  0.00000000E+00
  0.00000000E+00  0.00000000E+00  0.00000000E+00
  0.00000000E+00  0.00000000E+00  0.00000000E+00
  0.00000000E+00  0.00000000E+00  0.00000000E+00
  0.00000000E+00  0.00000000E+00  0.00000000E+00
  0.00000000E+00  0.00000000E+00  0.00000000E+00
  0.00000000E+00  0.00000000E+00  0.00000000E+00
  0.00000000E+00  0.00000000E+00  0.00000000E+00
  0.00000000E+00  0.00000000E+00  0.00000000E+00
  0.00000000E+00  0.00000000E+00  0.00000000E+00
  0.00000000E+00  0.00000000E+00  0.00000000E+00
  0.00000000E+00  0.00000000E+00  0.00000000E+00
  0.00000000E+00  0.00000000E+00  0.00000000E+00
  0.00000000E+00  0.00000000E+00  0.00000000E+00
  0.00000000E+00  0.00000000E+00  0.00000000E+00
  0.00000000E+00  0.00000000E+00  0.00000000E+00
  0.00000000E+00  0.00000000E+00  0.00000000E+00
