CONTCAR                                 
   1.00000000000000     
    11.4911003113000003    0.0000000000000000    0.0000000000000000
     0.0000000000000000   11.4911003113000003    0.0000000000000000
     0.0000000000000000    0.0000000000000000   24.1816997528000002
   Ca   Cu   Br   O 
    27    18    18    37
Direct
  0.9994513183727185  0.0003445736934581  0.6301789560533354
 -0.0000240908950854 -0.0001046757086110  0.3697284865042794
 -0.0002544625642197 -0.0000549403970388  0.4999170684266406
  0.3319829648885986  0.0001809429951916  0.6304493319380596
  0.3331355811054308  0.0000724041720595  0.3701020695899396
  0.3330308602714893  0.0000087182988887  0.5003237799621554
  0.6678826804169367  0.0011148192010908  0.6298299789403444
  0.6665137569407735  0.0001396298682728  0.3698378765438962
  0.6661235845514946 -0.0000237192305908  0.4999318272241068
  0.9994563054816689  0.3331112955420856  0.6301264691168449
 -0.0002145943751432  0.3334184810575877  0.3697586120789427
 -0.0002584180022649  0.3335953685377098  0.4999123168337684
  0.3320695291849641  0.3330263727632639  0.6305235188924075
  0.3330841296997717  0.3336669805077023  0.3701328122624380
  0.3329652563119217  0.3334934145591670  0.5003716851667358
  0.6678774855976282  0.3319394893336213  0.6298188354494774
  0.6663222062214472  0.3336286205522698  0.3698135546033279
  0.6661454824136757  0.3335087565250398  0.4999409053307552
 -0.0008016565528326  0.6666990741630281  0.6304094677474852
 -0.0001743476691093  0.6667204943991604  0.3699996894153678
 -0.0003648075797139  0.6667283905289810  0.5002157844599050
  0.3302001799672024  0.6665810672189542  0.6318659149381352
  0.3330369146187744  0.6667473760851237  0.3707081210096241
  0.3328602830203105  0.6667499557445450  0.5011983791065378
  0.6667431324425839  0.6664677634717148  0.6305971521279639
  0.6661940446987560  0.6667924076607509  0.3702123853571551
  0.6661703587254539  0.6667857416809424  0.5004604261786781
  0.1664216883017303  0.1667975195623616  0.4370716307702552
  0.1662340797930834  0.1667602146215267  0.5629662569035906
  0.4997370473205793  0.1668463798001411  0.4371817334301307
  0.4996541282640583  0.1666696123208631  0.5633906624470871
  0.8330702757542071  0.1667903601411219  0.4370086080503696
  0.8331408694715865  0.1667358647297131  0.5625772183976643
  0.1663398151672745  0.5000876421698187  0.4372998077792472
  0.1660802888655936  0.5000230805166302  0.5633783289851106
  0.4996762584676871  0.5001415824607127  0.4374560198642578
  0.4993803835509400  0.5000823100102686  0.5637181119227658
  0.8330006331724682  0.5001034895146249  0.4371263492282582
  0.8327232511776893  0.4999765479752787  0.5630837804864188
  0.1664137301541135  0.8333834781482979  0.4372764027479408
  0.1660775210560260  0.8333930763926161  0.5634174137696356
  0.4997099977093633  0.8334711726098403  0.4373931705207407
  0.4994109418957559  0.8331798395697967  0.5637459982772766
  0.8330413748814547  0.8333977822564258  0.4371012583362091
  0.8327434657837285  0.8334068901216661  0.5631395479448352
  0.1668499784302769  0.1667182870645581  0.3098046902075030
  0.1664954711578858  0.1667414407236881  0.6902778536031641
  0.5000102842701906  0.1671162495972429  0.3101002159672892
  0.5003056076742627  0.1658874180335305  0.6903527218346299
  0.8333576017467748  0.1666017702909849  0.3097115614519729
  0.8333308382748174  0.1666017770310116  0.6902557548408215
  0.1663760853165321  0.5000639876847982  0.3100879924539516
  0.1625840408022389  0.4970226358957285  0.6902314547858430
  0.4995779977049575  0.5004396265214855  0.3100753450491318
  0.5032962249053962  0.4952059308857942  0.6932471679074980
  0.8326197135547868  0.5003419811545536  0.3100214490728327
  0.8321223501606319  0.4994137973196872  0.6900935199269477
  0.1668519243324974  0.8331491172563010  0.3099366282948388
  0.1626211171438749  0.8363583418866722  0.6902064190305764
  0.4997015401033208  0.8334980610484410  0.3102076426334260
  0.5028722280686000  0.8363624441635953  0.6931920503526746
  0.8330667333496704  0.8332179836132058  0.3098197111364456
  0.8321120245777603  0.8332423315020996  0.6903882171937913
 -0.0002611059955721  0.1668417844011031  0.4336447756132886
 -0.0004343408895503  0.1668385983997824  0.5660066519177813
  0.1665926482648991  0.0001103928352033  0.4338066494347395
  0.1662628555762217  0.0001740453082523  0.5660671439817203
  0.3330404500177248  0.1669454649389836  0.4340601777571400
  0.3329336097597393  0.1667925441331031  0.5665451072602994
  0.4997018871786547  0.0001618179901670  0.4340197367742215
  0.4998399324579081 -0.0001811555294320  0.5667881743022127
  0.6664477303721175  0.1669151820138738  0.4337635187976407
  0.6664965538550788  0.1667637779864802  0.5660293575341206
  0.8329327036899349  0.0000901509101051  0.4337226141016576
  0.8327358300004228  0.0001676917928434  0.5660425104415351
 -0.0003446881104837  0.5001328558934859  0.4337161594650472
 -0.0006965347813140  0.4997217397687667  0.5660228636587663
  0.1665456309427082  0.3333997485591707  0.4338422851286248
  0.1662833160121288  0.3332599380377292  0.5661065930923852
  0.3329999278133060  0.5001223797819121  0.4344469872267647
  0.3328487194373090  0.4991227719851384  0.5669551717545099
  0.4997285090789035  0.3334571733694036  0.4341026407891911
  0.4998111049779276  0.3334428976346778  0.5668790053444168
  0.6663665999701053  0.5001751531224309  0.4341323283668908
  0.6660058672298808  0.4998961702799770  0.5667533604389458
  0.8328505671804403  0.3333949966112035  0.4336851611128372
  0.8327186327571956  0.3332188444495529  0.5659622285752980
 -0.0002896706926909  0.8332720059706915  0.4337121230518330
 -0.0006938628053696  0.8336250296180783  0.5660389978485367
  0.1665304537361765  0.6667734277537792  0.4342220013671545
  0.1647228945616648  0.6667398219416037  0.5662778018048781
  0.3330406124058265  0.8333150458559133  0.4344129353747451
  0.3328700979677269  0.8341348193819517  0.5668919496638349
  0.4996761931280304  0.6668266377674256  0.4346765084072675
  0.5001259135037501  0.6666509346901976  0.5676872736732576
  0.6664127504470444  0.8333338119782664  0.4341220073733864
  0.6660425774718788  0.8333542701168859  0.5667800842122810
  0.8327589296299239  0.6668008624501187  0.4340483745286595
  0.8325678714776257  0.6667237677871473  0.5665242834541303
  0.3762073347176752  0.6651454751945829  0.7257661415065982
 
  0.00000000E+00  0.00000000E+00  0.00000000E+00
  0.00000000E+00  0.00000000E+00  0.00000000E+00
  0.00000000E+00  0.00000000E+00  0.00000000E+00
  0.00000000E+00  0.00000000E+00  0.00000000E+00
  0.00000000E+00  0.00000000E+00  0.00000000E+00
  0.00000000E+00  0.00000000E+00  0.00000000E+00
  0.00000000E+00  0.00000000E+00  0.00000000E+00
  0.00000000E+00  0.00000000E+00  0.00000000E+00
  0.00000000E+00  0.00000000E+00  0.00000000E+00
  0.00000000E+00  0.00000000E+00  0.00000000E+00
  0.00000000E+00  0.00000000E+00  0.00000000E+00
  0.00000000E+00  0.00000000E+00  0.00000000E+00
  0.00000000E+00  0.00000000E+00  0.00000000E+00
  0.00000000E+00  0.00000000E+00  0.00000000E+00
  0.00000000E+00  0.00000000E+00  0.00000000E+00
  0.00000000E+00  0.00000000E+00  0.00000000E+00
  0.00000000E+00  0.00000000E+00  0.00000000E+00
  0.00000000E+00  0.00000000E+00  0.00000000E+00
  0.00000000E+00  0.00000000E+00  0.00000000E+00
  0.00000000E+00  0.00000000E+00  0.00000000E+00
  0.00000000E+00  0.00000000E+00  0.00000000E+00
  0.00000000E+00  0.00000000E+00  0.00000000E+00
  0.00000000E+00  0.00000000E+00  0.00000000E+00
  0.00000000E+00  0.00000000E+00  0.00000000E+00
  0.00000000E+00  0.00000000E+00  0.00000000E+00
  0.00000000E+00  0.00000000E+00  0.00000000E+00
  0.00000000E+00  0.00000000E+00  0.00000000E+00
  0.00000000E+00  0.00000000E+00  0.00000000E+00
  0.00000000E+00  0.00000000E+00  0.00000000E+00
  0.00000000E+00  0.00000000E+00  0.00000000E+00
  0.00000000E+00  0.00000000E+00  0.00000000E+00
  0.00000000E+00  0.00000000E+00  0.00000000E+00
  0.00000000E+00  0.00000000E+00  0.00000000E+00
  0.00000000E+00  0.00000000E+00  0.00000000E+00
  0.00000000E+00  0.00000000E+00  0.00000000E+00
  0.00000000E+00  0.00000000E+00  0.00000000E+00
  0.00000000E+00  0.00000000E+00  0.00000000E+00
  0.00000000E+00  0.00000000E+00  0.00000000E+00
  0.00000000E+00  0.00000000E+00  0.00000000E+00
  0.00000000E+00  0.00000000E+00  0.00000000E+00
  0.00000000E+00  0.00000000E+00  0.00000000E+00
  0.00000000E+00  0.00000000E+00  0.00000000E+00
  0.00000000E+00  0.00000000E+00  0.00000000E+00
  0.00000000E+00  0.00000000E+00  0.00000000E+00
  0.00000000E+00  0.00000000E+00  0.00000000E+00
  0.00000000E+00  0.00000000E+00  0.00000000E+00
  0.00000000E+00  0.00000000E+00  0.00000000E+00
  0.00000000E+00  0.00000000E+00  0.00000000E+00
  0.00000000E+00  0.00000000E+00  0.00000000E+00
  0.00000000E+00  0.00000000E+00  0.00000000E+00
  0.00000000E+00  0.00000000E+00  0.00000000E+00
  0.00000000E+00  0.00000000E+00  0.00000000E+00
  0.00000000E+00  0.00000000E+00  0.00000000E+00
  0.00000000E+00  0.00000000E+00  0.00000000E+00
  0.00000000E+00  0.00000000E+00  0.00000000E+00
  0.00000000E+00  0.00000000E+00  0.00000000E+00
  0.00000000E+00  0.00000000E+00  0.00000000E+00
  0.00000000E+00  0.00000000E+00  0.00000000E+00
  0.00000000E+00  0.00000000E+00  0.00000000E+00
  0.00000000E+00  0.00000000E+00  0.00000000E+00
  0.00000000E+00  0.00000000E+00  0.00000000E+00
  0.00000000E+00  0.00000000E+00  0.00000000E+00
  0.00000000E+00  0.00000000E+00  0.00000000E+00
  0.00000000E+00  0.00000000E+00  0.00000000E+00
  0.00000000E+00  0.00000000E+00  0.00000000E+00
  0.00000000E+00  0.00000000E+00  0.00000000E+00
  0.00000000E+00  0.00000000E+00  0.00000000E+00
  0.00000000E+00  0.00000000E+00  0.00000000E+00
  0.00000000E+00  0.00000000E+00  0.00000000E+00
  0.00000000E+00  0.00000000E+00  0.00000000E+00
  0.00000000E+00  0.00000000E+00  0.00000000E+00
  0.00000000E+00  0.00000000E+00  0.00000000E+00
  0.00000000E+00  0.00000000E+00  0.00000000E+00
  0.00000000E+00  0.00000000E+00  0.00000000E+00
  0.00000000E+00  0.00000000E+00  0.00000000E+00
  0.00000000E+00  0.00000000E+00  0.00000000E+00
  0.00000000E+00  0.00000000E+00  0.00000000E+00
  0.00000000E+00  0.00000000E+00  0.00000000E+00
  0.00000000E+00  0.00000000E+00  0.00000000E+00
  0.00000000E+00  0.00000000E+00  0.00000000E+00
  0.00000000E+00  0.00000000E+00  0.00000000E+00
  0.00000000E+00  0.00000000E+00  0.00000000E+00
  0.00000000E+00  0.00000000E+00  0.00000000E+00
  0.00000000E+00  0.00000000E+00  0.00000000E+00
  0.00000000E+00  0.00000000E+00  0.00000000E+00
  0.00000000E+00  0.00000000E+00  0.00000000E+00
  0.00000000E+00  0.00000000E+00  0.00000000E+00
  0.00000000E+00  0.00000000E+00  0.00000000E+00
  0.00000000E+00  0.00000000E+00  0.00000000E+00
  0.00000000E+00  0.00000000E+00  0.00000000E+00
  0.00000000E+00  0.00000000E+00  0.00000000E+00
  0.00000000E+00  0.00000000E+00  0.00000000E+00
  0.00000000E+00  0.00000000E+00  0.00000000E+00
  0.00000000E+00  0.00000000E+00  0.00000000E+00
  0.00000000E+00  0.00000000E+00  0.00000000E+00
  0.00000000E+00  0.00000000E+00  0.00000000E+00
  0.00000000E+00  0.00000000E+00  0.00000000E+00
  0.00000000E+00  0.00000000E+00  0.00000000E+00
  0.00000000E+00  0.00000000E+00  0.00000000E+00
  0.00000000E+00  0.00000000E+00  0.00000000E+00
