CONTCAR\(3)                             
   1.00000000000000     
    12.0853004455999997    0.0000000000000000    0.0000000000000000
     0.0000000000000000   13.7131004332999993    0.0000000000000000
     0.0000000000000000    0.0000000000000000   20.3784999846999995
   Zr   Te   O 
     6    30     1
Direct
  0.0024917347109152  0.5000162601167872  0.4473177811581337
  0.1682351015657702  0.9999874297951479  0.5479163875053104
  0.3396767739573434  0.5000599844862990  0.4453974741749605
  0.5010277386558286  0.9999995546483476  0.5496852908976777
  0.6626880576754175  0.5000269023397692  0.4424940271680740
  0.8347462697214354  0.9999927302016474  0.5484243844539378
  0.1712063759101099  0.5000950414444105  0.5561081802252232
  0.0010679018309077  0.9999567966222429  0.4381221256449948
  0.1692323916379479  0.6009686594316150  0.3644432818570493
  0.0017520458657998  0.8986471625623906  0.6304197648556453
  0.0018549758272712  0.1012026091390155  0.6304681902848586
  0.1691574215562213  0.3991433497202550  0.3644335340964631
  0.0025672996293267  0.3163444009584140  0.5260562915819307
  0.1692033084047893  0.1827345886009724  0.4688683987676470
  0.1692148481346365  0.8172475362474216  0.4688966628126963
  0.0025244014925789  0.6836601819001089  0.5260450503321223
  0.5026896344259271  0.4999557458076893  0.5587818330187417
  0.3362323515847763  0.0000024434489916  0.4389422839137538
  0.5006122198606349  0.6225161151492173  0.3721661875862097
  0.3340325940431086  0.8987023500480404  0.6313163347273729
  0.3340542356418652  0.1012861701432470  0.6312946552476504
  0.5003257640679593  0.3777484948085430  0.3720364681198518
  0.3346251111246374  0.3186535360592799  0.5278383536668443
  0.5033627827816716  0.1850105679431593  0.4730830140605633
  0.5032927271020284  0.8148445042867039  0.4731827197074949
  0.3345423578275870  0.6812836070286750  0.5279193390635939
  0.8353616651994287  0.5000063387940941  0.5564070410228723
  0.6674869623709725  0.0000530766074291  0.4392456463828012
  0.8374961883315635  0.6010883224215675  0.3638602029273557
  0.6682642323929855  0.8987515899789713  0.6314221059615903
  0.6682870314506602  0.1011889733827047  0.6314332092111385
  0.8374277389850349  0.3988654908986575  0.3639118876222938
  0.6706697531290970  0.3213836488412625  0.5287194002230535
  0.8344452388721990  0.1841670786958574  0.4700553894687332
  0.8343810100045914  0.8158734790794142  0.4700269823246401
  0.6708068816680495  0.6786205447585374  0.5287567680535474
  0.5912868745589108  0.5000746946031356  0.3402234918731821
 
  0.00000000E+00  0.00000000E+00  0.00000000E+00
  0.00000000E+00  0.00000000E+00  0.00000000E+00
  0.00000000E+00  0.00000000E+00  0.00000000E+00
  0.00000000E+00  0.00000000E+00  0.00000000E+00
  0.00000000E+00  0.00000000E+00  0.00000000E+00
  0.00000000E+00  0.00000000E+00  0.00000000E+00
  0.00000000E+00  0.00000000E+00  0.00000000E+00
  0.00000000E+00  0.00000000E+00  0.00000000E+00
  0.00000000E+00  0.00000000E+00  0.00000000E+00
  0.00000000E+00  0.00000000E+00  0.00000000E+00
  0.00000000E+00  0.00000000E+00  0.00000000E+00
  0.00000000E+00  0.00000000E+00  0.00000000E+00
  0.00000000E+00  0.00000000E+00  0.00000000E+00
  0.00000000E+00  0.00000000E+00  0.00000000E+00
  0.00000000E+00  0.00000000E+00  0.00000000E+00
  0.00000000E+00  0.00000000E+00  0.00000000E+00
  0.00000000E+00  0.00000000E+00  0.00000000E+00
  0.00000000E+00  0.00000000E+00  0.00000000E+00
  0.00000000E+00  0.00000000E+00  0.00000000E+00
  0.00000000E+00  0.00000000E+00  0.00000000E+00
  0.00000000E+00  0.00000000E+00  0.00000000E+00
  0.00000000E+00  0.00000000E+00  0.00000000E+00
  0.00000000E+00  0.00000000E+00  0.00000000E+00
  0.00000000E+00  0.00000000E+00  0.00000000E+00
  0.00000000E+00  0.00000000E+00  0.00000000E+00
  0.00000000E+00  0.00000000E+00  0.00000000E+00
  0.00000000E+00  0.00000000E+00  0.00000000E+00
  0.00000000E+00  0.00000000E+00  0.00000000E+00
  0.00000000E+00  0.00000000E+00  0.00000000E+00
  0.00000000E+00  0.00000000E+00  0.00000000E+00
  0.00000000E+00  0.00000000E+00  0.00000000E+00
  0.00000000E+00  0.00000000E+00  0.00000000E+00
  0.00000000E+00  0.00000000E+00  0.00000000E+00
  0.00000000E+00  0.00000000E+00  0.00000000E+00
  0.00000000E+00  0.00000000E+00  0.00000000E+00
  0.00000000E+00  0.00000000E+00  0.00000000E+00
  0.00000000E+00  0.00000000E+00  0.00000000E+00
