CONTCAR\(4)                             
   1.00000000000000     
    11.9160003662000005    0.0000000000000000    0.0000000000000000
    -5.9580032889999996   10.3494530515999994    0.0000000000000000
     0.0000000000000000    0.0000000000000000   17.8166999817000011
   Hf   Fe   Cl   O    H 
     4     4    24     2     1
Direct
  0.1607566219303678  0.3284349546949201  0.4937587124069012
  0.6674109158765162  0.3463278260631597  0.4984218909597686
  0.1821678270401819  0.8403708113678903  0.4966525212576940
  0.6707065123822105  0.8331228342961907  0.5505856848029964
  0.4881791298211056  0.4932467938275877  0.5015995198678311
  0.0007426770162908  0.5058992076775937  0.4985427014112673
  0.5065416503482965  0.0137831172739737  0.5033820526871722
  0.0159484675221719  0.0110861211881073  0.4994729616162203
  0.1479034442743199  0.4906300417623015  0.5748797056976613
  0.3300303138502301  0.3304780290754508  0.5725445596587946
  0.0103125788579845  0.1607122962960403  0.5798402087992116
  0.1483499289159482  0.1612294295847576  0.4101248424052883
  0.9939620250088410  0.3449789836986881  0.4211401562690256
  0.3391276175387503  0.4950844450156779  0.4176224734793053
  0.6407137671958978  0.4928279229213999  0.5844903116312565
  0.8421915353173048  0.3594551205927274  0.5783337500042549
  0.5001133456917231  0.1722345938729148  0.5746801447191103
  0.6597624746066373  0.1693021556418159  0.4235598602469395
  0.5083086794471754  0.3563078170246285  0.4164056706825079
  0.8449671621752941  0.5125881467893620  0.4229447684212957
  0.1821163075580969  0.0150242184363947  0.5693060337434943
  0.3513272673744368  0.8594652012459747  0.5830232235158164
  0.0162306682700617  0.6681772964412431  0.5765072832538678
  0.1620161815158525  0.6593920113965694  0.4209819704186302
  0.0163260830013172  0.8547299108258386  0.4207201248227221
  0.3538361471596119  0.9951102327314487  0.4146322398630957
  0.6650187667455469  0.0355914904971044  0.5825036096413072
  0.8865383828346580  0.8588885899987915  0.5804933938951677
  0.4556417848089538  0.6309975685235258  0.5747923382462190
  0.6530838722599839  0.6691019526792843  0.4471120685294423
  0.5279513838444245  0.8575171228499698  0.4456110615737217
  0.8343430591901608  0.9844736392444915  0.4443343694998276
  0.6570710188038831  0.8490040900848612  0.6619732551297730
  0.6771937505008623  0.7365962600321083  0.6682707913576493
  0.5875481663149174  0.6658296633472105  0.6768758474847587
 
  0.00000000E+00  0.00000000E+00  0.00000000E+00
  0.00000000E+00  0.00000000E+00  0.00000000E+00
  0.00000000E+00  0.00000000E+00  0.00000000E+00
  0.00000000E+00  0.00000000E+00  0.00000000E+00
  0.00000000E+00  0.00000000E+00  0.00000000E+00
  0.00000000E+00  0.00000000E+00  0.00000000E+00
  0.00000000E+00  0.00000000E+00  0.00000000E+00
  0.00000000E+00  0.00000000E+00  0.00000000E+00
  0.00000000E+00  0.00000000E+00  0.00000000E+00
  0.00000000E+00  0.00000000E+00  0.00000000E+00
  0.00000000E+00  0.00000000E+00  0.00000000E+00
  0.00000000E+00  0.00000000E+00  0.00000000E+00
  0.00000000E+00  0.00000000E+00  0.00000000E+00
  0.00000000E+00  0.00000000E+00  0.00000000E+00
  0.00000000E+00  0.00000000E+00  0.00000000E+00
  0.00000000E+00  0.00000000E+00  0.00000000E+00
  0.00000000E+00  0.00000000E+00  0.00000000E+00
  0.00000000E+00  0.00000000E+00  0.00000000E+00
  0.00000000E+00  0.00000000E+00  0.00000000E+00
  0.00000000E+00  0.00000000E+00  0.00000000E+00
  0.00000000E+00  0.00000000E+00  0.00000000E+00
  0.00000000E+00  0.00000000E+00  0.00000000E+00
  0.00000000E+00  0.00000000E+00  0.00000000E+00
  0.00000000E+00  0.00000000E+00  0.00000000E+00
  0.00000000E+00  0.00000000E+00  0.00000000E+00
  0.00000000E+00  0.00000000E+00  0.00000000E+00
  0.00000000E+00  0.00000000E+00  0.00000000E+00
  0.00000000E+00  0.00000000E+00  0.00000000E+00
  0.00000000E+00  0.00000000E+00  0.00000000E+00
  0.00000000E+00  0.00000000E+00  0.00000000E+00
  0.00000000E+00  0.00000000E+00  0.00000000E+00
  0.00000000E+00  0.00000000E+00  0.00000000E+00
  0.00000000E+00  0.00000000E+00  0.00000000E+00
  0.00000000E+00  0.00000000E+00  0.00000000E+00
  0.00000000E+00  0.00000000E+00  0.00000000E+00
