CONTCAR\(2)                             
   1.00000000000000     
    11.6593999863000004    0.0000000000000000    0.0000000000000000
    -5.8296999931000002   10.0973365810000004    0.0000000000000000
     0.0000000000000000    0.0000000000000000   24.5373001098999985
   Zn   In   S    O    H 
     9    18    36     1     1
Direct
  0.1120204663153304  0.2237985081476571  0.3284804889513352
  0.4435128447497789  0.2222834122170689  0.3257366988100360
  0.7764120598215386  0.2238781061889301  0.3282879258068169
  0.1103667745940358  0.5557476394218250  0.3248432526894268
  0.4434152484773383  0.5567345241278008  0.3264556918027606
  0.7779705979011028  0.5567346934623769  0.3257303780642376
  0.1102470453442200  0.8899449698352346  0.3247232339010774
  0.4446605629656882  0.8900419398279164  0.3249301658902830
  0.7762994978212056  0.8881169125064891  0.3286174743503374
  0.9977633131987411  0.0021526897375139  0.4797964574906855
  0.2248451125160939  0.1128479837640302  0.6446369267292856
  0.3320657211033823  0.0018865057294789  0.4809165081872093
  0.5568785278752283  0.1125866284913355  0.6441976658083364
  0.6662758021389060  0.0015464750329490  0.4803763616783491
  0.8899961008096748  0.1106603208918790  0.6441587090149559
  0.9974394240591590  0.3329680610085667  0.4797500572737880
  0.2254566676200212  0.4444688449235137  0.6450770899800535
  0.3466051721427335  0.3417217611842810  0.4880155157398354
  0.5555356514859541  0.4446986503002399  0.7165100833186061
  0.6576809546750495  0.3405774228292839  0.4872863052940294
  0.8879158366296126  0.4439578217908084  0.6441116527265118
  0.9967663365489843  0.6666849802248189  0.4810352857494369
  0.2230339313745829  0.7778028664690815  0.6441829515796101
  0.3320509612533120  0.6670150191861822  0.4822959030839221
  0.5562635934329524  0.7749397762526300  0.6450939802724326
  0.6580570073834041  0.6530578626211949  0.4878646761116021
  0.8875011267223684  0.7753209185036974  0.6445345294532017
  0.2212594097685967  0.1122262190389816  0.3059146224670641
  0.2204266643984343  0.1105829083330268  0.5467060059138121
  0.1185722868397274  0.2277842650207687  0.4336014114148135
  0.1116677722757954  0.2218969115122303  0.6914077263732015
  0.5555676307855003  0.1121827667705595  0.3058429881161422
  0.5537737288337317  0.1100485225473887  0.5463621258152902
  0.4424078117500067  0.2222263342654584  0.4311481804338483
  0.4350499546117993  0.2002259527343936  0.6979336035372847
  0.8883092005501887  0.1118365476759963  0.3112517032977569
  0.8878383490221022  0.1122062588821628  0.5459233724019724
  0.7719505480133155  0.2267568028019684  0.4333048645108063
  0.7789028949276630  0.2220392416828544  0.6909446876637940
  0.2215587718065530  0.4445678938012391  0.3059538309184196
  0.2203972145832015  0.4453684985765489  0.5471368347846514
  0.1102818622034687  0.5566771365593812  0.4312015143524019
  0.1114020538212809  0.5550517933884873  0.6901123935275847
  0.5548995092590447  0.4453079981450057  0.3072632966434999
  0.5549613853657611  0.4448577214931338  0.5518625215648594
  0.4425158434892662  0.5571066236999608  0.4316626395620228
  0.4337702732675858  0.5666143612969847  0.6994829895702075
  0.8880756065845757  0.4446817615065579  0.3058173636665366
  0.8889489710188566  0.4453405181163270  0.5462540734909934
  0.7766298719131037  0.5563819155021708  0.4311373435188076
  0.8000867767536157  0.5653136291796627  0.6979420295562155
  0.2218240013951084  0.7786142815925596  0.3065511827952073
  0.2208077558635546  0.7786672682431466  0.5455628595113110
  0.1093408432976274  0.8895568880115831  0.4309978066466438
  0.1114869959796792  0.8889606666655320  0.6901793886017832
  0.5555998394129196  0.7786632176182727  0.3060246367969077
  0.5543500599843082  0.7788811311232153  0.5472083642763090
  0.4429458248004068  0.8890702940457471  0.4313203853827219
  0.4456521188394083  0.8890436594248181  0.6901583358024302
  0.8878532977942674  0.7789278011538152  0.3059164419587936
  0.8894553143995327  0.7795187024829231  0.5465961851640810
  0.7720212915221091  0.8813831255024417  0.4336791131421118
  0.7788504817368697  0.8888209763923159  0.6913528161754743
  0.5487032752506830  0.4528634610980518  0.7985663395620239
  0.5917087889200011  0.4101614914375614  0.8168418963241304
 
  0.00000000E+00  0.00000000E+00  0.00000000E+00
  0.00000000E+00  0.00000000E+00  0.00000000E+00
  0.00000000E+00  0.00000000E+00  0.00000000E+00
  0.00000000E+00  0.00000000E+00  0.00000000E+00
  0.00000000E+00  0.00000000E+00  0.00000000E+00
  0.00000000E+00  0.00000000E+00  0.00000000E+00
  0.00000000E+00  0.00000000E+00  0.00000000E+00
  0.00000000E+00  0.00000000E+00  0.00000000E+00
  0.00000000E+00  0.00000000E+00  0.00000000E+00
  0.00000000E+00  0.00000000E+00  0.00000000E+00
  0.00000000E+00  0.00000000E+00  0.00000000E+00
  0.00000000E+00  0.00000000E+00  0.00000000E+00
  0.00000000E+00  0.00000000E+00  0.00000000E+00
  0.00000000E+00  0.00000000E+00  0.00000000E+00
  0.00000000E+00  0.00000000E+00  0.00000000E+00
  0.00000000E+00  0.00000000E+00  0.00000000E+00
  0.00000000E+00  0.00000000E+00  0.00000000E+00
  0.00000000E+00  0.00000000E+00  0.00000000E+00
  0.00000000E+00  0.00000000E+00  0.00000000E+00
  0.00000000E+00  0.00000000E+00  0.00000000E+00
  0.00000000E+00  0.00000000E+00  0.00000000E+00
  0.00000000E+00  0.00000000E+00  0.00000000E+00
  0.00000000E+00  0.00000000E+00  0.00000000E+00
  0.00000000E+00  0.00000000E+00  0.00000000E+00
  0.00000000E+00  0.00000000E+00  0.00000000E+00
  0.00000000E+00  0.00000000E+00  0.00000000E+00
  0.00000000E+00  0.00000000E+00  0.00000000E+00
  0.00000000E+00  0.00000000E+00  0.00000000E+00
  0.00000000E+00  0.00000000E+00  0.00000000E+00
  0.00000000E+00  0.00000000E+00  0.00000000E+00
  0.00000000E+00  0.00000000E+00  0.00000000E+00
  0.00000000E+00  0.00000000E+00  0.00000000E+00
  0.00000000E+00  0.00000000E+00  0.00000000E+00
  0.00000000E+00  0.00000000E+00  0.00000000E+00
  0.00000000E+00  0.00000000E+00  0.00000000E+00
  0.00000000E+00  0.00000000E+00  0.00000000E+00
  0.00000000E+00  0.00000000E+00  0.00000000E+00
  0.00000000E+00  0.00000000E+00  0.00000000E+00
  0.00000000E+00  0.00000000E+00  0.00000000E+00
  0.00000000E+00  0.00000000E+00  0.00000000E+00
  0.00000000E+00  0.00000000E+00  0.00000000E+00
  0.00000000E+00  0.00000000E+00  0.00000000E+00
  0.00000000E+00  0.00000000E+00  0.00000000E+00
  0.00000000E+00  0.00000000E+00  0.00000000E+00
  0.00000000E+00  0.00000000E+00  0.00000000E+00
  0.00000000E+00  0.00000000E+00  0.00000000E+00
  0.00000000E+00  0.00000000E+00  0.00000000E+00
  0.00000000E+00  0.00000000E+00  0.00000000E+00
  0.00000000E+00  0.00000000E+00  0.00000000E+00
  0.00000000E+00  0.00000000E+00  0.00000000E+00
  0.00000000E+00  0.00000000E+00  0.00000000E+00
  0.00000000E+00  0.00000000E+00  0.00000000E+00
  0.00000000E+00  0.00000000E+00  0.00000000E+00
  0.00000000E+00  0.00000000E+00  0.00000000E+00
  0.00000000E+00  0.00000000E+00  0.00000000E+00
  0.00000000E+00  0.00000000E+00  0.00000000E+00
  0.00000000E+00  0.00000000E+00  0.00000000E+00
  0.00000000E+00  0.00000000E+00  0.00000000E+00
  0.00000000E+00  0.00000000E+00  0.00000000E+00
  0.00000000E+00  0.00000000E+00  0.00000000E+00
  0.00000000E+00  0.00000000E+00  0.00000000E+00
  0.00000000E+00  0.00000000E+00  0.00000000E+00
  0.00000000E+00  0.00000000E+00  0.00000000E+00
  0.00000000E+00  0.00000000E+00  0.00000000E+00
  0.00000000E+00  0.00000000E+00  0.00000000E+00
