CONTCAR                                 
   1.00000000000000     
    11.0504999160999997    0.0000000000000000    0.0000000000000000
     0.0000000000000000   15.0270004272000008    0.0000000000000000
     0.0000000000000000    0.0000000000000000   19.5720996856999996
   Ta   Ni   Te   O    H 
     6     6    30     2     1
Selective dynamics
Direct
  0.9993363938414603  0.7494609637498897  0.4988127306167840   F   F   F
  0.9995837132241761  0.2486745735758333  0.5068419873864443   F   F   F
  0.3323915099017327  0.7512128582563378  0.4981828613615065   F   F   F
  0.3330141099295432  0.2470377904000642  0.5059579815449666   F   F   F
  0.6664762750098987  0.7502497356365012  0.4969338138527419   F   F   F
  0.6664967464718998  0.2468716303468170  0.5060933457092744   F   F   F
  0.1669282993417909  0.4993563561599075  0.5052883065991978   F   F   F
  0.1650603035314901  0.9989465739149423  0.5015798524753237   F   F   F
  0.5023746011901551  0.4935883312045917  0.5039871195322192   F   F   F
  0.5001972795091234  0.9985028438874934  0.5007331812159421   F   F   F
  0.8325632350135805  0.4990302797358552  0.5046969616634343   F   F   F
  0.8338993023814041  0.9987307229578022  0.5014905064896027   F   F   F
  0.9996277640058011  0.4223062282657395  0.5754646045521241   F   F   F
  0.1663804661793336  0.3546634877010604  0.4315687614678012   F   F   F
  0.0001925041644526  0.5753782449741749  0.4339799000195939   F   F   F
  0.9996851140774297  0.9215170660578309  0.4300458550361554   F   F   F
  0.9994767126599058  0.0748539265949759  0.5737480605563547   F   F   F
  0.1650303033723475  0.7485042299574971  0.3875268988726148   F   F   F
  0.1659466840104713  0.8553409330465414  0.5755747860051770   F   F   F
  0.1666782804624987  0.2472262368166582  0.6181153478996180   F   F   F
  0.1655037002291735  0.1441000141803741  0.4289014881748940   F   F   F
  0.1664367188736904  0.6456422257868510  0.5768058726653109   F   F   F
  0.3331787153228518  0.4185825143526003  0.5744581924012309   F   F   F
  0.5000500400153314  0.3521909941303392  0.4298836219850131   F   F   F
  0.3360692077269576  0.5748436383634470  0.4351900763339458   F   F   F
  0.3323459298028268  0.9235946898695033  0.4303906101897113   F   F   F
  0.3334615632696654  0.0737351816414957  0.5729096101273541   F   F   F
  0.4987027638058663  0.7504070595979258  0.3860766174816206   F   F   F
  0.5003375242177128  0.8564952004496007  0.5738404043126835   F   F   F
  0.4998260099764522  0.2454978356404922  0.6176597477655932   F   F   F
  0.4999081488591131  0.1436180153914037  0.4279102809240385   F   F   F
  0.5008627348651657  0.6422559338575198  0.5693811662890838   F   F   F
  0.6682246333538515  0.4181524308256286  0.5749925229481221   F   F   F
  0.8328253762872819  0.3543516819313624  0.4312626608053449   F   F   F
  0.6664717298766902  0.5745675645632886  0.4324676564822738   F   F   F
  0.6672114143030186  0.9232201769431185  0.4297036848480857   F   F   F
  0.6662816245231653  0.0737133212299668  0.5731359808420393   F   F   F
  0.8343147348327662  0.7478273754412896  0.3867899505781196   F   F   F
  0.8322906363749922  0.8549432434691155  0.5749473727652514   F   F   F
  0.8330745163765627  0.2467555764277378  0.6181393810546609   F   F   F
  0.8336541579912051  0.1437261809486117  0.4289156475006664   F   F   F
  0.8315985836174278  0.6448121023433302  0.5763843954422541   F   F   F
  0.5361485698543333  0.6874907182285668  0.6723599484480047   T   T   T
  0.4566522896055361  0.6418643416386871  0.7200878812243303   T   T   T
  0.5122386827598717  0.5974987805072159  0.7384958004759691   T   T   T
 
  0.00000000E+00  0.00000000E+00  0.00000000E+00
  0.00000000E+00  0.00000000E+00  0.00000000E+00
  0.00000000E+00  0.00000000E+00  0.00000000E+00
  0.00000000E+00  0.00000000E+00  0.00000000E+00
  0.00000000E+00  0.00000000E+00  0.00000000E+00
  0.00000000E+00  0.00000000E+00  0.00000000E+00
  0.00000000E+00  0.00000000E+00  0.00000000E+00
  0.00000000E+00  0.00000000E+00  0.00000000E+00
  0.00000000E+00  0.00000000E+00  0.00000000E+00
  0.00000000E+00  0.00000000E+00  0.00000000E+00
  0.00000000E+00  0.00000000E+00  0.00000000E+00
  0.00000000E+00  0.00000000E+00  0.00000000E+00
  0.00000000E+00  0.00000000E+00  0.00000000E+00
  0.00000000E+00  0.00000000E+00  0.00000000E+00
  0.00000000E+00  0.00000000E+00  0.00000000E+00
  0.00000000E+00  0.00000000E+00  0.00000000E+00
  0.00000000E+00  0.00000000E+00  0.00000000E+00
  0.00000000E+00  0.00000000E+00  0.00000000E+00
  0.00000000E+00  0.00000000E+00  0.00000000E+00
  0.00000000E+00  0.00000000E+00  0.00000000E+00
  0.00000000E+00  0.00000000E+00  0.00000000E+00
  0.00000000E+00  0.00000000E+00  0.00000000E+00
  0.00000000E+00  0.00000000E+00  0.00000000E+00
  0.00000000E+00  0.00000000E+00  0.00000000E+00
  0.00000000E+00  0.00000000E+00  0.00000000E+00
  0.00000000E+00  0.00000000E+00  0.00000000E+00
  0.00000000E+00  0.00000000E+00  0.00000000E+00
  0.00000000E+00  0.00000000E+00  0.00000000E+00
  0.00000000E+00  0.00000000E+00  0.00000000E+00
  0.00000000E+00  0.00000000E+00  0.00000000E+00
  0.00000000E+00  0.00000000E+00  0.00000000E+00
  0.00000000E+00  0.00000000E+00  0.00000000E+00
  0.00000000E+00  0.00000000E+00  0.00000000E+00
  0.00000000E+00  0.00000000E+00  0.00000000E+00
  0.00000000E+00  0.00000000E+00  0.00000000E+00
  0.00000000E+00  0.00000000E+00  0.00000000E+00
  0.00000000E+00  0.00000000E+00  0.00000000E+00
  0.00000000E+00  0.00000000E+00  0.00000000E+00
  0.00000000E+00  0.00000000E+00  0.00000000E+00
  0.00000000E+00  0.00000000E+00  0.00000000E+00
  0.00000000E+00  0.00000000E+00  0.00000000E+00
  0.00000000E+00  0.00000000E+00  0.00000000E+00
  0.00000000E+00  0.00000000E+00  0.00000000E+00
  0.00000000E+00  0.00000000E+00  0.00000000E+00
  0.00000000E+00  0.00000000E+00  0.00000000E+00
