CONTCAR\(15)                            
   1.00000000000000     
    14.8690004349000002    0.0000000000000000    0.0000000000000000
     7.4345002174000001   12.8769321054999999    0.0000000000000000
     0.0000000000000000    0.0000000000000000   21.2709007262999990
   Y    Cl
    32    32
Direct
  0.0833300050000005  0.0833300010000002  0.4344399760000002
  0.0000000000000000  0.0000000000000000  0.5655599789999997
  0.3333300050000005  0.0833300010000002  0.4344399760000002
  0.2500000000000000  0.0000000000000000  0.5655599789999997
  0.5833299889999992  0.0833300010000002  0.4344399760000002
  0.5000000000000000  0.0000000000000000  0.5655599789999997
  0.8333299729999979  0.0833300010000002  0.4344399760000002
  0.7500000160000013  0.0000000000000000  0.5655599789999997
  0.0833300119999976  0.3333300019999967  0.4344399760000002
  0.0000000000000000  0.2500000009999965  0.5655599789999997
  0.3333300279999989  0.3333300019999967  0.4344399760000002
  0.2500000080000007  0.2500000009999965  0.5655599789999997
  0.5833299479999994  0.3333300019999967  0.4344399760000002
  0.4999999919999993  0.2500000009999965  0.5655599789999997
  0.8333299319999981  0.3333300019999967  0.4344399760000002
  0.7500000400000033  0.2500000009999965  0.5655599789999997
  0.0833299900000029  0.5833299649999972  0.4344399760000002
  0.9999999990000035  0.5000000020000002  0.5655599789999997
  0.3333300070000007  0.5833299649999972  0.4344399760000002
  0.2499999990000035  0.5000000020000002  0.5655599789999997
  0.5833299259999976  0.5833299649999972  0.4344399760000002
  0.5000000149999977  0.5000000020000002  0.5655599789999997
  0.8333299740000015  0.5833299649999972  0.4344399760000002
  0.7499999990000035  0.5000000020000002  0.5655599789999997
  0.0833299640000007  0.8333300030000004  0.4344399760000002
  0.9999999879999990  0.7500000389999997  0.5655599789999997
  0.3333300119999976  0.8333300030000004  0.4344399760000002
  0.2499999719999977  0.7500000389999997  0.5655599789999997
  0.5833299319999981  0.8333300030000004  0.4344399760000002
  0.5000000200000017  0.7500000389999997  0.5655599789999997
  0.8333298510000020  0.8333300030000004  0.4344399760000002
  0.7500000690000022  0.7500000389999997  0.5655599789999997
  0.1666699869999988  0.1666700000000034  0.6472799960000017
  0.1666699869999988  0.1666700000000034  0.3527199819999964
  0.4166700030000001  0.1666700000000034  0.6472799960000017
  0.4166700030000001  0.1666700000000034  0.3527199819999964
  0.6666700190000014  0.1666700000000034  0.6472799960000017
  0.6666700190000014  0.1666700000000034  0.3527199819999964
  0.9166700030000001  0.1666700000000034  0.6472799960000017
  0.9166700030000001  0.1666700000000034  0.3527199819999964
  0.1666700099999971  0.4166700010000000  0.6472799960000017
  0.1666700099999971  0.4166700010000000  0.3527199819999964
  0.4166699940000029  0.4166700010000000  0.6472799960000017
  0.4166699940000029  0.4166700010000000  0.3527199819999964
  0.6666700430000034  0.4166700010000000  0.6472799960000017
  0.6666700430000034  0.4166700010000000  0.3527199819999964
  0.9166699620000003  0.4166700010000000  0.6472799960000017
  0.9166699620000003  0.4166700010000000  0.3527199819999964
  0.1666700019999965  0.6666700010000000  0.6472799960000017
  0.1666700019999965  0.6666700010000000  0.3527199819999964
  0.4166700179999978  0.6666700010000000  0.6472799960000017
  0.4166700179999978  0.6666700010000000  0.3527199819999964
  0.6666700660000018  0.6666700010000000  0.6472799960000017
  0.6666700660000018  0.6666700010000000  0.3527199819999964
  0.9166699860000023  0.6666700010000000  0.6472799960000017
  0.9166699860000023  0.6666700010000000  0.3527199819999964
  0.1666699749999978  0.9166700390000031  0.6472799960000017
  0.1666699749999978  0.9166700390000031  0.3527199819999964
  0.4166700230000018  0.9166700390000031  0.6472799960000017
  0.4166700230000018  0.9166700390000031  0.3527199819999964
  0.6666699430000023  0.9166700390000031  0.6472799960000017
  0.6666699430000023  0.9166700390000031  0.3527199819999964
  0.9166699909999991  0.9166700390000031  0.6472799960000017
  0.9166699909999991  0.9166700390000031  0.3527199819999964
 
  0.00000000E+00  0.00000000E+00  0.00000000E+00
  0.00000000E+00  0.00000000E+00  0.00000000E+00
  0.00000000E+00  0.00000000E+00  0.00000000E+00
  0.00000000E+00  0.00000000E+00  0.00000000E+00
  0.00000000E+00  0.00000000E+00  0.00000000E+00
  0.00000000E+00  0.00000000E+00  0.00000000E+00
  0.00000000E+00  0.00000000E+00  0.00000000E+00
  0.00000000E+00  0.00000000E+00  0.00000000E+00
  0.00000000E+00  0.00000000E+00  0.00000000E+00
  0.00000000E+00  0.00000000E+00  0.00000000E+00
  0.00000000E+00  0.00000000E+00  0.00000000E+00
  0.00000000E+00  0.00000000E+00  0.00000000E+00
  0.00000000E+00  0.00000000E+00  0.00000000E+00
  0.00000000E+00  0.00000000E+00  0.00000000E+00
  0.00000000E+00  0.00000000E+00  0.00000000E+00
  0.00000000E+00  0.00000000E+00  0.00000000E+00
  0.00000000E+00  0.00000000E+00  0.00000000E+00
  0.00000000E+00  0.00000000E+00  0.00000000E+00
  0.00000000E+00  0.00000000E+00  0.00000000E+00
  0.00000000E+00  0.00000000E+00  0.00000000E+00
  0.00000000E+00  0.00000000E+00  0.00000000E+00
  0.00000000E+00  0.00000000E+00  0.00000000E+00
  0.00000000E+00  0.00000000E+00  0.00000000E+00
  0.00000000E+00  0.00000000E+00  0.00000000E+00
  0.00000000E+00  0.00000000E+00  0.00000000E+00
  0.00000000E+00  0.00000000E+00  0.00000000E+00
  0.00000000E+00  0.00000000E+00  0.00000000E+00
  0.00000000E+00  0.00000000E+00  0.00000000E+00
  0.00000000E+00  0.00000000E+00  0.00000000E+00
  0.00000000E+00  0.00000000E+00  0.00000000E+00
  0.00000000E+00  0.00000000E+00  0.00000000E+00
  0.00000000E+00  0.00000000E+00  0.00000000E+00
  0.00000000E+00  0.00000000E+00  0.00000000E+00
  0.00000000E+00  0.00000000E+00  0.00000000E+00
  0.00000000E+00  0.00000000E+00  0.00000000E+00
  0.00000000E+00  0.00000000E+00  0.00000000E+00
  0.00000000E+00  0.00000000E+00  0.00000000E+00
  0.00000000E+00  0.00000000E+00  0.00000000E+00
  0.00000000E+00  0.00000000E+00  0.00000000E+00
  0.00000000E+00  0.00000000E+00  0.00000000E+00
  0.00000000E+00  0.00000000E+00  0.00000000E+00
  0.00000000E+00  0.00000000E+00  0.00000000E+00
  0.00000000E+00  0.00000000E+00  0.00000000E+00
  0.00000000E+00  0.00000000E+00  0.00000000E+00
  0.00000000E+00  0.00000000E+00  0.00000000E+00
  0.00000000E+00  0.00000000E+00  0.00000000E+00
  0.00000000E+00  0.00000000E+00  0.00000000E+00
  0.00000000E+00  0.00000000E+00  0.00000000E+00
  0.00000000E+00  0.00000000E+00  0.00000000E+00
  0.00000000E+00  0.00000000E+00  0.00000000E+00
  0.00000000E+00  0.00000000E+00  0.00000000E+00
  0.00000000E+00  0.00000000E+00  0.00000000E+00
  0.00000000E+00  0.00000000E+00  0.00000000E+00
  0.00000000E+00  0.00000000E+00  0.00000000E+00
  0.00000000E+00  0.00000000E+00  0.00000000E+00
  0.00000000E+00  0.00000000E+00  0.00000000E+00
  0.00000000E+00  0.00000000E+00  0.00000000E+00
  0.00000000E+00  0.00000000E+00  0.00000000E+00
  0.00000000E+00  0.00000000E+00  0.00000000E+00
  0.00000000E+00  0.00000000E+00  0.00000000E+00
  0.00000000E+00  0.00000000E+00  0.00000000E+00
  0.00000000E+00  0.00000000E+00  0.00000000E+00
  0.00000000E+00  0.00000000E+00  0.00000000E+00
  0.00000000E+00  0.00000000E+00  0.00000000E+00
