CONTCAR\(4)                             
   1.00000000000000     
    11.0221996306999994    0.0000000000000000    0.0000000000000000
     0.0000000000000000   11.0221996306999994    0.0000000000000000
     0.0000000000000000    0.0000000000000000   21.0879001616999986
   Hf   Te   O 
    27    18     1
Direct
  0.1632159497157418  0.1633951545915018  0.5871119262448821
  0.1630790359398827  0.1630574709687479  0.4240364521051675
 -0.0086476976383721  0.0004670036253559  0.5055904498124323
  0.5035162611860151  0.1634004712981592  0.5871150925561127
  0.5036703324799631  0.1630461188486624  0.4240342003545227
  0.3333810404110184  0.0002150348379630  0.5056082592303237
  0.8333564168128693  0.1702823014425807  0.5858993159315125
  0.8333713521443833  0.1702818409298615  0.4253461681939582
  0.6753804086724845  0.0004585918398015  0.5055909209741141
  0.1734169349571804  0.5001073244162081  0.5805096642928465
  0.1735054999599731  0.4999568568296585  0.4305632901263764
  0.0004910921878624  0.3350766643192617  0.5056353835786783
  0.4933330362092077  0.5001033625695316  0.5805057166597838
  0.4932323568845113  0.4999531143666442  0.4305561970100595
  0.3333808076283905  0.3002916070834560  0.5055016743071530
  0.8333782666667185  0.4998036477560138  0.5854020102788116
  0.8333724849562705  0.4996160397338742  0.4258453653067301
  0.6662426270240871  0.3350744736582635  0.5056340700378660
  0.1630839614938877  0.8368173972951591  0.5868481150734715
  0.1627911998194071  0.8368950682160065  0.4241897128870751
  0.0001868887513650  0.6644392404162124  0.5055788158987625
  0.5036470324315783  0.8367964207406210  0.5868470948571640
  0.5039416960219735  0.8368944108439559  0.4241937446069396
  0.3333607056198513  0.6998125389136823  0.5055150614816657
  0.8333566624853991  0.8300270976346055  0.5855388752936544
  0.8333635879192743  0.8297649778899017  0.4255639465591262
  0.6665488196221198  0.6644400188929103  0.5055829643387192
 -0.0045009001815554  0.0000367258947208  0.6509170332793907
 -0.0048869929879807 -0.0001511572767289  0.3602299053387066
  0.3333575261543787 -0.0000214182302348  0.6508078436696738
  0.3333673913813755 -0.0001677515765754  0.3604027447448597
  0.6712020155931757  0.0000287897189623  0.6509154086953968
  0.6716647444968306 -0.0001265010951256  0.3602256146209818
  0.0037981045315042  0.3375009842652045  0.6491892333994244
  0.0038505066888862  0.3372961005904672  0.3621610297531244
  0.3333650793876582  0.3304640577398040  0.6502142128242305
  0.3334056626031283  0.3296035600394838  0.3608813062725099
  0.6629741412208451  0.3374972752630960  0.6492014665456206
  0.6629132955449183  0.3372938836172999  0.3621563330223525
  0.0035818260865774  0.6628276083860893  0.6489131005854527
  0.0035430107683433  0.6624109810235966  0.3622350440387662
  0.3333579648318746  0.6702321518418471  0.6499583587697498
  0.3333608925159238  0.6706021393158936  0.3610621759527817
  0.6631751766534758  0.6628086031286922  0.6489140377934645
  0.6631655642275490  0.6624036918538430  0.3622382948960829
  0.3333583581200497  0.5000361545410641  0.5052617687995085
 
  0.00000000E+00  0.00000000E+00  0.00000000E+00
  0.00000000E+00  0.00000000E+00  0.00000000E+00
  0.00000000E+00  0.00000000E+00  0.00000000E+00
  0.00000000E+00  0.00000000E+00  0.00000000E+00
  0.00000000E+00  0.00000000E+00  0.00000000E+00
  0.00000000E+00  0.00000000E+00  0.00000000E+00
  0.00000000E+00  0.00000000E+00  0.00000000E+00
  0.00000000E+00  0.00000000E+00  0.00000000E+00
  0.00000000E+00  0.00000000E+00  0.00000000E+00
  0.00000000E+00  0.00000000E+00  0.00000000E+00
  0.00000000E+00  0.00000000E+00  0.00000000E+00
  0.00000000E+00  0.00000000E+00  0.00000000E+00
  0.00000000E+00  0.00000000E+00  0.00000000E+00
  0.00000000E+00  0.00000000E+00  0.00000000E+00
  0.00000000E+00  0.00000000E+00  0.00000000E+00
  0.00000000E+00  0.00000000E+00  0.00000000E+00
  0.00000000E+00  0.00000000E+00  0.00000000E+00
  0.00000000E+00  0.00000000E+00  0.00000000E+00
  0.00000000E+00  0.00000000E+00  0.00000000E+00
  0.00000000E+00  0.00000000E+00  0.00000000E+00
  0.00000000E+00  0.00000000E+00  0.00000000E+00
  0.00000000E+00  0.00000000E+00  0.00000000E+00
  0.00000000E+00  0.00000000E+00  0.00000000E+00
  0.00000000E+00  0.00000000E+00  0.00000000E+00
  0.00000000E+00  0.00000000E+00  0.00000000E+00
  0.00000000E+00  0.00000000E+00  0.00000000E+00
  0.00000000E+00  0.00000000E+00  0.00000000E+00
  0.00000000E+00  0.00000000E+00  0.00000000E+00
  0.00000000E+00  0.00000000E+00  0.00000000E+00
  0.00000000E+00  0.00000000E+00  0.00000000E+00
  0.00000000E+00  0.00000000E+00  0.00000000E+00
  0.00000000E+00  0.00000000E+00  0.00000000E+00
  0.00000000E+00  0.00000000E+00  0.00000000E+00
  0.00000000E+00  0.00000000E+00  0.00000000E+00
  0.00000000E+00  0.00000000E+00  0.00000000E+00
  0.00000000E+00  0.00000000E+00  0.00000000E+00
  0.00000000E+00  0.00000000E+00  0.00000000E+00
  0.00000000E+00  0.00000000E+00  0.00000000E+00
  0.00000000E+00  0.00000000E+00  0.00000000E+00
  0.00000000E+00  0.00000000E+00  0.00000000E+00
  0.00000000E+00  0.00000000E+00  0.00000000E+00
  0.00000000E+00  0.00000000E+00  0.00000000E+00
  0.00000000E+00  0.00000000E+00  0.00000000E+00
  0.00000000E+00  0.00000000E+00  0.00000000E+00
  0.00000000E+00  0.00000000E+00  0.00000000E+00
  0.00000000E+00  0.00000000E+00  0.00000000E+00
