CONTCAR\(6)                             
   1.00000000000000     
    14.0088996886999997    0.0000000000000000    0.0000000000000000
     5.5188320969999998   13.5818590718000003    0.0000000000000000
     0.0000000000000000    0.0000000000000000   20.1937999724999990
   Cu   H    S    O 
    12    24    12    60
Direct
  0.1666699960000031  0.2499999919999993  0.5000000000000000
  0.0000000000000000 -0.0000000000000000  0.5000000000000000
  0.5000000220000018  0.2499999919999993  0.5000000000000000
  0.3333399819999983 -0.0000000000000000  0.5000000000000000
  0.8333299969999999  0.2499999919999993  0.5000000000000000
  0.6666700250000019 -0.0000000000000000  0.5000000000000000
  0.1666699960000031  0.7499999579999965  0.5000000000000000
  0.0000000100000008  0.4999999839999987  0.5000000000000000
  0.5000000049999969  0.7499999579999965  0.5000000000000000
  0.3333399919999991  0.4999999839999987  0.5000000000000000
  0.8333299800000020  0.7499999579999965  0.5000000000000000
  0.6666700689999985  0.4999999839999987  0.5000000000000000
  0.2619404420561990  0.2135734845153270  0.3934615677670232
  0.0713895559438045  0.2864364874846738  0.6065384562329788
  0.0021025733125824  0.1654790113525807  0.4530965874263346
  0.3312274026874192  0.3345109846474158  0.5469034595736658
  0.5952704510561999  0.2135734845153270  0.3934615677670232
  0.4047295389437993  0.2864364874846738  0.6065384562329788
  0.3354325773125794  0.1654790113525807  0.4530965874263346
  0.6645574116874202  0.3345109846474158  0.5469034595736658
  0.9286004940561965  0.2135734845153270  0.3934615677670232
  0.7380595809437993  0.2864364874846738  0.6065384562329788
  0.6687725943125840  0.1654790113525807  0.4530965874263346
  0.9978973936874185  0.3345109846474158  0.5469034595736658
  0.2619404390561952  0.7135735035153250  0.3934615677670232
  0.0713895799437994  0.7864365244846734  0.6065384562329788
  0.0021025993125775  0.6654789423525855  0.4530965874263346
  0.3312273996874225  0.8345110036474210  0.5469034595736658
  0.5952704140562004  0.7135735035153250  0.3934615677670232
  0.4047295619438047  0.7864365244846734  0.6065384562329788
  0.3354326083125784  0.6654789423525855  0.4530965874263346
  0.6645574426874192  0.8345110036474210  0.5469034595736658
  0.9286003880561948  0.7135735035153250  0.3934615677670232
  0.7380595369438028  0.7864365244846734  0.6065384562329788
  0.6687725913125802  0.6654789423525855  0.4530965874263346
  0.9978973566874190  0.8345110036474210  0.5469034595736658
  0.1284951151447842  0.0989170228439432  0.5700113640847840
  0.2048248968552102  0.4010829611560555  0.4299886359152159
  0.4618350971447896  0.0989170228439432  0.5700113640847840
  0.5381648788552157  0.4010829611560555  0.4299886359152159
  0.7951650721447875  0.0989170228439432  0.5700113640847840
  0.8714949218552123  0.4010829611560555  0.4299886359152159
  0.1284951121447875  0.5989170418439413  0.5700113640847840
  0.2048249068552110  0.9010829441560575  0.4299886359152159
  0.4618350601447901  0.5989170418439413  0.5700113640847840
  0.5381649228552122  0.9010829441560575  0.4299886359152159
  0.7951651031447865  0.5989170418439413  0.5700113640847840
  0.8714948978552103  0.9010829441560575  0.4299886359152159
  0.2275925518478017  0.4909667769526490  0.4393481931043976
  0.1057574521521944  0.0090231950473526  0.5606617708956027
  0.0900867044177938  0.4298376840582531  0.4272399147911388
  0.2432533175822078  0.0701623089417428  0.5727600852088612
  0.2393321117454211  0.3397759437800740  0.4940864104402815
  0.0939979002545765  0.1602140342199281  0.5059135895597184
  0.2523703439590582  0.3424236035098594  0.3724607566439759
  0.0809696550409379  0.1575763634901415  0.6275392433560241
  0.0642793104831321  0.3309376777950434  0.5680322440254566
  0.2690506845168676  0.1690623232049602  0.4319677559745435
  0.5609225948478054  0.4909667769526490  0.4393481931043976
  0.4390874531521946  0.0090231950473526  0.5606617708956027
  0.4234166964177968  0.4298376840582531  0.4272399147911388
  0.5765833435822065  0.0701623089417428  0.5727600852088612
  0.5726721627454215  0.3397759437800740  0.4940864104402815
  0.4273279092545773  0.1602140342199281  0.5059135895597184
  0.5857003189590634  0.3424236035098594  0.3724607566439759
  0.4142996300409360  0.1575763634901415  0.6275392433560241
  0.3976093364831308  0.3309376777950434  0.5680322440254566
  0.6023907015168724  0.1690623232049602  0.4319677559745435
  0.8942525698478034  0.4909667769526490  0.4393481931043976
  0.7724174281521998  0.0090231950473526  0.5606617708956027
  0.7567466714177948  0.4298376840582531  0.4272399147911388
  0.9099133185822046  0.0701623089417428  0.5727600852088612
  0.9060021367454231  0.3397759437800740  0.4940864104402815
  0.7606678572545728  0.1602140342199281  0.5059135895597184
  0.9190403689590602  0.3424236035098594  0.3724607566439759
  0.7476297070409353  0.1575763634901415  0.6275392433560241
  0.7309393114831289  0.3309376777950434  0.5680322440254566
  0.9357206765168704  0.1690623232049602  0.4319677559745435
  0.2275925138477986  0.9909667959526540  0.4393481931043976
  0.1057574521521944  0.5090231850473519  0.5606617708956027
  0.0900866984177933  0.9298376680582587  0.4272399147911388
  0.2432533485822068  0.5701622839417444  0.5727600852088612
  0.2393321017454203  0.8397758917800697  0.4940864104402815
  0.0939979312545755  0.6602140532199261  0.5059135895597184
  0.2523703739590606  0.8424236225098574  0.3724607566439759
  0.0809696590409383  0.6575763644901380  0.6275392433560241
  0.0642793174831291  0.8309376267950428  0.5680322440254566
  0.2690507025168691  0.6690622902049610  0.4319677559745435
  0.5609225568478022  0.9909667959526540  0.4393481931043976
  0.4390874951521980  0.5090231850473519  0.5606617708956027
  0.4234166734177914  0.9298376680582587  0.4272399147911388
  0.5765833915822034  0.5701622839417444  0.5727600852088612
  0.5726721527454207  0.8397758917800697  0.4940864104402815
  0.4273279062545735  0.6602140532199261  0.5059135895597184
  0.5857003489590588  0.8424236225098574  0.3724607566439759
  0.4142996340409363  0.6575763644901380  0.6275392433560241
  0.3976093264831300  0.8309376267950428  0.5680322440254566
  0.6023906845168674  0.6690622902049610  0.4319677559745435
  0.8942524638478018  0.9909667959526540  0.4393481931043976
  0.7724174691521997  0.5090231850473519  0.5606617708956027
  0.7567466484177965  0.9298376680582587  0.4272399147911388
  0.9099133665822086  0.5701622839417444  0.5727600852088612
  0.9060021957454244  0.8397758917800697  0.4940864104402815
  0.7606678882545789  0.6602140532199261  0.5059135895597184
  0.9190403989590626  0.8424236225098574  0.3724607566439759
  0.7476296770409400  0.6575763644901380  0.6275392433560241
  0.7309393014831280  0.8309376267950428  0.5680322440254566
  0.9357207275168711  0.6690622902049610  0.4319677559745435
 
  0.00000000E+00  0.00000000E+00  0.00000000E+00
  0.00000000E+00  0.00000000E+00  0.00000000E+00
  0.00000000E+00  0.00000000E+00  0.00000000E+00
  0.00000000E+00  0.00000000E+00  0.00000000E+00
  0.00000000E+00  0.00000000E+00  0.00000000E+00
  0.00000000E+00  0.00000000E+00  0.00000000E+00
  0.00000000E+00  0.00000000E+00  0.00000000E+00
  0.00000000E+00  0.00000000E+00  0.00000000E+00
  0.00000000E+00  0.00000000E+00  0.00000000E+00
  0.00000000E+00  0.00000000E+00  0.00000000E+00
  0.00000000E+00  0.00000000E+00  0.00000000E+00
  0.00000000E+00  0.00000000E+00  0.00000000E+00
  0.00000000E+00  0.00000000E+00  0.00000000E+00
  0.00000000E+00  0.00000000E+00  0.00000000E+00
  0.00000000E+00  0.00000000E+00  0.00000000E+00
  0.00000000E+00  0.00000000E+00  0.00000000E+00
  0.00000000E+00  0.00000000E+00  0.00000000E+00
  0.00000000E+00  0.00000000E+00  0.00000000E+00
  0.00000000E+00  0.00000000E+00  0.00000000E+00
  0.00000000E+00  0.00000000E+00  0.00000000E+00
  0.00000000E+00  0.00000000E+00  0.00000000E+00
  0.00000000E+00  0.00000000E+00  0.00000000E+00
  0.00000000E+00  0.00000000E+00  0.00000000E+00
  0.00000000E+00  0.00000000E+00  0.00000000E+00
  0.00000000E+00  0.00000000E+00  0.00000000E+00
  0.00000000E+00  0.00000000E+00  0.00000000E+00
  0.00000000E+00  0.00000000E+00  0.00000000E+00
  0.00000000E+00  0.00000000E+00  0.00000000E+00
  0.00000000E+00  0.00000000E+00  0.00000000E+00
  0.00000000E+00  0.00000000E+00  0.00000000E+00
  0.00000000E+00  0.00000000E+00  0.00000000E+00
  0.00000000E+00  0.00000000E+00  0.00000000E+00
  0.00000000E+00  0.00000000E+00  0.00000000E+00
  0.00000000E+00  0.00000000E+00  0.00000000E+00
  0.00000000E+00  0.00000000E+00  0.00000000E+00
  0.00000000E+00  0.00000000E+00  0.00000000E+00
  0.00000000E+00  0.00000000E+00  0.00000000E+00
  0.00000000E+00  0.00000000E+00  0.00000000E+00
  0.00000000E+00  0.00000000E+00  0.00000000E+00
  0.00000000E+00  0.00000000E+00  0.00000000E+00
  0.00000000E+00  0.00000000E+00  0.00000000E+00
  0.00000000E+00  0.00000000E+00  0.00000000E+00
  0.00000000E+00  0.00000000E+00  0.00000000E+00
  0.00000000E+00  0.00000000E+00  0.00000000E+00
  0.00000000E+00  0.00000000E+00  0.00000000E+00
  0.00000000E+00  0.00000000E+00  0.00000000E+00
  0.00000000E+00  0.00000000E+00  0.00000000E+00
  0.00000000E+00  0.00000000E+00  0.00000000E+00
  0.00000000E+00  0.00000000E+00  0.00000000E+00
  0.00000000E+00  0.00000000E+00  0.00000000E+00
  0.00000000E+00  0.00000000E+00  0.00000000E+00
  0.00000000E+00  0.00000000E+00  0.00000000E+00
  0.00000000E+00  0.00000000E+00  0.00000000E+00
  0.00000000E+00  0.00000000E+00  0.00000000E+00
  0.00000000E+00  0.00000000E+00  0.00000000E+00
  0.00000000E+00  0.00000000E+00  0.00000000E+00
  0.00000000E+00  0.00000000E+00  0.00000000E+00
  0.00000000E+00  0.00000000E+00  0.00000000E+00
  0.00000000E+00  0.00000000E+00  0.00000000E+00
  0.00000000E+00  0.00000000E+00  0.00000000E+00
  0.00000000E+00  0.00000000E+00  0.00000000E+00
  0.00000000E+00  0.00000000E+00  0.00000000E+00
  0.00000000E+00  0.00000000E+00  0.00000000E+00
  0.00000000E+00  0.00000000E+00  0.00000000E+00
  0.00000000E+00  0.00000000E+00  0.00000000E+00
  0.00000000E+00  0.00000000E+00  0.00000000E+00
  0.00000000E+00  0.00000000E+00  0.00000000E+00
  0.00000000E+00  0.00000000E+00  0.00000000E+00
  0.00000000E+00  0.00000000E+00  0.00000000E+00
  0.00000000E+00  0.00000000E+00  0.00000000E+00
  0.00000000E+00  0.00000000E+00  0.00000000E+00
  0.00000000E+00  0.00000000E+00  0.00000000E+00
  0.00000000E+00  0.00000000E+00  0.00000000E+00
  0.00000000E+00  0.00000000E+00  0.00000000E+00
  0.00000000E+00  0.00000000E+00  0.00000000E+00
  0.00000000E+00  0.00000000E+00  0.00000000E+00
  0.00000000E+00  0.00000000E+00  0.00000000E+00
  0.00000000E+00  0.00000000E+00  0.00000000E+00
  0.00000000E+00  0.00000000E+00  0.00000000E+00
  0.00000000E+00  0.00000000E+00  0.00000000E+00
  0.00000000E+00  0.00000000E+00  0.00000000E+00
  0.00000000E+00  0.00000000E+00  0.00000000E+00
  0.00000000E+00  0.00000000E+00  0.00000000E+00
  0.00000000E+00  0.00000000E+00  0.00000000E+00
  0.00000000E+00  0.00000000E+00  0.00000000E+00
  0.00000000E+00  0.00000000E+00  0.00000000E+00
  0.00000000E+00  0.00000000E+00  0.00000000E+00
  0.00000000E+00  0.00000000E+00  0.00000000E+00
  0.00000000E+00  0.00000000E+00  0.00000000E+00
  0.00000000E+00  0.00000000E+00  0.00000000E+00
  0.00000000E+00  0.00000000E+00  0.00000000E+00
  0.00000000E+00  0.00000000E+00  0.00000000E+00
  0.00000000E+00  0.00000000E+00  0.00000000E+00
  0.00000000E+00  0.00000000E+00  0.00000000E+00
  0.00000000E+00  0.00000000E+00  0.00000000E+00
  0.00000000E+00  0.00000000E+00  0.00000000E+00
  0.00000000E+00  0.00000000E+00  0.00000000E+00
  0.00000000E+00  0.00000000E+00  0.00000000E+00
  0.00000000E+00  0.00000000E+00  0.00000000E+00
  0.00000000E+00  0.00000000E+00  0.00000000E+00
  0.00000000E+00  0.00000000E+00  0.00000000E+00
  0.00000000E+00  0.00000000E+00  0.00000000E+00
  0.00000000E+00  0.00000000E+00  0.00000000E+00
  0.00000000E+00  0.00000000E+00  0.00000000E+00
  0.00000000E+00  0.00000000E+00  0.00000000E+00
  0.00000000E+00  0.00000000E+00  0.00000000E+00
  0.00000000E+00  0.00000000E+00  0.00000000E+00
  0.00000000E+00  0.00000000E+00  0.00000000E+00
