CONTCAR\(2)                             
   1.00000000000000     
    11.0214996337999995    0.0000000000000000    0.0000000000000000
     0.0000000000000000   14.9139995575000004    0.0000000000000000
     0.0000000000000000    0.0000000000000000   19.5716991425000018
   Nb   Ni   Te   O 
     6     6    30     1
Direct
  0.9998912975144019  0.2496741912590507  0.4961467080722495
  0.0010279566385132  0.7496404907482590  0.5071220139789503
  0.3334386974855977  0.2496741912590507  0.4961467080722495
  0.3323020383614866  0.7496404907482590  0.5071220139789503
  0.6666700270000021  0.2488612573542907  0.4951262929705953
  0.6666700270000021  0.7495897041281208  0.5077597616725495
  0.1666699940000029  0.0011755294233348  0.5008827320200033
  0.1666699940000029  0.4969724894586596  0.4982429799769066
  0.4994346381865110  0.9978418893302952  0.5016341585080625
  0.5104795420021424  0.4973596868555418  0.4988274713511694
  0.8338953778134870  0.9978418893302952  0.5016341585080625
  0.8228504739978555  0.4973596868555418  0.4988274713511694
  0.9993809069413901  0.0758522610380683  0.4287717326724872
  0.9992800412509066  0.9251187944094699  0.5739532062019415
  0.9992370379672720  0.5704925942981683  0.5691896266746325
  0.9960041784478542  0.4236990600743505  0.4287244659251659
  0.1666699940000029  0.2510086804624698  0.3844488790646989
  0.1666699940000029  0.7519401925497463  0.6222946011227590
  0.1666699940000029  0.8547058159222801  0.4286398030178913
  0.1666699940000029  0.1452074230598448  0.5744659965822069
  0.1666699940000029  0.3538064664651932  0.5742899466029385
  0.1666699940000029  0.6462127662651815  0.4283160867028973
  0.3339490880586097  0.0758522610380683  0.4287717326724872
  0.3340499537490930  0.9251187944094699  0.5739532062019415
  0.3340929570327277  0.5704925942981683  0.5691896266746325
  0.3373258165521457  0.4236990600743505  0.4287244659251659
  0.4994248868539652  0.2453927715868392  0.3840552105620738
  0.4998522000749475  0.7510949467236628  0.6193228343277435
  0.5004677798123802  0.8538057553581655  0.4285438145390703
  0.5002378522850329  0.1439528728219789  0.5729724081168956
  0.5020723930858453  0.3545339922834619  0.5735072035214122
  0.4999242183525525  0.6429496729892820  0.4309917656869812
  0.6666700270000021  0.0731904693976237  0.4305833785606675
  0.6666700270000021  0.9231098709737313  0.5755007883814479
  0.6666700270000021  0.5759922982582791  0.5763535838100639
  0.6666700270000021  0.4184472430987028  0.4192243566908087
  0.8339051291460330  0.2453927715868392  0.3840552105620738
  0.8334778159250504  0.7510949467236628  0.6193228343277435
  0.8328622361876178  0.8538057553581655  0.4285438145390703
  0.8330921637149650  0.1439528728219789  0.5729724081168956
  0.8312576229141526  0.3545339922834619  0.5735072035214122
  0.8334057976474453  0.6429496729892820  0.4309917656869812
  0.1666799879999985  0.6242215966293467  0.6473254925458912
 
  0.00000000E+00  0.00000000E+00  0.00000000E+00
  0.00000000E+00  0.00000000E+00  0.00000000E+00
  0.00000000E+00  0.00000000E+00  0.00000000E+00
  0.00000000E+00  0.00000000E+00  0.00000000E+00
  0.00000000E+00  0.00000000E+00  0.00000000E+00
  0.00000000E+00  0.00000000E+00  0.00000000E+00
  0.00000000E+00  0.00000000E+00  0.00000000E+00
  0.00000000E+00  0.00000000E+00  0.00000000E+00
  0.00000000E+00  0.00000000E+00  0.00000000E+00
  0.00000000E+00  0.00000000E+00  0.00000000E+00
  0.00000000E+00  0.00000000E+00  0.00000000E+00
  0.00000000E+00  0.00000000E+00  0.00000000E+00
  0.00000000E+00  0.00000000E+00  0.00000000E+00
  0.00000000E+00  0.00000000E+00  0.00000000E+00
  0.00000000E+00  0.00000000E+00  0.00000000E+00
  0.00000000E+00  0.00000000E+00  0.00000000E+00
  0.00000000E+00  0.00000000E+00  0.00000000E+00
  0.00000000E+00  0.00000000E+00  0.00000000E+00
  0.00000000E+00  0.00000000E+00  0.00000000E+00
  0.00000000E+00  0.00000000E+00  0.00000000E+00
  0.00000000E+00  0.00000000E+00  0.00000000E+00
  0.00000000E+00  0.00000000E+00  0.00000000E+00
  0.00000000E+00  0.00000000E+00  0.00000000E+00
  0.00000000E+00  0.00000000E+00  0.00000000E+00
  0.00000000E+00  0.00000000E+00  0.00000000E+00
  0.00000000E+00  0.00000000E+00  0.00000000E+00
  0.00000000E+00  0.00000000E+00  0.00000000E+00
  0.00000000E+00  0.00000000E+00  0.00000000E+00
  0.00000000E+00  0.00000000E+00  0.00000000E+00
  0.00000000E+00  0.00000000E+00  0.00000000E+00
  0.00000000E+00  0.00000000E+00  0.00000000E+00
  0.00000000E+00  0.00000000E+00  0.00000000E+00
  0.00000000E+00  0.00000000E+00  0.00000000E+00
  0.00000000E+00  0.00000000E+00  0.00000000E+00
  0.00000000E+00  0.00000000E+00  0.00000000E+00
  0.00000000E+00  0.00000000E+00  0.00000000E+00
  0.00000000E+00  0.00000000E+00  0.00000000E+00
  0.00000000E+00  0.00000000E+00  0.00000000E+00
  0.00000000E+00  0.00000000E+00  0.00000000E+00
  0.00000000E+00  0.00000000E+00  0.00000000E+00
  0.00000000E+00  0.00000000E+00  0.00000000E+00
  0.00000000E+00  0.00000000E+00  0.00000000E+00
  0.00000000E+00  0.00000000E+00  0.00000000E+00
