CONTCAR\(2)                             
   1.00000000000000     
    11.2371997832999995    0.0000000000000000    0.0000000000000000
     0.0000000000000000   14.7250003814999992    0.0000000000000000
     0.0000000000000000    0.0000000000000000   22.6672992706000009
   Li   Cu   F    O    H 
    32    32    80     1     1
Selective dynamics
Direct
  0.1874892901947405  0.0664847971203741  0.5152017117601275   F   F   F
  0.1946476165143309  0.4217091138315396  0.6033339879369564   F   F   F
  0.0622524039688201  0.0768988968373918  0.3878985319752104   F   F   F
  0.0620286908654819  0.4333384493852321  0.4789987545024488   F   F   F
  0.4368160778267836  0.0768977578483501  0.5291934106024598   F   F   F
  0.4349179309330964  0.3466842753480748  0.6731209150841622   F   F   F
  0.3129682762444759  0.0773388385656375  0.3909105136309989   F   F   F
  0.3137912520287998  0.4311792740930542  0.4822730870837262   F   F   F
  0.6859455893116575  0.0695598310264387  0.5166391330505107   F   F   F
  0.6810092549981803  0.4240401881216371  0.6030439288647429   F   F   F
  0.5610021805010277  0.0773646280057392  0.3915551919838691   F   F   F
  0.5606294728713479  0.4319907476482925  0.4822519266363727   F   F   F
  0.9384399985899776  0.0698844167445714  0.5175304894675463   F   F   F
  0.9387147801292812  0.4255646920061196  0.6045591875499596   F   F   F
  0.8120767469689909  0.0771255642183775  0.3899255478198000   F   F   F
  0.8124774865151281  0.4339175169893110  0.4789798522786981   F   F   F
  0.1865329868851759  0.5733029327230383  0.5189728393321218   F   F   F
  0.1912199300002584  0.9369275445696914  0.6061001915091211   F   F   F
  0.0621270132730913  0.5776071361380914  0.3902743794032020   F   F   F
  0.0624069158377552  0.9307892556597182  0.4766317521313752   F   F   F
  0.4369083990554259  0.5691598422345834  0.5239682480945476   F   F   F
  0.4356454421380391  0.9393723509519774  0.6151823446808606   F   F   F
  0.3115537034749281  0.5764479450141948  0.3929451099895047   F   F   F
  0.3150716096919339  0.9325546730760621  0.4781512190395247   F   F   F
  0.6880126005328293  0.5739328941986059  0.5190255434769995   F   F   F
  0.6820307799594616  0.9327521451253560  0.6069013106234564   F   F   F
  0.5626687097151546  0.5766141565760492  0.3930372056419742   F   F   F
  0.5593627832705934  0.9332208115106368  0.4797324771596436   F   F   F
  0.9372261420668053  0.5733504756659684  0.5187837205119550   F   F   F
  0.9415673894440033  0.9302867471952041  0.6044644706933724   F   F   F
  0.8119538482037214  0.5777636268755302  0.3902763993726239   F   F   F
  0.8120251085213326  0.9319206665809574  0.4784009033187431   F   F   F
  0.0717096332556935  0.2481583983524800  0.5664727650526942   F   F   F
  0.0691164736774823  0.1101444583077082  0.6663378844769312   F   F   F
  0.1877604033124811  0.4174682982358391  0.3398480392136349   F   F   F
  0.1847230070910797  0.2507311404288259  0.4302753960041841   F   F   F
  0.2995453689050009  0.2424069570350369  0.5660723856534418   F   F   F
  0.3216384997427895  0.1164946690554416  0.6909969323970131   F   F   F
  0.4374317246467214  0.4176937615604217  0.3426544972964436   F   F   F
  0.4371195120634539  0.2491823510757953  0.4329174146914099   F   F   F
  0.5670786769699987  0.2483298953855595  0.5662613017482343   F   F   F
  0.5611000428790049  0.1120399548098163  0.6827153276823950   F   F   F
  0.6868049870350603  0.4174071041873688  0.3402799132373104   F   F   F
  0.6887480500638503  0.2506980805051384  0.4317628045306492   F   F   F
  0.8065468117058927  0.2522898078229545  0.5649842944537511   F   F   F
  0.8128627528690942  0.0921338551315358  0.6530124836946953   F   F   F
  0.9370962485451031  0.4171096120641948  0.3386458907993273   F   F   F
  0.9375695960007775  0.2507486563874366  0.4321509813230975   F   F   F
  0.0662410087577570  0.7552348048267206  0.5675679948895223   F   F   F
  0.0635878395939216  0.5823176960141510  0.6560360142299615   F   F   F
  0.1875464092366457  0.9172308855351829  0.3388091565472493   F   F   F
  0.1884723334948646  0.7506404878047803  0.4317821672646147   F   F   F
  0.3136040922491148  0.7558203047462513  0.5696301513241053   F   F   F
  0.3154958121212843  0.5668264850721769  0.6543859534583447   F   F   F
  0.4371666519862814  0.9175559328291314  0.3407296032667446   F   F   F
  0.4375600694059543  0.7488419875798300  0.4336965733599598   F   F   F
  0.5600786367893065  0.7546905301132227  0.5707244120856458   F   F   F
  0.5568879216203797  0.5658968494398451  0.6545045095505486   F   F   F
  0.6868513117594546  0.9172113512047133  0.3411679354065598   F   F   F
  0.6861046619552482  0.7508599779076874  0.4336255753395619   F   F   F
  0.8109767069630038  0.7556681165595478  0.5684804487398765   F   F   F
  0.8096749834542791  0.5820946788572385  0.6562939832860408   F   F   F
  0.9370888797924195  0.9166049091806414  0.3390875480941205   F   F   F
  0.9369705004175373  0.7503815992911029  0.4326035414410896   F   F   F
  0.0632021340954338  0.1600764937193162  0.5070206301772373   F   F   F
  0.0596695904697100  0.4969507839869891  0.5540779214753684   F   F   F
  0.0647749634794934  0.3443234572740721  0.6170693759486596   F   F   F
  0.1859314723589662  0.1960604528997365  0.6937962781670279   F   F   F
  0.2033631157375311  0.0246879807309455  0.6685420869137673   F   F   F
  0.0623704715821631  0.5019643390246671  0.3185994703106232   F   F   F
  0.0623183403011964  0.3361756241178924  0.3683797154716402   F   F   F
  0.1867106095991033  0.1579746591291808  0.3758247507490893   F   F   F
  0.1865608947703521  0.0050019418588079  0.4387435548401655   F   F   F
  0.1865292787670256  0.3419351249364340  0.4893292937895097   F   F   F
  0.3031355050171811  0.1630304571129102  0.4990159949496231   F   F   F
  0.3034613897677403  0.4972333589662270  0.5549277513774626   F   F   F
  0.3080004886994345  0.3330573475815086  0.6226166340264214   F   F   F
  0.4325229095214951  0.1576079538777648  0.5984632323014125   F   F   F
  0.4369543123863693  0.0168859747125083  0.6873250285723245   F   F   F
  0.3129390343304763  0.5019948786904180  0.3204727365059981   F   F   F
  0.3120398289982944  0.3372698423816161  0.3726409955369832   F   F   F
  0.4371088981554507  0.1591603983415268  0.3766960194648092   F   F   F
  0.4375806968688778  0.0060510535238407  0.4398564645082530   F   F   F
  0.4378148117482823  0.3377979485420610  0.4929858627827173   F   F   F
  0.5689319614584178  0.1648960114236573  0.5006275407540386   F   F   F
  0.5708027836442469  0.4987189623939798  0.5546177874467233   F   F   F
  0.5619463228699502  0.3403680343792246  0.6225195865914941   F   F   F
  0.6868820306025114  0.1801504938588181  0.6388308738371364   F   F   F
  0.6808363663708050  0.0143166311456113  0.6740150666854277   F   F   F
  0.5618254089489056  0.5020833828625868  0.3206457353910892   F   F   F
  0.5626599654744666  0.3375968759519523  0.3735115557222954   F   F   F
  0.6873885710278245  0.1581263289807140  0.3770819798285672   F   F   F
  0.6877821938207660  0.0061439853934289  0.4410972542864044   F   F   F
  0.6879824270542869  0.3418485036373227  0.4912209577420725   F   F   F
  0.8125422208418200  0.1616340189601928  0.5060786507384805   F   F   F
  0.8144443931266707  0.4980798948521183  0.5538519806000721   F   F   F
  0.8110046249588905  0.3477093782480765  0.6170328294905829   F   F   F
  0.9375985087818179  0.1760033006247070  0.6247584276460714   F   F   F
  0.9474200234158445  0.0145252637311728  0.6695513138635647   F   F   F
  0.8118844553387845  0.5020674229084179  0.3187489996383306   F   F   F
  0.8121453848781925  0.3365346883883902  0.3693780414515970   F   F   F
  0.9371698098022847  0.1586229159490244  0.3774599468996058   F   F   F
  0.9369138319759500  0.0066463104945882  0.4405366349013065   F   F   F
  0.9369007938884479  0.3416053060334789  0.4908410537982633   F   F   F
  0.0622320886999006  0.6652167669649387  0.5076289282541069   F   F   F
  0.0624422315723621  0.9943252748158571  0.5509399665329155   F   F   F
  0.0664230357283060  0.8493249022641365  0.6206472722474672   F   F   F
  0.1927987545319994  0.6570591656414209  0.6254384645870772   F   F   F
  0.1837721812078854  0.4924803229238321  0.6776983107910439   F   F   F
  0.0619426941867758  0.0006837819559280  0.3165860465431720   F   F   F
  0.0624558521054936  0.8366491816897366  0.3693473371728757   F   F   F
  0.1876292716015726  0.6581663648538196  0.3774699274716369   F   F   F
  0.1869680696318810  0.5084908724275223  0.4426072182663603   F   F   F
  0.1876282207914741  0.8411006547851656  0.4905479671695758   F   F   F
  0.3131193271703836  0.6660137187011941  0.5091887105734614   F   F   F
  0.3111564506006061  0.9954541766038503  0.5515423309405207   F   F   F
  0.3134078184977085  0.8504868247637205  0.6224872648322020   F   F   F
  0.4366196877400199  0.6500994536874103  0.6250175333671990   F   F   F
  0.4355769802860507  0.4829291852137843  0.6876651356063661   F   F   F
  0.3125770513336334  0.0016611090022138  0.3182295654451579   F   F   F
  0.3120483915545691  0.8365157277479511  0.3699177931497246   F   F   F
  0.4371796015785421  0.6568391188822034  0.3790344471794569   F   F   F
  0.4370913628798831  0.5070667043673538  0.4452867306245949   F   F   F
  0.4373144353606833  0.8403662549651401  0.4917272663280059   F   F   F
  0.5615130126535206  0.6664501445471842  0.5092995737730206   F   F   F
  0.5639097270395652  0.9968050606601224  0.5536301061822329   F   F   F
  0.5592934672940757  0.8496358945932840  0.6234391768697449   F   F   F
  0.6799860462443377  0.6569337952855818  0.6261342021515901   F   F   F
  0.6893775844773629  0.4927679200047308  0.6785002790195733   F   F   F
  0.5622643761434105  0.0012380284517377  0.3191527321691652   F   F   F
  0.5617860114428268  0.8374063287029330  0.3726434406642056   F   F   F
  0.6866256561705697  0.6589772696455967  0.3787022241632272   F   F   F
  0.6873995091265073  0.5081365361131631  0.4425856334658747   F   F   F
  0.6870902489519892  0.8417850317136413  0.4925253128205185   F   F   F
  0.8122382108233381  0.6659165590265488  0.5082366526790096   F   F   F
  0.8126550901224832  0.9980405952682929  0.5535258025703627   F   F   F
  0.8116021170233338  0.8509107056382419  0.6209148443045791   F   F   F
  0.9364793879743587  0.6640229493019092  0.6262712855216392   F   F   F
  0.9369373689011269  0.5008118600515061  0.6779852000681288   F   F   F
  0.8118893435221040  0.0008057723648776  0.3184832108228193   F   F   F
  0.8123963017172144  0.8378992601310742  0.3727458595178561   F   F   F
  0.9370185244797611  0.6588367938922630  0.3774631777423068   F   F   F
  0.9372252396674554  0.5085939037876486  0.4421776307189162   F   F   F
  0.9371546361774179  0.8412609405683611  0.4915336357806908   F   F   F
  0.4477141930967719  0.2021203528388753  0.7148928257524858   T   T   T
  0.4520505640617216  0.2038812463357189  0.7572494279939169   T   T   T
 
  0.00000000E+00  0.00000000E+00  0.00000000E+00
  0.00000000E+00  0.00000000E+00  0.00000000E+00
  0.00000000E+00  0.00000000E+00  0.00000000E+00
  0.00000000E+00  0.00000000E+00  0.00000000E+00
  0.00000000E+00  0.00000000E+00  0.00000000E+00
  0.00000000E+00  0.00000000E+00  0.00000000E+00
  0.00000000E+00  0.00000000E+00  0.00000000E+00
  0.00000000E+00  0.00000000E+00  0.00000000E+00
  0.00000000E+00  0.00000000E+00  0.00000000E+00
  0.00000000E+00  0.00000000E+00  0.00000000E+00
  0.00000000E+00  0.00000000E+00  0.00000000E+00
  0.00000000E+00  0.00000000E+00  0.00000000E+00
  0.00000000E+00  0.00000000E+00  0.00000000E+00
  0.00000000E+00  0.00000000E+00  0.00000000E+00
  0.00000000E+00  0.00000000E+00  0.00000000E+00
  0.00000000E+00  0.00000000E+00  0.00000000E+00
  0.00000000E+00  0.00000000E+00  0.00000000E+00
  0.00000000E+00  0.00000000E+00  0.00000000E+00
  0.00000000E+00  0.00000000E+00  0.00000000E+00
  0.00000000E+00  0.00000000E+00  0.00000000E+00
  0.00000000E+00  0.00000000E+00  0.00000000E+00
  0.00000000E+00  0.00000000E+00  0.00000000E+00
  0.00000000E+00  0.00000000E+00  0.00000000E+00
  0.00000000E+00  0.00000000E+00  0.00000000E+00
  0.00000000E+00  0.00000000E+00  0.00000000E+00
  0.00000000E+00  0.00000000E+00  0.00000000E+00
  0.00000000E+00  0.00000000E+00  0.00000000E+00
  0.00000000E+00  0.00000000E+00  0.00000000E+00
  0.00000000E+00  0.00000000E+00  0.00000000E+00
  0.00000000E+00  0.00000000E+00  0.00000000E+00
  0.00000000E+00  0.00000000E+00  0.00000000E+00
  0.00000000E+00  0.00000000E+00  0.00000000E+00
  0.00000000E+00  0.00000000E+00  0.00000000E+00
  0.00000000E+00  0.00000000E+00  0.00000000E+00
  0.00000000E+00  0.00000000E+00  0.00000000E+00
  0.00000000E+00  0.00000000E+00  0.00000000E+00
  0.00000000E+00  0.00000000E+00  0.00000000E+00
  0.00000000E+00  0.00000000E+00  0.00000000E+00
  0.00000000E+00  0.00000000E+00  0.00000000E+00
  0.00000000E+00  0.00000000E+00  0.00000000E+00
  0.00000000E+00  0.00000000E+00  0.00000000E+00
  0.00000000E+00  0.00000000E+00  0.00000000E+00
  0.00000000E+00  0.00000000E+00  0.00000000E+00
  0.00000000E+00  0.00000000E+00  0.00000000E+00
  0.00000000E+00  0.00000000E+00  0.00000000E+00
  0.00000000E+00  0.00000000E+00  0.00000000E+00
  0.00000000E+00  0.00000000E+00  0.00000000E+00
  0.00000000E+00  0.00000000E+00  0.00000000E+00
  0.00000000E+00  0.00000000E+00  0.00000000E+00
  0.00000000E+00  0.00000000E+00  0.00000000E+00
  0.00000000E+00  0.00000000E+00  0.00000000E+00
  0.00000000E+00  0.00000000E+00  0.00000000E+00
  0.00000000E+00  0.00000000E+00  0.00000000E+00
  0.00000000E+00  0.00000000E+00  0.00000000E+00
  0.00000000E+00  0.00000000E+00  0.00000000E+00
  0.00000000E+00  0.00000000E+00  0.00000000E+00
  0.00000000E+00  0.00000000E+00  0.00000000E+00
  0.00000000E+00  0.00000000E+00  0.00000000E+00
  0.00000000E+00  0.00000000E+00  0.00000000E+00
  0.00000000E+00  0.00000000E+00  0.00000000E+00
  0.00000000E+00  0.00000000E+00  0.00000000E+00
  0.00000000E+00  0.00000000E+00  0.00000000E+00
  0.00000000E+00  0.00000000E+00  0.00000000E+00
  0.00000000E+00  0.00000000E+00  0.00000000E+00
  0.00000000E+00  0.00000000E+00  0.00000000E+00
  0.00000000E+00  0.00000000E+00  0.00000000E+00
  0.00000000E+00  0.00000000E+00  0.00000000E+00
  0.00000000E+00  0.00000000E+00  0.00000000E+00
  0.00000000E+00  0.00000000E+00  0.00000000E+00
  0.00000000E+00  0.00000000E+00  0.00000000E+00
  0.00000000E+00  0.00000000E+00  0.00000000E+00
  0.00000000E+00  0.00000000E+00  0.00000000E+00
  0.00000000E+00  0.00000000E+00  0.00000000E+00
  0.00000000E+00  0.00000000E+00  0.00000000E+00
  0.00000000E+00  0.00000000E+00  0.00000000E+00
  0.00000000E+00  0.00000000E+00  0.00000000E+00
  0.00000000E+00  0.00000000E+00  0.00000000E+00
  0.00000000E+00  0.00000000E+00  0.00000000E+00
  0.00000000E+00  0.00000000E+00  0.00000000E+00
  0.00000000E+00  0.00000000E+00  0.00000000E+00
  0.00000000E+00  0.00000000E+00  0.00000000E+00
  0.00000000E+00  0.00000000E+00  0.00000000E+00
  0.00000000E+00  0.00000000E+00  0.00000000E+00
  0.00000000E+00  0.00000000E+00  0.00000000E+00
  0.00000000E+00  0.00000000E+00  0.00000000E+00
  0.00000000E+00  0.00000000E+00  0.00000000E+00
  0.00000000E+00  0.00000000E+00  0.00000000E+00
  0.00000000E+00  0.00000000E+00  0.00000000E+00
  0.00000000E+00  0.00000000E+00  0.00000000E+00
  0.00000000E+00  0.00000000E+00  0.00000000E+00
  0.00000000E+00  0.00000000E+00  0.00000000E+00
  0.00000000E+00  0.00000000E+00  0.00000000E+00
  0.00000000E+00  0.00000000E+00  0.00000000E+00
  0.00000000E+00  0.00000000E+00  0.00000000E+00
  0.00000000E+00  0.00000000E+00  0.00000000E+00
  0.00000000E+00  0.00000000E+00  0.00000000E+00
  0.00000000E+00  0.00000000E+00  0.00000000E+00
  0.00000000E+00  0.00000000E+00  0.00000000E+00
  0.00000000E+00  0.00000000E+00  0.00000000E+00
  0.00000000E+00  0.00000000E+00  0.00000000E+00
  0.00000000E+00  0.00000000E+00  0.00000000E+00
  0.00000000E+00  0.00000000E+00  0.00000000E+00
  0.00000000E+00  0.00000000E+00  0.00000000E+00
  0.00000000E+00  0.00000000E+00  0.00000000E+00
  0.00000000E+00  0.00000000E+00  0.00000000E+00
  0.00000000E+00  0.00000000E+00  0.00000000E+00
  0.00000000E+00  0.00000000E+00  0.00000000E+00
  0.00000000E+00  0.00000000E+00  0.00000000E+00
  0.00000000E+00  0.00000000E+00  0.00000000E+00
  0.00000000E+00  0.00000000E+00  0.00000000E+00
  0.00000000E+00  0.00000000E+00  0.00000000E+00
  0.00000000E+00  0.00000000E+00  0.00000000E+00
  0.00000000E+00  0.00000000E+00  0.00000000E+00
  0.00000000E+00  0.00000000E+00  0.00000000E+00
  0.00000000E+00  0.00000000E+00  0.00000000E+00
  0.00000000E+00  0.00000000E+00  0.00000000E+00
  0.00000000E+00  0.00000000E+00  0.00000000E+00
  0.00000000E+00  0.00000000E+00  0.00000000E+00
  0.00000000E+00  0.00000000E+00  0.00000000E+00
  0.00000000E+00  0.00000000E+00  0.00000000E+00
  0.00000000E+00  0.00000000E+00  0.00000000E+00
  0.00000000E+00  0.00000000E+00  0.00000000E+00
  0.00000000E+00  0.00000000E+00  0.00000000E+00
  0.00000000E+00  0.00000000E+00  0.00000000E+00
  0.00000000E+00  0.00000000E+00  0.00000000E+00
  0.00000000E+00  0.00000000E+00  0.00000000E+00
  0.00000000E+00  0.00000000E+00  0.00000000E+00
  0.00000000E+00  0.00000000E+00  0.00000000E+00
  0.00000000E+00  0.00000000E+00  0.00000000E+00
  0.00000000E+00  0.00000000E+00  0.00000000E+00
  0.00000000E+00  0.00000000E+00  0.00000000E+00
  0.00000000E+00  0.00000000E+00  0.00000000E+00
  0.00000000E+00  0.00000000E+00  0.00000000E+00
  0.00000000E+00  0.00000000E+00  0.00000000E+00
  0.00000000E+00  0.00000000E+00  0.00000000E+00
  0.00000000E+00  0.00000000E+00  0.00000000E+00
  0.00000000E+00  0.00000000E+00  0.00000000E+00
  0.00000000E+00  0.00000000E+00  0.00000000E+00
  0.00000000E+00  0.00000000E+00  0.00000000E+00
  0.00000000E+00  0.00000000E+00  0.00000000E+00
  0.00000000E+00  0.00000000E+00  0.00000000E+00
  0.00000000E+00  0.00000000E+00  0.00000000E+00
  0.00000000E+00  0.00000000E+00  0.00000000E+00
  0.00000000E+00  0.00000000E+00  0.00000000E+00
  0.00000000E+00  0.00000000E+00  0.00000000E+00
  0.00000000E+00  0.00000000E+00  0.00000000E+00
