CONTCAR\(6)                             
   1.00000000000000     
    14.4757995605000005    0.0000000000000000    0.0000000000000000
     7.2285261864999999   12.5388166469000009    0.0000000000000000
     0.0000000000000000    0.0000000000000000   18.6821994780999994
   Nb   Te   O 
    16    32     1
Direct
  0.9853713096569550  0.9903536276196832  0.5026754640003546
  0.2697772229917064  0.9871505083522294  0.5039286299273869
  0.5182443750442971  0.9890105465544536  0.5030839970194521
  0.7494670939164507  0.9892519059170795  0.5026142825863005
  0.0181287569352691  0.2138088516527930  0.5058855223315746
  0.2701579306188577  0.2159291012167870  0.5070364026145100
  0.5197374393872209  0.2112725138342242  0.5074997078138850
  0.7625711045806085  0.2180816402588235  0.5058905778965155
  0.9806491621642124  0.5377906144141065  0.4971536714016409
  0.2218835608788154  0.5447613251454513  0.4919370933666940
  0.4798485776489585  0.5473496833571332  0.4908945515751810
  0.7336192060494611  0.5377404758792821  0.4969778934083564
  0.9791375721297655  0.7655415246239912  0.5000004683086345
  0.2276692515788028  0.7691897870924436  0.4986333501694489
  0.5120564713204843  0.7648170506060126  0.5001945714787652
  0.7479576080319035  0.7651419821592143  0.5004971603106583
  0.0897425668635137  0.0696815602580685  0.4024149681895963
  0.1721159833923878  0.1590874184408406  0.6099496556137041
  0.3415657558152958  0.0758871697620265  0.3987779030004006
  0.4218637114855781  0.1587984841961472  0.6123041214083571
  0.5870190623954841  0.0784117943461169  0.3950830997012034
  0.6693802542058478  0.1603728851658417  0.6120821424769787
  0.8294771148242504  0.0804688313938584  0.3958424240858918
  0.9166303428601239  0.1610981414469350  0.6095435687957291
  0.0839851978107902  0.3341104052513231  0.4208430475937135
  0.1679128416651636  0.4199997188188149  0.5823390539378082
  0.3329775087014326  0.3382125833121066  0.4209387482888189
  0.4152967992102106  0.4195090127349346  0.5715562623468529
  0.5770602442728148  0.3398001659504502  0.4206667173898992
  0.6602338386314202  0.4224347131386779  0.5813138903746733
  0.8320225215537960  0.3351729929721969  0.4198807897000307
  0.9170515041370422  0.4170873918895666  0.5832635814387430
  0.0710580690410652  0.5970650296840105  0.3892351607435600
  0.1571893352467200  0.6781240147218384  0.6034678721874513
  0.3223583237989232  0.6003144731217844  0.3898219960167566
  0.4086667368749985  0.6832358022290066  0.5989824423062728
  0.5828923402039692  0.5980101778215428  0.3897314424252585
  0.6672941769740746  0.6749701161642108  0.6074247221332669
  0.8297233831543238  0.5929942396944980  0.3918119805109654
  0.9113821432471809  0.6750634462996175  0.6077104315286093
  0.0718683712133057  0.8407526606431688  0.3946705237103671
  0.1598682320422071  0.9233974013588337  0.6014526947108294
  0.3370983860150218  0.8336156993379689  0.4009096909569934
  0.4242670811623412  0.9153148421881028  0.6083120671545430
  0.5872168079387663  0.8391288087589501  0.3933200909217049
  0.6702680807911818  0.9139523121406583  0.6107395018688848
  0.8275074250600909  0.8398633235926454  0.3924975238810120
  0.9112454934787095  0.9156981670284239  0.6097183878448149
  0.4020941029981060  0.4444245024531170  0.6697101675469597
 
  0.00000000E+00  0.00000000E+00  0.00000000E+00
  0.00000000E+00  0.00000000E+00  0.00000000E+00
  0.00000000E+00  0.00000000E+00  0.00000000E+00
  0.00000000E+00  0.00000000E+00  0.00000000E+00
  0.00000000E+00  0.00000000E+00  0.00000000E+00
  0.00000000E+00  0.00000000E+00  0.00000000E+00
  0.00000000E+00  0.00000000E+00  0.00000000E+00
  0.00000000E+00  0.00000000E+00  0.00000000E+00
  0.00000000E+00  0.00000000E+00  0.00000000E+00
  0.00000000E+00  0.00000000E+00  0.00000000E+00
  0.00000000E+00  0.00000000E+00  0.00000000E+00
  0.00000000E+00  0.00000000E+00  0.00000000E+00
  0.00000000E+00  0.00000000E+00  0.00000000E+00
  0.00000000E+00  0.00000000E+00  0.00000000E+00
  0.00000000E+00  0.00000000E+00  0.00000000E+00
  0.00000000E+00  0.00000000E+00  0.00000000E+00
  0.00000000E+00  0.00000000E+00  0.00000000E+00
  0.00000000E+00  0.00000000E+00  0.00000000E+00
  0.00000000E+00  0.00000000E+00  0.00000000E+00
  0.00000000E+00  0.00000000E+00  0.00000000E+00
  0.00000000E+00  0.00000000E+00  0.00000000E+00
  0.00000000E+00  0.00000000E+00  0.00000000E+00
  0.00000000E+00  0.00000000E+00  0.00000000E+00
  0.00000000E+00  0.00000000E+00  0.00000000E+00
  0.00000000E+00  0.00000000E+00  0.00000000E+00
  0.00000000E+00  0.00000000E+00  0.00000000E+00
  0.00000000E+00  0.00000000E+00  0.00000000E+00
  0.00000000E+00  0.00000000E+00  0.00000000E+00
  0.00000000E+00  0.00000000E+00  0.00000000E+00
  0.00000000E+00  0.00000000E+00  0.00000000E+00
  0.00000000E+00  0.00000000E+00  0.00000000E+00
  0.00000000E+00  0.00000000E+00  0.00000000E+00
  0.00000000E+00  0.00000000E+00  0.00000000E+00
  0.00000000E+00  0.00000000E+00  0.00000000E+00
  0.00000000E+00  0.00000000E+00  0.00000000E+00
  0.00000000E+00  0.00000000E+00  0.00000000E+00
  0.00000000E+00  0.00000000E+00  0.00000000E+00
  0.00000000E+00  0.00000000E+00  0.00000000E+00
  0.00000000E+00  0.00000000E+00  0.00000000E+00
  0.00000000E+00  0.00000000E+00  0.00000000E+00
  0.00000000E+00  0.00000000E+00  0.00000000E+00
  0.00000000E+00  0.00000000E+00  0.00000000E+00
  0.00000000E+00  0.00000000E+00  0.00000000E+00
  0.00000000E+00  0.00000000E+00  0.00000000E+00
  0.00000000E+00  0.00000000E+00  0.00000000E+00
  0.00000000E+00  0.00000000E+00  0.00000000E+00
  0.00000000E+00  0.00000000E+00  0.00000000E+00
  0.00000000E+00  0.00000000E+00  0.00000000E+00
  0.00000000E+00  0.00000000E+00  0.00000000E+00
