 Gd4 Br6                                
   1.00000000000000     
     3.9163123047838058    0.0000000000000000    0.0000000000000000
     1.9581551696491779    9.8089199029207137    0.0000000000000000
     0.0000000000000000    0.0000000000000000   20.7149844759499970
   Gd   Br
     4     6
Direct
  0.2326142250314049  0.5348567398903583  0.4950166736964405
  0.8778590442542438  0.2448608962354442  0.4204395390181901
  0.8707531380106488  0.2580907606644942  0.5797559489545208
  0.5158491238464435  0.9681925165823628  0.5052788059616091
  0.2864664202580229  0.4274994740256801  0.3624903587361317
  0.4618036620666999  0.0757091311381899  0.6378660976184634
  0.4759693777036418  0.0496189118314376  0.3707584461295781
  0.2730397492752914  0.4532490952448640  0.6294424728808892
  0.1046737550212242  0.7898057798552856  0.5737435250336205
  0.6433735045323914  0.7133146945318671  0.4266303354708825
 
  0.00000000E+00  0.00000000E+00  0.00000000E+00
  0.00000000E+00  0.00000000E+00  0.00000000E+00
  0.00000000E+00  0.00000000E+00  0.00000000E+00
  0.00000000E+00  0.00000000E+00  0.00000000E+00
  0.00000000E+00  0.00000000E+00  0.00000000E+00
  0.00000000E+00  0.00000000E+00  0.00000000E+00
  0.00000000E+00  0.00000000E+00  0.00000000E+00
  0.00000000E+00  0.00000000E+00  0.00000000E+00
  0.00000000E+00  0.00000000E+00  0.00000000E+00
  0.00000000E+00  0.00000000E+00  0.00000000E+00
