G   52   20    1    0.005     # Parameters to Generate KPOINTS (Don't Edit This Line)
     522
Reciprocal lattice
    0.000000000000    0.000000000000    0.000000000000       1
    0.019230769231    0.000000000000    0.000000000000       2
    0.038461538462    0.000000000000    0.000000000000       2
    0.057692307692    0.000000000000    0.000000000000       2
    0.076923076923    0.000000000000    0.000000000000       2
    0.096153846154    0.000000000000    0.000000000000       2
    0.115384615385    0.000000000000    0.000000000000       2
    0.134615384615    0.000000000000    0.000000000000       2
    0.153846153846    0.000000000000    0.000000000000       2
    0.173076923077    0.000000000000    0.000000000000       2
    0.192307692308    0.000000000000    0.000000000000       2
    0.211538461538    0.000000000000    0.000000000000       2
    0.230769230769    0.000000000000    0.000000000000       2
    0.250000000000    0.000000000000    0.000000000000       2
    0.269230769231    0.000000000000    0.000000000000       2
    0.288461538462    0.000000000000    0.000000000000       2
    0.307692307692    0.000000000000    0.000000000000       2
    0.326923076923    0.000000000000    0.000000000000       2
    0.346153846154    0.000000000000    0.000000000000       2
    0.365384615385    0.000000000000    0.000000000000       2
    0.384615384615    0.000000000000    0.000000000000       2
    0.403846153846    0.000000000000    0.000000000000       2
    0.423076923077    0.000000000000    0.000000000000       2
    0.442307692308    0.000000000000    0.000000000000       2
    0.461538461538    0.000000000000    0.000000000000       2
    0.480769230769    0.000000000000    0.000000000000       2
    0.500000000000    0.000000000000    0.000000000000       1
    0.000000000000    0.050000000000    0.000000000000       2
    0.019230769231    0.050000000000    0.000000000000       2
    0.038461538462    0.050000000000    0.000000000000       2
    0.057692307692    0.050000000000    0.000000000000       2
    0.076923076923    0.050000000000    0.000000000000       2
    0.096153846154    0.050000000000    0.000000000000       2
    0.115384615385    0.050000000000    0.000000000000       2
    0.134615384615    0.050000000000    0.000000000000       2
    0.153846153846    0.050000000000    0.000000000000       2
    0.173076923077    0.050000000000    0.000000000000       2
    0.192307692308    0.050000000000    0.000000000000       2
    0.211538461538    0.050000000000    0.000000000000       2
    0.230769230769    0.050000000000    0.000000000000       2
    0.250000000000    0.050000000000    0.000000000000       2
    0.269230769231    0.050000000000    0.000000000000       2
    0.288461538462    0.050000000000    0.000000000000       2
    0.307692307692    0.050000000000    0.000000000000       2
    0.326923076923    0.050000000000    0.000000000000       2
    0.346153846154    0.050000000000    0.000000000000       2
    0.365384615385    0.050000000000    0.000000000000       2
    0.384615384615    0.050000000000    0.000000000000       2
    0.403846153846    0.050000000000    0.000000000000       2
    0.423076923077    0.050000000000    0.000000000000       2
    0.442307692308    0.050000000000    0.000000000000       2
    0.461538461538    0.050000000000    0.000000000000       2
    0.480769230769    0.050000000000    0.000000000000       2
    0.500000000000    0.050000000000    0.000000000000       2
   -0.480769230769    0.050000000000    0.000000000000       2
   -0.461538461538    0.050000000000    0.000000000000       2
   -0.442307692308    0.050000000000    0.000000000000       2
   -0.423076923077    0.050000000000    0.000000000000       2
   -0.403846153846    0.050000000000    0.000000000000       2
   -0.384615384615    0.050000000000    0.000000000000       2
   -0.365384615385    0.050000000000    0.000000000000       2
   -0.346153846154    0.050000000000    0.000000000000       2
   -0.326923076923    0.050000000000    0.000000000000       2
   -0.307692307692    0.050000000000    0.000000000000       2
   -0.288461538462    0.050000000000    0.000000000000       2
   -0.269230769231    0.050000000000    0.000000000000       2
   -0.250000000000    0.050000000000    0.000000000000       2
   -0.230769230769    0.050000000000    0.000000000000       2
   -0.211538461538    0.050000000000    0.000000000000       2
   -0.192307692308    0.050000000000    0.000000000000       2
   -0.173076923077    0.050000000000    0.000000000000       2
   -0.153846153846    0.050000000000    0.000000000000       2
   -0.134615384615    0.050000000000    0.000000000000       2
   -0.115384615385    0.050000000000    0.000000000000       2
   -0.096153846154    0.050000000000    0.000000000000       2
   -0.076923076923    0.050000000000    0.000000000000       2
   -0.057692307692    0.050000000000    0.000000000000       2
   -0.038461538462    0.050000000000    0.000000000000       2
   -0.019230769231    0.050000000000    0.000000000000       2
    0.000000000000    0.100000000000    0.000000000000       2
    0.019230769231    0.100000000000    0.000000000000       2
    0.038461538462    0.100000000000    0.000000000000       2
    0.057692307692    0.100000000000    0.000000000000       2
    0.076923076923    0.100000000000    0.000000000000       2
    0.096153846154    0.100000000000    0.000000000000       2
    0.115384615385    0.100000000000    0.000000000000       2
    0.134615384615    0.100000000000    0.000000000000       2
    0.153846153846    0.100000000000    0.000000000000       2
    0.173076923077    0.100000000000    0.000000000000       2
    0.192307692308    0.100000000000    0.000000000000       2
    0.211538461538    0.100000000000    0.000000000000       2
    0.230769230769    0.100000000000    0.000000000000       2
    0.250000000000    0.100000000000    0.000000000000       2
    0.269230769231    0.100000000000    0.000000000000       2
    0.288461538462    0.100000000000    0.000000000000       2
    0.307692307692    0.100000000000    0.000000000000       2
    0.326923076923    0.100000000000    0.000000000000       2
    0.346153846154    0.100000000000    0.000000000000       2
    0.365384615385    0.100000000000    0.000000000000       2
    0.384615384615    0.100000000000    0.000000000000       2
    0.403846153846    0.100000000000    0.000000000000       2
    0.423076923077    0.100000000000    0.000000000000       2
    0.442307692308    0.100000000000    0.000000000000       2
    0.461538461538    0.100000000000    0.000000000000       2
    0.480769230769    0.100000000000    0.000000000000       2
    0.500000000000    0.100000000000    0.000000000000       2
   -0.480769230769    0.100000000000    0.000000000000       2
   -0.461538461538    0.100000000000    0.000000000000       2
   -0.442307692308    0.100000000000    0.000000000000       2
   -0.423076923077    0.100000000000    0.000000000000       2
   -0.403846153846    0.100000000000    0.000000000000       2
   -0.384615384615    0.100000000000    0.000000000000       2
   -0.365384615385    0.100000000000    0.000000000000       2
   -0.346153846154    0.100000000000    0.000000000000       2
   -0.326923076923    0.100000000000    0.000000000000       2
   -0.307692307692    0.100000000000    0.000000000000       2
   -0.288461538462    0.100000000000    0.000000000000       2
   -0.269230769231    0.100000000000    0.000000000000       2
   -0.250000000000    0.100000000000    0.000000000000       2
   -0.230769230769    0.100000000000    0.000000000000       2
   -0.211538461538    0.100000000000    0.000000000000       2
   -0.192307692308    0.100000000000    0.000000000000       2
   -0.173076923077    0.100000000000    0.000000000000       2
   -0.153846153846    0.100000000000    0.000000000000       2
   -0.134615384615    0.100000000000    0.000000000000       2
   -0.115384615385    0.100000000000    0.000000000000       2
   -0.096153846154    0.100000000000    0.000000000000       2
   -0.076923076923    0.100000000000    0.000000000000       2
   -0.057692307692    0.100000000000    0.000000000000       2
   -0.038461538462    0.100000000000    0.000000000000       2
   -0.019230769231    0.100000000000    0.000000000000       2
    0.000000000000    0.150000000000    0.000000000000       2
    0.019230769231    0.150000000000    0.000000000000       2
    0.038461538462    0.150000000000    0.000000000000       2
    0.057692307692    0.150000000000    0.000000000000       2
    0.076923076923    0.150000000000    0.000000000000       2
    0.096153846154    0.150000000000    0.000000000000       2
    0.115384615385    0.150000000000    0.000000000000       2
    0.134615384615    0.150000000000    0.000000000000       2
    0.153846153846    0.150000000000    0.000000000000       2
    0.173076923077    0.150000000000    0.000000000000       2
    0.192307692308    0.150000000000    0.000000000000       2
    0.211538461538    0.150000000000    0.000000000000       2
    0.230769230769    0.150000000000    0.000000000000       2
    0.250000000000    0.150000000000    0.000000000000       2
    0.269230769231    0.150000000000    0.000000000000       2
    0.288461538462    0.150000000000    0.000000000000       2
    0.307692307692    0.150000000000    0.000000000000       2
    0.326923076923    0.150000000000    0.000000000000       2
    0.346153846154    0.150000000000    0.000000000000       2
    0.365384615385    0.150000000000    0.000000000000       2
    0.384615384615    0.150000000000    0.000000000000       2
    0.403846153846    0.150000000000    0.000000000000       2
    0.423076923077    0.150000000000    0.000000000000       2
    0.442307692308    0.150000000000    0.000000000000       2
    0.461538461538    0.150000000000    0.000000000000       2
    0.480769230769    0.150000000000    0.000000000000       2
    0.500000000000    0.150000000000    0.000000000000       2
   -0.480769230769    0.150000000000    0.000000000000       2
   -0.461538461538    0.150000000000    0.000000000000       2
   -0.442307692308    0.150000000000    0.000000000000       2
   -0.423076923077    0.150000000000    0.000000000000       2
   -0.403846153846    0.150000000000    0.000000000000       2
   -0.384615384615    0.150000000000    0.000000000000       2
   -0.365384615385    0.150000000000    0.000000000000       2
   -0.346153846154    0.150000000000    0.000000000000       2
   -0.326923076923    0.150000000000    0.000000000000       2
   -0.307692307692    0.150000000000    0.000000000000       2
   -0.288461538462    0.150000000000    0.000000000000       2
   -0.269230769231    0.150000000000    0.000000000000       2
   -0.250000000000    0.150000000000    0.000000000000       2
   -0.230769230769    0.150000000000    0.000000000000       2
   -0.211538461538    0.150000000000    0.000000000000       2
   -0.192307692308    0.150000000000    0.000000000000       2
   -0.173076923077    0.150000000000    0.000000000000       2
   -0.153846153846    0.150000000000    0.000000000000       2
   -0.134615384615    0.150000000000    0.000000000000       2
   -0.115384615385    0.150000000000    0.000000000000       2
   -0.096153846154    0.150000000000    0.000000000000       2
   -0.076923076923    0.150000000000    0.000000000000       2
   -0.057692307692    0.150000000000    0.000000000000       2
   -0.038461538462    0.150000000000    0.000000000000       2
   -0.019230769231    0.150000000000    0.000000000000       2
    0.000000000000    0.200000000000    0.000000000000       2
    0.019230769231    0.200000000000    0.000000000000       2
    0.038461538462    0.200000000000    0.000000000000       2
    0.057692307692    0.200000000000    0.000000000000       2
    0.076923076923    0.200000000000    0.000000000000       2
    0.096153846154    0.200000000000    0.000000000000       2
    0.115384615385    0.200000000000    0.000000000000       2
    0.134615384615    0.200000000000    0.000000000000       2
    0.153846153846    0.200000000000    0.000000000000       2
    0.173076923077    0.200000000000    0.000000000000       2
    0.192307692308    0.200000000000    0.000000000000       2
    0.211538461538    0.200000000000    0.000000000000       2
    0.230769230769    0.200000000000    0.000000000000       2
    0.250000000000    0.200000000000    0.000000000000       2
    0.269230769231    0.200000000000    0.000000000000       2
    0.288461538462    0.200000000000    0.000000000000       2
    0.307692307692    0.200000000000    0.000000000000       2
    0.326923076923    0.200000000000    0.000000000000       2
    0.346153846154    0.200000000000    0.000000000000       2
    0.365384615385    0.200000000000    0.000000000000       2
    0.384615384615    0.200000000000    0.000000000000       2
    0.403846153846    0.200000000000    0.000000000000       2
    0.423076923077    0.200000000000    0.000000000000       2
    0.442307692308    0.200000000000    0.000000000000       2
    0.461538461538    0.200000000000    0.000000000000       2
    0.480769230769    0.200000000000    0.000000000000       2
    0.500000000000    0.200000000000    0.000000000000       2
   -0.480769230769    0.200000000000    0.000000000000       2
   -0.461538461538    0.200000000000    0.000000000000       2
   -0.442307692308    0.200000000000    0.000000000000       2
   -0.423076923077    0.200000000000    0.000000000000       2
   -0.403846153846    0.200000000000    0.000000000000       2
   -0.384615384615    0.200000000000    0.000000000000       2
   -0.365384615385    0.200000000000    0.000000000000       2
   -0.346153846154    0.200000000000    0.000000000000       2
   -0.326923076923    0.200000000000    0.000000000000       2
   -0.307692307692    0.200000000000    0.000000000000       2
   -0.288461538462    0.200000000000    0.000000000000       2
   -0.269230769231    0.200000000000    0.000000000000       2
   -0.250000000000    0.200000000000    0.000000000000       2
   -0.230769230769    0.200000000000    0.000000000000       2
   -0.211538461538    0.200000000000    0.000000000000       2
   -0.192307692308    0.200000000000    0.000000000000       2
   -0.173076923077    0.200000000000    0.000000000000       2
   -0.153846153846    0.200000000000    0.000000000000       2
   -0.134615384615    0.200000000000    0.000000000000       2
   -0.115384615385    0.200000000000    0.000000000000       2
   -0.096153846154    0.200000000000    0.000000000000       2
   -0.076923076923    0.200000000000    0.000000000000       2
   -0.057692307692    0.200000000000    0.000000000000       2
   -0.038461538462    0.200000000000    0.000000000000       2
   -0.019230769231    0.200000000000    0.000000000000       2
    0.000000000000    0.250000000000    0.000000000000       2
    0.019230769231    0.250000000000    0.000000000000       2
    0.038461538462    0.250000000000    0.000000000000       2
    0.057692307692    0.250000000000    0.000000000000       2
    0.076923076923    0.250000000000    0.000000000000       2
    0.096153846154    0.250000000000    0.000000000000       2
    0.115384615385    0.250000000000    0.000000000000       2
    0.134615384615    0.250000000000    0.000000000000       2
    0.153846153846    0.250000000000    0.000000000000       2
    0.173076923077    0.250000000000    0.000000000000       2
    0.192307692308    0.250000000000    0.000000000000       2
    0.211538461538    0.250000000000    0.000000000000       2
    0.230769230769    0.250000000000    0.000000000000       2
    0.250000000000    0.250000000000    0.000000000000       2
    0.269230769231    0.250000000000    0.000000000000       2
    0.288461538462    0.250000000000    0.000000000000       2
    0.307692307692    0.250000000000    0.000000000000       2
    0.326923076923    0.250000000000    0.000000000000       2
    0.346153846154    0.250000000000    0.000000000000       2
    0.365384615385    0.250000000000    0.000000000000       2
    0.384615384615    0.250000000000    0.000000000000       2
    0.403846153846    0.250000000000    0.000000000000       2
    0.423076923077    0.250000000000    0.000000000000       2
    0.442307692308    0.250000000000    0.000000000000       2
    0.461538461538    0.250000000000    0.000000000000       2
    0.480769230769    0.250000000000    0.000000000000       2
    0.500000000000    0.250000000000    0.000000000000       2
   -0.480769230769    0.250000000000    0.000000000000       2
   -0.461538461538    0.250000000000    0.000000000000       2
   -0.442307692308    0.250000000000    0.000000000000       2
   -0.423076923077    0.250000000000    0.000000000000       2
   -0.403846153846    0.250000000000    0.000000000000       2
   -0.384615384615    0.250000000000    0.000000000000       2
   -0.365384615385    0.250000000000    0.000000000000       2
   -0.346153846154    0.250000000000    0.000000000000       2
   -0.326923076923    0.250000000000    0.000000000000       2
   -0.307692307692    0.250000000000    0.000000000000       2
   -0.288461538462    0.250000000000    0.000000000000       2
   -0.269230769231    0.250000000000    0.000000000000       2
   -0.250000000000    0.250000000000    0.000000000000       2
   -0.230769230769    0.250000000000    0.000000000000       2
   -0.211538461538    0.250000000000    0.000000000000       2
   -0.192307692308    0.250000000000    0.000000000000       2
   -0.173076923077    0.250000000000    0.000000000000       2
   -0.153846153846    0.250000000000    0.000000000000       2
   -0.134615384615    0.250000000000    0.000000000000       2
   -0.115384615385    0.250000000000    0.000000000000       2
   -0.096153846154    0.250000000000    0.000000000000       2
   -0.076923076923    0.250000000000    0.000000000000       2
   -0.057692307692    0.250000000000    0.000000000000       2
   -0.038461538462    0.250000000000    0.000000000000       2
   -0.019230769231    0.250000000000    0.000000000000       2
    0.000000000000    0.300000000000    0.000000000000       2
    0.019230769231    0.300000000000    0.000000000000       2
    0.038461538462    0.300000000000    0.000000000000       2
    0.057692307692    0.300000000000    0.000000000000       2
    0.076923076923    0.300000000000    0.000000000000       2
    0.096153846154    0.300000000000    0.000000000000       2
    0.115384615385    0.300000000000    0.000000000000       2
    0.134615384615    0.300000000000    0.000000000000       2
    0.153846153846    0.300000000000    0.000000000000       2
    0.173076923077    0.300000000000    0.000000000000       2
    0.192307692308    0.300000000000    0.000000000000       2
    0.211538461538    0.300000000000    0.000000000000       2
    0.230769230769    0.300000000000    0.000000000000       2
    0.250000000000    0.300000000000    0.000000000000       2
    0.269230769231    0.300000000000    0.000000000000       2
    0.288461538462    0.300000000000    0.000000000000       2
    0.307692307692    0.300000000000    0.000000000000       2
    0.326923076923    0.300000000000    0.000000000000       2
    0.346153846154    0.300000000000    0.000000000000       2
    0.365384615385    0.300000000000    0.000000000000       2
    0.384615384615    0.300000000000    0.000000000000       2
    0.403846153846    0.300000000000    0.000000000000       2
    0.423076923077    0.300000000000    0.000000000000       2
    0.442307692308    0.300000000000    0.000000000000       2
    0.461538461538    0.300000000000    0.000000000000       2
    0.480769230769    0.300000000000    0.000000000000       2
    0.500000000000    0.300000000000    0.000000000000       2
   -0.480769230769    0.300000000000    0.000000000000       2
   -0.461538461538    0.300000000000    0.000000000000       2
   -0.442307692308    0.300000000000    0.000000000000       2
   -0.423076923077    0.300000000000    0.000000000000       2
   -0.403846153846    0.300000000000    0.000000000000       2
   -0.384615384615    0.300000000000    0.000000000000       2
   -0.365384615385    0.300000000000    0.000000000000       2
   -0.346153846154    0.300000000000    0.000000000000       2
   -0.326923076923    0.300000000000    0.000000000000       2
   -0.307692307692    0.300000000000    0.000000000000       2
   -0.288461538462    0.300000000000    0.000000000000       2
   -0.269230769231    0.300000000000    0.000000000000       2
   -0.250000000000    0.300000000000    0.000000000000       2
   -0.230769230769    0.300000000000    0.000000000000       2
   -0.211538461538    0.300000000000    0.000000000000       2
   -0.192307692308    0.300000000000    0.000000000000       2
   -0.173076923077    0.300000000000    0.000000000000       2
   -0.153846153846    0.300000000000    0.000000000000       2
   -0.134615384615    0.300000000000    0.000000000000       2
   -0.115384615385    0.300000000000    0.000000000000       2
   -0.096153846154    0.300000000000    0.000000000000       2
   -0.076923076923    0.300000000000    0.000000000000       2
   -0.057692307692    0.300000000000    0.000000000000       2
   -0.038461538462    0.300000000000    0.000000000000       2
   -0.019230769231    0.300000000000    0.000000000000       2
    0.000000000000    0.350000000000    0.000000000000       2
    0.019230769231    0.350000000000    0.000000000000       2
    0.038461538462    0.350000000000    0.000000000000       2
    0.057692307692    0.350000000000    0.000000000000       2
    0.076923076923    0.350000000000    0.000000000000       2
    0.096153846154    0.350000000000    0.000000000000       2
    0.115384615385    0.350000000000    0.000000000000       2
    0.134615384615    0.350000000000    0.000000000000       2
    0.153846153846    0.350000000000    0.000000000000       2
    0.173076923077    0.350000000000    0.000000000000       2
    0.192307692308    0.350000000000    0.000000000000       2
    0.211538461538    0.350000000000    0.000000000000       2
    0.230769230769    0.350000000000    0.000000000000       2
    0.250000000000    0.350000000000    0.000000000000       2
    0.269230769231    0.350000000000    0.000000000000       2
    0.288461538462    0.350000000000    0.000000000000       2
    0.307692307692    0.350000000000    0.000000000000       2
    0.326923076923    0.350000000000    0.000000000000       2
    0.346153846154    0.350000000000    0.000000000000       2
    0.365384615385    0.350000000000    0.000000000000       2
    0.384615384615    0.350000000000    0.000000000000       2
    0.403846153846    0.350000000000    0.000000000000       2
    0.423076923077    0.350000000000    0.000000000000       2
    0.442307692308    0.350000000000    0.000000000000       2
    0.461538461538    0.350000000000    0.000000000000       2
    0.480769230769    0.350000000000    0.000000000000       2
    0.500000000000    0.350000000000    0.000000000000       2
   -0.480769230769    0.350000000000    0.000000000000       2
   -0.461538461538    0.350000000000    0.000000000000       2
   -0.442307692308    0.350000000000    0.000000000000       2
   -0.423076923077    0.350000000000    0.000000000000       2
   -0.403846153846    0.350000000000    0.000000000000       2
   -0.384615384615    0.350000000000    0.000000000000       2
   -0.365384615385    0.350000000000    0.000000000000       2
   -0.346153846154    0.350000000000    0.000000000000       2
   -0.326923076923    0.350000000000    0.000000000000       2
   -0.307692307692    0.350000000000    0.000000000000       2
   -0.288461538462    0.350000000000    0.000000000000       2
   -0.269230769231    0.350000000000    0.000000000000       2
   -0.250000000000    0.350000000000    0.000000000000       2
   -0.230769230769    0.350000000000    0.000000000000       2
   -0.211538461538    0.350000000000    0.000000000000       2
   -0.192307692308    0.350000000000    0.000000000000       2
   -0.173076923077    0.350000000000    0.000000000000       2
   -0.153846153846    0.350000000000    0.000000000000       2
   -0.134615384615    0.350000000000    0.000000000000       2
   -0.115384615385    0.350000000000    0.000000000000       2
   -0.096153846154    0.350000000000    0.000000000000       2
   -0.076923076923    0.350000000000    0.000000000000       2
   -0.057692307692    0.350000000000    0.000000000000       2
   -0.038461538462    0.350000000000    0.000000000000       2
   -0.019230769231    0.350000000000    0.000000000000       2
    0.000000000000    0.400000000000    0.000000000000       2
    0.019230769231    0.400000000000    0.000000000000       2
    0.038461538462    0.400000000000    0.000000000000       2
    0.057692307692    0.400000000000    0.000000000000       2
    0.076923076923    0.400000000000    0.000000000000       2
    0.096153846154    0.400000000000    0.000000000000       2
    0.115384615385    0.400000000000    0.000000000000       2
    0.134615384615    0.400000000000    0.000000000000       2
    0.153846153846    0.400000000000    0.000000000000       2
    0.173076923077    0.400000000000    0.000000000000       2
    0.192307692308    0.400000000000    0.000000000000       2
    0.211538461538    0.400000000000    0.000000000000       2
    0.230769230769    0.400000000000    0.000000000000       2
    0.250000000000    0.400000000000    0.000000000000       2
    0.269230769231    0.400000000000    0.000000000000       2
    0.288461538462    0.400000000000    0.000000000000       2
    0.307692307692    0.400000000000    0.000000000000       2
    0.326923076923    0.400000000000    0.000000000000       2
    0.346153846154    0.400000000000    0.000000000000       2
    0.365384615385    0.400000000000    0.000000000000       2
    0.384615384615    0.400000000000    0.000000000000       2
    0.403846153846    0.400000000000    0.000000000000       2
    0.423076923077    0.400000000000    0.000000000000       2
    0.442307692308    0.400000000000    0.000000000000       2
    0.461538461538    0.400000000000    0.000000000000       2
    0.480769230769    0.400000000000    0.000000000000       2
    0.500000000000    0.400000000000    0.000000000000       2
   -0.480769230769    0.400000000000    0.000000000000       2
   -0.461538461538    0.400000000000    0.000000000000       2
   -0.442307692308    0.400000000000    0.000000000000       2
   -0.423076923077    0.400000000000    0.000000000000       2
   -0.403846153846    0.400000000000    0.000000000000       2
   -0.384615384615    0.400000000000    0.000000000000       2
   -0.365384615385    0.400000000000    0.000000000000       2
   -0.346153846154    0.400000000000    0.000000000000       2
   -0.326923076923    0.400000000000    0.000000000000       2
   -0.307692307692    0.400000000000    0.000000000000       2
   -0.288461538462    0.400000000000    0.000000000000       2
   -0.269230769231    0.400000000000    0.000000000000       2
   -0.250000000000    0.400000000000    0.000000000000       2
   -0.230769230769    0.400000000000    0.000000000000       2
   -0.211538461538    0.400000000000    0.000000000000       2
   -0.192307692308    0.400000000000    0.000000000000       2
   -0.173076923077    0.400000000000    0.000000000000       2
   -0.153846153846    0.400000000000    0.000000000000       2
   -0.134615384615    0.400000000000    0.000000000000       2
   -0.115384615385    0.400000000000    0.000000000000       2
   -0.096153846154    0.400000000000    0.000000000000       2
   -0.076923076923    0.400000000000    0.000000000000       2
   -0.057692307692    0.400000000000    0.000000000000       2
   -0.038461538462    0.400000000000    0.000000000000       2
   -0.019230769231    0.400000000000    0.000000000000       2
    0.000000000000    0.450000000000    0.000000000000       2
    0.019230769231    0.450000000000    0.000000000000       2
    0.038461538462    0.450000000000    0.000000000000       2
    0.057692307692    0.450000000000    0.000000000000       2
    0.076923076923    0.450000000000    0.000000000000       2
    0.096153846154    0.450000000000    0.000000000000       2
    0.115384615385    0.450000000000    0.000000000000       2
    0.134615384615    0.450000000000    0.000000000000       2
    0.153846153846    0.450000000000    0.000000000000       2
    0.173076923077    0.450000000000    0.000000000000       2
    0.192307692308    0.450000000000    0.000000000000       2
    0.211538461538    0.450000000000    0.000000000000       2
    0.230769230769    0.450000000000    0.000000000000       2
    0.250000000000    0.450000000000    0.000000000000       2
    0.269230769231    0.450000000000    0.000000000000       2
    0.288461538462    0.450000000000    0.000000000000       2
    0.307692307692    0.450000000000    0.000000000000       2
    0.326923076923    0.450000000000    0.000000000000       2
    0.346153846154    0.450000000000    0.000000000000       2
    0.365384615385    0.450000000000    0.000000000000       2
    0.384615384615    0.450000000000    0.000000000000       2
    0.403846153846    0.450000000000    0.000000000000       2
    0.423076923077    0.450000000000    0.000000000000       2
    0.442307692308    0.450000000000    0.000000000000       2
    0.461538461538    0.450000000000    0.000000000000       2
    0.480769230769    0.450000000000    0.000000000000       2
    0.500000000000    0.450000000000    0.000000000000       2
   -0.480769230769    0.450000000000    0.000000000000       2
   -0.461538461538    0.450000000000    0.000000000000       2
   -0.442307692308    0.450000000000    0.000000000000       2
   -0.423076923077    0.450000000000    0.000000000000       2