CONTCAR                                 
   1.00000000000000     
    11.2263002396000005    0.0000000000000000    0.0000000000000000
     0.0000000000000000   21.7961997986000000    0.0000000000000000
     0.0000000000000000    0.0000000000000000   19.3752994536999985
   Ta   Te   Pd   O 
     9    42     9     1
Direct
  0.1633172641105887  0.4782265188257497  0.5066213725608577
  0.1666222031736169  0.1241030465044091  0.4983145898068670
  0.1691214651160919  0.7779548884002097  0.5120810389982609
  0.4965951781534201  0.4769181005606598  0.5071406352538901
  0.4997562604103862  0.1241518533581143  0.4981252259068043
  0.5013335103888181  0.7772413962450884  0.5121278156892828
  0.8294443931078490  0.4782599242597456  0.5053157381745450
  0.8335346577805964  0.1246483202851252  0.4990340854456790
  0.8345703702809999  0.7784717645076356  0.5100086049484887
  0.9971469435150837  0.4102498208255412  0.4248984068814394
  0.1662374488750018  0.2411383956473543  0.4253966649207470
  0.1693145337746671  0.8926168735430124  0.5844928631343080
  0.0024229174190609  0.8448084886473595  0.4307381562507828
  0.9967378039017660  0.5509670430586340  0.4305996144044570
  0.9955360916420517  0.4824873985959428  0.6178748450182781
  0.1669243585865630  0.0053250775608333  0.4288232168456219
  0.0000864051203848  0.0560718675044143  0.5793772429508337
  0.1583990479937611  0.5981960590715616  0.5733619580545053
  0.0005860784755072  0.1976816095514238  0.5734738004470685
  0.1660405014541269  0.7000430318654054  0.4049464722915275
  0.9994894356587025  0.1222964356235607  0.3862802093730906
  0.9990626984013744  0.7445911918769710  0.6094983472634397
  0.1696371905380332  0.3604634487755263  0.5793890248580311
  0.3300392243667503  0.4102365579374236  0.4255807442384452
  0.4985074872448649  0.2408770163524991  0.4248275630773577
  0.4992186167479815  0.8919176293251212  0.5847415544148973
  0.3345277218392440  0.8434509817060558  0.4300834091959729
  0.3303740537635420  0.5513007514351500  0.4329344110743563
  0.3300403737850672  0.4743624086716522  0.6223474258854225
  0.5002272741285054  0.0056474326667768  0.4279741567341375
  0.3333860066259007  0.0553240070701051  0.5784529709619832
  0.4930017155862672  0.5942512525109720  0.5783031020455667
  0.3331497039102871  0.1968179611450012  0.5737668305197516
  0.5000654240280298  0.6981807139009746  0.4063151636662425
  0.3329387599573010  0.1229436408773807  0.3858432238303919
  0.3342955273404868  0.7432715230059870  0.6111099097050783
  0.4982140063935532  0.3583108164008664  0.5777938998613195
  0.6633878104702902  0.4093338952003478  0.4264552273599307
  0.8343813438936536  0.2422632884290863  0.4276750395143196
  0.8331374920707546  0.8923451465800269  0.5842518045342970
  0.6659186888033091  0.8447008981926700  0.4303236658177099
  0.6596119988943556  0.5541454678753439  0.4335548907691162
  0.6650694061548208  0.4816939798685240  0.6191077969561576
  0.8339290571446014  0.0056731300012913  0.4298554621829993
  0.6666708663373910  0.0551255101673576  0.5782410103920128
  0.8281030219308434  0.5968122482072360  0.5740537777566388
  0.6656434673121154  0.1975742866582024  0.5738646777305121
  0.8440166015763495  0.7030136690842710  0.4002197210314833
  0.6678476434657199  0.1239777554802970  0.3860979933871818
  0.6679491408928158  0.7431445713118592  0.6094453323477751
  0.8306038620055389  0.3602432039897820  0.5775897360786786
  0.0012210496507450  0.9480867106560780  0.5069254047335932
  0.0010916883693994  0.3030450144988279  0.5004711079209656
  0.9975975169500302  0.6625577626201604  0.5012166867131356
  0.3346387429523929  0.9479622085509618  0.5051934175359705
  0.3323717657241332  0.3014486304428985  0.4991923083170420
  0.3319030145500506  0.6626839234294977  0.5027823485349856
  0.6659712304417127  0.9479198876936863  0.5062157324435503
  0.6645099629623203  0.3019384161031979  0.4994326521745904
  0.6742343603873522  0.6668493480594222  0.4981066390731215
  0.3736973524631040  0.5639258297987837  0.6500337130044684
 
  0.00000000E+00  0.00000000E+00  0.00000000E+00
  0.00000000E+00  0.00000000E+00  0.00000000E+00
  0.00000000E+00  0.00000000E+00  0.00000000E+00
  0.00000000E+00  0.00000000E+00  0.00000000E+00
  0.00000000E+00  0.00000000E+00  0.00000000E+00
  0.00000000E+00  0.00000000E+00  0.00000000E+00
  0.00000000E+00  0.00000000E+00  0.00000000E+00
  0.00000000E+00  0.00000000E+00  0.00000000E+00
  0.00000000E+00  0.00000000E+00  0.00000000E+00
  0.00000000E+00  0.00000000E+00  0.00000000E+00
  0.00000000E+00  0.00000000E+00  0.00000000E+00
  0.00000000E+00  0.00000000E+00  0.00000000E+00
  0.00000000E+00  0.00000000E+00  0.00000000E+00
  0.00000000E+00  0.00000000E+00  0.00000000E+00
  0.00000000E+00  0.00000000E+00  0.00000000E+00
  0.00000000E+00  0.00000000E+00  0.00000000E+00
  0.00000000E+00  0.00000000E+00  0.00000000E+00
  0.00000000E+00  0.00000000E+00  0.00000000E+00
  0.00000000E+00  0.00000000E+00  0.00000000E+00
  0.00000000E+00  0.00000000E+00  0.00000000E+00
  0.00000000E+00  0.00000000E+00  0.00000000E+00
  0.00000000E+00  0.00000000E+00  0.00000000E+00
  0.00000000E+00  0.00000000E+00  0.00000000E+00
  0.00000000E+00  0.00000000E+00  0.00000000E+00
  0.00000000E+00  0.00000000E+00  0.00000000E+00
  0.00000000E+00  0.00000000E+00  0.00000000E+00
  0.00000000E+00  0.00000000E+00  0.00000000E+00
  0.00000000E+00  0.00000000E+00  0.00000000E+00
  0.00000000E+00  0.00000000E+00  0.00000000E+00
  0.00000000E+00  0.00000000E+00  0.00000000E+00
  0.00000000E+00  0.00000000E+00  0.00000000E+00
  0.00000000E+00  0.00000000E+00  0.00000000E+00
  0.00000000E+00  0.00000000E+00  0.00000000E+00
  0.00000000E+00  0.00000000E+00  0.00000000E+00
  0.00000000E+00  0.00000000E+00  0.00000000E+00
  0.00000000E+00  0.00000000E+00  0.00000000E+00
  0.00000000E+00  0.00000000E+00  0.00000000E+00
  0.00000000E+00  0.00000000E+00  0.00000000E+00
  0.00000000E+00  0.00000000E+00  0.00000000E+00
  0.00000000E+00  0.00000000E+00  0.00000000E+00
  0.00000000E+00  0.00000000E+00  0.00000000E+00
  0.00000000E+00  0.00000000E+00  0.00000000E+00
  0.00000000E+00  0.00000000E+00  0.00000000E+00
  0.00000000E+00  0.00000000E+00  0.00000000E+00
  0.00000000E+00  0.00000000E+00  0.00000000E+00
  0.00000000E+00  0.00000000E+00  0.00000000E+00
  0.00000000E+00  0.00000000E+00  0.00000000E+00
  0.00000000E+00  0.00000000E+00  0.00000000E+00
  0.00000000E+00  0.00000000E+00  0.00000000E+00
  0.00000000E+00  0.00000000E+00  0.00000000E+00
  0.00000000E+00  0.00000000E+00  0.00000000E+00
  0.00000000E+00  0.00000000E+00  0.00000000E+00
  0.00000000E+00  0.00000000E+00  0.00000000E+00
  0.00000000E+00  0.00000000E+00  0.00000000E+00
  0.00000000E+00  0.00000000E+00  0.00000000E+00
  0.00000000E+00  0.00000000E+00  0.00000000E+00
  0.00000000E+00  0.00000000E+00  0.00000000E+00
  0.00000000E+00  0.00000000E+00  0.00000000E+00
  0.00000000E+00  0.00000000E+00  0.00000000E+00
  0.00000000E+00  0.00000000E+00  0.00000000E+00
  0.00000000E+00  0.00000000E+00  0.00000000E+00
