CONTCAR\(10)                            
   1.00000000000000     
     9.7571001052999993    0.0000000000000000    0.0000000000000000
    -3.0063686365000000   15.8319856181999992    0.0000000000000000
     0.0000000000000000    0.0000000000000000   18.2793006897000012
   V    P    S    O 
     4     8    26     1
Direct
  0.6179642769384329  0.6031135220153093  0.4976488592470470
  0.6211582752073007  0.1031141845743368  0.5025566550448434
  0.3891427014988414  0.3931265671945536  0.5036753968806449
  0.3874025937875355  0.8953259232471774  0.4982809691303332
  0.8327205678330454  0.2598172210255701  0.4968018508859949
  0.6960689255512408  0.4332653326559006  0.5395083459062350
  0.1744355771489420  0.7390791138430174  0.5066078769814617
  0.1718886990928058  0.2375120494756217  0.4926341678508603
  0.3124518465978862  0.0659980462493675  0.5397936535455119
  0.6983527393904624  0.9331304577040127  0.4603515040435597
  0.3044017302107895  0.5637282147761552  0.4657724080846355
  0.8309734713540042  0.7598580167129584  0.5031748409457159
  0.1204179817312176  0.1103508709606232  0.5318165834843314
  0.8898853564168132  0.8897899947615636  0.4714406915349412
  0.0009668835702209  0.7504347959095328  0.5748193274331216
  0.3961034892829107  0.0393202658690178  0.4402509770331263
  0.5409155516490485  0.3543210910966604  0.5929367443734906
  0.2323530184829094  0.4497593424820552  0.4204606403572951
  0.1949563338401410  0.3274691864895847  0.5854633904815858
  0.6645835609673688  0.7319631903171890  0.5698930604136488
  0.4566571183661542  0.6418213078171280  0.4107764413633283
  0.6131007067098938  0.4596223036991827  0.4399459171245240
  0.6660398664206476  0.2329761725676388  0.4305383057083459
  0.8882626979811374  0.3889777067773112  0.5302861780639514
  0.0031278900901100  0.2509749162726756  0.4237897570844253
  0.6133207543704398  0.9595134038126242  0.5597581693539212
  0.8045494076481172  0.6789959679538269  0.4189154899103438
  0.3978668784327486  0.5386165121651694  0.5629151248142502
  0.2012170244414624  0.8179883373032948  0.4207619492154149
  0.7611559794414990  0.5460625238808376  0.5880189589491159
  0.5434377191424423  0.8523191068660436  0.4101569596591111
  0.2482807343513393  0.9530984469314292  0.5886451196945716
  0.3412159511088171  0.7671509834443184  0.5726710037602700
  0.8113905080327038  0.1774873211031299  0.5798232315997573
  0.7617514994414982  0.0457553515903580  0.4113307230863454
  0.4678456013363816  0.1449558211177362  0.5912656640077403
  0.1145181904552698  0.6083093480232726  0.4787104897298980
  0.3453188582945773  0.2656040214447105  0.4306344207270879
  0.2442488323828233  0.2857731888691072  0.6517183214892023
 
  0.00000000E+00  0.00000000E+00  0.00000000E+00
  0.00000000E+00  0.00000000E+00  0.00000000E+00
  0.00000000E+00  0.00000000E+00  0.00000000E+00
  0.00000000E+00  0.00000000E+00  0.00000000E+00
  0.00000000E+00  0.00000000E+00  0.00000000E+00
  0.00000000E+00  0.00000000E+00  0.00000000E+00
  0.00000000E+00  0.00000000E+00  0.00000000E+00
  0.00000000E+00  0.00000000E+00  0.00000000E+00
  0.00000000E+00  0.00000000E+00  0.00000000E+00
  0.00000000E+00  0.00000000E+00  0.00000000E+00
  0.00000000E+00  0.00000000E+00  0.00000000E+00
  0.00000000E+00  0.00000000E+00  0.00000000E+00
  0.00000000E+00  0.00000000E+00  0.00000000E+00
  0.00000000E+00  0.00000000E+00  0.00000000E+00
  0.00000000E+00  0.00000000E+00  0.00000000E+00
  0.00000000E+00  0.00000000E+00  0.00000000E+00
  0.00000000E+00  0.00000000E+00  0.00000000E+00
  0.00000000E+00  0.00000000E+00  0.00000000E+00
  0.00000000E+00  0.00000000E+00  0.00000000E+00
  0.00000000E+00  0.00000000E+00  0.00000000E+00
  0.00000000E+00  0.00000000E+00  0.00000000E+00
  0.00000000E+00  0.00000000E+00  0.00000000E+00
  0.00000000E+00  0.00000000E+00  0.00000000E+00
  0.00000000E+00  0.00000000E+00  0.00000000E+00
  0.00000000E+00  0.00000000E+00  0.00000000E+00
  0.00000000E+00  0.00000000E+00  0.00000000E+00
  0.00000000E+00  0.00000000E+00  0.00000000E+00
  0.00000000E+00  0.00000000E+00  0.00000000E+00
  0.00000000E+00  0.00000000E+00  0.00000000E+00
  0.00000000E+00  0.00000000E+00  0.00000000E+00
  0.00000000E+00  0.00000000E+00  0.00000000E+00
  0.00000000E+00  0.00000000E+00  0.00000000E+00
  0.00000000E+00  0.00000000E+00  0.00000000E+00
  0.00000000E+00  0.00000000E+00  0.00000000E+00
  0.00000000E+00  0.00000000E+00  0.00000000E+00
  0.00000000E+00  0.00000000E+00  0.00000000E+00
  0.00000000E+00  0.00000000E+00  0.00000000E+00
  0.00000000E+00  0.00000000E+00  0.00000000E+00
  0.00000000E+00  0.00000000E+00  0.00000000E+00
