CONTCAR                                 
   1.00000000000000     
    12.9361000061000002    0.0000000000000000    0.0000000000000000
     0.0000000000000000   12.9357995986999992    0.0000000000000000
     0.0000000000000000    0.0000000000000000   24.1072998046999984
   Dy   Te   O    H 
    18    54     2     1
Direct
  0.1672321248814568  0.0032217889419767  0.5858751297381776
  0.0010537646300661  0.1698314548128275  0.4161486117624301
  0.5021874695388442  0.0029985205700151  0.5852242195386502
  0.3339360598648730  0.1687295725195373  0.4149059656098062
  0.8368060933373198  0.0032303960836928  0.5861640680882532
  0.6684230341470403  0.1689529115891769  0.4152026480801793
  0.1678258873193766  0.3369446909457536  0.5861624141979326
  0.0011406941208975  0.5028153635100506  0.4163213735904866
  0.5001195570735287  0.3271516756332336  0.5815147074096827
  0.3345401687201092  0.5027431141607591  0.4153771194531425
  0.8352991116466798  0.3366197697313456  0.5868587605404602
  0.6672109349869454  0.5029578404639166  0.4157133039746003
  0.1678420700724377  0.6692422025624908  0.5861595716207411
  0.0010770283654518  0.8358693588021620  0.4159729583525316
  0.5001961032631306  0.6786889382490913  0.5819693713834972
  0.3338600988931166  0.8367787299719842  0.4149292928983876
  0.8360014873091016  0.6693453452509152  0.5865482547282131
  0.6684107766656541  0.8367308581845289  0.4151643319896750
  0.0010380089163178  0.0023193416415469  0.3125969375315395
  0.1686804504212299  0.1706130659081824  0.6898886299615420
  0.0044104190841365  0.0038686377536653  0.6900077250164286
  0.1676534611731275  0.1691277887881459  0.3123434143441409
  0.1668889431697376  0.0027812174606220  0.4542592300630971
  0.0013414198372676  0.1706856532574332  0.5477465139918059
  0.3342020132884321  0.0025819460904388  0.3115897912341788
  0.5011274449090906  0.1695278385663235  0.6876475992226526
  0.3357035321294110  0.0033870384517156  0.6889113214957879
  0.5011900901218489  0.1693022566371385  0.3119197193637643
  0.5012959008880298  0.0025675388374210  0.4538984564166317
  0.3330735147066863  0.1675446047259542  0.5462201559884734
  0.6680403161543118  0.0029541528987170  0.3118006601947091
  0.8349324260670501  0.1698992927765861  0.6903274839720693
  0.6704197153802183  0.0035271570600234  0.6894383063339750
  0.8349564850473459  0.1692526157866269  0.3126684524538107
  0.8354041114192844  0.0029169879605624  0.4544798122589847
  0.6699603532617989  0.1682731201954126  0.5467064563445564
  0.0014968704749715  0.3361919441019711  0.3131675712740553
  0.1709826916107669  0.5031886043147566  0.6897074694919316
  0.0018950908173813  0.3365342576496166  0.6904088041873657
  0.1678518432027566  0.5028805930562465  0.3126693049636825
  0.1685715639895472  0.3365677919719542  0.4547177631863645
  0.0013141785735073  0.5027520029165643  0.5479071863812881
  0.3343981675334686  0.3358939526137658  0.3118661009878502
  0.5066286747291017  0.5039125482691937  0.6781548173383152
  0.3357688675042629  0.3370666010160235  0.6882468238932568
  0.5010618352470592  0.5023334800982137  0.3124059646989474
  0.5011383900118399  0.3350117247526787  0.4525826309753246
  0.3368076103142378  0.5030819216580849  0.5476694233784996
  0.6680091433186448  0.3360432020185360  0.3123367943599549
  0.8366508972416768  0.5025784727362830  0.6904585425859521
  0.6683321362761404  0.3358206280822109  0.6898717113551707
  0.8345065621527437  0.5026470715692138  0.3128705159132975
  0.8333672290654762  0.3373238799879522  0.4552038366962579
  0.6651624214950271  0.5029858908728817  0.5491245748543453
  0.0011022185820089  0.6693601633171100  0.3129549638638338
  0.1677678131927027  0.8372133153036718  0.6896845103623239
  0.0018421029164703  0.6696565511975970  0.6901051021961251
  0.1676061281986313  0.8359912654841624  0.3123256475604702
  0.1684242167561810  0.6688426434759520  0.4547303834142169
  0.0017077831633653  0.8358370055786036  0.5474396461973887
  0.3346112109488824  0.6692502978863502  0.3120603409785760
  0.5012190714392101  0.8373037763313483  0.6879250730088612
  0.3351946944170765  0.6700294340160199  0.6883821665825105
  0.5016105056892862  0.8362093792529743  0.3117533502061892
  0.5009291947808274  0.6708430660357912  0.4527681006078932
  0.3329657814476971  0.8381730944850402  0.5464278747389010
  0.6680367583048900  0.6690706950492291  0.3122962531398472
  0.8360420302506893  0.8378212740195629  0.6899276523733480
  0.6694190742355494  0.6720644544419972  0.6886283289476195
  0.8344391250649754  0.8358404792339277  0.3125540585011327
  0.8333765316069777  0.6685674357634280  0.4551256930151428
  0.6699595982621992  0.8377400449509341  0.5467465230430505
  0.4867071165655894  0.5183005631823410  0.7676001041224013
  0.5791042965206585  0.5004496376396115  0.7987202943062885
  0.6112594502861427  0.5696185188882420  0.7990406581671057
 
  0.00000000E+00  0.00000000E+00  0.00000000E+00
  0.00000000E+00  0.00000000E+00  0.00000000E+00
  0.00000000E+00  0.00000000E+00  0.00000000E+00
  0.00000000E+00  0.00000000E+00  0.00000000E+00
  0.00000000E+00  0.00000000E+00  0.00000000E+00
  0.00000000E+00  0.00000000E+00  0.00000000E+00
  0.00000000E+00  0.00000000E+00  0.00000000E+00
  0.00000000E+00  0.00000000E+00  0.00000000E+00
  0.00000000E+00  0.00000000E+00  0.00000000E+00
  0.00000000E+00  0.00000000E+00  0.00000000E+00
  0.00000000E+00  0.00000000E+00  0.00000000E+00
  0.00000000E+00  0.00000000E+00  0.00000000E+00
  0.00000000E+00  0.00000000E+00  0.00000000E+00
  0.00000000E+00  0.00000000E+00  0.00000000E+00
  0.00000000E+00  0.00000000E+00  0.00000000E+00
  0.00000000E+00  0.00000000E+00  0.00000000E+00
  0.00000000E+00  0.00000000E+00  0.00000000E+00
  0.00000000E+00  0.00000000E+00  0.00000000E+00
  0.00000000E+00  0.00000000E+00  0.00000000E+00
  0.00000000E+00  0.00000000E+00  0.00000000E+00
  0.00000000E+00  0.00000000E+00  0.00000000E+00
  0.00000000E+00  0.00000000E+00  0.00000000E+00
  0.00000000E+00  0.00000000E+00  0.00000000E+00
  0.00000000E+00  0.00000000E+00  0.00000000E+00
  0.00000000E+00  0.00000000E+00  0.00000000E+00
  0.00000000E+00  0.00000000E+00  0.00000000E+00
  0.00000000E+00  0.00000000E+00  0.00000000E+00
  0.00000000E+00  0.00000000E+00  0.00000000E+00
  0.00000000E+00  0.00000000E+00  0.00000000E+00
  0.00000000E+00  0.00000000E+00  0.00000000E+00
  0.00000000E+00  0.00000000E+00  0.00000000E+00
  0.00000000E+00  0.00000000E+00  0.00000000E+00
  0.00000000E+00  0.00000000E+00  0.00000000E+00
  0.00000000E+00  0.00000000E+00  0.00000000E+00
  0.00000000E+00  0.00000000E+00  0.00000000E+00
  0.00000000E+00  0.00000000E+00  0.00000000E+00
  0.00000000E+00  0.00000000E+00  0.00000000E+00
  0.00000000E+00  0.00000000E+00  0.00000000E+00
  0.00000000E+00  0.00000000E+00  0.00000000E+00
  0.00000000E+00  0.00000000E+00  0.00000000E+00
  0.00000000E+00  0.00000000E+00  0.00000000E+00
  0.00000000E+00  0.00000000E+00  0.00000000E+00
  0.00000000E+00  0.00000000E+00  0.00000000E+00
  0.00000000E+00  0.00000000E+00  0.00000000E+00
  0.00000000E+00  0.00000000E+00  0.00000000E+00
  0.00000000E+00  0.00000000E+00  0.00000000E+00
  0.00000000E+00  0.00000000E+00  0.00000000E+00
  0.00000000E+00  0.00000000E+00  0.00000000E+00
  0.00000000E+00  0.00000000E+00  0.00000000E+00
  0.00000000E+00  0.00000000E+00  0.00000000E+00
  0.00000000E+00  0.00000000E+00  0.00000000E+00
  0.00000000E+00  0.00000000E+00  0.00000000E+00
  0.00000000E+00  0.00000000E+00  0.00000000E+00
  0.00000000E+00  0.00000000E+00  0.00000000E+00
  0.00000000E+00  0.00000000E+00  0.00000000E+00
  0.00000000E+00  0.00000000E+00  0.00000000E+00
  0.00000000E+00  0.00000000E+00  0.00000000E+00
  0.00000000E+00  0.00000000E+00  0.00000000E+00
  0.00000000E+00  0.00000000E+00  0.00000000E+00
  0.00000000E+00  0.00000000E+00  0.00000000E+00
  0.00000000E+00  0.00000000E+00  0.00000000E+00
  0.00000000E+00  0.00000000E+00  0.00000000E+00
  0.00000000E+00  0.00000000E+00  0.00000000E+00
  0.00000000E+00  0.00000000E+00  0.00000000E+00
  0.00000000E+00  0.00000000E+00  0.00000000E+00
  0.00000000E+00  0.00000000E+00  0.00000000E+00
  0.00000000E+00  0.00000000E+00  0.00000000E+00
  0.00000000E+00  0.00000000E+00  0.00000000E+00
  0.00000000E+00  0.00000000E+00  0.00000000E+00
  0.00000000E+00  0.00000000E+00  0.00000000E+00
  0.00000000E+00  0.00000000E+00  0.00000000E+00
  0.00000000E+00  0.00000000E+00  0.00000000E+00
  0.00000000E+00  0.00000000E+00  0.00000000E+00
  0.00000000E+00  0.00000000E+00  0.00000000E+00
  0.00000000E+00  0.00000000E+00  0.00000000E+00
