CONTCAR\(6)                             
   1.00000000000000     
    10.0733995438000008    0.0000000000000000    0.0000000000000000
     0.0000000000000000    9.7955999374000005    0.0000000000000000
     0.0000000000000000    0.0000000000000000   18.6921005248999990
   Ta   Se   O    H 
    12    18     1     1
Direct
  0.0854077839109024  0.5521934608175769  0.5033455134705278
  0.2669019296885153  0.2977985539541947  0.5054183556530489
  0.0843048320425765  0.8649107054077234  0.5551079636886413
  0.2516156872757094  0.9867109443275339  0.4542232006417137
  0.4224911953839126  0.5494320991233295  0.5050098328123340
  0.5840611411638434  0.3010342816934042  0.5032220022317304
  0.4190340096467438  0.8636035910915041  0.5551196605591073
  0.5843115050465286  0.9848590051457222  0.4541194524816987
  0.7449870011572557  0.5492850579672677  0.5050062998196267
  0.9010451243403779  0.2975298323810591  0.5054036770440860
  0.7490917332343159  0.8634890177726362  0.5552658026165957
  0.9168366920142361  0.9863540519033052  0.4542993852097652
  0.0848419788575470  0.3631812792219904  0.5924419282821063
  0.2528070146396786  0.4816272844337206  0.4057526747053402
  0.0839604999314858  0.1756998964989407  0.4126708766044587
  0.2511563244948292  0.6744931963382754  0.5972942380847499
  0.2527403851990968  0.0552366534723987  0.5898937412597860
  0.0843269724804472  0.7947554396175107  0.4202310957726283
  0.4221344955390407  0.3683965565223417  0.6065461735646451
  0.5840082598604610  0.4837631419925614  0.4028817598558732
  0.4186037737608572  0.1753026828875619  0.4082962427419545
  0.5839733890677792  0.6738436440135729  0.6004356026533415
  0.5840077170968456  0.0564463856966242  0.5890479866953555
  0.4176166043652998  0.7930849890062319  0.4202493518432675
  0.7459198719572200  0.3684352772037940  0.6065826711340776
  0.9156534278333837  0.4823052176052016  0.4062640997132618
  0.7500162447530272  0.1752203500265139  0.4084185580474298
  0.9174770885773214  0.6742274029748074  0.5972954123774699
  0.9155208825019656  0.0553741551713571  0.5898410375278829
  0.7507428753876653  0.7928544633862060  0.4202764354653681
  0.0946048550012577  0.3693969759783400  0.6962689753855145
  0.0484585277898759  0.4543839243668302  0.7084997550565930
 
  0.00000000E+00  0.00000000E+00  0.00000000E+00
  0.00000000E+00  0.00000000E+00  0.00000000E+00
  0.00000000E+00  0.00000000E+00  0.00000000E+00
  0.00000000E+00  0.00000000E+00  0.00000000E+00
  0.00000000E+00  0.00000000E+00  0.00000000E+00
  0.00000000E+00  0.00000000E+00  0.00000000E+00
  0.00000000E+00  0.00000000E+00  0.00000000E+00
  0.00000000E+00  0.00000000E+00  0.00000000E+00
  0.00000000E+00  0.00000000E+00  0.00000000E+00
  0.00000000E+00  0.00000000E+00  0.00000000E+00
  0.00000000E+00  0.00000000E+00  0.00000000E+00
  0.00000000E+00  0.00000000E+00  0.00000000E+00
  0.00000000E+00  0.00000000E+00  0.00000000E+00
  0.00000000E+00  0.00000000E+00  0.00000000E+00
  0.00000000E+00  0.00000000E+00  0.00000000E+00
  0.00000000E+00  0.00000000E+00  0.00000000E+00
  0.00000000E+00  0.00000000E+00  0.00000000E+00
  0.00000000E+00  0.00000000E+00  0.00000000E+00
  0.00000000E+00  0.00000000E+00  0.00000000E+00
  0.00000000E+00  0.00000000E+00  0.00000000E+00
  0.00000000E+00  0.00000000E+00  0.00000000E+00
  0.00000000E+00  0.00000000E+00  0.00000000E+00
  0.00000000E+00  0.00000000E+00  0.00000000E+00
  0.00000000E+00  0.00000000E+00  0.00000000E+00
  0.00000000E+00  0.00000000E+00  0.00000000E+00
  0.00000000E+00  0.00000000E+00  0.00000000E+00
  0.00000000E+00  0.00000000E+00  0.00000000E+00
  0.00000000E+00  0.00000000E+00  0.00000000E+00
  0.00000000E+00  0.00000000E+00  0.00000000E+00
  0.00000000E+00  0.00000000E+00  0.00000000E+00
  0.00000000E+00  0.00000000E+00  0.00000000E+00
  0.00000000E+00  0.00000000E+00  0.00000000E+00
