CONTCAR\(2)                             
   1.00000000000000     
    12.8318004608000003    0.0000000000000000    0.0000000000000000
     0.0000000000000000   12.8378000259000000    0.0000000000000000
     0.0000000000000000    0.0000000000000000   24.0013999939000016
   Nd   Te   Se   O 
    18    36    18     1
Selective dynamics
Direct
  0.1674844060284286  0.1673120727093647  0.5775526173918095   F   F   F
  0.9999979185707204  0.0000295095735794  0.4228448419040873   F   F   F
  0.4997775304852823  0.1633598879994693  0.5759219809675216   F   F   F
  0.3330465745137587  0.9994309207507257  0.4229908895386814   F   F   F
  0.8351861914777743  0.1658363061509505  0.5766505045591046   F   F   F
  0.6664811688000398  0.9993745446777567  0.4228282474114451   F   F   F
  0.1633718065990166  0.4997197865324310  0.5759882794973805   F   F   F
  0.9993125714854258  0.3330979882277276  0.4229983190428399   F   F   F
  0.5008393864588143  0.5008658326078503  0.5778767871819852   F   F   F
  0.3328616359418035  0.3331050956046511  0.4238943215438269   F   F   F
  0.8327611386192615  0.4996705358504059  0.5778288846352524   F   F   F
  0.6663020226644321  0.3331424051347724  0.4237815130128908   F   F   F
  0.1659767573579458  0.8350383384998494  0.5766530151510807   F   F   F
  0.9993018820250583  0.6666358856560706  0.4227851195844039   F   F   F
  0.4997775029183416  0.8326640056956265  0.5778322748071574   F   F   F
  0.3330667309825799  0.6663992124458957  0.4237518008332728   F   F   F
  0.8331294705826693  0.8329895985812215  0.5763919576982630   F   F   F
  0.6664406710415420  0.6664677349626231  0.4234269619470226   F   F   F
  0.1665822500473269  0.9998327044433850  0.3139273671256575   F   F   F
  0.0009930283592396  0.1670152144037189  0.6874036233300203   F   F   F
  0.9997698689640799  0.1666433820168862  0.3139570352558962   F   F   F
  0.1671354951721540  0.0007444135526953  0.6874322331840474   F   F   F
  0.4997173103971093  0.9999310795214811  0.3137913584490661   F   F   F
  0.3368441961689896  0.1687341272916569  0.6876811322818526   F   F   F
  0.3330888838509196  0.1665458190687730  0.3142007215044984   F   F   F
  0.4995873031205491  0.9986492351735166  0.6877585217540911   F   F   F
  0.8329305094169115  0.9998443602479625  0.3136782574666341   F   F   F
  0.6722345173707183  0.1613893743808816  0.6866408708595344   F   F   F
  0.6664530480938708  0.1667226431294893  0.3140309664843102   F   F   F
  0.8367612465546941  0.9990367866473164  0.6859800991102247   F   F   F
  0.1663721307643655  0.3331218025612941  0.3142330742254487   F   F   F
  0.9986868391709578  0.4995364415683028  0.6877545590340191   F   F   F
  0.9997303010171237  0.4999210135767171  0.3138286128829080   F   F   F
  0.1688826815838524  0.3366606432981740  0.6877266860727644   F   F   F
  0.4996138639745666  0.3332518474747346  0.3149319126265482   F   F   F
  0.3268767840544413  0.5128953809614600  0.6923635836845534   F   F   F
  0.3329650591007791  0.4998540566302907  0.3149173127530531   F   F   F
  0.5130324469177481  0.3266651484151524  0.6922734254886933   F   F   F
  0.8329922032444657  0.3333436954753140  0.3140794312447071   F   F   F
  0.6675221516065477  0.5002872171910653  0.6891314953513259   F   F   F
  0.6662712189053721  0.4998379725290647  0.3145842680258326   F   F   F
  0.8353084615658659  0.3335936643479229  0.6877856426003319   F   F   F
  0.1665894641598911  0.6666323143763577  0.3139942961627540   F   F   F
  0.9992421407589234  0.8366469823554041  0.6860565382870263   F   F   F
  0.9996411500808193  0.8333372459998856  0.3135920637832257   F   F   F
  0.1616407660395396  0.6718766007108172  0.6866363411593071   F   F   F
  0.4996814958337765  0.6663905379415098  0.3145697800603600   F   F   F
  0.3336268099995010  0.8352320634377080  0.6877811488362013   F   F   F
  0.3332194012405338  0.8331038339810135  0.3140391886716003   F   F   F
  0.5006050529851862  0.6674549021367113  0.6890670848728533   F   F   F
  0.8330325348952670  0.6665021148518733  0.3139243830042133   F   F   F
  0.6682501135460654  0.8346594681375166  0.6873608357187919   F   F   F
  0.6663183632108982  0.8329671916125250  0.3139473616435637   F   F   F
  0.8349015346220696  0.6681117878674172  0.6873728423371261   F   F   F
  0.1666761875300367  0.1667338676249699  0.4529234598889644   F   F   F
  0.0007977594209976  0.0006842430486600  0.5479699059062426   F   F   F
  0.4996798050723257  0.1657072246729001  0.4524170549909599   F   F   F
  0.3333498306528853  0.9996412762117117  0.5486148116782275   F   F   F
  0.8327280538294914  0.1665409171974304  0.4524277806330304   F   F   F
  0.6662796937659508  0.9991950929076339  0.5481265624655691   F   F   F
  0.1656494128922432  0.4998075386038181  0.4524243463306874   F   F   F
  0.9996184329074822  0.3332431228305168  0.5486188570891173   F   F   F
  0.4999741408640759  0.5001981313980792  0.4535145827808407   F   F   F
  0.3345570278533216  0.3345713968007189  0.5497381783042243   F   F   F
  0.8326043794639304  0.4994427165259339  0.4531969066108914   F   F   F
  0.6648029995342881  0.3325244973556920  0.5499126360909514   F   F   F
  0.1665038994440025  0.8327554257870133  0.4524248459400795   F   F   F
  0.9992275756250706  0.6662040112300573  0.5481436512354492   F   F   F
  0.4993920604576658  0.8326166911027215  0.4531659107806973   F   F   F
  0.3325668603128236  0.6648238359863754  0.5498964647673148   F   F   F
  0.8331291002116501  0.8331661332353733  0.4522368373673942   F   F   F
  0.6661894159218349  0.6661447829775682  0.5491079813808426   F   F   F
  0.4128473808919679  0.4125868135258343  0.7379121851734959   T   T   T
 
  0.00000000E+00  0.00000000E+00  0.00000000E+00
  0.00000000E+00  0.00000000E+00  0.00000000E+00
  0.00000000E+00  0.00000000E+00  0.00000000E+00
  0.00000000E+00  0.00000000E+00  0.00000000E+00
  0.00000000E+00  0.00000000E+00  0.00000000E+00
  0.00000000E+00  0.00000000E+00  0.00000000E+00
  0.00000000E+00  0.00000000E+00  0.00000000E+00
  0.00000000E+00  0.00000000E+00  0.00000000E+00
  0.00000000E+00  0.00000000E+00  0.00000000E+00
  0.00000000E+00  0.00000000E+00  0.00000000E+00
  0.00000000E+00  0.00000000E+00  0.00000000E+00
  0.00000000E+00  0.00000000E+00  0.00000000E+00
  0.00000000E+00  0.00000000E+00  0.00000000E+00
  0.00000000E+00  0.00000000E+00  0.00000000E+00
  0.00000000E+00  0.00000000E+00  0.00000000E+00
  0.00000000E+00  0.00000000E+00  0.00000000E+00
  0.00000000E+00  0.00000000E+00  0.00000000E+00
  0.00000000E+00  0.00000000E+00  0.00000000E+00
  0.00000000E+00  0.00000000E+00  0.00000000E+00
  0.00000000E+00  0.00000000E+00  0.00000000E+00
  0.00000000E+00  0.00000000E+00  0.00000000E+00
  0.00000000E+00  0.00000000E+00  0.00000000E+00
  0.00000000E+00  0.00000000E+00  0.00000000E+00
  0.00000000E+00  0.00000000E+00  0.00000000E+00
  0.00000000E+00  0.00000000E+00  0.00000000E+00
  0.00000000E+00  0.00000000E+00  0.00000000E+00
  0.00000000E+00  0.00000000E+00  0.00000000E+00
  0.00000000E+00  0.00000000E+00  0.00000000E+00
  0.00000000E+00  0.00000000E+00  0.00000000E+00
  0.00000000E+00  0.00000000E+00  0.00000000E+00
  0.00000000E+00  0.00000000E+00  0.00000000E+00
  0.00000000E+00  0.00000000E+00  0.00000000E+00
  0.00000000E+00  0.00000000E+00  0.00000000E+00
  0.00000000E+00  0.00000000E+00  0.00000000E+00
  0.00000000E+00  0.00000000E+00  0.00000000E+00
  0.00000000E+00  0.00000000E+00  0.00000000E+00
  0.00000000E+00  0.00000000E+00  0.00000000E+00
  0.00000000E+00  0.00000000E+00  0.00000000E+00
  0.00000000E+00  0.00000000E+00  0.00000000E+00
  0.00000000E+00  0.00000000E+00  0.00000000E+00
  0.00000000E+00  0.00000000E+00  0.00000000E+00
  0.00000000E+00  0.00000000E+00  0.00000000E+00
  0.00000000E+00  0.00000000E+00  0.00000000E+00
  0.00000000E+00  0.00000000E+00  0.00000000E+00
  0.00000000E+00  0.00000000E+00  0.00000000E+00
  0.00000000E+00  0.00000000E+00  0.00000000E+00
  0.00000000E+00  0.00000000E+00  0.00000000E+00
  0.00000000E+00  0.00000000E+00  0.00000000E+00
  0.00000000E+00  0.00000000E+00  0.00000000E+00
  0.00000000E+00  0.00000000E+00  0.00000000E+00
  0.00000000E+00  0.00000000E+00  0.00000000E+00
  0.00000000E+00  0.00000000E+00  0.00000000E+00
  0.00000000E+00  0.00000000E+00  0.00000000E+00
  0.00000000E+00  0.00000000E+00  0.00000000E+00
  0.00000000E+00  0.00000000E+00  0.00000000E+00
  0.00000000E+00  0.00000000E+00  0.00000000E+00
  0.00000000E+00  0.00000000E+00  0.00000000E+00
  0.00000000E+00  0.00000000E+00  0.00000000E+00
  0.00000000E+00  0.00000000E+00  0.00000000E+00
  0.00000000E+00  0.00000000E+00  0.00000000E+00
  0.00000000E+00  0.00000000E+00  0.00000000E+00
  0.00000000E+00  0.00000000E+00  0.00000000E+00
  0.00000000E+00  0.00000000E+00  0.00000000E+00
  0.00000000E+00  0.00000000E+00  0.00000000E+00
  0.00000000E+00  0.00000000E+00  0.00000000E+00
  0.00000000E+00  0.00000000E+00  0.00000000E+00
  0.00000000E+00  0.00000000E+00  0.00000000E+00
  0.00000000E+00  0.00000000E+00  0.00000000E+00
  0.00000000E+00  0.00000000E+00  0.00000000E+00
  0.00000000E+00  0.00000000E+00  0.00000000E+00
  0.00000000E+00  0.00000000E+00  0.00000000E+00
  0.00000000E+00  0.00000000E+00  0.00000000E+00
  0.00000000E+00  0.00000000E+00  0.00000000E+00
