CONTCAR\(8)                             
   1.00000000000000     
    11.2503995895000006    0.0000000000000000    0.0000000000000000
     0.0000000000000000   11.4902000426999997    0.0000000000000000
     0.0000000000000000    0.0000000000000000   19.3134994507000002
   Cr   Te   O 
     8    24     1
Direct
  0.0178397822643402  0.6501259988811406  0.5019280578279123
  0.4955577826882658  0.8490671027654193  0.4985924339036910
  0.0096052295679961  0.3358137891362797  0.5014650287957203
  0.4962699574717800  0.1512226751004180  0.5030437321037060
  0.2618611902306955  0.4985155061199915  0.5103576626924569
  0.7965036192318713  0.9947210827172951  0.4846670028626069
  0.7156186678871965  0.4929405089176737  0.4844427702376305
  0.2560764760536121  0.9936479594670102  0.5109259376024731
  0.8910604651710015  0.4967641815657089  0.5791593026781582
  0.4099839839630147  0.9979834828724578  0.4093047167860671
  0.0970423002645112  0.4963158883377509  0.4107973606575542
  0.6188372646992264  0.9932050187289551  0.5788347688607254
  0.3396817066004625  0.1306197557210379  0.6082695570849865
  0.8363518156099831  0.3384054016681539  0.4028834437001881
  0.6724270115576820  0.8424551309660780  0.4049007078007255
  0.1570345566242092  0.6277557646470049  0.6067133640013675
  0.1640325525000664  0.3569700595000087  0.6060309138375714
  0.6714363351961544  0.1473217790895254  0.4052484431297221
  0.8385481688011615  0.6495027151858876  0.4071150460228018
  0.3449164211917279  0.8498029763498822  0.6011265987162007
  0.6154100675719369  0.3241856043814841  0.5694833433190811
  0.1375841079830162  0.1574966958334582  0.4366446088743191
  0.3719563977285776  0.6761044392147086  0.4388760742420306
  0.8977676185568176  0.8203571196307979  0.5655691957005033
  0.4378744193478351  0.4998056419431142  0.6041167514058114
  0.9616083954439132  0.9951103678154660  0.3858680877383598
  0.5432535757537235  0.4953432225391643  0.3882893939018963
  0.0774646212847876  0.9936734276431473  0.6027553161740975
  0.6149524368481672  0.6719365881670267  0.5614333879463724
  0.1377402740754074  0.8237304095346794  0.4455111119128128
  0.3730177733292564  0.3258356533683659  0.4341611784967930
  0.8955079962162020  0.1637762450831694  0.5707594868359842
  0.3822870742853904  0.9845377441077622  0.6657950701496498
 
  0.00000000E+00  0.00000000E+00  0.00000000E+00
  0.00000000E+00  0.00000000E+00  0.00000000E+00
  0.00000000E+00  0.00000000E+00  0.00000000E+00
  0.00000000E+00  0.00000000E+00  0.00000000E+00
  0.00000000E+00  0.00000000E+00  0.00000000E+00
  0.00000000E+00  0.00000000E+00  0.00000000E+00
  0.00000000E+00  0.00000000E+00  0.00000000E+00
  0.00000000E+00  0.00000000E+00  0.00000000E+00
  0.00000000E+00  0.00000000E+00  0.00000000E+00
  0.00000000E+00  0.00000000E+00  0.00000000E+00
  0.00000000E+00  0.00000000E+00  0.00000000E+00
  0.00000000E+00  0.00000000E+00  0.00000000E+00
  0.00000000E+00  0.00000000E+00  0.00000000E+00
  0.00000000E+00  0.00000000E+00  0.00000000E+00
  0.00000000E+00  0.00000000E+00  0.00000000E+00
  0.00000000E+00  0.00000000E+00  0.00000000E+00
  0.00000000E+00  0.00000000E+00  0.00000000E+00
  0.00000000E+00  0.00000000E+00  0.00000000E+00
  0.00000000E+00  0.00000000E+00  0.00000000E+00
  0.00000000E+00  0.00000000E+00  0.00000000E+00
  0.00000000E+00  0.00000000E+00  0.00000000E+00
  0.00000000E+00  0.00000000E+00  0.00000000E+00
  0.00000000E+00  0.00000000E+00  0.00000000E+00
  0.00000000E+00  0.00000000E+00  0.00000000E+00
  0.00000000E+00  0.00000000E+00  0.00000000E+00
  0.00000000E+00  0.00000000E+00  0.00000000E+00
  0.00000000E+00  0.00000000E+00  0.00000000E+00
  0.00000000E+00  0.00000000E+00  0.00000000E+00
  0.00000000E+00  0.00000000E+00  0.00000000E+00
  0.00000000E+00  0.00000000E+00  0.00000000E+00
  0.00000000E+00  0.00000000E+00  0.00000000E+00
  0.00000000E+00  0.00000000E+00  0.00000000E+00
  0.00000000E+00  0.00000000E+00  0.00000000E+00
