 Bi6 Se6                                
   1.00000000000000     
     4.2408776361663421    0.0000000000000000    0.0000000000000000
    -2.1204388180831710    3.6726749958770801    0.0000000000000000
     0.0000000000000000    0.0000000000000000   35.9861849240740099
   Bi   Se
     6     6
Direct
  0.6666762700344382  0.3333525679435743  0.5251431681501910
  0.3333087583088341  0.6666174619532778  0.4748182763018123
  0.6666650904300170  0.3333301273431488  0.3568087347080928
  0.3333313633966589  0.6666627439729054  0.6431697615966223
  0.0000009558992850  0.0000018046791865  0.2507627351924933
  0.9999971542560571  0.9999944681632367  0.7492706142244603
  0.0000385164090957  0.0000769393129771  0.4005517844391961
  0.9999604082641201  0.9999208894062211  0.5994170403180429
  0.6666900286211561  0.3333801081128024  0.6954231462379760
  0.3333214663398104  0.6666428909639338  0.3045942253117538
  0.6666559603239397  0.3333119273008402  0.2083061533697725
  0.3333540277165808  0.6667080708478960  0.7917343601495798
 
  0.00000000E+00  0.00000000E+00  0.00000000E+00
  0.00000000E+00  0.00000000E+00  0.00000000E+00
  0.00000000E+00  0.00000000E+00  0.00000000E+00
  0.00000000E+00  0.00000000E+00  0.00000000E+00
  0.00000000E+00  0.00000000E+00  0.00000000E+00
  0.00000000E+00  0.00000000E+00  0.00000000E+00
  0.00000000E+00  0.00000000E+00  0.00000000E+00
  0.00000000E+00  0.00000000E+00  0.00000000E+00
  0.00000000E+00  0.00000000E+00  0.00000000E+00
  0.00000000E+00  0.00000000E+00  0.00000000E+00
  0.00000000E+00  0.00000000E+00  0.00000000E+00
  0.00000000E+00  0.00000000E+00  0.00000000E+00
