K2 Mn2 P2                               
   1.00000000000000     
     3.7778817327197323    0.0000000000000000    0.0000000000000000
     0.0000000000000000    3.7778817327197323    0.0000000000000000
     0.0000000000000000    0.0000000000000000   10.4467594797570822
   K    Mn   P 
     2     2     2
Direct
  0.0000000000000000  0.5000000000000000  0.3006270366868928
  0.5000000000000000 -0.0000000000000000  0.6993729173131035
  0.5000000000000000  0.5000000000000000  0.0000000000000000
  0.0000000000000000  0.0000000000000000 -0.0000000000000000
  0.0000000000000000  0.5000000000000000  0.8759820094426518
  0.5000000000000000 -0.0000000000000000  0.1240179905573482
 
  0.00000000E+00  0.00000000E+00  0.00000000E+00
  0.00000000E+00  0.00000000E+00  0.00000000E+00
  0.00000000E+00  0.00000000E+00  0.00000000E+00
  0.00000000E+00  0.00000000E+00  0.00000000E+00
  0.00000000E+00  0.00000000E+00  0.00000000E+00
  0.00000000E+00  0.00000000E+00  0.00000000E+00
