CONTCAR                                 
   1.00000000000000     
    11.2482995986999992    0.0000000000000000    0.0000000000000000
     0.0000000000000000   13.7291002274000000    0.0000000000000000
     0.0000000000000000    0.0000000000000000   19.4125995636000006
   Zr   I    O    H 
    12    24     1     1
Selective dynamics
Direct
  0.9999783325955534  0.2474174546435179  0.4991807629567830   F   F   F
  0.1680633107780878  0.0577504655251744  0.4940392763817201   F   F   F
  0.3332274040771637  0.2476715460808308  0.4990430361843465   F   F   F
  0.4984562643785537  0.0575640131790891  0.4941094972666491   F   F   F
  0.6668215410938529  0.2472537307266620  0.4991256868508884   F   F   F
  0.8334359793285628  0.0580368493848553  0.4939302441586477   F   F   F
  0.9995539144150527  0.7473843587029947  0.4991665954403643   F   F   F
  0.1663928543518836  0.5584715138069711  0.4938420157833292   F   F   F
  0.3329329402893251  0.7483801119016036  0.4993839980070689   F   F   F
  0.4998196048874988  0.5583251559592455  0.4938535159153332   F   F   F
  0.6675128986117613  0.7473409289967137  0.4992210173053238   F   F   F
  0.8336087322943371  0.5579713687040524  0.4937534092744258   F   F   F
  0.0001602803808964  0.4422726498959548  0.5812885531638727   F   F   F
  0.0001533411884438  0.1125121602230550  0.3838223829856986   F   F   F
  0.1666390806284639  0.3632564331859740  0.4115009665157174   F   F   F
  0.1668236668682539  0.1929656648234754  0.6092279022598532   F   F   F
  0.3331156797569008  0.4426317222819875  0.5814656454592040   F   F   F
  0.3333230614567029  0.1128406161912778  0.3834923669083281   F   F   F
  0.5000713706242124  0.3632490467378133  0.4114978479448723   F   F   F
  0.4998260103228063  0.1929659368182186  0.6090884211034648   F   F   F
  0.6664964537715576  0.4422007414054434  0.5810811063402426   F   F   F
  0.6665107583937484  0.1121719946821713  0.3838998340775817   F   F   F
  0.8333842949577246  0.3634007229651814  0.4115677023396032   F   F   F
  0.8333242243138770  0.1929087087175319  0.6093302495092061   F   F   F
  0.0002901948801153  0.9422958889454378  0.5812970858709221   F   F   F
  0.9998760241653528  0.6129176041404065  0.3834711724574333   F   F   F
  0.1664353136424808  0.8638465737693508  0.4114872433085424   F   F   F
  0.1683393473854977  0.6946714489068029  0.6081643766506417   F   F   F
  0.3330356709060425  0.9423086344767313  0.5816591251510417   F   F   F
  0.3331475163560356  0.6127997657769271  0.3836527974337400   F   F   F
  0.5003140418434668  0.8635038504095078  0.4118343101550508   F   F   F
  0.4981335755856691  0.6948959448135597  0.6078709261114739   F   F   F
  0.6664788622019699  0.9421530001212233  0.5813514071088690   F   F   F
  0.6668918386995841  0.6125050823309408  0.3837282117736009   F   F   F
  0.8333833295699975  0.8642463779195140  0.4113894271316809   F   F   F
  0.8334118484344870  0.6926390176811879  0.6093625865798629   F   F   F
  0.3341335907399454  0.7846804344187746  0.6984910114547986   T   T   T
  0.3347071718241352  0.7872623707498790  0.7480154506389888   T   T   T
 
  0.00000000E+00  0.00000000E+00  0.00000000E+00
  0.00000000E+00  0.00000000E+00  0.00000000E+00
  0.00000000E+00  0.00000000E+00  0.00000000E+00
  0.00000000E+00  0.00000000E+00  0.00000000E+00
  0.00000000E+00  0.00000000E+00  0.00000000E+00
  0.00000000E+00  0.00000000E+00  0.00000000E+00
  0.00000000E+00  0.00000000E+00  0.00000000E+00
  0.00000000E+00  0.00000000E+00  0.00000000E+00
  0.00000000E+00  0.00000000E+00  0.00000000E+00
  0.00000000E+00  0.00000000E+00  0.00000000E+00
  0.00000000E+00  0.00000000E+00  0.00000000E+00
  0.00000000E+00  0.00000000E+00  0.00000000E+00
  0.00000000E+00  0.00000000E+00  0.00000000E+00
  0.00000000E+00  0.00000000E+00  0.00000000E+00
  0.00000000E+00  0.00000000E+00  0.00000000E+00
  0.00000000E+00  0.00000000E+00  0.00000000E+00
  0.00000000E+00  0.00000000E+00  0.00000000E+00
  0.00000000E+00  0.00000000E+00  0.00000000E+00
  0.00000000E+00  0.00000000E+00  0.00000000E+00
  0.00000000E+00  0.00000000E+00  0.00000000E+00
  0.00000000E+00  0.00000000E+00  0.00000000E+00
  0.00000000E+00  0.00000000E+00  0.00000000E+00
  0.00000000E+00  0.00000000E+00  0.00000000E+00
  0.00000000E+00  0.00000000E+00  0.00000000E+00
  0.00000000E+00  0.00000000E+00  0.00000000E+00
  0.00000000E+00  0.00000000E+00  0.00000000E+00
  0.00000000E+00  0.00000000E+00  0.00000000E+00
  0.00000000E+00  0.00000000E+00  0.00000000E+00
  0.00000000E+00  0.00000000E+00  0.00000000E+00
  0.00000000E+00  0.00000000E+00  0.00000000E+00
  0.00000000E+00  0.00000000E+00  0.00000000E+00
  0.00000000E+00  0.00000000E+00  0.00000000E+00
  0.00000000E+00  0.00000000E+00  0.00000000E+00
  0.00000000E+00  0.00000000E+00  0.00000000E+00
  0.00000000E+00  0.00000000E+00  0.00000000E+00
  0.00000000E+00  0.00000000E+00  0.00000000E+00
  0.00000000E+00  0.00000000E+00  0.00000000E+00
  0.00000000E+00  0.00000000E+00  0.00000000E+00
