 Ta4 Pt2 Se14                           
   1.00000000000000     
     3.5456715115427890    0.0000000000000000    0.0000000000000000
     0.0000000000000000   18.7943068842279146    0.0000000000000000
     0.0000000000000000    0.0000000000000000   21.0296018206199982
   Ta   Pt   Se
     4     2    14
Direct
  0.7500000000012086  0.4223687554746058  0.5631213378410920
  0.2500000000666395  0.5776312452340054  0.4368786622701751
  0.2500000008462576  0.9036099729733618  0.4895794855504227
  0.7499999990516659  0.0963900244967320  0.5104205158332863
  0.2500000000843924  0.2256226168613412  0.5360233193295736
  0.7499999999134745  0.7743773851559400  0.4639766808762865
  0.2500000002642397  0.6967841388732686  0.5132198967892595
  0.7499999997158650  0.3032158612920315  0.4867801015906001
  0.2499999994272647  0.4349378640675919  0.4686086094856129
  0.7500000007009036  0.5650621379208757  0.5313913907502376
  0.7500000003456699  0.5252276140918820  0.3571785351236693
  0.2499999998220992  0.4747723874530246  0.6428214643402943
  0.7500000006813992  0.9834845763585720  0.4301213243540436
  0.2499999991741088  0.0165154220461229  0.5698786770187012
  0.2500000000022887  0.3364932135323218  0.6153056477879483
  0.7500000000535794  0.6635067861186495  0.3846943513997036
  0.7500000000593883  0.1720341825544978  0.6087460583295299
  0.2499999999097205  0.8279658173415664  0.3912539402876224
  0.2499999994681608  0.1460163963956199  0.4333553956408211
  0.7500000004116730  0.8539836017579894  0.5666446054011204
 
  0.00000000E+00  0.00000000E+00  0.00000000E+00
  0.00000000E+00  0.00000000E+00  0.00000000E+00
  0.00000000E+00  0.00000000E+00  0.00000000E+00
  0.00000000E+00  0.00000000E+00  0.00000000E+00
  0.00000000E+00  0.00000000E+00  0.00000000E+00
  0.00000000E+00  0.00000000E+00  0.00000000E+00
  0.00000000E+00  0.00000000E+00  0.00000000E+00
  0.00000000E+00  0.00000000E+00  0.00000000E+00
  0.00000000E+00  0.00000000E+00  0.00000000E+00
  0.00000000E+00  0.00000000E+00  0.00000000E+00
  0.00000000E+00  0.00000000E+00  0.00000000E+00
  0.00000000E+00  0.00000000E+00  0.00000000E+00
  0.00000000E+00  0.00000000E+00  0.00000000E+00
  0.00000000E+00  0.00000000E+00  0.00000000E+00
  0.00000000E+00  0.00000000E+00  0.00000000E+00
  0.00000000E+00  0.00000000E+00  0.00000000E+00
  0.00000000E+00  0.00000000E+00  0.00000000E+00
  0.00000000E+00  0.00000000E+00  0.00000000E+00
  0.00000000E+00  0.00000000E+00  0.00000000E+00
  0.00000000E+00  0.00000000E+00  0.00000000E+00
