CONTCAR                                 
   1.00000000000000     
    13.4303998947000007    0.0000000000000000    0.0000000000000000
     6.7152097469000003   11.6311774608000000    0.0000000000000000
     0.0000000000000000    0.0000000000000000   17.3265991210999992
   Fe   C    O 
     9    18    55
Direct
  0.0004997121335696  0.9996034254634181  0.5002395037826556
  0.3332934714896000  0.0004503985600246  0.5002625264130923
  0.6668586418469161 -0.0000500461542112  0.5002510126260935
  0.9996034649776550  0.3332406084391469  0.5002744175554551
  0.3351267167375588  0.3369834362079422  0.5027039343843950
  0.6611491933427889  0.3351674961876417  0.5028947906902334
 -0.0000910146137070  0.6666010271573160  0.5002412590417697
  0.3370067671385292  0.6611711722747646  0.5028495586306440
  0.6665941247373308  0.6668671740206753  0.5003281311789683
  0.2228807202287703  0.2228408559429076  0.4372112782369816
  0.1111543759138032  0.1111054334165096  0.5638939687341415
  0.5557503227327609  0.2220506978297944  0.4370363363051848
  0.4448133838621463  0.1118351246533680  0.5639653912120014
  0.8875293727816241  0.2229385659294913  0.4372788950905449
  0.7784113491383139  0.1107951178091147  0.5637577488431226
  0.2220238685567311  0.5555639669955079  0.4370154271580254
  0.1107972217497936  0.4441854797110013  0.5636729145754380
  0.5555599191369419  0.5557420803845358  0.4371454099047645
  0.4443261529236152  0.4444077387659355  0.5926647030408873
  0.8886465614134275  0.5555420845891925  0.4367080866368387
  0.7766887315093863  0.4448316126226525  0.5640831328511440
  0.2229235116223952  0.8875190036540106  0.4372563887568407
  0.1118263686469741  0.7766994828903047  0.5640094787065637
  0.5555687862066422  0.8891758530842183  0.4367069746155236
  0.4441912477805362  0.7783954492846867  0.5637865022499653
  0.8891376931184327  0.8886579004525917  0.4366573694227274
  0.7778009005551709  0.7778156572224162  0.5637327863162889
  0.1026143924383708  0.2111877592596295  0.5648524029052201
  0.1213309891343148  0.3135399028769560  0.4357513922937293
  0.3127881421288712  0.2326560465652985  0.4364192970361751
  0.0195938614278653  0.1025833527949149  0.5648311277606738
  0.2112332405678966  0.0195508532510189  0.5648505851679229
  0.2311278721830331  0.1224232644748746  0.4360418257415764
  0.4371955653019818  0.2112409399022375  0.5662085786810799
  0.4558061508386605  0.3138048889157519  0.4361277659736564
  0.6471567614521434  0.2304652574999228  0.4357284901935884
  0.3532154517550249  0.1031853764744107  0.5646267830197262
  0.5448194758842202  0.0196578180007846  0.5644993499713521
  0.5639212385469137  0.1220719857904612  0.4359792939643473
  0.7703382641680345  0.2103916964205000  0.5644327656622453
  0.7878188811782939  0.3128599565198739  0.4365842817962283
  0.9797342019975047  0.2311287961683680  0.4360606403746261
  0.6869327737250441  0.1019733507556572  0.5647291415778527
  0.8785859963250088  0.0188879174097604  0.5649393882173726
  0.8983538719637862  0.1213896023250503  0.4357958842452890
  0.1019895662776092  0.5444775922118461  0.5646738594073621
  0.1220467982552726  0.6473903329594954  0.4359848536999512
  0.3138013996775430  0.5637198304195806  0.4362108462604632
  0.0188960179559167  0.4359103469122221  0.5649252712839490
  0.2103662668060041  0.3526318747673746  0.5642754137781507
  0.2304118891481867  0.4557504277534924  0.4355802130333576
  0.4354003387309332  0.5485105227692884  0.5639263211369516
  0.4557522740615304  0.6471590448313085  0.4357541097204174
  0.6473838415886528  0.5638889637002403  0.4360918679062978
  0.3492644803056119  0.4354622901020515  0.5637551312055697
  0.5484943067095225  0.3493152824373059  0.5639353449160821
  0.5636880404761195  0.4558187777649303  0.4362936712302309
  0.7688902574193199  0.5448177281261267  0.5645824348590999
  0.7886163867626432  0.6473933616732057  0.4357242135318954
  0.9803385200776930  0.5638500033612199  0.4356972520168588
  0.6848838831946588  0.4372313577853356  0.5663795689085095
  0.8769368492509033  0.3532371078153649  0.5647037850372826
  0.8966628348420443  0.4557547508176934  0.4357310884516793
  0.1032223479137210  0.8769401556561727  0.5646397854534532
  0.1225254180978131  0.9797417254695227  0.4360387369561064
  0.3136561408400245  0.8983108310399367  0.4358090526961690
  0.0196247234095942  0.7689299114512956  0.5644856490638620
  0.2112249562838209  0.6849029873275733  0.5663263402120343
  0.2326604775483692  0.7878289926362589  0.4365308689925175
  0.4358942821788918  0.8785718684727444  0.5649693182575474
  0.4557723751862062  0.9809553276744440  0.4357103040803897
  0.6474036654376659  0.8973695910884257  0.4356763841501028
  0.3526898253686981  0.7703038136636409  0.5644099321987810
  0.5445077231127087  0.6869329603165706  0.5648080190895857
  0.5638646259630102  0.7891802026342302  0.4357670533370353
  0.7697901206153466  0.8776625455633601  0.5646631840166423
  0.7891491852280028  0.9803778017162862  0.4356834565826857
  0.9809264742972742  0.8966613257102864  0.4356795764715499
  0.6859509569218875  0.7698083904771863  0.5647058602424981
  0.8776462804078714  0.6859618429294561  0.5646622387621654
  0.8973105744444360  0.7886427954989318  0.4356518157512722
  0.4441870805198304  0.4443834336651294  0.6666302387585427
 
  0.00000000E+00  0.00000000E+00  0.00000000E+00
  0.00000000E+00  0.00000000E+00  0.00000000E+00
  0.00000000E+00  0.00000000E+00  0.00000000E+00
  0.00000000E+00  0.00000000E+00  0.00000000E+00
  0.00000000E+00  0.00000000E+00  0.00000000E+00
  0.00000000E+00  0.00000000E+00  0.00000000E+00
  0.00000000E+00  0.00000000E+00  0.00000000E+00
  0.00000000E+00  0.00000000E+00  0.00000000E+00
  0.00000000E+00  0.00000000E+00  0.00000000E+00
  0.00000000E+00  0.00000000E+00  0.00000000E+00
  0.00000000E+00  0.00000000E+00  0.00000000E+00
  0.00000000E+00  0.00000000E+00  0.00000000E+00
  0.00000000E+00  0.00000000E+00  0.00000000E+00
  0.00000000E+00  0.00000000E+00  0.00000000E+00
  0.00000000E+00  0.00000000E+00  0.00000000E+00
  0.00000000E+00  0.00000000E+00  0.00000000E+00
  0.00000000E+00  0.00000000E+00  0.00000000E+00
  0.00000000E+00  0.00000000E+00  0.00000000E+00
  0.00000000E+00  0.00000000E+00  0.00000000E+00
  0.00000000E+00  0.00000000E+00  0.00000000E+00
  0.00000000E+00  0.00000000E+00  0.00000000E+00
  0.00000000E+00  0.00000000E+00  0.00000000E+00
  0.00000000E+00  0.00000000E+00  0.00000000E+00
  0.00000000E+00  0.00000000E+00  0.00000000E+00
  0.00000000E+00  0.00000000E+00  0.00000000E+00
  0.00000000E+00  0.00000000E+00  0.00000000E+00
  0.00000000E+00  0.00000000E+00  0.00000000E+00
  0.00000000E+00  0.00000000E+00  0.00000000E+00
  0.00000000E+00  0.00000000E+00  0.00000000E+00
  0.00000000E+00  0.00000000E+00  0.00000000E+00
  0.00000000E+00  0.00000000E+00  0.00000000E+00
  0.00000000E+00  0.00000000E+00  0.00000000E+00
  0.00000000E+00  0.00000000E+00  0.00000000E+00
  0.00000000E+00  0.00000000E+00  0.00000000E+00
  0.00000000E+00  0.00000000E+00  0.00000000E+00
  0.00000000E+00  0.00000000E+00  0.00000000E+00
  0.00000000E+00  0.00000000E+00  0.00000000E+00
  0.00000000E+00  0.00000000E+00  0.00000000E+00
  0.00000000E+00  0.00000000E+00  0.00000000E+00
  0.00000000E+00  0.00000000E+00  0.00000000E+00
  0.00000000E+00  0.00000000E+00  0.00000000E+00
  0.00000000E+00  0.00000000E+00  0.00000000E+00
  0.00000000E+00  0.00000000E+00  0.00000000E+00
  0.00000000E+00  0.00000000E+00  0.00000000E+00
  0.00000000E+00  0.00000000E+00  0.00000000E+00
  0.00000000E+00  0.00000000E+00  0.00000000E+00
  0.00000000E+00  0.00000000E+00  0.00000000E+00
  0.00000000E+00  0.00000000E+00  0.00000000E+00
  0.00000000E+00  0.00000000E+00  0.00000000E+00
  0.00000000E+00  0.00000000E+00  0.00000000E+00
  0.00000000E+00  0.00000000E+00  0.00000000E+00
  0.00000000E+00  0.00000000E+00  0.00000000E+00
  0.00000000E+00  0.00000000E+00  0.00000000E+00
  0.00000000E+00  0.00000000E+00  0.00000000E+00
  0.00000000E+00  0.00000000E+00  0.00000000E+00
  0.00000000E+00  0.00000000E+00  0.00000000E+00
  0.00000000E+00  0.00000000E+00  0.00000000E+00
  0.00000000E+00  0.00000000E+00  0.00000000E+00
  0.00000000E+00  0.00000000E+00  0.00000000E+00
  0.00000000E+00  0.00000000E+00  0.00000000E+00
  0.00000000E+00  0.00000000E+00  0.00000000E+00
  0.00000000E+00  0.00000000E+00  0.00000000E+00
  0.00000000E+00  0.00000000E+00  0.00000000E+00
  0.00000000E+00  0.00000000E+00  0.00000000E+00
  0.00000000E+00  0.00000000E+00  0.00000000E+00
  0.00000000E+00  0.00000000E+00  0.00000000E+00
  0.00000000E+00  0.00000000E+00  0.00000000E+00
  0.00000000E+00  0.00000000E+00  0.00000000E+00
  0.00000000E+00  0.00000000E+00  0.00000000E+00
  0.00000000E+00  0.00000000E+00  0.00000000E+00
  0.00000000E+00  0.00000000E+00  0.00000000E+00
  0.00000000E+00  0.00000000E+00  0.00000000E+00
  0.00000000E+00  0.00000000E+00  0.00000000E+00
  0.00000000E+00  0.00000000E+00  0.00000000E+00
  0.00000000E+00  0.00000000E+00  0.00000000E+00
  0.00000000E+00  0.00000000E+00  0.00000000E+00
  0.00000000E+00  0.00000000E+00  0.00000000E+00
  0.00000000E+00  0.00000000E+00  0.00000000E+00
  0.00000000E+00  0.00000000E+00  0.00000000E+00
  0.00000000E+00  0.00000000E+00  0.00000000E+00
  0.00000000E+00  0.00000000E+00  0.00000000E+00
  0.00000000E+00  0.00000000E+00  0.00000000E+00
