 Mn1 S2                                 
   1.00000000000000     
     3.3090511721078624    0.0000000000000000    0.0000000000000000
     1.6545250924278339    2.8657094987311442    0.0000000000000000
     0.0000000000000000    0.0000000000000000   17.6412901752959996
   Mn   S 
     1     2
Direct
 -0.0000000034282979  0.0000000000183744  0.5000000000119438
  0.6666668442240475  0.6666683418608921  0.5756821618559697
  0.3333331592042501  0.3333316581207336  0.4243178381320856
 
  0.00000000E+00  0.00000000E+00  0.00000000E+00
  0.00000000E+00  0.00000000E+00  0.00000000E+00
  0.00000000E+00  0.00000000E+00  0.00000000E+00
