CONTCAR\(14)                            
   1.00000000000000     
    11.8042001723999999    0.0000000000000000    0.0000000000000000
     0.0000000000000000   11.8042001723999999    0.0000000000000000
     0.0000000000000000    0.0000000000000000   18.3845996856999996
   Li   H    Pd   O 
    32    32    16     1
Direct
  0.9972037974541058 -0.0009855519654567  0.4211642893500310
 -0.0033534733249140  0.9980648582381225  0.5860715652006734
  0.2491956849906771 -0.0009487078848378  0.4207147212635513
  0.2504456316575275  0.9982585080089899  0.5857064777426636
  0.4990714621790032 -0.0004034113389363  0.4187910165985020
  0.4999558149873076  0.9964112075006117  0.5854138060474711
  0.7479155294346934 -0.0002535891912327  0.4198946813915036
  0.7461422991558893  0.9963376905008372  0.5854942589781572
  0.9971561393471831  0.2508447112090193  0.4210539132242725
  0.9966614550829488  0.2520556473184006  0.5859605844384542
  0.2492819212714247  0.2508846295645729  0.4206630293329117
  0.2503816681549283  0.2517293536643154  0.5856513547423161
  0.4990639285241074  0.2505218573105021  0.4191594273790170
  0.4999571011598967  0.2536195712535406  0.5853398912866958
  0.7478172930821437  0.2503020383730555  0.4198986599682341
  0.7462333232291194  0.2536557458538146  0.5855282796670762
  0.9981414509526714  0.5006148865125581  0.4196580669484425
  0.9950339913571856  0.5017767390184426  0.5852917924820330
  0.2488933826792206  0.5006771100629331  0.4190946746175485
  0.2520865774470659  0.5016506489427291  0.5855621589722034
  0.4968557742267530  0.4984760578158815  0.4046656791032989
  0.5089385035082583  0.5103890746251472  0.5973534407557283
  0.7502464309920107  0.4983695195400133  0.4044474052025564
  0.7384743548232878  0.5101510124360137  0.5972328849255706
  0.9981891724561188  0.7494121728905485  0.4198325911500763
  0.9950844599501416  0.7480635182025906  0.5853641100188470
  0.2488440147305702  0.7493820175423248  0.4192985028311701
  0.2522620631781138  0.7483340305524563  0.5855626367215409
  0.4968427586082180  0.7514892873928410  0.4045349371165732
  0.5089202137854669  0.7398287049010502  0.5972433272463625
  0.7503430234772811  0.7517170936246855  0.4044461139016323
  0.7385608362298400  0.7400497003798502  0.5972257777855300
  0.1238092992469500  0.1250640048360541  0.5959336352054072
  0.1230776802401633  0.1248887793225584  0.4113004012382999
  0.3744340440698689  0.1249329883216005  0.5951527608489038
  0.3739570409493240  0.1250602987255428  0.4107283395783777
  0.6228629846708714  0.1249669026957828  0.5955335212766133
  0.6235339494562262  0.1251117873758953  0.4104600271399585
  0.8723765706027046  0.1250497352231098  0.5961170013852314
  0.8728297240191949  0.1249617049122135  0.4117730275432983
  0.1235435209885613  0.3758732236216745  0.5953372223526072
  0.1232951784440197  0.3754123320591282  0.4109448787045071
  0.3764084073844315  0.3780195331638568  0.5945480992927276
  0.3743578314727820  0.3762827243710406  0.4093631214524964
  0.6232371985070860  0.3793074830397470  0.5923934490586747
  0.6232571977908400  0.3744440373514209  0.4084293876085165
  0.8700958963423554  0.3784456615861290  0.5947724941436088
  0.8721507854084450  0.3759276715060615  0.4096251055234608
  0.1237348221331929  0.6248873342683168  0.5956261082904114
  0.1237745552787187  0.6250330749961049  0.4105387319478331
  0.3778474135993074  0.6250506585621781  0.5924622020786950
  0.3729071874804514  0.6250197396713373  0.4084703612415955
  0.6240848094434073  0.6250369638381260  0.5769971098177277
  0.6240401671017591  0.6250623241855144  0.3744231576282304
  0.8693161031528078  0.6249306896811622  0.5923963529121374
  0.8745095891406098  0.6250120704850842  0.4084512016882308
  0.1236489883821466  0.8740521232993845  0.5956139857442319
  0.1232535804621947  0.8745068303416507  0.4112343866225487
  0.3765830197290417  0.8720317285012421  0.5944700274626170
  0.3743476316878240  0.8738022855054062  0.4092375368007328
  0.6232193640175610  0.8708025186501780  0.5922225386426849
  0.6233063962238988  0.8757275975615334  0.4082293766564118
  0.8700401170965436  0.8715295026162105  0.5948784871234215
  0.8722968552769444  0.8740593567448259  0.4097377362736302
  0.1235159425426118  0.1249686691297327  0.5037152778489671
  0.3746046000875368  0.1249365423962253  0.5030589423257942
  0.6231796877790994  0.1249632342457125  0.5030524458475130
  0.8722481660574771  0.1249462046272391  0.5039698096568145
  0.1235194374669584  0.3761106859489998  0.5032490901694414
  0.3772092246408393  0.3789559762321149  0.5021441193619007
  0.6232407337796391  0.3817490684853647  0.5002939270021429
  0.8694371493140436  0.3789284393421093  0.5024386088618431
  0.1239117923734417  0.6248973999294141  0.5031352351723060
  0.3802315260489170  0.6249627149020663  0.5003502138849626
  0.6237559444129815  0.6250540225340117  0.4725763135596305
  0.8668692913054334  0.6249057534197539  0.5003697437899906
  0.1235647274753294  0.8739570726686986  0.5035020535226528
  0.3773298959311749  0.8710893246025562  0.5020460238500715
  0.6232220501956396  0.8683871096504782  0.5001124193984514
  0.8694152008725035  0.8710409279115500  0.5025177878871870
  0.6239404181279368  0.6249473460985212  0.6335765771857776
 
  0.00000000E+00  0.00000000E+00  0.00000000E+00
  0.00000000E+00  0.00000000E+00  0.00000000E+00
  0.00000000E+00  0.00000000E+00  0.00000000E+00
  0.00000000E+00  0.00000000E+00  0.00000000E+00
  0.00000000E+00  0.00000000E+00  0.00000000E+00
  0.00000000E+00  0.00000000E+00  0.00000000E+00
  0.00000000E+00  0.00000000E+00  0.00000000E+00
  0.00000000E+00  0.00000000E+00  0.00000000E+00
  0.00000000E+00  0.00000000E+00  0.00000000E+00
  0.00000000E+00  0.00000000E+00  0.00000000E+00
  0.00000000E+00  0.00000000E+00  0.00000000E+00
  0.00000000E+00  0.00000000E+00  0.00000000E+00
  0.00000000E+00  0.00000000E+00  0.00000000E+00
  0.00000000E+00  0.00000000E+00  0.00000000E+00
  0.00000000E+00  0.00000000E+00  0.00000000E+00
  0.00000000E+00  0.00000000E+00  0.00000000E+00
  0.00000000E+00  0.00000000E+00  0.00000000E+00
  0.00000000E+00  0.00000000E+00  0.00000000E+00
  0.00000000E+00  0.00000000E+00  0.00000000E+00
  0.00000000E+00  0.00000000E+00  0.00000000E+00
  0.00000000E+00  0.00000000E+00  0.00000000E+00
  0.00000000E+00  0.00000000E+00  0.00000000E+00
  0.00000000E+00  0.00000000E+00  0.00000000E+00
  0.00000000E+00  0.00000000E+00  0.00000000E+00
  0.00000000E+00  0.00000000E+00  0.00000000E+00
  0.00000000E+00  0.00000000E+00  0.00000000E+00
  0.00000000E+00  0.00000000E+00  0.00000000E+00
  0.00000000E+00  0.00000000E+00  0.00000000E+00
  0.00000000E+00  0.00000000E+00  0.00000000E+00
  0.00000000E+00  0.00000000E+00  0.00000000E+00
  0.00000000E+00  0.00000000E+00  0.00000000E+00
  0.00000000E+00  0.00000000E+00  0.00000000E+00
  0.00000000E+00  0.00000000E+00  0.00000000E+00
  0.00000000E+00  0.00000000E+00  0.00000000E+00
  0.00000000E+00  0.00000000E+00  0.00000000E+00
  0.00000000E+00  0.00000000E+00  0.00000000E+00
  0.00000000E+00  0.00000000E+00  0.00000000E+00
  0.00000000E+00  0.00000000E+00  0.00000000E+00
  0.00000000E+00  0.00000000E+00  0.00000000E+00
  0.00000000E+00  0.00000000E+00  0.00000000E+00
  0.00000000E+00  0.00000000E+00  0.00000000E+00
  0.00000000E+00  0.00000000E+00  0.00000000E+00
  0.00000000E+00  0.00000000E+00  0.00000000E+00
  0.00000000E+00  0.00000000E+00  0.00000000E+00
  0.00000000E+00  0.00000000E+00  0.00000000E+00
  0.00000000E+00  0.00000000E+00  0.00000000E+00
  0.00000000E+00  0.00000000E+00  0.00000000E+00
  0.00000000E+00  0.00000000E+00  0.00000000E+00
  0.00000000E+00  0.00000000E+00  0.00000000E+00
  0.00000000E+00  0.00000000E+00  0.00000000E+00
  0.00000000E+00  0.00000000E+00  0.00000000E+00
  0.00000000E+00  0.00000000E+00  0.00000000E+00
  0.00000000E+00  0.00000000E+00  0.00000000E+00
  0.00000000E+00  0.00000000E+00  0.00000000E+00
  0.00000000E+00  0.00000000E+00  0.00000000E+00
  0.00000000E+00  0.00000000E+00  0.00000000E+00
  0.00000000E+00  0.00000000E+00  0.00000000E+00
  0.00000000E+00  0.00000000E+00  0.00000000E+00
  0.00000000E+00  0.00000000E+00  0.00000000E+00
  0.00000000E+00  0.00000000E+00  0.00000000E+00
  0.00000000E+00  0.00000000E+00  0.00000000E+00
  0.00000000E+00  0.00000000E+00  0.00000000E+00
  0.00000000E+00  0.00000000E+00  0.00000000E+00
  0.00000000E+00  0.00000000E+00  0.00000000E+00
  0.00000000E+00  0.00000000E+00  0.00000000E+00
  0.00000000E+00  0.00000000E+00  0.00000000E+00
  0.00000000E+00  0.00000000E+00  0.00000000E+00
  0.00000000E+00  0.00000000E+00  0.00000000E+00
  0.00000000E+00  0.00000000E+00  0.00000000E+00
  0.00000000E+00  0.00000000E+00  0.00000000E+00
  0.00000000E+00  0.00000000E+00  0.00000000E+00
  0.00000000E+00  0.00000000E+00  0.00000000E+00
  0.00000000E+00  0.00000000E+00  0.00000000E+00
  0.00000000E+00  0.00000000E+00  0.00000000E+00
  0.00000000E+00  0.00000000E+00  0.00000000E+00
  0.00000000E+00  0.00000000E+00  0.00000000E+00
  0.00000000E+00  0.00000000E+00  0.00000000E+00
  0.00000000E+00  0.00000000E+00  0.00000000E+00
  0.00000000E+00  0.00000000E+00  0.00000000E+00
  0.00000000E+00  0.00000000E+00  0.00000000E+00
  0.00000000E+00  0.00000000E+00  0.00000000E+00
