 Lu2 Te6                                
   1.00000000000000     
     4.2877311560486344    0.0000000000000000    0.0000000000000000
     0.0000000000000000    4.2879448558395143    0.0000000000000000
     0.0000000000000000    0.0000000000000000   23.9483337705059967
   Lu   Te
     2     6
Direct
  0.5000000746658557  0.9999996900716681  0.5837355680377172
  0.0000009054431445  0.5000003416150207  0.4162645089680481
  0.9999998582706837  0.0000000745303339  0.3128375556512779
  0.4999997514991250  0.5000000242087310  0.6871624387613480
  0.9999998781411890  0.0000000437107701  0.6871315688721182
  0.4999998076859669  0.4999999560271959  0.3128683941260419
  0.4999998335015050  0.0000000435373693  0.4542641153704565
  0.9999998907925374  0.4999998262989180  0.5457358502129921
 
  0.00000000E+00  0.00000000E+00  0.00000000E+00
  0.00000000E+00  0.00000000E+00  0.00000000E+00
  0.00000000E+00  0.00000000E+00  0.00000000E+00
  0.00000000E+00  0.00000000E+00  0.00000000E+00
  0.00000000E+00  0.00000000E+00  0.00000000E+00
  0.00000000E+00  0.00000000E+00  0.00000000E+00
  0.00000000E+00  0.00000000E+00  0.00000000E+00
  0.00000000E+00  0.00000000E+00  0.00000000E+00
