 Zr2 Br2                                
   1.00000000000000     
     3.5039843844617495    0.0000000000000000    0.0000000000000000
     1.7519916960014161    3.0345396916946989    0.0000000000000000
     0.0000000000000000    0.0000000000000000   21.1504722358739983
   Zr   Br
     2     2
Direct
  0.6666668398450728  0.6666668396346280  0.4446140081379726
  0.3333331593185231  0.3333331593234626  0.5553864724480195
 -0.0000000767118929 -0.0000000650996925  0.6451167159343925
  0.0000000775482969  0.0000000661416018  0.3548828034796154
 
  0.00000000E+00  0.00000000E+00  0.00000000E+00
  0.00000000E+00  0.00000000E+00  0.00000000E+00
  0.00000000E+00  0.00000000E+00  0.00000000E+00
  0.00000000E+00  0.00000000E+00  0.00000000E+00
