CONTCAR\(6)                             
   1.00000000000000     
    14.4757995605000005    0.0000000000000000    0.0000000000000000
     7.2285261864999999   12.5388166469000009    0.0000000000000000
     0.0000000000000000    0.0000000000000000   18.6821994780999994
   Nb   Te   O 
    16    32     1
Direct
  0.0103733779820304  0.9830348776018712  0.5007057605266003
  0.2354511447948708  0.9812253147711150  0.4966326016574686
  0.5140205014398621  0.0217699619539326  0.5014783475157139
  0.7471575789132902  0.0283486226855236  0.5027656089279764
  0.9843761965035704  0.2301215874168750  0.4957095816107328
  0.2695481760291341  0.2697394094079070  0.5067438112668584
  0.4964677821187749  0.2601859864742920  0.5025356284309968
  0.7262253634613834  0.2713431505949168  0.5030244101953129
  0.0212102572220722  0.5130603570511389  0.5010125934097607
  0.2564957071735767  0.5003916098404069  0.5026082302086972
  0.4909158519324689  0.4972275393160141  0.5113127111861802
  0.7352362318773799  0.4985109455987202  0.5014142603487851
  0.0297822112793695  0.7418986075416657  0.5022972144883533
  0.2613738328208036  0.7345666622563389  0.5030525856894567
  0.4926374537422376  0.7384993678374638  0.5010786528997833
  0.7395890660240595  0.7370891509628016  0.4955389177450548
  0.0823395857666849  0.0764083660749917  0.3919186376639234
  0.1684301817057076  0.1672141213320200  0.5825209921557133
  0.3283012851078296  0.0890472027425355  0.4166601853625895
  0.4218787152490597  0.1641309379933404  0.6110357005958392
  0.5894240906247924  0.0934420732532629  0.3956967597493718
  0.6617051976240448  0.1776159677713447  0.6090102965018406
  0.8344979911797684  0.0925640171615410  0.4022193325627383
  0.9119472269180381  0.1610558492467207  0.6013200269269253
  0.0890905124184932  0.3272637766110241  0.4163495152472118
  0.1626506972044027  0.4215277505097449  0.6109635730067077
  0.3379126943432923  0.3396581154454242  0.3951247530321683
  0.3965624057257467  0.3983653330794902  0.6172880045253963
  0.5742609687109977  0.3430000161720819  0.3982586443241097
  0.6765533558744975  0.4169534272180186  0.6098436314397659
  0.8248534816247965  0.3367110920664496  0.3967765049899275
  0.9256077641571162  0.4125900457134886  0.5847038188181332
  0.0928947700782606  0.5865400160606450  0.3940177919858018
  0.1758606232766032  0.6619142372509931  0.6104288493049866
  0.3390348765998294  0.5779811584768332  0.3988895635628697
  0.4116211424350492  0.6806814972003731  0.6095002926541161
  0.5778011841884085  0.5802290110574141  0.3998304519889542
  0.6636254105217757  0.6670863386298002  0.6035368688559832
  0.8429567131995761  0.5717695679407323  0.4037060646633125
  0.9144713203826096  0.6736032799133439  0.5964745604402665
  0.0923677627040961  0.8272544388179054  0.3958913824148990
  0.1664217539568572  0.9115990108526568  0.6070049405824608
  0.3356991921480489  0.8259040082901292  0.3950222890678665
  0.4146427402615329  0.9255866732358479  0.5862079094912113
  0.5726338095630648  0.8434702539784393  0.4049549215387923
  0.6751980647704902  0.9141885438208934  0.5958930125493952
  0.8363250337518773  0.8352970368243138  0.4195335299045594
  0.9169414750932909  0.9119148512908778  0.6008435088402787
  0.4745875875184338  0.4800683046563257  0.6218827841441548
 
  0.00000000E+00  0.00000000E+00  0.00000000E+00
  0.00000000E+00  0.00000000E+00  0.00000000E+00
  0.00000000E+00  0.00000000E+00  0.00000000E+00
  0.00000000E+00  0.00000000E+00  0.00000000E+00
  0.00000000E+00  0.00000000E+00  0.00000000E+00
  0.00000000E+00  0.00000000E+00  0.00000000E+00
  0.00000000E+00  0.00000000E+00  0.00000000E+00
  0.00000000E+00  0.00000000E+00  0.00000000E+00
  0.00000000E+00  0.00000000E+00  0.00000000E+00
  0.00000000E+00  0.00000000E+00  0.00000000E+00
  0.00000000E+00  0.00000000E+00  0.00000000E+00
  0.00000000E+00  0.00000000E+00  0.00000000E+00
  0.00000000E+00  0.00000000E+00  0.00000000E+00
  0.00000000E+00  0.00000000E+00  0.00000000E+00
  0.00000000E+00  0.00000000E+00  0.00000000E+00
  0.00000000E+00  0.00000000E+00  0.00000000E+00
  0.00000000E+00  0.00000000E+00  0.00000000E+00
  0.00000000E+00  0.00000000E+00  0.00000000E+00
  0.00000000E+00  0.00000000E+00  0.00000000E+00
  0.00000000E+00  0.00000000E+00  0.00000000E+00
  0.00000000E+00  0.00000000E+00  0.00000000E+00
  0.00000000E+00  0.00000000E+00  0.00000000E+00
  0.00000000E+00  0.00000000E+00  0.00000000E+00
  0.00000000E+00  0.00000000E+00  0.00000000E+00
  0.00000000E+00  0.00000000E+00  0.00000000E+00
  0.00000000E+00  0.00000000E+00  0.00000000E+00
  0.00000000E+00  0.00000000E+00  0.00000000E+00
  0.00000000E+00  0.00000000E+00  0.00000000E+00
  0.00000000E+00  0.00000000E+00  0.00000000E+00
  0.00000000E+00  0.00000000E+00  0.00000000E+00
  0.00000000E+00  0.00000000E+00  0.00000000E+00
  0.00000000E+00  0.00000000E+00  0.00000000E+00
  0.00000000E+00  0.00000000E+00  0.00000000E+00
  0.00000000E+00  0.00000000E+00  0.00000000E+00
  0.00000000E+00  0.00000000E+00  0.00000000E+00
  0.00000000E+00  0.00000000E+00  0.00000000E+00
  0.00000000E+00  0.00000000E+00  0.00000000E+00
  0.00000000E+00  0.00000000E+00  0.00000000E+00
  0.00000000E+00  0.00000000E+00  0.00000000E+00
  0.00000000E+00  0.00000000E+00  0.00000000E+00
  0.00000000E+00  0.00000000E+00  0.00000000E+00
  0.00000000E+00  0.00000000E+00  0.00000000E+00
  0.00000000E+00  0.00000000E+00  0.00000000E+00
  0.00000000E+00  0.00000000E+00  0.00000000E+00
  0.00000000E+00  0.00000000E+00  0.00000000E+00
  0.00000000E+00  0.00000000E+00  0.00000000E+00
  0.00000000E+00  0.00000000E+00  0.00000000E+00
  0.00000000E+00  0.00000000E+00  0.00000000E+00
  0.00000000E+00  0.00000000E+00  0.00000000E+00
