CONTCAR                                 
   1.00000000000000     
    11.1612997054999994    0.0000000000000000    0.0000000000000000
     0.0000000000000000   15.5193004608000003    0.0000000000000000
     0.0000000000000000    0.0000000000000000   19.4729003905999996
   Nb   Te   Pd   O    H 
     6    30     6     1     1
Selective dynamics
Direct
  0.1711781405128576  0.8418733444489419  0.4973659130543524   F   F   F
  0.1726789403270388  0.3389555875662538  0.5095991430634044   F   F   F
  0.5045416649111232  0.8423327331097568  0.4962832813658267   F   F   F
  0.5053359167155307  0.3399770519418439  0.5084841799273860   F   F   F
  0.8375500917282679  0.8424573811301528  0.4964297287528936   F   F   F
  0.8383376981401227  0.3405221033765926  0.5093125172688815   F   F   F
  0.0040936027399354  0.9408847736215051  0.5763269563807114   F   F   F
  0.0059710636848536  0.4398674437381374  0.4300270789395171   F   F   F
  0.1707934992669564  0.0074757652392066  0.4267847247683179   F   F   F
  0.1710331240153380  0.5105258023694219  0.5664234660059222   F   F   F
  0.0037057539959662  0.3375181098496398  0.6208580821740739   F   F   F
  0.0055120026617388  0.8412988435911188  0.3853335775676285   F   F   F
  0.0028412009917176  0.7436062981447691  0.5755841865579754   F   F   F
  0.0055467674724952  0.2410609046048720  0.4306975597504703   F   F   F
  0.1706559934131420  0.6758553040621749  0.4272975374139065   F   F   F
  0.1719956877881685  0.1733937277338882  0.5793762359728376   F   F   F
  0.3379769340670364  0.9410544372555094  0.5759826642341821   F   F   F
  0.3381212098233775  0.4398506105637381  0.4299133975100418   F   F   F
  0.5039626532814054  0.0075000459326944  0.4246258042293576   F   F   F
  0.5072976799841342  0.5051833449503533  0.5800526198694200   F   F   F
  0.3408108633191205  0.3364819482704249  0.6203175138630570   F   F   F
  0.3366022465000569  0.8417233943803666  0.3852177754615269   F   F   F
  0.3395282780620974  0.7437029029151176  0.5756515604889145   F   F   F
  0.3379055367280372  0.2407153377890836  0.4296591592179482   F   F   F
  0.5063845245443872  0.6765190077693930  0.4257791514478484   F   F   F
  0.5066457522828358  0.1738847081548300  0.5784208825336634   F   F   F
  0.6707654867661716  0.9409359269980442  0.5752348256608073   F   F   F
  0.6721926050813991  0.4397078602404889  0.4299824487265127   F   F   F
  0.8388319941031810  0.0075907516725024  0.4249771258318162   F   F   F
  0.8347225733636705  0.5063753029178102  0.5800332171773661   F   F   F
  0.6710006289363974  0.3396571810467037  0.6202862493702028   F   F   F
  0.6709929582209000  0.8418376642134788  0.3845630850986481   F   F   F
  0.6711821925809076  0.7433041292769929  0.5748687312243774   F   F   F
  0.6724254456856542  0.2422704935120379  0.4289709260416714   F   F   F
  0.8349481271919430  0.6770694510808895  0.4256414848764578   F   F   F
  0.8350987748486673  0.1737043359655814  0.5784055362005915   F   F   F
  0.9970443097137789  0.5936467443301439  0.5026946044053204   F   F   F
  0.0039829773069826  0.0910771146612817  0.5030496070098991   F   F   F
  0.3448284006989226  0.5935135483080245  0.5031322861370313   F   F   F
  0.3385536867040884  0.0911126675787202  0.5025734077219397   F   F   F
  0.6707372210839040  0.5911424047080089  0.5026242728207748   F   F   F
  0.6710998688858822  0.0907959336432782  0.5010351938576676   F   F   F
  0.1808354191920287  0.5291763366406173  0.6694925505296609   T   T   T
  0.1084605946777728  0.5037912806956015  0.6888498222141316   T   T   T
 
  0.00000000E+00  0.00000000E+00  0.00000000E+00
  0.00000000E+00  0.00000000E+00  0.00000000E+00
  0.00000000E+00  0.00000000E+00  0.00000000E+00
  0.00000000E+00  0.00000000E+00  0.00000000E+00
  0.00000000E+00  0.00000000E+00  0.00000000E+00
  0.00000000E+00  0.00000000E+00  0.00000000E+00
  0.00000000E+00  0.00000000E+00  0.00000000E+00
  0.00000000E+00  0.00000000E+00  0.00000000E+00
  0.00000000E+00  0.00000000E+00  0.00000000E+00
  0.00000000E+00  0.00000000E+00  0.00000000E+00
  0.00000000E+00  0.00000000E+00  0.00000000E+00
  0.00000000E+00  0.00000000E+00  0.00000000E+00
  0.00000000E+00  0.00000000E+00  0.00000000E+00
  0.00000000E+00  0.00000000E+00  0.00000000E+00
  0.00000000E+00  0.00000000E+00  0.00000000E+00
  0.00000000E+00  0.00000000E+00  0.00000000E+00
  0.00000000E+00  0.00000000E+00  0.00000000E+00
  0.00000000E+00  0.00000000E+00  0.00000000E+00
  0.00000000E+00  0.00000000E+00  0.00000000E+00
  0.00000000E+00  0.00000000E+00  0.00000000E+00
  0.00000000E+00  0.00000000E+00  0.00000000E+00
  0.00000000E+00  0.00000000E+00  0.00000000E+00
  0.00000000E+00  0.00000000E+00  0.00000000E+00
  0.00000000E+00  0.00000000E+00  0.00000000E+00
  0.00000000E+00  0.00000000E+00  0.00000000E+00
  0.00000000E+00  0.00000000E+00  0.00000000E+00
  0.00000000E+00  0.00000000E+00  0.00000000E+00
  0.00000000E+00  0.00000000E+00  0.00000000E+00
  0.00000000E+00  0.00000000E+00  0.00000000E+00
  0.00000000E+00  0.00000000E+00  0.00000000E+00
  0.00000000E+00  0.00000000E+00  0.00000000E+00
  0.00000000E+00  0.00000000E+00  0.00000000E+00
  0.00000000E+00  0.00000000E+00  0.00000000E+00
  0.00000000E+00  0.00000000E+00  0.00000000E+00
  0.00000000E+00  0.00000000E+00  0.00000000E+00
  0.00000000E+00  0.00000000E+00  0.00000000E+00
  0.00000000E+00  0.00000000E+00  0.00000000E+00
  0.00000000E+00  0.00000000E+00  0.00000000E+00
  0.00000000E+00  0.00000000E+00  0.00000000E+00
  0.00000000E+00  0.00000000E+00  0.00000000E+00
  0.00000000E+00  0.00000000E+00  0.00000000E+00
  0.00000000E+00  0.00000000E+00  0.00000000E+00
  0.00000000E+00  0.00000000E+00  0.00000000E+00
  0.00000000E+00  0.00000000E+00  0.00000000E+00
