 Nb6 Si2 Te12                           
   1.00000000000000     
     6.3422040017609218    0.0000000000000000    0.0000000000000000
     0.0000000000000000   11.4938729688828971    0.0000000000000000
     0.0000000000000000    0.0000000000000000   18.8276757843199967
   Nb   Si   Te
     6     2    12
Direct
  0.1652739670907835  0.0856247342708301  0.5000000318281863
  0.6652897461706644  0.9143855505672462  0.4999999953989871
  0.6977233840387811  0.2144522329823744  0.5000000747159348
  0.1977527605220359  0.7855565775524553  0.4999998942776855
  0.9689682409511775  0.5617479246060455  0.4999999412041873
  0.4689504505112723  0.4382404286825121  0.5000001038282420
  0.0763279672911494  0.3244824533338786  0.4999999727275934
  0.5763375433225946  0.6754998211842675  0.4999999608095962
  0.8486079303676561  0.0665025232128400  0.6028896458292365
  0.3486161481345249  0.9335197999692824  0.3971120022250858
  0.3486160401307714  0.9335196610896404  0.6028879488696646
  0.8486078636201668  0.0665026052365718  0.3971104157389007
  0.7970462935349261  0.4045419024728290  0.5997421145845721
  0.2970553220691485  0.5954522123021917  0.4002576657331645
  0.2970553070263691  0.5954524388791285  0.5997423127822969
  0.7970460481056421  0.4045418031654648  0.4002579565788764
  0.3556199362985382  0.2476290642393408  0.5971598592992748
  0.8556244480557140  0.7523596291719343  0.4028482091158523
  0.8556246118328019  0.7523595251141515  0.5971516840944417
  0.3556199909252626  0.2476291119670080  0.4028402103582209
 
  0.00000000E+00  0.00000000E+00  0.00000000E+00
  0.00000000E+00  0.00000000E+00  0.00000000E+00
  0.00000000E+00  0.00000000E+00  0.00000000E+00
  0.00000000E+00  0.00000000E+00  0.00000000E+00
  0.00000000E+00  0.00000000E+00  0.00000000E+00
  0.00000000E+00  0.00000000E+00  0.00000000E+00
  0.00000000E+00  0.00000000E+00  0.00000000E+00
  0.00000000E+00  0.00000000E+00  0.00000000E+00
  0.00000000E+00  0.00000000E+00  0.00000000E+00
  0.00000000E+00  0.00000000E+00  0.00000000E+00
  0.00000000E+00  0.00000000E+00  0.00000000E+00
  0.00000000E+00  0.00000000E+00  0.00000000E+00
  0.00000000E+00  0.00000000E+00  0.00000000E+00
  0.00000000E+00  0.00000000E+00  0.00000000E+00
  0.00000000E+00  0.00000000E+00  0.00000000E+00
  0.00000000E+00  0.00000000E+00  0.00000000E+00
  0.00000000E+00  0.00000000E+00  0.00000000E+00
  0.00000000E+00  0.00000000E+00  0.00000000E+00
  0.00000000E+00  0.00000000E+00  0.00000000E+00
  0.00000000E+00  0.00000000E+00  0.00000000E+00
