G   32   17    1    0.005     # Parameters to Generate KPOINTS (Don't Edit This Line)
     273
Reciprocal lattice
    0.000000000000    0.000000000000    0.000000000000       1
    0.031250000000    0.000000000000    0.000000000000       2
    0.062500000000    0.000000000000    0.000000000000       2
    0.093750000000    0.000000000000    0.000000000000       2
    0.125000000000    0.000000000000    0.000000000000       2
    0.156250000000    0.000000000000    0.000000000000       2
    0.187500000000    0.000000000000    0.000000000000       2
    0.218750000000    0.000000000000    0.000000000000       2
    0.250000000000    0.000000000000    0.000000000000       2
    0.281250000000    0.000000000000    0.000000000000       2
    0.312500000000    0.000000000000    0.000000000000       2
    0.343750000000    0.000000000000    0.000000000000       2
    0.375000000000    0.000000000000    0.000000000000       2
    0.406250000000    0.000000000000    0.000000000000       2
    0.437500000000    0.000000000000    0.000000000000       2
    0.468750000000    0.000000000000    0.000000000000       2
    0.500000000000    0.000000000000    0.000000000000       1
    0.000000000000    0.058823529412    0.000000000000       2
    0.031250000000    0.058823529412    0.000000000000       2
    0.062500000000    0.058823529412    0.000000000000       2
    0.093750000000    0.058823529412    0.000000000000       2
    0.125000000000    0.058823529412    0.000000000000       2
    0.156250000000    0.058823529412    0.000000000000       2
    0.187500000000    0.058823529412    0.000000000000       2
    0.218750000000    0.058823529412    0.000000000000       2
    0.250000000000    0.058823529412    0.000000000000       2
    0.281250000000    0.058823529412    0.000000000000       2
    0.312500000000    0.058823529412    0.000000000000       2
    0.343750000000    0.058823529412    0.000000000000       2
    0.375000000000    0.058823529412    0.000000000000       2
    0.406250000000    0.058823529412    0.000000000000       2
    0.437500000000    0.058823529412    0.000000000000       2
    0.468750000000    0.058823529412    0.000000000000       2
    0.500000000000    0.058823529412    0.000000000000       2
   -0.468750000000    0.058823529412    0.000000000000       2
   -0.437500000000    0.058823529412    0.000000000000       2
   -0.406250000000    0.058823529412    0.000000000000       2
   -0.375000000000    0.058823529412    0.000000000000       2
   -0.343750000000    0.058823529412    0.000000000000       2
   -0.312500000000    0.058823529412    0.000000000000       2
   -0.281250000000    0.058823529412    0.000000000000       2
   -0.250000000000    0.058823529412    0.000000000000       2
   -0.218750000000    0.058823529412    0.000000000000       2
   -0.187500000000    0.058823529412    0.000000000000       2
   -0.156250000000    0.058823529412    0.000000000000       2
   -0.125000000000    0.058823529412    0.000000000000       2
   -0.093750000000    0.058823529412    0.000000000000       2
   -0.062500000000    0.058823529412    0.000000000000       2
   -0.031250000000    0.058823529412    0.000000000000       2
    0.000000000000    0.117647058824    0.000000000000       2
    0.031250000000    0.117647058824    0.000000000000       2
    0.062500000000    0.117647058824    0.000000000000       2
    0.093750000000    0.117647058824    0.000000000000       2
    0.125000000000    0.117647058824    0.000000000000       2
    0.156250000000    0.117647058824    0.000000000000       2
    0.187500000000    0.117647058824    0.000000000000       2
    0.218750000000    0.117647058824    0.000000000000       2
    0.250000000000    0.117647058824    0.000000000000       2
    0.281250000000    0.117647058824    0.000000000000       2
    0.312500000000    0.117647058824    0.000000000000       2
    0.343750000000    0.117647058824    0.000000000000       2
    0.375000000000    0.117647058824    0.000000000000       2
    0.406250000000    0.117647058824    0.000000000000       2
    0.437500000000    0.117647058824    0.000000000000       2
    0.468750000000    0.117647058824    0.000000000000       2
    0.500000000000    0.117647058824    0.000000000000       2
   -0.468750000000    0.117647058824    0.000000000000       2
   -0.437500000000    0.117647058824    0.000000000000       2
   -0.406250000000    0.117647058824    0.000000000000       2
   -0.375000000000    0.117647058824    0.000000000000       2
   -0.343750000000    0.117647058824    0.000000000000       2
   -0.312500000000    0.117647058824    0.000000000000       2
   -0.281250000000    0.117647058824    0.000000000000       2
   -0.250000000000    0.117647058824    0.000000000000       2
   -0.218750000000    0.117647058824    0.000000000000       2
   -0.187500000000    0.117647058824    0.000000000000       2
   -0.156250000000    0.117647058824    0.000000000000       2
   -0.125000000000    0.117647058824    0.000000000000       2
   -0.093750000000    0.117647058824    0.000000000000       2
   -0.062500000000    0.117647058824    0.000000000000       2
   -0.031250000000    0.117647058824    0.000000000000       2
    0.000000000000    0.176470588235    0.000000000000       2
    0.031250000000    0.176470588235    0.000000000000       2
    0.062500000000    0.176470588235    0.000000000000       2
    0.093750000000    0.176470588235    0.000000000000       2
    0.125000000000    0.176470588235    0.000000000000       2
    0.156250000000    0.176470588235    0.000000000000       2
    0.187500000000    0.176470588235    0.000000000000       2
    0.218750000000    0.176470588235    0.000000000000       2
    0.250000000000    0.176470588235    0.000000000000       2
    0.281250000000    0.176470588235    0.000000000000       2
    0.312500000000    0.176470588235    0.000000000000       2
    0.343750000000    0.176470588235    0.000000000000       2
    0.375000000000    0.176470588235    0.000000000000       2
    0.406250000000    0.176470588235    0.000000000000       2
    0.437500000000    0.176470588235    0.000000000000       2
    0.468750000000    0.176470588235    0.000000000000       2
    0.500000000000    0.176470588235    0.000000000000       2
   -0.468750000000    0.176470588235    0.000000000000       2
   -0.437500000000    0.176470588235    0.000000000000       2
   -0.406250000000    0.176470588235    0.000000000000       2
   -0.375000000000    0.176470588235    0.000000000000       2
   -0.343750000000    0.176470588235    0.000000000000       2
   -0.312500000000    0.176470588235    0.000000000000       2
   -0.281250000000    0.176470588235    0.000000000000       2
   -0.250000000000    0.176470588235    0.000000000000       2
   -0.218750000000    0.176470588235    0.000000000000       2
   -0.187500000000    0.176470588235    0.000000000000       2
   -0.156250000000    0.176470588235    0.000000000000       2
   -0.125000000000    0.176470588235    0.000000000000       2
   -0.093750000000    0.176470588235    0.000000000000       2
   -0.062500000000    0.176470588235    0.000000000000       2
   -0.031250000000    0.176470588235    0.000000000000       2
    0.000000000000    0.235294117647    0.000000000000       2
    0.031250000000    0.235294117647    0.000000000000       2
    0.062500000000    0.235294117647    0.000000000000       2
    0.093750000000    0.235294117647    0.000000000000       2
    0.125000000000    0.235294117647    0.000000000000       2
    0.156250000000    0.235294117647    0.000000000000       2
    0.187500000000    0.235294117647    0.000000000000       2
    0.218750000000    0.235294117647    0.000000000000       2
    0.250000000000    0.235294117647    0.000000000000       2
    0.281250000000    0.235294117647    0.000000000000       2
    0.312500000000    0.235294117647    0.000000000000       2
    0.343750000000    0.235294117647    0.000000000000       2
    0.375000000000    0.235294117647    0.000000000000       2
    0.406250000000    0.235294117647    0.000000000000       2
    0.437500000000    0.235294117647    0.000000000000       2
    0.468750000000    0.235294117647    0.000000000000       2
    0.500000000000    0.235294117647    0.000000000000       2
   -0.468750000000    0.235294117647    0.000000000000       2
   -0.437500000000    0.235294117647    0.000000000000       2
   -0.406250000000    0.235294117647    0.000000000000       2
   -0.375000000000    0.235294117647    0.000000000000       2
   -0.343750000000    0.235294117647    0.000000000000       2
   -0.312500000000    0.235294117647    0.000000000000       2
   -0.281250000000    0.235294117647    0.000000000000       2
   -0.250000000000    0.235294117647    0.000000000000       2
   -0.218750000000    0.235294117647    0.000000000000       2
   -0.187500000000    0.235294117647    0.000000000000       2
   -0.156250000000    0.235294117647    0.000000000000       2
   -0.125000000000    0.235294117647    0.000000000000       2
   -0.093750000000    0.235294117647    0.000000000000       2
   -0.062500000000    0.235294117647    0.000000000000       2
   -0.031250000000    0.235294117647    0.000000000000       2
    0.000000000000    0.294117647059    0.000000000000       2
    0.031250000000    0.294117647059    0.000000000000       2
    0.062500000000    0.294117647059    0.000000000000       2
    0.093750000000    0.294117647059    0.000000000000       2
    0.125000000000    0.294117647059    0.000000000000       2
    0.156250000000    0.294117647059    0.000000000000       2
    0.187500000000    0.294117647059    0.000000000000       2
    0.218750000000    0.294117647059    0.000000000000       2
    0.250000000000    0.294117647059    0.000000000000       2
    0.281250000000    0.294117647059    0.000000000000       2
    0.312500000000    0.294117647059    0.000000000000       2
    0.343750000000    0.294117647059    0.000000000000       2
    0.375000000000    0.294117647059    0.000000000000       2
    0.406250000000    0.294117647059    0.000000000000       2
    0.437500000000    0.294117647059    0.000000000000       2
    0.468750000000    0.294117647059    0.000000000000       2
    0.500000000000    0.294117647059    0.000000000000       2
   -0.468750000000    0.294117647059    0.000000000000       2
   -0.437500000000    0.294117647059    0.000000000000       2
   -0.406250000000    0.294117647059    0.000000000000       2
   -0.375000000000    0.294117647059    0.000000000000       2
   -0.343750000000    0.294117647059    0.000000000000       2
   -0.312500000000    0.294117647059    0.000000000000       2
   -0.281250000000    0.294117647059    0.000000000000       2
   -0.250000000000    0.294117647059    0.000000000000       2
   -0.218750000000    0.294117647059    0.000000000000       2
   -0.187500000000    0.294117647059    0.000000000000       2
   -0.156250000000    0.294117647059    0.000000000000       2
   -0.125000000000    0.294117647059    0.000000000000       2
   -0.093750000000    0.294117647059    0.000000000000       2
   -0.062500000000    0.294117647059    0.000000000000       2
   -0.031250000000    0.294117647059    0.000000000000       2
    0.000000000000    0.352941176471    0.000000000000       2
    0.031250000000    0.352941176471    0.000000000000       2
    0.062500000000    0.352941176471    0.000000000000       2
    0.093750000000    0.352941176471    0.000000000000       2
    0.125000000000    0.352941176471    0.000000000000       2
    0.156250000000    0.352941176471    0.000000000000       2
    0.187500000000    0.352941176471    0.000000000000       2
    0.218750000000    0.352941176471    0.000000000000       2
    0.250000000000    0.352941176471    0.000000000000       2
    0.281250000000    0.352941176471    0.000000000000       2
    0.312500000000    0.352941176471    0.000000000000       2
    0.343750000000    0.352941176471    0.000000000000       2
    0.375000000000    0.352941176471    0.000000000000       2
    0.406250000000    0.352941176471    0.000000000000       2
    0.437500000000    0.352941176471    0.000000000000       2
    0.468750000000    0.352941176471    0.000000000000       2
    0.500000000000    0.352941176471    0.000000000000       2
   -0.468750000000    0.352941176471    0.000000000000       2
   -0.437500000000    0.352941176471    0.000000000000       2
   -0.406250000000    0.352941176471    0.000000000000       2
   -0.375000000000    0.352941176471    0.000000000000       2
   -0.343750000000    0.352941176471    0.000000000000       2
   -0.312500000000    0.352941176471    0.000000000000       2
   -0.281250000000    0.352941176471    0.000000000000       2
   -0.250000000000    0.352941176471    0.000000000000       2
   -0.218750000000    0.352941176471    0.000000000000       2
   -0.187500000000    0.352941176471    0.000000000000       2
   -0.156250000000    0.352941176471    0.000000000000       2
   -0.125000000000    0.352941176471    0.000000000000       2
   -0.093750000000    0.352941176471    0.000000000000       2
   -0.062500000000    0.352941176471    0.000000000000       2
   -0.031250000000    0.352941176471    0.000000000000       2
    0.000000000000    0.411764705882    0.000000000000       2
    0.031250000000    0.411764705882    0.000000000000       2
    0.062500000000    0.411764705882    0.000000000000       2
    0.093750000000    0.411764705882    0.000000000000       2
    0.125000000000    0.411764705882    0.000000000000       2
    0.156250000000    0.411764705882    0.000000000000       2
    0.187500000000    0.411764705882    0.000000000000       2
    0.218750000000    0.411764705882    0.000000000000       2
    0.250000000000    0.411764705882    0.000000000000       2
    0.281250000000    0.411764705882    0.000000000000       2
    0.312500000000    0.411764705882    0.000000000000       2
    0.343750000000    0.411764705882    0.000000000000       2
    0.375000000000    0.411764705882    0.000000000000       2
    0.406250000000    0.411764705882    0.000000000000       2
    0.437500000000    0.411764705882    0.000000000000       2
    0.468750000000    0.411764705882    0.000000000000       2
    0.500000000000    0.411764705882    0.000000000000       2
   -0.468750000000    0.411764705882    0.000000000000       2
   -0.437500000000    0.411764705882    0.000000000000       2
   -0.406250000000    0.411764705882    0.000000000000       2
   -0.375000000000    0.411764705882    0.000000000000       2
   -0.343750000000    0.411764705882    0.000000000000       2
   -0.312500000000    0.411764705882    0.000000000000       2
   -0.281250000000    0.411764705882    0.000000000000       2
   -0.250000000000    0.411764705882    0.000000000000       2
   -0.218750000000    0.411764705882    0.000000000000       2
   -0.187500000000    0.411764705882    0.000000000000       2
   -0.156250000000    0.411764705882    0.000000000000       2
   -0.125000000000    0.411764705882    0.000000000000       2
   -0.093750000000    0.411764705882    0.000000000000       2
   -0.062500000000    0.411764705882    0.000000000000       2
   -0.031250000000    0.411764705882    0.000000000000       2
    0.000000000000    0.470588235294    0.000000000000       2
    0.031250000000    0.470588235294    0.000000000000       2
    0.062500000000    0.470588235294    0.000000000000       2
    0.093750000000    0.470588235294    0.000000000000       2
    0.125000000000    0.470588235294    0.000000000000       2
    0.156250000000    0.470588235294    0.000000000000       2
    0.187500000000    0.470588235294    0.000000000000       2
    0.218750000000    0.470588235294    0.000000000000       2
    0.250000000000    0.470588235294    0.000000000000       2
    0.281250000000    0.470588235294    0.000000000000       2
    0.312500000000    0.470588235294    0.000000000000       2
    0.343750000000    0.470588235294    0.000000000000       2
    0.375000000000    0.470588235294    0.000000000000       2
    0.406250000000    0.470588235294    0.000000000000       2
    0.437500000000    0.470588235294    0.000000000000       2
    0.468750000000    0.470588235294    0.000000000000       2
    0.500000000000    0.470588235294    0.000000000000       2
   -0.468750000000    0.470588235294    0.000000000000       2
   -0.437500000000    0.470588235294    0.000000000000       2
   -0.406250000000    0.470588235294    0.000000000000       2
   -0.375000000000    0.470588235294    0.000000000000       2
   -0.343750000000    0.470588235294    0.000000000000       2
   -0.312500000000    0.470588235294    0.000000000000       2
   -0.281250000000    0.470588235294    0.000000000000       2
   -0.250000000000    0.470588235294    0.000000000000       2
   -0.218750000000    0.470588235294    0.000000000000       2
   -0.187500000000    0.470588235294    0.000000000000       2
   -0.156250000000    0.470588235294    0.000000000000       2
   -0.125000000000    0.470588235294    0.000000000000       2
   -0.093750000000    0.470588235294    0.000000000000       2
   -0.062500000000    0.470588235294    0.000000000000       2
   -0.031250000000    0.470588235294    0.000000000000       2
