CONTCAR\(12)                            
   1.00000000000000     
    13.8203001021999992    0.0000000000000000    0.0000000000000000
     1.7075399424000000   15.0073707208999991    0.0000000000000000
     0.0000000000000000    0.0000000000000000   18.4675998688000007
   Nb   Ir   Se   O    H 
    18     2    40     1     1
Direct
  0.0826760218305062  0.1869783645546417  0.5000611671483023
  0.0018541420091601  0.9830126999679757  0.4958530883813738
  0.3833682350330749  0.8058283131362353  0.4969315342086231
  0.2849080206163025  0.6250978879368322  0.4996537820876829
  0.2421628374192353  0.9901644691804502  0.4955012792927754
  0.1861588374187167  0.4263330841521819  0.5041109326540562
  0.1392698499977291  0.8064748857413078  0.4971875940422728
  0.0452386170860187  0.6245928857664345  0.4987427950774583
  0.4382815713361611  0.3833888282349265  0.5035012683243107
  0.5770093910751539  0.1902044776797019  0.5056163838546315
  0.4996244970474186  0.9826653977462310  0.4934867626022217
  0.9070452511670103  0.8040876704771301  0.4978130469848110
  0.7996272984052257  0.6237099378050995  0.5009011435884255
  0.7528759826968172  0.9859295557177510  0.4967884154328840
  0.6832277498683883  0.4249748218339190  0.5080497141553095
  0.6553781605381217  0.8060230045936695  0.4981739903102800
  0.5394311565247705  0.6259441202274201  0.5000865056952298
  0.9406236928394816  0.3851397896685372  0.4985044497538425
  0.3657203142904443  0.2130132500609794  0.4907374804461943
  0.8639135268393753  0.2138911642828367  0.4995017576806353
  0.4679695332279868  0.2705775874419959  0.6065188665043468
  0.0809247021695813  0.3375195445309792  0.4147081766732556
  0.3640893009654543  0.0765801758200685  0.5712538185799884
  0.4838896359461983  0.1324709265423441  0.4041800924460573
  0.2603921866427210  0.8716038269756621  0.5931652588965936
  0.2210798030401960  0.2691859170829091  0.5696216153789475
  0.3754038956919782  0.9370407163031070  0.4012085537731910
  0.3262079241749007  0.3414956722871370  0.4074720003049525
  0.1590888246157992  0.6782886373391979  0.5964340137826072
  0.1106881469498808  0.0629176627321392  0.5902827705899175
  0.2328191655682207  0.1416385503071538  0.4175792536211499
  0.2750804768513199  0.7416989821050687  0.4009477629437523
  0.0560002876967801  0.4778133825185953  0.5891273929129295
  0.0136083616002204  0.8689588098062198  0.5966994451465184
  0.1756147554167146  0.5448845338777233  0.4069333385609402
  0.1288908419374347  0.9355204227737087  0.3984887243219355
  0.4070915233668241  0.6760708616168174  0.5939814088987239
  0.0292540973279809  0.7405069750704840  0.3987773908136115
  0.3123261788931944  0.4777465272545165  0.5882036656735516
  0.4260210580262982  0.5363240691065410  0.4237068904679117
  0.9687449054671570  0.2688414833283902  0.5974405409349205
  0.5792813319638936  0.3386068202619457  0.4180488011834504
  0.8645170106402731  0.0746110769543971  0.5759704736038340
  0.9765231242932957  0.1315494863935904  0.4065276703331220
  0.7681022942776746  0.8679386189421834  0.5935464877879517
  0.7170677272942871  0.2692125476054117  0.5755282607188875
  0.8810369811586247  0.9348032777046903  0.4009983877536820
  0.8230773536950454  0.3389411738375674  0.4102403041791188
  0.6622698623298469  0.6750466517692737  0.5930694819082095
  0.6111111157054034  0.0588461157971678  0.5883220169701622
  0.7346759433952325  0.1440734494075913  0.4260925370980002
  0.7828347256336985  0.7416430532526674  0.4038872330908740
  0.5540920082735052  0.4781233255285670  0.5918169641257888
  0.5114763086240479  0.8655292101454695  0.5885052702788581
  0.6762909890654735  0.5453845782258395  0.4131079684569595
  0.6333438976810469  0.9376533123629024  0.4010614824929354
  0.9146052706470499  0.6759454419768011  0.5960247118716788
  0.5272750243579559  0.7449835450920453  0.4065449189385632
  0.8161233078981460  0.4756775245735125  0.5876684141461608
  0.9282255164899502  0.5367547997668050  0.4190584967321669
  0.5433077483733596  0.3204639663555774  0.6846200773001517
  0.5748815545862275  0.2685724524609729  0.7106961920823019
 
  0.00000000E+00  0.00000000E+00  0.00000000E+00
  0.00000000E+00  0.00000000E+00  0.00000000E+00
  0.00000000E+00  0.00000000E+00  0.00000000E+00
  0.00000000E+00  0.00000000E+00  0.00000000E+00
  0.00000000E+00  0.00000000E+00  0.00000000E+00
  0.00000000E+00  0.00000000E+00  0.00000000E+00
  0.00000000E+00  0.00000000E+00  0.00000000E+00
  0.00000000E+00  0.00000000E+00  0.00000000E+00
  0.00000000E+00  0.00000000E+00  0.00000000E+00
  0.00000000E+00  0.00000000E+00  0.00000000E+00
  0.00000000E+00  0.00000000E+00  0.00000000E+00
  0.00000000E+00  0.00000000E+00  0.00000000E+00
  0.00000000E+00  0.00000000E+00  0.00000000E+00
  0.00000000E+00  0.00000000E+00  0.00000000E+00
  0.00000000E+00  0.00000000E+00  0.00000000E+00
  0.00000000E+00  0.00000000E+00  0.00000000E+00
  0.00000000E+00  0.00000000E+00  0.00000000E+00
  0.00000000E+00  0.00000000E+00  0.00000000E+00
  0.00000000E+00  0.00000000E+00  0.00000000E+00
  0.00000000E+00  0.00000000E+00  0.00000000E+00
  0.00000000E+00  0.00000000E+00  0.00000000E+00
  0.00000000E+00  0.00000000E+00  0.00000000E+00
  0.00000000E+00  0.00000000E+00  0.00000000E+00
  0.00000000E+00  0.00000000E+00  0.00000000E+00
  0.00000000E+00  0.00000000E+00  0.00000000E+00
  0.00000000E+00  0.00000000E+00  0.00000000E+00
  0.00000000E+00  0.00000000E+00  0.00000000E+00
  0.00000000E+00  0.00000000E+00  0.00000000E+00
  0.00000000E+00  0.00000000E+00  0.00000000E+00
  0.00000000E+00  0.00000000E+00  0.00000000E+00
  0.00000000E+00  0.00000000E+00  0.00000000E+00
  0.00000000E+00  0.00000000E+00  0.00000000E+00
  0.00000000E+00  0.00000000E+00  0.00000000E+00
  0.00000000E+00  0.00000000E+00  0.00000000E+00
  0.00000000E+00  0.00000000E+00  0.00000000E+00
  0.00000000E+00  0.00000000E+00  0.00000000E+00
  0.00000000E+00  0.00000000E+00  0.00000000E+00
  0.00000000E+00  0.00000000E+00  0.00000000E+00
  0.00000000E+00  0.00000000E+00  0.00000000E+00
  0.00000000E+00  0.00000000E+00  0.00000000E+00
  0.00000000E+00  0.00000000E+00  0.00000000E+00
  0.00000000E+00  0.00000000E+00  0.00000000E+00
  0.00000000E+00  0.00000000E+00  0.00000000E+00
  0.00000000E+00  0.00000000E+00  0.00000000E+00
  0.00000000E+00  0.00000000E+00  0.00000000E+00
  0.00000000E+00  0.00000000E+00  0.00000000E+00
  0.00000000E+00  0.00000000E+00  0.00000000E+00
  0.00000000E+00  0.00000000E+00  0.00000000E+00
  0.00000000E+00  0.00000000E+00  0.00000000E+00
  0.00000000E+00  0.00000000E+00  0.00000000E+00
  0.00000000E+00  0.00000000E+00  0.00000000E+00
  0.00000000E+00  0.00000000E+00  0.00000000E+00
  0.00000000E+00  0.00000000E+00  0.00000000E+00
  0.00000000E+00  0.00000000E+00  0.00000000E+00
  0.00000000E+00  0.00000000E+00  0.00000000E+00
  0.00000000E+00  0.00000000E+00  0.00000000E+00
  0.00000000E+00  0.00000000E+00  0.00000000E+00
  0.00000000E+00  0.00000000E+00  0.00000000E+00
  0.00000000E+00  0.00000000E+00  0.00000000E+00
  0.00000000E+00  0.00000000E+00  0.00000000E+00
  0.00000000E+00  0.00000000E+00  0.00000000E+00
  0.00000000E+00  0.00000000E+00  0.00000000E+00
