CONTCAR\(2)                             
   1.00000000000000     
    15.0899000167999997    0.0000000000000000    0.0000000000000000
     0.0000000000000000   15.0899000167999997    0.0000000000000000
     0.0000000000000000    0.0000000000000000   20.7000007629000002
   Eu   Br   O    H 
    32    32    34     1
Direct
  0.9965208475244154  0.1203388156505270  0.4323447381781662
  0.1222100489861120  0.0007985031527937  0.5703704512462622
  0.2472824721622757  0.1256129915116233  0.4351918681460489
  0.3728611926097471  0.9922652599773656  0.5747886484500313
  0.4990491681030065  0.1249530143360076  0.4359761887608471
  0.6207229943880535  0.9987688780959019  0.5737296504710301
  0.7475524847791277  0.1189691189296767  0.4239413533117542
  0.8702021624399023  0.0016110455472926  0.5670129045918060
  0.9959706069900918  0.3704686578310614  0.4277700586955007
  0.1241850747927344  0.2480211850998444  0.5755215408679675
  0.2440282381773997  0.3745795012206656  0.4285525821456844
  0.3737942307781168  0.2467824821682143  0.5704656921736557
  0.4908174073823659  0.3765872918838937  0.4340997538733546
  0.6254985197980432  0.2452368166209737  0.5722253447226677
  0.7443357817507277  0.3663365654990329  0.4304660713407671
  0.8752152518793039  0.2506493439527731  0.5664962210326863
  0.9960140775619450  0.6190901166455234  0.4274203443887572
  0.1197484528475741  0.4960430718990096  0.5656719055107615
  0.2500446286123719  0.6256319987100056  0.4397589075529353
  0.3691889874419942  0.4966536511681028  0.5755638265175946
  0.4990022171747697  0.6258059353937711  0.4313339499175370
  0.6258572091971146  0.4903118750778077  0.5614358994925865
  0.7475171868719599  0.6185293340174027  0.4281084239840212
  0.8733519154354710  0.5011431452466226  0.5677522918888442
  0.9993370955100644  0.8687493206115064  0.4267970870958706
  0.1206962018569016  0.7507236815364351  0.5679670395376988
  0.2484901658827354  0.8753159586692334  0.4354205713945873
  0.3705451476725727  0.7412847490106884  0.5835409982346818
  0.4960726862132105  0.8744581336525528  0.4369230642430892
  0.6267074972986535  0.7527241445924062  0.5621612054423579
  0.7504540190122597  0.8711430336413812  0.4309261876309733
  0.8752491644757896  0.7550807299406941  0.5687247674880354
  0.9947979682121684  0.1235536765262353  0.6475088145204992
  0.1255836950054317  0.9995171366340330  0.3537513381457558
  0.2493331857098937  0.1225141388456521  0.6507769126878387
  0.3735921116385441  0.9981126799729196  0.3570985460542886
  0.4982830393634359  0.1234583639410047  0.6499340010552146
  0.6177824232957860  0.9962429384330349  0.3518962865882571
  0.7507407929443062  0.1243617880171115  0.6500096015849763
  0.8736844810585396  0.9945517372174777  0.3500083921403885
  0.9971742831789143  0.3761699744600833  0.6479017657202704
  0.1220571937351522  0.2445546242281296  0.3510194215799132
  0.2466616740681999  0.3720909904369307  0.6520601267277968
  0.3720102080222745  0.2481858286318115  0.3557905815842730
  0.4995318078583324  0.3765151117684127  0.6503343771112498
  0.6182019997524222  0.2458909972732428  0.3508198884489389
  0.7497168231959677  0.3750893152620520  0.6459737720051351
  0.8730647972293895  0.2459700329145633  0.3504838918222646
  0.9908864197146272  0.6258737472399858  0.6478344342520472
  0.1232788862433267  0.4984743470101733  0.3520799996848112
  0.2322652262684457  0.6215046040403536  0.6476262796045518
  0.3698964578060142  0.5037087550501482  0.3541443029947402
  0.5846487402976095  0.6191329810666062  0.6715465298688983
  0.6189545860583436  0.4942571036255288  0.3533899868747383
  0.7571163882201120  0.6301257632024999  0.6625597896425859
  0.8698941309230861  0.4940842582319078  0.3483934751462456
  0.9977245190566251  0.8760326281470157  0.6489130876927902
  0.1285387807672720  0.7457048375307167  0.3542018662448285
  0.2431661975446318  0.8738231848816724  0.6527128974350660
  0.3715509810242708  0.7497766982436573  0.3554515807736820
  0.5013263520398752  0.8651490315599801  0.6508732950761598
  0.6209716742195113  0.7502644799995153  0.3548132502004577
  0.7493212290398930  0.8751213738772989  0.6466945526910379
  0.8726991989530219  0.7447350899430347  0.3487825751589924
  0.1198516559304394  0.1278252218354652  0.5025610150831739
  0.9973789373337780  0.9898288540951015  0.4992644311699976
  0.3726828401077711  0.1157266087753257  0.5046887354501592
  0.2504471897073799  0.0014678794134753  0.5038783006301841
  0.6310452447914088  0.1211823679864921  0.5010083359328945
  0.4955659746038421  0.0006843052788241  0.5045376707091975
  0.8672056789345035  0.1266137437933494  0.4974982888456481
  0.7402945547323867  0.9986619633156266  0.4992159286113420
  0.1193915010954782  0.3653061842453695  0.4993536438393704
  0.0058561630975333  0.2474442871747087  0.5002266736587089
  0.3625353575938846  0.3740981438306221  0.5028786617727619
  0.2466709395763331  0.2547464106189992  0.5026054163119156
  0.6170904758889577  0.3627033665914610  0.4983690818005257
  0.5013249712571550  0.2531994237632702  0.5033373472376468
  0.8713324242286191  0.3786310836297488  0.4979893819451178
  0.7484081758854089  0.2367676044164995  0.4989564102679793
  0.1161335384357614  0.6246184549829437  0.4999250238768411
  0.9948753025975918  0.4940153980321398  0.4968432465479751
  0.3816093057701835  0.6224760440459818  0.5074470348093030
  0.2502307102561190  0.4945629242558454  0.5020394538269457
  0.6249873397454877  0.6217351043657828  0.4999171022514659
  0.4924662458453355  0.5057422365687216  0.5036857240009667
  0.8711613177866582  0.6306467826164592  0.4993909337915170
  0.7528471830595578  0.4926300740031451  0.4966550074512952
  0.1195963184565372  0.8779924424670043  0.5001386910181864
  0.9966739077623430  0.7421931872611722  0.4972549305578013
  0.3713129220378661  0.8590729968599788  0.5081531476341681
  0.2541884574913524  0.7536671473421208  0.5072901594707986
  0.6263913230314131  0.8807594324972712  0.4993897048217661
  0.4882479482769568  0.7464572508322789  0.5066000927068472
  0.8784014075133797  0.8779426100904928  0.4982841139783361
  0.7538694481631865  0.7416320827430027  0.4978179858891423
  0.4486254197114974  0.6011558420327816  0.6580084397282704
  0.4102024463833871  0.5556957188273586  0.7115532691470605
  0.4382980778582990  0.4956003569075946  0.7086905747775418
 
  0.00000000E+00  0.00000000E+00  0.00000000E+00
  0.00000000E+00  0.00000000E+00  0.00000000E+00
  0.00000000E+00  0.00000000E+00  0.00000000E+00
  0.00000000E+00  0.00000000E+00  0.00000000E+00
  0.00000000E+00  0.00000000E+00  0.00000000E+00
  0.00000000E+00  0.00000000E+00  0.00000000E+00
  0.00000000E+00  0.00000000E+00  0.00000000E+00
  0.00000000E+00  0.00000000E+00  0.00000000E+00
  0.00000000E+00  0.00000000E+00  0.00000000E+00
  0.00000000E+00  0.00000000E+00  0.00000000E+00
  0.00000000E+00  0.00000000E+00  0.00000000E+00
  0.00000000E+00  0.00000000E+00  0.00000000E+00
  0.00000000E+00  0.00000000E+00  0.00000000E+00
  0.00000000E+00  0.00000000E+00  0.00000000E+00
  0.00000000E+00  0.00000000E+00  0.00000000E+00
  0.00000000E+00  0.00000000E+00  0.00000000E+00
  0.00000000E+00  0.00000000E+00  0.00000000E+00
  0.00000000E+00  0.00000000E+00  0.00000000E+00
  0.00000000E+00  0.00000000E+00  0.00000000E+00
  0.00000000E+00  0.00000000E+00  0.00000000E+00
  0.00000000E+00  0.00000000E+00  0.00000000E+00
  0.00000000E+00  0.00000000E+00  0.00000000E+00
  0.00000000E+00  0.00000000E+00  0.00000000E+00
  0.00000000E+00  0.00000000E+00  0.00000000E+00
  0.00000000E+00  0.00000000E+00  0.00000000E+00
  0.00000000E+00  0.00000000E+00  0.00000000E+00
  0.00000000E+00  0.00000000E+00  0.00000000E+00
  0.00000000E+00  0.00000000E+00  0.00000000E+00
  0.00000000E+00  0.00000000E+00  0.00000000E+00
  0.00000000E+00  0.00000000E+00  0.00000000E+00
  0.00000000E+00  0.00000000E+00  0.00000000E+00
  0.00000000E+00  0.00000000E+00  0.00000000E+00
  0.00000000E+00  0.00000000E+00  0.00000000E+00
  0.00000000E+00  0.00000000E+00  0.00000000E+00
  0.00000000E+00  0.00000000E+00  0.00000000E+00
  0.00000000E+00  0.00000000E+00  0.00000000E+00
  0.00000000E+00  0.00000000E+00  0.00000000E+00
  0.00000000E+00  0.00000000E+00  0.00000000E+00
  0.00000000E+00  0.00000000E+00  0.00000000E+00
  0.00000000E+00  0.00000000E+00  0.00000000E+00
  0.00000000E+00  0.00000000E+00  0.00000000E+00
  0.00000000E+00  0.00000000E+00  0.00000000E+00
  0.00000000E+00  0.00000000E+00  0.00000000E+00
  0.00000000E+00  0.00000000E+00  0.00000000E+00
  0.00000000E+00  0.00000000E+00  0.00000000E+00
  0.00000000E+00  0.00000000E+00  0.00000000E+00
  0.00000000E+00  0.00000000E+00  0.00000000E+00
  0.00000000E+00  0.00000000E+00  0.00000000E+00
  0.00000000E+00  0.00000000E+00  0.00000000E+00
  0.00000000E+00  0.00000000E+00  0.00000000E+00
  0.00000000E+00  0.00000000E+00  0.00000000E+00
  0.00000000E+00  0.00000000E+00  0.00000000E+00
  0.00000000E+00  0.00000000E+00  0.00000000E+00
  0.00000000E+00  0.00000000E+00  0.00000000E+00
  0.00000000E+00  0.00000000E+00  0.00000000E+00
  0.00000000E+00  0.00000000E+00  0.00000000E+00
  0.00000000E+00  0.00000000E+00  0.00000000E+00
  0.00000000E+00  0.00000000E+00  0.00000000E+00
  0.00000000E+00  0.00000000E+00  0.00000000E+00
  0.00000000E+00  0.00000000E+00  0.00000000E+00
  0.00000000E+00  0.00000000E+00  0.00000000E+00
  0.00000000E+00  0.00000000E+00  0.00000000E+00
  0.00000000E+00  0.00000000E+00  0.00000000E+00
  0.00000000E+00  0.00000000E+00  0.00000000E+00
  0.00000000E+00  0.00000000E+00  0.00000000E+00
  0.00000000E+00  0.00000000E+00  0.00000000E+00
  0.00000000E+00  0.00000000E+00  0.00000000E+00
  0.00000000E+00  0.00000000E+00  0.00000000E+00
  0.00000000E+00  0.00000000E+00  0.00000000E+00
  0.00000000E+00  0.00000000E+00  0.00000000E+00
  0.00000000E+00  0.00000000E+00  0.00000000E+00
  0.00000000E+00  0.00000000E+00  0.00000000E+00
  0.00000000E+00  0.00000000E+00  0.00000000E+00
  0.00000000E+00  0.00000000E+00  0.00000000E+00
  0.00000000E+00  0.00000000E+00  0.00000000E+00
  0.00000000E+00  0.00000000E+00  0.00000000E+00
  0.00000000E+00  0.00000000E+00  0.00000000E+00
  0.00000000E+00  0.00000000E+00  0.00000000E+00
  0.00000000E+00  0.00000000E+00  0.00000000E+00
  0.00000000E+00  0.00000000E+00  0.00000000E+00
  0.00000000E+00  0.00000000E+00  0.00000000E+00
  0.00000000E+00  0.00000000E+00  0.00000000E+00
  0.00000000E+00  0.00000000E+00  0.00000000E+00
  0.00000000E+00  0.00000000E+00  0.00000000E+00
  0.00000000E+00  0.00000000E+00  0.00000000E+00
  0.00000000E+00  0.00000000E+00  0.00000000E+00
  0.00000000E+00  0.00000000E+00  0.00000000E+00
  0.00000000E+00  0.00000000E+00  0.00000000E+00
  0.00000000E+00  0.00000000E+00  0.00000000E+00
  0.00000000E+00  0.00000000E+00  0.00000000E+00
  0.00000000E+00  0.00000000E+00  0.00000000E+00
  0.00000000E+00  0.00000000E+00  0.00000000E+00
  0.00000000E+00  0.00000000E+00  0.00000000E+00
  0.00000000E+00  0.00000000E+00  0.00000000E+00
  0.00000000E+00  0.00000000E+00  0.00000000E+00
  0.00000000E+00  0.00000000E+00  0.00000000E+00
  0.00000000E+00  0.00000000E+00  0.00000000E+00
  0.00000000E+00  0.00000000E+00  0.00000000E+00
  0.00000000E+00  0.00000000E+00  0.00000000E+00
