CONTCAR\(15)                            
   1.00000000000000     
    12.6843996047999994    0.0000000000000000    0.0000000000000000
     0.0000000000000000   11.4939002990999999    0.0000000000000000
     0.0000000000000000    0.0000000000000000   18.8276996612999987
   Nb   Si   Te
    12     4    24
Direct
  0.0825755065637043  0.0855701957974908  0.5000000000000000
  0.3325855245637089  0.9144498212025064  0.5000000000000000
  0.3487853065425529  0.2144102205519996  0.5000000000000000
  0.0988052965425513  0.7855997564479982  0.5000000000000000
  0.4845156920982228  0.5617445869584400  0.5000000000000000
  0.2345156730982177  0.4382454140415605  0.5000000000000000
  0.5825755065637043  0.0855701957974908  0.5000000000000000
  0.8325855245637089  0.9144498212025064  0.5000000000000000
  0.8487853065425528  0.2144102205519996  0.5000000000000000
  0.5988052865425504  0.7855997564479982  0.5000000000000000
  0.9845157290982223  0.5617445869584400  0.5000000000000000
  0.7345156730982176  0.4382454140415605  0.5000000000000000
  0.0381727065339207  0.3244705050630651  0.5000000000000000
  0.2881827245339253  0.6755094569369325  0.5000000000000000
  0.5381727245339222  0.3244705050630651  0.5000000000000000
  0.7881827055339202  0.6755094569369325  0.5000000000000000
  0.4243445827077952  0.0665263044872993  0.6028942992640541
  0.1743546007077999  0.9334937075127009  0.3971057007359459
  0.1743546007077999  0.9334937075127009  0.6028942992640541
  0.4243445827077952  0.0665263044872993  0.3971057007359459
  0.3985295645807166  0.4044111907841811  0.5997669458221785
  0.1485395735807170  0.5955788112158230  0.4002330791778200
  0.1485395735807170  0.5955788112158230  0.5997669458221785
  0.3985295645807166  0.4044111907841811  0.4002330791778200
  0.1778012323422800  0.2475793093365837  0.5971303997677424
  0.4278012513422851  0.7524106726634116  0.4028795792322555
  0.4278012513422851  0.7524106726634116  0.5971204207677445
  0.1778012323422800  0.2475793093365837  0.4028695752322520
  0.9243446197078018  0.0665263044872993  0.6028942992640541
  0.6743546387077959  0.9334937075127009  0.3971057007359459
  0.6743546387077959  0.9334937075127009  0.6028942992640541
  0.9243446197078018  0.0665263044872993  0.3971057007359459
  0.8985295265807206  0.4044111907841811  0.5997669458221785
  0.6485395455807218  0.5955788112158230  0.4002330791778200
  0.6485395455807218  0.5955788112158230  0.5997669458221785
  0.8985295265807206  0.4044111907841811  0.4002330791778200
  0.6778012703422831  0.2475793093365837  0.5971303997677424
  0.9278012513422851  0.7524106726634116  0.4028795792322555
  0.9278012513422851  0.7524106726634116  0.5971204207677445
  0.6778012703422831  0.2475793093365837  0.4028695752322520
 
  0.00000000E+00  0.00000000E+00  0.00000000E+00
  0.00000000E+00  0.00000000E+00  0.00000000E+00
  0.00000000E+00  0.00000000E+00  0.00000000E+00
  0.00000000E+00  0.00000000E+00  0.00000000E+00
  0.00000000E+00  0.00000000E+00  0.00000000E+00
  0.00000000E+00  0.00000000E+00  0.00000000E+00
  0.00000000E+00  0.00000000E+00  0.00000000E+00
  0.00000000E+00  0.00000000E+00  0.00000000E+00
  0.00000000E+00  0.00000000E+00  0.00000000E+00
  0.00000000E+00  0.00000000E+00  0.00000000E+00
  0.00000000E+00  0.00000000E+00  0.00000000E+00
  0.00000000E+00  0.00000000E+00  0.00000000E+00
  0.00000000E+00  0.00000000E+00  0.00000000E+00
  0.00000000E+00  0.00000000E+00  0.00000000E+00
  0.00000000E+00  0.00000000E+00  0.00000000E+00
  0.00000000E+00  0.00000000E+00  0.00000000E+00
  0.00000000E+00  0.00000000E+00  0.00000000E+00
  0.00000000E+00  0.00000000E+00  0.00000000E+00
  0.00000000E+00  0.00000000E+00  0.00000000E+00
  0.00000000E+00  0.00000000E+00  0.00000000E+00
  0.00000000E+00  0.00000000E+00  0.00000000E+00
  0.00000000E+00  0.00000000E+00  0.00000000E+00
  0.00000000E+00  0.00000000E+00  0.00000000E+00
  0.00000000E+00  0.00000000E+00  0.00000000E+00
  0.00000000E+00  0.00000000E+00  0.00000000E+00
  0.00000000E+00  0.00000000E+00  0.00000000E+00
  0.00000000E+00  0.00000000E+00  0.00000000E+00
  0.00000000E+00  0.00000000E+00  0.00000000E+00
  0.00000000E+00  0.00000000E+00  0.00000000E+00
  0.00000000E+00  0.00000000E+00  0.00000000E+00
  0.00000000E+00  0.00000000E+00  0.00000000E+00
  0.00000000E+00  0.00000000E+00  0.00000000E+00
  0.00000000E+00  0.00000000E+00  0.00000000E+00
  0.00000000E+00  0.00000000E+00  0.00000000E+00
  0.00000000E+00  0.00000000E+00  0.00000000E+00
  0.00000000E+00  0.00000000E+00  0.00000000E+00
  0.00000000E+00  0.00000000E+00  0.00000000E+00
  0.00000000E+00  0.00000000E+00  0.00000000E+00
  0.00000000E+00  0.00000000E+00  0.00000000E+00
  0.00000000E+00  0.00000000E+00  0.00000000E+00
