CONTCAR\(8)                             
   1.00000000000000     
    12.4687995910999998    0.0000000000000000    0.0000000000000000
     0.0000000000000000   15.4259996414000007    0.0000000000000000
     0.0000000000000000    0.0000000000000000   19.6597995758000010
   Ta   Co   Te   O 
    16    16    32     1
Direct
  0.4922158911792829  0.0540153383301940  0.5068533774674226
  0.2421019294869106  0.1075290947623344  0.4944593631779801
  0.0122435004033803  0.3575263564979152  0.4947479247226130
  0.2624283359074966  0.3040134428893571  0.5068292388452337
  0.9917617509982568  0.0534649655386260  0.5076672491565444
  0.7418670663367519  0.1074666170616318  0.4945279870591486
  0.5120371293212261  0.3579604714638437  0.4937518251141492
  0.7621685248253699  0.3040836905261196  0.5073514147846430
  0.4901357485642037  0.5558750307159211  0.5037550391142982
  0.2432227376138897  0.6067558294113408  0.4942112845978170
  0.0129656892281080  0.8569421557687735  0.4951698798603034
  0.2647199493484486  0.8038679173802542  0.5068092411478081
  0.9927522212439529  0.5541489760813232  0.5071680710296187
  0.7427950041564251  0.6061074353387012  0.4951389820413519
  0.5107155450763204  0.8568777014282756  0.4927140926763530
  0.7613181827535439  0.8038380769503977  0.5075326279189915
  0.4272453791259991  0.2104733642537595  0.4611024238382582
  0.0776825885939953  0.2009428197538117  0.5404911841127673
  0.3261376178837064  0.4593853318845439  0.4595409710484717
  0.1771129899922918  0.4503554411240478  0.5400285941021443
  0.9271136116894684  0.2101467692817011  0.4616712449026669
  0.5773986699127994  0.2015074842274526  0.5401313194474858
  0.8265716400416255  0.4597574276291500  0.4608874079691888
  0.6764258544442284  0.4517579689276114  0.5400390352068846
  0.4282455553112309  0.7096582153151910  0.4533964834999971
  0.0774148696335385  0.7007102970438618  0.5406825753845856
  0.3273299763650822  0.9606942688645711  0.4605577871215475
  0.1777801929197745  0.9504110271870408  0.5400207214109609
  0.9272285493783117  0.7101715576849307  0.4619555917339116
  0.5708773459542332  0.7024980147844645  0.5395754714943769
  0.8272319793438413  0.9598389847049428  0.4616007238593098
  0.6767869002937322  0.9508826797210972  0.5403100788801591
  0.1303470602647121  0.4759480536652428  0.4115327851529930
  0.1233714048637070  0.2260556927370488  0.4121372154667975
  0.3809357954315751  0.1857686351062956  0.5893186330474474
  0.3735400711910841  0.4375688211020930  0.5880296868711674
  0.1258971260856306  0.3249215096196949  0.6196856233602922
  0.3750208554251163  0.3353446333099785  0.3811904231072216
  0.3788961032125117  0.0871207318088575  0.3816938208260671
  0.1293546589523584  0.0741336821127907  0.6196102144287104
  0.6308382647160256  0.4751004214162535  0.4110380220167706
  0.6240544283036490  0.2261864754011119  0.4119792235964846
  0.8807448092103793  0.1851123384597639  0.5896791266090894
  0.8731404106862450  0.4361078457597670  0.5894776689052997
  0.6244756845785249  0.3257846142816186  0.6192830361071746
  0.8760487724934087  0.3359967435844370  0.3820904824114570
  0.8791043593147305  0.0862394418215744  0.3823988428609063
  0.6290555643339463  0.0750398319063640  0.6194223571288372
  0.1303606774909496  0.9761112486577155  0.4123023749905634
  0.1239386122726707  0.7259548603744408  0.4127090793191070
  0.3823174152269720  0.6871546154109088  0.5872157633633051
  0.3746120395791561  0.9357375139727555  0.5890236389530485
  0.1287686797164677  0.8235751695875921  0.6196105886337294
  0.3739859601027608  0.8389514404620892  0.3795481914262660
  0.3763499160625459  0.5840320615122772  0.3785817978946640
  0.1323031763669930  0.5752659639042309  0.6193548784333122
  0.6307881659103604  0.9755301424715744  0.4119272887153740
  0.6241532119246805  0.7239377525625852  0.4121573413245394
  0.8800650951925294  0.6849757427054532  0.5902539241020108
  0.8734941917699371  0.9343311501127238  0.5900513591019269
  0.6231944858893443  0.8247958391099102  0.6190117078564719
  0.8755353645578000  0.8358627982581213  0.3827704327342493
  0.8796298453168278  0.5864922984853806  0.3825327977292561
  0.6256974034628007  0.5758939129060093  0.6182313568442244
  0.3840974597661771  0.6798931558801659  0.6817918659542835
 
  0.00000000E+00  0.00000000E+00  0.00000000E+00
  0.00000000E+00  0.00000000E+00  0.00000000E+00
  0.00000000E+00  0.00000000E+00  0.00000000E+00
  0.00000000E+00  0.00000000E+00  0.00000000E+00
  0.00000000E+00  0.00000000E+00  0.00000000E+00
  0.00000000E+00  0.00000000E+00  0.00000000E+00
  0.00000000E+00  0.00000000E+00  0.00000000E+00
  0.00000000E+00  0.00000000E+00  0.00000000E+00
  0.00000000E+00  0.00000000E+00  0.00000000E+00
  0.00000000E+00  0.00000000E+00  0.00000000E+00
  0.00000000E+00  0.00000000E+00  0.00000000E+00
  0.00000000E+00  0.00000000E+00  0.00000000E+00
  0.00000000E+00  0.00000000E+00  0.00000000E+00
  0.00000000E+00  0.00000000E+00  0.00000000E+00
  0.00000000E+00  0.00000000E+00  0.00000000E+00
  0.00000000E+00  0.00000000E+00  0.00000000E+00
  0.00000000E+00  0.00000000E+00  0.00000000E+00
  0.00000000E+00  0.00000000E+00  0.00000000E+00
  0.00000000E+00  0.00000000E+00  0.00000000E+00
  0.00000000E+00  0.00000000E+00  0.00000000E+00
  0.00000000E+00  0.00000000E+00  0.00000000E+00
  0.00000000E+00  0.00000000E+00  0.00000000E+00
  0.00000000E+00  0.00000000E+00  0.00000000E+00
  0.00000000E+00  0.00000000E+00  0.00000000E+00
  0.00000000E+00  0.00000000E+00  0.00000000E+00
  0.00000000E+00  0.00000000E+00  0.00000000E+00
  0.00000000E+00  0.00000000E+00  0.00000000E+00
  0.00000000E+00  0.00000000E+00  0.00000000E+00
  0.00000000E+00  0.00000000E+00  0.00000000E+00
  0.00000000E+00  0.00000000E+00  0.00000000E+00
  0.00000000E+00  0.00000000E+00  0.00000000E+00
  0.00000000E+00  0.00000000E+00  0.00000000E+00
  0.00000000E+00  0.00000000E+00  0.00000000E+00
  0.00000000E+00  0.00000000E+00  0.00000000E+00
  0.00000000E+00  0.00000000E+00  0.00000000E+00
  0.00000000E+00  0.00000000E+00  0.00000000E+00
  0.00000000E+00  0.00000000E+00  0.00000000E+00
  0.00000000E+00  0.00000000E+00  0.00000000E+00
  0.00000000E+00  0.00000000E+00  0.00000000E+00
  0.00000000E+00  0.00000000E+00  0.00000000E+00
  0.00000000E+00  0.00000000E+00  0.00000000E+00
  0.00000000E+00  0.00000000E+00  0.00000000E+00
  0.00000000E+00  0.00000000E+00  0.00000000E+00
  0.00000000E+00  0.00000000E+00  0.00000000E+00
  0.00000000E+00  0.00000000E+00  0.00000000E+00
  0.00000000E+00  0.00000000E+00  0.00000000E+00
  0.00000000E+00  0.00000000E+00  0.00000000E+00
  0.00000000E+00  0.00000000E+00  0.00000000E+00
  0.00000000E+00  0.00000000E+00  0.00000000E+00
  0.00000000E+00  0.00000000E+00  0.00000000E+00
  0.00000000E+00  0.00000000E+00  0.00000000E+00
  0.00000000E+00  0.00000000E+00  0.00000000E+00
  0.00000000E+00  0.00000000E+00  0.00000000E+00
  0.00000000E+00  0.00000000E+00  0.00000000E+00
  0.00000000E+00  0.00000000E+00  0.00000000E+00
  0.00000000E+00  0.00000000E+00  0.00000000E+00
  0.00000000E+00  0.00000000E+00  0.00000000E+00
  0.00000000E+00  0.00000000E+00  0.00000000E+00
  0.00000000E+00  0.00000000E+00  0.00000000E+00
  0.00000000E+00  0.00000000E+00  0.00000000E+00
  0.00000000E+00  0.00000000E+00  0.00000000E+00
  0.00000000E+00  0.00000000E+00  0.00000000E+00
  0.00000000E+00  0.00000000E+00  0.00000000E+00
  0.00000000E+00  0.00000000E+00  0.00000000E+00
  0.00000000E+00  0.00000000E+00  0.00000000E+00
