CONTCAR\(8)                             
   1.00000000000000     
    11.5721998214999999    0.0000000000000000    0.0000000000000000
     0.0000000000000000   11.5721998214999999    0.0000000000000000
     0.0000000000000000    0.0000000000000000   18.7880992888999998
   Nd   I    O 
     9    18     1
Direct
  0.9997892238140764  0.0110262529658982  0.5070772291520242
  0.3342848526284143  0.0031600933527329  0.5068189977957118
  0.6656248375419267  0.0032321793098973  0.5060197216826552
  0.0000219909402759  0.3445302595651540  0.5085426403719993
  0.3459981043585785  0.3439629021704746  0.5095476645536436
  0.6537392307820227  0.3442877821350550  0.5093614031913916
  0.0000374767820404  0.6745798501899927  0.5073402671352909
  0.3361955960233516  0.6752659836557342  0.5081882228141055
  0.6640592001134351  0.6754423820987014  0.5064781366983198
  0.1669580833784181  0.1776596104542847  0.4083453467817364
  0.1678499627501964  0.1766012154044958  0.6080957194807652
  0.4989807512136935  0.1529161140942890  0.4076480421372182
  0.5010022244065055  0.1514477792283486  0.6048268635068794
  0.8318052673143796  0.1777914770369122  0.4081942423227360
  0.8325396602107347  0.1765440096117814  0.6078756563808483
  0.1690750728197443  0.5098411139566466  0.4083656718296638
  0.1676579654279493  0.5108746131293316  0.6084337905453197
  0.5022367651992070  0.4517679816980547  0.3747206146575195
  0.4982417034616731  0.4427479730760169  0.6474125265054411
  0.8331282172250596  0.5100070280432689  0.4081405511970289
  0.8303654672519727  0.5110001343672153  0.6081899415919807
  0.1641880195894814  0.8432916551325320  0.4054448339741867
  0.1648351020043961  0.8434753528464967  0.6084440563645614
  0.4993908996693008  0.8337720258252190  0.4015301057997291
  0.5000409942295221  0.8383238148375369  0.6122163098588302
  0.8358557112438803  0.8438120345073017  0.4045243133514660
  0.8343658401167460  0.8432305681465664  0.6077506420385035
  0.5003416965030922  0.5956577511600827  0.5130166762804649
 
  0.00000000E+00  0.00000000E+00  0.00000000E+00
  0.00000000E+00  0.00000000E+00  0.00000000E+00
  0.00000000E+00  0.00000000E+00  0.00000000E+00
  0.00000000E+00  0.00000000E+00  0.00000000E+00
  0.00000000E+00  0.00000000E+00  0.00000000E+00
  0.00000000E+00  0.00000000E+00  0.00000000E+00
  0.00000000E+00  0.00000000E+00  0.00000000E+00
  0.00000000E+00  0.00000000E+00  0.00000000E+00
  0.00000000E+00  0.00000000E+00  0.00000000E+00
  0.00000000E+00  0.00000000E+00  0.00000000E+00
  0.00000000E+00  0.00000000E+00  0.00000000E+00
  0.00000000E+00  0.00000000E+00  0.00000000E+00
  0.00000000E+00  0.00000000E+00  0.00000000E+00
  0.00000000E+00  0.00000000E+00  0.00000000E+00
  0.00000000E+00  0.00000000E+00  0.00000000E+00
  0.00000000E+00  0.00000000E+00  0.00000000E+00
  0.00000000E+00  0.00000000E+00  0.00000000E+00
  0.00000000E+00  0.00000000E+00  0.00000000E+00
  0.00000000E+00  0.00000000E+00  0.00000000E+00
  0.00000000E+00  0.00000000E+00  0.00000000E+00
  0.00000000E+00  0.00000000E+00  0.00000000E+00
  0.00000000E+00  0.00000000E+00  0.00000000E+00
  0.00000000E+00  0.00000000E+00  0.00000000E+00
  0.00000000E+00  0.00000000E+00  0.00000000E+00
  0.00000000E+00  0.00000000E+00  0.00000000E+00
  0.00000000E+00  0.00000000E+00  0.00000000E+00
  0.00000000E+00  0.00000000E+00  0.00000000E+00
  0.00000000E+00  0.00000000E+00  0.00000000E+00
