CONTCAR\(3)                             
   1.00000000000000     
    12.0392999648999997    0.0000000000000000    0.0000000000000000
     1.3648429331000000   13.3109105337999996    0.0000000000000000
     0.0000000000000000    0.0000000000000000   21.3703002929999997
   Li   Cu   P    O 
     8     8    24    73
Direct
  0.4312054064654974  0.4644209183074536  0.3849750365911661
  0.0691178939301777  0.0311066131107090  0.6120560422090046
  0.9296787356486820  0.5065216848466902  0.3929759115277435
  0.5714340712836776 -0.0117841011828753  0.6080335297636656
  0.4332146198583932  0.9666096999805912  0.3858276055656212
  0.0575923113221361  0.5282524787717244  0.6122326804603818
  0.9310052267174319  0.0014316026762158  0.3882545376425022
  0.6069488146334102  0.4708387215149830  0.5920359766819286
  0.3893228455288505  0.2092126778882716  0.3833507496432084
  0.1063979105442481  0.2876925632372647  0.6149662786114671
  0.8765302366420857  0.2726841780580969  0.3822633222096675
  0.6244537092652049  0.2169108766152039  0.6155902529795682
  0.3851066277271805  0.7065233446088425  0.3828423064298936
  0.1107033779052891  0.7903754768197748  0.6155816864210419
  0.8748802491263332  0.7694921359702112  0.3827348214289505
  0.6219621335360568  0.7280888656291781  0.6174754237267311
  0.4105231099348160  0.1057406702274915  0.5177798241964118
  0.3634286004600108  0.2611946682041306  0.6093582942243913
  0.3273821591478925 -0.0139994323391992  0.6191772752634993
  0.1726071455494610  0.5150928528890579  0.3819090841363057
  0.1361343563795788  0.2375743650026810  0.3964049501349613
  0.0918155903405753  0.3991261378526872  0.4853378893641124
  0.9169114437386978  0.1637218427741290  0.5166395037330056
  0.8465361810904115  0.3205606451909990  0.6054641316133935
  0.8125707175464705  0.0418175246228311  0.6093450103716501
  0.6882254578897681  0.4545820426392636  0.3907476333326286
  0.6496958593419399  0.1765339630496708  0.3925348532154257
  0.5803110302792772  0.3331583284943925  0.4820687430479891
  0.4098585617746325  0.6007655474341772  0.5162252578095989
  0.3630861294034590  0.7634521901545668  0.6044254814499885
  0.3086912704567113  0.4860036608041030  0.6156760523027350
  0.1741316443810600  0.0143528881741456  0.3823287294144931
  0.1339715636002198  0.7379132498208943  0.3967853386386412
  0.0880213825838916  0.9004398773265290  0.4849912115495350
  0.9184026476028262  0.6582715150068847  0.5155618962439419
  0.8520688529108142  0.8185240233701361  0.6037969382851822
  0.8072334199265734  0.5457908399492976  0.6103248067488363
  0.6905954374756306  0.9522959608763104  0.3891486007508982
  0.6450656422668704  0.6781319700638410  0.3961474202577002
  0.5803229195773772  0.8400342993104892  0.4841942561362097
  0.4703851205191762  0.3595198054385630  0.4506777910192604
  0.3886952025817317  0.1050169997549460  0.4479767786586737
  0.4677470496539132  0.2290648392896266  0.6455036601018247
  0.4331425685246035 -0.0009084608325596  0.6527141865968786
  0.3721184264627962  0.2217067409581101  0.5388614432856560
  0.3181812821178546  0.0488183755448263  0.5524579841032148
  0.3573967465922514  0.3796940195382879  0.5923802170846890
  0.2844498948154653  0.5031640553205311  0.3517198178932753
  0.2437994204966422  0.2654691317020242  0.3666613505747831
  0.2536090122029804  0.2407092784229810  0.6382510450131005
  0.2154562908831584  0.0009567469756579  0.6489668106509483
  0.1500865775467910  0.1246893271356533  0.4160596739621867
  0.1848799448211942  0.4530630209249994  0.4491161188201941
  0.1245017837813992  0.2832242108886122  0.4660623715293587
  0.0677439862654652  0.4975159150922242  0.3488263129709204
  0.0321360433834638  0.2712713625001667  0.3592379688005748
  0.1189457776931201  0.4005030411736074  0.5552285409226384
  0.0259058787178281  0.1407288937217329  0.5498760634737121
  0.9751960582468199  0.4355634102666608  0.4677158516120538
  0.9090571177148985  0.1621365698476102  0.4459603564547935
  0.9568273720718038  0.3239478537788567  0.6382817913304641
  0.9134723111582953  0.0463895963262676  0.6483561863046408
  0.8624252626850162  0.2766262339077317  0.5360034722336592
  0.8231582098394337  0.0957757650868238  0.5417124758757497
  0.7885647193024403  0.4308016997843970  0.5891395998337022
  0.8072346622005360  0.4203822616972244  0.3698477964548817
  0.7347150958246454  0.2308575407471008  0.3578617690236999
  0.7626300095961378  0.2666354718751852  0.6412375640707322
  0.6941004958877948  0.0753064082101286  0.6321934797711800
  0.7043094826997726  0.0672073251379233  0.4102553692570629
  0.6742864044196576  0.4020550238345877  0.4589353962051679
  0.6326387281084221  0.2213186571669024  0.4622336719307531
  0.5882015884020670  0.4488574279915428  0.3511106118989011
  0.5394104682094688  0.1771463071841379  0.3589207722607064
  0.5889836222447195  0.3337689032635828  0.5532450067191182
  0.5266055300770082  0.0736399722305490  0.5388199133474382
  0.4709445590481414  0.8685132696374865  0.4530588073757454
  0.3890891875687523  0.5956068308367598  0.4469105754196285
  0.4666421301960619  0.7307079229209671  0.6420168603857471
  0.4183868534687064  0.5202987813372847  0.6572131926561159
  0.3782550953820952  0.7158814384062020  0.5347065038006462
  0.3098950357198548  0.5508438398441693  0.5542802299944047
  0.3460588514119824  0.8755681292118642  0.5841633996071610
  0.2869341504948796  0.0023685303240187  0.3534027202949407
  0.2412626086346818  0.7661036223872513  0.3668879712701738
  0.2559813449131116  0.7321435320704591  0.6327752077525962
  0.2047090835435502  0.4992915088278887  0.6519073404757660
  0.1503281471183344  0.6248869375867955  0.4166301602523511
  0.1831842888486870  0.9530602888242132  0.4497151177538943
  0.1210521961167192  0.7837754158301574  0.4663202119334464
  0.0709319120021085  0.9964863608713446  0.3475854706943303
  0.0298070177059756  0.7697319155714395  0.3593318699192587
  0.1095415277999510  0.9021007468942737  0.5552670254956124
  0.0271615769098242  0.6308797294795638  0.5478433893373063
  0.9729281764455294  0.9375952600323285  0.4649206640975017
  0.9089342649410194  0.6557203334503486  0.4448321652649896
  0.9607569872246680  0.8155494061690653  0.6391832698939954
  0.9080242255224248  0.5481629963906500  0.6495821538301976
  0.8692755705483175  0.7721308695750567  0.5347014828100075
  0.8216920924378085  0.5937799209767113  0.5414873404978134
  0.8018642455637099  0.9283494315051160  0.5847833595061781
  0.8085176362991020  0.9149819686173868  0.3673748071834092
  0.7319456146815264  0.7291529622360864  0.3609094934745499
  0.7652673027362403  0.7673621683521085  0.6391782226076759
  0.6886467547784908  0.5820617550917689  0.6312481025652432
  0.6959990345438319  0.5684184366984745  0.4157386515328635
  0.6776238076022564  0.9032701608212311  0.4583392995805113
  0.6270094156950223  0.7248722906330239  0.4653384700993554
  0.5892421073464619  0.9472668249417227  0.3505701843384824
  0.5361735669119676  0.6793069169966207  0.3611791306421206
  0.5898192869572708  0.8423102454785346  0.5551503168406012
  0.5193507392492724  0.5570031176277245  0.5404857167647041
  0.4328904460893085  0.4568935679048312  0.7070229878900485
 
  0.00000000E+00  0.00000000E+00  0.00000000E+00
  0.00000000E+00  0.00000000E+00  0.00000000E+00
  0.00000000E+00  0.00000000E+00  0.00000000E+00
  0.00000000E+00  0.00000000E+00  0.00000000E+00
  0.00000000E+00  0.00000000E+00  0.00000000E+00
  0.00000000E+00  0.00000000E+00  0.00000000E+00
  0.00000000E+00  0.00000000E+00  0.00000000E+00
  0.00000000E+00  0.00000000E+00  0.00000000E+00
  0.00000000E+00  0.00000000E+00  0.00000000E+00
  0.00000000E+00  0.00000000E+00  0.00000000E+00
  0.00000000E+00  0.00000000E+00  0.00000000E+00
  0.00000000E+00  0.00000000E+00  0.00000000E+00
  0.00000000E+00  0.00000000E+00  0.00000000E+00
  0.00000000E+00  0.00000000E+00  0.00000000E+00
  0.00000000E+00  0.00000000E+00  0.00000000E+00
  0.00000000E+00  0.00000000E+00  0.00000000E+00
  0.00000000E+00  0.00000000E+00  0.00000000E+00
  0.00000000E+00  0.00000000E+00  0.00000000E+00
  0.00000000E+00  0.00000000E+00  0.00000000E+00
  0.00000000E+00  0.00000000E+00  0.00000000E+00
  0.00000000E+00  0.00000000E+00  0.00000000E+00
  0.00000000E+00  0.00000000E+00  0.00000000E+00
  0.00000000E+00  0.00000000E+00  0.00000000E+00
  0.00000000E+00  0.00000000E+00  0.00000000E+00
  0.00000000E+00  0.00000000E+00  0.00000000E+00
  0.00000000E+00  0.00000000E+00  0.00000000E+00
  0.00000000E+00  0.00000000E+00  0.00000000E+00
  0.00000000E+00  0.00000000E+00  0.00000000E+00
  0.00000000E+00  0.00000000E+00  0.00000000E+00
  0.00000000E+00  0.00000000E+00  0.00000000E+00
  0.00000000E+00  0.00000000E+00  0.00000000E+00
  0.00000000E+00  0.00000000E+00  0.00000000E+00
  0.00000000E+00  0.00000000E+00  0.00000000E+00
  0.00000000E+00  0.00000000E+00  0.00000000E+00
  0.00000000E+00  0.00000000E+00  0.00000000E+00
  0.00000000E+00  0.00000000E+00  0.00000000E+00
  0.00000000E+00  0.00000000E+00  0.00000000E+00
  0.00000000E+00  0.00000000E+00  0.00000000E+00
  0.00000000E+00  0.00000000E+00  0.00000000E+00
  0.00000000E+00  0.00000000E+00  0.00000000E+00
  0.00000000E+00  0.00000000E+00  0.00000000E+00
  0.00000000E+00  0.00000000E+00  0.00000000E+00
  0.00000000E+00  0.00000000E+00  0.00000000E+00
  0.00000000E+00  0.00000000E+00  0.00000000E+00
  0.00000000E+00  0.00000000E+00  0.00000000E+00
  0.00000000E+00  0.00000000E+00  0.00000000E+00
  0.00000000E+00  0.00000000E+00  0.00000000E+00
  0.00000000E+00  0.00000000E+00  0.00000000E+00
  0.00000000E+00  0.00000000E+00  0.00000000E+00
  0.00000000E+00  0.00000000E+00  0.00000000E+00
  0.00000000E+00  0.00000000E+00  0.00000000E+00
  0.00000000E+00  0.00000000E+00  0.00000000E+00
  0.00000000E+00  0.00000000E+00  0.00000000E+00
  0.00000000E+00  0.00000000E+00  0.00000000E+00
  0.00000000E+00  0.00000000E+00  0.00000000E+00
  0.00000000E+00  0.00000000E+00  0.00000000E+00
  0.00000000E+00  0.00000000E+00  0.00000000E+00
  0.00000000E+00  0.00000000E+00  0.00000000E+00
  0.00000000E+00  0.00000000E+00  0.00000000E+00
  0.00000000E+00  0.00000000E+00  0.00000000E+00
  0.00000000E+00  0.00000000E+00  0.00000000E+00
  0.00000000E+00  0.00000000E+00  0.00000000E+00
  0.00000000E+00  0.00000000E+00  0.00000000E+00
  0.00000000E+00  0.00000000E+00  0.00000000E+00
  0.00000000E+00  0.00000000E+00  0.00000000E+00
  0.00000000E+00  0.00000000E+00  0.00000000E+00
  0.00000000E+00  0.00000000E+00  0.00000000E+00
  0.00000000E+00  0.00000000E+00  0.00000000E+00
  0.00000000E+00  0.00000000E+00  0.00000000E+00
  0.00000000E+00  0.00000000E+00  0.00000000E+00
  0.00000000E+00  0.00000000E+00  0.00000000E+00
  0.00000000E+00  0.00000000E+00  0.00000000E+00
  0.00000000E+00  0.00000000E+00  0.00000000E+00
  0.00000000E+00  0.00000000E+00  0.00000000E+00
  0.00000000E+00  0.00000000E+00  0.00000000E+00
  0.00000000E+00  0.00000000E+00  0.00000000E+00
  0.00000000E+00  0.00000000E+00  0.00000000E+00
  0.00000000E+00  0.00000000E+00  0.00000000E+00
  0.00000000E+00  0.00000000E+00  0.00000000E+00
  0.00000000E+00  0.00000000E+00  0.00000000E+00
  0.00000000E+00  0.00000000E+00  0.00000000E+00
  0.00000000E+00  0.00000000E+00  0.00000000E+00
  0.00000000E+00  0.00000000E+00  0.00000000E+00
  0.00000000E+00  0.00000000E+00  0.00000000E+00
  0.00000000E+00  0.00000000E+00  0.00000000E+00
  0.00000000E+00  0.00000000E+00  0.00000000E+00
  0.00000000E+00  0.00000000E+00  0.00000000E+00
  0.00000000E+00  0.00000000E+00  0.00000000E+00
  0.00000000E+00  0.00000000E+00  0.00000000E+00
  0.00000000E+00  0.00000000E+00  0.00000000E+00
  0.00000000E+00  0.00000000E+00  0.00000000E+00
  0.00000000E+00  0.00000000E+00  0.00000000E+00
  0.00000000E+00  0.00000000E+00  0.00000000E+00
  0.00000000E+00  0.00000000E+00  0.00000000E+00
  0.00000000E+00  0.00000000E+00  0.00000000E+00
  0.00000000E+00  0.00000000E+00  0.00000000E+00
  0.00000000E+00  0.00000000E+00  0.00000000E+00
  0.00000000E+00  0.00000000E+00  0.00000000E+00
  0.00000000E+00  0.00000000E+00  0.00000000E+00
  0.00000000E+00  0.00000000E+00  0.00000000E+00
  0.00000000E+00  0.00000000E+00  0.00000000E+00
  0.00000000E+00  0.00000000E+00  0.00000000E+00
  0.00000000E+00  0.00000000E+00  0.00000000E+00
  0.00000000E+00  0.00000000E+00  0.00000000E+00
  0.00000000E+00  0.00000000E+00  0.00000000E+00
  0.00000000E+00  0.00000000E+00  0.00000000E+00
  0.00000000E+00  0.00000000E+00  0.00000000E+00
  0.00000000E+00  0.00000000E+00  0.00000000E+00
  0.00000000E+00  0.00000000E+00  0.00000000E+00
  0.00000000E+00  0.00000000E+00  0.00000000E+00
  0.00000000E+00  0.00000000E+00  0.00000000E+00
  0.00000000E+00  0.00000000E+00  0.00000000E+00
  0.00000000E+00  0.00000000E+00  0.00000000E+00
