 In3 Te4                                
   1.00000000000000     
     4.3165909577822674    0.0000000000000000    0.0000000000000000
     2.1582954788911337    3.7382676398497621    0.0000000000000000
     0.0000000000000000    0.0000000000000000   25.6978358356799959
   In   Te
     3     4
Direct
  0.9999999987840980  0.9999999979323064  0.4999999514603104
  0.3333331893020954  0.3333329773577631  0.3496421752941705
  0.6666668098579862  0.6666670229514864  0.6503577943841075
  0.9999997977852786  0.9999999288532990  0.2919914832100964
  0.0000002032495487  0.0000000709866939  0.7080085381382809
  0.3333332751322473  0.3333332016933710  0.5690849991598517
  0.6666667258887458  0.6666668002250802  0.4309150583531827
 
  0.00000000E+00  0.00000000E+00  0.00000000E+00
  0.00000000E+00  0.00000000E+00  0.00000000E+00
  0.00000000E+00  0.00000000E+00  0.00000000E+00
  0.00000000E+00  0.00000000E+00  0.00000000E+00
  0.00000000E+00  0.00000000E+00  0.00000000E+00
  0.00000000E+00  0.00000000E+00  0.00000000E+00
  0.00000000E+00  0.00000000E+00  0.00000000E+00
