CONTCAR\(5)                             
   1.00000000000000     
    11.8035001755000000    0.0000000000000000    0.0000000000000000
    -5.9028060597999996   10.2219826981999997    0.0000000000000000
     0.0000000000000000    0.0000000000000000   24.2695999146000005
   Cr   Te   O    H 
    27    36     2     1
Direct
  0.9974999503807922  0.0085089020001732  0.4999022142042051
  0.9976268761425260  0.3425155233001647  0.6330572897539923
  0.3308493455672519  0.0082390485046275  0.3667256640151209
  0.3304088753447516  0.0092619031416916  0.4993978382797550
  0.3309189251702520  0.3426117837883922  0.6329852521058399
  0.6639547892519815  0.0082873447655700  0.3667958256608941
  0.6659128508276879  0.0096073572916922  0.4992174237871296
  0.6608820501504127  0.3355788763053198  0.6310036827568979
  0.9973642794253124  0.0083652997639376  0.3664886239852336
  0.9975663798667966  0.3418274157240120  0.4998809720490769
  0.0067080494469565  0.6798951995988531  0.6327564817002198
  0.3309920795943739  0.3417627926010454  0.3666028540529211
  0.3304074222445550  0.3417991458749583  0.4995338131234845
  0.3313094625947528  0.6757912283829697  0.6323817090380004
  0.6642185335735107  0.3420308886954686  0.3664688156313005
  0.6645592898765926  0.3422022527522941  0.4995037495299570
  0.6597557956246902  0.6790872855264141  0.6310264656924005
  0.9973128299875071  0.3415123749185867  0.3664647553958105
  0.9976934587925896  0.6754540912274152  0.4995865164617612
  0.9979644353820873  0.0086350754885416  0.6329975112159545
  0.3308449192162186  0.6752253815811571  0.3666809960716293
  0.3302664579693086  0.6739739280549557  0.4993710562300535
  0.3316950423756211  0.0089280120984583  0.6324284544228220
  0.6643005684602556  0.6750711772012536  0.3664593612360960
  0.6644612151665612  0.6754402016758760  0.4994836193110004
  0.6641681908993178  0.0088455803575016  0.6321345923541415
  0.9974181791736783  0.6750108208071168  0.3664919244414975
  0.1085487248134456  0.2310607781831706  0.6921121696340080
  0.1083517265776379  0.2305577457782988  0.4347473050379733
  0.2199797364032108  0.1194871633929253  0.3075727027792823
  0.2199355480027165  0.1201779005120898  0.5649638777548418
  0.4422113297559847  0.2309369148097460  0.6920527980521953
  0.4422107031027593  0.2311814889541495  0.4345474807805090
  0.5530397776175846  0.1194098155356613  0.3075660299705802
  0.5528913933051527  0.1187182386416268  0.5638105589046702
  0.7747013875433382  0.2301874279867562  0.6917707225387062
  0.7759215093624476  0.2314267524047509  0.4345370083983511
  0.8857724771274320  0.1190805713181433  0.3074204103310620
  0.8870766732808875  0.1201365615976542  0.5650173165779080
  0.1107426039286139  0.5644275732906365  0.6926353893899488
  0.1082913913861034  0.5636705737412981  0.4345927467643165
  0.2198129946284126  0.4528986926667429  0.3075629283384842
  0.2198069274459158  0.4529638504429983  0.5650295850354894
  0.4418496509477876  0.5651041703762800  0.6920594938337956
  0.4421208007178095  0.5638506787758004  0.4344624684275260
  0.5530119025969569  0.4529268093841736  0.3072623669180246
  0.5529576164850809  0.4532622009335014  0.5647332167773484
  0.7719123184661711  0.5634020539635216  0.6822491781310802
  0.7755402256553907  0.5642161447858882  0.4342488125720720
  0.8864348458062921  0.4528451945201937  0.3072348017727862
  0.8867981213049418  0.4545009795213062  0.5655077202337608
  0.1111077815055381  0.8997073682944077  0.6925638293435625
  0.1082663782311784  0.8974254282733298  0.4345860160964037
  0.2198221000018634  0.7862254657886041  0.3074247518615039
  0.2208423440031382  0.7871652706584840  0.5641719647133456
  0.4425865696255684  0.8979571405355173  0.6915654665797959
  0.4419299658938698  0.8974189187128161  0.4348729455418123
  0.5530195461181933  0.7862812707987032  0.3075005599296361
  0.5525766063639495  0.7875057796777867  0.5636931367039679
  0.7749102456952102  0.8982481652057430  0.6917674987019780
  0.7759355532072405  0.8973946114445113  0.4345941761961640
  0.8865152353379884  0.7862570383185741  0.3072500105206544
  0.8863852396736078  0.7852707788128939  0.5655900927860316
  0.7287317631584784  0.5484165884406380  0.7685197052162422
  0.7383650414238971  0.4433027771784026  0.7939745204401163
  0.6483654249918516  0.3695852619138407  0.7899607739068628
 
  0.00000000E+00  0.00000000E+00  0.00000000E+00
  0.00000000E+00  0.00000000E+00  0.00000000E+00
  0.00000000E+00  0.00000000E+00  0.00000000E+00
  0.00000000E+00  0.00000000E+00  0.00000000E+00
  0.00000000E+00  0.00000000E+00  0.00000000E+00
  0.00000000E+00  0.00000000E+00  0.00000000E+00
  0.00000000E+00  0.00000000E+00  0.00000000E+00
  0.00000000E+00  0.00000000E+00  0.00000000E+00
  0.00000000E+00  0.00000000E+00  0.00000000E+00
  0.00000000E+00  0.00000000E+00  0.00000000E+00
  0.00000000E+00  0.00000000E+00  0.00000000E+00
  0.00000000E+00  0.00000000E+00  0.00000000E+00
  0.00000000E+00  0.00000000E+00  0.00000000E+00
  0.00000000E+00  0.00000000E+00  0.00000000E+00
  0.00000000E+00  0.00000000E+00  0.00000000E+00
  0.00000000E+00  0.00000000E+00  0.00000000E+00
  0.00000000E+00  0.00000000E+00  0.00000000E+00
  0.00000000E+00  0.00000000E+00  0.00000000E+00
  0.00000000E+00  0.00000000E+00  0.00000000E+00
  0.00000000E+00  0.00000000E+00  0.00000000E+00
  0.00000000E+00  0.00000000E+00  0.00000000E+00
  0.00000000E+00  0.00000000E+00  0.00000000E+00
  0.00000000E+00  0.00000000E+00  0.00000000E+00
  0.00000000E+00  0.00000000E+00  0.00000000E+00
  0.00000000E+00  0.00000000E+00  0.00000000E+00
  0.00000000E+00  0.00000000E+00  0.00000000E+00
  0.00000000E+00  0.00000000E+00  0.00000000E+00
  0.00000000E+00  0.00000000E+00  0.00000000E+00
  0.00000000E+00  0.00000000E+00  0.00000000E+00
  0.00000000E+00  0.00000000E+00  0.00000000E+00
  0.00000000E+00  0.00000000E+00  0.00000000E+00
  0.00000000E+00  0.00000000E+00  0.00000000E+00
  0.00000000E+00  0.00000000E+00  0.00000000E+00
  0.00000000E+00  0.00000000E+00  0.00000000E+00
  0.00000000E+00  0.00000000E+00  0.00000000E+00
  0.00000000E+00  0.00000000E+00  0.00000000E+00
  0.00000000E+00  0.00000000E+00  0.00000000E+00
  0.00000000E+00  0.00000000E+00  0.00000000E+00
  0.00000000E+00  0.00000000E+00  0.00000000E+00
  0.00000000E+00  0.00000000E+00  0.00000000E+00
  0.00000000E+00  0.00000000E+00  0.00000000E+00
  0.00000000E+00  0.00000000E+00  0.00000000E+00
  0.00000000E+00  0.00000000E+00  0.00000000E+00
  0.00000000E+00  0.00000000E+00  0.00000000E+00
  0.00000000E+00  0.00000000E+00  0.00000000E+00
  0.00000000E+00  0.00000000E+00  0.00000000E+00
  0.00000000E+00  0.00000000E+00  0.00000000E+00
  0.00000000E+00  0.00000000E+00  0.00000000E+00
  0.00000000E+00  0.00000000E+00  0.00000000E+00
  0.00000000E+00  0.00000000E+00  0.00000000E+00
  0.00000000E+00  0.00000000E+00  0.00000000E+00
  0.00000000E+00  0.00000000E+00  0.00000000E+00
  0.00000000E+00  0.00000000E+00  0.00000000E+00
  0.00000000E+00  0.00000000E+00  0.00000000E+00
  0.00000000E+00  0.00000000E+00  0.00000000E+00
  0.00000000E+00  0.00000000E+00  0.00000000E+00
  0.00000000E+00  0.00000000E+00  0.00000000E+00
  0.00000000E+00  0.00000000E+00  0.00000000E+00
  0.00000000E+00  0.00000000E+00  0.00000000E+00
  0.00000000E+00  0.00000000E+00  0.00000000E+00
  0.00000000E+00  0.00000000E+00  0.00000000E+00
  0.00000000E+00  0.00000000E+00  0.00000000E+00
  0.00000000E+00  0.00000000E+00  0.00000000E+00
  0.00000000E+00  0.00000000E+00  0.00000000E+00
  0.00000000E+00  0.00000000E+00  0.00000000E+00
  0.00000000E+00  0.00000000E+00  0.00000000E+00
