CONTCAR\(8)                             
   1.00000000000000     
    14.6440000533999992    0.0000000000000000    0.0000000000000000
     0.0000000000000000   14.6358003615999994    0.0000000000000000
     0.0000000000000000    0.0000000000000000   19.3710002898999996
   Pd   Se   O 
    18    18    55
Direct
  0.0023805252573097  0.1656088446592810  0.5007804255457560
  0.1697494051664038  0.9994517554466782  0.5003060480260191
  0.3357174483907514  0.1659941400185559  0.4992829751560354
  0.5029414053970327  0.0004426173598822  0.4997701059316295
  0.6690853626018183  0.1662007584502528  0.4996562885777882
  0.8362332343154162  0.9995524018131309  0.5006945939003558
  0.0052312433853673  0.4996900503157481  0.5021427684034142
  0.1702110998704284  0.3322637144846455  0.5006638573296452
  0.3392089265999967  0.5006453799405431  0.4996237046531022
  0.5038971225789540  0.3339261025945496  0.4988837625436081
  0.6726813006795718  0.5010889936324975  0.5001161369091631
  0.8375509700550654  0.3329671196471504  0.5008028248640340
  0.0032387662741464  0.8330552296275440  0.5008856896268078
  0.1703359404348802  0.6668487887175425  0.5009615902562788
  0.3368045286150007  0.8334581525518060  0.5003539649201564
  0.5049332398764939  0.6673493800035922  0.5000980751320653
  0.6701401061352940  0.8333644922252009  0.5007823470986505
  0.8382262710210118  0.6663913789495205  0.5014795649650656
  0.1687453312531075  0.1648476194537670  0.6160710302486412
  0.1686305853357550  0.1674191022061440  0.3848610907309841
  0.5016084876548811  0.1669212622933317  0.6148826357208280
  0.5034823927455572  0.1674011540874999  0.3837452520627939
  0.8340753409864974  0.1655750820149396  0.6162267060462303
  0.8367299547275547  0.1670528879222790  0.3850580753237285
  0.1715542674326435  0.4971846299399065  0.6131906062478574
  0.1716582168881299  0.5007018429720249  0.3855066228093353
  0.5052822528559413  0.4991881925805781  0.6149806025431565
  0.5072072604170520  0.5021604513864339  0.3837846787854555
  0.8372604830061079  0.4986225656959792  0.6169415512958183
  0.8414123293943437  0.5006339331123101  0.3856567282086047
  0.1691630918895790  0.8327803247113830  0.6161976445554245
  0.1705766500522402  0.8330844033860516  0.3849951119880094
  0.5027173988310607  0.8333228174648308  0.6158088574146684
  0.5045420557290790  0.8338866265894168  0.3847388198821072
  0.8357251526414933  0.8329013956768552  0.6166288460336297
  0.8372487615278684  0.8329511527873736  0.3854914031458421
  0.1456861619935241  0.2784841440303131  0.4065000072589548
  0.2797794440804334  0.1445534130428612  0.4046104357778091
  0.1122914758076868  0.1092732954072497  0.4561389443166748
  0.1915790274031609  0.0539985919298046  0.5952701888675542
  0.2250050517739530  0.2208552213593206  0.5434400727173184
  0.0579127271434463  0.1879323987355657  0.5953666145280908
  0.4804770710189465  0.2783227800104534  0.4045216936477267
  0.6143026004232831  0.1443990845767763  0.4047606835952148
  0.4455297358727170  0.1096390152068423  0.4547048706435289
  0.5248762519508341  0.0559284803892139  0.5945153106834552
  0.5581537676374900  0.2225162522408972  0.5424249114034040
  0.3907275064878906  0.1892409120798729  0.5937918185936206
  0.8140652643158353  0.2779952826868974  0.4061766426959536
  0.9475557511973066  0.1439064669279373  0.4058455924092988
  0.7796840519299537  0.1096684717665627  0.4564224680021821
  0.8574069174038912  0.0546996018319844  0.5955835835175498
  0.8923722320424895  0.2222338480285974  0.5449758289130818
  0.7235183863856448  0.1886665790644942  0.5945496042491454
  0.1490161998555148  0.6117336515758318  0.4058561447859098
  0.2829034662887417  0.4781755199648073  0.4051326923235244
  0.1191810609781000  0.4475610666458201  0.4608345683587090
  0.1963150745099034  0.3859709984817571  0.5960825092391645
  0.2314028813215296  0.5593438242515973  0.5471772171515522
  0.0598542350914174  0.5214297326442096  0.5979818294358874
  0.4841510048832123  0.6128588902988463  0.4048569818681130
  0.6176938422492904  0.4787436071777956  0.4053797705078017
  0.4485354892210521  0.4445563323067479  0.4546311285857150
  0.5283163062121802  0.3885014844702516  0.5933493435133615
  0.5625099673749864  0.5573222766367736  0.5436701700595256
  0.3951273263777317  0.5226868077638920  0.5934622161852344
  0.8187136845404560  0.6116035446086454  0.4061555510850917
  0.9520269689890030  0.4769589407120559  0.4075716893867069
  0.7835933442996972  0.4445650321415380  0.4570108731779529
  0.8604983376258889  0.3880142437073401  0.5954302475409814
  0.8957707578221539  0.5570849412302612  0.5463174309500213
  0.7268623825105831  0.5220795466599744  0.5953018475969167
  0.1474581284810338  0.9439738327488171  0.4057146702878290
  0.2814197347647142  0.8103590923530398  0.4057874619008601
  0.1132003950450114  0.7760308880321171  0.4567954966602523
  0.1920290675055802  0.7223351572405878  0.5949324564210390
  0.2264637103511336  0.8896775905877081  0.5443089277193851
  0.0583606722790879  0.8561206079635783  0.5953049428037536
  0.4811066539354475  0.9448050575421492  0.4051377118271207
  0.6154749458062571  0.8114938021192600  0.4058315588832221
  0.4471862547874095  0.7770427331635372  0.4563185679338556
  0.5259531876694297  0.7224436394605352  0.5949278352938943
  0.5598794838896469  0.8906163180174631  0.5441987329108823
  0.3918939462622918  0.8562529565350591  0.5948684736475447
  0.8143511642503891  0.9439816867008112  0.4060458917395991
  0.9482678283183762  0.8103566933482804  0.4061025915492719
  0.7805252902897086  0.7760548102369824  0.4573702051481036
  0.8586247531957494  0.7218627413387799  0.5961989916610627
  0.8930815311370318  0.8897226531080258  0.5449576917700777
  0.7249031093384506  0.8556431404348339  0.5955788304338765
  0.2021374756495191  0.5261075717554192  0.6903565249529456
 
  0.00000000E+00  0.00000000E+00  0.00000000E+00
  0.00000000E+00  0.00000000E+00  0.00000000E+00
  0.00000000E+00  0.00000000E+00  0.00000000E+00
  0.00000000E+00  0.00000000E+00  0.00000000E+00
  0.00000000E+00  0.00000000E+00  0.00000000E+00
  0.00000000E+00  0.00000000E+00  0.00000000E+00
  0.00000000E+00  0.00000000E+00  0.00000000E+00
  0.00000000E+00  0.00000000E+00  0.00000000E+00
  0.00000000E+00  0.00000000E+00  0.00000000E+00
  0.00000000E+00  0.00000000E+00  0.00000000E+00
  0.00000000E+00  0.00000000E+00  0.00000000E+00
  0.00000000E+00  0.00000000E+00  0.00000000E+00
  0.00000000E+00  0.00000000E+00  0.00000000E+00
  0.00000000E+00  0.00000000E+00  0.00000000E+00
  0.00000000E+00  0.00000000E+00  0.00000000E+00
  0.00000000E+00  0.00000000E+00  0.00000000E+00
  0.00000000E+00  0.00000000E+00  0.00000000E+00
  0.00000000E+00  0.00000000E+00  0.00000000E+00
  0.00000000E+00  0.00000000E+00  0.00000000E+00
  0.00000000E+00  0.00000000E+00  0.00000000E+00
  0.00000000E+00  0.00000000E+00  0.00000000E+00
  0.00000000E+00  0.00000000E+00  0.00000000E+00
  0.00000000E+00  0.00000000E+00  0.00000000E+00
  0.00000000E+00  0.00000000E+00  0.00000000E+00
  0.00000000E+00  0.00000000E+00  0.00000000E+00
  0.00000000E+00  0.00000000E+00  0.00000000E+00
  0.00000000E+00  0.00000000E+00  0.00000000E+00
  0.00000000E+00  0.00000000E+00  0.00000000E+00
  0.00000000E+00  0.00000000E+00  0.00000000E+00
  0.00000000E+00  0.00000000E+00  0.00000000E+00
  0.00000000E+00  0.00000000E+00  0.00000000E+00
  0.00000000E+00  0.00000000E+00  0.00000000E+00
  0.00000000E+00  0.00000000E+00  0.00000000E+00
  0.00000000E+00  0.00000000E+00  0.00000000E+00
  0.00000000E+00  0.00000000E+00  0.00000000E+00
  0.00000000E+00  0.00000000E+00  0.00000000E+00
  0.00000000E+00  0.00000000E+00  0.00000000E+00
  0.00000000E+00  0.00000000E+00  0.00000000E+00
  0.00000000E+00  0.00000000E+00  0.00000000E+00
  0.00000000E+00  0.00000000E+00  0.00000000E+00
  0.00000000E+00  0.00000000E+00  0.00000000E+00
  0.00000000E+00  0.00000000E+00  0.00000000E+00
  0.00000000E+00  0.00000000E+00  0.00000000E+00
  0.00000000E+00  0.00000000E+00  0.00000000E+00
  0.00000000E+00  0.00000000E+00  0.00000000E+00
  0.00000000E+00  0.00000000E+00  0.00000000E+00
  0.00000000E+00  0.00000000E+00  0.00000000E+00
  0.00000000E+00  0.00000000E+00  0.00000000E+00
  0.00000000E+00  0.00000000E+00  0.00000000E+00
  0.00000000E+00  0.00000000E+00  0.00000000E+00
  0.00000000E+00  0.00000000E+00  0.00000000E+00
  0.00000000E+00  0.00000000E+00  0.00000000E+00
  0.00000000E+00  0.00000000E+00  0.00000000E+00
  0.00000000E+00  0.00000000E+00  0.00000000E+00
  0.00000000E+00  0.00000000E+00  0.00000000E+00
  0.00000000E+00  0.00000000E+00  0.00000000E+00
  0.00000000E+00  0.00000000E+00  0.00000000E+00
  0.00000000E+00  0.00000000E+00  0.00000000E+00
  0.00000000E+00  0.00000000E+00  0.00000000E+00
  0.00000000E+00  0.00000000E+00  0.00000000E+00
  0.00000000E+00  0.00000000E+00  0.00000000E+00
  0.00000000E+00  0.00000000E+00  0.00000000E+00
  0.00000000E+00  0.00000000E+00  0.00000000E+00
  0.00000000E+00  0.00000000E+00  0.00000000E+00
  0.00000000E+00  0.00000000E+00  0.00000000E+00
  0.00000000E+00  0.00000000E+00  0.00000000E+00
  0.00000000E+00  0.00000000E+00  0.00000000E+00
  0.00000000E+00  0.00000000E+00  0.00000000E+00
  0.00000000E+00  0.00000000E+00  0.00000000E+00
  0.00000000E+00  0.00000000E+00  0.00000000E+00
  0.00000000E+00  0.00000000E+00  0.00000000E+00
  0.00000000E+00  0.00000000E+00  0.00000000E+00
  0.00000000E+00  0.00000000E+00  0.00000000E+00
  0.00000000E+00  0.00000000E+00  0.00000000E+00
  0.00000000E+00  0.00000000E+00  0.00000000E+00
  0.00000000E+00  0.00000000E+00  0.00000000E+00
  0.00000000E+00  0.00000000E+00  0.00000000E+00
  0.00000000E+00  0.00000000E+00  0.00000000E+00
  0.00000000E+00  0.00000000E+00  0.00000000E+00
  0.00000000E+00  0.00000000E+00  0.00000000E+00
  0.00000000E+00  0.00000000E+00  0.00000000E+00
  0.00000000E+00  0.00000000E+00  0.00000000E+00
  0.00000000E+00  0.00000000E+00  0.00000000E+00
  0.00000000E+00  0.00000000E+00  0.00000000E+00
  0.00000000E+00  0.00000000E+00  0.00000000E+00
  0.00000000E+00  0.00000000E+00  0.00000000E+00
  0.00000000E+00  0.00000000E+00  0.00000000E+00
  0.00000000E+00  0.00000000E+00  0.00000000E+00
  0.00000000E+00  0.00000000E+00  0.00000000E+00
  0.00000000E+00  0.00000000E+00  0.00000000E+00
  0.00000000E+00  0.00000000E+00  0.00000000E+00
