CONTCAR\(6)                             
   1.00000000000000     
    13.0347003936999997    0.0000000000000000    0.0000000000000000
     0.0000000000000000   13.0347003936999997    0.0000000000000000
     0.0000000000000000    0.0000000000000000   24.3213005066000001
   Sm   Te   O 
    18    54     1
Direct
  0.9998584559609753  0.1666724930253096  0.4132066995721360
  0.1657363280428257  0.0018960172387636  0.5857526411551106
  0.3330204278588340  0.1663966850820984  0.4138926793550581
  0.4993509897606287  0.0000019140394798  0.5872391044903225
  0.6662726923778237  0.1662102653373267  0.4134389185777110
  0.8332429526581606  0.9998092391375906  0.5857401067509898
  0.9995514714260594  0.4997427626058339  0.4138493792946605
  0.1677869981092144  0.3342530130221775  0.5874193507738923
  0.3332265822785132  0.4999687175013108  0.4151552615120906
  0.4999009098648344  0.3309770156406415  0.5863891212858476
  0.6660977504447132  0.4999340277144881  0.4146067907463831
  0.8352964144343247  0.3322341026964111  0.5857973881182872
  0.9996223292112845  0.8331217075564652  0.4134498661607537
  0.1643372800011491  0.6663832079835501  0.5864973545615726
  0.3331997717357780  0.8327936571434478  0.4146682360837914
  0.5010673930853784  0.6677501952655192  0.5894713611697000
  0.6663927178171818  0.8329859417593184  0.4142513379730062
  0.8335218700629738  0.6660944121039520  0.5872864133202924
  0.0008896719548233  0.1675607983533638  0.5464855441588412
  0.1665684149039492  0.9996064007957060  0.4526903672463760
  0.1692604264255948  0.1674608868503924  0.6906661468116795
  0.9998351809496384  0.9997902109960961  0.3092179241148401
  0.9989249930471615  0.0060175762315069  0.6896715884719171
  0.1667132023822049  0.1665641250109005  0.3098136505267419
  0.3333432550133892  0.1663920708121793  0.5474732459529292
  0.4996717067031682  0.9996001216713708  0.4534941147041138
  0.5001209456652802  0.1653904615027812  0.6913505537354823
  0.3332802408024804  0.9997000785658798  0.3103262930014878
  0.3330170281108380  0.0018238877594072  0.6908587260058283
  0.4994989396804286  0.1665651169488171  0.3098673009491009
  0.6663527351125893  0.1654838628591264  0.5468270074114656
  0.8331957994186041  0.9999400639930229  0.4526083205784062
  0.8389662994269074  0.1651215608448666  0.6894422094525439
  0.6663989428347534  0.9994465895623250  0.3100174409730130
  0.6671967878554668  0.0006604219323592  0.6901993290834127
  0.8328594497792849  0.1664752374900331  0.3094883361612162
  0.9998237266354195  0.4997874529165500  0.5477318749046347
  0.1662980311374227  0.3335755372399305  0.4536453777583915
  0.1669987499122740  0.5034519510267970  0.6914006947852229
  0.9997175941572536  0.3333361168862154  0.3097113505591125
  0.0006646291936718  0.3359348200403147  0.6907290266579622
  0.1666472548741211  0.4997902001532211  0.3106345074736367
  0.3346632934438603  0.5014570944648398  0.5497523565544356
  0.4997459787966605  0.3327089197465867  0.4534837086612029
  0.5142525818831629  0.4945285591025907  0.6984063773212128
  0.3328935243537146  0.3335040360521404  0.3107127520494330
  0.3373014047726954  0.3334879615380757  0.6913325189948196
  0.4994222228513436  0.4999478386504990  0.3108450994560386
  0.6657169819824347  0.4999071903747705  0.5491203507798943
  0.8327047322099475  0.3331460600448608  0.4527882092824598
  0.8349736704286954  0.4999588612919297  0.6908841503923071
  0.6660508220428127  0.3334559921342404  0.3102828427830318
  0.6709788133790440  0.3276068009659596  0.6876157594480219
  0.8329019734539571  0.5000198724559795  0.3102552355942549
  0.9992598263084105  0.8333095923555547  0.5469235398167669
  0.1657067312155007  0.6662237613106967  0.4535218402827610
  0.1615151236241061  0.8373037764246760  0.6875035058926073
  0.9995673800449865  0.6663932649660751  0.3098525831262080
  0.9986091635480605  0.6670807752715930  0.6912998035605042
  0.1666247295449139  0.8329113310528555  0.3102052313600794
  0.3331314439930892  0.8320952619135227  0.5491191220456031
  0.4999299180586334  0.6666943693141505  0.4550164204804545
  0.5001226474224225  0.8360481827832302  0.6932104153534979
  0.3331945960956020  0.6662614018173727  0.3110919608330107
  0.3274990941527705  0.6802971769680468  0.6989552989463235
  0.4997758866379911  0.8329957559467260  0.3107107908884572
  0.6659386031002157  0.8325100738381579  0.5480737567621361
  0.8332148861850186  0.6662201220880561  0.4535990160782646
  0.8346223697544772  0.8341500674402766  0.6901037921025832
  0.6662195266457189  0.6664345827610845  0.3107890090501186
  0.6695607672656507  0.6670828479751023  0.6932287913579316
  0.8327843891031961  0.8330927444078498  0.3100739664473835
  0.4070895605935050  0.5728247922456617  0.7415792149182963
 
  0.00000000E+00  0.00000000E+00  0.00000000E+00
  0.00000000E+00  0.00000000E+00  0.00000000E+00
  0.00000000E+00  0.00000000E+00  0.00000000E+00
  0.00000000E+00  0.00000000E+00  0.00000000E+00
  0.00000000E+00  0.00000000E+00  0.00000000E+00
  0.00000000E+00  0.00000000E+00  0.00000000E+00
  0.00000000E+00  0.00000000E+00  0.00000000E+00
  0.00000000E+00  0.00000000E+00  0.00000000E+00
  0.00000000E+00  0.00000000E+00  0.00000000E+00
  0.00000000E+00  0.00000000E+00  0.00000000E+00
  0.00000000E+00  0.00000000E+00  0.00000000E+00
  0.00000000E+00  0.00000000E+00  0.00000000E+00
  0.00000000E+00  0.00000000E+00  0.00000000E+00
  0.00000000E+00  0.00000000E+00  0.00000000E+00
  0.00000000E+00  0.00000000E+00  0.00000000E+00
  0.00000000E+00  0.00000000E+00  0.00000000E+00
  0.00000000E+00  0.00000000E+00  0.00000000E+00
  0.00000000E+00  0.00000000E+00  0.00000000E+00
  0.00000000E+00  0.00000000E+00  0.00000000E+00
  0.00000000E+00  0.00000000E+00  0.00000000E+00
  0.00000000E+00  0.00000000E+00  0.00000000E+00
  0.00000000E+00  0.00000000E+00  0.00000000E+00
  0.00000000E+00  0.00000000E+00  0.00000000E+00
  0.00000000E+00  0.00000000E+00  0.00000000E+00
  0.00000000E+00  0.00000000E+00  0.00000000E+00
  0.00000000E+00  0.00000000E+00  0.00000000E+00
  0.00000000E+00  0.00000000E+00  0.00000000E+00
  0.00000000E+00  0.00000000E+00  0.00000000E+00
  0.00000000E+00  0.00000000E+00  0.00000000E+00
  0.00000000E+00  0.00000000E+00  0.00000000E+00
  0.00000000E+00  0.00000000E+00  0.00000000E+00
  0.00000000E+00  0.00000000E+00  0.00000000E+00
  0.00000000E+00  0.00000000E+00  0.00000000E+00
  0.00000000E+00  0.00000000E+00  0.00000000E+00
  0.00000000E+00  0.00000000E+00  0.00000000E+00
  0.00000000E+00  0.00000000E+00  0.00000000E+00
  0.00000000E+00  0.00000000E+00  0.00000000E+00
  0.00000000E+00  0.00000000E+00  0.00000000E+00
  0.00000000E+00  0.00000000E+00  0.00000000E+00
  0.00000000E+00  0.00000000E+00  0.00000000E+00
  0.00000000E+00  0.00000000E+00  0.00000000E+00
  0.00000000E+00  0.00000000E+00  0.00000000E+00
  0.00000000E+00  0.00000000E+00  0.00000000E+00
  0.00000000E+00  0.00000000E+00  0.00000000E+00
  0.00000000E+00  0.00000000E+00  0.00000000E+00
  0.00000000E+00  0.00000000E+00  0.00000000E+00
  0.00000000E+00  0.00000000E+00  0.00000000E+00
  0.00000000E+00  0.00000000E+00  0.00000000E+00
  0.00000000E+00  0.00000000E+00  0.00000000E+00
  0.00000000E+00  0.00000000E+00  0.00000000E+00
  0.00000000E+00  0.00000000E+00  0.00000000E+00
  0.00000000E+00  0.00000000E+00  0.00000000E+00
  0.00000000E+00  0.00000000E+00  0.00000000E+00
  0.00000000E+00  0.00000000E+00  0.00000000E+00
  0.00000000E+00  0.00000000E+00  0.00000000E+00
  0.00000000E+00  0.00000000E+00  0.00000000E+00
  0.00000000E+00  0.00000000E+00  0.00000000E+00
  0.00000000E+00  0.00000000E+00  0.00000000E+00
  0.00000000E+00  0.00000000E+00  0.00000000E+00
  0.00000000E+00  0.00000000E+00  0.00000000E+00
  0.00000000E+00  0.00000000E+00  0.00000000E+00
  0.00000000E+00  0.00000000E+00  0.00000000E+00
  0.00000000E+00  0.00000000E+00  0.00000000E+00
  0.00000000E+00  0.00000000E+00  0.00000000E+00
  0.00000000E+00  0.00000000E+00  0.00000000E+00
  0.00000000E+00  0.00000000E+00  0.00000000E+00
  0.00000000E+00  0.00000000E+00  0.00000000E+00
  0.00000000E+00  0.00000000E+00  0.00000000E+00
  0.00000000E+00  0.00000000E+00  0.00000000E+00
  0.00000000E+00  0.00000000E+00  0.00000000E+00
  0.00000000E+00  0.00000000E+00  0.00000000E+00
  0.00000000E+00  0.00000000E+00  0.00000000E+00
  0.00000000E+00  0.00000000E+00  0.00000000E+00
