CONTCAR\(16)                            
   1.00000000000000     
    12.3274002075000002    0.0000000000000000    0.0000000000000000
     0.0000000000000000   15.7540998459000008    0.0000000000000000
     0.0000000000000000    0.0000000000000000   20.2700004577999984
   Pr   Br   O 
    12    30     1
Direct
  0.2506412738032510  0.6314243509505120  0.5118475384036639
  0.0877923782220953  0.3667160239668336  0.4726899993982485
  0.2358239731944617  0.1356776820864382  0.5212427621603715
  0.0802442930893080  0.8643457190340091  0.4618790919580567
  0.5826887201967520  0.6314243509505120  0.5118475384036639
  0.4166700059999968  0.3478368799266451  0.6587082251871079
  0.5975060208055415  0.1356776820864382  0.5212427621603715
  0.4166700059999968  0.8679042395102007  0.4612673438648514
  0.9166700450000036  0.6403349936868231  0.5109568411397586
  0.7455376157779079  0.3667160239668336  0.4726899993982485
  0.9166700450000036  0.1362040119336642  0.5206760603388095
  0.7530857009106950  0.8643457190340091  0.4618790919580567
  0.2498338599472859  0.8792061123639034  0.3608314544755962
  0.0766309612895013  0.1097767465310028  0.6250879964447740
  0.2493144515432006  0.4859168387737284  0.4210754688259205
  0.0788879996789030  0.5197103537069485  0.5731988002039750
  0.0780946807943995  0.0574106851758325  0.4280158014554670
  0.2497881466139513  0.9420535447172591  0.5532216656230794
  0.0868911616658678  0.7456175421330105  0.5817366706197434
  0.2417395914263362  0.2540273332900370  0.4094797060931443
  0.0846514456128153  0.6843371024859640  0.4097866226778145
  0.2061860828564836  0.3091568489223508  0.5891849032576837
  0.5834961340527173  0.8792061123639034  0.3608314544755962
  0.4166700059999968  0.1438909866501210  0.6207651185395974
  0.5840155424568024  0.4859168387737284  0.4210754688259205
  0.4166700059999968  0.5230957909568242  0.5837693630774178
  0.4166700059999968  0.0651812654189218  0.4348554544366159
  0.5835418473860520  0.9420535447172591  0.5532216656230794
  0.4166700059999968  0.7477076414077567  0.5793542533357113
  0.5915904025736666  0.2540273332900370  0.4094797060931443
  0.4166700059999968  0.6845967280072788  0.4104115097993353
  0.6271439111435196  0.3091568489223508  0.5891849032576837
  0.9166700450000036  0.8753028024993066  0.3583961967326790
  0.7566990327104949  0.1097767465310028  0.6250879964447740
  0.9166700450000036  0.4864763134349945  0.4163690105677408
  0.7544419943211000  0.5197103537069485  0.5731988002039750
  0.7552353132056037  0.0574106851758325  0.4280158014554670
  0.9166700450000036  0.9379316295929138  0.5534819776721018
  0.7464388323341355  0.7456175421330105  0.5817366706197434
  0.9166700450000036  0.2602414402358305  0.4019672672437238
  0.7486785483871877  0.6843371024859640  0.4097866226778145
  0.9166700450000036  0.3176403960633881  0.5728702750088852
  0.4166700059999968  0.3724307353996870  0.7514839428606107
 
  0.00000000E+00  0.00000000E+00  0.00000000E+00
  0.00000000E+00  0.00000000E+00  0.00000000E+00
  0.00000000E+00  0.00000000E+00  0.00000000E+00
  0.00000000E+00  0.00000000E+00  0.00000000E+00
  0.00000000E+00  0.00000000E+00  0.00000000E+00
  0.00000000E+00  0.00000000E+00  0.00000000E+00
  0.00000000E+00  0.00000000E+00  0.00000000E+00
  0.00000000E+00  0.00000000E+00  0.00000000E+00
  0.00000000E+00  0.00000000E+00  0.00000000E+00
  0.00000000E+00  0.00000000E+00  0.00000000E+00
  0.00000000E+00  0.00000000E+00  0.00000000E+00
  0.00000000E+00  0.00000000E+00  0.00000000E+00
  0.00000000E+00  0.00000000E+00  0.00000000E+00
  0.00000000E+00  0.00000000E+00  0.00000000E+00
  0.00000000E+00  0.00000000E+00  0.00000000E+00
  0.00000000E+00  0.00000000E+00  0.00000000E+00
  0.00000000E+00  0.00000000E+00  0.00000000E+00
  0.00000000E+00  0.00000000E+00  0.00000000E+00
  0.00000000E+00  0.00000000E+00  0.00000000E+00
  0.00000000E+00  0.00000000E+00  0.00000000E+00
  0.00000000E+00  0.00000000E+00  0.00000000E+00
  0.00000000E+00  0.00000000E+00  0.00000000E+00
  0.00000000E+00  0.00000000E+00  0.00000000E+00
  0.00000000E+00  0.00000000E+00  0.00000000E+00
  0.00000000E+00  0.00000000E+00  0.00000000E+00
  0.00000000E+00  0.00000000E+00  0.00000000E+00
  0.00000000E+00  0.00000000E+00  0.00000000E+00
  0.00000000E+00  0.00000000E+00  0.00000000E+00
  0.00000000E+00  0.00000000E+00  0.00000000E+00
  0.00000000E+00  0.00000000E+00  0.00000000E+00
  0.00000000E+00  0.00000000E+00  0.00000000E+00
  0.00000000E+00  0.00000000E+00  0.00000000E+00
  0.00000000E+00  0.00000000E+00  0.00000000E+00
  0.00000000E+00  0.00000000E+00  0.00000000E+00
  0.00000000E+00  0.00000000E+00  0.00000000E+00
  0.00000000E+00  0.00000000E+00  0.00000000E+00
  0.00000000E+00  0.00000000E+00  0.00000000E+00
  0.00000000E+00  0.00000000E+00  0.00000000E+00
  0.00000000E+00  0.00000000E+00  0.00000000E+00
  0.00000000E+00  0.00000000E+00  0.00000000E+00
  0.00000000E+00  0.00000000E+00  0.00000000E+00
  0.00000000E+00  0.00000000E+00  0.00000000E+00
  0.00000000E+00  0.00000000E+00  0.00000000E+00
