CONTCAR\(8)                             
   1.00000000000000     
    10.2665004730000007    0.0000000000000000    0.0000000000000000
     0.0000000000000000   17.1711997986000000    0.0000000000000000
     0.0000000000000000    0.0000000000000000   18.9181995391999997
   K    Fe   S    O 
     8    16    24     1
Direct
  0.1238085033898099  0.2499800060000013  0.4113783160435046
  0.3738106563227366  0.2499800060000013  0.5916241697533727
  0.6246249848277384  0.2499800060000013  0.4101181598771253
  0.8754488929296161  0.2499800060000013  0.5909811435525688
  0.1255767966997634  0.7499799499999966  0.4157543770301201
  0.3724877340934602  0.7499799499999966  0.5966962202427427
  0.6253499750601724  0.7499799499999966  0.4139941780630535
  0.8771836254216941  0.7499799499999966  0.5985620730502998
 -0.0007329599648304  0.0729877354784028  0.4996765406610830
  0.2505209420626797  0.9243647271644867  0.5052730397482801
 -0.0008593426152144  0.9248776389344283  0.5056751860998122
  0.2500156036477278  0.0727822170535362  0.4998341727041456
  0.5000368473848802  0.0738815279762173  0.4988772464301358
  0.7490559930278758  0.9268072236175733  0.5039624347361026
  0.5020968306380594  0.9265060620069122  0.5038643717558274
  0.7497758118156170  0.0738457633575794  0.4989614490976266
 -0.0008593426152144  0.5751424100655714  0.5056751860998122
  0.2500156036477278  0.4272178109464660  0.4998341727041456
 -0.0007329599648304  0.4270322585215960  0.4996765406610830
  0.2505209420626797  0.5756352728355133  0.5052730397482801
  0.5020968306380594  0.5735139869930875  0.5038643717558274
  0.7497758118156170  0.4261542646424230  0.4989614490976266
  0.5000368473848802  0.4261384660237814  0.4988772464301358
  0.7490559930278758  0.5731927763824267  0.5039624347361026
  0.3760471611467194  0.8540457395125634  0.4416422088050472
  0.1247792051859835  0.1437898025601242  0.5651437701639351
  0.1240829254294650  0.8581172522201835  0.5729367006000895
  0.3766455236476834  0.0013956698816703  0.5690697229646013
  0.1243345004799972  0.9954120142711180  0.4383933207751215
  0.3738304533973287  0.1416370884931877  0.4328933020972494
  0.8753906576434911  0.8542936438730475  0.4429042030432709
  0.6248899745378661  0.1448113664048792  0.5637584322607204
  0.6270868590578548  0.8623232924658424  0.5702790525217125
  0.8733984931033117  0.0014078766372545  0.5685917815890567
  0.6256005055954375  0.9973021005909402  0.4360217562331888
  0.8752648837511280  0.1413358895304050  0.4322416046865176
  0.3738304533973287  0.3583829195068122  0.4329033340972481
  0.1240829254294650  0.6419026867798142  0.5729467316000917
  0.1247792051859835  0.3562302054398758  0.5651337391639329
  0.3766455236476834  0.4986043301183300  0.5690697229646013
  0.1243345004799972  0.5045879857288820  0.4383933207751215
  0.3760471611467194  0.6459741994874344  0.4416321768050485
  0.8752648837511280  0.3586841184695947  0.4322516366865163
  0.6270868590578548  0.6376966465341554  0.5702890835217147
  0.6248899745378661  0.3552086415951207  0.5637484012607182
  0.8733984931033117  0.4985921233627455  0.5685917815890567
  0.6256005055954375  0.5026978994090598  0.4360217562331888
  0.8753906576434911  0.6457262951269502  0.4428941710432722
  0.6240770623088456  0.7499799499999966  0.5577011364401794
 
  0.00000000E+00  0.00000000E+00  0.00000000E+00
  0.00000000E+00  0.00000000E+00  0.00000000E+00
  0.00000000E+00  0.00000000E+00  0.00000000E+00
  0.00000000E+00  0.00000000E+00  0.00000000E+00
  0.00000000E+00  0.00000000E+00  0.00000000E+00
  0.00000000E+00  0.00000000E+00  0.00000000E+00
  0.00000000E+00  0.00000000E+00  0.00000000E+00
  0.00000000E+00  0.00000000E+00  0.00000000E+00
  0.00000000E+00  0.00000000E+00  0.00000000E+00
  0.00000000E+00  0.00000000E+00  0.00000000E+00
  0.00000000E+00  0.00000000E+00  0.00000000E+00
  0.00000000E+00  0.00000000E+00  0.00000000E+00
  0.00000000E+00  0.00000000E+00  0.00000000E+00
  0.00000000E+00  0.00000000E+00  0.00000000E+00
  0.00000000E+00  0.00000000E+00  0.00000000E+00
  0.00000000E+00  0.00000000E+00  0.00000000E+00
  0.00000000E+00  0.00000000E+00  0.00000000E+00
  0.00000000E+00  0.00000000E+00  0.00000000E+00
  0.00000000E+00  0.00000000E+00  0.00000000E+00
  0.00000000E+00  0.00000000E+00  0.00000000E+00
  0.00000000E+00  0.00000000E+00  0.00000000E+00
  0.00000000E+00  0.00000000E+00  0.00000000E+00
  0.00000000E+00  0.00000000E+00  0.00000000E+00
  0.00000000E+00  0.00000000E+00  0.00000000E+00
  0.00000000E+00  0.00000000E+00  0.00000000E+00
  0.00000000E+00  0.00000000E+00  0.00000000E+00
  0.00000000E+00  0.00000000E+00  0.00000000E+00
  0.00000000E+00  0.00000000E+00  0.00000000E+00
  0.00000000E+00  0.00000000E+00  0.00000000E+00
  0.00000000E+00  0.00000000E+00  0.00000000E+00
  0.00000000E+00  0.00000000E+00  0.00000000E+00
  0.00000000E+00  0.00000000E+00  0.00000000E+00
  0.00000000E+00  0.00000000E+00  0.00000000E+00
  0.00000000E+00  0.00000000E+00  0.00000000E+00
  0.00000000E+00  0.00000000E+00  0.00000000E+00
  0.00000000E+00  0.00000000E+00  0.00000000E+00
  0.00000000E+00  0.00000000E+00  0.00000000E+00
  0.00000000E+00  0.00000000E+00  0.00000000E+00
  0.00000000E+00  0.00000000E+00  0.00000000E+00
  0.00000000E+00  0.00000000E+00  0.00000000E+00
  0.00000000E+00  0.00000000E+00  0.00000000E+00
  0.00000000E+00  0.00000000E+00  0.00000000E+00
  0.00000000E+00  0.00000000E+00  0.00000000E+00
  0.00000000E+00  0.00000000E+00  0.00000000E+00
  0.00000000E+00  0.00000000E+00  0.00000000E+00
  0.00000000E+00  0.00000000E+00  0.00000000E+00
  0.00000000E+00  0.00000000E+00  0.00000000E+00
  0.00000000E+00  0.00000000E+00  0.00000000E+00
  0.00000000E+00  0.00000000E+00  0.00000000E+00
