CONTCAR\(4)                             
   1.00000000000000     
    12.8154001235999999    0.0000000000000000    0.0000000000000000
     6.4077083683999998   11.0983416437999995    0.0000000000000000
     0.0000000000000000    0.0000000000000000   33.6823997497999983
   Ge   Bi   Te   O    H 
    27    18    54     2     1
Selective dynamics
Direct
  0.1114657952931637  0.1134282359826955  0.2643007891262954   F   F   F
  0.2242593564791804  0.2234666840410000  0.7377764913900080   F   F   F
  0.2229967646610760  0.2242354613683446  0.3739291044146000   F   F   F
  0.4448969614868119  0.1133572723068710  0.2642344334834021   F   F   F
  0.5590464208699117  0.2217673267808706  0.7386855539802113   F   F   F
  0.5562039961605052  0.2241455005908151  0.3738331178387071   F   F   F
  0.7783158725391530  0.1131328517156120  0.2642882538982576   F   F   F
  0.8895207395270006  0.2245111684276893  0.7381426266563693   F   F   F
  0.8900054086201621  0.2242002905664364  0.3740657939478780   F   F   F
  0.1112532745106023  0.4465938267662821  0.2643947221522538   F   F   F
  0.2147623400401386  0.5612316704622913  0.7380867440424481   F   F   F
  0.2230045758914727  0.5575855094223314  0.3737501374800232   F   F   F
  0.4449244396318122  0.4465040504228313  0.2644751586868068   F   F   F
  0.5578864248190598  0.5590019164072899  0.7379776445235038   F   F   F
  0.5561859803366929  0.5575915095757296  0.3737781212896323   F   F   F
  0.7786145526081043  0.4463264578719546  0.2645134461604641   F   F   F
  0.8872145338994528  0.5576220104739562  0.7381823210461889   F   F   F
  0.8893643374516174  0.5576173469472465  0.3738077245754496   F   F   F
  0.1108323410514558  0.7804556967675680  0.2642224639145994   F   F   F
  0.2241020716040296  0.8906139305852321  0.7377122847031927   F   F   F
  0.2233436197534360  0.8910516257854013  0.3738845459326896   F   F   F
  0.4448647697609687  0.7802874419615193  0.2643782677865474   F   F   F
  0.5560628786212618  0.8912304553307990  0.7383098119229388   F   F   F
  0.5555571564118225  0.8913006098769785  0.3737705989211975   F   F   F
  0.7779981154070867  0.7801607505411710  0.2642743426400855   F   F   F
  0.8873755283682812  0.8927769724739960  0.7383146076890981   F   F   F
  0.8897163181945942  0.8909980008472616  0.3737488799977200   F   F   F
  0.0018135625430986  0.0010611803358671  0.4937582452365774   F   F   F
  0.1125845021389935  0.1126386856483421  0.6182408644952275   F   F   F
  0.3377952791158592  0.0001342265497897  0.4942918802678378   F   F   F
  0.4468962505433325  0.1118396854158732  0.6183824329648715   F   F   F
  0.6689270260981104  0.0007791868884297  0.4939217708507115   F   F   F
  0.7798059583194643  0.1117546333962736  0.6184451126256718   F   F   F
  0.0021448163571520  0.3336333845002670  0.4935161254202711   F   F   F
  0.1135182186469805  0.4466596726743219  0.6189702354535243   F   F   F
  0.3343962164331629  0.3349516495005034  0.4934369497685864   F   F   F
  0.4466261318984834  0.4454001129284180  0.6182735656014486   F   F   F
  0.6680121189613573  0.3345821974579053  0.4933685088655295   F   F   F
  0.7794507002443325  0.4455443607927165  0.6183028418091396   F   F   F
  0.0007784401899755  0.6684055797190496  0.4937733157013540   F   F   F
  0.1130707228729051  0.7782521949558117  0.6187851775419233   F   F   F
  0.3343807323168946  0.6687331072468723  0.4935083545285295   F   F   F
  0.4471855601202961  0.7788146221235834  0.6182196636429964   F   F   F
  0.6694638304921199  0.6677581690967145  0.4939541991885150   F   F   F
  0.7861697631433913  0.7754492702684885  0.6193187051596993   F   F   F
  0.0007479458274844  0.0022709649180968  0.3316265562654053   F   F   F
  0.1126485132154045  0.1128205160288616  0.7795876731114859   F   F   F
  0.1136617030062297  0.1117891728066098  0.4400438195925602   F   F   F
  0.2239007528517547  0.2239576818498179  0.5560090389768106   F   F   F
  0.2224148380328188  0.2246631912888262  0.2228379607107200   F   F   F
  0.0015443904458792  0.0014245931048151  0.6717908222642421   F   F   F
  0.3334437071801588  0.0026319694635291  0.3313161970475207   F   F   F
  0.4455779961661506  0.1131277004352853  0.7802760319999891   F   F   F
  0.4454586416439170  0.1131627724365671  0.4396834869370281   F   F   F
  0.5565818636677378  0.2241339707016152  0.5555477838152214   F   F   F
  0.5561393849231990  0.2246728769085280  0.2228198116177253   F   F   F
  0.3350496382209016  0.0013309103924399  0.6716547498527987   F   F   F
  0.6667984225220778  0.0021156087339875  0.3315023715677512   F   F   F
  0.7797868542835431  0.1123740276470784  0.7807804389886144   F   F   F
  0.7791788222121596  0.1123113936658342  0.4397142236455593   F   F   F
  0.8900594741198518  0.2239145973274361  0.5556070753812605   F   F   F
  0.8892893125780077  0.2244818502859403  0.2228124352825489   F   F   F
  0.6705532324440497  0.9990986170335603  0.6718220785673310   F   F   F
  0.0005409123295408  0.3355555839686772  0.3316619293369669   F   F   F
  0.1104639279041706  0.4469400429259380  0.7794205337514981   F   F   F
  0.1113722009097273  0.4466440320136869  0.4396828852491055   F   F   F
  0.2232574172302861  0.5575203063201712  0.5555513548461377   F   F   F
  0.2226477152593986  0.5576218729306390  0.2229839190729876   F   F   F
  0.0015562483324487  0.3348542488142030  0.6717013354234638   F   F   F
  0.3340315195370138  0.3354156691124786  0.3315481696039342   F   F   F
  0.4520390666930751  0.4443326666535796  0.7815661346179112   F   F   F
  0.4450357778587914  0.4466522139824818  0.4396197436760474   F   F   F
  0.5564214415893289  0.5571171274925035  0.5556051198749969   F   F   F
  0.5563395818346635  0.5576145835419553  0.2230904306430190   F   F   F
  0.3366768485717202  0.3335537816600436  0.6719578937450166   F   F   F
  0.6675364166220774  0.3350945158203018  0.3316357299084132   F   F   F
  0.7786449730371388  0.4468000056847359  0.7800392688556670   F   F   F
  0.7788999066294906  0.4460797678598567  0.4397540618827520   F   F   F
  0.8905265225449526  0.5566038838227669  0.5554438536966018   F   F   F
  0.8889751257780318  0.5576989148605520  0.2228779790500326   F   F   F
  0.6683416115123535  0.3345277729788023  0.6718319300432114   F   F   F
  0.0005562531277903  0.6685836476183837  0.3315515196176904   F   F   F
  0.1103920346826399  0.7802888217928867  0.7793252616824446   F   F   F
  0.1114864136291160  0.7795961832540357  0.4396665242489561   F   F   F
  0.2237933584999112  0.8902468765320037  0.5557557217524831   F   F   F
  0.2227565212529896  0.8911675751552721  0.2228271277730869   F   F   F
  0.0133237105356940  0.6628153807220443  0.6750224938849385   F   F   F
  0.3339431171866138  0.6689881629017478  0.3315187023681503   F   F   F
  0.4454585541161435  0.7799759053166468  0.7800667481972994   F   F   F
  0.4455424171542077  0.7792672102354103  0.4397573780957202   F   F   F
  0.5599777277055509  0.8887823869404912  0.5559472235034875   F   F   F
  0.5558687035103702  0.8912000311069619  0.2227335828566765   F   F   F
  0.3363314743860570  0.6678982944263510  0.6716432429398722   F   F   F
  0.6668711639385307  0.6690946577897705  0.3315225763342227   F   F   F
  0.7775226002639357  0.7801747028389556  0.7800833513613696   F   F   F
  0.7783775836548514  0.7797669668002030  0.4395463611499153   F   F   F
  0.8897026601542919  0.8911349614851147  0.5551656032334904   F   F   F
  0.8885531408501066  0.8913607595705102  0.2225264912575113   F   F   F
  0.6702127610566890  0.6681552268449025  0.6716704356123273   F   F   F
  0.6043737570206460  0.3494141804686208  0.8239303689174591   T   T   T
  0.5987376808551801  0.4268395139499219  0.8561969463325951   T   T   T
  0.5611995634683352  0.4037352249782131  0.8767758892148576   T   T   T
 
  0.00000000E+00  0.00000000E+00  0.00000000E+00
  0.00000000E+00  0.00000000E+00  0.00000000E+00
  0.00000000E+00  0.00000000E+00  0.00000000E+00
  0.00000000E+00  0.00000000E+00  0.00000000E+00
  0.00000000E+00  0.00000000E+00  0.00000000E+00
  0.00000000E+00  0.00000000E+00  0.00000000E+00
  0.00000000E+00  0.00000000E+00  0.00000000E+00
  0.00000000E+00  0.00000000E+00  0.00000000E+00
  0.00000000E+00  0.00000000E+00  0.00000000E+00
  0.00000000E+00  0.00000000E+00  0.00000000E+00
  0.00000000E+00  0.00000000E+00  0.00000000E+00
  0.00000000E+00  0.00000000E+00  0.00000000E+00
  0.00000000E+00  0.00000000E+00  0.00000000E+00
  0.00000000E+00  0.00000000E+00  0.00000000E+00
  0.00000000E+00  0.00000000E+00  0.00000000E+00
  0.00000000E+00  0.00000000E+00  0.00000000E+00
  0.00000000E+00  0.00000000E+00  0.00000000E+00
  0.00000000E+00  0.00000000E+00  0.00000000E+00
  0.00000000E+00  0.00000000E+00  0.00000000E+00
  0.00000000E+00  0.00000000E+00  0.00000000E+00
  0.00000000E+00  0.00000000E+00  0.00000000E+00
  0.00000000E+00  0.00000000E+00  0.00000000E+00
  0.00000000E+00  0.00000000E+00  0.00000000E+00
  0.00000000E+00  0.00000000E+00  0.00000000E+00
  0.00000000E+00  0.00000000E+00  0.00000000E+00
  0.00000000E+00  0.00000000E+00  0.00000000E+00
  0.00000000E+00  0.00000000E+00  0.00000000E+00
  0.00000000E+00  0.00000000E+00  0.00000000E+00
  0.00000000E+00  0.00000000E+00  0.00000000E+00
  0.00000000E+00  0.00000000E+00  0.00000000E+00
  0.00000000E+00  0.00000000E+00  0.00000000E+00
  0.00000000E+00  0.00000000E+00  0.00000000E+00
  0.00000000E+00  0.00000000E+00  0.00000000E+00
  0.00000000E+00  0.00000000E+00  0.00000000E+00
  0.00000000E+00  0.00000000E+00  0.00000000E+00
  0.00000000E+00  0.00000000E+00  0.00000000E+00
  0.00000000E+00  0.00000000E+00  0.00000000E+00
  0.00000000E+00  0.00000000E+00  0.00000000E+00
  0.00000000E+00  0.00000000E+00  0.00000000E+00
  0.00000000E+00  0.00000000E+00  0.00000000E+00
  0.00000000E+00  0.00000000E+00  0.00000000E+00
  0.00000000E+00  0.00000000E+00  0.00000000E+00
  0.00000000E+00  0.00000000E+00  0.00000000E+00
  0.00000000E+00  0.00000000E+00  0.00000000E+00
  0.00000000E+00  0.00000000E+00  0.00000000E+00
  0.00000000E+00  0.00000000E+00  0.00000000E+00
  0.00000000E+00  0.00000000E+00  0.00000000E+00
  0.00000000E+00  0.00000000E+00  0.00000000E+00
  0.00000000E+00  0.00000000E+00  0.00000000E+00
  0.00000000E+00  0.00000000E+00  0.00000000E+00
  0.00000000E+00  0.00000000E+00  0.00000000E+00
  0.00000000E+00  0.00000000E+00  0.00000000E+00
  0.00000000E+00  0.00000000E+00  0.00000000E+00
  0.00000000E+00  0.00000000E+00  0.00000000E+00
  0.00000000E+00  0.00000000E+00  0.00000000E+00
  0.00000000E+00  0.00000000E+00  0.00000000E+00
  0.00000000E+00  0.00000000E+00  0.00000000E+00
  0.00000000E+00  0.00000000E+00  0.00000000E+00
  0.00000000E+00  0.00000000E+00  0.00000000E+00
  0.00000000E+00  0.00000000E+00  0.00000000E+00
  0.00000000E+00  0.00000000E+00  0.00000000E+00
  0.00000000E+00  0.00000000E+00  0.00000000E+00
  0.00000000E+00  0.00000000E+00  0.00000000E+00
  0.00000000E+00  0.00000000E+00  0.00000000E+00
  0.00000000E+00  0.00000000E+00  0.00000000E+00
  0.00000000E+00  0.00000000E+00  0.00000000E+00
  0.00000000E+00  0.00000000E+00  0.00000000E+00
  0.00000000E+00  0.00000000E+00  0.00000000E+00
  0.00000000E+00  0.00000000E+00  0.00000000E+00
  0.00000000E+00  0.00000000E+00  0.00000000E+00
  0.00000000E+00  0.00000000E+00  0.00000000E+00
  0.00000000E+00  0.00000000E+00  0.00000000E+00
  0.00000000E+00  0.00000000E+00  0.00000000E+00
  0.00000000E+00  0.00000000E+00  0.00000000E+00
  0.00000000E+00  0.00000000E+00  0.00000000E+00
  0.00000000E+00  0.00000000E+00  0.00000000E+00
  0.00000000E+00  0.00000000E+00  0.00000000E+00
  0.00000000E+00  0.00000000E+00  0.00000000E+00
  0.00000000E+00  0.00000000E+00  0.00000000E+00
  0.00000000E+00  0.00000000E+00  0.00000000E+00
  0.00000000E+00  0.00000000E+00  0.00000000E+00
  0.00000000E+00  0.00000000E+00  0.00000000E+00
  0.00000000E+00  0.00000000E+00  0.00000000E+00
  0.00000000E+00  0.00000000E+00  0.00000000E+00
  0.00000000E+00  0.00000000E+00  0.00000000E+00
  0.00000000E+00  0.00000000E+00  0.00000000E+00
  0.00000000E+00  0.00000000E+00  0.00000000E+00
  0.00000000E+00  0.00000000E+00  0.00000000E+00
  0.00000000E+00  0.00000000E+00  0.00000000E+00
  0.00000000E+00  0.00000000E+00  0.00000000E+00
  0.00000000E+00  0.00000000E+00  0.00000000E+00
  0.00000000E+00  0.00000000E+00  0.00000000E+00
  0.00000000E+00  0.00000000E+00  0.00000000E+00
  0.00000000E+00  0.00000000E+00  0.00000000E+00
  0.00000000E+00  0.00000000E+00  0.00000000E+00
  0.00000000E+00  0.00000000E+00  0.00000000E+00
  0.00000000E+00  0.00000000E+00  0.00000000E+00
  0.00000000E+00  0.00000000E+00  0.00000000E+00
  0.00000000E+00  0.00000000E+00  0.00000000E+00
  0.00000000E+00  0.00000000E+00  0.00000000E+00
  0.00000000E+00  0.00000000E+00  0.00000000E+00
  0.00000000E+00  0.00000000E+00  0.00000000E+00
