CONTCAR\(3)                             
   1.00000000000000     
    13.8212003707999997    0.0000000000000000    0.0000000000000000
     2.2957132678000001   11.9646463987999994    0.0000000000000000
     0.0000000000000000    0.0000000000000000   19.5161991119000007
   Li   Cr   C    O    H 
     6     9    18    55     1
Direct
  0.0028672341296383  0.0004807307282901  0.6002928106359171
  0.2580534777184497  0.4480241222926449  0.4045587727536356
  0.3363413686910185  0.0006711370377137  0.6011786500050134
  0.5917912366844531  0.4477995231382182  0.4025977586581629
  0.6699994862660773  0.9997462303745842  0.5995400224488029
  0.9264258014963170  0.4465994898189074  0.4013952148568913
  0.1881447580593157  0.8883952678183188  0.5034245351734646
  0.2977445796882990  0.2226636801548530  0.4990587046315229
  0.0746116491555756  0.5570324930736984  0.5022251785922163
  0.5214208362668550  0.8878033473038711  0.5022761603730515
  0.6308503838632746  0.2221156767839981  0.4983415800722059
  0.4061627635412917  0.5578297571696909  0.5010834772385235
  0.8552330901935433  0.8876531588950527  0.5024138791524529
  0.9642230908605334  0.2227571650195002  0.4996671125820741
  0.7406360824543610  0.5574405262542278  0.4990459165904652
  0.1494599828123391  0.1159345194621127  0.5620933327210856
  0.2601819030202888  0.4443499623245564  0.5595256940387947
  0.1121432162860697  0.3310474144671521  0.4381323655926750
  0.0392675467201940  0.7757458870427222  0.5625789385515709
  0.2222039583200803  0.6707665958925715  0.4427809399225138
  0.0028817786951738 -0.0010875677574292  0.4466028489183252
  0.4826437399109588  0.1150147625216932  0.5610406624698440
  0.5931209307859585  0.4453090353866915  0.5543067844420785
  0.4451483433444659  0.3313197122239053  0.4372391070405156
  0.3723736840719218  0.7764618851857600  0.5619865809859649
  0.5556468152369333  0.6699778974323004  0.4411967051639775
  0.3359460560536597 -0.0015254886543833  0.4464129380126260
  0.8156379352489507  0.1153672463415671  0.5618705934846889
  0.9258490628851045  0.4458686090731580  0.5550667853570991
  0.7791488465054903  0.3306913466356158  0.4372571841105028
  0.7058924230290851  0.7755806693094710  0.5606770884190714
  0.8907344885578974  0.6694082324945078  0.4415029915878503
  0.6695425582662460 -0.0018353137035707  0.4456652536036956
  0.1644258641988357  0.4541658355303189  0.5532987263054235
  0.0974146421260794  0.9911337928671236  0.4483969426345673
  0.0738860617789209  0.2439411196836135  0.4406956662316942
  0.0576005632940943  0.4311467439530727  0.4349724429467258
  0.2045731151071659  0.0162563051097330  0.5682313356846365
  0.3159647502787850  0.3472836868465434  0.5527081919687142
  0.1869884113322145  0.2030027185603833  0.5569029912313578
  0.2990676258687515  0.5334987129849905  0.5572582936889805
  0.2778358140089109  0.7894035129114090  0.5637643556695527
  0.2073915038711782  0.3225833985371050  0.4355773115481902
  0.1814004739653754  0.5822745324340446  0.4377532542537653
  0.2978933052827804  0.9094817641239451  0.4476865206113278
  0.1661165437846263  0.7668987033994192  0.4467831950072841
  0.2794098869327337  0.0959487358172914  0.4450645427773823
  0.0949276206544172  0.6789793779818588  0.5598604939426268
  0.0799474179818037  0.8644850020960534  0.5675539782746447
  0.0541446748753292  0.1236070628624548  0.5642732325808577
  0.3165587594053729  0.6584074798214872  0.4414948067578660
  0.4985228987809924  0.4538196804436245  0.5537817276738922
  0.4304399941464582  0.9905494853077336  0.4474577349889055
  0.4069892411942403  0.2440435167643661  0.4395360277490694
  0.3905798724230284  0.4314178190549909  0.4344314045794876
  0.5380872287495660  0.0156178475733950  0.5670270455035211
  0.6492755884979133  0.3476968183698806  0.5538495013573556
  0.5198868530783741  0.2023948769180000  0.5560949088583562
  0.6315060534074745  0.5342790672608664  0.5547182470183981
  0.6114150913566115  0.7883429239477590  0.5621107631316331
  0.5405429432141172  0.3229766188953717  0.4347628868124717
  0.5143233989401355  0.5817077725622893  0.4367341409203594
  0.6314928069463627  0.9090865855458782  0.4466313149640340
  0.5001661721156537  0.7664909589024720  0.4452502224388664
  0.6130845490881641  0.0955823965504424  0.4435688630257689
  0.4277499364530279  0.6798781288403294  0.5579980400351153
  0.4134269999240462  0.8649901474697362  0.5667989434574934
  0.3874575014954640  0.1225261317577745  0.5631745183602477
  0.6500872892379221  0.6571155172328378  0.4393261671119176
  0.8312396201182446  0.4540445310350655  0.5534826830394205
  0.7641374324577493  0.9902094362714534  0.4475891193584923
  0.7412784793425206  0.2433447298189174  0.4401510616593575
  0.7241807482269599  0.4305792530986625  0.4334258267341847
  0.8707367446449246  0.0157319455194203  0.5678480002610266
  0.9822656262299280  0.3486046317153857  0.5550072739850808
  0.8533015799061195  0.2025837908946428  0.5576815062092267
  0.9639075058234167  0.5351064051625410  0.5562431848433984
  0.9448656585561583  0.7883623901747491  0.5628711227038827
  0.8743856547020170  0.3228584412105146  0.4354174960607557
  0.8496205613699017  0.5812395520134339  0.4355084837585023
  0.9649260670023480  0.9097584460820336  0.4473162152745668
  0.8351603323102247  0.7659161924405562  0.4450204405686005
  0.9462826976315759  0.0962260516366215  0.4451012303422979
  0.7614222204638846  0.6792047688283392  0.5563756197046971
  0.7468139658044379  0.8641080839292151  0.5662280160147841
  0.7203172318951334  0.1230929065492852  0.5634030891266013
  0.9852909391051865  0.6566972546446886  0.4417700451857919
  0.2388457745087727  0.4328708031235552  0.6745231339561065
  0.2309303762837555  0.5129977633903258  0.6850009779235035
 
  0.00000000E+00  0.00000000E+00  0.00000000E+00
  0.00000000E+00  0.00000000E+00  0.00000000E+00
  0.00000000E+00  0.00000000E+00  0.00000000E+00
  0.00000000E+00  0.00000000E+00  0.00000000E+00
  0.00000000E+00  0.00000000E+00  0.00000000E+00
  0.00000000E+00  0.00000000E+00  0.00000000E+00
  0.00000000E+00  0.00000000E+00  0.00000000E+00
  0.00000000E+00  0.00000000E+00  0.00000000E+00
  0.00000000E+00  0.00000000E+00  0.00000000E+00
  0.00000000E+00  0.00000000E+00  0.00000000E+00
  0.00000000E+00  0.00000000E+00  0.00000000E+00
  0.00000000E+00  0.00000000E+00  0.00000000E+00
  0.00000000E+00  0.00000000E+00  0.00000000E+00
  0.00000000E+00  0.00000000E+00  0.00000000E+00
  0.00000000E+00  0.00000000E+00  0.00000000E+00
  0.00000000E+00  0.00000000E+00  0.00000000E+00
  0.00000000E+00  0.00000000E+00  0.00000000E+00
  0.00000000E+00  0.00000000E+00  0.00000000E+00
  0.00000000E+00  0.00000000E+00  0.00000000E+00
  0.00000000E+00  0.00000000E+00  0.00000000E+00
  0.00000000E+00  0.00000000E+00  0.00000000E+00
  0.00000000E+00  0.00000000E+00  0.00000000E+00
  0.00000000E+00  0.00000000E+00  0.00000000E+00
  0.00000000E+00  0.00000000E+00  0.00000000E+00
  0.00000000E+00  0.00000000E+00  0.00000000E+00
  0.00000000E+00  0.00000000E+00  0.00000000E+00
  0.00000000E+00  0.00000000E+00  0.00000000E+00
  0.00000000E+00  0.00000000E+00  0.00000000E+00
  0.00000000E+00  0.00000000E+00  0.00000000E+00
  0.00000000E+00  0.00000000E+00  0.00000000E+00
  0.00000000E+00  0.00000000E+00  0.00000000E+00
  0.00000000E+00  0.00000000E+00  0.00000000E+00
  0.00000000E+00  0.00000000E+00  0.00000000E+00
  0.00000000E+00  0.00000000E+00  0.00000000E+00
  0.00000000E+00  0.00000000E+00  0.00000000E+00
  0.00000000E+00  0.00000000E+00  0.00000000E+00
  0.00000000E+00  0.00000000E+00  0.00000000E+00
  0.00000000E+00  0.00000000E+00  0.00000000E+00
  0.00000000E+00  0.00000000E+00  0.00000000E+00
  0.00000000E+00  0.00000000E+00  0.00000000E+00
  0.00000000E+00  0.00000000E+00  0.00000000E+00
  0.00000000E+00  0.00000000E+00  0.00000000E+00
  0.00000000E+00  0.00000000E+00  0.00000000E+00
  0.00000000E+00  0.00000000E+00  0.00000000E+00
  0.00000000E+00  0.00000000E+00  0.00000000E+00
  0.00000000E+00  0.00000000E+00  0.00000000E+00
  0.00000000E+00  0.00000000E+00  0.00000000E+00
  0.00000000E+00  0.00000000E+00  0.00000000E+00
  0.00000000E+00  0.00000000E+00  0.00000000E+00
  0.00000000E+00  0.00000000E+00  0.00000000E+00
  0.00000000E+00  0.00000000E+00  0.00000000E+00
  0.00000000E+00  0.00000000E+00  0.00000000E+00
  0.00000000E+00  0.00000000E+00  0.00000000E+00
  0.00000000E+00  0.00000000E+00  0.00000000E+00
  0.00000000E+00  0.00000000E+00  0.00000000E+00
  0.00000000E+00  0.00000000E+00  0.00000000E+00
  0.00000000E+00  0.00000000E+00  0.00000000E+00
  0.00000000E+00  0.00000000E+00  0.00000000E+00
  0.00000000E+00  0.00000000E+00  0.00000000E+00
  0.00000000E+00  0.00000000E+00  0.00000000E+00
  0.00000000E+00  0.00000000E+00  0.00000000E+00
  0.00000000E+00  0.00000000E+00  0.00000000E+00
  0.00000000E+00  0.00000000E+00  0.00000000E+00
  0.00000000E+00  0.00000000E+00  0.00000000E+00
  0.00000000E+00  0.00000000E+00  0.00000000E+00
  0.00000000E+00  0.00000000E+00  0.00000000E+00
  0.00000000E+00  0.00000000E+00  0.00000000E+00
  0.00000000E+00  0.00000000E+00  0.00000000E+00
  0.00000000E+00  0.00000000E+00  0.00000000E+00
  0.00000000E+00  0.00000000E+00  0.00000000E+00
  0.00000000E+00  0.00000000E+00  0.00000000E+00
  0.00000000E+00  0.00000000E+00  0.00000000E+00
  0.00000000E+00  0.00000000E+00  0.00000000E+00
  0.00000000E+00  0.00000000E+00  0.00000000E+00
  0.00000000E+00  0.00000000E+00  0.00000000E+00
  0.00000000E+00  0.00000000E+00  0.00000000E+00
  0.00000000E+00  0.00000000E+00  0.00000000E+00
  0.00000000E+00  0.00000000E+00  0.00000000E+00
  0.00000000E+00  0.00000000E+00  0.00000000E+00
  0.00000000E+00  0.00000000E+00  0.00000000E+00
  0.00000000E+00  0.00000000E+00  0.00000000E+00
  0.00000000E+00  0.00000000E+00  0.00000000E+00
  0.00000000E+00  0.00000000E+00  0.00000000E+00
  0.00000000E+00  0.00000000E+00  0.00000000E+00
  0.00000000E+00  0.00000000E+00  0.00000000E+00
  0.00000000E+00  0.00000000E+00  0.00000000E+00
  0.00000000E+00  0.00000000E+00  0.00000000E+00
  0.00000000E+00  0.00000000E+00  0.00000000E+00
  0.00000000E+00  0.00000000E+00  0.00000000E+00
