CONTCAR\(2)                             
   1.00000000000000     
    11.0504999160999997    0.0000000000000000    0.0000000000000000
     0.0000000000000000   15.0270004272000008    0.0000000000000000
     0.0000000000000000    0.0000000000000000   19.5720996856999996
   Ta   Ni   Te   O    H 
     6     6    30     1     1
Direct
  0.0000356875519734  0.7501288648615669  0.4996582489632329
  0.0010409739235646  0.2497574116538197  0.5015436993072421
  0.3333561454298719  0.7491086112190819  0.5128784646517920
  0.3333633101598580  0.2489670369510109  0.4998546664879588
  0.6666752332255962  0.7501153469897187  0.4996621199007354
  0.6656648821099825  0.2497515561970295  0.5015457339558548
  0.1648346561347088  0.4963174996882316  0.4980638216033361
  0.1643560120213543  0.0013578598749928  0.4997834521675398
  0.5018594587973777  0.4963135554107247  0.4980595274295045
  0.5023248453356983  0.0013646259412553  0.4997783012084582
  0.8333118025409194  0.4999395486539389  0.5013648234093089
  0.8333312593128129 -0.0001814585357250  0.5008116419686862
  0.9993254497896020  0.4216520434621724  0.5712089099115173
  0.1674939527943702  0.3548581784494349  0.4239483196736666
  0.9989776814750292  0.5776856537463162  0.4311880894512392
  0.9985081340586671  0.9223565613531143  0.4299380489788207
  0.9985125399647696  0.0782036883091635  0.5713826948527642
  0.1734660178670968  0.7498133317934885  0.3926569632378903
  0.1570911113695553  0.8652020636218557  0.5753149611656329
  0.1682034652797190  0.2496915470085019  0.6128076933897773
  0.1669375188638792  0.1417042131307794  0.4254171705286661
  0.1571888048280691  0.6322270530819645  0.5739224939196438
  0.3333768296416310  0.4205092414930514  0.5693817314335208
  0.4992251589489517  0.3548374683361623  0.4239418993759528
  0.3333309280124013  0.5801556490714369  0.4331861651890166
  0.3333513960048200  0.9181853706915944  0.4348077821849858
  0.3333390045547224  0.0779605977002730  0.5702487201244464
  0.4932248434771322  0.7498105401162645  0.3926628312179070
  0.5095915367480095  0.8652141741180251  0.5753125304249975
  0.4985301794008314  0.2496559401628672  0.6128143421802191
  0.4997655627042261  0.1417038701828843  0.4254189742171551
  0.5095337182266592  0.6321901346221300  0.5739350239511474
  0.6673512814841986  0.4216474901345832  0.5712134353989222
  0.8333408449041525  0.3554624185282639  0.4267311962775620
  0.6676665130155108  0.5776812651904462  0.4311869261475966
  0.6681662650689836  0.9223017183502739  0.4299530315875502
  0.6681480789191886  0.0782030825018424  0.5714024903857025
  0.8333257508901759  0.7507752453367104  0.3881519352904667
  0.8333399141798395  0.8554819673921964  0.5754088908904740
  0.8333656691166332  0.2504855186689144  0.6131991657723731
  0.8333479311501154  0.1443459127139114  0.4265978361998055
  0.8333572003451898  0.6446281958495864  0.5753925934159773
  0.3333927207620910  0.7349515496372443  0.6245651483081672
  0.3334092806100793  0.7904577513388831  0.6512374198627532
 
  0.00000000E+00  0.00000000E+00  0.00000000E+00
  0.00000000E+00  0.00000000E+00  0.00000000E+00
  0.00000000E+00  0.00000000E+00  0.00000000E+00
  0.00000000E+00  0.00000000E+00  0.00000000E+00
  0.00000000E+00  0.00000000E+00  0.00000000E+00
  0.00000000E+00  0.00000000E+00  0.00000000E+00
  0.00000000E+00  0.00000000E+00  0.00000000E+00
  0.00000000E+00  0.00000000E+00  0.00000000E+00
  0.00000000E+00  0.00000000E+00  0.00000000E+00
  0.00000000E+00  0.00000000E+00  0.00000000E+00
  0.00000000E+00  0.00000000E+00  0.00000000E+00
  0.00000000E+00  0.00000000E+00  0.00000000E+00
  0.00000000E+00  0.00000000E+00  0.00000000E+00
  0.00000000E+00  0.00000000E+00  0.00000000E+00
  0.00000000E+00  0.00000000E+00  0.00000000E+00
  0.00000000E+00  0.00000000E+00  0.00000000E+00
  0.00000000E+00  0.00000000E+00  0.00000000E+00
  0.00000000E+00  0.00000000E+00  0.00000000E+00
  0.00000000E+00  0.00000000E+00  0.00000000E+00
  0.00000000E+00  0.00000000E+00  0.00000000E+00
  0.00000000E+00  0.00000000E+00  0.00000000E+00
  0.00000000E+00  0.00000000E+00  0.00000000E+00
  0.00000000E+00  0.00000000E+00  0.00000000E+00
  0.00000000E+00  0.00000000E+00  0.00000000E+00
  0.00000000E+00  0.00000000E+00  0.00000000E+00
  0.00000000E+00  0.00000000E+00  0.00000000E+00
  0.00000000E+00  0.00000000E+00  0.00000000E+00
  0.00000000E+00  0.00000000E+00  0.00000000E+00
  0.00000000E+00  0.00000000E+00  0.00000000E+00
  0.00000000E+00  0.00000000E+00  0.00000000E+00
  0.00000000E+00  0.00000000E+00  0.00000000E+00
  0.00000000E+00  0.00000000E+00  0.00000000E+00
  0.00000000E+00  0.00000000E+00  0.00000000E+00
  0.00000000E+00  0.00000000E+00  0.00000000E+00
  0.00000000E+00  0.00000000E+00  0.00000000E+00
  0.00000000E+00  0.00000000E+00  0.00000000E+00
  0.00000000E+00  0.00000000E+00  0.00000000E+00
  0.00000000E+00  0.00000000E+00  0.00000000E+00
  0.00000000E+00  0.00000000E+00  0.00000000E+00
  0.00000000E+00  0.00000000E+00  0.00000000E+00
  0.00000000E+00  0.00000000E+00  0.00000000E+00
  0.00000000E+00  0.00000000E+00  0.00000000E+00
  0.00000000E+00  0.00000000E+00  0.00000000E+00
  0.00000000E+00  0.00000000E+00  0.00000000E+00
