CONTCAR                                 
   1.00000000000000     
    14.6651000976999999    0.0000000000000000    0.0000000000000000
     0.0000000000000000   17.2791004181000005    0.0000000000000000
    -0.1285703978000000    0.0000000000000000   17.7376340898000002
   Cu   Te   O    H 
    16    16    50     1
Direct
  0.3443488501540486  0.2630902855359238  0.5257553546415750
  0.8467494692076158  0.2637399120767512  0.5268992889204540
  0.3451498853710149  0.7581993993954441  0.5358015626336723
  0.8471801678721818  0.7592161213004331  0.5376802648647327
  0.0956336152358901  0.4849810022613639  0.5296223120957819
  0.5962593973151087  0.4857729955130381  0.5300814835866703
  0.0967850203942220  0.9880106966263824  0.5324507832515195
  0.5961254671434375  0.9889975258377817  0.5337498114675796
  0.1607998788348084  0.2385889211999270  0.4679640926117727
  0.6598825704199527  0.2387697385015883  0.4679968882172645
  0.1596894361193932  0.7338181133301163  0.4749317897028575
  0.6595348974666777  0.7359441032761183  0.4796206940367114
  0.4089975163334785  0.0114127228184699  0.4734919898266128
  0.9095651809959335  0.0111778068237598  0.4733823815912999
  0.4090132826700454  0.5124348200417757  0.4711561171165570
  0.9116356915211412  0.5108004774670434  0.4732970258236193
  0.2831431308496093  0.1059408486319313  0.5871392972002525
  0.7835002634049104  0.1060880253933973  0.5870263701336853
  0.2840173004821978  0.5994445494382177  0.5923141357395352
  0.7844471537650577  0.5997990642589883  0.5920562766671011
  0.2225196880165541  0.3974351574190536  0.4111606212697509
  0.7232858931961843  0.3977455884576173  0.4117940797346620
  0.2221612046024859  0.8933053060769751  0.4174877106124200
  0.7218539353664681  0.8939947242300974  0.4202557292503784
  0.4729686178623993  0.3549644407754542  0.4103099046370602
  0.9733631278532471  0.3545924378149152  0.4102247050895755
  0.4713443336094230  0.8504589728957157  0.4210447057361080
  0.9717849845479307  0.8502528607068101  0.4202804691598985
  0.0342758867369071  0.1488313355233970  0.5856302853033952
  0.5330623746416308  0.1499556647594744  0.5856557543343257
  0.0354881446838959  0.6414542020628460  0.5923766270967334
  0.5323022919917193  0.6407276988585053  0.5937610937626161
  0.3053907740776935  0.0745576916584056  0.4876923194366753
  0.8057654848925111  0.0739435719342154  0.4877868162285495
  0.3066588029227617  0.5738050806238277  0.4882294262201725
  0.8073416411002938  0.5723243336778552  0.4916079543872058
  0.2709496912375187  0.2949413443921429  0.4355389893918016
  0.7704387207599552  0.2955102319193941  0.4384903328695984
  0.2698232765974069  0.7921317733126756  0.4464204005287939
  0.7694373246886599  0.7929749642989066  0.4504329065788042
  0.4023767181575906  0.1858136314499390  0.5892705278908252
  0.9033832268943698  0.1849984298037057  0.5891206712933652
  0.4004114856968783  0.6773811587470036  0.5971319548919567
  0.9034574058921763  0.6778621516527394  0.5974114405744899
  0.4859596442401255  0.0473930078418192  0.5601070727369049
  0.9867098391113629  0.0466026807735531  0.5598069434090078
  0.4856974265040179  0.5404437520700682  0.5609863015664445
  0.9859789029858987  0.5402154687065632  0.5636266740942304
  0.3528401179094303  0.4339883691561397  0.4077506261383306
  0.8531758850931155  0.4347754562774924  0.4082573928350541
  0.3531344575076787  0.9298929190709657  0.4137766923357518
  0.8529524094351402  0.9294907409239883  0.4148796854077546
  0.1528292155694828  0.0693770550034856  0.5924451205023900
  0.6528649043168073  0.0706952128914935  0.5923636323643748
  0.1528171556258613  0.5622169729483559  0.5930729276213711
  0.6523915205244961  0.5637511365164869  0.5940431885774800
  0.4495059466682747  0.3238971641290007  0.5097139918291447
  0.9511774807428708  0.3251066739571016  0.5102940197583550
  0.4477232696725224  0.8222443356319005  0.5211957163757432
  0.9505083187243741  0.8218696579009261  0.5207907395845695
  0.1994417870389924  0.4224962866531357  0.5121448397311283
  0.7004308809594662  0.4248034507417913  0.5123212216255055
  0.2002634740924591  0.9253890631697530  0.5167925345057540
  0.7000757419579671  0.9264788206315444  0.5194776161351129
  0.0217089102734604  0.4559903731106871  0.4383561555934747
  0.5198329090802716  0.4560312507310798  0.4406678053959752
  0.0193033738609998  0.9525319532316843  0.4463402333569988
  0.5186567600438536  0.9526503913784481  0.4477561296716317
  0.2345522217187153  0.2071776312824127  0.5582967428630994
  0.7366832323814307  0.2072576448061270  0.5565485560552688
  0.2356851969830487  0.7002598107420255  0.5603208619136311
  0.7370654479038308  0.7020446340376196  0.5662659792497138
  0.0571286492863265  0.1758938603058908  0.4849968188216707
  0.5561988323710665  0.1765522492818050  0.4850045655078645
  0.0553787430033026  0.6720674940764795  0.4921365054088369
  0.5547668315826897  0.6750637941403497  0.4953385711593938
  0.1030729700364645  0.3172471543809436  0.4053214216457306
  0.6029045995162861  0.3180191053482986  0.4061466980739894
  0.1028173525298612  0.8145518101894567  0.4152581402186328
  0.6029293779144140  0.8153149343039345  0.4183110091220215
  0.2674843959348436  0.6429720440365401  0.7128767949383530
  0.1761320010771072  0.6481228310448657  0.7386394427885250
  0.1728963202382729  0.6046129017956545  0.7742286666723146
 
  0.00000000E+00  0.00000000E+00  0.00000000E+00
  0.00000000E+00  0.00000000E+00  0.00000000E+00
  0.00000000E+00  0.00000000E+00  0.00000000E+00
  0.00000000E+00  0.00000000E+00  0.00000000E+00
  0.00000000E+00  0.00000000E+00  0.00000000E+00
  0.00000000E+00  0.00000000E+00  0.00000000E+00
  0.00000000E+00  0.00000000E+00  0.00000000E+00
  0.00000000E+00  0.00000000E+00  0.00000000E+00
  0.00000000E+00  0.00000000E+00  0.00000000E+00
  0.00000000E+00  0.00000000E+00  0.00000000E+00
  0.00000000E+00  0.00000000E+00  0.00000000E+00
  0.00000000E+00  0.00000000E+00  0.00000000E+00
  0.00000000E+00  0.00000000E+00  0.00000000E+00
  0.00000000E+00  0.00000000E+00  0.00000000E+00
  0.00000000E+00  0.00000000E+00  0.00000000E+00
  0.00000000E+00  0.00000000E+00  0.00000000E+00
  0.00000000E+00  0.00000000E+00  0.00000000E+00
  0.00000000E+00  0.00000000E+00  0.00000000E+00
  0.00000000E+00  0.00000000E+00  0.00000000E+00
  0.00000000E+00  0.00000000E+00  0.00000000E+00
  0.00000000E+00  0.00000000E+00  0.00000000E+00
  0.00000000E+00  0.00000000E+00  0.00000000E+00
  0.00000000E+00  0.00000000E+00  0.00000000E+00
  0.00000000E+00  0.00000000E+00  0.00000000E+00
  0.00000000E+00  0.00000000E+00  0.00000000E+00
  0.00000000E+00  0.00000000E+00  0.00000000E+00
  0.00000000E+00  0.00000000E+00  0.00000000E+00
  0.00000000E+00  0.00000000E+00  0.00000000E+00
  0.00000000E+00  0.00000000E+00  0.00000000E+00
  0.00000000E+00  0.00000000E+00  0.00000000E+00
  0.00000000E+00  0.00000000E+00  0.00000000E+00
  0.00000000E+00  0.00000000E+00  0.00000000E+00
  0.00000000E+00  0.00000000E+00  0.00000000E+00
  0.00000000E+00  0.00000000E+00  0.00000000E+00
  0.00000000E+00  0.00000000E+00  0.00000000E+00
  0.00000000E+00  0.00000000E+00  0.00000000E+00
  0.00000000E+00  0.00000000E+00  0.00000000E+00
  0.00000000E+00  0.00000000E+00  0.00000000E+00
  0.00000000E+00  0.00000000E+00  0.00000000E+00
  0.00000000E+00  0.00000000E+00  0.00000000E+00
  0.00000000E+00  0.00000000E+00  0.00000000E+00
  0.00000000E+00  0.00000000E+00  0.00000000E+00
  0.00000000E+00  0.00000000E+00  0.00000000E+00
  0.00000000E+00  0.00000000E+00  0.00000000E+00
  0.00000000E+00  0.00000000E+00  0.00000000E+00
  0.00000000E+00  0.00000000E+00  0.00000000E+00
  0.00000000E+00  0.00000000E+00  0.00000000E+00
  0.00000000E+00  0.00000000E+00  0.00000000E+00
  0.00000000E+00  0.00000000E+00  0.00000000E+00
  0.00000000E+00  0.00000000E+00  0.00000000E+00
  0.00000000E+00  0.00000000E+00  0.00000000E+00
  0.00000000E+00  0.00000000E+00  0.00000000E+00
  0.00000000E+00  0.00000000E+00  0.00000000E+00
  0.00000000E+00  0.00000000E+00  0.00000000E+00
  0.00000000E+00  0.00000000E+00  0.00000000E+00
  0.00000000E+00  0.00000000E+00  0.00000000E+00
  0.00000000E+00  0.00000000E+00  0.00000000E+00
  0.00000000E+00  0.00000000E+00  0.00000000E+00
  0.00000000E+00  0.00000000E+00  0.00000000E+00
  0.00000000E+00  0.00000000E+00  0.00000000E+00
  0.00000000E+00  0.00000000E+00  0.00000000E+00
  0.00000000E+00  0.00000000E+00  0.00000000E+00
  0.00000000E+00  0.00000000E+00  0.00000000E+00
  0.00000000E+00  0.00000000E+00  0.00000000E+00
  0.00000000E+00  0.00000000E+00  0.00000000E+00
  0.00000000E+00  0.00000000E+00  0.00000000E+00
  0.00000000E+00  0.00000000E+00  0.00000000E+00
  0.00000000E+00  0.00000000E+00  0.00000000E+00
  0.00000000E+00  0.00000000E+00  0.00000000E+00
  0.00000000E+00  0.00000000E+00  0.00000000E+00
  0.00000000E+00  0.00000000E+00  0.00000000E+00
  0.00000000E+00  0.00000000E+00  0.00000000E+00
  0.00000000E+00  0.00000000E+00  0.00000000E+00
  0.00000000E+00  0.00000000E+00  0.00000000E+00
  0.00000000E+00  0.00000000E+00  0.00000000E+00
  0.00000000E+00  0.00000000E+00  0.00000000E+00
  0.00000000E+00  0.00000000E+00  0.00000000E+00
  0.00000000E+00  0.00000000E+00  0.00000000E+00
  0.00000000E+00  0.00000000E+00  0.00000000E+00
  0.00000000E+00  0.00000000E+00  0.00000000E+00
  0.00000000E+00  0.00000000E+00  0.00000000E+00
  0.00000000E+00  0.00000000E+00  0.00000000E+00
  0.00000000E+00  0.00000000E+00  0.00000000E+00
