 K2 Fe4 Se6                             
   1.00000000000000     
     5.3088368727299304    0.0000000000000000    0.0000000000000000
     0.0000000000000000    8.8424634354486287    0.0000000000000000
     0.0000000000000000    0.0000000000000000   18.8054441750559995
   K    Fe   Se
     2     4     6
Direct
  0.7500051950182741  0.4996326145236770  0.4097885998698622
  0.2499366147207946  0.4996405287409476  0.5901930223441018
  0.4999922844693407  0.1447775098458915  0.4999952852553924
  0.0000003291617435  0.1447848515452546  0.5000091309508023
  0.5000181583343488  0.8553258315511783  0.5000028440004642
  0.0000248855353265  0.8553572844091297  0.5000078438130687
  0.7500106497131993  0.0000669239345208  0.4262824274670473
  0.2500326189804473  0.0000708088613026  0.5737279234797039
  0.7499703772791205  0.2866666986847193  0.5707804593105714
  0.2499855514052403  0.2866316787973394  0.4292059822762349
  0.2500023759296542  0.7135187690105385  0.4292224358556044
  0.7500209594525055  0.7135265000954872  0.5707840453771797
 
  0.00000000E+00  0.00000000E+00  0.00000000E+00
  0.00000000E+00  0.00000000E+00  0.00000000E+00
  0.00000000E+00  0.00000000E+00  0.00000000E+00
  0.00000000E+00  0.00000000E+00  0.00000000E+00
  0.00000000E+00  0.00000000E+00  0.00000000E+00
  0.00000000E+00  0.00000000E+00  0.00000000E+00
  0.00000000E+00  0.00000000E+00  0.00000000E+00
  0.00000000E+00  0.00000000E+00  0.00000000E+00
  0.00000000E+00  0.00000000E+00  0.00000000E+00
  0.00000000E+00  0.00000000E+00  0.00000000E+00
  0.00000000E+00  0.00000000E+00  0.00000000E+00
  0.00000000E+00  0.00000000E+00  0.00000000E+00
