 Zr2 Si2 Se2                            
   1.00000000000000     
     3.5201735774413825    0.0000000000000000    0.0000000000000000
     0.0000000000000000    3.5201740854697223    0.0000000000000000
     0.0000000000000000    0.0000000000000000   21.7063787897244893
   Zr   Si   Se
     2     2     2
Direct
  0.5000000360576564  0.0000000658486741  0.5998079033809915
  0.9999998928927951  0.4999998936572823  0.4001927391643889
  0.0000000406672029  0.0000000138757628  0.4999999636333925
  0.4999999759976106  0.5000000209451656  0.4999999551377101
  0.0000000303919663  0.5000000066048926  0.6544794471406519
  0.5000000239927687  0.9999999990682227  0.3455205528593481
 
  0.00000000E+00  0.00000000E+00  0.00000000E+00
  0.00000000E+00  0.00000000E+00  0.00000000E+00
  0.00000000E+00  0.00000000E+00  0.00000000E+00
  0.00000000E+00  0.00000000E+00  0.00000000E+00
  0.00000000E+00  0.00000000E+00  0.00000000E+00
  0.00000000E+00  0.00000000E+00  0.00000000E+00
