CONTCAR\(8)                             
   1.00000000000000     
    13.0193004608000003    0.0000000000000000    0.0000000000000000
    -1.6274128543999999    9.0662962906000004    0.0000000000000000
     0.0000000000000000    0.0000000000000000   18.6888999939000016
   Nb   Pd   S    O 
     8     4    24     1
Direct
  0.0369583432146075  0.2978783829168990  0.4751533395611602
  0.2117104412817331  0.6935426501000213  0.5351334986460676
  0.2879144886161582  0.2996286306836748  0.4747721301202672
  0.4639662125309024  0.6995755810470452  0.5267458662745448
  0.5367840649384815  0.2977435219240889  0.4749941694839620
  0.7126607915140044  0.6993921977382429  0.5248061016331745
  0.7864506291104935  0.2962186147906817  0.4755520361596519
  0.9612409134162255  0.6987474567260167  0.5263461506763950
  0.1244029922717375  0.0022542704804094  0.4996865938117079
  0.3770700690846941  0.0036455256630171  0.4989431886961198
  0.6266612320165578  0.9971670189359757  0.5011799789905097
  0.8729743415158464  0.9978404115988683  0.5005594107638963
  0.0983918834731290  0.7802563766612309  0.4363030200875510
  0.1519845597712188  0.2181273071114675  0.5681789364102602
  0.0545982187930315  0.5039980821225172  0.5728986332387759
  0.1857839526219157  0.4893707771406910  0.4358391434653884
  0.1458884111206066  0.1614966345754794  0.3999681437022296
  0.0987867929193866  0.8515176629594263  0.5993370273782191
  0.3468963463971586  0.7807738813018623  0.4363550821364174
  0.4024785319877213  0.2191970797286477  0.5679769493201576
  0.3213125836573386  0.5058050782708411  0.5735312595216491
  0.4354503507410677  0.4873297254529386  0.4313729662405433
  0.3947644821708859  0.1627277705619900  0.3991915481176914
  0.3648641177172158  0.8538962524542303  0.5984877990608806
  0.5978280119972134  0.7811545775010408  0.4325081783090349
  0.6514409247599042  0.2143399901938509  0.5685824185465852
  0.5655527016931927  0.5110443245618959  0.5691455066014243
  0.6855123202509461  0.4838237251259343  0.4307573886299037
  0.6440150189459093  0.1549608319195940  0.4019854364081802
  0.6066835797323613  0.8378875349074910  0.6006467624935645
  0.8479422102046679  0.7810753043574338  0.4322753144479772
  0.9015199629182475  0.2151207074910291  0.5684589708931496
  0.8123065024593034  0.5108310371911241  0.5692613550172528
  0.9355371600988996  0.4845099919629455  0.4315339672982497
  0.8945763255756407  0.1565113938667956  0.4015564497212457
  0.8537568916905174  0.8390329445162305  0.5998849581585944
  0.2084939187910731  0.6722970654583640  0.6387400539776137
 
  0.00000000E+00  0.00000000E+00  0.00000000E+00
  0.00000000E+00  0.00000000E+00  0.00000000E+00
  0.00000000E+00  0.00000000E+00  0.00000000E+00
  0.00000000E+00  0.00000000E+00  0.00000000E+00
  0.00000000E+00  0.00000000E+00  0.00000000E+00
  0.00000000E+00  0.00000000E+00  0.00000000E+00
  0.00000000E+00  0.00000000E+00  0.00000000E+00
  0.00000000E+00  0.00000000E+00  0.00000000E+00
  0.00000000E+00  0.00000000E+00  0.00000000E+00
  0.00000000E+00  0.00000000E+00  0.00000000E+00
  0.00000000E+00  0.00000000E+00  0.00000000E+00
  0.00000000E+00  0.00000000E+00  0.00000000E+00
  0.00000000E+00  0.00000000E+00  0.00000000E+00
  0.00000000E+00  0.00000000E+00  0.00000000E+00
  0.00000000E+00  0.00000000E+00  0.00000000E+00
  0.00000000E+00  0.00000000E+00  0.00000000E+00
  0.00000000E+00  0.00000000E+00  0.00000000E+00
  0.00000000E+00  0.00000000E+00  0.00000000E+00
  0.00000000E+00  0.00000000E+00  0.00000000E+00
  0.00000000E+00  0.00000000E+00  0.00000000E+00
  0.00000000E+00  0.00000000E+00  0.00000000E+00
  0.00000000E+00  0.00000000E+00  0.00000000E+00
  0.00000000E+00  0.00000000E+00  0.00000000E+00
  0.00000000E+00  0.00000000E+00  0.00000000E+00
  0.00000000E+00  0.00000000E+00  0.00000000E+00
  0.00000000E+00  0.00000000E+00  0.00000000E+00
  0.00000000E+00  0.00000000E+00  0.00000000E+00
  0.00000000E+00  0.00000000E+00  0.00000000E+00
  0.00000000E+00  0.00000000E+00  0.00000000E+00
  0.00000000E+00  0.00000000E+00  0.00000000E+00
  0.00000000E+00  0.00000000E+00  0.00000000E+00
  0.00000000E+00  0.00000000E+00  0.00000000E+00
  0.00000000E+00  0.00000000E+00  0.00000000E+00
  0.00000000E+00  0.00000000E+00  0.00000000E+00
  0.00000000E+00  0.00000000E+00  0.00000000E+00
  0.00000000E+00  0.00000000E+00  0.00000000E+00
  0.00000000E+00  0.00000000E+00  0.00000000E+00
