CONTCAR\(5)                             
   1.00000000000000     
    13.6462001800999992    0.0000000000000000    0.0000000000000000
     1.7063387634000000   10.2396006658999994    0.0000000000000000
     0.0000000000000000    0.0000000000000000   19.9377994536999985
   Ta   Te   O    H 
    16    24     1     1
Direct
  0.1496991659126803  0.8533947344521005  0.4911836066390884
  0.1126660005612156  0.1490533909594358  0.5089843032945750
  0.2102346852081433  0.3896688338281115  0.5243085701849776
  0.0546529105952109  0.6087240444506913  0.4779811939998196
  0.3998272466191277  0.8520009100205875  0.4900887085260355
  0.3622166794789684  0.1464193639220684  0.5041535960091712
  0.4543153203301553  0.3899730324269566  0.5241420440347426
  0.3044957340401081  0.6086439795423338  0.4786314340006899
  0.6486718925366635  0.8538598394739253  0.4911327401756702
  0.6118089227990242  0.1486338020870327  0.5086832963518173
  0.7064445295147461  0.3912795477948635  0.5232245344737310
  0.5543797684465538  0.6087586346446612  0.4772790034044517
  0.8991613976646076  0.8534820446195678  0.4918079778217900
  0.8620706670566424  0.1478596916798634  0.5091306855617291
  0.9576199691937706  0.3914318244770157  0.5234170462495883
  0.8041616678048272  0.6098281307134642  0.4781939692617272
  0.1739943069908993  0.6487648008140129  0.5875300499443091
  0.0875216112376830  0.3535076667211580  0.4140841693230526
  0.1683672583191173  0.6984478003790495  0.3751390909943021
  0.0933069795025145  0.3004435974287959  0.6263728152943230
  0.0088785863427672  0.9804526749640282  0.5876471188466595
  0.2526245208395130  0.0198805342334436  0.4107672694666102
  0.4257390073927577  0.6487665983128175  0.5872256200042436
  0.3361979646797938  0.3573862521949615  0.4119803335145618
  0.4180641631034378  0.6975856757353526  0.3742703484019419
  0.3422320367207728  0.3138474152972255  0.6320222679207047
  0.2606919841814049  0.9826549238082293  0.5863550620945741
  0.5038791304041916  0.0201980522115298  0.4106354613459131
  0.6739195893725388  0.6493550228261734  0.5871923872831100
  0.5860828163230281  0.3534186878103551  0.4139486258296657
  0.6686491597010229  0.6983670048450928  0.3748526599658951
  0.5934086371345848  0.3004940816918523  0.6261343003797364
  0.5052259024457971  0.9838811562709407  0.5863046232734723
  0.7534132422896712  0.0202802937037891  0.4125472962903303
  0.9246626462051820  0.6487191662872021  0.5875450601694446
  0.8369702743977019  0.3531437483161886  0.4138999360390455
  0.9186349496432036  0.6987527655140970  0.3755032706406460
  0.8429877283416090  0.3014897204897490  0.6260491098470836
  0.7574192785024654  0.9805984115581566  0.5875745422325374
  0.0031264268244722  0.0209168803182201  0.4128453672403196
  0.3266876968694948  0.4743295264470989  0.6979571312400195
  0.3250473164719725  0.4376271537278457  0.7430435044278655
 
  0.00000000E+00  0.00000000E+00  0.00000000E+00
  0.00000000E+00  0.00000000E+00  0.00000000E+00
  0.00000000E+00  0.00000000E+00  0.00000000E+00
  0.00000000E+00  0.00000000E+00  0.00000000E+00
  0.00000000E+00  0.00000000E+00  0.00000000E+00
  0.00000000E+00  0.00000000E+00  0.00000000E+00
  0.00000000E+00  0.00000000E+00  0.00000000E+00
  0.00000000E+00  0.00000000E+00  0.00000000E+00
  0.00000000E+00  0.00000000E+00  0.00000000E+00
  0.00000000E+00  0.00000000E+00  0.00000000E+00
  0.00000000E+00  0.00000000E+00  0.00000000E+00
  0.00000000E+00  0.00000000E+00  0.00000000E+00
  0.00000000E+00  0.00000000E+00  0.00000000E+00
  0.00000000E+00  0.00000000E+00  0.00000000E+00
  0.00000000E+00  0.00000000E+00  0.00000000E+00
  0.00000000E+00  0.00000000E+00  0.00000000E+00
  0.00000000E+00  0.00000000E+00  0.00000000E+00
  0.00000000E+00  0.00000000E+00  0.00000000E+00
  0.00000000E+00  0.00000000E+00  0.00000000E+00
  0.00000000E+00  0.00000000E+00  0.00000000E+00
  0.00000000E+00  0.00000000E+00  0.00000000E+00
  0.00000000E+00  0.00000000E+00  0.00000000E+00
  0.00000000E+00  0.00000000E+00  0.00000000E+00
  0.00000000E+00  0.00000000E+00  0.00000000E+00
  0.00000000E+00  0.00000000E+00  0.00000000E+00
  0.00000000E+00  0.00000000E+00  0.00000000E+00
  0.00000000E+00  0.00000000E+00  0.00000000E+00
  0.00000000E+00  0.00000000E+00  0.00000000E+00
  0.00000000E+00  0.00000000E+00  0.00000000E+00
  0.00000000E+00  0.00000000E+00  0.00000000E+00
  0.00000000E+00  0.00000000E+00  0.00000000E+00
  0.00000000E+00  0.00000000E+00  0.00000000E+00
  0.00000000E+00  0.00000000E+00  0.00000000E+00
  0.00000000E+00  0.00000000E+00  0.00000000E+00
  0.00000000E+00  0.00000000E+00  0.00000000E+00
  0.00000000E+00  0.00000000E+00  0.00000000E+00
  0.00000000E+00  0.00000000E+00  0.00000000E+00
  0.00000000E+00  0.00000000E+00  0.00000000E+00
  0.00000000E+00  0.00000000E+00  0.00000000E+00
  0.00000000E+00  0.00000000E+00  0.00000000E+00
  0.00000000E+00  0.00000000E+00  0.00000000E+00
  0.00000000E+00  0.00000000E+00  0.00000000E+00
