 Na2 Mn2 As2                            
   1.00000000000000     
     3.7433373001006904    0.0000000000000000    0.0000000000000000
     0.0000000000000000    3.7432458587828705    0.0000000000000000
     0.0000000000000000    0.0000000000000000   19.9979993282560002
   Na   Mn   As
     2     2     2
Direct
 -0.0000016347380154  0.5000345246794855  0.6372945040209930
  0.4999974646700150  0.0000207330077500  0.3627053852826776
  0.4999992627250335  0.4999939632257309  0.4999983121251937
  0.0000031168708462 -0.0000431981400529  0.5000017352920014
 -0.0000005451955052  0.4999735538234144  0.4243219319297682
  0.5000023356676240  0.0000204234036714  0.5756781313493676
 
  0.00000000E+00  0.00000000E+00  0.00000000E+00
  0.00000000E+00  0.00000000E+00  0.00000000E+00
  0.00000000E+00  0.00000000E+00  0.00000000E+00
  0.00000000E+00  0.00000000E+00  0.00000000E+00
  0.00000000E+00  0.00000000E+00  0.00000000E+00
  0.00000000E+00  0.00000000E+00  0.00000000E+00
