CONTCAR\(2)                             
   1.00000000000000     
    12.4035997391000006    0.0000000000000000    0.0000000000000000
     6.2017683962000003   10.7417350166999999    0.0000000000000000
     0.0000000000000000    0.0000000000000000   17.7593994140999989
   Fe   Br   O    H 
     8    24     1     1
Direct
  0.0007426415600923 -0.0043310852319548  0.4941472978619414
  0.1656499055367870  0.1644749458818518  0.4955661000019529
  0.4997211602368611  0.0016299252919891  0.4954244358480380
  0.6667996572378914  0.1657554906149352  0.4933153937507194
 -0.0093531760834003  0.4969636212704880  0.4990577750535013
  0.1591436699304883  0.6629102482362866  0.4945294225231198
  0.4906869803622450  0.4995937541927673  0.4995673587169730
  0.6572208095526323  0.6653560607395526  0.5050590362021956
  0.0162854433873046  0.1468823313901871  0.4167936879708021
  0.1422359239016041  0.3357742375371146  0.4185340005422719
  0.3333765163772429  0.0147179158377666  0.4176579969032679
  0.1554984286780914  0.0071222757459482  0.5715983332650635
  0.0110674694169833  0.3271688214238687  0.5755510310075046
  0.3313649026964671  0.1573951587192150  0.5711578204730425
  0.5173915491718096  0.1488019210566599  0.4144172608485001
  0.6502668498674403  0.3369603336805478  0.4190643251507153
  0.8337768460187651  0.0137546723488734  0.4153468499049862
  0.6543463147304405  0.0133474837419059  0.5713560449217049
  0.5110096929929087  0.3267273670721202  0.5708139443708317
  0.8336478324855741  0.1514747091207810  0.5710031940328302
  0.0020242267054326  0.6511670864865177  0.4196344509635073
  0.1504265145880496  0.8271326433624054  0.4167561377791869
  0.3286569966416543  0.5109931201541111  0.4168747683044970
  0.1441120683973799  0.5120484578137060  0.5730672917048033
  0.0094977193924560  0.8313140384874208  0.5719177394583470
  0.3215358447496838  0.6455941899697364  0.5752587536088843
  0.5010717557622610  0.6576401884570765  0.4255638252827076
  0.6499772597449663  0.8321778756268957  0.4193320392067498
  0.8201124640165722  0.5087730702062224  0.4266065373642460
  0.6305807316728074  0.5188911654637125  0.5857074209277915
  0.5067291406864047  0.8421659991431627  0.5784758628879985
  0.8260433555227109  0.6460729803482583  0.5812848671731375
  0.5578978478494718  0.5117294227177239  0.6931615918996772
  0.6021646502119266  0.5406299580921551  0.7269574060884972
 
  0.00000000E+00  0.00000000E+00  0.00000000E+00
  0.00000000E+00  0.00000000E+00  0.00000000E+00
  0.00000000E+00  0.00000000E+00  0.00000000E+00
  0.00000000E+00  0.00000000E+00  0.00000000E+00
  0.00000000E+00  0.00000000E+00  0.00000000E+00
  0.00000000E+00  0.00000000E+00  0.00000000E+00
  0.00000000E+00  0.00000000E+00  0.00000000E+00
  0.00000000E+00  0.00000000E+00  0.00000000E+00
  0.00000000E+00  0.00000000E+00  0.00000000E+00
  0.00000000E+00  0.00000000E+00  0.00000000E+00
  0.00000000E+00  0.00000000E+00  0.00000000E+00
  0.00000000E+00  0.00000000E+00  0.00000000E+00
  0.00000000E+00  0.00000000E+00  0.00000000E+00
  0.00000000E+00  0.00000000E+00  0.00000000E+00
  0.00000000E+00  0.00000000E+00  0.00000000E+00
  0.00000000E+00  0.00000000E+00  0.00000000E+00
  0.00000000E+00  0.00000000E+00  0.00000000E+00
  0.00000000E+00  0.00000000E+00  0.00000000E+00
  0.00000000E+00  0.00000000E+00  0.00000000E+00
  0.00000000E+00  0.00000000E+00  0.00000000E+00
  0.00000000E+00  0.00000000E+00  0.00000000E+00
  0.00000000E+00  0.00000000E+00  0.00000000E+00
  0.00000000E+00  0.00000000E+00  0.00000000E+00
  0.00000000E+00  0.00000000E+00  0.00000000E+00
  0.00000000E+00  0.00000000E+00  0.00000000E+00
  0.00000000E+00  0.00000000E+00  0.00000000E+00
  0.00000000E+00  0.00000000E+00  0.00000000E+00
  0.00000000E+00  0.00000000E+00  0.00000000E+00
  0.00000000E+00  0.00000000E+00  0.00000000E+00
  0.00000000E+00  0.00000000E+00  0.00000000E+00
  0.00000000E+00  0.00000000E+00  0.00000000E+00
  0.00000000E+00  0.00000000E+00  0.00000000E+00
  0.00000000E+00  0.00000000E+00  0.00000000E+00
  0.00000000E+00  0.00000000E+00  0.00000000E+00
