CONTCAR\(8)                             
   1.00000000000000     
    13.0193004608000003    0.0000000000000000    0.0000000000000000
    -1.6274128543999999    9.0662962906000004    0.0000000000000000
     0.0000000000000000    0.0000000000000000   18.6888999939000016
   Nb   Pd   S    O 
     8     4    24     1
Selective dynamics
Direct
  0.0424816553245222  0.3053872455477489  0.4754563456093166   F   F   F
  0.2204684697189450  0.7042078108693772  0.5241579218865553   F   F   F
  0.2908169453722991  0.3050878490319064  0.4749617236927435   F   F   F
  0.4669479973168364  0.7057235438079559  0.5247820433427037   F   F   F
  0.5414554055860776  0.3010536746951118  0.4767509517748181   F   F   F
  0.7163039816194399  0.7039326308887581  0.5253338559247993   F   F   F
  0.7909296569374149  0.3006030844596381  0.4761289944848102   F   F   F
  0.9617570377145555  0.7027836476632032  0.5237727213697028   F   F   F
  0.1303109754292606  0.0188112653424781  0.4981378320526701   F   F   F
  0.3769025196503861  0.9992285587824412  0.5017717718948589   F   F   F
  0.6296663947300942  0.0061703019139188  0.4996117236372228   F   F   F
  0.8795927343500480  0.9977174490735123  0.5023844751212820   F   F   F
  0.1027615077857931  0.7957177700124376  0.4344001401940432   F   F   F
  0.1570580298110471  0.2304111599226673  0.5685693519043014   F   F   F
  0.0684636707161985  0.5220245709401183  0.5693496609632476   F   F   F
  0.1901196353159733  0.4935382280261038  0.4300034582349923   F   F   F
  0.1500606688827872  0.1768576664551276  0.3969292939822040   F   F   F
  0.1097463833626762  0.8575901747985171  0.5905928878830125   F   F   F
  0.3527229972040473  0.7843972229447829  0.4312086741340124   F   F   F
  0.4038974640388346  0.2161487845769514  0.5689168070135793   F   F   F
  0.3195090689690403  0.5171294137642448  0.5690667036552526   F   F   F
  0.4409195243675015  0.4889936389138256  0.4316875173336499   F   F   F
  0.3981686422059454  0.1584198722066574  0.4036171586336721   F   F   F
  0.3576108508709268  0.8391982259105362  0.6016672334846831   F   F   F
  0.6029262618467186  0.7901383636639636  0.4318160084333655   F   F   F
  0.6557487671541722  0.2211064185241653  0.5695371723374976   F   F   F
  0.5677093188367479  0.5182958287931214  0.5693542139689427   F   F   F
  0.6892465534680738  0.4886965578061364  0.4319258184918411   F   F   F
  0.6491175371412439  0.1663372886862646  0.4004322725768503   F   F   F
  0.6095918203432547  0.8477051433212708  0.5981328386796747   F   F   F
  0.8500695154139137  0.7831685797374348  0.4314774343038223   F   F   F
  0.9059288860121626  0.2159701147756863  0.5689344891709212   F   F   F
  0.8169164656541028  0.5145242061318953  0.5692666917383704   F   F   F
  0.9382668567461678  0.4870085623519174  0.4298894943028557   F   F   F
  0.8989599933883028  0.1563090295659180  0.4043790217809899   F   F   F
  0.8591876055148049  0.8366633932515128  0.6022203632476746   F   F   F
  0.1148485021996919  0.8987930398427083  0.6668320343025349   T   T   T
 
  0.00000000E+00  0.00000000E+00  0.00000000E+00
  0.00000000E+00  0.00000000E+00  0.00000000E+00
  0.00000000E+00  0.00000000E+00  0.00000000E+00
  0.00000000E+00  0.00000000E+00  0.00000000E+00
  0.00000000E+00  0.00000000E+00  0.00000000E+00
  0.00000000E+00  0.00000000E+00  0.00000000E+00
  0.00000000E+00  0.00000000E+00  0.00000000E+00
  0.00000000E+00  0.00000000E+00  0.00000000E+00
  0.00000000E+00  0.00000000E+00  0.00000000E+00
  0.00000000E+00  0.00000000E+00  0.00000000E+00
  0.00000000E+00  0.00000000E+00  0.00000000E+00
  0.00000000E+00  0.00000000E+00  0.00000000E+00
  0.00000000E+00  0.00000000E+00  0.00000000E+00
  0.00000000E+00  0.00000000E+00  0.00000000E+00
  0.00000000E+00  0.00000000E+00  0.00000000E+00
  0.00000000E+00  0.00000000E+00  0.00000000E+00
  0.00000000E+00  0.00000000E+00  0.00000000E+00
  0.00000000E+00  0.00000000E+00  0.00000000E+00
  0.00000000E+00  0.00000000E+00  0.00000000E+00
  0.00000000E+00  0.00000000E+00  0.00000000E+00
  0.00000000E+00  0.00000000E+00  0.00000000E+00
  0.00000000E+00  0.00000000E+00  0.00000000E+00
  0.00000000E+00  0.00000000E+00  0.00000000E+00
  0.00000000E+00  0.00000000E+00  0.00000000E+00
  0.00000000E+00  0.00000000E+00  0.00000000E+00
  0.00000000E+00  0.00000000E+00  0.00000000E+00
  0.00000000E+00  0.00000000E+00  0.00000000E+00
  0.00000000E+00  0.00000000E+00  0.00000000E+00
  0.00000000E+00  0.00000000E+00  0.00000000E+00
  0.00000000E+00  0.00000000E+00  0.00000000E+00
  0.00000000E+00  0.00000000E+00  0.00000000E+00
  0.00000000E+00  0.00000000E+00  0.00000000E+00
  0.00000000E+00  0.00000000E+00  0.00000000E+00
  0.00000000E+00  0.00000000E+00  0.00000000E+00
  0.00000000E+00  0.00000000E+00  0.00000000E+00
  0.00000000E+00  0.00000000E+00  0.00000000E+00
  0.00000000E+00  0.00000000E+00  0.00000000E+00
