CONTCAR\(2)                             
   1.00000000000000     
    11.8035001755000000    0.0000000000000000    0.0000000000000000
    -5.9028060597999996   10.2219826981999997    0.0000000000000000
     0.0000000000000000    0.0000000000000000   24.2695999146000005
   Cr   Te
    27    36
Direct
  0.0000000000000000  0.0000000000000000  0.5000000000000000
  0.0000599990000012  0.3332700169999967  0.6327199770000007
  0.3332700329999980  0.0000599999999977  0.3672800229999993
  0.3333300139999977  0.0000000000000000  0.5000000000000000
  0.3334000019999976  0.3332700169999967  0.6327199770000007
  0.6665999860000014  0.0000599999999977  0.3672800229999993
  0.6666700059999968  0.0000000000000000  0.5000000000000000
  0.6667299850000035  0.3332700169999967  0.6327199770000007
  0.9999399989999986  0.0000599999999977  0.3672800229999993
  0.9999999930000030  0.3333300059999971  0.5000000000000000
  0.0000599919999971  0.6666000230000009  0.6327199770000007
  0.3332700269999975  0.3334000250000031  0.3672800229999993
  0.3333300070000007  0.3333300059999971  0.5000000000000000
  0.3334000050000014  0.6666000230000009  0.6327199770000007
  0.6666000009999991  0.3334000250000031  0.3672800229999993
  0.6666699789999981  0.3333300059999971  0.5000000000000000
  0.6667299989999975  0.6666000230000009  0.6327199770000007
  0.9999399729999965  0.3334000250000031  0.3672800229999993
  0.9999999919999993  0.6666700419999998  0.5000000000000000
  0.0000599999999977  0.9999400359999981  0.6327199770000007
  0.3332700169999967  0.6667299850000035  0.3672800229999993
  0.3333300059999971  0.6666700419999998  0.5000000000000000
  0.3334000130000021  0.9999400359999981  0.6327199770000007
  0.6665999900000017  0.6667299850000035  0.3672800229999993
  0.6666699980000033  0.6666700419999998  0.5000000000000000
  0.6667300060000017  0.9999400359999981  0.6327199770000007
  0.9999399619999991  0.6667299850000035  0.3672800229999993
  0.1111600039999985  0.2221699899999976  0.6918300159999973
  0.1110699959999977  0.2222599970000019  0.4350500150000016
  0.2221699970000017  0.1111600050000021  0.3081699840000027
  0.2222600050000025  0.1110699970000013  0.5649499849999984
  0.4444899869999972  0.2221699899999976  0.6918300159999973
  0.4444000100000025  0.2222599970000019  0.4350500150000016
  0.5555099589999983  0.1111600050000021  0.3081699840000027
  0.5555999569999983  0.1110699970000013  0.5649499849999984
  0.7778300610000031  0.2221699899999976  0.6918300159999973
  0.7777400220000033  0.2222599970000019  0.4350500150000016
  0.8888400740000009  0.1111600050000021  0.3081699840000027
  0.8889300720000008  0.1110699970000013  0.5649499849999984
  0.1111600170000031  0.5554999960000018  0.6918300159999973
  0.1110699870000005  0.5555899800000006  0.4350500150000016
  0.2221700010000021  0.4445000289999967  0.3081699840000027
  0.2222599870000010  0.4444099979999976  0.5649499849999984
  0.4444900009999984  0.5554999960000018  0.6918300159999973
  0.4444000109999990  0.5555899800000006  0.4350500150000016
  0.5555099729999995  0.4445000289999967  0.3081699840000027
  0.5555999589999985  0.4444099979999976  0.5649499849999984
  0.7778300330000008  0.5554999960000018  0.6918300159999973
  0.7777400240000034  0.5555899800000006  0.4350500150000016
  0.8888400470000022  0.4445000289999967  0.3081699840000027
  0.8889300339999977  0.4444099979999976  0.5649499849999984
  0.1111600179999996  0.8888400550000028  0.6918300159999973
  0.1110699910000008  0.8889300860000020  0.4350500150000016
  0.2221700019999986  0.7778300120000026  0.3081699840000027
  0.2222600119999996  0.7777400279999966  0.5649499849999984
  0.4444900120000028  0.8888400550000028  0.6918300159999973
  0.4444000250000002  0.8889300860000020  0.4350500150000016
  0.5555099740000031  0.7778300120000026  0.3081699840000027
  0.5555999839999970  0.7777400279999966  0.5649499849999984
  0.7778300639999998  0.8888400550000028  0.6918300159999973
  0.7777400379999975  0.8889300860000020  0.4350500150000016
  0.8888400490000024  0.7778300120000026  0.3081699840000027
  0.8889300590000033  0.7777400279999966  0.5649499849999984
 
  0.00000000E+00  0.00000000E+00  0.00000000E+00
  0.00000000E+00  0.00000000E+00  0.00000000E+00
  0.00000000E+00  0.00000000E+00  0.00000000E+00
  0.00000000E+00  0.00000000E+00  0.00000000E+00
  0.00000000E+00  0.00000000E+00  0.00000000E+00
  0.00000000E+00  0.00000000E+00  0.00000000E+00
  0.00000000E+00  0.00000000E+00  0.00000000E+00
  0.00000000E+00  0.00000000E+00  0.00000000E+00
  0.00000000E+00  0.00000000E+00  0.00000000E+00
  0.00000000E+00  0.00000000E+00  0.00000000E+00
  0.00000000E+00  0.00000000E+00  0.00000000E+00
  0.00000000E+00  0.00000000E+00  0.00000000E+00
  0.00000000E+00  0.00000000E+00  0.00000000E+00
  0.00000000E+00  0.00000000E+00  0.00000000E+00
  0.00000000E+00  0.00000000E+00  0.00000000E+00
  0.00000000E+00  0.00000000E+00  0.00000000E+00
  0.00000000E+00  0.00000000E+00  0.00000000E+00
  0.00000000E+00  0.00000000E+00  0.00000000E+00
  0.00000000E+00  0.00000000E+00  0.00000000E+00
  0.00000000E+00  0.00000000E+00  0.00000000E+00
  0.00000000E+00  0.00000000E+00  0.00000000E+00
  0.00000000E+00  0.00000000E+00  0.00000000E+00
  0.00000000E+00  0.00000000E+00  0.00000000E+00
  0.00000000E+00  0.00000000E+00  0.00000000E+00
  0.00000000E+00  0.00000000E+00  0.00000000E+00
  0.00000000E+00  0.00000000E+00  0.00000000E+00
  0.00000000E+00  0.00000000E+00  0.00000000E+00
  0.00000000E+00  0.00000000E+00  0.00000000E+00
  0.00000000E+00  0.00000000E+00  0.00000000E+00
  0.00000000E+00  0.00000000E+00  0.00000000E+00
  0.00000000E+00  0.00000000E+00  0.00000000E+00
  0.00000000E+00  0.00000000E+00  0.00000000E+00
  0.00000000E+00  0.00000000E+00  0.00000000E+00
  0.00000000E+00  0.00000000E+00  0.00000000E+00
  0.00000000E+00  0.00000000E+00  0.00000000E+00
  0.00000000E+00  0.00000000E+00  0.00000000E+00
  0.00000000E+00  0.00000000E+00  0.00000000E+00
  0.00000000E+00  0.00000000E+00  0.00000000E+00
  0.00000000E+00  0.00000000E+00  0.00000000E+00
  0.00000000E+00  0.00000000E+00  0.00000000E+00
  0.00000000E+00  0.00000000E+00  0.00000000E+00
  0.00000000E+00  0.00000000E+00  0.00000000E+00
  0.00000000E+00  0.00000000E+00  0.00000000E+00
  0.00000000E+00  0.00000000E+00  0.00000000E+00
  0.00000000E+00  0.00000000E+00  0.00000000E+00
  0.00000000E+00  0.00000000E+00  0.00000000E+00
  0.00000000E+00  0.00000000E+00  0.00000000E+00
  0.00000000E+00  0.00000000E+00  0.00000000E+00
  0.00000000E+00  0.00000000E+00  0.00000000E+00
  0.00000000E+00  0.00000000E+00  0.00000000E+00
  0.00000000E+00  0.00000000E+00  0.00000000E+00
  0.00000000E+00  0.00000000E+00  0.00000000E+00
  0.00000000E+00  0.00000000E+00  0.00000000E+00
  0.00000000E+00  0.00000000E+00  0.00000000E+00
  0.00000000E+00  0.00000000E+00  0.00000000E+00
  0.00000000E+00  0.00000000E+00  0.00000000E+00
  0.00000000E+00  0.00000000E+00  0.00000000E+00
  0.00000000E+00  0.00000000E+00  0.00000000E+00
  0.00000000E+00  0.00000000E+00  0.00000000E+00
  0.00000000E+00  0.00000000E+00  0.00000000E+00
  0.00000000E+00  0.00000000E+00  0.00000000E+00
  0.00000000E+00  0.00000000E+00  0.00000000E+00
  0.00000000E+00  0.00000000E+00  0.00000000E+00
