CONTCAR\(5)                             
   1.00000000000000     
    14.7170000075999994    0.0000000000000000    0.0000000000000000
    -7.3585000037999997   12.7452958741000000    0.0000000000000000
     0.0000000000000000    0.0000000000000000   17.8581008911000012
   Co   Br   O    H 
    16    32     1     1
Selective dynamics
Direct
  0.9918672164641578  0.9947449374063453  0.4985274120045702   F   F   F
  0.2447442637239590  0.9948463467367858  0.5002457274388306   F   F   F
  0.4927235585526404  0.9951887465693829  0.5006194903421388   F   F   F
  0.7449090044467539  0.9946814180343893  0.4992146590869453   F   F   F
  0.9938973480623332  0.2464522929335118  0.4975517392724598   F   F   F
  0.2474453874108775  0.2495375609229953  0.4985492074287237   F   F   F
  0.4941481715846407  0.2451064377934671  0.5008027013823551   F   F   F
  0.7462945929973728  0.2477438288980949  0.4994223316724344   F   F   F
  0.9921903376799222  0.4941436397327195  0.4986313577891366   F   F   F
  0.2474296283604360  0.4966198474671160  0.4979911618616910   F   F   F
  0.4809331124804643  0.4903626354469495  0.4945573833012631   F   F   F
  0.7457116406149424  0.4911226459068558  0.5021604927119796   F   F   F
  0.9969595057668386  0.7475067417825940  0.5015963118021389   F   F   F
  0.2445180983383111  0.7493232227859110  0.5000439024742036   F   F   F
  0.4937342375446434  0.7472993305770927  0.4990742313338785   F   F   F
  0.7460047439961670  0.7548761015549204  0.4980141488551695   F   F   F
  0.0775276948549788  0.1623277977628845  0.4178332340233908   F   F   F
  0.1608915136907143  0.0802096873907203  0.5788319065452185   F   F   F
  0.3282848480623954  0.1627626749651796  0.4186838229190215   F   F   F
  0.4103200933690161  0.0791953754720396  0.5823716192034212   F   F   F
  0.5776588240185063  0.1630979704461595  0.4194550246820086   F   F   F
  0.6615846376248129  0.0791027322896980  0.5798267226404263   F   F   F
  0.8270197452123753  0.1625699952118964  0.4174726191419253   F   F   F
  0.9109600006770151  0.0794114370152315  0.5800378960491841   F   F   F
  0.0771024564136766  0.4133048363966410  0.4172601032913050   F   F   F
  0.1620280243939334  0.3302713639953438  0.5789070019319311   F   F   F
  0.3239713126406940  0.4113047702740147  0.4114853197972579   F   F   F
  0.4107056273446972  0.3306292846667489  0.5812666816977909   F   F   F
  0.5772287721269080  0.4132773521087785  0.4209926191679827   F   F   F
  0.6611111190834791  0.3274359075802593  0.5835377611497208   F   F   F
  0.8264250363748005  0.4127848323477465  0.4164421544035761   F   F   F
  0.9116206143458001  0.3291319056760997  0.5810134673363336   F   F   F
  0.0763954758925252  0.6631124603814698  0.4189297081962593   F   F   F
  0.1612873183997507  0.5792134701534906  0.5784641732234235   F   F   F
  0.3273841713520937  0.6643034328427575  0.4179775630314779   F   F   F
  0.4107436430296119  0.5791265819497795  0.5803127991651849   F   F   F
  0.5763807383625803  0.6624388521161677  0.4186317780068620   F   F   F
  0.6622362568344897  0.5784486115155261  0.5733078342402891   F   F   F
  0.8255992288608098  0.6616023693987003  0.4239326518260143   F   F   F
  0.9118473883140226  0.5785728705764939  0.5831833525375103   F   F   F
  0.0767326889626574  0.9117055434331789  0.4187899933203667   F   F   F
  0.1608758645391433  0.8299040170831802  0.5836479313815701   F   F   F
  0.3271982495408636  0.9133549614856520  0.4175852856080553   F   F   F
  0.4103612365516369  0.8293873622877115  0.5819372284655202   F   F   F
  0.5771327931985937  0.9129799754998444  0.4182148007008664   F   F   F
  0.6603498395032545  0.8296615823086100  0.5820683953629668   F   F   F
  0.8274100954232182  0.9135226012657256  0.4144751662063442   F   F   F
  0.9101783910131473  0.8301173458974205  0.5823012591862238   F   F   F
  0.6137999743711191  0.5773363803568188  0.6785672356410473   T   T   T
  0.6812350415922097  0.6152869592989277  0.7041422062251378   T   T   T
 
  0.00000000E+00  0.00000000E+00  0.00000000E+00
  0.00000000E+00  0.00000000E+00  0.00000000E+00
  0.00000000E+00  0.00000000E+00  0.00000000E+00
  0.00000000E+00  0.00000000E+00  0.00000000E+00
  0.00000000E+00  0.00000000E+00  0.00000000E+00
  0.00000000E+00  0.00000000E+00  0.00000000E+00
  0.00000000E+00  0.00000000E+00  0.00000000E+00
  0.00000000E+00  0.00000000E+00  0.00000000E+00
  0.00000000E+00  0.00000000E+00  0.00000000E+00
  0.00000000E+00  0.00000000E+00  0.00000000E+00
  0.00000000E+00  0.00000000E+00  0.00000000E+00
  0.00000000E+00  0.00000000E+00  0.00000000E+00
  0.00000000E+00  0.00000000E+00  0.00000000E+00
  0.00000000E+00  0.00000000E+00  0.00000000E+00
  0.00000000E+00  0.00000000E+00  0.00000000E+00
  0.00000000E+00  0.00000000E+00  0.00000000E+00
  0.00000000E+00  0.00000000E+00  0.00000000E+00
  0.00000000E+00  0.00000000E+00  0.00000000E+00
  0.00000000E+00  0.00000000E+00  0.00000000E+00
  0.00000000E+00  0.00000000E+00  0.00000000E+00
  0.00000000E+00  0.00000000E+00  0.00000000E+00
  0.00000000E+00  0.00000000E+00  0.00000000E+00
  0.00000000E+00  0.00000000E+00  0.00000000E+00
  0.00000000E+00  0.00000000E+00  0.00000000E+00
  0.00000000E+00  0.00000000E+00  0.00000000E+00
  0.00000000E+00  0.00000000E+00  0.00000000E+00
  0.00000000E+00  0.00000000E+00  0.00000000E+00
  0.00000000E+00  0.00000000E+00  0.00000000E+00
  0.00000000E+00  0.00000000E+00  0.00000000E+00
  0.00000000E+00  0.00000000E+00  0.00000000E+00
  0.00000000E+00  0.00000000E+00  0.00000000E+00
  0.00000000E+00  0.00000000E+00  0.00000000E+00
  0.00000000E+00  0.00000000E+00  0.00000000E+00
  0.00000000E+00  0.00000000E+00  0.00000000E+00
  0.00000000E+00  0.00000000E+00  0.00000000E+00
  0.00000000E+00  0.00000000E+00  0.00000000E+00
  0.00000000E+00  0.00000000E+00  0.00000000E+00
  0.00000000E+00  0.00000000E+00  0.00000000E+00
  0.00000000E+00  0.00000000E+00  0.00000000E+00
  0.00000000E+00  0.00000000E+00  0.00000000E+00
  0.00000000E+00  0.00000000E+00  0.00000000E+00
  0.00000000E+00  0.00000000E+00  0.00000000E+00
  0.00000000E+00  0.00000000E+00  0.00000000E+00
  0.00000000E+00  0.00000000E+00  0.00000000E+00
  0.00000000E+00  0.00000000E+00  0.00000000E+00
  0.00000000E+00  0.00000000E+00  0.00000000E+00
  0.00000000E+00  0.00000000E+00  0.00000000E+00
  0.00000000E+00  0.00000000E+00  0.00000000E+00
  0.00000000E+00  0.00000000E+00  0.00000000E+00
  0.00000000E+00  0.00000000E+00  0.00000000E+00
