CONTCAR                                 
   1.00000000000000     
    11.8599996566999994    0.0000000000000000    0.0000000000000000
     0.0000000000000000   16.8432006835999992    0.0000000000000000
     0.0000000000000000    0.0000000000000000   21.2530994415000016
   Y    C    I    O    H 
    24     6    30     2     1
Direct
  0.1683471546446754  0.9999440671611419  0.3871339998960558
  0.0013304490495740  0.0963631617155342  0.4985520528613016
  0.1676290601654790  0.4999956556188048  0.6132233750707435
  0.0015605835661180  0.4036370498229763  0.5002052180436396
  0.5017209468434324 -0.0000959263900672  0.3873870444401940
  0.3345130883715279  0.0963456522599922  0.4986892852506608
  0.5004633634840026  0.4999704095079500  0.6260359458288681
  0.3362885531704343  0.4034241460575685  0.5011843296688372
  0.8346843126496631  0.9998674416384843  0.3872538892749384
  0.6682721776218900  0.0963166960170365  0.4987790687985227
  0.8354826737543823  0.5000208901454909  0.6127739172143579
  0.6666625381918071  0.4035742106785085  0.5011891862000040
  0.1679243849478271  0.4999310390573365  0.3896935899834768
  0.0015922683762828  0.5963003397325217  0.5001787049535904
  0.1677217671784560 -0.0000163315882670  0.6102267729718646
  0.0013459224108115  0.9035280705822261  0.4985778838348570
  0.5017283606309340  0.4999083973802547  0.3900755186385175
  0.3363376555144708  0.5964910794408070  0.5011607754057230
  0.5012416437621749 -0.0000106585283137  0.6103425265473772
  0.3345387005709849  0.9035606671391173  0.4986926084485078
  0.8350390509722291  0.4999450366802975  0.3897301909341740
  0.6666483251188633  0.5963380883481599  0.5011933910147245
  0.8347657273112966 -0.0000370967321619  0.6102914533980177
  0.6682783078158339  0.9035491831670387  0.4987900251595412
  0.1680627202377698  0.9999600387384323  0.4986491721893510
  0.5013881974234116  0.9999532538562267  0.4988562779509358
  0.8347922749149893  0.9999287094039638  0.4987287660284190
  0.1698016699847517  0.4999679022711294  0.5016917121899173
  0.5014715078156958  0.4999315703115643  0.5019320202471771
  0.8334667717401489  0.4999582681764956  0.5015982225817096
  0.0015123640968132  0.1296003999415714  0.3519562953665736
  0.0017406303616431  0.3702560948391769  0.3536682923651092
  0.0012409540118097  0.1304207151816886  0.6448056739445945
  0.1676200998921411  0.2495892034466185  0.4974010600767159
  0.0013578231164014  0.3688267734560698  0.6454724433051499
  0.3352332639224074  0.1299714853858622  0.3522445176861163
  0.3350920106889805  0.3699340625687029  0.3545137935211798
  0.3344813963267141  0.1300719103123628  0.6448961754916855
  0.5016087884714970  0.2496368261551670  0.4980468629357824
  0.3295155063301806  0.3653957755082818  0.6429188230290970
  0.6684449333308269  0.1300718776524603  0.3523505169878299
  0.6682718076653676  0.3699295909161609  0.3545026693990281
  0.6679688243897334  0.1301545605371270  0.6449430170040318
  0.8350945317773092  0.2497166782638565  0.4975110326552540
  0.6728589853728045  0.3658612824124878  0.6439507166155013
  0.0017057661179332  0.6295851211301959  0.3535518353012006
  0.0017088754242345  0.8700846726971897  0.3520602049353062
  0.0013675256364968  0.6311591710030128  0.6454443674138053
  0.1676604623054800  0.7503310084238785  0.4974721297396591
  0.0012498453883964  0.8695409048853510  0.6448130570389161
  0.3352900719917701  0.6298497571135766  0.3543921438454033
  0.3352514591283196  0.8699026716061006  0.3522699059945409
  0.3294864191456808  0.6345289080318396  0.6429120893618668
  0.5016770058303593  0.7502233089842135  0.4983196854057566
  0.3344998113453270  0.8698220744002645  0.6448840116720053
  0.6682413400656821  0.6299597137850100  0.3544918420541838
  0.6683499832426807  0.8696913570302996  0.3523682120366579
  0.6728381110514802  0.6341139628605053  0.6439549458397613
  0.8351146579516071  0.7501108050901647  0.4975229643649873
  0.6679789356972134  0.8698516576362981  0.6449748377848002
  0.3965688501151834  0.4999936353091646  0.7681467864052249
  0.4916900164550163  0.4999923774244177  0.7249502643001372
  0.4367189711126001  0.4997306143406625  0.8083518330961186
 
  0.00000000E+00  0.00000000E+00  0.00000000E+00
  0.00000000E+00  0.00000000E+00  0.00000000E+00
  0.00000000E+00  0.00000000E+00  0.00000000E+00
  0.00000000E+00  0.00000000E+00  0.00000000E+00
  0.00000000E+00  0.00000000E+00  0.00000000E+00
  0.00000000E+00  0.00000000E+00  0.00000000E+00
  0.00000000E+00  0.00000000E+00  0.00000000E+00
  0.00000000E+00  0.00000000E+00  0.00000000E+00
  0.00000000E+00  0.00000000E+00  0.00000000E+00
  0.00000000E+00  0.00000000E+00  0.00000000E+00
  0.00000000E+00  0.00000000E+00  0.00000000E+00
  0.00000000E+00  0.00000000E+00  0.00000000E+00
  0.00000000E+00  0.00000000E+00  0.00000000E+00
  0.00000000E+00  0.00000000E+00  0.00000000E+00
  0.00000000E+00  0.00000000E+00  0.00000000E+00
  0.00000000E+00  0.00000000E+00  0.00000000E+00
  0.00000000E+00  0.00000000E+00  0.00000000E+00
  0.00000000E+00  0.00000000E+00  0.00000000E+00
  0.00000000E+00  0.00000000E+00  0.00000000E+00
  0.00000000E+00  0.00000000E+00  0.00000000E+00
  0.00000000E+00  0.00000000E+00  0.00000000E+00
  0.00000000E+00  0.00000000E+00  0.00000000E+00
  0.00000000E+00  0.00000000E+00  0.00000000E+00
  0.00000000E+00  0.00000000E+00  0.00000000E+00
  0.00000000E+00  0.00000000E+00  0.00000000E+00
  0.00000000E+00  0.00000000E+00  0.00000000E+00
  0.00000000E+00  0.00000000E+00  0.00000000E+00
  0.00000000E+00  0.00000000E+00  0.00000000E+00
  0.00000000E+00  0.00000000E+00  0.00000000E+00
  0.00000000E+00  0.00000000E+00  0.00000000E+00
  0.00000000E+00  0.00000000E+00  0.00000000E+00
  0.00000000E+00  0.00000000E+00  0.00000000E+00
  0.00000000E+00  0.00000000E+00  0.00000000E+00
  0.00000000E+00  0.00000000E+00  0.00000000E+00
  0.00000000E+00  0.00000000E+00  0.00000000E+00
  0.00000000E+00  0.00000000E+00  0.00000000E+00
  0.00000000E+00  0.00000000E+00  0.00000000E+00
  0.00000000E+00  0.00000000E+00  0.00000000E+00
  0.00000000E+00  0.00000000E+00  0.00000000E+00
  0.00000000E+00  0.00000000E+00  0.00000000E+00
  0.00000000E+00  0.00000000E+00  0.00000000E+00
  0.00000000E+00  0.00000000E+00  0.00000000E+00
  0.00000000E+00  0.00000000E+00  0.00000000E+00
  0.00000000E+00  0.00000000E+00  0.00000000E+00
  0.00000000E+00  0.00000000E+00  0.00000000E+00
  0.00000000E+00  0.00000000E+00  0.00000000E+00
  0.00000000E+00  0.00000000E+00  0.00000000E+00
  0.00000000E+00  0.00000000E+00  0.00000000E+00
  0.00000000E+00  0.00000000E+00  0.00000000E+00
  0.00000000E+00  0.00000000E+00  0.00000000E+00
  0.00000000E+00  0.00000000E+00  0.00000000E+00
  0.00000000E+00  0.00000000E+00  0.00000000E+00
  0.00000000E+00  0.00000000E+00  0.00000000E+00
  0.00000000E+00  0.00000000E+00  0.00000000E+00
  0.00000000E+00  0.00000000E+00  0.00000000E+00
  0.00000000E+00  0.00000000E+00  0.00000000E+00
  0.00000000E+00  0.00000000E+00  0.00000000E+00
  0.00000000E+00  0.00000000E+00  0.00000000E+00
  0.00000000E+00  0.00000000E+00  0.00000000E+00
  0.00000000E+00  0.00000000E+00  0.00000000E+00
  0.00000000E+00  0.00000000E+00  0.00000000E+00
  0.00000000E+00  0.00000000E+00  0.00000000E+00
  0.00000000E+00  0.00000000E+00  0.00000000E+00
