CONTCAR\(2)                             
   1.00000000000000     
    11.1612997054999994    0.0000000000000000    0.0000000000000000
     0.0000000000000000   15.5193004608000003    0.0000000000000000
     0.0000000000000000    0.0000000000000000   19.4729003905999996
   Nb   Te   Pd   O    H 
     6    30     6     2     1
Direct
  0.1719341190928871  0.8387840638528955  0.4976193333820192
  0.1661778747029631  0.3359142779027399  0.5090538338538615
  0.5055439853481429  0.8403674857965420  0.4965615311937935
  0.5021092334698271  0.3376907996964323  0.5082241182302302
  0.8387400150155303  0.8389374893552071  0.4966655400025126
  0.8357440960919600  0.3369119354270639  0.5073198904969382
  0.0049891629286185  0.9376560734913577  0.5761298654974379
  0.0025880618579711  0.4359445533535899  0.4289674010900750
  0.1707682170696425  0.0042137995056424  0.4267800356232346
  0.1736426578599066  0.5061995383719861  0.5673221246345509
  0.9995298169730454  0.3318505584516067  0.6199010662347059
  0.0066736391649951  0.8378114544636650  0.3854217675638659
  0.0045172947739296  0.7403024093603492  0.5760013776187246
  0.0022999507805504  0.2373021589948371  0.4284802613465445
  0.1739377100887263  0.6729047194382773  0.4269194721792061
  0.1697568359871067  0.1704481942581028  0.5790594890908687
  0.3387179924027138  0.9390115856046638  0.5759974080927068
  0.3332675343491042  0.4382925586622106  0.4308152647537185
  0.5034656798084727  0.0049178990013413  0.4242677839149979
  0.5075383883689398  0.5031471927220725  0.5799498622954539
  0.3379384267356465  0.3359718895048134  0.6203680866364596
  0.3375838843001019  0.8404482965282242  0.3853730129122252
  0.3412885750306291  0.7410352381896272  0.5753930203932301
  0.3344791815472047  0.2384587809794916  0.4299604159716192
  0.5091879431733893  0.6759187298576906  0.4245927279610786
  0.5045654456030010  0.1716755167489248  0.5785026712178231
  0.6723120706126899  0.9384777503735114  0.5753369433045897
  0.6683534438549462  0.4369862899573182  0.4293671231907022
  0.8378323672461837  0.0046664478906784  0.4256331559613908
  0.8355856531538380  0.5029782906698526  0.5780084098546133
  0.6697471011880988  0.3374319751514669  0.6192425917907831
  0.6717889895752779  0.8387637148031535  0.3848663312647367
  0.6717315171483867  0.7406161193581885  0.5749280234102528
  0.6681472030414342  0.2391342574629101  0.4281278151863458
  0.8376666789411615  0.6725513689439219  0.4263689205446593
  0.8348396981218495  0.1715275469737968  0.5780372612205924
  0.0013591895065962  0.5893108271459438  0.5023548991274163
  0.0033346550298657  0.0881111748096521  0.5028785060560651
  0.3472244919815399  0.5915865652117386  0.5020245004038930
  0.3377735698620772  0.0883496878773650  0.5022061811735926
  0.6704904914636701  0.5885262839972273  0.5021641659570453
  0.6695468761905988  0.0883643667409241  0.5011724370393601
  0.1794867014704475  0.4760711251952934  0.7225663123414945
  0.1231224298741653  0.5306423116014690  0.6715824070836244
  0.2491612442121620  0.5110867463162569  0.7356970039009206
 
  0.00000000E+00  0.00000000E+00  0.00000000E+00
  0.00000000E+00  0.00000000E+00  0.00000000E+00
  0.00000000E+00  0.00000000E+00  0.00000000E+00
  0.00000000E+00  0.00000000E+00  0.00000000E+00
  0.00000000E+00  0.00000000E+00  0.00000000E+00
  0.00000000E+00  0.00000000E+00  0.00000000E+00
  0.00000000E+00  0.00000000E+00  0.00000000E+00
  0.00000000E+00  0.00000000E+00  0.00000000E+00
  0.00000000E+00  0.00000000E+00  0.00000000E+00
  0.00000000E+00  0.00000000E+00  0.00000000E+00
  0.00000000E+00  0.00000000E+00  0.00000000E+00
  0.00000000E+00  0.00000000E+00  0.00000000E+00
  0.00000000E+00  0.00000000E+00  0.00000000E+00
  0.00000000E+00  0.00000000E+00  0.00000000E+00
  0.00000000E+00  0.00000000E+00  0.00000000E+00
  0.00000000E+00  0.00000000E+00  0.00000000E+00
  0.00000000E+00  0.00000000E+00  0.00000000E+00
  0.00000000E+00  0.00000000E+00  0.00000000E+00
  0.00000000E+00  0.00000000E+00  0.00000000E+00
  0.00000000E+00  0.00000000E+00  0.00000000E+00
  0.00000000E+00  0.00000000E+00  0.00000000E+00
  0.00000000E+00  0.00000000E+00  0.00000000E+00
  0.00000000E+00  0.00000000E+00  0.00000000E+00
  0.00000000E+00  0.00000000E+00  0.00000000E+00
  0.00000000E+00  0.00000000E+00  0.00000000E+00
  0.00000000E+00  0.00000000E+00  0.00000000E+00
  0.00000000E+00  0.00000000E+00  0.00000000E+00
  0.00000000E+00  0.00000000E+00  0.00000000E+00
  0.00000000E+00  0.00000000E+00  0.00000000E+00
  0.00000000E+00  0.00000000E+00  0.00000000E+00
  0.00000000E+00  0.00000000E+00  0.00000000E+00
  0.00000000E+00  0.00000000E+00  0.00000000E+00
  0.00000000E+00  0.00000000E+00  0.00000000E+00
  0.00000000E+00  0.00000000E+00  0.00000000E+00
  0.00000000E+00  0.00000000E+00  0.00000000E+00
  0.00000000E+00  0.00000000E+00  0.00000000E+00
  0.00000000E+00  0.00000000E+00  0.00000000E+00
  0.00000000E+00  0.00000000E+00  0.00000000E+00
  0.00000000E+00  0.00000000E+00  0.00000000E+00
  0.00000000E+00  0.00000000E+00  0.00000000E+00
  0.00000000E+00  0.00000000E+00  0.00000000E+00
  0.00000000E+00  0.00000000E+00  0.00000000E+00
  0.00000000E+00  0.00000000E+00  0.00000000E+00
  0.00000000E+00  0.00000000E+00  0.00000000E+00
  0.00000000E+00  0.00000000E+00  0.00000000E+00
