CONTCAR                                 
   1.00000000000000     
    11.8208999634000005    0.0000000000000000    0.0000000000000000
     2.9552306013999998    8.5110336759000003    0.0000000000000000
     0.0000000000000000    0.0000000000000000   24.9838008880999993
   Na   Ti   S    O 
     6    20    40     1
Direct
  0.1432965160275188  0.9989971882155899  0.4988166833077941
  0.3658463905504874  0.3745217731672241  0.5022092247191452
  0.0547377550104429  0.6177347279351935  0.5020152182771582
  0.6452434274320780  0.9979963520496966  0.4989857644823061
  0.8665089424928425  0.3778000670509272  0.5022434479019040
  0.5583279721520569  0.6141937700540936  0.5017992217654808
  0.4347130779087394  0.7962764384556777  0.6378041366224494
  0.1382446267295947  0.9953257283459820  0.6401089318673101
  0.4681434261238167  0.0003678448649680  0.3610487829716504
  0.3352471245905591  0.1959816334919111  0.6397997216551801
  0.1696819616617589  0.1989262325863237  0.3611988808662474
  0.0358824449760036  0.3941316768206207  0.6408037548255834
  0.3675963362330350  0.4015091656514471  0.3600973278526567
  0.2345235448232046  0.5940274556496448  0.6382858334412660
  0.0679383953205530  0.5995104847640462  0.3600627585063734
  0.2687792308375876  0.8018739105986299  0.3613470586093257
  0.9343702075337319  0.7946676387329745  0.6399053166104380
  0.6359920393217280  0.9925306403993019  0.6421494200481419
  0.9681912532689978  0.0003870025000197  0.3608850284318166
  0.8391732189351302  0.1891519574816414  0.6406302387022507
  0.6695963202908572  0.1988630388244772  0.3612124574184463
  0.5356733067291231  0.3931464850049124  0.6399115175734877
  0.8675650499643197  0.4013818455975553  0.3599580192164638
  0.7327306814595715  0.5927255033469336  0.6403459414469168
  0.5678373935536598  0.5995918336929051  0.3601323669185561
  0.7685949325534907  0.8019286117468098  0.3612695059367539
  0.1019242205568744  0.7970763282218130  0.5814111548136225
  0.4348904326205982  0.8002933959934140  0.3047312113102336
  0.3043546714679124  0.9960089202448899  0.5808126893329941
  0.1352469194009203  0.0002127895240349  0.3049377482361848
  0.0028133321827752  0.1941602981370423  0.5813891032657850
  0.3351448151270233  0.2003088026812136  0.3046803997664398
  0.1990825299515819  0.3920367288163789  0.5801184942883211
  0.4674105854122672  0.9931933841944485  0.6957695446468719
  0.0352308944549762  0.3995408848703335  0.3045972877459349
  0.3047762716449895  0.0005432550439650  0.4197849433680361
  0.4005598788169351  0.5934828066836175  0.5801088066101556
  0.1708722673183374  0.1934726653486152  0.6964229733811393
  0.2347663225716232  0.6011516819219409  0.3046611026033190
  0.0022635549241912  0.2007338050283067  0.4193577320769819
  0.3683768543846284  0.3970474077589827  0.6951164355415074
  0.2001786580612119  0.4003089360033130  0.4197585903173859
  0.0700798738965460  0.5957373189940682  0.6954708509687819
  0.4000955372504436  0.6003498412529282  0.4198879833368423
  0.2707369344300332  0.7924818974076047  0.6963619893839095
  0.1020792505115580  0.7998158394261097  0.4195216632565177
  0.6051629649607051  0.7957928531986624  0.5810026156026851
  0.9348517346931615  0.8002536034309671  0.3046665208363635
  0.8042430182769635  0.9942216987987109  0.5819874753262582
  0.6350538187573989  0.0002602329463315  0.3049523046706071
  0.5047199682916315  0.1912055702076358  0.5817005503690353
  0.8349843564054993  0.2003553924350570  0.3045856646740646
  0.7011182968548937  0.3921037227846185  0.5812431596074390
  0.9716611377929496  0.9917056124501755  0.6963501396273344
  0.5351860248831244  0.3995209819328664  0.3046599337758735
  0.8049662515142586  0.0004179098258490  0.4196811315751390
  0.8996987143344555  0.5939402441545028  0.5815099465907636
  0.6691594540120605  0.1949025863377827  0.6962522990991218
  0.7345862385427395  0.6011366948163044  0.3046222443038999
  0.5024770169721648  0.2005879376105426  0.4194753635555699
  0.8691275326656864  0.3938292869332898  0.6959676451192607
  0.7004593822980496  0.4000298087202694  0.4197830324907699
  0.5663964369892298  0.5951049488478901  0.6952842762707050
  0.8999513584954002  0.6003433094086716  0.4197736754739552
  0.7694825967293895  0.7922234369845143  0.6966450925144727
  0.6021248926294476  0.7998082100045849  0.4195515018683267
  0.2736694334344634  0.7883611365882643  0.7563085884223142
 
  0.00000000E+00  0.00000000E+00  0.00000000E+00
  0.00000000E+00  0.00000000E+00  0.00000000E+00
  0.00000000E+00  0.00000000E+00  0.00000000E+00
  0.00000000E+00  0.00000000E+00  0.00000000E+00
  0.00000000E+00  0.00000000E+00  0.00000000E+00
  0.00000000E+00  0.00000000E+00  0.00000000E+00
  0.00000000E+00  0.00000000E+00  0.00000000E+00
  0.00000000E+00  0.00000000E+00  0.00000000E+00
  0.00000000E+00  0.00000000E+00  0.00000000E+00
  0.00000000E+00  0.00000000E+00  0.00000000E+00
  0.00000000E+00  0.00000000E+00  0.00000000E+00
  0.00000000E+00  0.00000000E+00  0.00000000E+00
  0.00000000E+00  0.00000000E+00  0.00000000E+00
  0.00000000E+00  0.00000000E+00  0.00000000E+00
  0.00000000E+00  0.00000000E+00  0.00000000E+00
  0.00000000E+00  0.00000000E+00  0.00000000E+00
  0.00000000E+00  0.00000000E+00  0.00000000E+00
  0.00000000E+00  0.00000000E+00  0.00000000E+00
  0.00000000E+00  0.00000000E+00  0.00000000E+00
  0.00000000E+00  0.00000000E+00  0.00000000E+00
  0.00000000E+00  0.00000000E+00  0.00000000E+00
  0.00000000E+00  0.00000000E+00  0.00000000E+00
  0.00000000E+00  0.00000000E+00  0.00000000E+00
  0.00000000E+00  0.00000000E+00  0.00000000E+00
  0.00000000E+00  0.00000000E+00  0.00000000E+00
  0.00000000E+00  0.00000000E+00  0.00000000E+00
  0.00000000E+00  0.00000000E+00  0.00000000E+00
  0.00000000E+00  0.00000000E+00  0.00000000E+00
  0.00000000E+00  0.00000000E+00  0.00000000E+00
  0.00000000E+00  0.00000000E+00  0.00000000E+00
  0.00000000E+00  0.00000000E+00  0.00000000E+00
  0.00000000E+00  0.00000000E+00  0.00000000E+00
  0.00000000E+00  0.00000000E+00  0.00000000E+00
  0.00000000E+00  0.00000000E+00  0.00000000E+00
  0.00000000E+00  0.00000000E+00  0.00000000E+00
  0.00000000E+00  0.00000000E+00  0.00000000E+00
  0.00000000E+00  0.00000000E+00  0.00000000E+00
  0.00000000E+00  0.00000000E+00  0.00000000E+00
  0.00000000E+00  0.00000000E+00  0.00000000E+00
  0.00000000E+00  0.00000000E+00  0.00000000E+00
  0.00000000E+00  0.00000000E+00  0.00000000E+00
  0.00000000E+00  0.00000000E+00  0.00000000E+00
  0.00000000E+00  0.00000000E+00  0.00000000E+00
  0.00000000E+00  0.00000000E+00  0.00000000E+00
  0.00000000E+00  0.00000000E+00  0.00000000E+00
  0.00000000E+00  0.00000000E+00  0.00000000E+00
  0.00000000E+00  0.00000000E+00  0.00000000E+00
  0.00000000E+00  0.00000000E+00  0.00000000E+00
  0.00000000E+00  0.00000000E+00  0.00000000E+00
  0.00000000E+00  0.00000000E+00  0.00000000E+00
  0.00000000E+00  0.00000000E+00  0.00000000E+00
  0.00000000E+00  0.00000000E+00  0.00000000E+00
  0.00000000E+00  0.00000000E+00  0.00000000E+00
  0.00000000E+00  0.00000000E+00  0.00000000E+00
  0.00000000E+00  0.00000000E+00  0.00000000E+00
  0.00000000E+00  0.00000000E+00  0.00000000E+00
  0.00000000E+00  0.00000000E+00  0.00000000E+00
  0.00000000E+00  0.00000000E+00  0.00000000E+00
  0.00000000E+00  0.00000000E+00  0.00000000E+00
  0.00000000E+00  0.00000000E+00  0.00000000E+00
  0.00000000E+00  0.00000000E+00  0.00000000E+00
  0.00000000E+00  0.00000000E+00  0.00000000E+00
  0.00000000E+00  0.00000000E+00  0.00000000E+00
  0.00000000E+00  0.00000000E+00  0.00000000E+00
  0.00000000E+00  0.00000000E+00  0.00000000E+00
  0.00000000E+00  0.00000000E+00  0.00000000E+00
  0.00000000E+00  0.00000000E+00  0.00000000E+00
