 Sc2 Cl2                                
   1.00000000000000     
     3.4658869880936773    0.0000000000000000    0.0000000000000000
     1.7329439936714575    3.0015459717278281    0.0000000000000000
     0.0000000000000000    0.0000000000000000   20.7935787079560015
   Sc   Cl
     2     2
Direct
  0.0000000369583520  0.0000000618767723  0.5604921692417110
  0.3333330721559748  0.3333330870600505  0.4395076481933309
  0.6666669186665566  0.6666669220488095  0.3606613904853799
  0.6666669722191133  0.6666669290143644  0.6393387920795782
 
  0.00000000E+00  0.00000000E+00  0.00000000E+00
  0.00000000E+00  0.00000000E+00  0.00000000E+00
  0.00000000E+00  0.00000000E+00  0.00000000E+00
  0.00000000E+00  0.00000000E+00  0.00000000E+00
