CONTCAR\(18)                            
   1.00000000000000     
    13.2923002242999999    0.0000000000000000    0.0000000000000000
     6.5701190447000002   11.5675693128999999    0.0000000000000000
     0.0000000000000000    0.0000000000000000   18.3850994109999988
   Nb   Ir   S    O 
    12     4    32     1
Direct
  0.2359586441828417  0.0247893304178415  0.4998198141333956
  0.4772003533283686  0.0022958683885126  0.5015193452015737
  0.4845021608251615  0.2389131682470943  0.4990486113965289
  0.7596207468827588  0.0150188299593935  0.5025046423444218
  0.9969095846809533  0.0209071096179788  0.5012951170428919
  0.9747586348807603  0.2613593280364180  0.5021772718040814
  0.2606145503403677  0.5147954809092655  0.5024902420572124
  0.4970500991454879  0.5215676158572835  0.5000407825426564
  0.4744727975345374  0.7632815170351824  0.5022666851825460
  0.7353885416714715  0.5236486177585845  0.4994959191951479
  0.9762799916578200  0.5003198170088284  0.5016844337422056
  0.9843794719995616  0.7391349705029445  0.4988543513144888
  0.2675083311527288  0.2314033422614140  0.4988638695157310
  0.7673565639015529  0.2309416643920371  0.5011684117680559
  0.2677052225277449  0.7320838943264867  0.5028083759801631
  0.7677613725665998  0.7308922950538922  0.4988674584413120
  0.3327084451830789  0.0810183956327910  0.4072716874906319
  0.0754759835192063  0.0983038585531629  0.4121717987576182
  0.0920008806397209  0.3273565368334747  0.4265646775694341
  0.3228051372131547  0.3392012060780780  0.4188018023070387
  0.1607573459362770  0.1798181592019431  0.5835820728753751
  0.4159342506442954  0.1606362813865689  0.5917856155098074
  0.4139851881285370  0.4217161602772601  0.5827577994767839
  0.1711297193243969  0.4084624535548817  0.5680655319833883
  0.8387239562394326  0.0816562503060106  0.4097482737237494
  0.5769399194696095  0.0852002534653416  0.4188209842326841
  0.5886338188031198  0.3288228162251022  0.4320936657796559
  0.8190420635856895  0.3382319994204788  0.4181846119125341
  0.6603506602444847  0.1763965170872927  0.5826603661733126
  0.9206324650287394  0.1657306040505861  0.5928184245953374
  0.8999835443380693  0.4241879914065871  0.5902910591821006
  0.6718811645339180  0.4062311895993924  0.5743827761348085
  0.3378554700634934  0.5842781197243408  0.4098039624498770
  0.0769815644125020  0.5855226679980542  0.4192408018265584
  0.0906123409153706  0.8287436514794301  0.4330924367309876
  0.3192179627841980  0.8390075778115921  0.4185961999847287
  0.1600665173666843  0.6763114845300278  0.5827108010470886
  0.4181019567574449  0.6659343667805722  0.5944327158837224
  0.4003076685887730  0.9236417652180349  0.5899584554472579
  0.1717787622800001  0.9076026978852414  0.5755087999960076
  0.8327821090342681  0.5803636076618831  0.4072535219831069
  0.5748578726823158  0.5994452378626752  0.4117568795365683
  0.5915814599863730  0.8273787316322319  0.4269803393250332
  0.8227584629143090  0.8388911401769223  0.4187560913667872
  0.6605274865336122  0.6794216634942851  0.5830084718157392
  0.9168363442829273  0.6601613457510919  0.5913296469666971
  0.9130694106151732  0.9220082236056988  0.5831902784624065
  0.6712656716122505  0.9078086622203665  0.5683808005967261
  0.8889165100598735  0.1816663203154550  0.6709434432140545
 
  0.00000000E+00  0.00000000E+00  0.00000000E+00
  0.00000000E+00  0.00000000E+00  0.00000000E+00
  0.00000000E+00  0.00000000E+00  0.00000000E+00
  0.00000000E+00  0.00000000E+00  0.00000000E+00
  0.00000000E+00  0.00000000E+00  0.00000000E+00
  0.00000000E+00  0.00000000E+00  0.00000000E+00
  0.00000000E+00  0.00000000E+00  0.00000000E+00
  0.00000000E+00  0.00000000E+00  0.00000000E+00
  0.00000000E+00  0.00000000E+00  0.00000000E+00
  0.00000000E+00  0.00000000E+00  0.00000000E+00
  0.00000000E+00  0.00000000E+00  0.00000000E+00
  0.00000000E+00  0.00000000E+00  0.00000000E+00
  0.00000000E+00  0.00000000E+00  0.00000000E+00
  0.00000000E+00  0.00000000E+00  0.00000000E+00
  0.00000000E+00  0.00000000E+00  0.00000000E+00
  0.00000000E+00  0.00000000E+00  0.00000000E+00
  0.00000000E+00  0.00000000E+00  0.00000000E+00
  0.00000000E+00  0.00000000E+00  0.00000000E+00
  0.00000000E+00  0.00000000E+00  0.00000000E+00
  0.00000000E+00  0.00000000E+00  0.00000000E+00
  0.00000000E+00  0.00000000E+00  0.00000000E+00
  0.00000000E+00  0.00000000E+00  0.00000000E+00
  0.00000000E+00  0.00000000E+00  0.00000000E+00
  0.00000000E+00  0.00000000E+00  0.00000000E+00
  0.00000000E+00  0.00000000E+00  0.00000000E+00
  0.00000000E+00  0.00000000E+00  0.00000000E+00
  0.00000000E+00  0.00000000E+00  0.00000000E+00
  0.00000000E+00  0.00000000E+00  0.00000000E+00
  0.00000000E+00  0.00000000E+00  0.00000000E+00
  0.00000000E+00  0.00000000E+00  0.00000000E+00
  0.00000000E+00  0.00000000E+00  0.00000000E+00
  0.00000000E+00  0.00000000E+00  0.00000000E+00
  0.00000000E+00  0.00000000E+00  0.00000000E+00
  0.00000000E+00  0.00000000E+00  0.00000000E+00
  0.00000000E+00  0.00000000E+00  0.00000000E+00
  0.00000000E+00  0.00000000E+00  0.00000000E+00
  0.00000000E+00  0.00000000E+00  0.00000000E+00
  0.00000000E+00  0.00000000E+00  0.00000000E+00
  0.00000000E+00  0.00000000E+00  0.00000000E+00
  0.00000000E+00  0.00000000E+00  0.00000000E+00
  0.00000000E+00  0.00000000E+00  0.00000000E+00
  0.00000000E+00  0.00000000E+00  0.00000000E+00
  0.00000000E+00  0.00000000E+00  0.00000000E+00
  0.00000000E+00  0.00000000E+00  0.00000000E+00
  0.00000000E+00  0.00000000E+00  0.00000000E+00
  0.00000000E+00  0.00000000E+00  0.00000000E+00
  0.00000000E+00  0.00000000E+00  0.00000000E+00
  0.00000000E+00  0.00000000E+00  0.00000000E+00
  0.00000000E+00  0.00000000E+00  0.00000000E+00
