CONTCAR\(4)                             
   1.00000000000000     
    12.6962003707999997    0.0000000000000000    0.0000000000000000
     6.3480846718999997   11.0165970520999998    0.0000000000000000
     0.0000000000000000    0.0000000000000000   18.4927997588999986
   V    Ag   P    Se   O    H 
     4     4     8    24     1     1
Direct
  0.1659447509269149  0.1700053613646119  0.4998152376959496
  0.6684819106842779  0.1735114060682392  0.4998354767095397
  0.1685529323885032  0.6653589821487262  0.4987066708179182
  0.6594335650543712  0.6728469551929188  0.4984371419143011
  0.3318217778070738  0.3421812103613067  0.4994031859723387
  0.8269368655943348  0.3355505291074299  0.4978825169909444
  0.3402066780656772  0.8318932468882796  0.4994373140131333
  0.8340571757854860  0.8356471877464959  0.4953337530635206
  0.5001796382720248  0.0035357405955345  0.5591885653622293
  0.4993848049928502  0.0033382915691986  0.4391023676633719
  0.9996720377363539  0.0023757809450795  0.5596255700346859
  0.9987888212387906  0.0035887785965563  0.4395445493870912
  0.5018486393255699  0.5039091497999446  0.5996387170404126
  0.4999357195005916  0.5031439436549816  0.4624072693341283
  0.9981104176783162  0.5044732525117376  0.5588149210292395
  0.9996531024969851  0.5038656108643206  0.4387952698990991
  0.1582835846403420  0.3252822506108135  0.4072942639841002
  0.0201341070626905  0.3256676779099124  0.5919708659166842
  0.3208131046101876  0.1598780565712477  0.5924749623792176
  0.0183196976020455  0.1622351254650024  0.4073053176422467
  0.3205702575192717  0.0235486834365185  0.4070111934720563
  0.1563027047829587  0.0251013230070502  0.5926765357557624
  0.6498490566187851  0.3298842661935276  0.4115949786479764
  0.5176139953474433  0.3160657110190102  0.5919950255194260
  0.8202855787002364  0.1570255826603714  0.5951208079064386
  0.5210025789230804  0.1606396015706934  0.4070726794421377
  0.8204868334458325  0.0239950203461587  0.4069091172531674
  0.6588090940418048  0.0214691176884273  0.5912364571295954
  0.1577733533415964  0.8256914319733500  0.4077214090317721
  0.0192386755984523  0.8248008717688947  0.5911681036089281
  0.3113732351305712  0.6709920347657458  0.5930344593116256
  0.0220658187582154  0.6603365580100352  0.4056429375881371
  0.3266536197916512  0.5261461570187843  0.4119166580529561
  0.1535973898683598  0.5287940494737521  0.5938316974992975
  0.6561886723521072  0.8251611905621611  0.4060503857891919
  0.5243505716004729  0.8237645272845027  0.5940221692575026
  0.8214639352392507  0.6634653355504202  0.5899857766169905
  0.5220539623118892  0.6528925829536034  0.4106278528016464
  0.8209466026447720  0.5254664890248936  0.4060648873719638
  0.6717149953929323  0.5218474481819469  0.5915460187695926
  0.5111599749845341  0.5048232355416282  0.6897827340681685
  0.4445898621424281  0.4998599079961932  0.7130545772555166
 
  0.00000000E+00  0.00000000E+00  0.00000000E+00
  0.00000000E+00  0.00000000E+00  0.00000000E+00
  0.00000000E+00  0.00000000E+00  0.00000000E+00
  0.00000000E+00  0.00000000E+00  0.00000000E+00
  0.00000000E+00  0.00000000E+00  0.00000000E+00
  0.00000000E+00  0.00000000E+00  0.00000000E+00
  0.00000000E+00  0.00000000E+00  0.00000000E+00
  0.00000000E+00  0.00000000E+00  0.00000000E+00
  0.00000000E+00  0.00000000E+00  0.00000000E+00
  0.00000000E+00  0.00000000E+00  0.00000000E+00
  0.00000000E+00  0.00000000E+00  0.00000000E+00
  0.00000000E+00  0.00000000E+00  0.00000000E+00
  0.00000000E+00  0.00000000E+00  0.00000000E+00
  0.00000000E+00  0.00000000E+00  0.00000000E+00
  0.00000000E+00  0.00000000E+00  0.00000000E+00
  0.00000000E+00  0.00000000E+00  0.00000000E+00
  0.00000000E+00  0.00000000E+00  0.00000000E+00
  0.00000000E+00  0.00000000E+00  0.00000000E+00
  0.00000000E+00  0.00000000E+00  0.00000000E+00
  0.00000000E+00  0.00000000E+00  0.00000000E+00
  0.00000000E+00  0.00000000E+00  0.00000000E+00
  0.00000000E+00  0.00000000E+00  0.00000000E+00
  0.00000000E+00  0.00000000E+00  0.00000000E+00
  0.00000000E+00  0.00000000E+00  0.00000000E+00
  0.00000000E+00  0.00000000E+00  0.00000000E+00
  0.00000000E+00  0.00000000E+00  0.00000000E+00
  0.00000000E+00  0.00000000E+00  0.00000000E+00
  0.00000000E+00  0.00000000E+00  0.00000000E+00
  0.00000000E+00  0.00000000E+00  0.00000000E+00
  0.00000000E+00  0.00000000E+00  0.00000000E+00
  0.00000000E+00  0.00000000E+00  0.00000000E+00
  0.00000000E+00  0.00000000E+00  0.00000000E+00
  0.00000000E+00  0.00000000E+00  0.00000000E+00
  0.00000000E+00  0.00000000E+00  0.00000000E+00
  0.00000000E+00  0.00000000E+00  0.00000000E+00
  0.00000000E+00  0.00000000E+00  0.00000000E+00
  0.00000000E+00  0.00000000E+00  0.00000000E+00
  0.00000000E+00  0.00000000E+00  0.00000000E+00
  0.00000000E+00  0.00000000E+00  0.00000000E+00
  0.00000000E+00  0.00000000E+00  0.00000000E+00
  0.00000000E+00  0.00000000E+00  0.00000000E+00
  0.00000000E+00  0.00000000E+00  0.00000000E+00
