 Cr4 P4 O20                             
   1.00000000000000     
     4.8328964371794134    0.0000000000000000    0.0000000000000000
    -0.1925872503220933    7.8857248294107922    0.0000000000000000
     0.0000000000000000    0.0000000000000000   25.2446567678719944
   Cr   P    O 
     4     4    20
Direct
  0.0667402093127350  0.6621546827145499  0.3425792103622322
  0.7336692618257904  0.7472925944879446  0.5197425370030752
  0.2663239430399621  0.2527106448530408  0.4802586517073409
  0.9332719730314433  0.3378373816306722  0.6574209716596066
  0.2236630517712164  0.8774542447372157  0.4456124939104715
  0.7577090098414643  0.4377202894508326  0.4322427339053145
  0.2422985491789753  0.5622765299020175  0.5677556907918275
  0.7763349723921454  0.1225450350701860  0.5543858609308844
  0.2405406479427358  0.8000259537220845  0.3878372077140114
  0.9225086337961677  0.8738918363840464  0.4646343021199740
  0.9053361914314403  0.7657317115051605  0.2993829278643209
  0.4024749224191880  0.7680137488094563  0.4807684739655993
  0.6598577722824763  0.9412001365850996  0.5599568704294965
  0.8236669092794310  0.5432618312252189  0.3803547627028582
  0.2836872552920578  0.5464183721137633  0.3142404308597893
  0.5452723570993659  0.6180158658848371  0.5740434741200932
  0.7948193381986154  0.5561271862566820  0.4795859359504359
  0.9503758679280960  0.2878879796734158  0.4372523320585818
  0.0496171211741590  0.7121208555900810  0.5627455329569528
  0.2051799586752468  0.4438831090411388  0.5204175023132174
  0.4547264483106123  0.3819892511685070  0.4259554553910261
  0.7163178183129655  0.4535611489630503  0.6857666578476892
  0.1763158179895768  0.4567452433061072  0.6196470863239230
  0.3401403461737273  0.0588000125127205  0.4400426902761936
  0.5975277073643340  0.2319868649323333  0.5192304499948450
  0.0946862262986616  0.2342536038421545  0.7006122262530945
  0.0774833273687140  0.1261081970065636  0.5353654293942917
  0.7594543622687001  0.1999856886311255  0.6121621011928433
 
  0.00000000E+00  0.00000000E+00  0.00000000E+00
  0.00000000E+00  0.00000000E+00  0.00000000E+00
  0.00000000E+00  0.00000000E+00  0.00000000E+00
  0.00000000E+00  0.00000000E+00  0.00000000E+00
  0.00000000E+00  0.00000000E+00  0.00000000E+00
  0.00000000E+00  0.00000000E+00  0.00000000E+00
  0.00000000E+00  0.00000000E+00  0.00000000E+00
  0.00000000E+00  0.00000000E+00  0.00000000E+00
  0.00000000E+00  0.00000000E+00  0.00000000E+00
  0.00000000E+00  0.00000000E+00  0.00000000E+00
  0.00000000E+00  0.00000000E+00  0.00000000E+00
  0.00000000E+00  0.00000000E+00  0.00000000E+00
  0.00000000E+00  0.00000000E+00  0.00000000E+00
  0.00000000E+00  0.00000000E+00  0.00000000E+00
  0.00000000E+00  0.00000000E+00  0.00000000E+00
  0.00000000E+00  0.00000000E+00  0.00000000E+00
  0.00000000E+00  0.00000000E+00  0.00000000E+00
  0.00000000E+00  0.00000000E+00  0.00000000E+00
  0.00000000E+00  0.00000000E+00  0.00000000E+00
  0.00000000E+00  0.00000000E+00  0.00000000E+00
  0.00000000E+00  0.00000000E+00  0.00000000E+00
  0.00000000E+00  0.00000000E+00  0.00000000E+00
  0.00000000E+00  0.00000000E+00  0.00000000E+00
  0.00000000E+00  0.00000000E+00  0.00000000E+00
  0.00000000E+00  0.00000000E+00  0.00000000E+00
  0.00000000E+00  0.00000000E+00  0.00000000E+00
  0.00000000E+00  0.00000000E+00  0.00000000E+00
  0.00000000E+00  0.00000000E+00  0.00000000E+00
