 Nb6 Ge2 Te12                           
   1.00000000000000     
     6.4546367127321789    0.0000000000000000    0.0000000000000000
     0.0000000000000000   11.5581988278982948    0.0000000000000000
     0.0000000000000000    0.0000000000000000   18.7824039597240002
   Nb   Ge   Te
     6     2    12
Direct
  0.6978685750144749  0.7161979054595022  0.4999999874031289
  0.1978684457517801  0.2838020092087135  0.4999999842029723
  0.9636587815385056  0.0641295887695392  0.4999999883836423
  0.4636589418104080  0.9358704607623736  0.4999999875224859
  0.6719507891092604  0.4163018799585316  0.4999999866288718
  0.1719504445384743  0.5836979116089012  0.4999999869858982
  0.5752668276553692  0.1750035929387153  0.5000000638864890
  0.0752663119216450  0.8249967466161578  0.5000000762875842
  0.8545434374748950  0.5673653007511490  0.6016965615571195
  0.3545434113607229  0.4326344579225321  0.3983034481555023
  0.3545434083566974  0.4326344597250227  0.6016965263722298
  0.8545434395563873  0.5673653046792211  0.3983034140483142
  0.7845298725165151  0.9091101798614147  0.6005823879523291
  0.2845300622299618  0.0908900712452194  0.3994176106922964
  0.2845300338009835  0.0908900606216605  0.6005823830176809
  0.7845299076493077  0.9091101631710998  0.3994176109624377
  0.3648817379390508  0.7428125570574551  0.5980573564063718
  0.8648819200202240  0.2571873736055537  0.4019425161699814
  0.8648819621633663  0.2571873932614537  0.5980574774463037
  0.3648816895919538  0.7428125827757839  0.4019426459183606
 
  0.00000000E+00  0.00000000E+00  0.00000000E+00
  0.00000000E+00  0.00000000E+00  0.00000000E+00
  0.00000000E+00  0.00000000E+00  0.00000000E+00
  0.00000000E+00  0.00000000E+00  0.00000000E+00
  0.00000000E+00  0.00000000E+00  0.00000000E+00
  0.00000000E+00  0.00000000E+00  0.00000000E+00
  0.00000000E+00  0.00000000E+00  0.00000000E+00
  0.00000000E+00  0.00000000E+00  0.00000000E+00
  0.00000000E+00  0.00000000E+00  0.00000000E+00
  0.00000000E+00  0.00000000E+00  0.00000000E+00
  0.00000000E+00  0.00000000E+00  0.00000000E+00
  0.00000000E+00  0.00000000E+00  0.00000000E+00
  0.00000000E+00  0.00000000E+00  0.00000000E+00
  0.00000000E+00  0.00000000E+00  0.00000000E+00
  0.00000000E+00  0.00000000E+00  0.00000000E+00
  0.00000000E+00  0.00000000E+00  0.00000000E+00
  0.00000000E+00  0.00000000E+00  0.00000000E+00
  0.00000000E+00  0.00000000E+00  0.00000000E+00
  0.00000000E+00  0.00000000E+00  0.00000000E+00
  0.00000000E+00  0.00000000E+00  0.00000000E+00
