CONTCAR\(5)                             
   1.00000000000000     
    11.4335002898999996    0.0000000000000000    0.0000000000000000
     5.7167501449999998    9.9017017052000007    0.0000000000000000
     0.0000000000000000    0.0000000000000000   21.6627006530999999
   Zr   Te   P    O    H 
    18    18     9     2     1
Direct
  0.1109274251408365  0.1177242700656862  0.5665191441827417
  0.9993813468752180  0.0073184034103733  0.4344742272628395
  0.4434727223794042  0.1178369843698235  0.5667432964444004
  0.3326880757626185  0.0068572006200753  0.4343625540862277
  0.7800529802796561  0.1125001314069323  0.5667610822609817
  0.6651451362107039  0.0076052689225321  0.4347607054281610
  0.1101265001206428  0.4509235060748438  0.5668773846118071
  0.9992088001012220  0.3399393336361172  0.4345841876430896
  0.4378044063426572  0.4546563900007783  0.5668548586960327
  0.3334167486839732  0.3395175474336369  0.4347506338072478
  0.7791675245734808  0.4540820287251606  0.5664086615286621
  0.6657672151580201  0.3402044788825691  0.4349368510658422
  0.1103888209633155  0.7852548590154314  0.5668341679168805
  0.9990836527078102  0.6735134464479700  0.4336014042452092
  0.4431072898082320  0.7851880435885619  0.5666626314382484
  0.3332250845584852  0.6737116934882721  0.4346184089039440
  0.7768956244366620  0.7845317611685587  0.5666878027949878
  0.6650535153164867  0.6736076795322177  0.4347660108943074
  0.0010818792820046  0.0061193422597583  0.6554446869923041
  0.1103356887576936  0.1180822621906614  0.3460381447422876
  0.3322923369282407  0.0071048117599588  0.6553223330554019
  0.4435987125234462  0.1182078326306382  0.3461687564675344
  0.6652674463899189  0.0058236351150782  0.6553382853639604
  0.7767117922690829  0.1183568223948157  0.3465716367820022
  0.0000464430628497  0.3394950726239401  0.6553121122030703
  0.1110846807854884  0.4503250755128079  0.3459836869369752
  0.3315764457450499  0.3398254947802357  0.6552639509048177
  0.4440441502390797  0.4511961577733672  0.3465438615918117
  0.6667619262396443  0.3396822899069534  0.6483198616459731
  0.7765275227917385  0.4512865026664841  0.3466325125856144
  0.9991663423073405  0.6737801719882768  0.6547818639905643
  0.1108198728046190  0.7849401764055557  0.3459158111101388
  0.3313467187059942  0.6755696333396628  0.6554940976627037
  0.4436394850696104  0.7847285379674105  0.3459938055939276
  0.6643983543973704  0.6759101675168893  0.6553729851565890
  0.7758357547188623  0.7852680384265938  0.3460365738981537
  0.2215633013753049  0.2289515318122781  0.5005618806385996
  0.5547644138626069  0.2291178360640842  0.5012869708015302
  0.8884604547105255  0.2289023436713933  0.5009176719007371
  0.2200613893893646  0.5631397679873018  0.5000412409586090
  0.5543656181496246  0.5626858401164867  0.5010961468264767
  0.8888821606068049  0.5632320448267194  0.4999422527230379
  0.2214259388193653  0.8959463058595105  0.5004761414120367
  0.5544912832903321  0.8958965377929431  0.5006650199634066
  0.8887890605410362  0.8943507625404408  0.4999370377507901
  0.6303654507737377  0.4611791076827814  0.7742070849361653
  0.6898949816880204  0.3295041323302854  0.7469132426563334
  0.7068777213558803  0.4779494972671401  0.7750263595368310
 
  0.00000000E+00  0.00000000E+00  0.00000000E+00
  0.00000000E+00  0.00000000E+00  0.00000000E+00
  0.00000000E+00  0.00000000E+00  0.00000000E+00
  0.00000000E+00  0.00000000E+00  0.00000000E+00
  0.00000000E+00  0.00000000E+00  0.00000000E+00
  0.00000000E+00  0.00000000E+00  0.00000000E+00
  0.00000000E+00  0.00000000E+00  0.00000000E+00
  0.00000000E+00  0.00000000E+00  0.00000000E+00
  0.00000000E+00  0.00000000E+00  0.00000000E+00
  0.00000000E+00  0.00000000E+00  0.00000000E+00
  0.00000000E+00  0.00000000E+00  0.00000000E+00
  0.00000000E+00  0.00000000E+00  0.00000000E+00
  0.00000000E+00  0.00000000E+00  0.00000000E+00
  0.00000000E+00  0.00000000E+00  0.00000000E+00
  0.00000000E+00  0.00000000E+00  0.00000000E+00
  0.00000000E+00  0.00000000E+00  0.00000000E+00
  0.00000000E+00  0.00000000E+00  0.00000000E+00
  0.00000000E+00  0.00000000E+00  0.00000000E+00
  0.00000000E+00  0.00000000E+00  0.00000000E+00
  0.00000000E+00  0.00000000E+00  0.00000000E+00
  0.00000000E+00  0.00000000E+00  0.00000000E+00
  0.00000000E+00  0.00000000E+00  0.00000000E+00
  0.00000000E+00  0.00000000E+00  0.00000000E+00
  0.00000000E+00  0.00000000E+00  0.00000000E+00
  0.00000000E+00  0.00000000E+00  0.00000000E+00
  0.00000000E+00  0.00000000E+00  0.00000000E+00
  0.00000000E+00  0.00000000E+00  0.00000000E+00
  0.00000000E+00  0.00000000E+00  0.00000000E+00
  0.00000000E+00  0.00000000E+00  0.00000000E+00
  0.00000000E+00  0.00000000E+00  0.00000000E+00
  0.00000000E+00  0.00000000E+00  0.00000000E+00
  0.00000000E+00  0.00000000E+00  0.00000000E+00
  0.00000000E+00  0.00000000E+00  0.00000000E+00
  0.00000000E+00  0.00000000E+00  0.00000000E+00
  0.00000000E+00  0.00000000E+00  0.00000000E+00
  0.00000000E+00  0.00000000E+00  0.00000000E+00
  0.00000000E+00  0.00000000E+00  0.00000000E+00
  0.00000000E+00  0.00000000E+00  0.00000000E+00
  0.00000000E+00  0.00000000E+00  0.00000000E+00
  0.00000000E+00  0.00000000E+00  0.00000000E+00
  0.00000000E+00  0.00000000E+00  0.00000000E+00
  0.00000000E+00  0.00000000E+00  0.00000000E+00
  0.00000000E+00  0.00000000E+00  0.00000000E+00
  0.00000000E+00  0.00000000E+00  0.00000000E+00
  0.00000000E+00  0.00000000E+00  0.00000000E+00
  0.00000000E+00  0.00000000E+00  0.00000000E+00
  0.00000000E+00  0.00000000E+00  0.00000000E+00
  0.00000000E+00  0.00000000E+00  0.00000000E+00
