CONTCAR\(9)                             
   1.00000000000000     
    14.0611000061000002    0.0000000000000000    0.0000000000000000
     0.0000000000000000   17.2483997345000013    0.0000000000000000
     0.0000000000000000    0.0000000000000000   18.5618991852000015
   Cu   H    Se   O 
     8    16    16    49
Direct
 -0.0011179728995001  0.9949603521198294  0.5082309931316357
  0.2507799101626700  0.2503221147290426  0.5012723211768274
  0.4952188882820223  0.0003647491686966  0.5051412105327501
  0.7533305112724747  0.2505535661091109  0.5038124430146934
  0.0031271283765471  0.5007629951994376  0.4934025496486595
  0.2487827788640730  0.7473723198305409  0.5022258707337922
  0.5346728404687423  0.5255434602500133  0.5045955305911493
  0.7373846902044219  0.7444640567121333  0.4924220094708984
  0.3061553609616736  0.0146010050546883  0.4397369086492631
  0.0628504551489797  0.2262842678657772  0.5674527216937248
  0.4511426794020871  0.2996095804364329  0.4534545283488092
  0.1981737154123565  0.4918234931132276  0.5471578111897513
  0.8089561653784857  0.0177754403632075  0.4446762220202674
  0.5633093350234797  0.2361679230482219  0.5647901846310937
  0.9414005269562850  0.2672816806864304  0.4380568895137117
  0.6763726733314871  0.4340213204027569  0.5804767108426740
  0.3137964792709770  0.5240631484846630  0.4178651039906986
  0.0539774862199302  0.7266580753723154  0.5599291355500625
  0.4116481504079894  0.7543832474868035  0.4810921926949487
  0.1926352733187857  0.9755901129701218  0.5763062825686592
  0.8110615043030716  0.5111090334070778  0.4388060165243874
  0.5547338557840648  0.7242320049882502  0.5753703380177507
  0.9364257635396496  0.7722527962819793  0.4332867848787678
  0.6833458054915528  0.9698979985348132  0.5681158386486537
  0.3314740578774064  0.4177908392960460  0.5369932794736147
  0.0771398805329186  0.3391262366418231  0.4401366644288698
  0.4281991021165816  0.1624640105076860  0.5614277857883646
  0.1747394863933476  0.0898673305850960  0.4498518365852771
  0.8351394215532327  0.4052092630557715  0.5625368189600505
  0.5966461414148901  0.3623484250291198  0.4480220627966917
  0.9273714484551807  0.1546766368503945  0.5654280591828510
  0.6742435078181642  0.0915153244607493  0.4469598497367889
  0.3263626028104194  0.9025480564504674  0.5639847592270978
  0.0743482897009992  0.8421976491670624  0.4427213775979138
  0.4356856029899425  0.6345353760047268  0.5817964595943513
  0.1780683116719531  0.5977933726792860  0.4269217469081781
  0.8184168883921523  0.8979649144109547  0.5606659357159497
  0.5562385940164564  0.8377956280130381  0.4461788876113003
  0.9194179115557033  0.6539095918993151  0.5500323475775167
  0.6903120082680599  0.5913122391158789  0.3981057413211302
  0.1155418850912932  0.2580963451767613  0.4886649687664456
  0.3864845906504069  0.2432678810135873  0.5149483692485044
  0.3708768868159655  0.4806738127215931  0.4747146766219738
  0.2374162857413367  0.1396555069820155  0.5148567633271373
  0.1347254298846939  0.0118830208447561  0.5007303810163188
  0.4795658513786639  0.1113341030151998  0.4920236705728261
  0.2598731710673773  0.3579959561850753  0.4825235190307277
  0.0226784807871125  0.3908239072109024  0.5077427153023989
  0.2668414328928146  0.0419835938372203  0.4020235636639365
  0.0273294382820898  0.1986321367465940  0.6071250525221024
  0.2412800578636010  0.4696553450442183  0.5849884271243035
  0.4810393848300836  0.3372748395300747  0.4186350415305630
  0.6205545750253851  0.2749969683812413  0.4913142360182653
  0.8873782972693302  0.2353012179047302  0.5186180775813298
  0.8684619365391785  0.4906578905796804  0.5201834384703714
  0.7269502272781599  0.1413405327748156  0.5165139398351795
  0.6301499966967972  0.0118383194257904  0.4936746789637742
  0.9784302294290936  0.1048731616748518  0.4953658492076806
  0.7805403393475234  0.3602867095494119  0.4906401785042080
  0.5761535661322468  0.4212239811290143  0.5234608827935928
  0.7729810244381846  0.0460070104105202  0.4054089911764894
  0.5275309179703490  0.2070080314874988  0.6032621770161496
  0.7342691679198889  0.4369374085028093  0.6122610870074735
  0.9776833206948083  0.2937538365272570  0.3984146857886874
  0.1154751531050482  0.7577014769653427  0.4840540744672930
  0.3759586039133807  0.7386752818906110  0.5276099997881554
  0.3613353795998884  0.9861011670986052  0.5175521485990001
  0.2315046049184350  0.6381120713998226  0.5024986960353935
  0.1350037256783236  0.5136879898596575  0.4678513332155527
  0.4790064860818356  0.6223743412152106  0.4937560585756327
  0.2626339478113071  0.8574347068624165  0.4960044940220699
  0.0199287908561585  0.8847102886091727  0.5154508638019388
  0.2745404385659876  0.5571631322765521  0.3812416070879514
  0.0117991974819324  0.7021377170781725  0.5974717010105233
  0.2316796555089286  0.9464182084335876  0.6128386336059714
  0.4599044754877271  0.7932817542774309  0.4136105638711515
  0.6057118780517691  0.7630738435213067  0.4998106726114431
  0.8736438580146301  0.7309460866906918  0.5012610447424509
  0.8633527962878857  0.9813979556941244  0.5197564989134490
  0.7145295892974360  0.6318612806989460  0.4804822947265271
  0.5958871437422268  0.5291848030529401  0.4133211253964723
  0.9815193056594592  0.6097592357320739  0.4818219893938403
  0.7645758682271105  0.8557294819971031  0.4878357858214014
  0.5102865817136415  0.8926501422276298  0.5198577477504154
  0.7869031152589310  0.5251491610601969  0.3893649371403520
  0.5244725308521753  0.6968635326131007  0.6178513234790203
  0.7211365093825211  0.9415358236668541  0.6060169518734870
  0.9766262535864995  0.8008019827603527  0.3965155094396403
  0.4886105876406280  0.5406571988795056  0.5971581819708479
 
  0.00000000E+00  0.00000000E+00  0.00000000E+00
  0.00000000E+00  0.00000000E+00  0.00000000E+00
  0.00000000E+00  0.00000000E+00  0.00000000E+00
  0.00000000E+00  0.00000000E+00  0.00000000E+00
  0.00000000E+00  0.00000000E+00  0.00000000E+00
  0.00000000E+00  0.00000000E+00  0.00000000E+00
  0.00000000E+00  0.00000000E+00  0.00000000E+00
  0.00000000E+00  0.00000000E+00  0.00000000E+00
  0.00000000E+00  0.00000000E+00  0.00000000E+00
  0.00000000E+00  0.00000000E+00  0.00000000E+00
  0.00000000E+00  0.00000000E+00  0.00000000E+00
  0.00000000E+00  0.00000000E+00  0.00000000E+00
  0.00000000E+00  0.00000000E+00  0.00000000E+00
  0.00000000E+00  0.00000000E+00  0.00000000E+00
  0.00000000E+00  0.00000000E+00  0.00000000E+00
  0.00000000E+00  0.00000000E+00  0.00000000E+00
  0.00000000E+00  0.00000000E+00  0.00000000E+00
  0.00000000E+00  0.00000000E+00  0.00000000E+00
  0.00000000E+00  0.00000000E+00  0.00000000E+00
  0.00000000E+00  0.00000000E+00  0.00000000E+00
  0.00000000E+00  0.00000000E+00  0.00000000E+00
  0.00000000E+00  0.00000000E+00  0.00000000E+00
  0.00000000E+00  0.00000000E+00  0.00000000E+00
  0.00000000E+00  0.00000000E+00  0.00000000E+00
  0.00000000E+00  0.00000000E+00  0.00000000E+00
  0.00000000E+00  0.00000000E+00  0.00000000E+00
  0.00000000E+00  0.00000000E+00  0.00000000E+00
  0.00000000E+00  0.00000000E+00  0.00000000E+00
  0.00000000E+00  0.00000000E+00  0.00000000E+00
  0.00000000E+00  0.00000000E+00  0.00000000E+00
  0.00000000E+00  0.00000000E+00  0.00000000E+00
  0.00000000E+00  0.00000000E+00  0.00000000E+00
  0.00000000E+00  0.00000000E+00  0.00000000E+00
  0.00000000E+00  0.00000000E+00  0.00000000E+00
  0.00000000E+00  0.00000000E+00  0.00000000E+00
  0.00000000E+00  0.00000000E+00  0.00000000E+00
  0.00000000E+00  0.00000000E+00  0.00000000E+00
  0.00000000E+00  0.00000000E+00  0.00000000E+00
  0.00000000E+00  0.00000000E+00  0.00000000E+00
  0.00000000E+00  0.00000000E+00  0.00000000E+00
  0.00000000E+00  0.00000000E+00  0.00000000E+00
  0.00000000E+00  0.00000000E+00  0.00000000E+00
  0.00000000E+00  0.00000000E+00  0.00000000E+00
  0.00000000E+00  0.00000000E+00  0.00000000E+00
  0.00000000E+00  0.00000000E+00  0.00000000E+00
  0.00000000E+00  0.00000000E+00  0.00000000E+00
  0.00000000E+00  0.00000000E+00  0.00000000E+00
  0.00000000E+00  0.00000000E+00  0.00000000E+00
  0.00000000E+00  0.00000000E+00  0.00000000E+00
  0.00000000E+00  0.00000000E+00  0.00000000E+00
  0.00000000E+00  0.00000000E+00  0.00000000E+00
  0.00000000E+00  0.00000000E+00  0.00000000E+00
  0.00000000E+00  0.00000000E+00  0.00000000E+00
  0.00000000E+00  0.00000000E+00  0.00000000E+00
  0.00000000E+00  0.00000000E+00  0.00000000E+00
  0.00000000E+00  0.00000000E+00  0.00000000E+00
  0.00000000E+00  0.00000000E+00  0.00000000E+00
  0.00000000E+00  0.00000000E+00  0.00000000E+00
  0.00000000E+00  0.00000000E+00  0.00000000E+00
  0.00000000E+00  0.00000000E+00  0.00000000E+00
  0.00000000E+00  0.00000000E+00  0.00000000E+00
  0.00000000E+00  0.00000000E+00  0.00000000E+00
  0.00000000E+00  0.00000000E+00  0.00000000E+00
  0.00000000E+00  0.00000000E+00  0.00000000E+00
  0.00000000E+00  0.00000000E+00  0.00000000E+00
  0.00000000E+00  0.00000000E+00  0.00000000E+00
  0.00000000E+00  0.00000000E+00  0.00000000E+00
  0.00000000E+00  0.00000000E+00  0.00000000E+00
  0.00000000E+00  0.00000000E+00  0.00000000E+00
  0.00000000E+00  0.00000000E+00  0.00000000E+00
  0.00000000E+00  0.00000000E+00  0.00000000E+00
  0.00000000E+00  0.00000000E+00  0.00000000E+00
  0.00000000E+00  0.00000000E+00  0.00000000E+00
  0.00000000E+00  0.00000000E+00  0.00000000E+00
  0.00000000E+00  0.00000000E+00  0.00000000E+00
  0.00000000E+00  0.00000000E+00  0.00000000E+00
  0.00000000E+00  0.00000000E+00  0.00000000E+00
  0.00000000E+00  0.00000000E+00  0.00000000E+00
  0.00000000E+00  0.00000000E+00  0.00000000E+00
  0.00000000E+00  0.00000000E+00  0.00000000E+00
  0.00000000E+00  0.00000000E+00  0.00000000E+00
  0.00000000E+00  0.00000000E+00  0.00000000E+00
  0.00000000E+00  0.00000000E+00  0.00000000E+00
  0.00000000E+00  0.00000000E+00  0.00000000E+00
  0.00000000E+00  0.00000000E+00  0.00000000E+00
  0.00000000E+00  0.00000000E+00  0.00000000E+00
  0.00000000E+00  0.00000000E+00  0.00000000E+00
  0.00000000E+00  0.00000000E+00  0.00000000E+00
  0.00000000E+00  0.00000000E+00  0.00000000E+00
