CONTCAR\(6)                             
   1.00000000000000     
    10.8007001877000004    0.0000000000000000    0.0000000000000000
     0.0000000000000000   10.8007001877000004    0.0000000000000000
     0.0000000000000000    0.0000000000000000   19.0321998595999986
   Li   Fe   P 
    18    18    18
Direct
  0.1666699960000031 -0.0000000000000000  0.6058804725008263
 -0.0000000000000000  0.1666699960000031  0.3941195774991778
  0.5000000000000000 -0.0000000000000000  0.6058804725008263
  0.3333300150000014  0.1666699960000031  0.3941195774991778
  0.8333299929999995  0.0000000000000000  0.6058804725008263
  0.6666700070000005  0.1666699960000031  0.3941195774991778
  0.1666699960000031  0.3333300150000014  0.6058804725008263
 -0.0000000000000000  0.5000000000000000  0.3941195774991778
  0.5000000000000000  0.3333300150000014  0.6058804725008263
  0.3333300150000014  0.5000000000000000  0.3941195774991778
  0.8333299929999995  0.3333300150000014  0.6058804725008263
  0.6666700070000005  0.5000000000000000  0.3941195774991778
  0.1666699960000031  0.6666700070000005  0.6058804725008263
 -0.0000000000000000  0.8333299929999995  0.3941195774991778
  0.5000000000000000  0.6666700070000005  0.6058804725008263
  0.3333300150000014  0.8333299929999995  0.3941195774991778
  0.8333299929999995  0.6666700070000005  0.6058804725008263
  0.6666700070000005  0.8333299929999995  0.3941195774991778
 -0.0000000000000000  0.0000000000000000  0.5000000000000000
  0.1666699960000031  0.1666699960000031  0.5000000000000000
  0.3333300150000014 -0.0000000000000000  0.5000000000000000
  0.5000000000000000  0.1666699960000031  0.5000000000000000
  0.6666700070000005  0.0000000000000000  0.5000000000000000
  0.8333299929999995  0.1666699960000031  0.5000000000000000
  0.0000000000000000  0.3333300150000014  0.5000000000000000
  0.1666699960000031  0.5000000000000000  0.5000000000000000
  0.3333300150000014  0.3333300150000014  0.5000000000000000
  0.5000000000000000  0.5000000000000000  0.5000000000000000
  0.6666700070000005  0.3333300150000014  0.5000000000000000
  0.8333299929999995  0.5000000000000000  0.5000000000000000
  0.0000000000000000  0.6666700070000005  0.5000000000000000
  0.1666699960000031  0.8333299929999995  0.5000000000000000
  0.3333300150000014  0.6666700070000005  0.5000000000000000
  0.5000000000000000  0.8333299929999995  0.5000000000000000
  0.6666700070000005  0.6666700070000005  0.5000000000000000
  0.8333299929999995  0.8333299929999995  0.5000000000000000
 -0.0000000000000000  0.1666699960000031  0.5672786813594952
  0.1666699960000031 -0.0000000000000000  0.4327213186405047
  0.3333300150000014  0.1666699960000031  0.5672786813594952
  0.5000000000000000  0.0000000000000000  0.4327213186405047
  0.6666700070000005  0.1666699960000031  0.5672786813594952
  0.8333299929999995  0.0000000000000000  0.4327213186405047
  0.0000000000000000  0.5000000000000000  0.5672786813594952
  0.1666699960000031  0.3333300150000014  0.4327213186405047
  0.3333300150000014  0.5000000000000000  0.5672786813594952
  0.5000000000000000  0.3333300150000014  0.4327213186405047
  0.6666700070000005  0.5000000000000000  0.5672786813594952
  0.8333299929999995  0.3333300150000014  0.4327213186405047
  0.0000000000000000  0.8333299929999995  0.5672786813594952
  0.1666699960000031  0.6666700070000005  0.4327213186405047
  0.3333300150000014  0.8333299929999995  0.5672786813594952
  0.5000000000000000  0.6666700070000005  0.4327213186405047
  0.6666700070000005  0.8333299929999995  0.5672786813594952
  0.8333299929999995  0.6666700070000005  0.4327213186405047
 
  0.00000000E+00  0.00000000E+00  0.00000000E+00
  0.00000000E+00  0.00000000E+00  0.00000000E+00
  0.00000000E+00  0.00000000E+00  0.00000000E+00
  0.00000000E+00  0.00000000E+00  0.00000000E+00
  0.00000000E+00  0.00000000E+00  0.00000000E+00
  0.00000000E+00  0.00000000E+00  0.00000000E+00
  0.00000000E+00  0.00000000E+00  0.00000000E+00
  0.00000000E+00  0.00000000E+00  0.00000000E+00
  0.00000000E+00  0.00000000E+00  0.00000000E+00
  0.00000000E+00  0.00000000E+00  0.00000000E+00
  0.00000000E+00  0.00000000E+00  0.00000000E+00
  0.00000000E+00  0.00000000E+00  0.00000000E+00
  0.00000000E+00  0.00000000E+00  0.00000000E+00
  0.00000000E+00  0.00000000E+00  0.00000000E+00
  0.00000000E+00  0.00000000E+00  0.00000000E+00
  0.00000000E+00  0.00000000E+00  0.00000000E+00
  0.00000000E+00  0.00000000E+00  0.00000000E+00
  0.00000000E+00  0.00000000E+00  0.00000000E+00
  0.00000000E+00  0.00000000E+00  0.00000000E+00
  0.00000000E+00  0.00000000E+00  0.00000000E+00
  0.00000000E+00  0.00000000E+00  0.00000000E+00
  0.00000000E+00  0.00000000E+00  0.00000000E+00
  0.00000000E+00  0.00000000E+00  0.00000000E+00
  0.00000000E+00  0.00000000E+00  0.00000000E+00
  0.00000000E+00  0.00000000E+00  0.00000000E+00
  0.00000000E+00  0.00000000E+00  0.00000000E+00
  0.00000000E+00  0.00000000E+00  0.00000000E+00
  0.00000000E+00  0.00000000E+00  0.00000000E+00
  0.00000000E+00  0.00000000E+00  0.00000000E+00
  0.00000000E+00  0.00000000E+00  0.00000000E+00
  0.00000000E+00  0.00000000E+00  0.00000000E+00
  0.00000000E+00  0.00000000E+00  0.00000000E+00
  0.00000000E+00  0.00000000E+00  0.00000000E+00
  0.00000000E+00  0.00000000E+00  0.00000000E+00
  0.00000000E+00  0.00000000E+00  0.00000000E+00
  0.00000000E+00  0.00000000E+00  0.00000000E+00
  0.00000000E+00  0.00000000E+00  0.00000000E+00
  0.00000000E+00  0.00000000E+00  0.00000000E+00
  0.00000000E+00  0.00000000E+00  0.00000000E+00
  0.00000000E+00  0.00000000E+00  0.00000000E+00
  0.00000000E+00  0.00000000E+00  0.00000000E+00
  0.00000000E+00  0.00000000E+00  0.00000000E+00
  0.00000000E+00  0.00000000E+00  0.00000000E+00
  0.00000000E+00  0.00000000E+00  0.00000000E+00
  0.00000000E+00  0.00000000E+00  0.00000000E+00
  0.00000000E+00  0.00000000E+00  0.00000000E+00
  0.00000000E+00  0.00000000E+00  0.00000000E+00
  0.00000000E+00  0.00000000E+00  0.00000000E+00
  0.00000000E+00  0.00000000E+00  0.00000000E+00
  0.00000000E+00  0.00000000E+00  0.00000000E+00
  0.00000000E+00  0.00000000E+00  0.00000000E+00
  0.00000000E+00  0.00000000E+00  0.00000000E+00
  0.00000000E+00  0.00000000E+00  0.00000000E+00
  0.00000000E+00  0.00000000E+00  0.00000000E+00
