CONTCAR\(9)                             
   1.00000000000000     
    11.1498003006000008    0.0000000000000000    0.0000000000000000
     0.0000000000000000   12.2238998412999997    0.0000000000000000
     0.0000000000000000    0.0000000000000000   17.5557994842999996
   V    Cu   O 
     8     8    33
Direct
  0.1397710290962063  0.0000971096565069  0.5266270592688538
  0.3898102352049379  0.0001527147679844  0.4753010649038288
  0.6400774021017479  0.0007765643907437  0.5261132345660779
  0.8899960367693743  0.0002103188925232  0.4757664127115558
  0.1397704458640415  0.4998843494419074  0.5266302720203480
  0.3898128669855411  0.4998352788269294  0.4753002666764815
  0.6400777978782581  0.4992108369939428  0.5261093326734663
  0.8899936555983877  0.4997789209657427  0.4757631897887064
  0.2520488289857007  0.2499837775119076  0.4991744979062416
  0.0017781607889006  0.2499836078242907  0.5036772180242275
  0.7517260689991465  0.2499849515113510  0.4974011214094749
  0.5016907829550448  0.2499862885387998  0.5042833240647266
  0.2507186818547088  0.7499805409999993  0.4959533402152256
  0.0015519542281719  0.7499786948132865  0.5046086537175217
  0.7521925441050668  0.7499829921109011  0.4974317936920730
  0.5025175602846009  0.7499903882392260  0.5159847675738621
  0.3766950216817831  0.3471773926242158  0.5095719341799199
  0.4837226318914661  0.0040960868407085  0.4058139982162389
  0.9937900407081682  0.0000760938110357  0.5621346856137803
  0.2329055858514074  0.0003404065610183  0.5964056285528835
  0.1266587216182785  0.3469555557994882  0.4947446926793102
  0.1266583497279199  0.1530365150097890  0.4947528940549528
  0.2434305765833380  0.0018594431142874  0.4400150741389778
  0.3766957035197008  0.1528143952349857  0.5095780648675077
  0.8764192139888216  0.3471917145777148  0.5067163041007399
  0.9837440451845632 -0.0000893573013733  0.4062190649811117
  0.4941336035890037  0.9974402867232328  0.5616496201030595
  0.7336933372949190  0.0009543921998052  0.5957432718482233
  0.6265378495176768  0.3470855406452959  0.4939892688425942
  0.6265378229507894  0.1529052027035713  0.4939976875311529
  0.7441282690712602  0.9986104505330005  0.4396905271689282
  0.8764179646011776  0.1527979999257349  0.5067223795637739
  0.3746129274734935  0.8475924711566708  0.5003786403967121
  0.4837127131279845  0.4959157333985286  0.4058121714527446
  0.9937869155518851  0.4999091106316871  0.5621341478819586
  0.2328957685434311  0.4996333689938381  0.5964124849507578
  0.1260893801284409  0.8473354586643564  0.4948292986878024
  0.1260890825273931  0.6526608297917535  0.4948415566352204
  0.2434255824935243  0.4981377426074302  0.4400154299512037
  0.3745999330540721  0.6523895859269427  0.5004215807330761
  0.8764685333263034  0.8471975799019675  0.5078122327726612
  0.9837429645832694  0.5000843941477946  0.4062149539402599
  0.4941382067017604  0.5025372725388735  0.5616498071914061
  0.7336930662899903  0.4990349860207782  0.5957424343608816
  0.6279499197976959  0.8480029612423877  0.4933871198764821
  0.6279527283937894  0.6519883844991895  0.4933859931945734
  0.7441300205427898  0.5013737670594196  0.4396870105728685
  0.8764690514452413  0.6527977024953826  0.5078139580850697
  0.5257401365388058  0.7499993164344616  0.6235509736605616
 
  0.00000000E+00  0.00000000E+00  0.00000000E+00
  0.00000000E+00  0.00000000E+00  0.00000000E+00
  0.00000000E+00  0.00000000E+00  0.00000000E+00
  0.00000000E+00  0.00000000E+00  0.00000000E+00
  0.00000000E+00  0.00000000E+00  0.00000000E+00
  0.00000000E+00  0.00000000E+00  0.00000000E+00
  0.00000000E+00  0.00000000E+00  0.00000000E+00
  0.00000000E+00  0.00000000E+00  0.00000000E+00
  0.00000000E+00  0.00000000E+00  0.00000000E+00
  0.00000000E+00  0.00000000E+00  0.00000000E+00
  0.00000000E+00  0.00000000E+00  0.00000000E+00
  0.00000000E+00  0.00000000E+00  0.00000000E+00
  0.00000000E+00  0.00000000E+00  0.00000000E+00
  0.00000000E+00  0.00000000E+00  0.00000000E+00
  0.00000000E+00  0.00000000E+00  0.00000000E+00
  0.00000000E+00  0.00000000E+00  0.00000000E+00
  0.00000000E+00  0.00000000E+00  0.00000000E+00
  0.00000000E+00  0.00000000E+00  0.00000000E+00
  0.00000000E+00  0.00000000E+00  0.00000000E+00
  0.00000000E+00  0.00000000E+00  0.00000000E+00
  0.00000000E+00  0.00000000E+00  0.00000000E+00
  0.00000000E+00  0.00000000E+00  0.00000000E+00
  0.00000000E+00  0.00000000E+00  0.00000000E+00
  0.00000000E+00  0.00000000E+00  0.00000000E+00
  0.00000000E+00  0.00000000E+00  0.00000000E+00
  0.00000000E+00  0.00000000E+00  0.00000000E+00
  0.00000000E+00  0.00000000E+00  0.00000000E+00
  0.00000000E+00  0.00000000E+00  0.00000000E+00
  0.00000000E+00  0.00000000E+00  0.00000000E+00
  0.00000000E+00  0.00000000E+00  0.00000000E+00
  0.00000000E+00  0.00000000E+00  0.00000000E+00
  0.00000000E+00  0.00000000E+00  0.00000000E+00
  0.00000000E+00  0.00000000E+00  0.00000000E+00
  0.00000000E+00  0.00000000E+00  0.00000000E+00
  0.00000000E+00  0.00000000E+00  0.00000000E+00
  0.00000000E+00  0.00000000E+00  0.00000000E+00
  0.00000000E+00  0.00000000E+00  0.00000000E+00
  0.00000000E+00  0.00000000E+00  0.00000000E+00
  0.00000000E+00  0.00000000E+00  0.00000000E+00
  0.00000000E+00  0.00000000E+00  0.00000000E+00
  0.00000000E+00  0.00000000E+00  0.00000000E+00
  0.00000000E+00  0.00000000E+00  0.00000000E+00
  0.00000000E+00  0.00000000E+00  0.00000000E+00
  0.00000000E+00  0.00000000E+00  0.00000000E+00
  0.00000000E+00  0.00000000E+00  0.00000000E+00
  0.00000000E+00  0.00000000E+00  0.00000000E+00
  0.00000000E+00  0.00000000E+00  0.00000000E+00
  0.00000000E+00  0.00000000E+00  0.00000000E+00
  0.00000000E+00  0.00000000E+00  0.00000000E+00
