CONTCAR\(7)                             
   1.00000000000000     
    11.3408002853000003    0.0000000000000000    0.0000000000000000
    -5.6704001427000001    9.8214211463000005    0.0000000000000000
     0.0000000000000000    0.0000000000000000   18.2716007233000006
   Si   Te   O 
     9    18     1
Direct
  0.9940277032379505  0.9973473403385869  0.4984637368565247
  0.3229313562189607  0.9901051275010884  0.4943879999770238
  0.6610780038251310  0.9966071016845746  0.5058734146873919
  0.9924136540135648  0.3294354139588583  0.4984900203859829
  0.3224609003667308  0.3285339478949405  0.4957432051246626
  0.6616292448344828  0.3301406456156150  0.5101594121531040
  0.9896374804645305  0.6615996765965962  0.4995541208196211
  0.3206369260659729  0.6675714368905462  0.4929086081982466
  0.6628616370124946  0.6648768915956802  0.5107235912943437
  0.1008106062077659  0.2180542363516732  0.5883484273273908
  0.2179242604911740  0.1109025821472425  0.4091738709506422
  0.4361025345220512  0.2246817618424879  0.5983224119450213
  0.5566198904107805  0.1129047358255651  0.4156300724841465
  0.7777946312513209  0.2198912815372353  0.5939063824065751
  0.8773770770527783  0.1049148121936949  0.4113873229267631
  0.1068161101280754  0.5534493839040893  0.5868984823137802
  0.2166485117165427  0.4408086935915740  0.4089746288135417
  0.4382657256491163  0.5451196743385488  0.5991343113214478
  0.5614359328987962  0.4476389026560756  0.4178899705139520
  0.7841284694276457  0.5576025728667706  0.5960413509700514
  0.8783119291769032  0.4394561933797462  0.4132393942003931
  0.1053943503750491  0.8861928954536143  0.5870660946127455
  0.2157001026545547  0.7766183247835493  0.4068974810965078
  0.4374106111113656  0.8829137405064329  0.5912601307685839
  0.5549650400932770  0.7740688753599040  0.4160782514515622
  0.7794199800931505  0.8917932571485986  0.5938501225026180
  0.8778715230457497  0.7720387079622802  0.4133127257390249
  0.4829755296540599  0.4085012030744304  0.6452145051583625
 
  0.00000000E+00  0.00000000E+00  0.00000000E+00
  0.00000000E+00  0.00000000E+00  0.00000000E+00
  0.00000000E+00  0.00000000E+00  0.00000000E+00
  0.00000000E+00  0.00000000E+00  0.00000000E+00
  0.00000000E+00  0.00000000E+00  0.00000000E+00
  0.00000000E+00  0.00000000E+00  0.00000000E+00
  0.00000000E+00  0.00000000E+00  0.00000000E+00
  0.00000000E+00  0.00000000E+00  0.00000000E+00
  0.00000000E+00  0.00000000E+00  0.00000000E+00
  0.00000000E+00  0.00000000E+00  0.00000000E+00
  0.00000000E+00  0.00000000E+00  0.00000000E+00
  0.00000000E+00  0.00000000E+00  0.00000000E+00
  0.00000000E+00  0.00000000E+00  0.00000000E+00
  0.00000000E+00  0.00000000E+00  0.00000000E+00
  0.00000000E+00  0.00000000E+00  0.00000000E+00
  0.00000000E+00  0.00000000E+00  0.00000000E+00
  0.00000000E+00  0.00000000E+00  0.00000000E+00
  0.00000000E+00  0.00000000E+00  0.00000000E+00
  0.00000000E+00  0.00000000E+00  0.00000000E+00
  0.00000000E+00  0.00000000E+00  0.00000000E+00
  0.00000000E+00  0.00000000E+00  0.00000000E+00
  0.00000000E+00  0.00000000E+00  0.00000000E+00
  0.00000000E+00  0.00000000E+00  0.00000000E+00
  0.00000000E+00  0.00000000E+00  0.00000000E+00
  0.00000000E+00  0.00000000E+00  0.00000000E+00
  0.00000000E+00  0.00000000E+00  0.00000000E+00
  0.00000000E+00  0.00000000E+00  0.00000000E+00
  0.00000000E+00  0.00000000E+00  0.00000000E+00
