CONTCAR\(11)                            
   1.00000000000000     
    10.2665004730000007    0.0000000000000000    0.0000000000000000
     0.0000000000000000   17.1711997986000000    0.0000000000000000
     0.0000000000000000    0.0000000000000000   18.9181995391999997
   K    Fe   S    O    H 
     8    16    24     2     1
Direct
  0.1347750981531211  0.2325290710782012  0.4183078885065613
  0.3853611559359782  0.2539173008394087  0.5905754095558091
  0.6350424967341279  0.2325860747732974  0.4180671323596613
  0.8846215857394440  0.2534151593679514  0.5897184150978906
  0.1340099607676825  0.7682085720622350  0.4028096750566340
  0.3658421669786222  0.7149510615262591  0.6223677650198123
  0.6350156575170953  0.7643316206556674  0.4098815001197515
  0.9115404100243492  0.7135151212035220  0.6206358411219519
  0.0088052379803346  0.0625088458179539  0.5207616309035761
  0.2588440630210623  0.9150252234636215  0.5358127742430165
  0.0093321173695753  0.9147936238339662  0.5356656716972074
  0.2592562219928344  0.0623590884422634  0.5208733062626114
  0.5086341339889462  0.0614731753956589  0.5212001418108878
  0.7587426732220218  0.9130535738612682  0.5367260000352110
  0.5089012917664812  0.9134899634900364  0.5370330622620839
  0.7584843179775367  0.0615792297582169  0.5211196992636971
  0.0116135902359958  0.5715032178907877  0.4676887520758413
  0.2619421271845075  0.4236117445912991  0.4842219952631322
  0.0120304884703220  0.4232946408320624  0.4840862868447973
  0.2620559893087189  0.5716218335682945  0.4684012202474829
  0.5115277123959490  0.5725066903853514  0.4724681704920820
  0.7615253873648432  0.4241602800719225  0.4855969859821593
  0.5109290193311116  0.4243951740434016  0.4854079008128919
  0.7618926679935224  0.5726610487296708  0.4719025975821198
  0.3834070623254396  0.8373186400546778  0.4805428103072700
  0.1343938858843454  0.1405016561744866  0.5777265523635935
  0.1343577359080217  0.8542372267579859  0.6050493203075223
  0.3838821419190850 -0.0041612721045054  0.5934748671902874
  0.1343517153975636 -0.0189359329663419  0.4643984328744951
  0.3846223528682565  0.1238347791521259  0.4499072619984294
  0.8848921677264552  0.8359154548646700  0.4802796421141372
  0.6332571981813560  0.1391699710871944  0.5785372859966715
  0.6337606398926811  0.8490693990596500  0.6047155515242280
  0.8839621362139133 -0.0040097355523020  0.5936743943183078
  0.6333344599269707 -0.0204524480833260  0.4656063215490165
  0.8828574619377383  0.1236874657474325  0.4492530276842212
  0.3877551042933699  0.3462796793995057  0.4285560141709162
  0.1364286026060193  0.6494355035110396  0.5227861716334339
  0.1374834503328587  0.3621650879552814  0.5556964885594449
  0.3844462648518712  0.5047241210876302  0.5426397035075916
  0.1378439768514262  0.4883985033882018  0.4123353169566459
  0.3894488632596084  0.6358258060313641  0.4018715346419350
  0.8850178709555421  0.3458412565271362  0.4277492942438622
  0.6369920464235809  0.6469134938413562  0.5331329055112390
  0.6353318077189034  0.3621213154043206  0.5562178839729963
  0.8891448105673168  0.5055583039344810  0.5427488118957630
  0.6358134094401753  0.4913574293296565  0.4155788440320228
  0.8840010761530925  0.6351601932173641  0.4002971492069234
  0.1357097790201659  0.6763709103990261  0.6763083454737524
  0.2158121344861883  0.6087864866816020  0.6932435190672108
  0.1728862214038746  0.5667651524179412  0.6668431122812211
 
  0.00000000E+00  0.00000000E+00  0.00000000E+00
  0.00000000E+00  0.00000000E+00  0.00000000E+00
  0.00000000E+00  0.00000000E+00  0.00000000E+00
  0.00000000E+00  0.00000000E+00  0.00000000E+00
  0.00000000E+00  0.00000000E+00  0.00000000E+00
  0.00000000E+00  0.00000000E+00  0.00000000E+00
  0.00000000E+00  0.00000000E+00  0.00000000E+00
  0.00000000E+00  0.00000000E+00  0.00000000E+00
  0.00000000E+00  0.00000000E+00  0.00000000E+00
  0.00000000E+00  0.00000000E+00  0.00000000E+00
  0.00000000E+00  0.00000000E+00  0.00000000E+00
  0.00000000E+00  0.00000000E+00  0.00000000E+00
  0.00000000E+00  0.00000000E+00  0.00000000E+00
  0.00000000E+00  0.00000000E+00  0.00000000E+00
  0.00000000E+00  0.00000000E+00  0.00000000E+00
  0.00000000E+00  0.00000000E+00  0.00000000E+00
  0.00000000E+00  0.00000000E+00  0.00000000E+00
  0.00000000E+00  0.00000000E+00  0.00000000E+00
  0.00000000E+00  0.00000000E+00  0.00000000E+00
  0.00000000E+00  0.00000000E+00  0.00000000E+00
  0.00000000E+00  0.00000000E+00  0.00000000E+00
  0.00000000E+00  0.00000000E+00  0.00000000E+00
  0.00000000E+00  0.00000000E+00  0.00000000E+00
  0.00000000E+00  0.00000000E+00  0.00000000E+00
  0.00000000E+00  0.00000000E+00  0.00000000E+00
  0.00000000E+00  0.00000000E+00  0.00000000E+00
  0.00000000E+00  0.00000000E+00  0.00000000E+00
  0.00000000E+00  0.00000000E+00  0.00000000E+00
  0.00000000E+00  0.00000000E+00  0.00000000E+00
  0.00000000E+00  0.00000000E+00  0.00000000E+00
  0.00000000E+00  0.00000000E+00  0.00000000E+00
  0.00000000E+00  0.00000000E+00  0.00000000E+00
  0.00000000E+00  0.00000000E+00  0.00000000E+00
  0.00000000E+00  0.00000000E+00  0.00000000E+00
  0.00000000E+00  0.00000000E+00  0.00000000E+00
  0.00000000E+00  0.00000000E+00  0.00000000E+00
  0.00000000E+00  0.00000000E+00  0.00000000E+00
  0.00000000E+00  0.00000000E+00  0.00000000E+00
  0.00000000E+00  0.00000000E+00  0.00000000E+00
  0.00000000E+00  0.00000000E+00  0.00000000E+00
  0.00000000E+00  0.00000000E+00  0.00000000E+00
  0.00000000E+00  0.00000000E+00  0.00000000E+00
  0.00000000E+00  0.00000000E+00  0.00000000E+00
  0.00000000E+00  0.00000000E+00  0.00000000E+00
  0.00000000E+00  0.00000000E+00  0.00000000E+00
  0.00000000E+00  0.00000000E+00  0.00000000E+00
  0.00000000E+00  0.00000000E+00  0.00000000E+00
  0.00000000E+00  0.00000000E+00  0.00000000E+00
  0.00000000E+00  0.00000000E+00  0.00000000E+00
  0.00000000E+00  0.00000000E+00  0.00000000E+00
  0.00000000E+00  0.00000000E+00  0.00000000E+00
