CONTCAR\(9)                             
   1.00000000000000     
    11.2744998931999998    0.0000000000000000    0.0000000000000000
     0.0000000000000000   12.4884996414000007    0.0000000000000000
     0.0000000000000000    0.0000000000000000   19.0002002716000007
   Nb   Te   Ir
     6    24     6
Direct
  0.0000000000000000  0.0514097053681825  0.5044035850730959
  0.1666699940000029  0.7330149279399744  0.4949682859275144
  0.3333300059999971  0.0514097053681825  0.5044035850730959
  0.5000000000000000  0.7330149279399744  0.4949682859275144
  0.6666700359999993  0.0514097053681825  0.5044035850730959
  0.8333300059999971  0.7330149279399744  0.4949682859275144
  0.1666699940000029  0.9357750914329422  0.4192478084704429
  0.0000000000000000  0.1950440142716525  0.4003095857309288
  0.0000000000000000  0.3484680502665913  0.5711953794525544
  0.1666699940000029  0.5883493208145240  0.5983877368397230
  0.1666699940000029  0.4357654223729635  0.4271721406376818
  0.0000000000000000  0.6773505306025148  0.3934759821237577
  0.0000000000000000  0.8485088928157177  0.5803057362773099
  0.1666699940000029  0.1079454369927172  0.6057114707123478
  0.5000000000000000  0.9357750914329422  0.4192478084704429
  0.3333300059999971  0.1950440142716525  0.4003095857309288
  0.3333300059999971  0.3484680502665913  0.5711953794525544
  0.5000000000000000  0.5883493208145240  0.5983877368397230
  0.5000000000000000  0.4357654223729635  0.4271721406376818
  0.3333300059999971  0.6773505306025148  0.3934759821237577
  0.3333300059999971  0.8485088928157177  0.5803057362773099
  0.5000000000000000  0.1079454369927172  0.6057114707123478
  0.8333300059999971  0.9357750914329422  0.4192478084704429
  0.6666700359999993  0.1950440142716525  0.4003095857309288
  0.6666700359999993  0.3484680502665913  0.5711953794525544
  0.8333300059999971  0.5883493208145240  0.5983877368397230
  0.8333300059999971  0.4357654223729635  0.4271721406376818
  0.6666700359999993  0.6773505306025148  0.3934759821237577
  0.6666700359999993  0.8485088928157177  0.5803057362773099
  0.8333300059999971  0.1079454369927172  0.6057114707123478
  0.0000000000000000  0.5371099901594417  0.5012382782544609
  0.1666699940000029  0.2470687389627734  0.4972540635001847
  0.3333300059999971  0.5371099901594417  0.5012382782544609
  0.5000000000000000  0.2470687389627734  0.4972540635001847
  0.6666700359999993  0.5371099901594417  0.5012382782544609
  0.8333300059999971  0.2470687389627734  0.4972540635001847
 
  0.00000000E+00  0.00000000E+00  0.00000000E+00
  0.00000000E+00  0.00000000E+00  0.00000000E+00
  0.00000000E+00  0.00000000E+00  0.00000000E+00
  0.00000000E+00  0.00000000E+00  0.00000000E+00
  0.00000000E+00  0.00000000E+00  0.00000000E+00
  0.00000000E+00  0.00000000E+00  0.00000000E+00
  0.00000000E+00  0.00000000E+00  0.00000000E+00
  0.00000000E+00  0.00000000E+00  0.00000000E+00
  0.00000000E+00  0.00000000E+00  0.00000000E+00
  0.00000000E+00  0.00000000E+00  0.00000000E+00
  0.00000000E+00  0.00000000E+00  0.00000000E+00
  0.00000000E+00  0.00000000E+00  0.00000000E+00
  0.00000000E+00  0.00000000E+00  0.00000000E+00
  0.00000000E+00  0.00000000E+00  0.00000000E+00
  0.00000000E+00  0.00000000E+00  0.00000000E+00
  0.00000000E+00  0.00000000E+00  0.00000000E+00
  0.00000000E+00  0.00000000E+00  0.00000000E+00
  0.00000000E+00  0.00000000E+00  0.00000000E+00
  0.00000000E+00  0.00000000E+00  0.00000000E+00
  0.00000000E+00  0.00000000E+00  0.00000000E+00
  0.00000000E+00  0.00000000E+00  0.00000000E+00
  0.00000000E+00  0.00000000E+00  0.00000000E+00
  0.00000000E+00  0.00000000E+00  0.00000000E+00
  0.00000000E+00  0.00000000E+00  0.00000000E+00
  0.00000000E+00  0.00000000E+00  0.00000000E+00
  0.00000000E+00  0.00000000E+00  0.00000000E+00
  0.00000000E+00  0.00000000E+00  0.00000000E+00
  0.00000000E+00  0.00000000E+00  0.00000000E+00
  0.00000000E+00  0.00000000E+00  0.00000000E+00
  0.00000000E+00  0.00000000E+00  0.00000000E+00
  0.00000000E+00  0.00000000E+00  0.00000000E+00
  0.00000000E+00  0.00000000E+00  0.00000000E+00
  0.00000000E+00  0.00000000E+00  0.00000000E+00
  0.00000000E+00  0.00000000E+00  0.00000000E+00
  0.00000000E+00  0.00000000E+00  0.00000000E+00
  0.00000000E+00  0.00000000E+00  0.00000000E+00
