CONTCAR\(10)                            
   1.00000000000000     
    10.9605998993000000    0.0000000000000000    0.0000000000000000
     5.4620360536000003    9.5107522852000006    0.0000000000000000
     0.0000000000000000    0.0000000000000000   24.0680007935000013
   Cr   Ga   S    O 
     9    18    36     1
Direct
  0.3316229342589324  0.0052115609326509  0.4999989426505022
  0.6634514547729866  0.0079108942709311  0.4985816146222838
 -0.0017568748040535  0.0050389395128006  0.4999646652238882
  0.3360998431732976  0.3379782662967323  0.4998283989699014
  0.6609799961958457  0.3378972249980215  0.4997879516477855
  0.9983016809217382  0.3380165659410556  0.5004067615539239
  0.3335467373419453  0.6676387363390127  0.5008141540249649
  0.6626545448269968  0.6707516213130982  0.5006449045016708
  0.0016390149081206  0.6707695529744118  0.5005792104739671
  0.1105761001539953  0.1155720652577736  0.3551842841507280
  0.2214337670137334  0.2280838007075346  0.6445583564531024
  0.4438416759945885  0.1158375941685132  0.3544198070207807
  0.5257138106811263  0.2804307785871603  0.6456402579206330
  0.7770292143256003  0.1158411565739651  0.3544410731454728
  0.8829164868765456  0.2282279357481589  0.6445540607319755
  0.1116649296017322  0.4488909245904155  0.3559575154678012
  0.2545581877568281  0.5414448895296473  0.6487637955358303
  0.4441904548611170  0.4485313290468947  0.3540991764563811
  0.5373298998064311  0.5424294807329679  0.6486118016262763
  0.7762998773809396  0.4489540211379187  0.3558796819416964
  0.8867077983031648  0.5600290126634255  0.6437838888878281
  0.1110697008248631  0.7816335629709384  0.3554126171718581
  0.2203134637520780  0.8922311866377636  0.6445020025722721
  0.4439993611360758  0.7816605097937240  0.3555094071601158
  0.5485885440337638  0.9000098210049613  0.6432619437701187
  0.7765357369129788  0.7836859990701408  0.3555375839273521
  0.8846260507913484  0.8999349941856201  0.6432206964617716
  0.1094959431446168  0.1162526051381041  0.4488387967715793
  0.2215074952394053  0.2280623819129418  0.5501988661689730
  0.1076272141294246  0.1169225452325895  0.6835255330047687
  0.2209161493896928  0.2276507952875631  0.3127386834947201
  0.4420742692397562  0.1167165659579120  0.4479674866701684
  0.5552291434346254  0.2243272070107470  0.5490003109321862
  0.4430689059554388  0.1211562042376136  0.6823949131257914
  0.5553691505377185  0.2262469166339945  0.3118113581397235
  0.7766635157281054  0.1165621154962921  0.4479672340339096
  0.8849092309613337  0.2278766363365511  0.5501861780222241
  0.7679880455848420  0.1212622600531634  0.6821879433820398
  0.8883836063111211  0.2275209363081681  0.3127383655202989
  0.1119967687815207  0.4486606909525400  0.4494734753643592
  0.2239422307106118  0.5578774354265718  0.5518203711314812
  0.1087208906667257  0.4503253453003406  0.6838972277195660
  0.2211717499556754  0.5601916806367228  0.3124261819366881
  0.4429448925156756  0.4495768119711240  0.4478044157909373
  0.5526356475640614  0.5578710136079513  0.5518627348619036
  0.4241816707321999  0.4869733163510014  0.7233649696302595
  0.5555645858916110  0.5603531099193524  0.3124199809644016
  0.7746622415202324  0.4487546623811042  0.4494113965856322
  0.8866464140244916  0.5615372821803752  0.5499031578939211
  0.7738358970319367  0.4505260235095908  0.6837723608967367
  0.8885322707758798  0.5601880701371038  0.3143537382192031
  0.1116661356237310  0.7817523581231279  0.4490092784170117
  0.2206873853255141  0.8932143476619320  0.5501977921899230
  0.1061987038720202  0.7835287722236667  0.6822812188017947
  0.2218928966226910  0.8932380023999731  0.3129430440497111
  0.4418116432029442  0.7818919211766596  0.4491132165204053
  0.5544507794616390  0.8949600034972118  0.5492503514160938
  0.4429464756946161  0.7839250393747420  0.6823361617934564
  0.5549695363500253  0.8928857380070567  0.3127562297934562
  0.7762766613624430  0.7829441634079994  0.4485031662737082
  0.8851799617376874  0.8949176124616552  0.5491557462464659
  0.7738989102270624  0.7851527376408238  0.6828176599114166
  0.8889856489966704  0.8929950065866761  0.3127280043947938
  0.3886926668935353  0.5627703284728518  0.7778477978593322
 
  0.00000000E+00  0.00000000E+00  0.00000000E+00
  0.00000000E+00  0.00000000E+00  0.00000000E+00
  0.00000000E+00  0.00000000E+00  0.00000000E+00
  0.00000000E+00  0.00000000E+00  0.00000000E+00
  0.00000000E+00  0.00000000E+00  0.00000000E+00
  0.00000000E+00  0.00000000E+00  0.00000000E+00
  0.00000000E+00  0.00000000E+00  0.00000000E+00
  0.00000000E+00  0.00000000E+00  0.00000000E+00
  0.00000000E+00  0.00000000E+00  0.00000000E+00
  0.00000000E+00  0.00000000E+00  0.00000000E+00
  0.00000000E+00  0.00000000E+00  0.00000000E+00
  0.00000000E+00  0.00000000E+00  0.00000000E+00
  0.00000000E+00  0.00000000E+00  0.00000000E+00
  0.00000000E+00  0.00000000E+00  0.00000000E+00
  0.00000000E+00  0.00000000E+00  0.00000000E+00
  0.00000000E+00  0.00000000E+00  0.00000000E+00
  0.00000000E+00  0.00000000E+00  0.00000000E+00
  0.00000000E+00  0.00000000E+00  0.00000000E+00
  0.00000000E+00  0.00000000E+00  0.00000000E+00
  0.00000000E+00  0.00000000E+00  0.00000000E+00
  0.00000000E+00  0.00000000E+00  0.00000000E+00
  0.00000000E+00  0.00000000E+00  0.00000000E+00
  0.00000000E+00  0.00000000E+00  0.00000000E+00
  0.00000000E+00  0.00000000E+00  0.00000000E+00
  0.00000000E+00  0.00000000E+00  0.00000000E+00
  0.00000000E+00  0.00000000E+00  0.00000000E+00
  0.00000000E+00  0.00000000E+00  0.00000000E+00
  0.00000000E+00  0.00000000E+00  0.00000000E+00
  0.00000000E+00  0.00000000E+00  0.00000000E+00
  0.00000000E+00  0.00000000E+00  0.00000000E+00
  0.00000000E+00  0.00000000E+00  0.00000000E+00
  0.00000000E+00  0.00000000E+00  0.00000000E+00
  0.00000000E+00  0.00000000E+00  0.00000000E+00
  0.00000000E+00  0.00000000E+00  0.00000000E+00
  0.00000000E+00  0.00000000E+00  0.00000000E+00
  0.00000000E+00  0.00000000E+00  0.00000000E+00
  0.00000000E+00  0.00000000E+00  0.00000000E+00
  0.00000000E+00  0.00000000E+00  0.00000000E+00
  0.00000000E+00  0.00000000E+00  0.00000000E+00
  0.00000000E+00  0.00000000E+00  0.00000000E+00
  0.00000000E+00  0.00000000E+00  0.00000000E+00
  0.00000000E+00  0.00000000E+00  0.00000000E+00
  0.00000000E+00  0.00000000E+00  0.00000000E+00
  0.00000000E+00  0.00000000E+00  0.00000000E+00
  0.00000000E+00  0.00000000E+00  0.00000000E+00
  0.00000000E+00  0.00000000E+00  0.00000000E+00
  0.00000000E+00  0.00000000E+00  0.00000000E+00
  0.00000000E+00  0.00000000E+00  0.00000000E+00
  0.00000000E+00  0.00000000E+00  0.00000000E+00
  0.00000000E+00  0.00000000E+00  0.00000000E+00
  0.00000000E+00  0.00000000E+00  0.00000000E+00
  0.00000000E+00  0.00000000E+00  0.00000000E+00
  0.00000000E+00  0.00000000E+00  0.00000000E+00
  0.00000000E+00  0.00000000E+00  0.00000000E+00
  0.00000000E+00  0.00000000E+00  0.00000000E+00
  0.00000000E+00  0.00000000E+00  0.00000000E+00
  0.00000000E+00  0.00000000E+00  0.00000000E+00
  0.00000000E+00  0.00000000E+00  0.00000000E+00
  0.00000000E+00  0.00000000E+00  0.00000000E+00
  0.00000000E+00  0.00000000E+00  0.00000000E+00
  0.00000000E+00  0.00000000E+00  0.00000000E+00
  0.00000000E+00  0.00000000E+00  0.00000000E+00
  0.00000000E+00  0.00000000E+00  0.00000000E+00
  0.00000000E+00  0.00000000E+00  0.00000000E+00
