 Ta4 Co2 Pd1 Se12                       
   1.00000000000000     
     3.4023813876181817    0.0000000000000000    0.0000000000000000
    -1.7011906938090908   18.1179351098409711    0.0000000000000000
     0.0000000000000000    0.0000000000000000   20.2910381510640008
   Ta   Co   Pd   Se
     4     2     1    12
Direct
  0.0754888093984505  0.1513569131153005  0.4665193367133753
  0.9245140085913945  0.8486456267084606  0.5334702729513481
  0.2040592974410558  0.4082718251010249  0.4709046488816782
  0.7959441021594316  0.5917414381386834  0.5290914206392046
  0.6421877246668473  0.2849117031183610  0.4399368468389113
  0.3578165538886395  0.7150604419955329  0.5600549910050105
  0.5000027672807761  0.0000026250449068  0.4999981631498969
  0.5591426608144374  0.1182816101711595  0.5596081002763995
  0.4408657394336402  0.8817228157537187  0.4403944576130101
  0.3022816163257929  0.6037661710051836  0.6224846247830698
  0.6976184187919685  0.3962455931629805  0.3775134862835401
  0.7237100867915061  0.4476483917656893  0.5625980556316676
  0.2762497811221607  0.5523386281584877  0.4374203016901603
  0.1186485359060043  0.2382239417879930  0.3694681981201455
  0.8813678133732168  0.7617973322609402  0.6305593583125670
  0.5367945430228502  0.0741373980651190  0.3977922225879098
  0.4632115666078107  0.9258637428696161  0.6022010366925272
  0.1405915334548027  0.2808477176116355  0.5242825456512037
  0.8595044409292072  0.7191360841652141  0.4757019321783673
 
  0.00000000E+00  0.00000000E+00  0.00000000E+00
  0.00000000E+00  0.00000000E+00  0.00000000E+00
  0.00000000E+00  0.00000000E+00  0.00000000E+00
  0.00000000E+00  0.00000000E+00  0.00000000E+00
  0.00000000E+00  0.00000000E+00  0.00000000E+00
  0.00000000E+00  0.00000000E+00  0.00000000E+00
  0.00000000E+00  0.00000000E+00  0.00000000E+00
  0.00000000E+00  0.00000000E+00  0.00000000E+00
  0.00000000E+00  0.00000000E+00  0.00000000E+00
  0.00000000E+00  0.00000000E+00  0.00000000E+00
  0.00000000E+00  0.00000000E+00  0.00000000E+00
  0.00000000E+00  0.00000000E+00  0.00000000E+00
  0.00000000E+00  0.00000000E+00  0.00000000E+00
  0.00000000E+00  0.00000000E+00  0.00000000E+00
  0.00000000E+00  0.00000000E+00  0.00000000E+00
  0.00000000E+00  0.00000000E+00  0.00000000E+00
  0.00000000E+00  0.00000000E+00  0.00000000E+00
  0.00000000E+00  0.00000000E+00  0.00000000E+00
  0.00000000E+00  0.00000000E+00  0.00000000E+00
