G   59   11    1    0.005     # Parameters to Generate KPOINTS (Don't Edit This Line)
     325
Reciprocal lattice
    0.000000000000    0.000000000000    0.000000000000       1
    0.016949152542    0.000000000000    0.000000000000       2
    0.033898305085    0.000000000000    0.000000000000       2
    0.050847457627    0.000000000000    0.000000000000       2
    0.067796610169    0.000000000000    0.000000000000       2
    0.084745762712    0.000000000000    0.000000000000       2
    0.101694915254    0.000000000000    0.000000000000       2
    0.118644067797    0.000000000000    0.000000000000       2
    0.135593220339    0.000000000000    0.000000000000       2
    0.152542372881    0.000000000000    0.000000000000       2
    0.169491525424    0.000000000000    0.000000000000       2
    0.186440677966    0.000000000000    0.000000000000       2
    0.203389830508    0.000000000000    0.000000000000       2
    0.220338983051    0.000000000000    0.000000000000       2
    0.237288135593    0.000000000000    0.000000000000       2
    0.254237288136    0.000000000000    0.000000000000       2
    0.271186440678    0.000000000000    0.000000000000       2
    0.288135593220    0.000000000000    0.000000000000       2
    0.305084745763    0.000000000000    0.000000000000       2
    0.322033898305    0.000000000000    0.000000000000       2
    0.338983050847    0.000000000000    0.000000000000       2
    0.355932203390    0.000000000000    0.000000000000       2
    0.372881355932    0.000000000000    0.000000000000       2
    0.389830508475    0.000000000000    0.000000000000       2
    0.406779661017    0.000000000000    0.000000000000       2
    0.423728813559    0.000000000000    0.000000000000       2
    0.440677966102    0.000000000000    0.000000000000       2
    0.457627118644    0.000000000000    0.000000000000       2
    0.474576271186    0.000000000000    0.000000000000       2
    0.491525423729    0.000000000000    0.000000000000       2
    0.000000000000    0.090909090909    0.000000000000       2
    0.016949152542    0.090909090909    0.000000000000       2
    0.033898305085    0.090909090909    0.000000000000       2
    0.050847457627    0.090909090909    0.000000000000       2
    0.067796610169    0.090909090909    0.000000000000       2
    0.084745762712    0.090909090909    0.000000000000       2
    0.101694915254    0.090909090909    0.000000000000       2
    0.118644067797    0.090909090909    0.000000000000       2
    0.135593220339    0.090909090909    0.000000000000       2
    0.152542372881    0.090909090909    0.000000000000       2
    0.169491525424    0.090909090909    0.000000000000       2
    0.186440677966    0.090909090909    0.000000000000       2
    0.203389830508    0.090909090909    0.000000000000       2
    0.220338983051    0.090909090909    0.000000000000       2
    0.237288135593    0.090909090909    0.000000000000       2
    0.254237288136    0.090909090909    0.000000000000       2
    0.271186440678    0.090909090909    0.000000000000       2
    0.288135593220    0.090909090909    0.000000000000       2
    0.305084745763    0.090909090909    0.000000000000       2
    0.322033898305    0.090909090909    0.000000000000       2
    0.338983050847    0.090909090909    0.000000000000       2
    0.355932203390    0.090909090909    0.000000000000       2
    0.372881355932    0.090909090909    0.000000000000       2
    0.389830508475    0.090909090909    0.000000000000       2
    0.406779661017    0.090909090909    0.000000000000       2
    0.423728813559    0.090909090909    0.000000000000       2
    0.440677966102    0.090909090909    0.000000000000       2
    0.457627118644    0.090909090909    0.000000000000       2
    0.474576271186    0.090909090909    0.000000000000       2
    0.491525423729    0.090909090909    0.000000000000       2
   -0.491525423729    0.090909090909    0.000000000000       2
   -0.474576271186    0.090909090909    0.000000000000       2
   -0.457627118644    0.090909090909    0.000000000000       2
   -0.440677966102    0.090909090909    0.000000000000       2
   -0.423728813559    0.090909090909    0.000000000000       2
   -0.406779661017    0.090909090909    0.000000000000       2
   -0.389830508475    0.090909090909    0.000000000000       2
   -0.372881355932    0.090909090909    0.000000000000       2
   -0.355932203390    0.090909090909    0.000000000000       2
   -0.338983050847    0.090909090909    0.000000000000       2
   -0.322033898305    0.090909090909    0.000000000000       2
   -0.305084745763    0.090909090909    0.000000000000       2
   -0.288135593220    0.090909090909    0.000000000000       2
   -0.271186440678    0.090909090909    0.000000000000       2
   -0.254237288136    0.090909090909    0.000000000000       2
   -0.237288135593    0.090909090909    0.000000000000       2
   -0.220338983051    0.090909090909    0.000000000000       2
   -0.203389830508    0.090909090909    0.000000000000       2
   -0.186440677966    0.090909090909    0.000000000000       2
   -0.169491525424    0.090909090909    0.000000000000       2
   -0.152542372881    0.090909090909    0.000000000000       2
   -0.135593220339    0.090909090909    0.000000000000       2
   -0.118644067797    0.090909090909    0.000000000000       2
   -0.101694915254    0.090909090909    0.000000000000       2
   -0.084745762712    0.090909090909    0.000000000000       2
   -0.067796610169    0.090909090909    0.000000000000       2
   -0.050847457627    0.090909090909    0.000000000000       2
   -0.033898305085    0.090909090909    0.000000000000       2
   -0.016949152542    0.090909090909    0.000000000000       2
    0.000000000000    0.181818181818    0.000000000000       2
    0.016949152542    0.181818181818    0.000000000000       2
    0.033898305085    0.181818181818    0.000000000000       2
    0.050847457627    0.181818181818    0.000000000000       2
    0.067796610169    0.181818181818    0.000000000000       2
    0.084745762712    0.181818181818    0.000000000000       2
    0.101694915254    0.181818181818    0.000000000000       2
    0.118644067797    0.181818181818    0.000000000000       2
    0.135593220339    0.181818181818    0.000000000000       2
    0.152542372881    0.181818181818    0.000000000000       2
    0.169491525424    0.181818181818    0.000000000000       2
    0.186440677966    0.181818181818    0.000000000000       2
    0.203389830508    0.181818181818    0.000000000000       2
    0.220338983051    0.181818181818    0.000000000000       2
    0.237288135593    0.181818181818    0.000000000000       2
    0.254237288136    0.181818181818    0.000000000000       2
    0.271186440678    0.181818181818    0.000000000000       2
    0.288135593220    0.181818181818    0.000000000000       2
    0.305084745763    0.181818181818    0.000000000000       2
    0.322033898305    0.181818181818    0.000000000000       2
    0.338983050847    0.181818181818    0.000000000000       2
    0.355932203390    0.181818181818    0.000000000000       2
    0.372881355932    0.181818181818    0.000000000000       2
    0.389830508475    0.181818181818    0.000000000000       2
    0.406779661017    0.181818181818    0.000000000000       2
    0.423728813559    0.181818181818    0.000000000000       2
    0.440677966102    0.181818181818    0.000000000000       2
    0.457627118644    0.181818181818    0.000000000000       2
    0.474576271186    0.181818181818    0.000000000000       2
    0.491525423729    0.181818181818    0.000000000000       2
   -0.491525423729    0.181818181818    0.000000000000       2
   -0.474576271186    0.181818181818    0.000000000000       2
   -0.457627118644    0.181818181818    0.000000000000       2
   -0.440677966102    0.181818181818    0.000000000000       2
   -0.423728813559    0.181818181818    0.000000000000       2
   -0.406779661017    0.181818181818    0.000000000000       2
   -0.389830508475    0.181818181818    0.000000000000       2
   -0.372881355932    0.181818181818    0.000000000000       2
   -0.355932203390    0.181818181818    0.000000000000       2
   -0.338983050847    0.181818181818    0.000000000000       2
   -0.322033898305    0.181818181818    0.000000000000       2
   -0.305084745763    0.181818181818    0.000000000000       2
   -0.288135593220    0.181818181818    0.000000000000       2
   -0.271186440678    0.181818181818    0.000000000000       2
   -0.254237288136    0.181818181818    0.000000000000       2
   -0.237288135593    0.181818181818    0.000000000000       2
   -0.220338983051    0.181818181818    0.000000000000       2
   -0.203389830508    0.181818181818    0.000000000000       2
   -0.186440677966    0.181818181818    0.000000000000       2
   -0.169491525424    0.181818181818    0.000000000000       2
   -0.152542372881    0.181818181818    0.000000000000       2
   -0.135593220339    0.181818181818    0.000000000000       2
   -0.118644067797    0.181818181818    0.000000000000       2
   -0.101694915254    0.181818181818    0.000000000000       2
   -0.084745762712    0.181818181818    0.000000000000       2
   -0.067796610169    0.181818181818    0.000000000000       2
   -0.050847457627    0.181818181818    0.000000000000       2
   -0.033898305085    0.181818181818    0.000000000000       2
   -0.016949152542    0.181818181818    0.000000000000       2
    0.000000000000    0.272727272727    0.000000000000       2
    0.016949152542    0.272727272727    0.000000000000       2
    0.033898305085    0.272727272727    0.000000000000       2
    0.050847457627    0.272727272727    0.000000000000       2
    0.067796610169    0.272727272727    0.000000000000       2
    0.084745762712    0.272727272727    0.000000000000       2
    0.101694915254    0.272727272727    0.000000000000       2
    0.118644067797    0.272727272727    0.000000000000       2
    0.135593220339    0.272727272727    0.000000000000       2
    0.152542372881    0.272727272727    0.000000000000       2
    0.169491525424    0.272727272727    0.000000000000       2
    0.186440677966    0.272727272727    0.000000000000       2
    0.203389830508    0.272727272727    0.000000000000       2
    0.220338983051    0.272727272727    0.000000000000       2
    0.237288135593    0.272727272727    0.000000000000       2
    0.254237288136    0.272727272727    0.000000000000       2
    0.271186440678    0.272727272727    0.000000000000       2
    0.288135593220    0.272727272727    0.000000000000       2
    0.305084745763    0.272727272727    0.000000000000       2
    0.322033898305    0.272727272727    0.000000000000       2
    0.338983050847    0.272727272727    0.000000000000       2
    0.355932203390    0.272727272727    0.000000000000       2
    0.372881355932    0.272727272727    0.000000000000       2
    0.389830508475    0.272727272727    0.000000000000       2
    0.406779661017    0.272727272727    0.000000000000       2
    0.423728813559    0.272727272727    0.000000000000       2
    0.440677966102    0.272727272727    0.000000000000       2
    0.457627118644    0.272727272727    0.000000000000       2
    0.474576271186    0.272727272727    0.000000000000       2
    0.491525423729    0.272727272727    0.000000000000       2
   -0.491525423729    0.272727272727    0.000000000000       2
   -0.474576271186    0.272727272727    0.000000000000       2
   -0.457627118644    0.272727272727    0.000000000000       2
   -0.440677966102    0.272727272727    0.000000000000       2
   -0.423728813559    0.272727272727    0.000000000000       2
   -0.406779661017    0.272727272727    0.000000000000       2
   -0.389830508475    0.272727272727    0.000000000000       2
   -0.372881355932    0.272727272727    0.000000000000       2
   -0.355932203390    0.272727272727    0.000000000000       2
   -0.338983050847    0.272727272727    0.000000000000       2
   -0.322033898305    0.272727272727    0.000000000000       2
   -0.305084745763    0.272727272727    0.000000000000       2
   -0.288135593220    0.272727272727    0.000000000000       2
   -0.271186440678    0.272727272727    0.000000000000       2
   -0.254237288136    0.272727272727    0.000000000000       2
   -0.237288135593    0.272727272727    0.000000000000       2
   -0.220338983051    0.272727272727    0.000000000000       2
   -0.203389830508    0.272727272727    0.000000000000       2
   -0.186440677966    0.272727272727    0.000000000000       2
   -0.169491525424    0.272727272727    0.000000000000       2
   -0.152542372881    0.272727272727    0.000000000000       2
   -0.135593220339    0.272727272727    0.000000000000       2
   -0.118644067797    0.272727272727    0.000000000000       2
   -0.101694915254    0.272727272727    0.000000000000       2
   -0.084745762712    0.272727272727    0.000000000000       2
   -0.067796610169    0.272727272727    0.000000000000       2
   -0.050847457627    0.272727272727    0.000000000000       2
   -0.033898305085    0.272727272727    0.000000000000       2
   -0.016949152542    0.272727272727    0.000000000000       2
    0.000000000000    0.363636363636    0.000000000000       2
    0.016949152542    0.363636363636    0.000000000000       2
    0.033898305085    0.363636363636    0.000000000000       2
    0.050847457627    0.363636363636    0.000000000000       2
    0.067796610169    0.363636363636    0.000000000000       2
    0.084745762712    0.363636363636    0.000000000000       2
    0.101694915254    0.363636363636    0.000000000000       2
    0.118644067797    0.363636363636    0.000000000000       2
    0.135593220339    0.363636363636    0.000000000000       2
    0.152542372881    0.363636363636    0.000000000000       2
    0.169491525424    0.363636363636    0.000000000000       2
    0.186440677966    0.363636363636    0.000000000000       2
    0.203389830508    0.363636363636    0.000000000000       2
    0.220338983051    0.363636363636    0.000000000000       2
    0.237288135593    0.363636363636    0.000000000000       2
    0.254237288136    0.363636363636    0.000000000000       2
    0.271186440678    0.363636363636    0.000000000000       2
    0.288135593220    0.363636363636    0.000000000000       2
    0.305084745763    0.363636363636    0.000000000000       2
    0.322033898305    0.363636363636    0.000000000000       2
    0.338983050847    0.363636363636    0.000000000000       2
    0.355932203390    0.363636363636    0.000000000000       2
    0.372881355932    0.363636363636    0.000000000000       2
    0.389830508475    0.363636363636    0.000000000000       2
    0.406779661017    0.363636363636    0.000000000000       2
    0.423728813559    0.363636363636    0.000000000000       2
    0.440677966102    0.363636363636    0.000000000000       2
    0.457627118644    0.363636363636    0.000000000000       2
    0.474576271186    0.363636363636    0.000000000000       2
    0.491525423729    0.363636363636    0.000000000000       2
   -0.491525423729    0.363636363636    0.000000000000       2
   -0.474576271186    0.363636363636    0.000000000000       2
   -0.457627118644    0.363636363636    0.000000000000       2
   -0.440677966102    0.363636363636    0.000000000000       2
   -0.423728813559    0.363636363636    0.000000000000       2
   -0.406779661017    0.363636363636    0.000000000000       2
   -0.389830508475    0.363636363636    0.000000000000       2
   -0.372881355932    0.363636363636    0.000000000000       2
   -0.355932203390    0.363636363636    0.000000000000       2
   -0.338983050847    0.363636363636    0.000000000000       2
   -0.322033898305    0.363636363636    0.000000000000       2
   -0.305084745763    0.363636363636    0.000000000000       2
   -0.288135593220    0.363636363636    0.000000000000       2
   -0.271186440678    0.363636363636    0.000000000000       2
   -0.254237288136    0.363636363636    0.000000000000       2
   -0.237288135593    0.363636363636    0.000000000000       2
   -0.220338983051    0.363636363636    0.000000000000       2
   -0.203389830508    0.363636363636    0.000000000000       2
   -0.186440677966    0.363636363636    0.000000000000       2
   -0.169491525424    0.363636363636    0.000000000000       2
   -0.152542372881    0.363636363636    0.000000000000       2
   -0.135593220339    0.363636363636    0.000000000000       2
   -0.118644067797    0.363636363636    0.000000000000       2
   -0.101694915254    0.363636363636    0.000000000000       2
   -0.084745762712    0.363636363636    0.000000000000       2
   -0.067796610169    0.363636363636    0.000000000000       2
   -0.050847457627    0.363636363636    0.000000000000       2
   -0.033898305085    0.363636363636    0.000000000000       2
   -0.016949152542    0.363636363636    0.000000000000       2
    0.000000000000    0.454545454545    0.000000000000       2
    0.016949152542    0.454545454545    0.000000000000       2
    0.033898305085    0.454545454545    0.000000000000       2
    0.050847457627    0.454545454545    0.000000000000       2
    0.067796610169    0.454545454545    0.000000000000       2
    0.084745762712    0.454545454545    0.000000000000       2
    0.101694915254    0.454545454545    0.000000000000       2
    0.118644067797    0.454545454545    0.000000000000       2
    0.135593220339    0.454545454545    0.000000000000       2
    0.152542372881    0.454545454545    0.000000000000       2
    0.169491525424    0.454545454545    0.000000000000       2
    0.186440677966    0.454545454545    0.000000000000       2
    0.203389830508    0.454545454545    0.000000000000       2
    0.220338983051    0.454545454545    0.000000000000       2
    0.237288135593    0.454545454545    0.000000000000       2
    0.254237288136    0.454545454545    0.000000000000       2
    0.271186440678    0.454545454545    0.000000000000       2
    0.288135593220    0.454545454545    0.000000000000       2
    0.305084745763    0.454545454545    0.000000000000       2
    0.322033898305    0.454545454545    0.000000000000       2
    0.338983050847    0.454545454545    0.000000000000       2
    0.355932203390    0.454545454545    0.000000000000       2
    0.372881355932    0.454545454545    0.000000000000       2
    0.389830508475    0.454545454545    0.000000000000       2
    0.406779661017    0.454545454545    0.000000000000       2
    0.423728813559    0.454545454545    0.000000000000       2
    0.440677966102    0.454545454545    0.000000000000       2
    0.457627118644    0.454545454545    0.000000000000       2
    0.474576271186    0.454545454545    0.000000000000       2
    0.491525423729    0.454545454545    0.000000000000       2
   -0.491525423729    0.454545454545    0.000000000000       2
   -0.474576271186    0.454545454545    0.000000000000       2
   -0.457627118644    0.454545454545    0.000000000000       2
   -0.440677966102    0.454545454545    0.000000000000       2
   -0.423728813559    0.454545454545    0.000000000000       2
   -0.406779661017    0.454545454545    0.000000000000       2
   -0.389830508475    0.454545454545    0.000000000000       2
   -0.372881355932    0.454545454545    0.000000000000       2
   -0.355932203390    0.454545454545    0.000000000000       2
   -0.338983050847    0.454545454545    0.000000000000       2
   -0.322033898305    0.454545454545    0.000000000000       2
   -0.305084745763    0.454545454545    0.000000000000       2
   -0.288135593220    0.454545454545    0.000000000000       2
   -0.271186440678    0.454545454545    0.000000000000       2
   -0.254237288136    0.454545454545    0.000000000000       2
   -0.237288135593    0.454545454545    0.000000000000       2
   -0.220338983051    0.454545454545    0.000000000000       2
   -0.203389830508    0.454545454545    0.000000000000       2
   -0.186440677966    0.454545454545    0.000000000000       2
   -0.169491525424    0.454545454545    0.000000000000       2
   -0.152542372881    0.454545454545    0.000000000000       2
   -0.135593220339    0.454545454545    0.000000000000       2
   -0.118644067797    0.454545454545    0.000000000000       2
   -0.101694915254    0.454545454545    0.000000000000       2
   -0.084745762712    0.454545454545    0.000000000000       2
   -0.067796610169    0.454545454545    0.000000000000       2
   -0.050847457627    0.454545454545    0.000000000000       2
   -0.033898305085    0.454545454545    0.000000000000       2
   -0.016949152542    0.454545454545    0.000000000000       2
