CONTCAR                                 
   1.00000000000000     
    14.5763998031999993    0.0000000000000000    0.0000000000000000
     0.0000000000000000   14.5763998031999993    0.0000000000000000
     0.0000000000000000    0.0000000000000000   17.7768993377999998
   Fe   Se   O    H 
    32    32     2     1
Direct
 -0.0015444635514025  0.0015059183285455  0.4984871986871676
  0.1248673293408360  0.1279953356507311  0.4981607596006265
  0.2512506048032039  0.0014375646822791  0.4984842616766043
  0.3750118315212707  0.1253353995065406  0.4987566723946384
  0.4985507159700718  0.0014904275588433  0.4986003072335440
  0.6249571303372893  0.1280615308436837  0.4981899295601271
  0.7513078096542832  0.0015437058849928  0.4985519173918889
  0.8750194961341482  0.1251215765151890  0.4986253779093512
  0.0017175927122268  0.2514344748613956  0.4982793052718640
  0.1251635664442432  0.3753798944159803  0.4972889954768082
  0.2486350784617849  0.2514807019354330  0.4975662838587835
  0.3749790182392059  0.3771885411475691  0.4956955866557038
  0.5016050237367579  0.2517038075266083  0.4977726999243696
  0.6244973364524313  0.3752121640441602  0.4978211597211756
  0.7485455905109766  0.2515916739046746  0.4983358070957234
  0.8750003044950856  0.3780356827310140  0.4984278658575134
 -0.0015762172037244  0.5016130315731402  0.4979879501021290
  0.1249312546619190  0.6278994223761486  0.4971810405087016
  0.2512902599626481  0.5012414598738119  0.4961822427027595
  0.3749199650308463  0.6249945902430282  0.4957699253349487
  0.4982341723573351  0.5012220184920467  0.4965761111159251
  0.6247254855849539  0.6279077171872057  0.4974108480284511
  0.7508767025384000  0.5015759728975991  0.4983292040326039
  0.8748506810553319  0.6253262006687945  0.4985027477969047
  0.0014665613856671  0.7516001903261270  0.4980709860357496
  0.1249259380340883  0.8749877896922655  0.4983988806459777
  0.2488605696851974  0.7515164229717525  0.4971737743519340
  0.3749480099961355  0.8780163558744699  0.4979463394811894
  0.5009507596086132  0.7515911923098085  0.4974092129163501
  0.6248521890027696  0.8750278337783047  0.4985764481327031
  0.7482832973879897  0.7516712097142292  0.4981616361442743
  0.8749237400410242  0.8778809369910350  0.4983507176241451
  0.1248618561658426  0.0013366480152078  0.4134567343676030
  0.0000812606526286  0.1265381423169319  0.5827335039255478
  0.3748841452802574  0.0023979260468055  0.4116788519597712
  0.2498826230964770  0.1268682531206332  0.5821989950195936
  0.6249259383112032  0.0013545663156957  0.4135588990262837
  0.5000250309409228  0.1269306035501904  0.5823778802780070
  0.8747489871931238  0.0017019519051296  0.4114465521947732
  0.7498113601482141  0.1267600990438210  0.5825779122440482
  0.1254842108836791  0.2519384309204917  0.4111743778411501
  0.0007846292152497  0.3766205645579752  0.5822079939407064
  0.3751397782283419  0.2500398161530095  0.4127123153752796
  0.2512001861559732  0.3771404125684104  0.5805607521338817
  0.6253047225667562  0.2519597258759612  0.4112761683881795
  0.4983474255211573  0.3773127248777045  0.5811482126947617
  0.8750623653527078  0.2514063983849799  0.4135689385746413
  0.7493332335329784  0.3766151584852257  0.5822859325174007
  0.1239775693971758  0.5016371262418848  0.4122519842997643
  0.0004709658620519  0.6265264448369582  0.5821351499256855
  0.3748443124156206  0.5005510924760539  0.4094879206835645
  0.2504958646511850  0.6257490893826799  0.5804323887296002
  0.6253872028678713  0.5013670655305196  0.4127354181979472
  0.4991882211794237  0.6258742036827603  0.5806545850112647
  0.8741097384436324  0.5019295386680507  0.4114934402106620
  0.7493768239940647  0.6265630524922481  0.5822220504987250
  0.1250821136173985  0.7519025993964560  0.4108839424825415
 -0.0000414323125522  0.8764205844530694  0.5825758430679794
  0.3750312875184184  0.7525801711225147  0.4119505099413799
  0.2501770688396860  0.8758598453373653  0.5822139389350014
  0.6246184076552151  0.7518835315950106  0.4110408441648092
  0.4995591169636064  0.8759534042788084  0.5823978087396436
  0.8747783434193439  0.7515255269754045  0.4132879886063178
  0.7499799787770060  0.8764955464858689  0.5826631190542602
  0.3769686937788329  0.4232415584259654  0.6997311987540451
  0.3754253809320623  0.5166704544935208  0.7161212305468179
  0.3808348213628271  0.5183365474792657  0.7713239603978133
 
  0.00000000E+00  0.00000000E+00  0.00000000E+00
  0.00000000E+00  0.00000000E+00  0.00000000E+00
  0.00000000E+00  0.00000000E+00  0.00000000E+00
  0.00000000E+00  0.00000000E+00  0.00000000E+00
  0.00000000E+00  0.00000000E+00  0.00000000E+00
  0.00000000E+00  0.00000000E+00  0.00000000E+00
  0.00000000E+00  0.00000000E+00  0.00000000E+00
  0.00000000E+00  0.00000000E+00  0.00000000E+00
  0.00000000E+00  0.00000000E+00  0.00000000E+00
  0.00000000E+00  0.00000000E+00  0.00000000E+00
  0.00000000E+00  0.00000000E+00  0.00000000E+00
  0.00000000E+00  0.00000000E+00  0.00000000E+00
  0.00000000E+00  0.00000000E+00  0.00000000E+00
  0.00000000E+00  0.00000000E+00  0.00000000E+00
  0.00000000E+00  0.00000000E+00  0.00000000E+00
  0.00000000E+00  0.00000000E+00  0.00000000E+00
  0.00000000E+00  0.00000000E+00  0.00000000E+00
  0.00000000E+00  0.00000000E+00  0.00000000E+00
  0.00000000E+00  0.00000000E+00  0.00000000E+00
  0.00000000E+00  0.00000000E+00  0.00000000E+00
  0.00000000E+00  0.00000000E+00  0.00000000E+00
  0.00000000E+00  0.00000000E+00  0.00000000E+00
  0.00000000E+00  0.00000000E+00  0.00000000E+00
  0.00000000E+00  0.00000000E+00  0.00000000E+00
  0.00000000E+00  0.00000000E+00  0.00000000E+00
  0.00000000E+00  0.00000000E+00  0.00000000E+00
  0.00000000E+00  0.00000000E+00  0.00000000E+00
  0.00000000E+00  0.00000000E+00  0.00000000E+00
  0.00000000E+00  0.00000000E+00  0.00000000E+00
  0.00000000E+00  0.00000000E+00  0.00000000E+00
  0.00000000E+00  0.00000000E+00  0.00000000E+00
  0.00000000E+00  0.00000000E+00  0.00000000E+00
  0.00000000E+00  0.00000000E+00  0.00000000E+00
  0.00000000E+00  0.00000000E+00  0.00000000E+00
  0.00000000E+00  0.00000000E+00  0.00000000E+00
  0.00000000E+00  0.00000000E+00  0.00000000E+00
  0.00000000E+00  0.00000000E+00  0.00000000E+00
  0.00000000E+00  0.00000000E+00  0.00000000E+00
  0.00000000E+00  0.00000000E+00  0.00000000E+00
  0.00000000E+00  0.00000000E+00  0.00000000E+00
  0.00000000E+00  0.00000000E+00  0.00000000E+00
  0.00000000E+00  0.00000000E+00  0.00000000E+00
  0.00000000E+00  0.00000000E+00  0.00000000E+00
  0.00000000E+00  0.00000000E+00  0.00000000E+00
  0.00000000E+00  0.00000000E+00  0.00000000E+00
  0.00000000E+00  0.00000000E+00  0.00000000E+00
  0.00000000E+00  0.00000000E+00  0.00000000E+00
  0.00000000E+00  0.00000000E+00  0.00000000E+00
  0.00000000E+00  0.00000000E+00  0.00000000E+00
  0.00000000E+00  0.00000000E+00  0.00000000E+00
  0.00000000E+00  0.00000000E+00  0.00000000E+00
  0.00000000E+00  0.00000000E+00  0.00000000E+00
  0.00000000E+00  0.00000000E+00  0.00000000E+00
  0.00000000E+00  0.00000000E+00  0.00000000E+00
  0.00000000E+00  0.00000000E+00  0.00000000E+00
  0.00000000E+00  0.00000000E+00  0.00000000E+00
  0.00000000E+00  0.00000000E+00  0.00000000E+00
  0.00000000E+00  0.00000000E+00  0.00000000E+00
  0.00000000E+00  0.00000000E+00  0.00000000E+00
  0.00000000E+00  0.00000000E+00  0.00000000E+00
  0.00000000E+00  0.00000000E+00  0.00000000E+00
  0.00000000E+00  0.00000000E+00  0.00000000E+00
  0.00000000E+00  0.00000000E+00  0.00000000E+00
  0.00000000E+00  0.00000000E+00  0.00000000E+00
  0.00000000E+00  0.00000000E+00  0.00000000E+00
  0.00000000E+00  0.00000000E+00  0.00000000E+00
  0.00000000E+00  0.00000000E+00  0.00000000E+00
