CONTCAR\(2)                             
   1.00000000000000     
    11.3158998488999991    0.0000000000000000    0.0000000000000000
     0.0000000000000000   12.4995002747000008    0.0000000000000000
     0.0000000000000000    0.0000000000000000   18.9974002838000011
   Ta   Te   Ir   O    H 
     6    24     6     2     1
Direct
  0.0001923238562324  0.0510701583451619  0.5019456854407151
  0.1670526296736360  0.7307116316162813  0.4923536654822488
  0.3336164484049065  0.0510041811546732  0.5017529587932432
  0.5001681347328192  0.7305051676004775  0.4925761670736592
  0.6667007917378202  0.0510498757949188  0.5017416305173248
  0.8332969956255003  0.7307286230779260  0.4923007416913988
  0.1671031082449997  0.1055412965907924  0.6031797453939510
  0.0001486111295113  0.8467161449237537  0.5762703103480109
  0.0001922297856671  0.6765112709135040  0.3909113483084932
  0.1665161714836503  0.4345776135693573  0.4251597138700438
  0.1667650406620124  0.9348765047761922  0.4180090200951325
  0.0001563272066168  0.1942595812540171  0.3977370971391050
  0.0001109849934874  0.3474150557978028  0.5687549387481382
  0.1670817978860117  0.5870039204684502  0.5963333912286934
  0.5001413094507657  0.1051787262176485  0.6031550228728878
  0.3335767819934545  0.8468067566714194  0.5763042769965956
  0.3336945195789096  0.6770973683425611  0.3907557051824584
  0.5000706621358563  0.4347228300439848  0.4250191977367252
  0.5001855680712798  0.9348577828398127  0.4179028339588459
  0.3334282622490696  0.1949296085516973  0.3979368972581919
  0.3335614257219869  0.3480236607358906  0.5689126761548320
  0.5003115442078857  0.5862976015414474  0.5962347938070335
  0.8332758525110266  0.1055858140328248  0.6031500553950581
  0.6667820650431974  0.8468575507553322  0.5763047213353887
  0.6666485847129123  0.6771392335465105  0.3907094157327885
  0.8337723358279854  0.4345960350107973  0.4250522775820087
  0.8335802703845577  0.9349174683555672  0.4180268341385632
  0.6667302685174062  0.1949537347353125  0.3979136975564250
  0.6666832439747334  0.3480437160964854  0.5688502111253343
  0.8331090802739922  0.5869926331908968  0.5962505355256926
  0.0001450073837479  0.5359388169452343  0.4990017162084293
  0.1668370123581373  0.2463612946941310  0.4951839012965406
  0.3334584678902969  0.5361845932130889  0.4985217039940258
  0.5001111436291668  0.2464948160043269  0.4952247622408339
  0.6668079770419082  0.5361819686718364  0.4984151393044635
  0.8334068899152438  0.2463843491576653  0.4951255267797458
  0.4967465581205302  0.5515929549140307  0.7574277053849809
  0.4997217359626456  0.5885218815458368  0.8256787267885320
  0.5119416466204052  0.5232176573023796  0.8539452515134902
 
  0.00000000E+00  0.00000000E+00  0.00000000E+00
  0.00000000E+00  0.00000000E+00  0.00000000E+00
  0.00000000E+00  0.00000000E+00  0.00000000E+00
  0.00000000E+00  0.00000000E+00  0.00000000E+00
  0.00000000E+00  0.00000000E+00  0.00000000E+00
  0.00000000E+00  0.00000000E+00  0.00000000E+00
  0.00000000E+00  0.00000000E+00  0.00000000E+00
  0.00000000E+00  0.00000000E+00  0.00000000E+00
  0.00000000E+00  0.00000000E+00  0.00000000E+00
  0.00000000E+00  0.00000000E+00  0.00000000E+00
  0.00000000E+00  0.00000000E+00  0.00000000E+00
  0.00000000E+00  0.00000000E+00  0.00000000E+00
  0.00000000E+00  0.00000000E+00  0.00000000E+00
  0.00000000E+00  0.00000000E+00  0.00000000E+00
  0.00000000E+00  0.00000000E+00  0.00000000E+00
  0.00000000E+00  0.00000000E+00  0.00000000E+00
  0.00000000E+00  0.00000000E+00  0.00000000E+00
  0.00000000E+00  0.00000000E+00  0.00000000E+00
  0.00000000E+00  0.00000000E+00  0.00000000E+00
  0.00000000E+00  0.00000000E+00  0.00000000E+00
  0.00000000E+00  0.00000000E+00  0.00000000E+00
  0.00000000E+00  0.00000000E+00  0.00000000E+00
  0.00000000E+00  0.00000000E+00  0.00000000E+00
  0.00000000E+00  0.00000000E+00  0.00000000E+00
  0.00000000E+00  0.00000000E+00  0.00000000E+00
  0.00000000E+00  0.00000000E+00  0.00000000E+00
  0.00000000E+00  0.00000000E+00  0.00000000E+00
  0.00000000E+00  0.00000000E+00  0.00000000E+00
  0.00000000E+00  0.00000000E+00  0.00000000E+00
  0.00000000E+00  0.00000000E+00  0.00000000E+00
  0.00000000E+00  0.00000000E+00  0.00000000E+00
  0.00000000E+00  0.00000000E+00  0.00000000E+00
  0.00000000E+00  0.00000000E+00  0.00000000E+00
  0.00000000E+00  0.00000000E+00  0.00000000E+00
  0.00000000E+00  0.00000000E+00  0.00000000E+00
  0.00000000E+00  0.00000000E+00  0.00000000E+00
  0.00000000E+00  0.00000000E+00  0.00000000E+00
  0.00000000E+00  0.00000000E+00  0.00000000E+00
  0.00000000E+00  0.00000000E+00  0.00000000E+00
