 V12 O26                                
   1.00000000000000     
     3.5950186088060936    0.0000000000000000    0.0000000000000000
     0.0000000000000000   11.5594601070408629    0.0000000000000000
     0.0000000000000000    0.0000000000000000   23.1808092453219992
   V    O 
    12    26
Direct
  0.9999999999681819  0.3521683287855240  0.6569930021329071
  0.5000000002831868  0.8522054532013073  0.3430157122488211
  0.5000000000619025  0.8521709325585860  0.6569848126303413
  0.0000000002588436  0.6472259146162429  0.3430157487007577
  0.4999999999728431  0.1472329832354333  0.3430053123574410
  0.4999999997956692  0.1472002688603737  0.6569981154959024
  0.9999999998286526  0.3522045869899628  0.3430140235102215
  0.0000000001979501  0.6471918583798910  0.6569944551957221
  0.5000000000055351  0.8510217424965631  0.4999994143595856
  0.0000000001498393  0.6483865878856534  0.5000036033196622
  0.9999999997640927  0.3510185935877885  0.5000030754784177
  0.4999999997173887  0.1483950165027466  0.4999994891932644
  0.5000000002098375  0.8545428461007916  0.4142465904431063
  0.5000000000759428  0.8545208197417153  0.5857542231641233
  0.9999999997957190  0.3545306580685192  0.4142421687532902
  0.9999999998687485  0.3545092313777047  0.5857657753581762
  0.0000000002415845  0.6448269245248071  0.5857649995294949
  0.0000000002347775  0.6448535828675901  0.4142401376649545
  0.4999999997474660  0.1448524185972104  0.5857660969964513
  0.4999999998492086  0.1448782200100780  0.4142355010685677
  0.9999999997584652  0.1760194797843724  0.5000003356753098
  0.0000000000430163  0.8234008444544472  0.5000013697138712
  0.5000000001178861  0.6760215962265903  0.5000025554502514
  0.4999999997867945  0.3234040643343050  0.5000039875458313
  0.9999999999563585  0.1814360984784926  0.3228870023576533
  0.5000000002733955  0.6814311734610854  0.3229022420052132
  0.4999999998647837  0.3179932511889092  0.3229013376133167
  0.0000000002798615  0.8179851625658756  0.3229086063739146
  0.0000000000836096  0.8179496486210098  0.6770904433701759
  0.9999999998431974  0.1813942692842119  0.6771150114308355
  0.4999999998953371  0.3179523634326671  0.6771050294802663
  0.5000000001434302  0.6813962211183480  0.6771026353972900
  0.5000000001914842  0.9997060942596505  0.3199019230463307
  0.4999999998771116  0.9996669583207947  0.6800991351721350
  0.0000000000980478  0.4996676247151228  0.6801071253800899
  0.0000000000013856  0.4997070183975225  0.3199007053372469
  0.4999999998752500  0.9997123674559276  0.4999993133071428
  0.9999999998832152  0.4997047955121872  0.5000031412213488
 
  0.00000000E+00  0.00000000E+00  0.00000000E+00
  0.00000000E+00  0.00000000E+00  0.00000000E+00
  0.00000000E+00  0.00000000E+00  0.00000000E+00
  0.00000000E+00  0.00000000E+00  0.00000000E+00
  0.00000000E+00  0.00000000E+00  0.00000000E+00
  0.00000000E+00  0.00000000E+00  0.00000000E+00
  0.00000000E+00  0.00000000E+00  0.00000000E+00
  0.00000000E+00  0.00000000E+00  0.00000000E+00
  0.00000000E+00  0.00000000E+00  0.00000000E+00
  0.00000000E+00  0.00000000E+00  0.00000000E+00
  0.00000000E+00  0.00000000E+00  0.00000000E+00
  0.00000000E+00  0.00000000E+00  0.00000000E+00
  0.00000000E+00  0.00000000E+00  0.00000000E+00
  0.00000000E+00  0.00000000E+00  0.00000000E+00
  0.00000000E+00  0.00000000E+00  0.00000000E+00
  0.00000000E+00  0.00000000E+00  0.00000000E+00
  0.00000000E+00  0.00000000E+00  0.00000000E+00
  0.00000000E+00  0.00000000E+00  0.00000000E+00
  0.00000000E+00  0.00000000E+00  0.00000000E+00
  0.00000000E+00  0.00000000E+00  0.00000000E+00
  0.00000000E+00  0.00000000E+00  0.00000000E+00
  0.00000000E+00  0.00000000E+00  0.00000000E+00
  0.00000000E+00  0.00000000E+00  0.00000000E+00
  0.00000000E+00  0.00000000E+00  0.00000000E+00
  0.00000000E+00  0.00000000E+00  0.00000000E+00
  0.00000000E+00  0.00000000E+00  0.00000000E+00
  0.00000000E+00  0.00000000E+00  0.00000000E+00
  0.00000000E+00  0.00000000E+00  0.00000000E+00
  0.00000000E+00  0.00000000E+00  0.00000000E+00
  0.00000000E+00  0.00000000E+00  0.00000000E+00
  0.00000000E+00  0.00000000E+00  0.00000000E+00
  0.00000000E+00  0.00000000E+00  0.00000000E+00
  0.00000000E+00  0.00000000E+00  0.00000000E+00
  0.00000000E+00  0.00000000E+00  0.00000000E+00
  0.00000000E+00  0.00000000E+00  0.00000000E+00
  0.00000000E+00  0.00000000E+00  0.00000000E+00
  0.00000000E+00  0.00000000E+00  0.00000000E+00
  0.00000000E+00  0.00000000E+00  0.00000000E+00
