 La2 Te4 Se2                            
   1.00000000000000     
     4.3105183884153515    0.0000000000000000    0.0000000000000000
     0.0000000000000000    4.3114415706024642    0.0000000000000000
     0.0000000000000000    0.0000000000000000   24.0856699630559987
   La   Te   Se
     2     4     2
Direct
  0.5000000246925751  0.0000000879591013  0.5770902134116227
  0.9999999612399790  0.4999999211325203  0.4229098646979566
  0.9999999962093966  0.9999999961536759  0.6886305010948206
  0.5000000020778330  0.5000000055142451  0.3113694501802016
  0.5000000125070585  0.5000000052930034  0.6886153277617879
  0.9999999907031594  0.9999999840147780  0.3113846370573157
  0.0000000002408100  0.4999999830627075  0.5494935990517078
  0.5000000123292025  0.0000000168699614  0.4505064067445872
 
  0.00000000E+00  0.00000000E+00  0.00000000E+00
  0.00000000E+00  0.00000000E+00  0.00000000E+00
  0.00000000E+00  0.00000000E+00  0.00000000E+00
  0.00000000E+00  0.00000000E+00  0.00000000E+00
  0.00000000E+00  0.00000000E+00  0.00000000E+00
  0.00000000E+00  0.00000000E+00  0.00000000E+00
  0.00000000E+00  0.00000000E+00  0.00000000E+00
  0.00000000E+00  0.00000000E+00  0.00000000E+00
