 Te4 Mo2                                
   1.00000000000000     
     3.4041173897931762    0.0000000000000000    0.0000000000000000
     0.0000000000000000    6.3525057923191213    0.0000000000000000
     0.0000000000000000    0.0000000000000000   19.1487624153360017
   Te   Mo
     4     2
Direct
  0.7500000010907398  0.4321084481929092  0.4216204767844931
  0.2500000033766069  0.5679032589556234  0.5783778286210118
  0.2500000010661270  0.9226047813892992  0.3916709977727568
  0.7499999957320628  0.0773910536586254  0.6083313689766912
  0.7500000021853754  0.8177096207299449  0.4954486460934006
  0.2499999965490885  0.1822828370735987  0.5045506817516469
 
  0.00000000E+00  0.00000000E+00  0.00000000E+00
  0.00000000E+00  0.00000000E+00  0.00000000E+00
  0.00000000E+00  0.00000000E+00  0.00000000E+00
  0.00000000E+00  0.00000000E+00  0.00000000E+00
  0.00000000E+00  0.00000000E+00  0.00000000E+00
  0.00000000E+00  0.00000000E+00  0.00000000E+00
