CONTCAR\(3)                             
   1.00000000000000     
    10.4815998077000003    0.0000000000000000    0.0000000000000000
     0.0000000000000000   10.4815998077000003    0.0000000000000000
     0.0000000000000000    0.0000000000000000   21.6266002654999987
   Hf   Si   Se   O    H 
    18    18    18     2     1
Direct
  0.1750959616618246  0.0001146707831836  0.6006733901865928
  0.0086840287861918  0.1669629222385893  0.4019324815632501
  0.5101891982978017  0.0020282861113330  0.5992627055351676
  0.3411447242506327  0.1670258879875135  0.4019845022786086
  0.8397377652464826  0.0019642207516384  0.5992228765837240
  0.6750045971802336  0.1669730455651361  0.4012511983535134
  0.1743563149434095  0.3335583313267563  0.6005683223093570
  0.0089711243075925  0.5009751819305421  0.4032648313392997
  0.5098807684313371  0.3319462062285794  0.5991154952154432
  0.3408561599212021  0.5009569798932247  0.4033545603007411
  0.8395588471706219  0.3315345117580719  0.5991857553975137
  0.6749714655666352  0.5009464569200617  0.4020711092663660
  0.1773980420780958  0.6669466419104566  0.6122560507901511
  0.0090523458819760  0.8330051571395671  0.4033360626796494
  0.5082331938611730  0.6671848482773441  0.6008210976699857
  0.3408958434023219  0.8331094691028582  0.4033115208356151
  0.8421268417517496  0.6666597807662598  0.6008438134392691
  0.6749935698888905  0.8331381240961306  0.4020893859652048
  0.0085780238342252  0.0002523782304706  0.5011943563793864
  0.1749324720658763  0.1668673923195882  0.5012029664053443
  0.3414151534656114  0.0004012686570860  0.5011768861213781
  0.5082623234095820  0.1669013476991310  0.5001601387817161
  0.6750736646364217  0.0000882549333028  0.5002088604932169
  0.8417302051128743  0.1668547794730912  0.5001645951540681
  0.0084264003162247  0.3334689987629105  0.5010877037460446
  0.1747592650211374  0.5009519745956723  0.5031963399250330
  0.3412317520988140  0.3335400058112654  0.5010985153084775
  0.5081672372521098  0.5006796346674065  0.5012233657555782
  0.6749141920769617  0.3337801692182722  0.5001410734182201
  0.8416771690751190  0.5006191019370831  0.5012870723356073
  0.0096760264286075  0.6669340274817444  0.5034821722915055
  0.1749431445376715  0.8329023730776441  0.5032418191070036
  0.3403242985999384  0.6670899384688553  0.5034784368817284
  0.5083013992546483  0.8332797222412509  0.5012524540946970
  0.6750966593272310  0.6669427000782022  0.5014278842966675
  0.8418139550945156  0.8331358114303029  0.5013105880013882
  0.0080303283080241  0.1665780907823660  0.6549324990372725
  0.1748455974167342  0.9996356744248018  0.3472630834339512
  0.3416328416253123  0.1671192478858288  0.6548333057657061
  0.5077268154548236  0.9997205551750170  0.3470713127654506
  0.6747575351572195  0.1669102252108416  0.6561595649208414
  0.8422189554729087  0.9996288274361547  0.3469979845763405
  0.0001260401383547  0.4915828439093630  0.6544994327220763
  0.1750145739100617  0.3343855016530313  0.3472400965551188
  0.3487006711076788  0.4918751910856471  0.6534266233997243
  0.5077805803753606  0.3343942872274184  0.3469989019387185
  0.6747662808704860  0.5001858762489348  0.6548588243549744
  0.8421923359980923  0.3344435197364106  0.3470255144507988
  0.0009349514961343  0.8414734132247261  0.6544872103232464
  0.1749454685544265  0.6670581912003541  0.3478609353368967
  0.3499989143289781  0.8424216727723532  0.6547050869773230
  0.5075763575079293  0.6670427113500992  0.3474104350450062
  0.6753204073759420  0.8335494120170424  0.6549859912551099
  0.8423101337120258  0.6671198803491762  0.3473586450193977
  0.1623505204088360  0.6747255905140008  0.7089189158701004
  0.2611762596356471  0.6424851702037202  0.7541203871794480
  0.2166501929092917  0.6697034777221873  0.7916856908659256
 
  0.00000000E+00  0.00000000E+00  0.00000000E+00
  0.00000000E+00  0.00000000E+00  0.00000000E+00
  0.00000000E+00  0.00000000E+00  0.00000000E+00
  0.00000000E+00  0.00000000E+00  0.00000000E+00
  0.00000000E+00  0.00000000E+00  0.00000000E+00
  0.00000000E+00  0.00000000E+00  0.00000000E+00
  0.00000000E+00  0.00000000E+00  0.00000000E+00
  0.00000000E+00  0.00000000E+00  0.00000000E+00
  0.00000000E+00  0.00000000E+00  0.00000000E+00
  0.00000000E+00  0.00000000E+00  0.00000000E+00
  0.00000000E+00  0.00000000E+00  0.00000000E+00
  0.00000000E+00  0.00000000E+00  0.00000000E+00
  0.00000000E+00  0.00000000E+00  0.00000000E+00
  0.00000000E+00  0.00000000E+00  0.00000000E+00
  0.00000000E+00  0.00000000E+00  0.00000000E+00
  0.00000000E+00  0.00000000E+00  0.00000000E+00
  0.00000000E+00  0.00000000E+00  0.00000000E+00
  0.00000000E+00  0.00000000E+00  0.00000000E+00
  0.00000000E+00  0.00000000E+00  0.00000000E+00
  0.00000000E+00  0.00000000E+00  0.00000000E+00
  0.00000000E+00  0.00000000E+00  0.00000000E+00
  0.00000000E+00  0.00000000E+00  0.00000000E+00
  0.00000000E+00  0.00000000E+00  0.00000000E+00
  0.00000000E+00  0.00000000E+00  0.00000000E+00
  0.00000000E+00  0.00000000E+00  0.00000000E+00
  0.00000000E+00  0.00000000E+00  0.00000000E+00
  0.00000000E+00  0.00000000E+00  0.00000000E+00
  0.00000000E+00  0.00000000E+00  0.00000000E+00
  0.00000000E+00  0.00000000E+00  0.00000000E+00
  0.00000000E+00  0.00000000E+00  0.00000000E+00
  0.00000000E+00  0.00000000E+00  0.00000000E+00
  0.00000000E+00  0.00000000E+00  0.00000000E+00
  0.00000000E+00  0.00000000E+00  0.00000000E+00
  0.00000000E+00  0.00000000E+00  0.00000000E+00
  0.00000000E+00  0.00000000E+00  0.00000000E+00
  0.00000000E+00  0.00000000E+00  0.00000000E+00
  0.00000000E+00  0.00000000E+00  0.00000000E+00
  0.00000000E+00  0.00000000E+00  0.00000000E+00
  0.00000000E+00  0.00000000E+00  0.00000000E+00
  0.00000000E+00  0.00000000E+00  0.00000000E+00
  0.00000000E+00  0.00000000E+00  0.00000000E+00
  0.00000000E+00  0.00000000E+00  0.00000000E+00
  0.00000000E+00  0.00000000E+00  0.00000000E+00
  0.00000000E+00  0.00000000E+00  0.00000000E+00
  0.00000000E+00  0.00000000E+00  0.00000000E+00
  0.00000000E+00  0.00000000E+00  0.00000000E+00
  0.00000000E+00  0.00000000E+00  0.00000000E+00
  0.00000000E+00  0.00000000E+00  0.00000000E+00
  0.00000000E+00  0.00000000E+00  0.00000000E+00
  0.00000000E+00  0.00000000E+00  0.00000000E+00
  0.00000000E+00  0.00000000E+00  0.00000000E+00
  0.00000000E+00  0.00000000E+00  0.00000000E+00
  0.00000000E+00  0.00000000E+00  0.00000000E+00
  0.00000000E+00  0.00000000E+00  0.00000000E+00
  0.00000000E+00  0.00000000E+00  0.00000000E+00
  0.00000000E+00  0.00000000E+00  0.00000000E+00
  0.00000000E+00  0.00000000E+00  0.00000000E+00
