CONTCAR\(14)                            
   1.00000000000000     
    11.5354003905999996    0.0000000000000000    0.0000000000000000
     0.0000000000000000   13.3458003997999999    0.0000000000000000
     0.0000000000000000    0.0000000000000000   18.6074008942000013
   Zr   Ti   Te   O 
     6     6    24     1
Direct
  0.1724792194202158  0.2529928605112733  0.5044114344749757
  0.5008551224467805  0.2490053028943217  0.4999105592315009
  0.8375926329751592  0.2462596438761659  0.4978266528292674
  0.1788519085027525  0.7229376355093586  0.5220608896401978
  0.5114486033306853  0.7541934036594939  0.5000938669388457
  0.8414829024002413  0.7559496863454316  0.5046789015515811
  0.0095299290446303  0.9994421092752730  0.5004050835922538
  0.3348093627927020  0.9986184399808933  0.5038464834647030
  0.6715620927457016  0.0035468854992130  0.5007067466338737
  0.9951892798696870  0.4899368708544778  0.5012044664558252
  0.3437609107249786  0.5140454325283478  0.5071969352003226
  0.6626828016749003  0.4919327225238125  0.4931235534074569
  0.1717237483284181  0.0774212679591635  0.5975933379387977
  0.1726146749032983  0.4270640787207284  0.4135302125605852
  0.9976021523858764  0.3280624021851641  0.5998104274491074
  0.0080638153906015  0.1611499734309966  0.4040629340284890
  0.5074613051456479  0.0808200292094471  0.5956119194518746
  0.5040281872906430  0.4217809283059152  0.4026705242698371
  0.3391669397821290  0.3432543526898202  0.5989371786130915
  0.3337744444750389  0.1612414879714552  0.4051393877459429
  0.8375203628463074  0.0788465208446915  0.5951279915980272
  0.8366996274864819  0.4215777678666610  0.4051796352567403
  0.6690126931371678  0.3377863798074260  0.5941870757749420
  0.6683719861243387  0.1595144348496394  0.4015427467717694
  0.0577871768191134  0.5844093859370884  0.6263189199391223
  0.1745559657879173  0.9077461135565464  0.4165063813740655
  0.0054319448247812  0.8452041724094558  0.6019273013442650
  0.0094700450323403  0.6590600866725829  0.4135867299575590
  0.5250257536831527  0.5805320387517277  0.5964379127057731
  0.5028413330486845  0.9236939111942097  0.4070849100244639
  0.3452538228257238  0.8394823037848919  0.6023446588893561
  0.3395204445789390  0.6669917990083141  0.4033955133005163
  0.8166527074600730  0.5852697023286935  0.6070438211480990
  0.8410488428702062  0.9216547891291269  0.4078198098036281
  0.6711101959495983  0.8433466882615246  0.5996379386706945
  0.6774944768680582  0.6645785202066518  0.4052850618905404
  0.2607226610270681  0.5972100854600098  0.5610318340719234
 
  0.00000000E+00  0.00000000E+00  0.00000000E+00
  0.00000000E+00  0.00000000E+00  0.00000000E+00
  0.00000000E+00  0.00000000E+00  0.00000000E+00
  0.00000000E+00  0.00000000E+00  0.00000000E+00
  0.00000000E+00  0.00000000E+00  0.00000000E+00
  0.00000000E+00  0.00000000E+00  0.00000000E+00
  0.00000000E+00  0.00000000E+00  0.00000000E+00
  0.00000000E+00  0.00000000E+00  0.00000000E+00
  0.00000000E+00  0.00000000E+00  0.00000000E+00
  0.00000000E+00  0.00000000E+00  0.00000000E+00
  0.00000000E+00  0.00000000E+00  0.00000000E+00
  0.00000000E+00  0.00000000E+00  0.00000000E+00
  0.00000000E+00  0.00000000E+00  0.00000000E+00
  0.00000000E+00  0.00000000E+00  0.00000000E+00
  0.00000000E+00  0.00000000E+00  0.00000000E+00
  0.00000000E+00  0.00000000E+00  0.00000000E+00
  0.00000000E+00  0.00000000E+00  0.00000000E+00
  0.00000000E+00  0.00000000E+00  0.00000000E+00
  0.00000000E+00  0.00000000E+00  0.00000000E+00
  0.00000000E+00  0.00000000E+00  0.00000000E+00
  0.00000000E+00  0.00000000E+00  0.00000000E+00
  0.00000000E+00  0.00000000E+00  0.00000000E+00
  0.00000000E+00  0.00000000E+00  0.00000000E+00
  0.00000000E+00  0.00000000E+00  0.00000000E+00
  0.00000000E+00  0.00000000E+00  0.00000000E+00
  0.00000000E+00  0.00000000E+00  0.00000000E+00
  0.00000000E+00  0.00000000E+00  0.00000000E+00
  0.00000000E+00  0.00000000E+00  0.00000000E+00
  0.00000000E+00  0.00000000E+00  0.00000000E+00
  0.00000000E+00  0.00000000E+00  0.00000000E+00
  0.00000000E+00  0.00000000E+00  0.00000000E+00
  0.00000000E+00  0.00000000E+00  0.00000000E+00
  0.00000000E+00  0.00000000E+00  0.00000000E+00
  0.00000000E+00  0.00000000E+00  0.00000000E+00
  0.00000000E+00  0.00000000E+00  0.00000000E+00
  0.00000000E+00  0.00000000E+00  0.00000000E+00
  0.00000000E+00  0.00000000E+00  0.00000000E+00
