 Ni2 Te2                                
   1.00000000000000     
     3.7795414259188420    0.0000000000000000    0.0000000000000000
     1.8897707129594210    3.2731898209136561    0.0000000000000000
     0.0000000000000000    0.0000000000000000   18.6788405406719988
   Ni   Te
     2     2
Direct
  0.3333329510843328  0.3333339831094478  0.5362633947258352
  0.0000000202606835 -0.0000010138658746  0.4637608971245445
  0.3333327954445061  0.3333336353716338  0.3989105286767260
  0.0000002332104836 -0.0000006046152014  0.6010651794728969
 
  0.00000000E+00  0.00000000E+00  0.00000000E+00
  0.00000000E+00  0.00000000E+00  0.00000000E+00
  0.00000000E+00  0.00000000E+00  0.00000000E+00
  0.00000000E+00  0.00000000E+00  0.00000000E+00
