CONTCAR                                 
   1.00000000000000     
    13.4492998122999996    0.0000000000000000    0.0000000000000000
     0.0000000000000000   13.4492998122999996    0.0000000000000000
     0.0000000000000000    0.0000000000000000   22.2562007904000012
   Ta   Se   O    H 
    64    32     1     1
Direct
  0.1249377882973706 -0.0000000000000000  0.6067538586548730
  0.0004626861570903  0.1252660429918898  0.3927074175395781
  0.0001960590097456  0.1246874072376907  0.5337384504455746
  0.1253623249793004 -0.0000000000000000  0.4655064227673324
  0.3757007055306866 -0.0000000000000000  0.6069624697371390
  0.2502378943527067  0.1250130457918527  0.3932566135467834
  0.2505698865917213  0.1251102903782659  0.5343104680465823
  0.3753772211435291 -0.0000000000000000  0.4659565992856588
  0.6263139495821614 -0.0000000000000000  0.6067538177553596
  0.5002663991966374  0.1250321696175548  0.3932364255010721
  0.5003740118754458  0.1250772119071105  0.5342611813495067
  0.6254254544907579 -0.0000000000000000  0.4654916423751499
  0.8757809203263971 -0.0000000000000000  0.6068806129546538
  0.7500364817489296  0.1251989478951625  0.3927171165562229
  0.7508460151424937  0.1246465480879543  0.5337024558438391
  0.8754486981323708 -0.0000000000000000  0.4653618378681860
  0.1236156640451981  0.2484325359875149  0.6063861259705645
  0.0003213499049541  0.3750834452209974  0.3933084599773376
  0.0004933315880398  0.3751327341580499  0.5343996022093730
  0.1253850843483177  0.2500054078723633  0.4659239585954617
  0.3758790924924522  0.2510401854244449  0.6080397419589920
  0.2499108594079140  0.3747848916464157  0.3942786622557127
  0.2514161068080029  0.3761654987568953  0.5359454106800111
  0.3753724387819316  0.2508561624280019  0.4666458701013422
  0.6277284966040335  0.2481408799628470  0.6062875459814275
  0.5006249907543320  0.3747257255612988  0.3942342699040479
  0.4995687138303705  0.3761790083726315  0.5358487465559998
  0.6254350770440836  0.2499721989200507  0.4658699345691908
  0.8756699578280089  0.2494290124682157  0.6067930428086479
  0.7501402247637601  0.3750453652755283  0.3932585132149855
  0.7504695640459975  0.3751227133024528  0.5343424342753670
  0.8754150003410662  0.2499786063437458  0.4655364540229418
  0.1256879151008603  0.5000000000000000  0.6083219587483838
  0.0003213499049541  0.6249165547790025  0.3933084599773376
  0.0004933315880398  0.6248672658419500  0.5343996022093730
  0.1260813429044172  0.5000000000000000  0.4666928963504263
  0.3754257555786153  0.5000000000000000  0.6206911211823608
  0.2499108594079140  0.6252151083535845  0.3942786622557127
  0.2514161068080029  0.6238345012431046  0.5359454106800111
  0.3753351533812676  0.5000000000000000  0.4671110028528283
  0.6251827237399996  0.5000000000000000  0.6082994877309620
  0.5006249907543320  0.6252742744387012  0.3942342699040479
  0.4995687138303705  0.6238209916273684  0.5358487465559998
  0.6246509887402558  0.5000000000000000  0.4666407760689620
  0.8755164824537109  0.5000000000000000  0.6071879745847989
  0.7501402247637601  0.6249546347244718  0.3932585132149855
  0.7504695640459975  0.6248772866975473  0.5343424342753670
  0.8753799194641743  0.5000000000000000  0.4660343144005286
  0.1236156640451981  0.7515674820124867  0.6063861259705645
  0.0004626861570903  0.8747339300081115  0.3927074175395781
  0.0001960590097456  0.8753125657623106  0.5337384504455746
  0.1253850843483177  0.7499946101276381  0.4659239585954617
  0.3758790924924522  0.7489598325755565  0.6080397419589920
  0.2502378943527067  0.8749869272081487  0.3932566135467834
  0.2505698865917213  0.8748896826217353  0.5343104680465823
  0.3753724387819316  0.7491438555719997  0.4666458701013422
  0.6277284966040335  0.7518591380371545  0.6062875459814275
  0.5002663991966374  0.8749678033824464  0.3932364255010721
  0.5003740118754458  0.8749227610928906  0.5342611813495067
  0.6254350770440836  0.7500278190799439  0.4658699345691908
  0.8756699578280089  0.7505710055317858  0.6067930428086479
  0.7500364817489296  0.8748010251048386  0.3927171165562229
  0.7508460151424937  0.8753534249120470  0.5337024558438391
  0.8754150003410662  0.7500214116562558  0.4655364540229418
  0.0000552426856773  0.1244704125870192  0.6637568787982103
  0.1255555081236917 -0.0000000000000000  0.3363844783861324
  0.2503008745418160  0.1242140207456579  0.6631868486583077
  0.3751551739557906 -0.0000000000000000  0.3366426458949822
  0.5010192652209712  0.1242282775768647  0.6632727712390922
  0.6247914124214148 -0.0000000000000000  0.3363752144445453
  0.7514437253149819  0.1243693224720429  0.6636396510768653
  0.8752902149252152 -0.0000000000000000  0.3362729731337789
  0.9995462033900685  0.3747328675689362  0.6636052787813105
  0.1253685085393765  0.2502170253911073  0.3366069860335620
  0.2439808242593511  0.3682259016948571  0.6639970645180606
  0.3752355292153638  0.2500907726540922  0.3373450702684319
  0.5076023843843342  0.3681309337718789  0.6637773060700317
  0.6252417190765305  0.2500909542707282  0.3365021962154516
  0.7515588546358697  0.3745850867348187  0.6634460769398715
  0.8751518573185622  0.2504305279748124  0.3364855028002633
  0.9995462033900685  0.6252671324310639  0.6636052787813105
  0.1252897534934495  0.5000000000000000  0.3371773831353062
  0.2439808242593511  0.6317740983051358  0.6639970645180606
  0.3752476175040044  0.5000000000000000  0.3381707399662793
  0.5076023843843342  0.6318690662281209  0.6637773060700317
  0.6251355201594000  0.5000000000000000  0.3371743124229811
  0.7515588546358697  0.6254149132651813  0.6634460769398715
  0.8751600339627724  0.5000000000000000  0.3367194651881369
  0.0000552426856773  0.8755295604129821  0.6637568787982103
  0.1253685085393765  0.7497829926088942  0.3366069860335620
  0.2503008745418160  0.8757859522543432  0.6631868486583077
  0.3752355292153638  0.7499092453459091  0.3373450702684319
  0.5010192652209712  0.8757716954231367  0.6632727712390922
  0.6252417190765305  0.7499090637292734  0.3365021962154516
  0.7514437253149819  0.8756306505279584  0.6636396510768653
  0.8751518573185622  0.7495694900251890  0.3364855028002633
  0.3844698565181833  0.5000900189999982  0.7171765384401039
  0.3233866865979306  0.5000900189999982  0.7405766520502095
 
  0.00000000E+00  0.00000000E+00  0.00000000E+00
  0.00000000E+00  0.00000000E+00  0.00000000E+00
  0.00000000E+00  0.00000000E+00  0.00000000E+00
  0.00000000E+00  0.00000000E+00  0.00000000E+00
  0.00000000E+00  0.00000000E+00  0.00000000E+00
  0.00000000E+00  0.00000000E+00  0.00000000E+00
  0.00000000E+00  0.00000000E+00  0.00000000E+00
  0.00000000E+00  0.00000000E+00  0.00000000E+00
  0.00000000E+00  0.00000000E+00  0.00000000E+00
  0.00000000E+00  0.00000000E+00  0.00000000E+00
  0.00000000E+00  0.00000000E+00  0.00000000E+00
  0.00000000E+00  0.00000000E+00  0.00000000E+00
  0.00000000E+00  0.00000000E+00  0.00000000E+00
  0.00000000E+00  0.00000000E+00  0.00000000E+00
  0.00000000E+00  0.00000000E+00  0.00000000E+00
  0.00000000E+00  0.00000000E+00  0.00000000E+00
  0.00000000E+00  0.00000000E+00  0.00000000E+00
  0.00000000E+00  0.00000000E+00  0.00000000E+00
  0.00000000E+00  0.00000000E+00  0.00000000E+00
  0.00000000E+00  0.00000000E+00  0.00000000E+00
  0.00000000E+00  0.00000000E+00  0.00000000E+00
  0.00000000E+00  0.00000000E+00  0.00000000E+00
  0.00000000E+00  0.00000000E+00  0.00000000E+00
  0.00000000E+00  0.00000000E+00  0.00000000E+00
  0.00000000E+00  0.00000000E+00  0.00000000E+00
  0.00000000E+00  0.00000000E+00  0.00000000E+00
  0.00000000E+00  0.00000000E+00  0.00000000E+00
  0.00000000E+00  0.00000000E+00  0.00000000E+00
  0.00000000E+00  0.00000000E+00  0.00000000E+00
  0.00000000E+00  0.00000000E+00  0.00000000E+00
  0.00000000E+00  0.00000000E+00  0.00000000E+00
  0.00000000E+00  0.00000000E+00  0.00000000E+00
  0.00000000E+00  0.00000000E+00  0.00000000E+00
  0.00000000E+00  0.00000000E+00  0.00000000E+00
  0.00000000E+00  0.00000000E+00  0.00000000E+00
  0.00000000E+00  0.00000000E+00  0.00000000E+00
  0.00000000E+00  0.00000000E+00  0.00000000E+00
  0.00000000E+00  0.00000000E+00  0.00000000E+00
  0.00000000E+00  0.00000000E+00  0.00000000E+00
  0.00000000E+00  0.00000000E+00  0.00000000E+00
  0.00000000E+00  0.00000000E+00  0.00000000E+00
  0.00000000E+00  0.00000000E+00  0.00000000E+00
  0.00000000E+00  0.00000000E+00  0.00000000E+00
  0.00000000E+00  0.00000000E+00  0.00000000E+00
  0.00000000E+00  0.00000000E+00  0.00000000E+00
  0.00000000E+00  0.00000000E+00  0.00000000E+00
  0.00000000E+00  0.00000000E+00  0.00000000E+00
  0.00000000E+00  0.00000000E+00  0.00000000E+00
  0.00000000E+00  0.00000000E+00  0.00000000E+00
  0.00000000E+00  0.00000000E+00  0.00000000E+00
  0.00000000E+00  0.00000000E+00  0.00000000E+00
  0.00000000E+00  0.00000000E+00  0.00000000E+00
  0.00000000E+00  0.00000000E+00  0.00000000E+00
  0.00000000E+00  0.00000000E+00  0.00000000E+00
  0.00000000E+00  0.00000000E+00  0.00000000E+00
  0.00000000E+00  0.00000000E+00  0.00000000E+00
  0.00000000E+00  0.00000000E+00  0.00000000E+00
  0.00000000E+00  0.00000000E+00  0.00000000E+00
  0.00000000E+00  0.00000000E+00  0.00000000E+00
  0.00000000E+00  0.00000000E+00  0.00000000E+00
  0.00000000E+00  0.00000000E+00  0.00000000E+00
  0.00000000E+00  0.00000000E+00  0.00000000E+00
  0.00000000E+00  0.00000000E+00  0.00000000E+00
  0.00000000E+00  0.00000000E+00  0.00000000E+00
  0.00000000E+00  0.00000000E+00  0.00000000E+00
  0.00000000E+00  0.00000000E+00  0.00000000E+00
  0.00000000E+00  0.00000000E+00  0.00000000E+00
  0.00000000E+00  0.00000000E+00  0.00000000E+00
  0.00000000E+00  0.00000000E+00  0.00000000E+00
  0.00000000E+00  0.00000000E+00  0.00000000E+00
  0.00000000E+00  0.00000000E+00  0.00000000E+00
  0.00000000E+00  0.00000000E+00  0.00000000E+00
  0.00000000E+00  0.00000000E+00  0.00000000E+00
  0.00000000E+00  0.00000000E+00  0.00000000E+00
  0.00000000E+00  0.00000000E+00  0.00000000E+00
  0.00000000E+00  0.00000000E+00  0.00000000E+00
  0.00000000E+00  0.00000000E+00  0.00000000E+00
  0.00000000E+00  0.00000000E+00  0.00000000E+00
  0.00000000E+00  0.00000000E+00  0.00000000E+00
  0.00000000E+00  0.00000000E+00  0.00000000E+00
  0.00000000E+00  0.00000000E+00  0.00000000E+00
  0.00000000E+00  0.00000000E+00  0.00000000E+00
  0.00000000E+00  0.00000000E+00  0.00000000E+00
  0.00000000E+00  0.00000000E+00  0.00000000E+00
  0.00000000E+00  0.00000000E+00  0.00000000E+00
  0.00000000E+00  0.00000000E+00  0.00000000E+00
  0.00000000E+00  0.00000000E+00  0.00000000E+00
  0.00000000E+00  0.00000000E+00  0.00000000E+00
  0.00000000E+00  0.00000000E+00  0.00000000E+00
  0.00000000E+00  0.00000000E+00  0.00000000E+00
  0.00000000E+00  0.00000000E+00  0.00000000E+00
  0.00000000E+00  0.00000000E+00  0.00000000E+00
  0.00000000E+00  0.00000000E+00  0.00000000E+00
  0.00000000E+00  0.00000000E+00  0.00000000E+00
  0.00000000E+00  0.00000000E+00  0.00000000E+00
  0.00000000E+00  0.00000000E+00  0.00000000E+00
  0.00000000E+00  0.00000000E+00  0.00000000E+00
  0.00000000E+00  0.00000000E+00  0.00000000E+00
