CONTCAR\(5)                             
   1.00000000000000     
    11.7685003281000000    0.0000000000000000    0.0000000000000000
     0.0000000000000000   11.7685003281000000    0.0000000000000000
     0.0000000000000000    0.0000000000000000   18.8055992126000007
   La   I    O 
     9    18     1
Direct
  0.0003019579417823 -0.0003304105905959  0.4860441793625017
  0.3333370984918618 -0.0081088015013235  0.4870291408560292
  0.6662871992558815 -0.0003828307441177  0.4860444729926843
  0.0003608253360802  0.3336908363360814  0.4860665440847647
  0.3333264717851320  0.3413820928777168  0.4870143082459338
  0.6663396194094025  0.3336319689417833  0.4860441793625017
  0.0080520818777157  0.6666664907851293  0.4870143082459338
  0.3332111919103386  0.6665512109103370  0.6847797410338741
  0.6585612284986754  0.6666771174918595  0.4870291408560292
  0.1705311006404193  0.1666871211888089  0.3874921027215197
  0.1697954852381724  0.1666194524843083  0.5866361848163257
  0.4961875853072233  0.1666416281330517  0.3875149000437788
  0.4968883904537074  0.1666754530194166  0.5866647101007397
  0.8334300644439645  0.1667700934439633  0.3839642786120833
  0.8333655689718643  0.1667055979718626  0.5883805128917110
  0.1628382928551528  0.4961682938551533  0.3871582468717260
  0.1573498702823061  0.4906798712823065  0.5955946754650250
  0.5038342938878306  0.4960909899451654  0.3871576765977378
  0.5091762009736525  0.4907756819144627  0.5956445212450127
  0.8333470921888103  0.5038611016404191  0.3874921027215197
  0.8332794234843095  0.5031254862381720  0.5866361848163257
  0.1627609889451650  0.8371642638878317  0.3871576765977378
  0.1574456809144625  0.8425061709736537  0.5956445212450127
  0.5038294404111360  0.8371594104111371  0.3871943993862270
  0.5091776977478936  0.8425076677478948  0.5956186189989536
  0.8333015991330531  0.8295175553072246  0.3875149000437788
  0.8333354240194176  0.8302183604537088  0.5866647101007397
  0.3332380675946007  0.6666080495945940  0.7827826216837895
 
  0.00000000E+00  0.00000000E+00  0.00000000E+00
  0.00000000E+00  0.00000000E+00  0.00000000E+00
  0.00000000E+00  0.00000000E+00  0.00000000E+00
  0.00000000E+00  0.00000000E+00  0.00000000E+00
  0.00000000E+00  0.00000000E+00  0.00000000E+00
  0.00000000E+00  0.00000000E+00  0.00000000E+00
  0.00000000E+00  0.00000000E+00  0.00000000E+00
  0.00000000E+00  0.00000000E+00  0.00000000E+00
  0.00000000E+00  0.00000000E+00  0.00000000E+00
  0.00000000E+00  0.00000000E+00  0.00000000E+00
  0.00000000E+00  0.00000000E+00  0.00000000E+00
  0.00000000E+00  0.00000000E+00  0.00000000E+00
  0.00000000E+00  0.00000000E+00  0.00000000E+00
  0.00000000E+00  0.00000000E+00  0.00000000E+00
  0.00000000E+00  0.00000000E+00  0.00000000E+00
  0.00000000E+00  0.00000000E+00  0.00000000E+00
  0.00000000E+00  0.00000000E+00  0.00000000E+00
  0.00000000E+00  0.00000000E+00  0.00000000E+00
  0.00000000E+00  0.00000000E+00  0.00000000E+00
  0.00000000E+00  0.00000000E+00  0.00000000E+00
  0.00000000E+00  0.00000000E+00  0.00000000E+00
  0.00000000E+00  0.00000000E+00  0.00000000E+00
  0.00000000E+00  0.00000000E+00  0.00000000E+00
  0.00000000E+00  0.00000000E+00  0.00000000E+00
  0.00000000E+00  0.00000000E+00  0.00000000E+00
  0.00000000E+00  0.00000000E+00  0.00000000E+00
  0.00000000E+00  0.00000000E+00  0.00000000E+00
  0.00000000E+00  0.00000000E+00  0.00000000E+00
