CONTCAR\(2)                             
   1.00000000000000     
    11.3502998351999995    0.0000000000000000    0.0000000000000000
    -5.6751499175999998    9.8296479979000004    0.0000000000000000
     0.0000000000000000    0.0000000000000000   21.7800998688000007
   Gd   Br   O    H 
    18    18     2     1
Direct
  0.1075102998945137  0.2163563778117216  0.5593269711677544
  0.2248554553797098  0.1149801026735402  0.4251546712710739
  0.4412168533227016  0.2167069123217674  0.5588318865476815
  0.5564447537076154  0.1127819022243460  0.4283468295256154
  0.7787260186462486  0.2249087415082859  0.5586293518683938
  0.8907956065716134  0.1128640768881071  0.4285468672243927
  0.1081403336570158  0.5622413566852591  0.5588690093532716
  0.2172120798957933  0.4431874615147507  0.4337021331093434
  0.4446618084609671  0.5577682646196435  0.6312242446085642
  0.5612269795336789  0.4427611019081077  0.4326644427942404
  0.7862144877729926  0.5619338332764147  0.5587018220551706
  0.8913355800290645  0.4475235309214068  0.4280698262769558
  0.1120035595360472  0.8916261020244987  0.5581407041499030
  0.2250530656165576  0.7794674175993067  0.4252797887443663
  0.4421137842327303  0.8949493641359527  0.5595711310651161
  0.5604673484357904  0.7864713980513031  0.4342102908807744
  0.7855565972617629  0.8953479975020741  0.5597292192790908
  0.8891393202735592  0.7794517017155274  0.4252559268035392
  0.1137291713456451  0.2291652449176250  0.3376878127168731
  0.2238871559124721  0.1149966152377807  0.6513360019046793
  0.4504680200268166  0.2288632774225794  0.3370908043074151
  0.5557365552394180  0.1132808144972201  0.6492485637953211
  0.7795217424354355  0.2239723172577246  0.3383939703520230
  0.8893784861605122  0.1133185612357551  0.6497347513599901
  0.1147673031756420  0.5538425387938470  0.3375289227922862
  0.1687227286444001  0.4204058116198763  0.6544759017287395
  0.4463802833898587  0.5581536150776805  0.3500158190567166
  0.5829504153952467  0.4200195129001889  0.6540052834302865
  0.7757629542496906  0.5542799201267783  0.3370973663291079
  0.8900353919836795  0.4480976380235097  0.6488992133949258
  0.1132311933038816  0.8912526602058237  0.3348739023192467
  0.2229304925207483  0.7799281032566555  0.6508397712229576
  0.4509570738089617  0.8898303175169336  0.3377990678011492
  0.5819821323632157  0.8320389656162933  0.6566037545463396
  0.7742919006252565  0.8896972344821760  0.3379050949530631
  0.8886941541363204  0.7795011541453283  0.6507314107568289
  0.4396176057565629  0.5469346124094454  0.7234382940043427
  0.4289344952025118  0.5209536756902124  0.7877293647132600
  0.3703773300953595  0.4216001471844936  0.7885800847892463
 
  0.00000000E+00  0.00000000E+00  0.00000000E+00
  0.00000000E+00  0.00000000E+00  0.00000000E+00
  0.00000000E+00  0.00000000E+00  0.00000000E+00
  0.00000000E+00  0.00000000E+00  0.00000000E+00
  0.00000000E+00  0.00000000E+00  0.00000000E+00
  0.00000000E+00  0.00000000E+00  0.00000000E+00
  0.00000000E+00  0.00000000E+00  0.00000000E+00
  0.00000000E+00  0.00000000E+00  0.00000000E+00
  0.00000000E+00  0.00000000E+00  0.00000000E+00
  0.00000000E+00  0.00000000E+00  0.00000000E+00
  0.00000000E+00  0.00000000E+00  0.00000000E+00
  0.00000000E+00  0.00000000E+00  0.00000000E+00
  0.00000000E+00  0.00000000E+00  0.00000000E+00
  0.00000000E+00  0.00000000E+00  0.00000000E+00
  0.00000000E+00  0.00000000E+00  0.00000000E+00
  0.00000000E+00  0.00000000E+00  0.00000000E+00
  0.00000000E+00  0.00000000E+00  0.00000000E+00
  0.00000000E+00  0.00000000E+00  0.00000000E+00
  0.00000000E+00  0.00000000E+00  0.00000000E+00
  0.00000000E+00  0.00000000E+00  0.00000000E+00
  0.00000000E+00  0.00000000E+00  0.00000000E+00
  0.00000000E+00  0.00000000E+00  0.00000000E+00
  0.00000000E+00  0.00000000E+00  0.00000000E+00
  0.00000000E+00  0.00000000E+00  0.00000000E+00
  0.00000000E+00  0.00000000E+00  0.00000000E+00
  0.00000000E+00  0.00000000E+00  0.00000000E+00
  0.00000000E+00  0.00000000E+00  0.00000000E+00
  0.00000000E+00  0.00000000E+00  0.00000000E+00
  0.00000000E+00  0.00000000E+00  0.00000000E+00
  0.00000000E+00  0.00000000E+00  0.00000000E+00
  0.00000000E+00  0.00000000E+00  0.00000000E+00
  0.00000000E+00  0.00000000E+00  0.00000000E+00
  0.00000000E+00  0.00000000E+00  0.00000000E+00
  0.00000000E+00  0.00000000E+00  0.00000000E+00
  0.00000000E+00  0.00000000E+00  0.00000000E+00
  0.00000000E+00  0.00000000E+00  0.00000000E+00
  0.00000000E+00  0.00000000E+00  0.00000000E+00
  0.00000000E+00  0.00000000E+00  0.00000000E+00
  0.00000000E+00  0.00000000E+00  0.00000000E+00
