G   57   43    1    0.005     # Parameters to Generate KPOINTS (Don't Edit This Line)
     638
Reciprocal lattice
    0.000000000000    0.000000000000    0.000000000000       1
    0.017543859649    0.000000000000    0.000000000000       2
    0.035087719298    0.000000000000    0.000000000000       2
    0.052631578947    0.000000000000    0.000000000000       2
    0.070175438596    0.000000000000    0.000000000000       2
    0.087719298246    0.000000000000    0.000000000000       2
    0.105263157895    0.000000000000    0.000000000000       2
    0.122807017544    0.000000000000    0.000000000000       2
    0.140350877193    0.000000000000    0.000000000000       2
    0.157894736842    0.000000000000    0.000000000000       2
    0.175438596491    0.000000000000    0.000000000000       2
    0.192982456140    0.000000000000    0.000000000000       2
    0.210526315789    0.000000000000    0.000000000000       2
    0.228070175439    0.000000000000    0.000000000000       2
    0.245614035088    0.000000000000    0.000000000000       2
    0.263157894737    0.000000000000    0.000000000000       2
    0.280701754386    0.000000000000    0.000000000000       2
    0.298245614035    0.000000000000    0.000000000000       2
    0.315789473684    0.000000000000    0.000000000000       2
    0.333333333333    0.000000000000    0.000000000000       2
    0.350877192982    0.000000000000    0.000000000000       2
    0.368421052632    0.000000000000    0.000000000000       2
    0.385964912281    0.000000000000    0.000000000000       2
    0.403508771930    0.000000000000    0.000000000000       2
    0.421052631579    0.000000000000    0.000000000000       2
    0.438596491228    0.000000000000    0.000000000000       2
    0.456140350877    0.000000000000    0.000000000000       2
    0.473684210526    0.000000000000    0.000000000000       2
    0.491228070175    0.000000000000    0.000000000000       2
    0.000000000000    0.023255813953    0.000000000000       2
    0.017543859649    0.023255813953    0.000000000000       4
    0.035087719298    0.023255813953    0.000000000000       4
    0.052631578947    0.023255813953    0.000000000000       4
    0.070175438596    0.023255813953    0.000000000000       4
    0.087719298246    0.023255813953    0.000000000000       4
    0.105263157895    0.023255813953    0.000000000000       4
    0.122807017544    0.023255813953    0.000000000000       4
    0.140350877193    0.023255813953    0.000000000000       4
    0.157894736842    0.023255813953    0.000000000000       4
    0.175438596491    0.023255813953    0.000000000000       4
    0.192982456140    0.023255813953    0.000000000000       4
    0.210526315789    0.023255813953    0.000000000000       4
    0.228070175439    0.023255813953    0.000000000000       4
    0.245614035088    0.023255813953    0.000000000000       4
    0.263157894737    0.023255813953    0.000000000000       4
    0.280701754386    0.023255813953    0.000000000000       4
    0.298245614035    0.023255813953    0.000000000000       4
    0.315789473684    0.023255813953    0.000000000000       4
    0.333333333333    0.023255813953    0.000000000000       4
    0.350877192982    0.023255813953    0.000000000000       4
    0.368421052632    0.023255813953    0.000000000000       4
    0.385964912281    0.023255813953    0.000000000000       4
    0.403508771930    0.023255813953    0.000000000000       4
    0.421052631579    0.023255813953    0.000000000000       4
    0.438596491228    0.023255813953    0.000000000000       4
    0.456140350877    0.023255813953    0.000000000000       4
    0.473684210526    0.023255813953    0.000000000000       4
    0.491228070175    0.023255813953    0.000000000000       4
    0.000000000000    0.046511627907    0.000000000000       2
    0.017543859649    0.046511627907    0.000000000000       4
    0.035087719298    0.046511627907    0.000000000000       4
    0.052631578947    0.046511627907    0.000000000000       4
    0.070175438596    0.046511627907    0.000000000000       4
    0.087719298246    0.046511627907    0.000000000000       4
    0.105263157895    0.046511627907    0.000000000000       4
    0.122807017544    0.046511627907    0.000000000000       4
    0.140350877193    0.046511627907    0.000000000000       4
    0.157894736842    0.046511627907    0.000000000000       4
    0.175438596491    0.046511627907    0.000000000000       4
    0.192982456140    0.046511627907    0.000000000000       4
    0.210526315789    0.046511627907    0.000000000000       4
    0.228070175439    0.046511627907    0.000000000000       4
    0.245614035088    0.046511627907    0.000000000000       4
    0.263157894737    0.046511627907    0.000000000000       4
    0.280701754386    0.046511627907    0.000000000000       4
    0.298245614035    0.046511627907    0.000000000000       4
    0.315789473684    0.046511627907    0.000000000000       4
    0.333333333333    0.046511627907    0.000000000000       4
    0.350877192982    0.046511627907    0.000000000000       4
    0.368421052632    0.046511627907    0.000000000000       4
    0.385964912281    0.046511627907    0.000000000000       4
    0.403508771930    0.046511627907    0.000000000000       4
    0.421052631579    0.046511627907    0.000000000000       4
    0.438596491228    0.046511627907    0.000000000000       4
    0.456140350877    0.046511627907    0.000000000000       4
    0.473684210526    0.046511627907    0.000000000000       4
    0.491228070175    0.046511627907    0.000000000000       4
    0.000000000000    0.069767441860    0.000000000000       2
    0.017543859649    0.069767441860    0.000000000000       4
    0.035087719298    0.069767441860    0.000000000000       4
    0.052631578947    0.069767441860    0.000000000000       4
    0.070175438596    0.069767441860    0.000000000000       4
    0.087719298246    0.069767441860    0.000000000000       4
    0.105263157895    0.069767441860    0.000000000000       4
    0.122807017544    0.069767441860    0.000000000000       4
    0.140350877193    0.069767441860    0.000000000000       4
    0.157894736842    0.069767441860    0.000000000000       4
    0.175438596491    0.069767441860    0.000000000000       4
    0.192982456140    0.069767441860    0.000000000000       4
    0.210526315789    0.069767441860    0.000000000000       4
    0.228070175439    0.069767441860    0.000000000000       4
    0.245614035088    0.069767441860    0.000000000000       4
    0.263157894737    0.069767441860    0.000000000000       4
    0.280701754386    0.069767441860    0.000000000000       4
    0.298245614035    0.069767441860    0.000000000000       4
    0.315789473684    0.069767441860    0.000000000000       4
    0.333333333333    0.069767441860    0.000000000000       4
    0.350877192982    0.069767441860    0.000000000000       4
    0.368421052632    0.069767441860    0.000000000000       4
    0.385964912281    0.069767441860    0.000000000000       4
    0.403508771930    0.069767441860    0.000000000000       4
    0.421052631579    0.069767441860    0.000000000000       4
    0.438596491228    0.069767441860    0.000000000000       4
    0.456140350877    0.069767441860    0.000000000000       4
    0.473684210526    0.069767441860    0.000000000000       4
    0.491228070175    0.069767441860    0.000000000000       4
    0.000000000000    0.093023255814    0.000000000000       2
    0.017543859649    0.093023255814    0.000000000000       4
    0.035087719298    0.093023255814    0.000000000000       4
    0.052631578947    0.093023255814    0.000000000000       4
    0.070175438596    0.093023255814    0.000000000000       4
    0.087719298246    0.093023255814    0.000000000000       4
    0.105263157895    0.093023255814    0.000000000000       4
    0.122807017544    0.093023255814    0.000000000000       4
    0.140350877193    0.093023255814    0.000000000000       4
    0.157894736842    0.093023255814    0.000000000000       4
    0.175438596491    0.093023255814    0.000000000000       4
    0.192982456140    0.093023255814    0.000000000000       4
    0.210526315789    0.093023255814    0.000000000000       4
    0.228070175439    0.093023255814    0.000000000000       4
    0.245614035088    0.093023255814    0.000000000000       4
    0.263157894737    0.093023255814    0.000000000000       4
    0.280701754386    0.093023255814    0.000000000000       4
    0.298245614035    0.093023255814    0.000000000000       4
    0.315789473684    0.093023255814    0.000000000000       4
    0.333333333333    0.093023255814    0.000000000000       4
    0.350877192982    0.093023255814    0.000000000000       4
    0.368421052632    0.093023255814    0.000000000000       4
    0.385964912281    0.093023255814    0.000000000000       4
    0.403508771930    0.093023255814    0.000000000000       4
    0.421052631579    0.093023255814    0.000000000000       4
    0.438596491228    0.093023255814    0.000000000000       4
    0.456140350877    0.093023255814    0.000000000000       4
    0.473684210526    0.093023255814    0.000000000000       4
    0.491228070175    0.093023255814    0.000000000000       4
    0.000000000000    0.116279069767    0.000000000000       2
    0.017543859649    0.116279069767    0.000000000000       4
    0.035087719298    0.116279069767    0.000000000000       4
    0.052631578947    0.116279069767    0.000000000000       4
    0.070175438596    0.116279069767    0.000000000000       4
    0.087719298246    0.116279069767    0.000000000000       4
    0.105263157895    0.116279069767    0.000000000000       4
    0.122807017544    0.116279069767    0.000000000000       4
    0.140350877193    0.116279069767    0.000000000000       4
    0.157894736842    0.116279069767    0.000000000000       4
    0.175438596491    0.116279069767    0.000000000000       4
    0.192982456140    0.116279069767    0.000000000000       4
    0.210526315789    0.116279069767    0.000000000000       4
    0.228070175439    0.116279069767    0.000000000000       4
    0.245614035088    0.116279069767    0.000000000000       4
    0.263157894737    0.116279069767    0.000000000000       4
    0.280701754386    0.116279069767    0.000000000000       4
    0.298245614035    0.116279069767    0.000000000000       4
    0.315789473684    0.116279069767    0.000000000000       4
    0.333333333333    0.116279069767    0.000000000000       4
    0.350877192982    0.116279069767    0.000000000000       4
    0.368421052632    0.116279069767    0.000000000000       4
    0.385964912281    0.116279069767    0.000000000000       4
    0.403508771930    0.116279069767    0.000000000000       4
    0.421052631579    0.116279069767    0.000000000000       4
    0.438596491228    0.116279069767    0.000000000000       4
    0.456140350877    0.116279069767    0.000000000000       4
    0.473684210526    0.116279069767    0.000000000000       4
    0.491228070175    0.116279069767    0.000000000000       4
    0.000000000000    0.139534883721    0.000000000000       2
    0.017543859649    0.139534883721    0.000000000000       4
    0.035087719298    0.139534883721    0.000000000000       4
    0.052631578947    0.139534883721    0.000000000000       4
    0.070175438596    0.139534883721    0.000000000000       4
    0.087719298246    0.139534883721    0.000000000000       4
    0.105263157895    0.139534883721    0.000000000000       4
    0.122807017544    0.139534883721    0.000000000000       4
    0.140350877193    0.139534883721    0.000000000000       4
    0.157894736842    0.139534883721    0.000000000000       4
    0.175438596491    0.139534883721    0.000000000000       4
    0.192982456140    0.139534883721    0.000000000000       4
    0.210526315789    0.139534883721    0.000000000000       4
    0.228070175439    0.139534883721    0.000000000000       4
    0.245614035088    0.139534883721    0.000000000000       4
    0.263157894737    0.139534883721    0.000000000000       4
    0.280701754386    0.139534883721    0.000000000000       4
    0.298245614035    0.139534883721    0.000000000000       4
    0.315789473684    0.139534883721    0.000000000000       4
    0.333333333333    0.139534883721    0.000000000000       4
    0.350877192982    0.139534883721    0.000000000000       4
    0.368421052632    0.139534883721    0.000000000000       4
    0.385964912281    0.139534883721    0.000000000000       4
    0.403508771930    0.139534883721    0.000000000000       4
    0.421052631579    0.139534883721    0.000000000000       4
    0.438596491228    0.139534883721    0.000000000000       4
    0.456140350877    0.139534883721    0.000000000000       4
    0.473684210526    0.139534883721    0.000000000000       4
    0.491228070175    0.139534883721    0.000000000000       4
    0.000000000000    0.162790697674    0.000000000000       2
    0.017543859649    0.162790697674    0.000000000000       4
    0.035087719298    0.162790697674    0.000000000000       4
    0.052631578947    0.162790697674    0.000000000000       4
    0.070175438596    0.162790697674    0.000000000000       4
    0.087719298246    0.162790697674    0.000000000000       4
    0.105263157895    0.162790697674    0.000000000000       4
    0.122807017544    0.162790697674    0.000000000000       4
    0.140350877193    0.162790697674    0.000000000000       4
    0.157894736842    0.162790697674    0.000000000000       4
    0.175438596491    0.162790697674    0.000000000000       4
    0.192982456140    0.162790697674    0.000000000000       4
    0.210526315789    0.162790697674    0.000000000000       4
    0.228070175439    0.162790697674    0.000000000000       4
    0.245614035088    0.162790697674    0.000000000000       4
    0.263157894737    0.162790697674    0.000000000000       4
    0.280701754386    0.162790697674    0.000000000000       4
    0.298245614035    0.162790697674    0.000000000000       4
    0.315789473684    0.162790697674    0.000000000000       4
    0.333333333333    0.162790697674    0.000000000000       4
    0.350877192982    0.162790697674    0.000000000000       4
    0.368421052632    0.162790697674    0.000000000000       4
    0.385964912281    0.162790697674    0.000000000000       4
    0.403508771930    0.162790697674    0.000000000000       4
    0.421052631579    0.162790697674    0.000000000000       4
    0.438596491228    0.162790697674    0.000000000000       4
    0.456140350877    0.162790697674    0.000000000000       4
    0.473684210526    0.162790697674    0.000000000000       4
    0.491228070175    0.162790697674    0.000000000000       4
    0.000000000000    0.186046511628    0.000000000000       2
    0.017543859649    0.186046511628    0.000000000000       4
    0.035087719298    0.186046511628    0.000000000000       4
    0.052631578947    0.186046511628    0.000000000000       4
    0.070175438596    0.186046511628    0.000000000000       4
    0.087719298246    0.186046511628    0.000000000000       4
    0.105263157895    0.186046511628    0.000000000000       4
    0.122807017544    0.186046511628    0.000000000000       4
    0.140350877193    0.186046511628    0.000000000000       4
    0.157894736842    0.186046511628    0.000000000000       4
    0.175438596491    0.186046511628    0.000000000000       4
    0.192982456140    0.186046511628    0.000000000000       4
    0.210526315789    0.186046511628    0.000000000000       4
    0.228070175439    0.186046511628    0.000000000000       4
    0.245614035088    0.186046511628    0.000000000000       4
    0.263157894737    0.186046511628    0.000000000000       4
    0.280701754386    0.186046511628    0.000000000000       4
    0.298245614035    0.186046511628    0.000000000000       4
    0.315789473684    0.186046511628    0.000000000000       4
    0.333333333333    0.186046511628    0.000000000000       4
    0.350877192982    0.186046511628    0.000000000000       4
    0.368421052632    0.186046511628    0.000000000000       4
    0.385964912281    0.186046511628    0.000000000000       4
    0.403508771930    0.186046511628    0.000000000000       4
    0.421052631579    0.186046511628    0.000000000000       4
    0.438596491228    0.186046511628    0.000000000000       4
    0.456140350877    0.186046511628    0.000000000000       4
    0.473684210526    0.186046511628    0.000000000000       4
    0.491228070175    0.186046511628    0.000000000000       4
    0.000000000000    0.209302325581    0.000000000000       2
    0.017543859649    0.209302325581    0.000000000000       4
    0.035087719298    0.209302325581    0.000000000000       4
    0.052631578947    0.209302325581    0.000000000000       4
    0.070175438596    0.209302325581    0.000000000000       4
    0.087719298246    0.209302325581    0.000000000000       4
    0.105263157895    0.209302325581    0.000000000000       4
    0.122807017544    0.209302325581    0.000000000000       4
    0.140350877193    0.209302325581    0.000000000000       4
    0.157894736842    0.209302325581    0.000000000000       4
    0.175438596491    0.209302325581    0.000000000000       4
    0.192982456140    0.209302325581    0.000000000000       4
    0.210526315789    0.209302325581    0.000000000000       4
    0.228070175439    0.209302325581    0.000000000000       4
    0.245614035088    0.209302325581    0.000000000000       4
    0.263157894737    0.209302325581    0.000000000000       4
    0.280701754386    0.209302325581    0.000000000000       4
    0.298245614035    0.209302325581    0.000000000000       4
    0.315789473684    0.209302325581    0.000000000000       4
    0.333333333333    0.209302325581    0.000000000000       4
    0.350877192982    0.209302325581    0.000000000000       4
    0.368421052632    0.209302325581    0.000000000000       4
    0.385964912281    0.209302325581    0.000000000000       4
    0.403508771930    0.209302325581    0.000000000000       4
    0.421052631579    0.209302325581    0.000000000000       4
    0.438596491228    0.209302325581    0.000000000000       4
    0.456140350877    0.209302325581    0.000000000000       4
    0.473684210526    0.209302325581    0.000000000000       4
    0.491228070175    0.209302325581    0.000000000000       4
    0.000000000000    0.232558139535    0.000000000000       2
    0.017543859649    0.232558139535    0.000000000000       4
    0.035087719298    0.232558139535    0.000000000000       4
    0.052631578947    0.232558139535    0.000000000000       4
    0.070175438596    0.232558139535    0.000000000000       4
    0.087719298246    0.232558139535    0.000000000000       4
    0.105263157895    0.232558139535    0.000000000000       4
    0.122807017544    0.232558139535    0.000000000000       4
    0.140350877193    0.232558139535    0.000000000000       4
    0.157894736842    0.232558139535    0.000000000000       4
    0.175438596491    0.232558139535    0.000000000000       4
    0.192982456140    0.232558139535    0.000000000000       4
    0.210526315789    0.232558139535    0.000000000000       4
    0.228070175439    0.232558139535    0.000000000000       4
    0.245614035088    0.232558139535    0.000000000000       4
    0.263157894737    0.232558139535    0.000000000000       4
    0.280701754386    0.232558139535    0.000000000000       4
    0.298245614035    0.232558139535    0.000000000000       4
    0.315789473684    0.232558139535    0.000000000000       4
    0.333333333333    0.232558139535    0.000000000000       4
    0.350877192982    0.232558139535    0.000000000000       4
    0.368421052632    0.232558139535    0.000000000000       4
    0.385964912281    0.232558139535    0.000000000000       4
    0.403508771930    0.232558139535    0.000000000000       4
    0.421052631579    0.232558139535    0.000000000000       4
    0.438596491228    0.232558139535    0.000000000000       4
    0.456140350877    0.232558139535    0.000000000000       4
    0.473684210526    0.232558139535    0.000000000000       4
    0.491228070175    0.232558139535    0.000000000000       4
    0.000000000000    0.255813953488    0.000000000000       2
    0.017543859649    0.255813953488    0.000000000000       4
    0.035087719298    0.255813953488    0.000000000000       4
    0.052631578947    0.255813953488    0.000000000000       4
    0.070175438596    0.255813953488    0.000000000000       4
    0.087719298246    0.255813953488    0.000000000000       4
    0.105263157895    0.255813953488    0.000000000000       4
    0.122807017544    0.255813953488    0.000000000000       4
    0.140350877193    0.255813953488    0.000000000000       4
    0.157894736842    0.255813953488    0.000000000000       4
    0.175438596491    0.255813953488    0.000000000000       4
    0.192982456140    0.255813953488    0.000000000000       4
    0.210526315789    0.255813953488    0.000000000000       4
    0.228070175439    0.255813953488    0.000000000000       4
    0.245614035088    0.255813953488    0.000000000000       4
    0.263157894737    0.255813953488    0.000000000000       4
    0.280701754386    0.255813953488    0.000000000000       4
    0.298245614035    0.255813953488    0.000000000000       4
    0.315789473684    0.255813953488    0.000000000000       4
    0.333333333333    0.255813953488    0.000000000000       4
    0.350877192982    0.255813953488    0.000000000000       4
    0.368421052632    0.255813953488    0.000000000000       4
    0.385964912281    0.255813953488    0.000000000000       4
    0.403508771930    0.255813953488    0.000000000000       4
    0.421052631579    0.255813953488    0.000000000000       4
    0.438596491228    0.255813953488    0.000000000000       4
    0.456140350877    0.255813953488    0.000000000000       4
    0.473684210526    0.255813953488    0.000000000000       4
    0.491228070175    0.255813953488    0.000000000000       4
    0.000000000000    0.279069767442    0.000000000000       2
    0.017543859649    0.279069767442    0.000000000000       4
    0.035087719298    0.279069767442    0.000000000000       4
    0.052631578947    0.279069767442    0.000000000000       4
    0.070175438596    0.279069767442    0.000000000000       4
    0.087719298246    0.279069767442    0.000000000000       4
    0.105263157895    0.279069767442    0.000000000000       4
    0.122807017544    0.279069767442    0.000000000000       4
    0.140350877193    0.279069767442    0.000000000000       4
    0.157894736842    0.279069767442    0.000000000000       4
    0.175438596491    0.279069767442    0.000000000000       4
    0.192982456140    0.279069767442    0.000000000000       4
    0.210526315789    0.279069767442    0.000000000000       4
    0.228070175439    0.279069767442    0.000000000000       4
    0.245614035088    0.279069767442    0.000000000000       4
    0.263157894737    0.279069767442    0.000000000000       4
    0.280701754386    0.279069767442    0.000000000000       4
    0.298245614035    0.279069767442    0.000000000000       4
    0.315789473684    0.279069767442    0.000000000000       4
    0.333333333333    0.279069767442    0.000000000000       4
    0.350877192982    0.279069767442    0.000000000000       4
    0.368421052632    0.279069767442    0.000000000000       4
    0.385964912281    0.279069767442    0.000000000000       4
    0.403508771930    0.279069767442    0.000000000000       4
    0.421052631579    0.279069767442    0.000000000000       4
    0.438596491228    0.279069767442    0.000000000000       4
    0.456140350877    0.279069767442    0.000000000000       4
    0.473684210526    0.279069767442    0.000000000000       4
    0.491228070175    0.279069767442    0.000000000000       4
    0.000000000000    0.302325581395    0.000000000000       2
    0.017543859649    0.302325581395    0.000000000000       4
    0.035087719298    0.302325581395    0.000000000000       4
    0.052631578947    0.302325581395    0.000000000000       4
    0.070175438596    0.302325581395    0.000000000000       4
    0.087719298246    0.302325581395    0.000000000000       4
    0.105263157895    0.302325581395    0.000000000000       4
    0.122807017544    0.302325581395    0.000000000000       4
    0.140350877193    0.302325581395    0.000000000000       4
    0.157894736842    0.302325581395    0.000000000000       4
    0.175438596491    0.302325581395    0.000000000000       4
    0.192982456140    0.302325581395    0.000000000000       4
    0.210526315789    0.302325581395    0.000000000000       4
    0.228070175439    0.302325581395    0.000000000000       4
    0.245614035088    0.302325581395    0.000000000000       4
    0.263157894737    0.302325581395    0.000000000000       4
    0.280701754386    0.302325581395    0.000000000000       4
    0.298245614035    0.302325581395    0.000000000000       4
    0.315789473684    0.302325581395    0.000000000000       4
    0.333333333333    0.302325581395    0.000000000000       4
    0.350877192982    0.302325581395    0.000000000000       4
    0.368421052632    0.302325581395    0.000000000000       4
    0.385964912281    0.302325581395    0.000000000000       4
    0.403508771930    0.302325581395    0.000000000000       4
    0.421052631579    0.302325581395    0.000000000000       4
    0.438596491228    0.302325581395    0.000000000000       4
    0.456140350877    0.302325581395    0.000000000000       4
    0.473684210526    0.302325581395    0.000000000000       4
    0.491228070175    0.302325581395    0.000000000000       4
    0.000000000000    0.325581395349    0.000000000000       2
    0.017543859649    0.325581395349    0.000000000000       4
    0.035087719298    0.325581395349    0.000000000000       4
    0.052631578947    0.325581395349    0.000000000000       4
    0.070175438596    0.325581395349    0.000000000000       4
    0.087719298246    0.325581395349    0.000000000000       4
    0.105263157895    0.325581395349    0.000000000000       4
    0.122807017544    0.325581395349    0.000000000000       4
    0.140350877193    0.325581395349    0.000000000000       4
    0.157894736842    0.325581395349    0.000000000000       4
    0.175438596491    0.325581395349    0.000000000000       4
    0.192982456140    0.325581395349    0.000000000000       4
    0.210526315789    0.325581395349    0.000000000000       4
    0.228070175439    0.325581395349    0.000000000000       4
    0.245614035088    0.325581395349    0.000000000000       4
    0.263157894737    0.325581395349    0.000000000000       4
    0.280701754386    0.325581395349    0.000000000000       4
    0.298245614035    0.325581395349    0.000000000000       4
    0.315789473684    0.325581395349    0.000000000000       4
    0.333333333333    0.325581395349    0.000000000000       4
    0.350877192982    0.325581395349    0.000000000000       4
    0.368421052632    0.325581395349    0.000000000000       4
    0.385964912281    0.325581395349    0.000000000000       4
    0.403508771930    0.325581395349    0.000000000000       4
    0.421052631579    0.325581395349    0.000000000000       4
    0.438596491228    0.325581395349    0.000000000000       4
    0.456140350877    0.325581395349    0.000000000000       4
    0.473684210526    0.325581395349    0.000000000000       4
    0.491228070175    0.325581395349    0.000000000000       4
    0.000000000000    0.348837209302    0.000000000000       2
    0.017543859649    0.348837209302    0.000000000000       4
    0.035087719298    0.348837209302    0.000000000000       4
    0.052631578947    0.348837209302    0.000000000000       4
    0.070175438596    0.348837209302    0.000000000000       4
    0.087719298246    0.348837209302    0.000000000000       4
    0.105263157895    0.348837209302    0.000000000000       4
    0.122807017544    0.348837209302    0.000000000000       4
    0.140350877193    0.348837209302    0.000000000000       4
    0.157894736842    0.348837209302    0.000000000000       4
    0.175438596491    0.348837209302    0.000000000000       4
    0.192982456140    0.348837209302    0.000000000000       4
    0.210526315789    0.348837209302    0.000000000000       4
    0.228070175439    0.348837209302    0.000000000000       4
    0.245614035088    0.348837209302    0.000000000000       4
    0.263157894737    0.348837209302    0.000000000000       4
    0.280701754386    0.348837209302    0.000000000000       4
    0.298245614035    0.348837209302    0.000000000000       4
    0.315789473684    0.348837209302    0.000000000000       4
    0.333333333333    0.348837209302    0.000000000000       4
    0.350877192982    0.348837209302    0.000000000000       4
    0.368421052632    0.348837209302    0.000000000000       4
    0.385964912281    0.348837209302    0.000000000000       4
    0.403508771930    0.348837209302    0.000000000000       4
    0.421052631579    0.348837209302    0.000000000000       4
    0.438596491228    0.348837209302    0.000000000000       4
    0.456140350877    0.348837209302    0.000000000000       4
    0.473684210526    0.348837209302    0.000000000000       4
    0.491228070175    0.348837209302    0.000000000000       4
    0.000000000000    0.372093023256    0.000000000000       2
    0.017543859649    0.372093023256    0.000000000000       4
    0.035087719298    0.372093023256    0.000000000000       4
    0.052631578947    0.372093023256    0.000000000000       4
    0.070175438596    0.372093023256    0.000000000000       4
    0.087719298246    0.372093023256    0.000000000000       4
    0.105263157895    0.372093023256    0.000000000000       4
    0.122807017544    0.372093023256    0.000000000000       4
    0.140350877193    0.372093023256    0.000000000000       4
    0.157894736842    0.372093023256    0.000000000000       4