CONTCAR\(5)                             
   1.00000000000000     
    12.8629999160999997    0.0000000000000000    0.0000000000000000
     0.0000000000000000   14.3196001052999993    0.0000000000000000
     0.0000000000000000    0.0000000000000000   19.5569992064999987
   Ag   Au   S    O    H 
    12    24    24     1     1
Selective dynamics
Direct
  0.0902717685410579  0.3354149811270375  0.5975930179344502   F   F   F
  0.2481363737815698  0.0901444894416628  0.5905014235217010   F   F   F
  0.4314728277486566  0.3339826126484340  0.6071387301429141   F   F   F
  0.5807253300263469  0.0715929782449152  0.5924821460237055   F   F   F
  0.7598917831116623  0.3208238322754013  0.5977544817434861   F   F   F
  0.9140559786239635  0.0776452599238411  0.5904707683733221   F   F   F
  0.0900274239083174  0.8333647708562069  0.5979778382222278   F   F   F
  0.2421647389833197  0.5857504974990420  0.6013707948543541   F   F   F
  0.4257827662243656  0.8340741291271030  0.6077299350121805   F   F   F
  0.5761810301170058  0.5768659379935599  0.5935226733289340   F   F   F
  0.7593210027874733  0.8219285894783610  0.5981137813834749   F   F   F
  0.9020259646187583  0.5809682484857603  0.6001938110278573   F   F   F
  0.0280501637222912  0.4947324503985868  0.4980936964674711   F   F   F
  0.3081389712832134  0.2509187440662615  0.4978034673328580   F   F   F
  0.1517330238419774  0.3610378341846854  0.3820235873268132   F   F   F
  0.1633996325666089  0.1137982406063784  0.3858422191871753   F   F   F
  0.3517066836731217  0.4954613679085824  0.4843924261935371   F   F   F
  0.6319979863147367  0.2369985837479263  0.4945720459919372   F   F   F
  0.4979879913656617  0.3671584744187015  0.3964713545397416   F   F   F
  0.4956634692272317  0.1182842090051182  0.4024160395706531   F   F   F
  0.6923943363885954  0.4888057284205800  0.4835273108350435   F   F   F
  0.9751288719363558  0.2411839979877186  0.4735389082514843   F   F   F
  0.8279888725242586  0.3665551769302766  0.4085348813478831   F   F   F
  0.8276885953101782  0.1158455240695631  0.4025816412380649   F   F   F
  0.0356133713227536  0.9914548656634210  0.4827910987578932   F   F   F
  0.3016144429787317  0.7442948413866901  0.5043087446176315   F   F   F
  0.1639504095649045  0.8711377974156775  0.3844422805690328   F   F   F
  0.1522203635754522  0.6235670610619835  0.3783093121322665   F   F   F
  0.3566065303280723  0.9934347180403407  0.4759569171132867   F   F   F
  0.6293501838723401  0.7440640257633504  0.4921401741912206   F   F   F
  0.4925518990049085  0.8645658791468520  0.4060662420503292   F   F   F
  0.4970466871482344  0.6179648912923028  0.4063723626444400   F   F   F
  0.6961882299314794  0.9889932456774204  0.4823487956052119   F   F   F
  0.9751025693650348  0.7465850583412887  0.4739121806802729   F   F   F
  0.8244767754740465  0.8660503049458441  0.4026025268452429   F   F   F
  0.8271367063230457  0.6168574923535175  0.4086331788388051   F   F   F
  0.2534717423068145  0.4922839541112864  0.3850652786633830   F   F   F
  0.2546263723670066  0.2572300089035195  0.6110945301255057   F   F   F
  0.0793512330198141  0.5040246751925039  0.6114903440381312   F   F   F
  0.0465009452019416  0.2333655960772489  0.3640589635011153   F   F   F
  0.6062896382103844  0.4939466392054612  0.3781930050542073   F   F   F
  0.5862579593598340  0.2411804081028492  0.6103043008831079   F   F   F
  0.4080864387520862  0.5006475998683300  0.5974410104103924   F   F   F
  0.3818343728991067  0.2436553549039786  0.3904536164800447   F   F   F
  0.9411900012303747  0.4919468580264237  0.3947512650450520   F   F   F
  0.9285566092391377  0.2468177012852308  0.5890719402297364   F   F   F
  0.7444027793516241  0.4909659884418218  0.5985142375030250   F   F   F
  0.7154933857639705  0.2413472456031016  0.3892759866442574   F   F   F
  0.2798350049114617  0.9927623193407413  0.3680568219040552   F   F   F
  0.2522389709399704  0.7544952017558799  0.6183683757494975   F   F   F
  0.0890958518072225  0.0023343346363021  0.5963709842590248   F   F   F
  0.0468450263042683  0.7512596143954511  0.3641462985487891   F   F   F
  0.6014548091370671  0.9897539467125753  0.3806801667991522   F   F   F
  0.5852283565150813  0.7463756594002575  0.6085053636754125   F   F   F
  0.4105334774293894  0.0001875961222311  0.5903628156346414   F   F   F
  0.3776286823072468  0.7389912800899623  0.3979930387305188   F   F   F
  0.9363585640770822  0.9897296504862041  0.3830461203456892   F   F   F
  0.9273871262820563  0.7477181316289219  0.5893146486761083   F   F   F
  0.7530817317659455  0.9925992483412713  0.5958930755042360   F   F   F
  0.7135273512693061  0.7398854272602478  0.3866369921362605   F   F   F
  0.3272343547553334  0.4934166452217283  0.3156750002989099   T   T   T
  0.3864557212806687  0.4501024929520838  0.3247886464297758   T   T   T
 
  0.00000000E+00  0.00000000E+00  0.00000000E+00
  0.00000000E+00  0.00000000E+00  0.00000000E+00
  0.00000000E+00  0.00000000E+00  0.00000000E+00
  0.00000000E+00  0.00000000E+00  0.00000000E+00
  0.00000000E+00  0.00000000E+00  0.00000000E+00
  0.00000000E+00  0.00000000E+00  0.00000000E+00
  0.00000000E+00  0.00000000E+00  0.00000000E+00
  0.00000000E+00  0.00000000E+00  0.00000000E+00
  0.00000000E+00  0.00000000E+00  0.00000000E+00
  0.00000000E+00  0.00000000E+00  0.00000000E+00
  0.00000000E+00  0.00000000E+00  0.00000000E+00
  0.00000000E+00  0.00000000E+00  0.00000000E+00
  0.00000000E+00  0.00000000E+00  0.00000000E+00
  0.00000000E+00  0.00000000E+00  0.00000000E+00
  0.00000000E+00  0.00000000E+00  0.00000000E+00
  0.00000000E+00  0.00000000E+00  0.00000000E+00
  0.00000000E+00  0.00000000E+00  0.00000000E+00
  0.00000000E+00  0.00000000E+00  0.00000000E+00
  0.00000000E+00  0.00000000E+00  0.00000000E+00
  0.00000000E+00  0.00000000E+00  0.00000000E+00
  0.00000000E+00  0.00000000E+00  0.00000000E+00
  0.00000000E+00  0.00000000E+00  0.00000000E+00
  0.00000000E+00  0.00000000E+00  0.00000000E+00
  0.00000000E+00  0.00000000E+00  0.00000000E+00
  0.00000000E+00  0.00000000E+00  0.00000000E+00
  0.00000000E+00  0.00000000E+00  0.00000000E+00
  0.00000000E+00  0.00000000E+00  0.00000000E+00
  0.00000000E+00  0.00000000E+00  0.00000000E+00
  0.00000000E+00  0.00000000E+00  0.00000000E+00
  0.00000000E+00  0.00000000E+00  0.00000000E+00
  0.00000000E+00  0.00000000E+00  0.00000000E+00
  0.00000000E+00  0.00000000E+00  0.00000000E+00
  0.00000000E+00  0.00000000E+00  0.00000000E+00
  0.00000000E+00  0.00000000E+00  0.00000000E+00
  0.00000000E+00  0.00000000E+00  0.00000000E+00
  0.00000000E+00  0.00000000E+00  0.00000000E+00
  0.00000000E+00  0.00000000E+00  0.00000000E+00
  0.00000000E+00  0.00000000E+00  0.00000000E+00
  0.00000000E+00  0.00000000E+00  0.00000000E+00
  0.00000000E+00  0.00000000E+00  0.00000000E+00
  0.00000000E+00  0.00000000E+00  0.00000000E+00
  0.00000000E+00  0.00000000E+00  0.00000000E+00
  0.00000000E+00  0.00000000E+00  0.00000000E+00
  0.00000000E+00  0.00000000E+00  0.00000000E+00
  0.00000000E+00  0.00000000E+00  0.00000000E+00
  0.00000000E+00  0.00000000E+00  0.00000000E+00
  0.00000000E+00  0.00000000E+00  0.00000000E+00
  0.00000000E+00  0.00000000E+00  0.00000000E+00
  0.00000000E+00  0.00000000E+00  0.00000000E+00
  0.00000000E+00  0.00000000E+00  0.00000000E+00
  0.00000000E+00  0.00000000E+00  0.00000000E+00
  0.00000000E+00  0.00000000E+00  0.00000000E+00
  0.00000000E+00  0.00000000E+00  0.00000000E+00
  0.00000000E+00  0.00000000E+00  0.00000000E+00
  0.00000000E+00  0.00000000E+00  0.00000000E+00
  0.00000000E+00  0.00000000E+00  0.00000000E+00
  0.00000000E+00  0.00000000E+00  0.00000000E+00
  0.00000000E+00  0.00000000E+00  0.00000000E+00
  0.00000000E+00  0.00000000E+00  0.00000000E+00
  0.00000000E+00  0.00000000E+00  0.00000000E+00
  0.00000000E+00  0.00000000E+00  0.00000000E+00
  0.00000000E+00  0.00000000E+00  0.00000000E+00
