 Ti1 Cl2                                
   1.00000000000000     
     3.2682618432707162    0.0000000000000000    0.0000000000000000
    -1.6341309216353581    2.8303971015419673    0.0000000000000000
     0.0000000000000000    0.0000000000000000   17.9954279671580011
   Ti   Cl
     1     2
Direct
  0.0000000046190858  0.0000000050911429  0.5000000000481282
  0.6666665802677983  0.3333332807137755  0.5888806644037382
  0.3333334151131156  0.6666667141950809  0.4111193355481338
 
  0.00000000E+00  0.00000000E+00  0.00000000E+00
  0.00000000E+00  0.00000000E+00  0.00000000E+00
  0.00000000E+00  0.00000000E+00  0.00000000E+00
