 Er1 Re2 O8                             
   1.00000000000000     
     5.6114421842550506    0.0000000000000000    0.0000000000000000
    -2.8047942777419999    4.8615260292011699    0.0000000000000000
     0.0000000000000000    0.0000000000000000   22.2191813876639941
   Er   Re   O 
     1     2     8
Direct
  0.9995761164447856  0.9997835626805056  0.5001414202499390
  0.6674913559698084  0.3322459387366479  0.5887271212731520
  0.3318052277217092  0.6672869762799394  0.4112565195126194
  0.7233388921314514  0.6546734496961051  0.5599530167804971
  0.0638756019603264  0.7225536352342345  0.4394727424270144
  0.6522170966730840  0.9325412173579224  0.4411629338482612
  0.6620987453751610  0.3298188493030452  0.6663734375618731
  0.3365736064047340  0.6689433263735864  0.3336009041259658
  0.3478320235201195  0.0662073815067359  0.5587060503925585
  0.9365555006251682  0.2786854822906832  0.5605349790678389
  0.2745768331736542  0.3445111805405858  0.4401125258142997
 
  0.00000000E+00  0.00000000E+00  0.00000000E+00
  0.00000000E+00  0.00000000E+00  0.00000000E+00
  0.00000000E+00  0.00000000E+00  0.00000000E+00
  0.00000000E+00  0.00000000E+00  0.00000000E+00
  0.00000000E+00  0.00000000E+00  0.00000000E+00
  0.00000000E+00  0.00000000E+00  0.00000000E+00
  0.00000000E+00  0.00000000E+00  0.00000000E+00
  0.00000000E+00  0.00000000E+00  0.00000000E+00
  0.00000000E+00  0.00000000E+00  0.00000000E+00
  0.00000000E+00  0.00000000E+00  0.00000000E+00
  0.00000000E+00  0.00000000E+00  0.00000000E+00
