CONTCAR\(5)                             
   1.00000000000000     
    11.7456998825000003    0.0000000000000000    0.0000000000000000
     0.0000000000000000   17.6870002747000008    0.0000000000000000
     0.0000000000000000    0.0000000000000000   19.5771007537999999
   Ti   Ge   Te   O 
     6     6    36     1
Direct
  0.0839701948710569  0.4803018263943528  0.5152988841904502
  0.2488416727409515  0.9548460570265718  0.4878438232059423
  0.4151474249601250  0.4812026992461114  0.5171421543641586
  0.5821361407193564  0.9550984825777746  0.4870058337511693
  0.7514368180914488  0.4811697052435804  0.5185246632609619
  0.9148702870668188  0.9545872532775022  0.4871887916900306
  0.2483729444280840  0.8045811361758268  0.4793827190020750
  0.0829146988154861  0.6303613437444255  0.5235732896526528
  0.5826066076252943  0.8049660087714301  0.4764385730880250
  0.4136576080101477  0.6319414510658561  0.5204536702066633
  0.9162944134439854  0.8043270131981544  0.4797640653058508
  0.7520002083070167  0.6319078134194243  0.5220977150635946
  0.0822972130643507  0.9261367255034330  0.3812078236806400
  0.2529414789539075  0.2588758275393914  0.5701725557938033
  0.2478887945637283  0.0652073287687713  0.3818584547539530
  0.0820723371478991  0.8987648038431360  0.5843127934610948
  0.2496948444570108  0.5082186305692744  0.6224650665031604
  0.0866165626253519  0.3698715481368069  0.6209424206286513
  0.0798280466000136  0.1768083751095730  0.4256311376684394
  0.2503220161012010  0.7093739783275197  0.5909371113517139
  0.0820549497787582  0.7257223155201515  0.4117777931721349
  0.2509644398677864  0.3816279267390783  0.4594403075807278
  0.0810443525649589  0.0529811535631524  0.5429408261406934
  0.2494620934359446  0.5378504813231686  0.4189130513080741
  0.4139829871274898  0.9251333199335434  0.3808292733941769
  0.5846088829204348  0.2534441790536732  0.5794185918190351
  0.5813387706713300  0.0639245317853891  0.3802453861148649
  0.4163298304986824  0.8996664081757118  0.5842286915415613
  0.5828059266265981  0.5255472504206438  0.6182756366533226
  0.4226873163591875  0.3646631247436503  0.6268403938544154
  0.4169530463294748  0.1771597479582638  0.4252382888329578
  0.5822890685451654  0.7128908535773064  0.5891090609569929
  0.4143061167966877  0.7272571117363356  0.4092294589017413
  0.5841814147337132  0.3821563637797709  0.4641406678707369
  0.4155179377488452  0.0535571208455963  0.5423968720287604
  0.5836642687743847  0.5328524193394273  0.4180947677720752
  0.7489808827549709  0.9242814268061466  0.3804834663957806
  0.9137150479098963  0.2598703370933606  0.5745716920428094
  0.9161056588310643  0.0638732862716935  0.3801707987749268
  0.7482879442756598  0.9007402588987361  0.5842488013440956
  0.9189149401650951  0.5076168205143645  0.6231415122572841
  0.7470285348099068  0.3644788660373806  0.6276047668396885
  0.7477006831669541  0.1765917035961735  0.4226946553029407
  0.9158773490169807  0.7095731578878954  0.5915575480438946
  0.7505507870449648  0.7261643035626690  0.4101444960278897
  0.9161688670785111  0.3815635124272490  0.4607940558706076
  0.7489119554336412  0.0543991095369591  0.5408814952229193
  0.9159045999811966  0.5367962035338323  0.4195855488126838
  0.5763212971584863  0.4262784703997369  0.6699207464992298
 
  0.00000000E+00  0.00000000E+00  0.00000000E+00
  0.00000000E+00  0.00000000E+00  0.00000000E+00
  0.00000000E+00  0.00000000E+00  0.00000000E+00
  0.00000000E+00  0.00000000E+00  0.00000000E+00
  0.00000000E+00  0.00000000E+00  0.00000000E+00
  0.00000000E+00  0.00000000E+00  0.00000000E+00
  0.00000000E+00  0.00000000E+00  0.00000000E+00
  0.00000000E+00  0.00000000E+00  0.00000000E+00
  0.00000000E+00  0.00000000E+00  0.00000000E+00
  0.00000000E+00  0.00000000E+00  0.00000000E+00
  0.00000000E+00  0.00000000E+00  0.00000000E+00
  0.00000000E+00  0.00000000E+00  0.00000000E+00
  0.00000000E+00  0.00000000E+00  0.00000000E+00
  0.00000000E+00  0.00000000E+00  0.00000000E+00
  0.00000000E+00  0.00000000E+00  0.00000000E+00
  0.00000000E+00  0.00000000E+00  0.00000000E+00
  0.00000000E+00  0.00000000E+00  0.00000000E+00
  0.00000000E+00  0.00000000E+00  0.00000000E+00
  0.00000000E+00  0.00000000E+00  0.00000000E+00
  0.00000000E+00  0.00000000E+00  0.00000000E+00
  0.00000000E+00  0.00000000E+00  0.00000000E+00
  0.00000000E+00  0.00000000E+00  0.00000000E+00
  0.00000000E+00  0.00000000E+00  0.00000000E+00
  0.00000000E+00  0.00000000E+00  0.00000000E+00
  0.00000000E+00  0.00000000E+00  0.00000000E+00
  0.00000000E+00  0.00000000E+00  0.00000000E+00
  0.00000000E+00  0.00000000E+00  0.00000000E+00
  0.00000000E+00  0.00000000E+00  0.00000000E+00
  0.00000000E+00  0.00000000E+00  0.00000000E+00
  0.00000000E+00  0.00000000E+00  0.00000000E+00
  0.00000000E+00  0.00000000E+00  0.00000000E+00
  0.00000000E+00  0.00000000E+00  0.00000000E+00
  0.00000000E+00  0.00000000E+00  0.00000000E+00
  0.00000000E+00  0.00000000E+00  0.00000000E+00
  0.00000000E+00  0.00000000E+00  0.00000000E+00
  0.00000000E+00  0.00000000E+00  0.00000000E+00
  0.00000000E+00  0.00000000E+00  0.00000000E+00
  0.00000000E+00  0.00000000E+00  0.00000000E+00
  0.00000000E+00  0.00000000E+00  0.00000000E+00
  0.00000000E+00  0.00000000E+00  0.00000000E+00
  0.00000000E+00  0.00000000E+00  0.00000000E+00
  0.00000000E+00  0.00000000E+00  0.00000000E+00
  0.00000000E+00  0.00000000E+00  0.00000000E+00
  0.00000000E+00  0.00000000E+00  0.00000000E+00
  0.00000000E+00  0.00000000E+00  0.00000000E+00
  0.00000000E+00  0.00000000E+00  0.00000000E+00
  0.00000000E+00  0.00000000E+00  0.00000000E+00
  0.00000000E+00  0.00000000E+00  0.00000000E+00
  0.00000000E+00  0.00000000E+00  0.00000000E+00
