CONTCAR\(11)                            
   1.00000000000000     
    14.0796003342000002    0.0000000000000000    0.0000000000000000
    -7.0398001671000001   12.1932915645000008    0.0000000000000000
     0.0000000000000000    0.0000000000000000   18.0872001647999987
   Ti   Se   O    H 
    16    32     2     1
Direct
 -0.0012193724472138  0.0044536811708522  0.4981633821174639
  0.2451423724782198  0.9956584261178550  0.4982516038787667
  0.4990801262715811  0.0044580723069963  0.4982190852744264
  0.7448480227406404  0.9954052894476142  0.4985343725665504
  0.9994495129853933  0.2506934180812819  0.4985944239057150
  0.2525900436896204  0.2493945117021865  0.4983411237415343
  0.5006058368242400  0.2506426064538204  0.4982201175624280
  0.7536917564253643  0.2496850649744179  0.4984923458667930
 -0.0008969174622170  0.5047758599116031  0.4977623391470407
  0.2453539981303005  0.4959716384872707  0.4982996340420737
  0.5001548631399179  0.5062301800572662  0.4977067841949655
  0.7455479952454978  0.4960727489935187  0.4976872760323787
  0.9995054893505492  0.7507859344325273  0.4979454279296044
  0.2533638507476939  0.7495907795055547  0.4982575686844201
  0.4993964098445181  0.7508183398144672  0.4987926162980696
  0.7538286834890463  0.7501230331216860  0.4980462989775237
  0.0812703837994454  0.1657143277199073  0.4118676218902119
  0.1655855883626676  0.0831959120805442  0.5845199283043564
  0.3327997374565378  0.1686956037637503  0.4122740284946427
  0.4175202253152167  0.0830975906641499  0.5848015082435652
  0.5813833230814222  0.1654000467921979  0.4118169762490249
  0.6657909533290068  0.0834386815043639  0.5846340681227996
  0.8326550568206774  0.1683249086194486  0.4120627391917293
  0.9173575175959674  0.0833437363896044  0.5847405092116824
  0.0841911405996365  0.4163249111316745  0.4116147394595485
  0.1658847508894463  0.3352135243059025  0.5850160358454053
  0.3327098268963481  0.4169619873512936  0.4120596308026976
  0.4148949257663820  0.3320929718721264  0.5845769726369427
  0.5838082091875441  0.4162261033997071  0.4115747454000894
  0.6660307482128908  0.3352406843815474  0.5848029257149223
  0.8325806267035835  0.4166787346079672  0.4115921179967738
  0.9146597811102748  0.3321898233437044  0.5847387443799720
  0.0813846280516543  0.6656487865197592  0.4114658248106841
  0.1655549009576074  0.5834874696282746  0.5844011960403770
  0.3330287991123583  0.6688058479051466  0.4118416733826892
  0.4177774597775089  0.5834166309964507  0.5847400321103231
  0.5813007384945277  0.6661876522039956  0.4114778829218666
  0.6666049614479408  0.5842349745815034  0.5837662535783010
  0.8331106356912467  0.6688355616259342  0.4113582466880670
  0.9174157637677101  0.5835410508733735  0.5843834061352066
  0.0842025237220305  0.9166696394307263  0.4114988710462198
  0.1654718103575843  0.8347009087912469  0.5845839728951819
  0.3327195153163248  0.9168571503760535  0.4118664554403710
  0.4144932627820801  0.8319242831828709  0.5848653252192755
  0.5842101946750304  0.9163395362288772  0.4117588719735711
  0.6659224608447062  0.8347741530885336  0.5849659457626201
  0.8327665636903615  0.9171370998719004  0.4116660482816535
  0.9146836672764634  0.8320754978714072  0.5846488084429281
  0.5069055503851507  0.4471863146240460  0.7546938182418981
  0.5474521197607836  0.5557083234311277  0.7489386786247201
  0.4812493063087177  0.4167104852620083  0.7035601102399218
 
  0.00000000E+00  0.00000000E+00  0.00000000E+00
  0.00000000E+00  0.00000000E+00  0.00000000E+00
  0.00000000E+00  0.00000000E+00  0.00000000E+00
  0.00000000E+00  0.00000000E+00  0.00000000E+00
  0.00000000E+00  0.00000000E+00  0.00000000E+00
  0.00000000E+00  0.00000000E+00  0.00000000E+00
  0.00000000E+00  0.00000000E+00  0.00000000E+00
  0.00000000E+00  0.00000000E+00  0.00000000E+00
  0.00000000E+00  0.00000000E+00  0.00000000E+00
  0.00000000E+00  0.00000000E+00  0.00000000E+00
  0.00000000E+00  0.00000000E+00  0.00000000E+00
  0.00000000E+00  0.00000000E+00  0.00000000E+00
  0.00000000E+00  0.00000000E+00  0.00000000E+00
  0.00000000E+00  0.00000000E+00  0.00000000E+00
  0.00000000E+00  0.00000000E+00  0.00000000E+00
  0.00000000E+00  0.00000000E+00  0.00000000E+00
  0.00000000E+00  0.00000000E+00  0.00000000E+00
  0.00000000E+00  0.00000000E+00  0.00000000E+00
  0.00000000E+00  0.00000000E+00  0.00000000E+00
  0.00000000E+00  0.00000000E+00  0.00000000E+00
  0.00000000E+00  0.00000000E+00  0.00000000E+00
  0.00000000E+00  0.00000000E+00  0.00000000E+00
  0.00000000E+00  0.00000000E+00  0.00000000E+00
  0.00000000E+00  0.00000000E+00  0.00000000E+00
  0.00000000E+00  0.00000000E+00  0.00000000E+00
  0.00000000E+00  0.00000000E+00  0.00000000E+00
  0.00000000E+00  0.00000000E+00  0.00000000E+00
  0.00000000E+00  0.00000000E+00  0.00000000E+00
  0.00000000E+00  0.00000000E+00  0.00000000E+00
  0.00000000E+00  0.00000000E+00  0.00000000E+00
  0.00000000E+00  0.00000000E+00  0.00000000E+00
  0.00000000E+00  0.00000000E+00  0.00000000E+00
  0.00000000E+00  0.00000000E+00  0.00000000E+00
  0.00000000E+00  0.00000000E+00  0.00000000E+00
  0.00000000E+00  0.00000000E+00  0.00000000E+00
  0.00000000E+00  0.00000000E+00  0.00000000E+00
  0.00000000E+00  0.00000000E+00  0.00000000E+00
  0.00000000E+00  0.00000000E+00  0.00000000E+00
  0.00000000E+00  0.00000000E+00  0.00000000E+00
  0.00000000E+00  0.00000000E+00  0.00000000E+00
  0.00000000E+00  0.00000000E+00  0.00000000E+00
  0.00000000E+00  0.00000000E+00  0.00000000E+00
  0.00000000E+00  0.00000000E+00  0.00000000E+00
  0.00000000E+00  0.00000000E+00  0.00000000E+00
  0.00000000E+00  0.00000000E+00  0.00000000E+00
  0.00000000E+00  0.00000000E+00  0.00000000E+00
  0.00000000E+00  0.00000000E+00  0.00000000E+00
  0.00000000E+00  0.00000000E+00  0.00000000E+00
  0.00000000E+00  0.00000000E+00  0.00000000E+00
  0.00000000E+00  0.00000000E+00  0.00000000E+00
  0.00000000E+00  0.00000000E+00  0.00000000E+00
