CONTCAR\(6)                             
   1.00000000000000     
    13.8635997771999993    0.0000000000000000    0.0000000000000000
     6.9317998885999996   12.0062295950000006    0.0000000000000000
     0.0000000000000000    0.0000000000000000   20.7936000824000011
   Sc   Cl   O    H 
    32    32     1     1
Selective dynamics
Direct
  0.0001596654747118  0.0001213664903617  0.5597035973376450   F   F   F
  0.0833446677453082  0.0833369014909167  0.4387969345175335   F   F   F
  0.2499335104075229  0.0001931149470735  0.5597017300095928   F   F   F
  0.3333772001432251  0.0833392358967018  0.4388382344918256   F   F   F
  0.4997674884557739  0.0001437578299743  0.5597426405524999   F   F   F
  0.5832661993953536  0.0834356116265766  0.4389972368973929   F   F   F
  0.7500194841690160  0.0000225241381031  0.5599580592133933   F   F   F
  0.8333815877809485  0.0834074486990701  0.4389402667968554   F   F   F
  0.0002773754154575  0.2498880293329009  0.5596670870494052   F   F   F
  0.0833487883094506  0.3333699119295090  0.4388212280543300   F   F   F
  0.2499414043832360  0.2499293349279981  0.5597252101995025   F   F   F
  0.3333861407226948  0.3333842578815123  0.4387984939822118   F   F   F
  0.4997354508375835  0.2501944449726636  0.5601186304185504   F   F   F
  0.5833778740730651  0.3333686525594572  0.4390624923850552   F   F   F
  0.7501955777667249  0.2501185362061378  0.5600076014253546   F   F   F
  0.8333609031859410  0.3333377527352610  0.4386659519364784   F   F   F
  0.0001632786825638  0.4997643002876302  0.5597181113053367   F   F   F
  0.0834560589435043  0.5832569121153455  0.4389900706426744   F   F   F
  0.2502453606261170  0.4997254448268365  0.5601125392301256   F   F   F
  0.3334147983569693  0.5833289102248003  0.4390949660022727   F   F   F
  0.5000842178368003  0.4999975572330513  0.5621071251753733   F   F   F
  0.5833683179295690  0.5833171297700659  0.4390422884631064   F   F   F
  0.7501771232910741  0.4997365920067196  0.5600072865593191   F   F   F
  0.8333866707659467  0.5832541015797545  0.4389430405073469   F   F   F
  0.0000260434233681  0.7500132245924434  0.5599624834884054   F   F   F
  0.0834468277973741  0.8333382476446545  0.4389785539790552   F   F   F
  0.2502169783707799  0.7501182922535889  0.5600870456276112   F   F   F
  0.3333681216775446  0.8333046968631521  0.4387683926194939   F   F   F
  0.4997220605698374  0.7501398032548181  0.5600877302377967   F   F   F
  0.5832621158129498  0.8333610397380298  0.4389846864528124   F   F   F
  0.7500048009842502  0.7500031498110644  0.5599552347627323   F   F   F
  0.8333655091150192  0.8333397773630153  0.4391219216742002   F   F   F
  0.1667194919104134  0.1666927394632083  0.3599987203988775   F   F   F
  0.1666973231631701  0.1666698541622722  0.6384639199555906   F   F   F
  0.4167654312724807  0.1666889925568853  0.3600423233808527   F   F   F
  0.4165439732789764  0.1663842736297170  0.6385070943252629   F   F   F
  0.6666271633032395  0.1667718024124127  0.3602429717035136   F   F   F
  0.6667269368825330  0.1666936342406515  0.6383811894388458   F   F   F
  0.9166492510175956  0.1666182214712180  0.3599479103984891   F   F   F
  0.9171483776288483  0.1663820331727806  0.6384153745394556   F   F   F
  0.1667130476912106  0.4167564742109917  0.3600322543752057   F   F   F
  0.1663977563794177  0.4165380682091495  0.6384940320027113   F   F   F
  0.4168157210063939  0.4167888136403164  0.3601065227386471   F   F   F
  0.4157083832665052  0.4157100760341592  0.6373076506682267   F   F   F
  0.6664908689038853  0.4167854645164581  0.3600363652738068   F   F   F
  0.6688720554192571  0.4155864009767782  0.6371332652930732   F   F   F
  0.9166629559964363  0.4167671177798482  0.3599594992357780   F   F   F
  0.9171369851502646  0.4165236632879470  0.6384134691505636   F   F   F
  0.1668232000378111  0.6666063904862014  0.3602649685398305   F   F   F
  0.1666868575003093  0.6666962076102294  0.6384392225221305   F   F   F
  0.4167901071150411  0.6664819730850056  0.3600834921744749   F   F   F
  0.4156654680472656  0.6687012813518010  0.6372736102310554   F   F   F
  0.6666456079988521  0.6666607719003963  0.3602365739267057   F   F   F
  0.6666906171548135  0.6666340036594747  0.6383607218893417   F   F   F
  0.9167088979664726  0.6667200254527046  0.3602235267201550   F   F   F
  0.9168095763688839  0.6664175890664481  0.6385737426526248   F   F   F
  0.1666989922753217  0.9165825122553457  0.3600075044284665   F   F   F
  0.1663888647275442  0.9171284007823743  0.6384751252600225   F   F   F
  0.4167626090767982  0.9166138274624203  0.3600270369805116   F   F   F
  0.4165265109438891  0.9171298424085990  0.6384842594934241   F   F   F
  0.6667106803961431  0.9166834182159462  0.3602487645596142   F   F   F
  0.6664265859201493  0.9168035693179206  0.6385797287456896   F   F   F
  0.9166954955191571  0.9166209489345292  0.3602172051865509   F   F   F
  0.9168154612703105  0.9168102376851692  0.6385681997534505   F   F   F
  0.5025501271457955  0.4993161487470559  0.7427887991812767   T   T   T
  0.4962868058151528  0.5040147245843016  0.7889863550754471   T   T   T
 
  0.00000000E+00  0.00000000E+00  0.00000000E+00
  0.00000000E+00  0.00000000E+00  0.00000000E+00
  0.00000000E+00  0.00000000E+00  0.00000000E+00
  0.00000000E+00  0.00000000E+00  0.00000000E+00
  0.00000000E+00  0.00000000E+00  0.00000000E+00
  0.00000000E+00  0.00000000E+00  0.00000000E+00
  0.00000000E+00  0.00000000E+00  0.00000000E+00
  0.00000000E+00  0.00000000E+00  0.00000000E+00
  0.00000000E+00  0.00000000E+00  0.00000000E+00
  0.00000000E+00  0.00000000E+00  0.00000000E+00
  0.00000000E+00  0.00000000E+00  0.00000000E+00
  0.00000000E+00  0.00000000E+00  0.00000000E+00
  0.00000000E+00  0.00000000E+00  0.00000000E+00
  0.00000000E+00  0.00000000E+00  0.00000000E+00
  0.00000000E+00  0.00000000E+00  0.00000000E+00
  0.00000000E+00  0.00000000E+00  0.00000000E+00
  0.00000000E+00  0.00000000E+00  0.00000000E+00
  0.00000000E+00  0.00000000E+00  0.00000000E+00
  0.00000000E+00  0.00000000E+00  0.00000000E+00
  0.00000000E+00  0.00000000E+00  0.00000000E+00
  0.00000000E+00  0.00000000E+00  0.00000000E+00
  0.00000000E+00  0.00000000E+00  0.00000000E+00
  0.00000000E+00  0.00000000E+00  0.00000000E+00
  0.00000000E+00  0.00000000E+00  0.00000000E+00
  0.00000000E+00  0.00000000E+00  0.00000000E+00
  0.00000000E+00  0.00000000E+00  0.00000000E+00
  0.00000000E+00  0.00000000E+00  0.00000000E+00
  0.00000000E+00  0.00000000E+00  0.00000000E+00
  0.00000000E+00  0.00000000E+00  0.00000000E+00
  0.00000000E+00  0.00000000E+00  0.00000000E+00
  0.00000000E+00  0.00000000E+00  0.00000000E+00
  0.00000000E+00  0.00000000E+00  0.00000000E+00
  0.00000000E+00  0.00000000E+00  0.00000000E+00
  0.00000000E+00  0.00000000E+00  0.00000000E+00
  0.00000000E+00  0.00000000E+00  0.00000000E+00
  0.00000000E+00  0.00000000E+00  0.00000000E+00
  0.00000000E+00  0.00000000E+00  0.00000000E+00
  0.00000000E+00  0.00000000E+00  0.00000000E+00
  0.00000000E+00  0.00000000E+00  0.00000000E+00
  0.00000000E+00  0.00000000E+00  0.00000000E+00
  0.00000000E+00  0.00000000E+00  0.00000000E+00
  0.00000000E+00  0.00000000E+00  0.00000000E+00
  0.00000000E+00  0.00000000E+00  0.00000000E+00
  0.00000000E+00  0.00000000E+00  0.00000000E+00
  0.00000000E+00  0.00000000E+00  0.00000000E+00
  0.00000000E+00  0.00000000E+00  0.00000000E+00
  0.00000000E+00  0.00000000E+00  0.00000000E+00
  0.00000000E+00  0.00000000E+00  0.00000000E+00
  0.00000000E+00  0.00000000E+00  0.00000000E+00
  0.00000000E+00  0.00000000E+00  0.00000000E+00
  0.00000000E+00  0.00000000E+00  0.00000000E+00
  0.00000000E+00  0.00000000E+00  0.00000000E+00
  0.00000000E+00  0.00000000E+00  0.00000000E+00
  0.00000000E+00  0.00000000E+00  0.00000000E+00
  0.00000000E+00  0.00000000E+00  0.00000000E+00
  0.00000000E+00  0.00000000E+00  0.00000000E+00
  0.00000000E+00  0.00000000E+00  0.00000000E+00
  0.00000000E+00  0.00000000E+00  0.00000000E+00
  0.00000000E+00  0.00000000E+00  0.00000000E+00
  0.00000000E+00  0.00000000E+00  0.00000000E+00
  0.00000000E+00  0.00000000E+00  0.00000000E+00
  0.00000000E+00  0.00000000E+00  0.00000000E+00
  0.00000000E+00  0.00000000E+00  0.00000000E+00
  0.00000000E+00  0.00000000E+00  0.00000000E+00
  0.00000000E+00  0.00000000E+00  0.00000000E+00
  0.00000000E+00  0.00000000E+00  0.00000000E+00
