CONTCAR\(9)                             
   1.00000000000000     
    14.3102998734000000    0.0000000000000000    0.0000000000000000
     0.0000000000000000   14.3102998734000000    0.0000000000000000
     0.0000000000000000    0.0000000000000000   17.4472007751000007
   Fe   S    O 
    32    32     1
Direct
  0.1247998271230498  0.1268162631430280  0.5018077195937781
 -0.0000272447755546  0.0018832218335618  0.5007940007808124
  0.3750369475036042  0.1273247326606592  0.5025402783940459
  0.2500232663249591  0.0018922672596608  0.5014692094957932
  0.6252470244311306  0.1268194979513171  0.5018889870446641
  0.5000633103931366  0.0019385215846315  0.5015302868450515
  0.8750196883951449  0.1267942533782796  0.5013586120503226
  0.7500916055269782  0.0018373598826397  0.5007914590300597
  0.1247632015895652  0.3767213429061509  0.5018145911991778
  0.9997707129960896  0.2518161524244378  0.5018396355971405
  0.3749990147118869  0.3763144724216858  0.4993933331815525
  0.2497278686139897  0.2518032336625317  0.5024027060255399
  0.6252263861782706  0.3767153122710690  0.5018938660881292
  0.5003011632411146  0.2517660553936916  0.5024871829762995
  0.8750253598358112  0.3770085400775685  0.5021501765009500
  0.7502493158294710  0.2518318617796504  0.5018903116202621
  0.1249906213962318  0.6270468935037683  0.5004289288320912
  0.0003884086920923  0.5020916152803419  0.5016643337196224
  0.3750068850463353  0.6269510152180434  0.4974830353794304
  0.2495904010135324  0.5017121445680306  0.4985451319509433
  0.6250662406917836  0.6270686165994441  0.5004867328140967
  0.5004601148416207  0.5017710275284201  0.4986546578908126
  0.8750416667093937  0.6270341806394687  0.5012246529930968
  0.7496718542611881  0.5020781089356269  0.5017114396062156
  0.1250278501882057  0.8770998019480487  0.5003976167350093
 -0.0000009900321914  0.7521302464140746  0.5005560705191495
  0.3750407112353024  0.8764846864337376  0.5004577687609597
  0.2498947774445320  0.7519111194148891  0.4995012281988052
  0.6250474077847832  0.8770874182106775  0.5004578466503551
  0.5001494126714684  0.7519410855053010  0.4996343341651026
  0.8750483819563969  0.8769161981808511  0.5002501045860037
  0.7500888548577286  0.7520838734895576  0.5005759834862324
  0.0000500409097071  0.1272377290805650  0.4311626460175135
  0.1247102691836077  0.0014448846247395  0.5713787997204713
  0.2501960363493518  0.1271504929836581  0.4319567553711989
  0.3750540228700296  0.0010747077321043  0.5715936904755815
  0.4998690426496868  0.1271859876695181  0.4320511610243458
  0.6253307778876237  0.0014314009453549  0.5714244447133346
  0.7499616367099733  0.1272932289749708  0.4311593583268977
  0.8750497361176983  0.0014287080599701  0.5710189612952652
  0.9997113928232035  0.3768815084590759  0.4317000645595735
  0.1243359266033444  0.2516444401406094  0.5723461979978893
  0.2486961626386608  0.3750207203163259  0.4308935830553019
  0.3749610928764085  0.2531935076165444  0.5721678591504057
  0.5013005582853728  0.3750684299546344  0.4309872783108787
  0.6256808143674438  0.2516822950880986  0.5724431892543860
  0.7502643964407734  0.3769244830275564  0.4316860478559289
  0.8750489388899400  0.2515642118184189  0.5721593411273199
  0.9996215449775517  0.6266610175125648  0.4307977045070163
  0.1262919868577018  0.5024560486072065  0.5710344989701580
  0.2486375836313937  0.6273784239403981  0.4292072363870259
  0.3750300805244052  0.5023363470802038  0.5661359090198611
  0.5014569448544295  0.6273824709793836  0.4293245505983531
  0.6237508463597061  0.5024270871824940  0.5710866716944072
  0.7504108967074219  0.6266706600368140  0.4308115337128516
  0.8750551526419669  0.5023640469078583  0.5717653898471955
  0.0000690260959603  0.8771345684101465  0.4301479161734987
  0.1252809006728901  0.7521806066336304  0.5704404467636969
  0.2500348561301057  0.8777316307904174  0.4301602872469373
  0.3749600580960562  0.7504319610166352  0.5695114232896046
  0.5000470753251244  0.8777151617477459  0.4303153538434096
  0.6248159831908933  0.7522011116259611  0.5705162473516968
  0.7499873905849956  0.8771576855250915  0.4300987943507468
  0.8750649017375662  0.7523911842775569  0.5708851215925594
  0.3749538393319428  0.5032620637329008  0.6513097346831728
 
  0.00000000E+00  0.00000000E+00  0.00000000E+00
  0.00000000E+00  0.00000000E+00  0.00000000E+00
  0.00000000E+00  0.00000000E+00  0.00000000E+00
  0.00000000E+00  0.00000000E+00  0.00000000E+00
  0.00000000E+00  0.00000000E+00  0.00000000E+00
  0.00000000E+00  0.00000000E+00  0.00000000E+00
  0.00000000E+00  0.00000000E+00  0.00000000E+00
  0.00000000E+00  0.00000000E+00  0.00000000E+00
  0.00000000E+00  0.00000000E+00  0.00000000E+00
  0.00000000E+00  0.00000000E+00  0.00000000E+00
  0.00000000E+00  0.00000000E+00  0.00000000E+00
  0.00000000E+00  0.00000000E+00  0.00000000E+00
  0.00000000E+00  0.00000000E+00  0.00000000E+00
  0.00000000E+00  0.00000000E+00  0.00000000E+00
  0.00000000E+00  0.00000000E+00  0.00000000E+00
  0.00000000E+00  0.00000000E+00  0.00000000E+00
  0.00000000E+00  0.00000000E+00  0.00000000E+00
  0.00000000E+00  0.00000000E+00  0.00000000E+00
  0.00000000E+00  0.00000000E+00  0.00000000E+00
  0.00000000E+00  0.00000000E+00  0.00000000E+00
  0.00000000E+00  0.00000000E+00  0.00000000E+00
  0.00000000E+00  0.00000000E+00  0.00000000E+00
  0.00000000E+00  0.00000000E+00  0.00000000E+00
  0.00000000E+00  0.00000000E+00  0.00000000E+00
  0.00000000E+00  0.00000000E+00  0.00000000E+00
  0.00000000E+00  0.00000000E+00  0.00000000E+00
  0.00000000E+00  0.00000000E+00  0.00000000E+00
  0.00000000E+00  0.00000000E+00  0.00000000E+00
  0.00000000E+00  0.00000000E+00  0.00000000E+00
  0.00000000E+00  0.00000000E+00  0.00000000E+00
  0.00000000E+00  0.00000000E+00  0.00000000E+00
  0.00000000E+00  0.00000000E+00  0.00000000E+00
  0.00000000E+00  0.00000000E+00  0.00000000E+00
  0.00000000E+00  0.00000000E+00  0.00000000E+00
  0.00000000E+00  0.00000000E+00  0.00000000E+00
  0.00000000E+00  0.00000000E+00  0.00000000E+00
  0.00000000E+00  0.00000000E+00  0.00000000E+00
  0.00000000E+00  0.00000000E+00  0.00000000E+00
  0.00000000E+00  0.00000000E+00  0.00000000E+00
  0.00000000E+00  0.00000000E+00  0.00000000E+00
  0.00000000E+00  0.00000000E+00  0.00000000E+00
  0.00000000E+00  0.00000000E+00  0.00000000E+00
  0.00000000E+00  0.00000000E+00  0.00000000E+00
  0.00000000E+00  0.00000000E+00  0.00000000E+00
  0.00000000E+00  0.00000000E+00  0.00000000E+00
  0.00000000E+00  0.00000000E+00  0.00000000E+00
  0.00000000E+00  0.00000000E+00  0.00000000E+00
  0.00000000E+00  0.00000000E+00  0.00000000E+00
  0.00000000E+00  0.00000000E+00  0.00000000E+00
  0.00000000E+00  0.00000000E+00  0.00000000E+00
  0.00000000E+00  0.00000000E+00  0.00000000E+00
  0.00000000E+00  0.00000000E+00  0.00000000E+00
  0.00000000E+00  0.00000000E+00  0.00000000E+00
  0.00000000E+00  0.00000000E+00  0.00000000E+00
  0.00000000E+00  0.00000000E+00  0.00000000E+00
  0.00000000E+00  0.00000000E+00  0.00000000E+00
  0.00000000E+00  0.00000000E+00  0.00000000E+00
  0.00000000E+00  0.00000000E+00  0.00000000E+00
  0.00000000E+00  0.00000000E+00  0.00000000E+00
  0.00000000E+00  0.00000000E+00  0.00000000E+00
  0.00000000E+00  0.00000000E+00  0.00000000E+00
  0.00000000E+00  0.00000000E+00  0.00000000E+00
  0.00000000E+00  0.00000000E+00  0.00000000E+00
  0.00000000E+00  0.00000000E+00  0.00000000E+00
  0.00000000E+00  0.00000000E+00  0.00000000E+00
