CONTCAR\(3)                             
   1.00000000000000     
    10.9576997757000001    0.0000000000000000    0.0000000000000000
     0.0000000000000000   18.6480007171999986    0.0000000000000000
     0.0000000000000000    0.0000000000000000   19.2721004485999998
   Ta   Te   Pd   O    H 
    12    30    18     1     1
Selective dynamics
Direct
  0.9980784493534500  0.9156800917877987  0.4989352873821815   F   F   F
  0.1633520055318129  0.4173324968132874  0.5022242554020195   F   F   F
  0.9982166773383483  0.1676965496687046  0.4992316242061605   F   F   F
  0.1635354053697000  0.6661834423392961  0.5017419624025337   F   F   F
  0.3321597518595922  0.9152506516202266  0.4993580858455999   F   F   F
  0.5007943836809190  0.4160467001842107  0.5039759972907234   F   F   F
  0.3319776302276338  0.1682601151941086  0.4998386273256585   F   F   F
  0.5004788122934087  0.6673196114989679  0.5037334729513319   F   F   F
  0.6640887162026914  0.9161331033868265  0.4985840373472357   F   F   F
  0.8278864867547142  0.4150803721276262  0.5009344778061546   F   F   F
  0.6642571933658772  0.1673879501906086  0.4990632804365944   F   F   F
  0.8271569312760292  0.6683922498880364  0.5005291992085219   F   F   F
  0.9964936905088848  0.7194184699406208  0.6043605757804258   F   F   F
  0.1662961077193259  0.8630299758097664  0.3959918538219185   F   F   F
  0.1663547661702864  0.2201621885118072  0.3963353147656363   F   F   F
  0.9967354975332725  0.3645563872658357  0.6049957234256027   F   F   F
  0.9970072129956122  0.6469648553635281  0.3893597942494580   F   F   F
  0.1653879019731974  0.1460811616256663  0.6115309005648157   F   F   F
  0.1569168707227959  0.5419663127939316  0.5828077743650724   F   F   F
  0.9980817432065052  0.0417329626552529  0.4168420103345127   F   F   F
  0.9975726069104880  0.4363982910700273  0.3897374070517401   F   F   F
  0.1654761961772806  0.9369134488223665  0.6111000008305041   F   F   F
  0.3318869688770079  0.7181569563137842  0.6057844692242043   F   F   F
  0.4970482623187991  0.8657606144540608  0.3947489988656088   F   F   F
  0.4969524993110142  0.2184048258550675  0.3954790059249618   F   F   F
  0.3322303554152555  0.3652404337656705  0.6059394548243091   F   F   F
  0.3324637946718525  0.6440421073859852  0.3918996868149804   F   F   F
  0.4993016973349285  0.1454787454031603  0.6120178321416248   F   F   F
  0.5136026278136114  0.5414714958062916  0.5879971137178188   F   F   F
  0.3310410677797222  0.0418152314543505  0.4177604734648881   F   F   F
  0.3327915594222191  0.4391026351997382  0.3923122781043915   F   F   F
  0.4993534157245278  0.9379915168792294  0.6115920892269457   F   F   F
  0.6651436760090803  0.7198132514549727  0.6069594923317396   F   F   F
  0.8314073635372878  0.8652745132431576  0.3948784888485335   F   F   F
  0.8315774688431077  0.2181087477224750  0.3951972454101522   F   F   F
  0.6656812722848997  0.3635986380066214  0.6072224824619212   F   F   F
  0.6615481083985557  0.6486080823261204  0.3871377383934842   F   F   F
  0.8320759510802631  0.1449809973350824  0.6111689914120433   F   F   F
  0.8249024680012056  0.5419040617983271  0.5832460864530447   F   F   F
  0.6635746922098278  0.0418414573889976  0.4163006688331805   F   F   F
  0.6621307016690352  0.4345918975906145  0.3874048981811171   F   F   F
  0.8321367213038187  0.9381832041419997  0.6109133645791047   F   F   F
  0.9961874676543090  0.3095446925872594  0.4526637789542534   F   F   F
  0.9959386086552158  0.7737762548618292  0.4523453673589799   F   F   F
  0.1644888989899869  0.2738468075082778  0.5487031975705108   F   F   F
  0.1651465084288333  0.8094330288768319  0.5479379710287162   F   F   F
  0.9913320642798240  0.5419089808594677  0.4817465478379006   F   F   F
  0.1641444699973675  0.0416453368404319  0.5184974038090644   F   F   F
  0.3337015154894658  0.3113989168705515  0.4539353391711600   F   F   F
  0.3345552066432447  0.7720554496968290  0.4530128322395655   F   F   F
  0.4990910471154990  0.2730362827748039  0.5499708283809781   F   F   F
  0.4987651144073553  0.8104432704120015  0.5495883050774992   F   F   F
  0.3385438011695570  0.5417614575820906  0.4880251456107061   F   F   F
  0.4978578972383616  0.0418983025409858  0.5184497681626823   F   F   F
  0.6642012044766830  0.3091509759119546  0.4524973064960136   F   F   F
  0.6633580758908337  0.7743113575148968  0.4518409310256004   F   F   F
  0.8302557629049687  0.2725478699212900  0.5490111627687497   F   F   F
  0.8293149295545703  0.8108267581056268  0.5484247364516719   F   F   F
  0.6744933225457856  0.5416865453356934  0.4763099101673305   F   F   F
  0.8306913593291299  0.0416689200154252  0.5174312315489118   F   F   F
  0.3713910805100085  0.5388339139046536  0.6637452873624738   T   T   T
  0.4076465275411110  0.5481683657949361  0.7084919947677502   T   T   T
 
  0.00000000E+00  0.00000000E+00  0.00000000E+00
  0.00000000E+00  0.00000000E+00  0.00000000E+00
  0.00000000E+00  0.00000000E+00  0.00000000E+00
  0.00000000E+00  0.00000000E+00  0.00000000E+00
  0.00000000E+00  0.00000000E+00  0.00000000E+00
  0.00000000E+00  0.00000000E+00  0.00000000E+00
  0.00000000E+00  0.00000000E+00  0.00000000E+00
  0.00000000E+00  0.00000000E+00  0.00000000E+00
  0.00000000E+00  0.00000000E+00  0.00000000E+00
  0.00000000E+00  0.00000000E+00  0.00000000E+00
  0.00000000E+00  0.00000000E+00  0.00000000E+00
  0.00000000E+00  0.00000000E+00  0.00000000E+00
  0.00000000E+00  0.00000000E+00  0.00000000E+00
  0.00000000E+00  0.00000000E+00  0.00000000E+00
  0.00000000E+00  0.00000000E+00  0.00000000E+00
  0.00000000E+00  0.00000000E+00  0.00000000E+00
  0.00000000E+00  0.00000000E+00  0.00000000E+00
  0.00000000E+00  0.00000000E+00  0.00000000E+00
  0.00000000E+00  0.00000000E+00  0.00000000E+00
  0.00000000E+00  0.00000000E+00  0.00000000E+00
  0.00000000E+00  0.00000000E+00  0.00000000E+00
  0.00000000E+00  0.00000000E+00  0.00000000E+00
  0.00000000E+00  0.00000000E+00  0.00000000E+00
  0.00000000E+00  0.00000000E+00  0.00000000E+00
  0.00000000E+00  0.00000000E+00  0.00000000E+00
  0.00000000E+00  0.00000000E+00  0.00000000E+00
  0.00000000E+00  0.00000000E+00  0.00000000E+00
  0.00000000E+00  0.00000000E+00  0.00000000E+00
  0.00000000E+00  0.00000000E+00  0.00000000E+00
  0.00000000E+00  0.00000000E+00  0.00000000E+00
  0.00000000E+00  0.00000000E+00  0.00000000E+00
  0.00000000E+00  0.00000000E+00  0.00000000E+00
  0.00000000E+00  0.00000000E+00  0.00000000E+00
  0.00000000E+00  0.00000000E+00  0.00000000E+00
  0.00000000E+00  0.00000000E+00  0.00000000E+00
  0.00000000E+00  0.00000000E+00  0.00000000E+00
  0.00000000E+00  0.00000000E+00  0.00000000E+00
  0.00000000E+00  0.00000000E+00  0.00000000E+00
  0.00000000E+00  0.00000000E+00  0.00000000E+00
  0.00000000E+00  0.00000000E+00  0.00000000E+00
  0.00000000E+00  0.00000000E+00  0.00000000E+00
  0.00000000E+00  0.00000000E+00  0.00000000E+00
  0.00000000E+00  0.00000000E+00  0.00000000E+00
  0.00000000E+00  0.00000000E+00  0.00000000E+00
  0.00000000E+00  0.00000000E+00  0.00000000E+00
  0.00000000E+00  0.00000000E+00  0.00000000E+00
  0.00000000E+00  0.00000000E+00  0.00000000E+00
  0.00000000E+00  0.00000000E+00  0.00000000E+00
  0.00000000E+00  0.00000000E+00  0.00000000E+00
  0.00000000E+00  0.00000000E+00  0.00000000E+00
  0.00000000E+00  0.00000000E+00  0.00000000E+00
  0.00000000E+00  0.00000000E+00  0.00000000E+00
  0.00000000E+00  0.00000000E+00  0.00000000E+00
  0.00000000E+00  0.00000000E+00  0.00000000E+00
  0.00000000E+00  0.00000000E+00  0.00000000E+00
  0.00000000E+00  0.00000000E+00  0.00000000E+00
  0.00000000E+00  0.00000000E+00  0.00000000E+00
  0.00000000E+00  0.00000000E+00  0.00000000E+00
  0.00000000E+00  0.00000000E+00  0.00000000E+00
  0.00000000E+00  0.00000000E+00  0.00000000E+00
  0.00000000E+00  0.00000000E+00  0.00000000E+00
  0.00000000E+00  0.00000000E+00  0.00000000E+00
