 Cr1 Br2                                
   1.00000000000000     
     3.6350572027310477    0.0000000000000000    0.0000000000000000
     1.8175281034300794    3.5486130897970258    0.0000000000000000
     0.0000000000000000    0.0000000000000000   18.0140064127480031
   Cr   Br
     1     2
Direct
  0.0000000000900116  0.9999999997206217  0.4999999999714291
  0.6228367154778383  0.7547297408290490  0.5852736019001838
  0.3771632844321502  0.2452702594503364  0.4147263981283942
 
  0.00000000E+00  0.00000000E+00  0.00000000E+00
  0.00000000E+00  0.00000000E+00  0.00000000E+00
  0.00000000E+00  0.00000000E+00  0.00000000E+00
