G   62   56    1    0.005     # Parameters to Generate KPOINTS (Don't Edit This Line)
    1738
Reciprocal lattice
    0.000000000000    0.000000000000    0.000000000000       1
    0.016129032258    0.000000000000    0.000000000000       2
    0.032258064516    0.000000000000    0.000000000000       2
    0.048387096774    0.000000000000    0.000000000000       2
    0.064516129032    0.000000000000    0.000000000000       2
    0.080645161290    0.000000000000    0.000000000000       2
    0.096774193548    0.000000000000    0.000000000000       2
    0.112903225806    0.000000000000    0.000000000000       2
    0.129032258065    0.000000000000    0.000000000000       2
    0.145161290323    0.000000000000    0.000000000000       2
    0.161290322581    0.000000000000    0.000000000000       2
    0.177419354839    0.000000000000    0.000000000000       2
    0.193548387097    0.000000000000    0.000000000000       2
    0.209677419355    0.000000000000    0.000000000000       2
    0.225806451613    0.000000000000    0.000000000000       2
    0.241935483871    0.000000000000    0.000000000000       2
    0.258064516129    0.000000000000    0.000000000000       2
    0.274193548387    0.000000000000    0.000000000000       2
    0.290322580645    0.000000000000    0.000000000000       2
    0.306451612903    0.000000000000    0.000000000000       2
    0.322580645161    0.000000000000    0.000000000000       2
    0.338709677419    0.000000000000    0.000000000000       2
    0.354838709677    0.000000000000    0.000000000000       2
    0.370967741935    0.000000000000    0.000000000000       2
    0.387096774194    0.000000000000    0.000000000000       2
    0.403225806452    0.000000000000    0.000000000000       2
    0.419354838710    0.000000000000    0.000000000000       2
    0.435483870968    0.000000000000    0.000000000000       2
    0.451612903226    0.000000000000    0.000000000000       2
    0.467741935484    0.000000000000    0.000000000000       2
    0.483870967742    0.000000000000    0.000000000000       2
    0.500000000000    0.000000000000    0.000000000000       1
    0.000000000000    0.017857142857    0.000000000000       2
    0.016129032258    0.017857142857    0.000000000000       2
    0.032258064516    0.017857142857    0.000000000000       2
    0.048387096774    0.017857142857    0.000000000000       2
    0.064516129032    0.017857142857    0.000000000000       2
    0.080645161290    0.017857142857    0.000000000000       2
    0.096774193548    0.017857142857    0.000000000000       2
    0.112903225806    0.017857142857    0.000000000000       2
    0.129032258065    0.017857142857    0.000000000000       2
    0.145161290323    0.017857142857    0.000000000000       2
    0.161290322581    0.017857142857    0.000000000000       2
    0.177419354839    0.017857142857    0.000000000000       2
    0.193548387097    0.017857142857    0.000000000000       2
    0.209677419355    0.017857142857    0.000000000000       2
    0.225806451613    0.017857142857    0.000000000000       2
    0.241935483871    0.017857142857    0.000000000000       2
    0.258064516129    0.017857142857    0.000000000000       2
    0.274193548387    0.017857142857    0.000000000000       2
    0.290322580645    0.017857142857    0.000000000000       2
    0.306451612903    0.017857142857    0.000000000000       2
    0.322580645161    0.017857142857    0.000000000000       2
    0.338709677419    0.017857142857    0.000000000000       2
    0.354838709677    0.017857142857    0.000000000000       2
    0.370967741935    0.017857142857    0.000000000000       2
    0.387096774194    0.017857142857    0.000000000000       2
    0.403225806452    0.017857142857    0.000000000000       2
    0.419354838710    0.017857142857    0.000000000000       2
    0.435483870968    0.017857142857    0.000000000000       2
    0.451612903226    0.017857142857    0.000000000000       2
    0.467741935484    0.017857142857    0.000000000000       2
    0.483870967742    0.017857142857    0.000000000000       2
    0.500000000000    0.017857142857    0.000000000000       2
   -0.483870967742    0.017857142857    0.000000000000       2
   -0.467741935484    0.017857142857    0.000000000000       2
   -0.451612903226    0.017857142857    0.000000000000       2
   -0.435483870968    0.017857142857    0.000000000000       2
   -0.419354838710    0.017857142857    0.000000000000       2
   -0.403225806452    0.017857142857    0.000000000000       2
   -0.387096774194    0.017857142857    0.000000000000       2
   -0.370967741935    0.017857142857    0.000000000000       2
   -0.354838709677    0.017857142857    0.000000000000       2
   -0.338709677419    0.017857142857    0.000000000000       2
   -0.322580645161    0.017857142857    0.000000000000       2
   -0.306451612903    0.017857142857    0.000000000000       2
   -0.290322580645    0.017857142857    0.000000000000       2
   -0.274193548387    0.017857142857    0.000000000000       2
   -0.258064516129    0.017857142857    0.000000000000       2
   -0.241935483871    0.017857142857    0.000000000000       2
   -0.225806451613    0.017857142857    0.000000000000       2
   -0.209677419355    0.017857142857    0.000000000000       2
   -0.193548387097    0.017857142857    0.000000000000       2
   -0.177419354839    0.017857142857    0.000000000000       2
   -0.161290322581    0.017857142857    0.000000000000       2
   -0.145161290323    0.017857142857    0.000000000000       2
   -0.129032258065    0.017857142857    0.000000000000       2
   -0.112903225806    0.017857142857    0.000000000000       2
   -0.096774193548    0.017857142857    0.000000000000       2
   -0.080645161290    0.017857142857    0.000000000000       2
   -0.064516129032    0.017857142857    0.000000000000       2
   -0.048387096774    0.017857142857    0.000000000000       2
   -0.032258064516    0.017857142857    0.000000000000       2
   -0.016129032258    0.017857142857    0.000000000000       2
    0.000000000000    0.035714285714    0.000000000000       2
    0.016129032258    0.035714285714    0.000000000000       2
    0.032258064516    0.035714285714    0.000000000000       2
    0.048387096774    0.035714285714    0.000000000000       2
    0.064516129032    0.035714285714    0.000000000000       2
    0.080645161290    0.035714285714    0.000000000000       2
    0.096774193548    0.035714285714    0.000000000000       2
    0.112903225806    0.035714285714    0.000000000000       2
    0.129032258065    0.035714285714    0.000000000000       2
    0.145161290323    0.035714285714    0.000000000000       2
    0.161290322581    0.035714285714    0.000000000000       2
    0.177419354839    0.035714285714    0.000000000000       2
    0.193548387097    0.035714285714    0.000000000000       2
    0.209677419355    0.035714285714    0.000000000000       2
    0.225806451613    0.035714285714    0.000000000000       2
    0.241935483871    0.035714285714    0.000000000000       2
    0.258064516129    0.035714285714    0.000000000000       2
    0.274193548387    0.035714285714    0.000000000000       2
    0.290322580645    0.035714285714    0.000000000000       2
    0.306451612903    0.035714285714    0.000000000000       2
    0.322580645161    0.035714285714    0.000000000000       2
    0.338709677419    0.035714285714    0.000000000000       2
    0.354838709677    0.035714285714    0.000000000000       2
    0.370967741935    0.035714285714    0.000000000000       2
    0.387096774194    0.035714285714    0.000000000000       2
    0.403225806452    0.035714285714    0.000000000000       2
    0.419354838710    0.035714285714    0.000000000000       2
    0.435483870968    0.035714285714    0.000000000000       2
    0.451612903226    0.035714285714    0.000000000000       2
    0.467741935484    0.035714285714    0.000000000000       2
    0.483870967742    0.035714285714    0.000000000000       2
    0.500000000000    0.035714285714    0.000000000000       2
   -0.483870967742    0.035714285714    0.000000000000       2
   -0.467741935484    0.035714285714    0.000000000000       2
   -0.451612903226    0.035714285714    0.000000000000       2
   -0.435483870968    0.035714285714    0.000000000000       2
   -0.419354838710    0.035714285714    0.000000000000       2
   -0.403225806452    0.035714285714    0.000000000000       2
   -0.387096774194    0.035714285714    0.000000000000       2
   -0.370967741935    0.035714285714    0.000000000000       2
   -0.354838709677    0.035714285714    0.000000000000       2
   -0.338709677419    0.035714285714    0.000000000000       2
   -0.322580645161    0.035714285714    0.000000000000       2
   -0.306451612903    0.035714285714    0.000000000000       2
   -0.290322580645    0.035714285714    0.000000000000       2
   -0.274193548387    0.035714285714    0.000000000000       2
   -0.258064516129    0.035714285714    0.000000000000       2
   -0.241935483871    0.035714285714    0.000000000000       2
   -0.225806451613    0.035714285714    0.000000000000       2
   -0.209677419355    0.035714285714    0.000000000000       2
   -0.193548387097    0.035714285714    0.000000000000       2
   -0.177419354839    0.035714285714    0.000000000000       2
   -0.161290322581    0.035714285714    0.000000000000       2
   -0.145161290323    0.035714285714    0.000000000000       2
   -0.129032258065    0.035714285714    0.000000000000       2
   -0.112903225806    0.035714285714    0.000000000000       2
   -0.096774193548    0.035714285714    0.000000000000       2
   -0.080645161290    0.035714285714    0.000000000000       2
   -0.064516129032    0.035714285714    0.000000000000       2
   -0.048387096774    0.035714285714    0.000000000000       2
   -0.032258064516    0.035714285714    0.000000000000       2
   -0.016129032258    0.035714285714    0.000000000000       2
    0.000000000000    0.053571428571    0.000000000000       2
    0.016129032258    0.053571428571    0.000000000000       2
    0.032258064516    0.053571428571    0.000000000000       2
    0.048387096774    0.053571428571    0.000000000000       2
    0.064516129032    0.053571428571    0.000000000000       2
    0.080645161290    0.053571428571    0.000000000000       2
    0.096774193548    0.053571428571    0.000000000000       2
    0.112903225806    0.053571428571    0.000000000000       2
    0.129032258065    0.053571428571    0.000000000000       2
    0.145161290323    0.053571428571    0.000000000000       2
    0.161290322581    0.053571428571    0.000000000000       2
    0.177419354839    0.053571428571    0.000000000000       2
    0.193548387097    0.053571428571    0.000000000000       2
    0.209677419355    0.053571428571    0.000000000000       2
    0.225806451613    0.053571428571    0.000000000000       2
    0.241935483871    0.053571428571    0.000000000000       2
    0.258064516129    0.053571428571    0.000000000000       2
    0.274193548387    0.053571428571    0.000000000000       2
    0.290322580645    0.053571428571    0.000000000000       2
    0.306451612903    0.053571428571    0.000000000000       2
    0.322580645161    0.053571428571    0.000000000000       2
    0.338709677419    0.053571428571    0.000000000000       2
    0.354838709677    0.053571428571    0.000000000000       2
    0.370967741935    0.053571428571    0.000000000000       2
    0.387096774194    0.053571428571    0.000000000000       2
    0.403225806452    0.053571428571    0.000000000000       2
    0.419354838710    0.053571428571    0.000000000000       2
    0.435483870968    0.053571428571    0.000000000000       2
    0.451612903226    0.053571428571    0.000000000000       2
    0.467741935484    0.053571428571    0.000000000000       2
    0.483870967742    0.053571428571    0.000000000000       2
    0.500000000000    0.053571428571    0.000000000000       2
   -0.483870967742    0.053571428571    0.000000000000       2
   -0.467741935484    0.053571428571    0.000000000000       2
   -0.451612903226    0.053571428571    0.000000000000       2
   -0.435483870968    0.053571428571    0.000000000000       2
   -0.419354838710    0.053571428571    0.000000000000       2
   -0.403225806452    0.053571428571    0.000000000000       2
   -0.387096774194    0.053571428571    0.000000000000       2
   -0.370967741935    0.053571428571    0.000000000000       2
   -0.354838709677    0.053571428571    0.000000000000       2
   -0.338709677419    0.053571428571    0.000000000000       2
   -0.322580645161    0.053571428571    0.000000000000       2
   -0.306451612903    0.053571428571    0.000000000000       2
   -0.290322580645    0.053571428571    0.000000000000       2
   -0.274193548387    0.053571428571    0.000000000000       2
   -0.258064516129    0.053571428571    0.000000000000       2
   -0.241935483871    0.053571428571    0.000000000000       2
   -0.225806451613    0.053571428571    0.000000000000       2
   -0.209677419355    0.053571428571    0.000000000000       2
   -0.193548387097    0.053571428571    0.000000000000       2
   -0.177419354839    0.053571428571    0.000000000000       2
   -0.161290322581    0.053571428571    0.000000000000       2
   -0.145161290323    0.053571428571    0.000000000000       2
   -0.129032258065    0.053571428571    0.000000000000       2
   -0.112903225806    0.053571428571    0.000000000000       2
   -0.096774193548    0.053571428571    0.000000000000       2
   -0.080645161290    0.053571428571    0.000000000000       2
   -0.064516129032    0.053571428571    0.000000000000       2
   -0.048387096774    0.053571428571    0.000000000000       2
   -0.032258064516    0.053571428571    0.000000000000       2
   -0.016129032258    0.053571428571    0.000000000000       2
    0.000000000000    0.071428571429    0.000000000000       2
    0.016129032258    0.071428571429    0.000000000000       2
    0.032258064516    0.071428571429    0.000000000000       2
    0.048387096774    0.071428571429    0.000000000000       2
    0.064516129032    0.071428571429    0.000000000000       2
    0.080645161290    0.071428571429    0.000000000000       2
    0.096774193548    0.071428571429    0.000000000000       2
    0.112903225806    0.071428571429    0.000000000000       2
    0.129032258065    0.071428571429    0.000000000000       2
    0.145161290323    0.071428571429    0.000000000000       2
    0.161290322581    0.071428571429    0.000000000000       2
    0.177419354839    0.071428571429    0.000000000000       2
    0.193548387097    0.071428571429    0.000000000000       2
    0.209677419355    0.071428571429    0.000000000000       2
    0.225806451613    0.071428571429    0.000000000000       2
    0.241935483871    0.071428571429    0.000000000000       2
    0.258064516129    0.071428571429    0.000000000000       2
    0.274193548387    0.071428571429    0.000000000000       2
    0.290322580645    0.071428571429    0.000000000000       2
    0.306451612903    0.071428571429    0.000000000000       2
    0.322580645161    0.071428571429    0.000000000000       2
    0.338709677419    0.071428571429    0.000000000000       2
    0.354838709677    0.071428571429    0.000000000000       2
    0.370967741935    0.071428571429    0.000000000000       2
    0.387096774194    0.071428571429    0.000000000000       2
    0.403225806452    0.071428571429    0.000000000000       2
    0.419354838710    0.071428571429    0.000000000000       2
    0.435483870968    0.071428571429    0.000000000000       2
    0.451612903226    0.071428571429    0.000000000000       2
    0.467741935484    0.071428571429    0.000000000000       2
    0.483870967742    0.071428571429    0.000000000000       2
    0.500000000000    0.071428571429    0.000000000000       2
   -0.483870967742    0.071428571429    0.000000000000       2
   -0.467741935484    0.071428571429    0.000000000000       2
   -0.451612903226    0.071428571429    0.000000000000       2
   -0.435483870968    0.071428571429    0.000000000000       2
   -0.419354838710    0.071428571429    0.000000000000       2
   -0.403225806452    0.071428571429    0.000000000000       2
   -0.387096774194    0.071428571429    0.000000000000       2
   -0.370967741935    0.071428571429    0.000000000000       2
   -0.354838709677    0.071428571429    0.000000000000       2
   -0.338709677419    0.071428571429    0.000000000000       2
   -0.322580645161    0.071428571429    0.000000000000       2
   -0.306451612903    0.071428571429    0.000000000000       2
   -0.290322580645    0.071428571429    0.000000000000       2
   -0.274193548387    0.071428571429    0.000000000000       2
   -0.258064516129    0.071428571429    0.000000000000       2
   -0.241935483871    0.071428571429    0.000000000000       2
   -0.225806451613    0.071428571429    0.000000000000       2
   -0.209677419355    0.071428571429    0.000000000000       2
   -0.193548387097    0.071428571429    0.000000000000       2
   -0.177419354839    0.071428571429    0.000000000000       2
   -0.161290322581    0.071428571429    0.000000000000       2
   -0.145161290323    0.071428571429    0.000000000000       2
   -0.129032258065    0.071428571429    0.000000000000       2
   -0.112903225806    0.071428571429    0.000000000000       2
   -0.096774193548    0.071428571429    0.000000000000       2
   -0.080645161290    0.071428571429    0.000000000000       2
   -0.064516129032    0.071428571429    0.000000000000       2
   -0.048387096774    0.071428571429    0.000000000000       2
   -0.032258064516    0.071428571429    0.000000000000       2
   -0.016129032258    0.071428571429    0.000000000000       2
    0.000000000000    0.089285714286    0.000000000000       2
    0.016129032258    0.089285714286    0.000000000000       2
    0.032258064516    0.089285714286    0.000000000000       2
    0.048387096774    0.089285714286    0.000000000000       2
    0.064516129032    0.089285714286    0.000000000000       2
    0.080645161290    0.089285714286    0.000000000000       2
    0.096774193548    0.089285714286    0.000000000000       2
    0.112903225806    0.089285714286    0.000000000000       2
    0.129032258065    0.089285714286    0.000000000000       2
    0.145161290323    0.089285714286    0.000000000000       2
    0.161290322581    0.089285714286    0.000000000000       2
    0.177419354839    0.089285714286    0.000000000000       2
    0.193548387097    0.089285714286    0.000000000000       2
    0.209677419355    0.089285714286    0.000000000000       2
    0.225806451613    0.089285714286    0.000000000000       2
    0.241935483871    0.089285714286    0.000000000000       2
    0.258064516129    0.089285714286    0.000000000000       2
    0.274193548387    0.089285714286    0.000000000000       2
    0.290322580645    0.089285714286    0.000000000000       2
    0.306451612903    0.089285714286    0.000000000000       2
    0.322580645161    0.089285714286    0.000000000000       2
    0.338709677419    0.089285714286    0.000000000000       2
    0.354838709677    0.089285714286    0.000000000000       2
    0.370967741935    0.089285714286    0.000000000000       2
    0.387096774194    0.089285714286    0.000000000000       2
    0.403225806452    0.089285714286    0.000000000000       2
    0.419354838710    0.089285714286    0.000000000000       2
    0.435483870968    0.089285714286    0.000000000000       2
    0.451612903226    0.089285714286    0.000000000000       2
    0.467741935484    0.089285714286    0.000000000000       2
    0.483870967742    0.089285714286    0.000000000000       2
    0.500000000000    0.089285714286    0.000000000000       2
   -0.483870967742    0.089285714286    0.000000000000       2
   -0.467741935484    0.089285714286    0.000000000000       2
   -0.451612903226    0.089285714286    0.000000000000       2
   -0.435483870968    0.089285714286    0.000000000000       2
   -0.419354838710    0.089285714286    0.000000000000       2
   -0.403225806452    0.089285714286    0.000000000000       2
   -0.387096774194    0.089285714286    0.000000000000       2
   -0.370967741935    0.089285714286    0.000000000000       2
   -0.354838709677    0.089285714286    0.000000000000       2
   -0.338709677419    0.089285714286    0.000000000000       2
   -0.322580645161    0.089285714286    0.000000000000       2
   -0.306451612903    0.089285714286    0.000000000000       2
   -0.290322580645    0.089285714286    0.000000000000       2
   -0.274193548387    0.089285714286    0.000000000000       2
   -0.258064516129    0.089285714286    0.000000000000       2
   -0.241935483871    0.089285714286    0.000000000000       2
   -0.225806451613    0.089285714286    0.000000000000       2
   -0.209677419355    0.089285714286    0.000000000000       2
   -0.193548387097    0.089285714286    0.000000000000       2
   -0.177419354839    0.089285714286    0.000000000000       2
   -0.161290322581    0.089285714286    0.000000000000       2
   -0.145161290323    0.089285714286    0.000000000000       2
   -0.129032258065    0.089285714286    0.000000000000       2
   -0.112903225806    0.089285714286    0.000000000000       2
   -0.096774193548    0.089285714286    0.000000000000       2
   -0.080645161290    0.089285714286    0.000000000000       2
   -0.064516129032    0.089285714286    0.000000000000       2
   -0.048387096774    0.089285714286    0.000000000000       2
   -0.032258064516    0.089285714286    0.000000000000       2
   -0.016129032258    0.089285714286    0.000000000000       2
    0.000000000000    0.107142857143    0.000000000000       2
    0.016129032258    0.107142857143    0.000000000000       2
    0.032258064516    0.107142857143    0.000000000000       2
    0.048387096774    0.107142857143    0.000000000000       2
    0.064516129032    0.107142857143    0.000000000000       2
    0.080645161290    0.107142857143    0.000000000000       2
    0.096774193548    0.107142857143    0.000000000000       2
    0.112903225806    0.107142857143    0.000000000000       2
    0.129032258065    0.107142857143    0.000000000000       2
    0.145161290323    0.107142857143    0.000000000000       2
    0.161290322581    0.107142857143    0.000000000000       2
    0.177419354839    0.107142857143    0.000000000000       2
    0.193548387097    0.107142857143    0.000000000000       2
    0.209677419355    0.107142857143    0.000000000000       2
    0.225806451613    0.107142857143    0.000000000000       2
    0.241935483871    0.107142857143    0.000000000000       2
    0.258064516129    0.107142857143    0.000000000000       2
    0.274193548387    0.107142857143    0.000000000000       2
    0.290322580645    0.107142857143    0.000000000000       2
    0.306451612903    0.107142857143    0.000000000000       2
    0.322580645161    0.107142857143    0.000000000000       2
    0.338709677419    0.107142857143    0.000000000000       2
    0.354838709677    0.107142857143    0.000000000000       2
    0.370967741935    0.107142857143    0.000000000000       2
    0.387096774194    0.107142857143    0.000000000000       2
    0.403225806452    0.107142857143    0.000000000000       2
    0.419354838710    0.107142857143    0.000000000000       2
    0.435483870968    0.107142857143    0.000000000000       2
    0.451612903226    0.107142857143    0.000000000000       2
    0.467741935484    0.107142857143    0.000000000000       2
    0.483870967742    0.107142857143    0.000000000000       2
    0.500000000000    0.107142857143    0.000000000000       2
   -0.483870967742    0.107142857143    0.000000000000       2
   -0.467741935484    0.107142857143    0.000000000000       2
   -0.451612903226    0.107142857143    0.000000000000       2
   -0.435483870968    0.107142857143    0.000000000000       2
   -0.419354838710    0.107142857143    0.000000000000       2
   -0.403225806452    0.107142857143    0.000000000000       2
   -0.387096774194    0.107142857143    0.000000000000       2
   -0.370967741935    0.107142857143    0.000000000000       2
   -0.354838709677    0.107142857143    0.000000000000       2
   -0.338709677419    0.107142857143    0.000000000000       2
   -0.322580645161    0.107142857143    0.000000000000       2
   -0.306451612903    0.107142857143    0.000000000000       2
   -0.290322580645    0.107142857143    0.000000000000       2
   -0.274193548387    0.107142857143    0.000000000000       2
   -0.258064516129    0.107142857143    0.000000000000       2
   -0.241935483871    0.107142857143    0.000000000000       2
   -0.225806451613    0.107142857143    0.000000000000       2
   -0.209677419355    0.107142857143    0.000000000000       2
   -0.193548387097    0.107142857143    0.000000000000       2
   -0.177419354839    0.107142857143    0.000000000000       2
   -0.161290322581    0.107142857143    0.000000000000       2
   -0.145161290323    0.107142857143    0.000000000000       2
   -0.129032258065    0.107142857143    0.000000000000       2
   -0.112903225806    0.107142857143    0.000000000000       2
   -0.096774193548    0.107142857143    0.000000000000       2
   -0.080645161290    0.107142857143    0.000000000000       2
   -0.064516129032    0.107142857143    0.000000000000       2
   -0.048387096774    0.107142857143    0.000000000000       2
   -0.032258064516    0.107142857143    0.000000000000       2
   -0.016129032258    0.107142857143    0.000000000000       2
    0.000000000000    0.125000000000    0.000000000000       2
    0.016129032258    0.125000000000    0.000000000000       2
    0.032258064516    0.125000000000    0.000000000000       2
    0.048387096774    0.125000000000    0.000000000000       2
    0.064516129032    0.125000000000    0.000000000000       2
    0.080645161290    0.125000000000    0.000000000000       2
    0.096774193548    0.125000000000    0.000000000000       2
    0.112903225806    0.125000000000    0.000000000000       2
    0.129032258065    0.125000000000    0.000000000000       2
    0.145161290323    0.125000000000    0.000000000000       2
    0.161290322581    0.125000000000    0.000000000000       2
    0.177419354839    0.125000000000    0.000000000000       2
    0.193548387097    0.125000000000    0.000000000000       2
    0.209677419355    0.125000000000    0.000000000000       2
    0.225806451613    0.125000000000    0.000000000000       2
    0.241935483871    0.125000000000    0.000000000000       2
    0.258064516129    0.125000000000    0.000000000000       2
    0.274193548387    0.125000000000    0.000000000000       2
    0.290322580645    0.125000000000    0.000000000000       2
    0.306451612903    0.125000000000    0.000000000000       2
    0.322580645161    0.125000000000    0.000000000000       2
    0.338709677419    0.125000000000    0.000000000000       2
    0.354838709677    0.125000000000    0.000000000000       2
    0.370967741935    0.125000000000    0.000000000000       2
    0.387096774194    0.125000000000    0.000000000000       2
    0.403225806452    0.125000000000    0.000000000000       2
    0.419354838710    0.125000000000    0.000000000000       2
    0.435483870968    0.125000000000    0.000000000000       2
    0.451612903226    0.125000000000    0.000000000000       2
    0.467741935484    0.125000000000    0.000000000000       2
    0.483870967742    0.125000000000    0.000000000000       2
    0.500000000000    0.125000000000    0.000000000000       2
   -0.483870967742    0.125000000000    0.000000000000       2
   -0.467741935484    0.125000000000    0.000000000000       2
   -0.451612903226    0.125000000000    0.000000000000       2
   -0.435483870968    0.125000000000    0.000000000000       2
   -0.419354838710    0.125000000000    0.000000000000       2
   -0.403225806452    0.125000000000    0.000000000000       2
   -0.387096774194    0.125000000000    0.000000000000       2
   -0.370967741935    0.125000000000    0.000000000000       2
   -0.354838709677    0.125000000000    0.000000000000       2
   -0.338709677419    0.125000000000    0.000000000000       2
   -0.322580645161    0.125000000000    0.000000000000       2
   -0.306451612903    0.125000000000    0.000000000000       2
   -0.290322580645    0.125000000000    0.000000000000       2
   -0.274193548387    0.125000000000    0.000000000000       2
   -0.258064516129    0.125000000000    0.000000000000       2
   -0.241935483871    0.125000000000    0.000000000000       2
   -0.225806451613    0.125000000000    0.000000000000       2
   -0.209677419355    0.125000000000    0.000000000000       2
   -0.193548387097    0.125000000000    0.000000000000       2
   -0.177419354839    0.125000000000    0.000000000000       2
   -0.161290322581    0.125000000000    0.000000000000       2
   -0.145161290323    0.125000000000    0.000000000000       2
   -0.129032258065    0.125000000000    0.000000000000       2
   -0.112903225806    0.125000000000    0.000000000000       2
   -0.096774193548    0.125000000000    0.000000000000       2
   -0.080645161290    0.125000000000    0.000000000000       2
   -0.064516129032    0.125000000000    0.000000000000       2
   -0.048387096774    0.125000000000    0.000000000000       2
   -0.032258064516    0.125000000000    0.000000000000       2
   -0.016129032258    0.125000000000    0.000000000000       2
    0.000000000000    0.142857142857    0.000000000000       2
    0.016129032258    0.142857142857    0.000000000000       2
    0.032258064516    0.142857142857    0.000000000000       2
    0.048387096774    0.142857142857    0.000000000000       2
    0.064516129032    0.142857142857    0.000000000000       2
    0.080645161290    0.142857142857    0.000000000000       2
    0.096774193548    0.142857142857    0.000000000000       2
    0.112903225806    0.142857142857    0.000000000000       2