CONTCAR\(5)                             
   1.00000000000000     
     7.8445000648000001    0.0000000000000000    0.0000000000000000
     3.9223001003000002    6.7936230563000004    0.0000000000000000
     0.0000000000000000    0.0000000000000000   18.9503002167000005
   Te   Pt   O 
     8     8     1
Direct
  0.3331412918390171  0.3334716305656940  0.6122682150203312
  0.3345942992176270  0.3328182508746524  0.3906274372645743
  0.8331763742038260  0.3334650542582556  0.6123636526018585
  0.8323518250383216  0.3328781876752910  0.3906210025890090
  0.3324149420350704  0.8339616556304419  0.6040427860319997
  0.3331741955522473  0.8334378263196375  0.3962930012614592
  0.8331689092657232  0.8334731267189621  0.6124205174518906
  0.8323323227852419  0.8349005487408490  0.3906197202262920
  0.1629811267207698  0.1737181456631725  0.5416461556254433
 -0.0035604310182546  0.0018427974094713  0.4607271774852447
  0.6666035985291826  0.1667212099937151  0.5446450858552264
  0.5014031304774036  0.0018130859480599  0.4607929309640947
  0.1629698488894940  0.6634504251081548  0.5417092652244160
 -0.0002915353370626  0.5002475040677152  0.4577889920620262
  0.6731022157309717  0.6635488096378801  0.5418832616562405
  0.5014746363238211  0.4968749938521043  0.4608130247884022
  0.3296831157465979  0.8360667295359311  0.7010976648914857
 
  0.00000000E+00  0.00000000E+00  0.00000000E+00
  0.00000000E+00  0.00000000E+00  0.00000000E+00
  0.00000000E+00  0.00000000E+00  0.00000000E+00
  0.00000000E+00  0.00000000E+00  0.00000000E+00
  0.00000000E+00  0.00000000E+00  0.00000000E+00
  0.00000000E+00  0.00000000E+00  0.00000000E+00
  0.00000000E+00  0.00000000E+00  0.00000000E+00
  0.00000000E+00  0.00000000E+00  0.00000000E+00
  0.00000000E+00  0.00000000E+00  0.00000000E+00
  0.00000000E+00  0.00000000E+00  0.00000000E+00
  0.00000000E+00  0.00000000E+00  0.00000000E+00
  0.00000000E+00  0.00000000E+00  0.00000000E+00
  0.00000000E+00  0.00000000E+00  0.00000000E+00
  0.00000000E+00  0.00000000E+00  0.00000000E+00
  0.00000000E+00  0.00000000E+00  0.00000000E+00
  0.00000000E+00  0.00000000E+00  0.00000000E+00
  0.00000000E+00  0.00000000E+00  0.00000000E+00
