CONTCAR                                 
   1.00000000000000     
    11.8208999634000005    0.0000000000000000    0.0000000000000000
     2.9552306013999998    8.5110336759000003    0.0000000000000000
     0.0000000000000000    0.0000000000000000   24.9838008880999993
   Na   Ti   S    O    H 
     6    20    40     2     1
Selective dynamics
Direct
  0.1488447202874568  0.0030669489073816  0.4979876966498082   F   F   F
  0.3707550750377564  0.3813860798487525  0.5014803780716406   F   F   F
  0.0601858180175867  0.6225000996731609  0.5017133401747813   F   F   F
  0.6489501116008896  0.0014385672766579  0.4981493111871487   F   F   F
  0.8696738482502511  0.3821328352803022  0.5014059190090236   F   F   F
  0.5601863605127306  0.6230406058016769  0.5015118763557211   F   F   F
  0.4344596560531855  0.8040050723656549  0.6392961491340685   F   F   F
  0.1383810663649498  0.0054681289388725  0.6408169697209232   F   F   F
  0.4767354453970611  0.0017854499768077  0.3605319627069434   F   F   F
  0.3379553816358722  0.2001163118047273  0.6390611534957173   F   F   F
  0.1781373891694429  0.2000411706364318  0.3607393890782618   F   F   F
  0.0350932740357095  0.4055122500986812  0.6392976692696308   F   F   F
  0.3758221409802545  0.4025583132343300  0.3590802013402197   F   F   F
  0.2348796954201973  0.6028412126836074  0.6387605809019163   F   F   F
  0.0761788998005457  0.6006697050547416  0.3590731661012043   F   F   F
  0.2772306163386986  0.8033477533264062  0.3607376323323024   F   F   F
  0.9364120592477434  0.8048808976973376  0.6387942066061782   F   F   F
  0.6420313069363601  0.0012638218151082  0.6413631727943780   F   F   F
  0.9768268485524843  0.0016389610697445  0.3605081523045754   F   F   F
  0.8384652017251497  0.2018273768658005  0.6394503823472419   F   F   F
  0.6782534086431014  0.1998188595513994  0.3607100144777178   F   F   F
  0.5333869156271831  0.4038931754204143  0.6394532789554574   F   F   F
  0.8757661128231717  0.4026164003053125  0.3590494916442424   F   F   F
  0.7345541582404636  0.6018266374818779  0.6390369713304267   F   F   F
  0.5761316083265626  0.6005871885431802  0.3589767614134516   F   F   F
  0.7771066346547570  0.8033848009776108  0.3606884659440581   F   F   F
  0.1040540780974410  0.8069073193107670  0.5809192777672507   F   F   F
  0.4430400571920075  0.8021147921715581  0.3039566190997007   F   F   F
  0.3060242946537173  0.0023755754470898  0.5807350745542337   F   F   F
  0.1435124889166417  0.0016058884977639  0.3044124444210539   F   F   F
  0.0050842647021199  0.2012094728680438  0.5807954662659043   F   F   F
  0.3433145469667949  0.2011021547950023  0.3039575138138702   F   F   F
  0.2018400046742173  0.4003661622991430  0.5802114796607825   F   F   F
  0.4703353059222621  0.0022330167630429  0.6953753271707726   F   F   F
  0.0435760430518712  0.4005759923566075  0.3038107897758096   F   F   F
  0.3131662672477020  0.0017708519668318  0.4193956957959841   F   F   F
  0.4004872383950087  0.6035963821670691  0.5798172918749955   F   F   F
  0.1708583687606620  0.2046194292645467  0.6955974622353693   F   F   F
  0.2430690434108271  0.6026570201876282  0.3038483302144002   F   F   F
  0.0099112001200083  0.2027708407292792  0.4187860551804690   F   F   F
  0.3688588638275405  0.4029726857669118  0.6954454952251652   F   F   F
  0.2081023557451616  0.4022781135691318  0.4189426340906408   F   F   F
  0.0677564212766768  0.6040604419818791  0.6936731826674105   F   F   F
  0.4083053104563348  0.6013132081388264  0.4188670516069664   F   F   F
  0.2700465429080623  0.8018475834691614  0.6956680968771636   F   F   F
  0.1105185610381199  0.8007541655853032  0.4188619587334514   F   F   F
  0.6035019166097726  0.8055248044120518  0.5812877995935679   F   F   F
  0.9430764765212487  0.8020487886817662  0.3039665452284339   F   F   F
  0.8049809200593714  0.0040456713100170  0.5806417934346655   F   F   F
  0.6434545009797361  0.0015589504865687  0.3043512652736382   F   F   F
  0.5060039574076072  0.2002593995694681  0.5813072250216891   F   F   F
  0.8433421885785606  0.2010290477880829  0.3039363598055687   F   F   F
  0.7007476025624158  0.4010893102613835  0.5803549977309430   F   F   F
  0.9708940893122886  0.0032326269983471  0.6957201236481936   F   F   F
  0.5436159133966854  0.4003367625587870  0.3037919006654590   F   F   F
  0.8130410322735671  0.0017354661353153  0.4193430847382231   F   F   F
  0.8993682592361054  0.6045201513869500  0.5800095537434089   F   F   F
  0.6705015170471214  0.2044711257541749  0.6956262550013079   F   F   F
  0.7430056481291558  0.6027043916580510  0.3038059582627852   F   F   F
  0.5100753050348388  0.2026307665802989  0.4188261635311434   F   F   F
  0.8691275000494727  0.4040645110972463  0.6950287702121969   F   F   F
  0.7080002537815133  0.4022520371325342  0.4188684172822548   F   F   F
  0.5691113535556624  0.6029120384453961  0.6951231787464707   F   F   F
  0.9082228812211142  0.6014166781969976  0.4189040111393325   F   F   F
  0.7715673834574091  0.8007002470447375  0.6959144695744683   F   F   F
  0.6104796483198527  0.8007464695838991  0.4188068374138041   F   F   F
  0.0615271018493289  0.6209564021347660  0.7656143592399971   T   T   T
  0.0652927992043644  0.4762713441387234  0.7911797755180956   T   T   T
  0.1519067893700310  0.4250145126728953  0.7959296197851858   T   T   T
 
  0.00000000E+00  0.00000000E+00  0.00000000E+00
  0.00000000E+00  0.00000000E+00  0.00000000E+00
  0.00000000E+00  0.00000000E+00  0.00000000E+00
  0.00000000E+00  0.00000000E+00  0.00000000E+00
  0.00000000E+00  0.00000000E+00  0.00000000E+00
  0.00000000E+00  0.00000000E+00  0.00000000E+00
  0.00000000E+00  0.00000000E+00  0.00000000E+00
  0.00000000E+00  0.00000000E+00  0.00000000E+00
  0.00000000E+00  0.00000000E+00  0.00000000E+00
  0.00000000E+00  0.00000000E+00  0.00000000E+00
  0.00000000E+00  0.00000000E+00  0.00000000E+00
  0.00000000E+00  0.00000000E+00  0.00000000E+00
  0.00000000E+00  0.00000000E+00  0.00000000E+00
  0.00000000E+00  0.00000000E+00  0.00000000E+00
  0.00000000E+00  0.00000000E+00  0.00000000E+00
  0.00000000E+00  0.00000000E+00  0.00000000E+00
  0.00000000E+00  0.00000000E+00  0.00000000E+00
  0.00000000E+00  0.00000000E+00  0.00000000E+00
  0.00000000E+00  0.00000000E+00  0.00000000E+00
  0.00000000E+00  0.00000000E+00  0.00000000E+00
  0.00000000E+00  0.00000000E+00  0.00000000E+00
  0.00000000E+00  0.00000000E+00  0.00000000E+00
  0.00000000E+00  0.00000000E+00  0.00000000E+00
  0.00000000E+00  0.00000000E+00  0.00000000E+00
  0.00000000E+00  0.00000000E+00  0.00000000E+00
  0.00000000E+00  0.00000000E+00  0.00000000E+00
  0.00000000E+00  0.00000000E+00  0.00000000E+00
  0.00000000E+00  0.00000000E+00  0.00000000E+00
  0.00000000E+00  0.00000000E+00  0.00000000E+00
  0.00000000E+00  0.00000000E+00  0.00000000E+00
  0.00000000E+00  0.00000000E+00  0.00000000E+00
  0.00000000E+00  0.00000000E+00  0.00000000E+00
  0.00000000E+00  0.00000000E+00  0.00000000E+00
  0.00000000E+00  0.00000000E+00  0.00000000E+00
  0.00000000E+00  0.00000000E+00  0.00000000E+00
  0.00000000E+00  0.00000000E+00  0.00000000E+00
  0.00000000E+00  0.00000000E+00  0.00000000E+00
  0.00000000E+00  0.00000000E+00  0.00000000E+00
  0.00000000E+00  0.00000000E+00  0.00000000E+00
  0.00000000E+00  0.00000000E+00  0.00000000E+00
  0.00000000E+00  0.00000000E+00  0.00000000E+00
  0.00000000E+00  0.00000000E+00  0.00000000E+00
  0.00000000E+00  0.00000000E+00  0.00000000E+00
  0.00000000E+00  0.00000000E+00  0.00000000E+00
  0.00000000E+00  0.00000000E+00  0.00000000E+00
  0.00000000E+00  0.00000000E+00  0.00000000E+00
  0.00000000E+00  0.00000000E+00  0.00000000E+00
  0.00000000E+00  0.00000000E+00  0.00000000E+00
  0.00000000E+00  0.00000000E+00  0.00000000E+00
  0.00000000E+00  0.00000000E+00  0.00000000E+00
  0.00000000E+00  0.00000000E+00  0.00000000E+00
  0.00000000E+00  0.00000000E+00  0.00000000E+00
  0.00000000E+00  0.00000000E+00  0.00000000E+00
  0.00000000E+00  0.00000000E+00  0.00000000E+00
  0.00000000E+00  0.00000000E+00  0.00000000E+00
  0.00000000E+00  0.00000000E+00  0.00000000E+00
  0.00000000E+00  0.00000000E+00  0.00000000E+00
  0.00000000E+00  0.00000000E+00  0.00000000E+00
  0.00000000E+00  0.00000000E+00  0.00000000E+00
  0.00000000E+00  0.00000000E+00  0.00000000E+00
  0.00000000E+00  0.00000000E+00  0.00000000E+00
  0.00000000E+00  0.00000000E+00  0.00000000E+00
  0.00000000E+00  0.00000000E+00  0.00000000E+00
  0.00000000E+00  0.00000000E+00  0.00000000E+00
  0.00000000E+00  0.00000000E+00  0.00000000E+00
  0.00000000E+00  0.00000000E+00  0.00000000E+00
  0.00000000E+00  0.00000000E+00  0.00000000E+00
  0.00000000E+00  0.00000000E+00  0.00000000E+00
  0.00000000E+00  0.00000000E+00  0.00000000E+00
