CONTCAR\(5)                             
   1.00000000000000     
    11.7456998825000003    0.0000000000000000    0.0000000000000000
     0.0000000000000000   17.6870002747000008    0.0000000000000000
     0.0000000000000000    0.0000000000000000   19.5771007537999999
   Ti   Ge   Te   O 
     6     6    36     1
Direct
  0.0873554496441292  0.4765658396611918  0.5176026494490187
  0.2495979345538134  0.9538323585401676  0.4869415724247432
  0.4201975493300835  0.4786265344019494  0.5183896078003764
  0.5850711228482285  0.9542517113898229  0.4864062868399938
  0.7479867666579458  0.4768533917378132  0.5156768141881077
  0.9186932968800763  0.9536103993140128  0.4886552395915013
  0.2497486541893847  0.8033629859504084  0.4762373745741169
  0.0843161536716802  0.6274683221866246  0.5184898418148983
  0.5847646504321152  0.8036618433986423  0.4756661536236666
  0.4178926281888906  0.6297142388248919  0.5201749994104765
  0.9170126852513764  0.8026309753521144  0.4767990434840161
  0.7502581461935778  0.6278031302113317  0.5169723094556029
  0.0819879893064483  0.9217775915088899  0.3826718772545116
  0.2718031356326203  0.2560061901421821  0.5862595221334084
  0.2522435989872163  0.0651418560257355  0.3796727624341085
  0.0852978715082130  0.8991574719730292  0.5845115413147707
  0.2493663639611143  0.5143684035772150  0.6219187433134479
  0.1040777164184612  0.3690533097545132  0.6305582950974440
  0.0853073077162564  0.1773154488783711  0.4260386931355959
  0.2479964762722338  0.7078027618916053  0.5879692320634634
  0.0832657182625162  0.7248170628317065  0.4075527297099796
  0.2562813753268577  0.3757050298697146  0.4666829867171151
  0.0858612007372320  0.0543611975703252  0.5414212605294311
  0.2523961951589503  0.5282531695464308  0.4188525051441572
  0.4173967760023989  0.9274625375911927  0.3802791308548379
  0.5779747027975307  0.2530261133030166  0.5785242491739759
  0.5823876660668058  0.0652441868500322  0.3790931593759223
  0.4161396535685908  0.8897766364107592  0.5795734654615388
  0.5883178263632282  0.5160354139864313  0.6218506120874806
  0.4243612118172322  0.3759534415162393  0.6309164131386313
  0.4166912427774143  0.1819081691531176  0.3942849832735269
  0.5865111254922004  0.7079931914083213  0.5868232864824710
  0.4172732498297608  0.7250237836785762  0.4084977333901507
  0.5818507644256502  0.3727950029446382  0.4667583461170259
  0.4205277085501934  0.0443183475759482  0.5570577081725442
  0.5819717075830469  0.5313062629760547  0.4199572604016893
  0.7547259812587748  0.9246844522617809  0.3818531125453692
  0.9198694957929849  0.2634622341733588  0.5938715674200911
  0.9179118158861779  0.0623557427614929  0.3812496736276356
  0.7494651024059663  0.8987362052843941  0.5838051587127708
  0.9160481850905153  0.5133938646541162  0.6186200741030331
  0.7647685487008404  0.3811252406897966  0.6351213521218518
  0.7519693177028879  0.1758554029912739  0.4248299209158439
  0.9176055102432785  0.7048125495736551  0.5883636970106023
  0.7517101838978840  0.7253854675481580  0.4068864484039815
  0.9190094444548889  0.3742778821740167  0.4696712695311762
  0.7505722685810976  0.0534803511068763  0.5415678292292725
  0.9174517900685859  0.5254022975121095  0.4174057002842212
  0.4392690095126489  0.1910137663359081  0.5702860116604382
 
  0.00000000E+00  0.00000000E+00  0.00000000E+00
  0.00000000E+00  0.00000000E+00  0.00000000E+00
  0.00000000E+00  0.00000000E+00  0.00000000E+00
  0.00000000E+00  0.00000000E+00  0.00000000E+00
  0.00000000E+00  0.00000000E+00  0.00000000E+00
  0.00000000E+00  0.00000000E+00  0.00000000E+00
  0.00000000E+00  0.00000000E+00  0.00000000E+00
  0.00000000E+00  0.00000000E+00  0.00000000E+00
  0.00000000E+00  0.00000000E+00  0.00000000E+00
  0.00000000E+00  0.00000000E+00  0.00000000E+00
  0.00000000E+00  0.00000000E+00  0.00000000E+00
  0.00000000E+00  0.00000000E+00  0.00000000E+00
  0.00000000E+00  0.00000000E+00  0.00000000E+00
  0.00000000E+00  0.00000000E+00  0.00000000E+00
  0.00000000E+00  0.00000000E+00  0.00000000E+00
  0.00000000E+00  0.00000000E+00  0.00000000E+00
  0.00000000E+00  0.00000000E+00  0.00000000E+00
  0.00000000E+00  0.00000000E+00  0.00000000E+00
  0.00000000E+00  0.00000000E+00  0.00000000E+00
  0.00000000E+00  0.00000000E+00  0.00000000E+00
  0.00000000E+00  0.00000000E+00  0.00000000E+00
  0.00000000E+00  0.00000000E+00  0.00000000E+00
  0.00000000E+00  0.00000000E+00  0.00000000E+00
  0.00000000E+00  0.00000000E+00  0.00000000E+00
  0.00000000E+00  0.00000000E+00  0.00000000E+00
  0.00000000E+00  0.00000000E+00  0.00000000E+00
  0.00000000E+00  0.00000000E+00  0.00000000E+00
  0.00000000E+00  0.00000000E+00  0.00000000E+00
  0.00000000E+00  0.00000000E+00  0.00000000E+00
  0.00000000E+00  0.00000000E+00  0.00000000E+00
  0.00000000E+00  0.00000000E+00  0.00000000E+00
  0.00000000E+00  0.00000000E+00  0.00000000E+00
  0.00000000E+00  0.00000000E+00  0.00000000E+00
  0.00000000E+00  0.00000000E+00  0.00000000E+00
  0.00000000E+00  0.00000000E+00  0.00000000E+00
  0.00000000E+00  0.00000000E+00  0.00000000E+00
  0.00000000E+00  0.00000000E+00  0.00000000E+00
  0.00000000E+00  0.00000000E+00  0.00000000E+00
  0.00000000E+00  0.00000000E+00  0.00000000E+00
  0.00000000E+00  0.00000000E+00  0.00000000E+00
  0.00000000E+00  0.00000000E+00  0.00000000E+00
  0.00000000E+00  0.00000000E+00  0.00000000E+00
  0.00000000E+00  0.00000000E+00  0.00000000E+00
  0.00000000E+00  0.00000000E+00  0.00000000E+00
  0.00000000E+00  0.00000000E+00  0.00000000E+00
  0.00000000E+00  0.00000000E+00  0.00000000E+00
  0.00000000E+00  0.00000000E+00  0.00000000E+00
  0.00000000E+00  0.00000000E+00  0.00000000E+00
  0.00000000E+00  0.00000000E+00  0.00000000E+00
