 Zr2 Br2                                
   1.00000000000000     
     3.5039843844617495    0.0000000000000000    0.0000000000000000
     1.7519916960014161    3.0345396916946989    0.0000000000000000
     0.0000000000000000    0.0000000000000000   21.1504722358739983
   Zr   Br
     2     2
Direct
  0.6666668398450710  0.6666668396346296  0.4446140081379752
  0.3333331593185207  0.3333331593234661  0.5553864724480206
  0.9999999232881081  0.9999999349003090  0.6451167159343925
  0.0000000775483002  0.0000000661416024  0.3548828034796188
 
  0.00000000E+00  0.00000000E+00  0.00000000E+00
  0.00000000E+00  0.00000000E+00  0.00000000E+00
  0.00000000E+00  0.00000000E+00  0.00000000E+00
  0.00000000E+00  0.00000000E+00  0.00000000E+00
