CONTCAR                                 
   1.00000000000000     
    12.9397001266000000    0.0000000000000000    0.0000000000000000
     0.0000000000000000   12.9407997131000005    0.0000000000000000
     0.0000000000000000    0.0000000000000000   24.2110004425000014
   Y    Te   O    H 
    18    54     1     1
Selective dynamics
Direct
  0.9996870229309280  0.1676089544571511  0.5840670530482726   F   F   F
  0.1666616331343320  0.0012413373127060  0.4139053947546003   F   F   F
  0.3333360834183665  0.1666141701356594  0.5841455881827429   F   F   F
  0.4996620254155886  0.0013901585320113  0.4140473192257659   F   F   F
  0.6666684396979221  0.1664237985248889  0.5839015933220182   F   F   F
  0.8327421545250999  0.0013234192078500  0.4139477726603999   F   F   F
  0.9992239415729713  0.5020921315723683  0.5846269108361781   F   F   F
  0.1661302665726581  0.3343755131927395  0.4138287268617873   F   F   F
  0.3249791939037294  0.5010097609874791  0.5829535717984271   F   F   F
  0.4994700916025820  0.3349214472252626  0.4148566569895564   F   F   F
  0.6737988763708671  0.4992543320985376  0.5821573846593395   F   F   F
  0.8334749788645297  0.3344364480898818  0.4135515348420853   F   F   F
  0.9995564770411107  0.8364484064480280  0.5843274249573156   F   F   F
  0.1659670309402017  0.6682084961516708  0.4138005759721750   F   F   F
  0.3338527664354487  0.8352265487187509  0.5837279330623417   F   F   F
  0.4996734594953409  0.6674210423955600  0.4149488691610301   F   F   F
  0.6659798899936717  0.8342985138547974  0.5842223597370264   F   F   F
  0.8331418372380597  0.6681565665904969  0.4139215083080003   F   F   F
  0.1665822788264677  0.1681853543119942  0.3110355536857341   F   F   F
  0.9948892202767041  0.0040851389622176  0.6867660802124789   F   F   F
  0.1676054021799871  0.1657933693698652  0.6871060957161390   F   F   F
  0.9998207230554783  0.0011608520877573  0.3108749201926031   F   F   F
  0.9998000571058299  0.1674725090443303  0.4525983201593959   F   F   F
  0.1664708976391296  0.0012081771482926  0.5453935312503049   F   F   F
  0.4999222329774540  0.1683782448880677  0.3114709830572124   F   F   F
  0.3310736312016900  0.0011691192051089  0.6873031828330980   F   F   F
  0.4986120397610989  0.1719435903234370  0.6875196163719437   F   F   F
  0.3336283048661457  0.0019407685006030  0.3111358684868861   F   F   F
  0.3333113104124621  0.1681541720470392  0.4530423714537761   F   F   F
  0.4997646684198713  0.0011301068014191  0.5455695991715075   F   F   F
  0.8330797518940471  0.1680112221160357  0.3109417663350840   F   F   F
  0.6627958867877908  0.9984540373735769  0.6872477376158983   F   F   F
  0.8332005357155339  0.1664793056249891  0.6866002603580696   F   F   F
  0.6661386969534462  0.0017492380736783  0.3112301707518839   F   F   F
  0.6660002288382074  0.1684945951828567  0.4529275622279982   F   F   F
  0.8322395783521657  0.0007335713464798  0.5451720556260824   F   F   F
  0.1662811192043279  0.5017319780089622  0.3109535271499908   F   F   F
  0.0015444909179720  0.3355006603783153  0.6870905610022859   F   F   F
  0.1629604934341771  0.4993887022817987  0.6881524327090958   F   F   F
  0.9998716067633708  0.3344868909810970  0.3108764875737933   F   F   F
  0.9998506570157986  0.5011625946984424  0.4529240126147442   F   F   F
  0.1657932909172715  0.3336320912723636  0.5456726955542024   F   F   F
  0.4998655880116161  0.5011470732953356  0.3120702431047775   F   F   F
  0.3359127610790509  0.3384228548484316  0.6891369888853305   F   F   F
  0.4916836541194058  0.5063310839050033  0.7240517254268397   F   F   F
  0.3330437867544163  0.3351538290870621  0.3114093153355881   F   F   F
  0.3318288535013849  0.5015004174466782  0.4526820255556743   F   F   F
  0.4988792703865883  0.3380551821900539  0.5475552235370884   F   F   F
  0.8335239607058895  0.5018250368432433  0.3108572345716993   F   F   F
  0.6635880222657420  0.3379072480807110  0.6841274877550347   F   F   F
  0.8309459532218355  0.4993795277528932  0.6887252835274467   F   F   F
  0.6664390511975355  0.3351137011536025  0.3113190448567806   F   F   F
  0.6673584430279149  0.5010640902374632  0.4521646101395476   F   F   F
  0.8347417862341899  0.3335410478775884  0.5449080885527593   F   F   F
  0.1666378823590051  0.8352215792437718  0.3111557381905783   F   F   F
  0.9979078063611411  0.6704461035882474  0.6872702289595338   F   F   F
  0.1686129702909724  0.8314605504010970  0.6865064864313695   F   F   F
  0.9998266662817841  0.6683159830455807  0.3108800905661155   F   F   F
  0.9995994939096633  0.8346903783430051  0.4528196412881798   F   F   F
  0.1647413755497595  0.6687061271241248  0.5453347082659548   F   F   F
  0.4996861495682055  0.8343603446207197  0.3115083321638537   F   F   F
  0.3310124227492466  0.6675490132947957  0.6862116536077068   F   F   F
  0.5007715140022313  0.8348137834279896  0.6868627848001196   F   F   F
  0.3332281001464068  0.6681539024991210  0.3113028514171390   F   F   F
  0.3335344657559105  0.8342797865670946  0.4529758412212601   F   F   F
  0.4998730448011415  0.6631254495415035  0.5478206212382375   F   F   F
  0.8329293050084914  0.8351055003591838  0.3112472589485833   F   F   F
  0.6626266164317300  0.6565523417645807  0.6889421082466640   F   F   F
  0.8316503918497560  0.8327433930089185  0.6866655142836819   F   F   F
  0.6662928408235089  0.6683000098358676  0.3113669297249544   F   F   F
  0.6655943489286571  0.8343192527215564  0.4531605157104508   F   F   F
  0.8335111454544162  0.6684775402217795  0.5458268973587010   F   F   F
  0.4274781388852702  0.5610252164078844  0.7953300324476231   T   T   T
  0.4588716036672836  0.5225350037405363  0.8252513383069982   T   T   T
 
  0.00000000E+00  0.00000000E+00  0.00000000E+00
  0.00000000E+00  0.00000000E+00  0.00000000E+00
  0.00000000E+00  0.00000000E+00  0.00000000E+00
  0.00000000E+00  0.00000000E+00  0.00000000E+00
  0.00000000E+00  0.00000000E+00  0.00000000E+00
  0.00000000E+00  0.00000000E+00  0.00000000E+00
  0.00000000E+00  0.00000000E+00  0.00000000E+00
  0.00000000E+00  0.00000000E+00  0.00000000E+00
  0.00000000E+00  0.00000000E+00  0.00000000E+00
  0.00000000E+00  0.00000000E+00  0.00000000E+00
  0.00000000E+00  0.00000000E+00  0.00000000E+00
  0.00000000E+00  0.00000000E+00  0.00000000E+00
  0.00000000E+00  0.00000000E+00  0.00000000E+00
  0.00000000E+00  0.00000000E+00  0.00000000E+00
  0.00000000E+00  0.00000000E+00  0.00000000E+00
  0.00000000E+00  0.00000000E+00  0.00000000E+00
  0.00000000E+00  0.00000000E+00  0.00000000E+00
  0.00000000E+00  0.00000000E+00  0.00000000E+00
  0.00000000E+00  0.00000000E+00  0.00000000E+00
  0.00000000E+00  0.00000000E+00  0.00000000E+00
  0.00000000E+00  0.00000000E+00  0.00000000E+00
  0.00000000E+00  0.00000000E+00  0.00000000E+00
  0.00000000E+00  0.00000000E+00  0.00000000E+00
  0.00000000E+00  0.00000000E+00  0.00000000E+00
  0.00000000E+00  0.00000000E+00  0.00000000E+00
  0.00000000E+00  0.00000000E+00  0.00000000E+00
  0.00000000E+00  0.00000000E+00  0.00000000E+00
  0.00000000E+00  0.00000000E+00  0.00000000E+00
  0.00000000E+00  0.00000000E+00  0.00000000E+00
  0.00000000E+00  0.00000000E+00  0.00000000E+00
  0.00000000E+00  0.00000000E+00  0.00000000E+00
  0.00000000E+00  0.00000000E+00  0.00000000E+00
  0.00000000E+00  0.00000000E+00  0.00000000E+00
  0.00000000E+00  0.00000000E+00  0.00000000E+00
  0.00000000E+00  0.00000000E+00  0.00000000E+00
  0.00000000E+00  0.00000000E+00  0.00000000E+00
  0.00000000E+00  0.00000000E+00  0.00000000E+00
  0.00000000E+00  0.00000000E+00  0.00000000E+00
  0.00000000E+00  0.00000000E+00  0.00000000E+00
  0.00000000E+00  0.00000000E+00  0.00000000E+00
  0.00000000E+00  0.00000000E+00  0.00000000E+00
  0.00000000E+00  0.00000000E+00  0.00000000E+00
  0.00000000E+00  0.00000000E+00  0.00000000E+00
  0.00000000E+00  0.00000000E+00  0.00000000E+00
  0.00000000E+00  0.00000000E+00  0.00000000E+00
  0.00000000E+00  0.00000000E+00  0.00000000E+00
  0.00000000E+00  0.00000000E+00  0.00000000E+00
  0.00000000E+00  0.00000000E+00  0.00000000E+00
  0.00000000E+00  0.00000000E+00  0.00000000E+00
  0.00000000E+00  0.00000000E+00  0.00000000E+00
  0.00000000E+00  0.00000000E+00  0.00000000E+00
  0.00000000E+00  0.00000000E+00  0.00000000E+00
  0.00000000E+00  0.00000000E+00  0.00000000E+00
  0.00000000E+00  0.00000000E+00  0.00000000E+00
  0.00000000E+00  0.00000000E+00  0.00000000E+00
  0.00000000E+00  0.00000000E+00  0.00000000E+00
  0.00000000E+00  0.00000000E+00  0.00000000E+00
  0.00000000E+00  0.00000000E+00  0.00000000E+00
  0.00000000E+00  0.00000000E+00  0.00000000E+00
  0.00000000E+00  0.00000000E+00  0.00000000E+00
  0.00000000E+00  0.00000000E+00  0.00000000E+00
  0.00000000E+00  0.00000000E+00  0.00000000E+00
  0.00000000E+00  0.00000000E+00  0.00000000E+00
  0.00000000E+00  0.00000000E+00  0.00000000E+00
  0.00000000E+00  0.00000000E+00  0.00000000E+00
  0.00000000E+00  0.00000000E+00  0.00000000E+00
  0.00000000E+00  0.00000000E+00  0.00000000E+00
  0.00000000E+00  0.00000000E+00  0.00000000E+00
  0.00000000E+00  0.00000000E+00  0.00000000E+00
  0.00000000E+00  0.00000000E+00  0.00000000E+00
  0.00000000E+00  0.00000000E+00  0.00000000E+00
  0.00000000E+00  0.00000000E+00  0.00000000E+00
  0.00000000E+00  0.00000000E+00  0.00000000E+00
  0.00000000E+00  0.00000000E+00  0.00000000E+00
