CONTCAR\(4)                             
   1.00000000000000     
    12.5341997146999997    0.0000000000000000    0.0000000000000000
    -6.2670998572999999   10.8549353689999997    0.0000000000000000
     0.0000000000000000    0.0000000000000000   23.0692996979000000
   Tb   Ga   I    O    H 
    18    18    18     2     1
Direct
  0.0008414227960389  0.0006251082493922  0.5857372519797042
  0.0005334482118914  0.0005328023197394  0.4125926482406681
  0.3335827597970424  0.0035359215589715  0.5846931850674935
  0.3343388533800924 -0.0006414528534947  0.4111564907732926
  0.6707447940878403  0.0035704012875700  0.5845411820095651
  0.6654198122863965 -0.0005730976751947  0.4111421333739642
  0.9972345193807691  0.3302144368186264  0.5845667467401110
  0.0013432952024367  0.3352511405933898  0.4111743808889745
  0.3337186550670346  0.3305515632310435  0.5846507537729499
  0.3344124481570881  0.3353089484967188  0.4111161699729939
  0.6670192474655858  0.3337785116905698  0.5845450390015811
  0.6669602136053316  0.3335318707813741  0.4095128116420714
  0.9970004342287230  0.6672327967968034  0.5844998603410100
  0.0011982066070599  0.6662266311864916  0.4110973482172895
  0.3330464858377193  0.6662769364762197  0.6210800176814119
  0.3336042529913314  0.6670621965788498  0.4140065082680579
  0.6702865721690072  0.6670232023545443  0.5846214176855726
  0.6654904663695843  0.6663496276662266  0.4110524134013575
  0.2205601371148369  0.1104031790869090  0.5111426132651915
  0.1145522500006100  0.2284519827090640  0.4849500243301554
  0.5565652261250179  0.1126573949230042  0.5112723082279653
  0.4443660860741980  0.2223011933750759  0.4826521943565427
  0.8904785287036016  0.1102709496451493  0.5110645149863172
  0.7784062844138080  0.2222572433683779  0.4826866906240689
  0.2272568890889152  0.4539716753838015  0.5186871900249521
  0.1098912432810063  0.5551273010307294  0.4844072760501484
  0.5564962431262217  0.4442307926295153  0.5111507704748638
  0.4456676986278056  0.5552130395529092  0.4842968102046077
  0.8880652702710341  0.4441306183785429  0.5112099616933804
  0.7783830420063581  0.5563096617738557  0.4826454527082145
  0.2270854772500582  0.7735935041276526  0.5187947901828066
  0.1144279383919444  0.8862818505492995  0.4849290440755851
  0.5469156009571471  0.7735108614025804  0.5187902031334815
  0.4455881639080285  0.8907226428950538  0.4846965425288532
  0.8902694481164067  0.7803472763463261  0.5111126579019082
  0.7722493043643882  0.8862771809493676  0.4848416906586703
  0.2226615916805286  0.1114001861062153  0.3255300504277457
  0.1120656293620920  0.2232633203481841  0.6715088005362385
  0.5555401190011724  0.1105278934776405  0.3238586811756867
  0.4454843383014911  0.2230807058916367  0.6708996134051952
  0.8893287174019403  0.1114919660101728  0.3255954016020833
  0.7780866069111293  0.2231588402463547  0.6707759648941140
  0.2236334863558845  0.4469199204083196  0.3258784208299769
  0.0732321434642474  0.5364151072191274  0.6722878485757643
  0.5554760430718727  0.4449743553828406  0.3237829558441302
  0.4629482664667621  0.5368275982804687  0.6727600186022401
  0.8898254882606574  0.4449880804345147  0.3238776917617899
  0.7779312346340377  0.5556025048902643  0.6711192197657886
  0.2236016596958216  0.7770522239403560  0.3258419457923430
  0.1121368344818477  0.8888594422620969  0.6715776263902364
  0.5535883947259959  0.7771455581302950  0.3258804713768542
  0.4649846461145004  0.9282814806768127  0.6727694527460973
  0.8891951538763087  0.7781519915895494  0.3256486528063186
  0.7783109129588508  0.8892072163267870  0.6713361967819426
  0.3426141340110913  0.6867525976343142  0.7147031174565432
  0.2879150623060565  0.5778585211843213  0.7532212378854786
  0.3056892274553221  0.6205351478746334  0.7905297858576742
 
  0.00000000E+00  0.00000000E+00  0.00000000E+00
  0.00000000E+00  0.00000000E+00  0.00000000E+00
  0.00000000E+00  0.00000000E+00  0.00000000E+00
  0.00000000E+00  0.00000000E+00  0.00000000E+00
  0.00000000E+00  0.00000000E+00  0.00000000E+00
  0.00000000E+00  0.00000000E+00  0.00000000E+00
  0.00000000E+00  0.00000000E+00  0.00000000E+00
  0.00000000E+00  0.00000000E+00  0.00000000E+00
  0.00000000E+00  0.00000000E+00  0.00000000E+00
  0.00000000E+00  0.00000000E+00  0.00000000E+00
  0.00000000E+00  0.00000000E+00  0.00000000E+00
  0.00000000E+00  0.00000000E+00  0.00000000E+00
  0.00000000E+00  0.00000000E+00  0.00000000E+00
  0.00000000E+00  0.00000000E+00  0.00000000E+00
  0.00000000E+00  0.00000000E+00  0.00000000E+00
  0.00000000E+00  0.00000000E+00  0.00000000E+00
  0.00000000E+00  0.00000000E+00  0.00000000E+00
  0.00000000E+00  0.00000000E+00  0.00000000E+00
  0.00000000E+00  0.00000000E+00  0.00000000E+00
  0.00000000E+00  0.00000000E+00  0.00000000E+00
  0.00000000E+00  0.00000000E+00  0.00000000E+00
  0.00000000E+00  0.00000000E+00  0.00000000E+00
  0.00000000E+00  0.00000000E+00  0.00000000E+00
  0.00000000E+00  0.00000000E+00  0.00000000E+00
  0.00000000E+00  0.00000000E+00  0.00000000E+00
  0.00000000E+00  0.00000000E+00  0.00000000E+00
  0.00000000E+00  0.00000000E+00  0.00000000E+00
  0.00000000E+00  0.00000000E+00  0.00000000E+00
  0.00000000E+00  0.00000000E+00  0.00000000E+00
  0.00000000E+00  0.00000000E+00  0.00000000E+00
  0.00000000E+00  0.00000000E+00  0.00000000E+00
  0.00000000E+00  0.00000000E+00  0.00000000E+00
  0.00000000E+00  0.00000000E+00  0.00000000E+00
  0.00000000E+00  0.00000000E+00  0.00000000E+00
  0.00000000E+00  0.00000000E+00  0.00000000E+00
  0.00000000E+00  0.00000000E+00  0.00000000E+00
  0.00000000E+00  0.00000000E+00  0.00000000E+00
  0.00000000E+00  0.00000000E+00  0.00000000E+00
  0.00000000E+00  0.00000000E+00  0.00000000E+00
  0.00000000E+00  0.00000000E+00  0.00000000E+00
  0.00000000E+00  0.00000000E+00  0.00000000E+00
  0.00000000E+00  0.00000000E+00  0.00000000E+00
  0.00000000E+00  0.00000000E+00  0.00000000E+00
  0.00000000E+00  0.00000000E+00  0.00000000E+00
  0.00000000E+00  0.00000000E+00  0.00000000E+00
  0.00000000E+00  0.00000000E+00  0.00000000E+00
  0.00000000E+00  0.00000000E+00  0.00000000E+00
  0.00000000E+00  0.00000000E+00  0.00000000E+00
  0.00000000E+00  0.00000000E+00  0.00000000E+00
  0.00000000E+00  0.00000000E+00  0.00000000E+00
  0.00000000E+00  0.00000000E+00  0.00000000E+00
  0.00000000E+00  0.00000000E+00  0.00000000E+00
  0.00000000E+00  0.00000000E+00  0.00000000E+00
  0.00000000E+00  0.00000000E+00  0.00000000E+00
  0.00000000E+00  0.00000000E+00  0.00000000E+00
  0.00000000E+00  0.00000000E+00  0.00000000E+00
  0.00000000E+00  0.00000000E+00  0.00000000E+00
