CONTCAR\(15)                            
   1.00000000000000     
    13.0656995773000002    0.0000000000000000    0.0000000000000000
     6.5328497887000001   11.3152277522000002    0.0000000000000000
     0.0000000000000000    0.0000000000000000   20.6284008026000016
   Ta   C    S 
    32    16    32
Direct
  0.1666699840000021  0.1666699960000031  0.5575499919999984
  0.0833299940000032  0.0833299940000032  0.4424500080000016
  0.4166700019999965  0.1666699960000031  0.5575499919999984
  0.3333300310000027  0.0833299940000032  0.4424500080000016
  0.6666700199999980  0.1666699960000031  0.5575499919999984
  0.5833299760000017  0.0833299940000032  0.4424500080000016
  0.9166700379999995  0.1666699960000031  0.5575499919999984
  0.8333299210000007  0.0833299940000032  0.4424500080000016
  0.1666699900000026  0.4166700010000000  0.5575499919999984
  0.0833299980000035  0.3333300039999969  0.4424500080000016
  0.4166700449999965  0.4166700010000000  0.5575499919999984
  0.3333299980000035  0.3333300039999969  0.4424500080000016
  0.6666699900000026  0.4166700010000000  0.5575499919999984
  0.5833299430000025  0.3333300039999969  0.4424500080000016
  0.9166700820000031  0.4166700010000000  0.5575499919999984
  0.8333299620000005  0.3333300039999969  0.4424500080000016
  0.1666700019999965  0.6666699960000031  0.5575499919999984
  0.0833299660000009  0.5833299780000019  0.4424500080000016
  0.4166700199999980  0.6666699960000031  0.5575499919999984
  0.3333299840000024  0.5833299780000019  0.4424500080000016
  0.6666700390000031  0.6666699960000031  0.5575499919999984
  0.5833299290000014  0.5833299780000019  0.4424500080000016
  0.9166701300000000  0.6666699960000031  0.5575499919999984
  0.8333299470000028  0.5833299780000019  0.4424500080000016
  0.1666700500000005  0.9166699900000026  0.5575499919999984
  0.0833299780000019  0.8333299720000014  0.4424500080000016
  0.4166699960000031  0.9166699900000026  0.5575499919999984
  0.3333300319999992  0.8333299720000014  0.4424500080000016
  0.6666700870000000  0.9166699900000026  0.5575499919999984
  0.5833299780000019  0.8333299720000014  0.4424500080000016
  0.9166700319999990  0.9166699900000026  0.5575499919999984
  0.8333299230000009  0.8333299720000014  0.4424500080000016
  0.0000000000000000  0.0000000000000000  0.5000000000000000
  0.2500000000000000  0.0000000000000000  0.5000000000000000
  0.5000000000000000  0.0000000000000000  0.5000000000000000
  0.7499999819999985  0.0000000000000000  0.5000000000000000
  0.0000000029999967  0.2499999950000031  0.5000000000000000
  0.2499999939999995  0.2499999950000031  0.5000000000000000
  0.5000000120000010  0.2499999950000031  0.5000000000000000
  0.7499999570000000  0.2499999950000031  0.5000000000000000
  0.0000000049999969  0.4999999890000026  0.5000000000000000
  0.2500000049999969  0.4999999890000026  0.5000000000000000
  0.4999999870000025  0.4999999890000026  0.5000000000000000
  0.7500000049999969  0.4999999890000026  0.5000000000000000
  0.9999999990000035  0.7499999839999987  0.5000000000000000
  0.2500000169999979  0.7499999839999987  0.5000000000000000
  0.5000000349999993  0.7499999839999987  0.5000000000000000
  0.7499999810000020  0.7499999839999987  0.5000000000000000
  0.1666699840000021  0.1666699960000031  0.3634600039999967
  0.0833299940000032  0.0833299940000032  0.6365399960000033
  0.4166700019999965  0.1666699960000031  0.3634600039999967
  0.3333300310000027  0.0833299940000032  0.6365399960000033
  0.6666700199999980  0.1666699960000031  0.3634600039999967
  0.5833299760000017  0.0833299940000032  0.6365399960000033
  0.9166700379999995  0.1666699960000031  0.3634600039999967
  0.8333299210000007  0.0833299940000032  0.6365399960000033
  0.1666699900000026  0.4166700010000000  0.3634600039999967
  0.0833299980000035  0.3333300039999969  0.6365399960000033
  0.4166700449999965  0.4166700010000000  0.3634600039999967
  0.3333299980000035  0.3333300039999969  0.6365399960000033
  0.6666699900000026  0.4166700010000000  0.3634600039999967
  0.5833299430000025  0.3333300039999969  0.6365399960000033
  0.9166700820000031  0.4166700010000000  0.3634600039999967
  0.8333299620000005  0.3333300039999969  0.6365399960000033
  0.1666700019999965  0.6666699960000031  0.3634600039999967
  0.0833299660000009  0.5833299780000019  0.6365399960000033
  0.4166700199999980  0.6666699960000031  0.3634600039999967
  0.3333299840000024  0.5833299780000019  0.6365399960000033
  0.6666700390000031  0.6666699960000031  0.3634600039999967
  0.5833299290000014  0.5833299780000019  0.6365399960000033
  0.9166701300000000  0.6666699960000031  0.3634600039999967
  0.8333299470000028  0.5833299780000019  0.6365399960000033
  0.1666700500000005  0.9166699900000026  0.3634600039999967
  0.0833299780000019  0.8333299720000014  0.6365399960000033
  0.4166699960000031  0.9166699900000026  0.3634600039999967
  0.3333300319999992  0.8333299720000014  0.6365399960000033
  0.6666700870000000  0.9166699900000026  0.3634600039999967
  0.5833299780000019  0.8333299720000014  0.6365399960000033
  0.9166700319999990  0.9166699900000026  0.3634600039999967
  0.8333299230000009  0.8333299720000014  0.6365399960000033
 
  0.00000000E+00  0.00000000E+00  0.00000000E+00
  0.00000000E+00  0.00000000E+00  0.00000000E+00
  0.00000000E+00  0.00000000E+00  0.00000000E+00
  0.00000000E+00  0.00000000E+00  0.00000000E+00
  0.00000000E+00  0.00000000E+00  0.00000000E+00
  0.00000000E+00  0.00000000E+00  0.00000000E+00
  0.00000000E+00  0.00000000E+00  0.00000000E+00
  0.00000000E+00  0.00000000E+00  0.00000000E+00
  0.00000000E+00  0.00000000E+00  0.00000000E+00
  0.00000000E+00  0.00000000E+00  0.00000000E+00
  0.00000000E+00  0.00000000E+00  0.00000000E+00
  0.00000000E+00  0.00000000E+00  0.00000000E+00
  0.00000000E+00  0.00000000E+00  0.00000000E+00
  0.00000000E+00  0.00000000E+00  0.00000000E+00
  0.00000000E+00  0.00000000E+00  0.00000000E+00
  0.00000000E+00  0.00000000E+00  0.00000000E+00
  0.00000000E+00  0.00000000E+00  0.00000000E+00
  0.00000000E+00  0.00000000E+00  0.00000000E+00
  0.00000000E+00  0.00000000E+00  0.00000000E+00
  0.00000000E+00  0.00000000E+00  0.00000000E+00
  0.00000000E+00  0.00000000E+00  0.00000000E+00
  0.00000000E+00  0.00000000E+00  0.00000000E+00
  0.00000000E+00  0.00000000E+00  0.00000000E+00
  0.00000000E+00  0.00000000E+00  0.00000000E+00
  0.00000000E+00  0.00000000E+00  0.00000000E+00
  0.00000000E+00  0.00000000E+00  0.00000000E+00
  0.00000000E+00  0.00000000E+00  0.00000000E+00
  0.00000000E+00  0.00000000E+00  0.00000000E+00
  0.00000000E+00  0.00000000E+00  0.00000000E+00
  0.00000000E+00  0.00000000E+00  0.00000000E+00
  0.00000000E+00  0.00000000E+00  0.00000000E+00
  0.00000000E+00  0.00000000E+00  0.00000000E+00
  0.00000000E+00  0.00000000E+00  0.00000000E+00
  0.00000000E+00  0.00000000E+00  0.00000000E+00
  0.00000000E+00  0.00000000E+00  0.00000000E+00
  0.00000000E+00  0.00000000E+00  0.00000000E+00
  0.00000000E+00  0.00000000E+00  0.00000000E+00
  0.00000000E+00  0.00000000E+00  0.00000000E+00
  0.00000000E+00  0.00000000E+00  0.00000000E+00
  0.00000000E+00  0.00000000E+00  0.00000000E+00
  0.00000000E+00  0.00000000E+00  0.00000000E+00
  0.00000000E+00  0.00000000E+00  0.00000000E+00
  0.00000000E+00  0.00000000E+00  0.00000000E+00
  0.00000000E+00  0.00000000E+00  0.00000000E+00
  0.00000000E+00  0.00000000E+00  0.00000000E+00
  0.00000000E+00  0.00000000E+00  0.00000000E+00
  0.00000000E+00  0.00000000E+00  0.00000000E+00
  0.00000000E+00  0.00000000E+00  0.00000000E+00
  0.00000000E+00  0.00000000E+00  0.00000000E+00
  0.00000000E+00  0.00000000E+00  0.00000000E+00
  0.00000000E+00  0.00000000E+00  0.00000000E+00
  0.00000000E+00  0.00000000E+00  0.00000000E+00
  0.00000000E+00  0.00000000E+00  0.00000000E+00
  0.00000000E+00  0.00000000E+00  0.00000000E+00
  0.00000000E+00  0.00000000E+00  0.00000000E+00
  0.00000000E+00  0.00000000E+00  0.00000000E+00
  0.00000000E+00  0.00000000E+00  0.00000000E+00
  0.00000000E+00  0.00000000E+00  0.00000000E+00
  0.00000000E+00  0.00000000E+00  0.00000000E+00
  0.00000000E+00  0.00000000E+00  0.00000000E+00
  0.00000000E+00  0.00000000E+00  0.00000000E+00
  0.00000000E+00  0.00000000E+00  0.00000000E+00
  0.00000000E+00  0.00000000E+00  0.00000000E+00
  0.00000000E+00  0.00000000E+00  0.00000000E+00
  0.00000000E+00  0.00000000E+00  0.00000000E+00
  0.00000000E+00  0.00000000E+00  0.00000000E+00
  0.00000000E+00  0.00000000E+00  0.00000000E+00
  0.00000000E+00  0.00000000E+00  0.00000000E+00
  0.00000000E+00  0.00000000E+00  0.00000000E+00
  0.00000000E+00  0.00000000E+00  0.00000000E+00
  0.00000000E+00  0.00000000E+00  0.00000000E+00
  0.00000000E+00  0.00000000E+00  0.00000000E+00
  0.00000000E+00  0.00000000E+00  0.00000000E+00
  0.00000000E+00  0.00000000E+00  0.00000000E+00
  0.00000000E+00  0.00000000E+00  0.00000000E+00
  0.00000000E+00  0.00000000E+00  0.00000000E+00
  0.00000000E+00  0.00000000E+00  0.00000000E+00
  0.00000000E+00  0.00000000E+00  0.00000000E+00
  0.00000000E+00  0.00000000E+00  0.00000000E+00
  0.00000000E+00  0.00000000E+00  0.00000000E+00
