CONTCAR\(10)                            
   1.00000000000000     
    13.7902002335000002    0.0000000000000000    0.0000000000000000
     6.8951001167000001   11.9426637253999992    0.0000000000000000
     0.0000000000000000    0.0000000000000000   18.3700008391999994
   Nb   Se   O    H 
    16    32     1     1
Direct
  0.0883892108046851  0.0844598639551251  0.5032133462024788
  0.3291694609873730  0.0843193347930296  0.5033167099777813
  0.5858627841001720  0.0820052907951450  0.5037392031777372
  0.8340324537224362  0.0822384161536149  0.5036364102832565
  0.0844848660547726  0.3329116017968659  0.5032469063954252
  0.3290781099026603  0.3367909091023407  0.5034328231948777
  0.5845083997039353  0.3331550656581683  0.5031574839839124
  0.8360129347283873  0.3368816046755470  0.5031780617625330
  0.0884863217074212  0.5772398540588100  0.5035572608446373
  0.3254032071381019  0.5739120902749235  0.5020738334451877
  0.6026916497513994  0.5738217706301825  0.5023262638126909
  0.8362755156922717  0.5772109930297304  0.5032364209217874
  0.0844300348940905  0.8330462763713342  0.5029457606604524
  0.3255514594825755  0.8511928351253957  0.5021248080117715
  0.5844721001382283  0.8327088855839762  0.5031808651560539
  0.8339450557282362  0.8338764447715903  0.5038166653136855
  0.1668557279347453  0.1680107208685939  0.5967229591595071
  0.1670855576508998  0.1680959706673804  0.4097431581262398
  0.4173368129364192  0.1663746727530793  0.5934192260314077
  0.4177490576831673  0.1663885723180698  0.4135462217510266
  0.6675826886101106  0.1669059727471591  0.5953849841763699
  0.6678609956602912  0.1659954759451097  0.4117349794215031
  0.9182400857440101  0.1665894619587007  0.5933178604322080
  0.9178675996131105  0.1663741108593868  0.4134211382326498
  0.1668848032773838  0.4150784610299425  0.5970159618673563
  0.1669655243927224  0.4153506090762278  0.4098502972673970
  0.4183961006500923  0.4139101946398966  0.5957838465782785
  0.4188781916858346  0.4125137512250348  0.4102112306846735
  0.6698473368546161  0.4138683081656964  0.5958943073121574
  0.6703686899801937  0.4125953386658097  0.4101486229596034
  0.9197444671567325  0.4151648977163660  0.5967815666255447
  0.9197228875563397  0.4151875474510263  0.4096753731319751
  0.1655766857258811  0.6668697506460433  0.5961204788169994
  0.1636766216368386  0.6675544016568153  0.4103627263748493
  0.4188525519944406  0.6657455930882961  0.5774479702220532
  0.4176375510490900  0.6664659617930866  0.4236794054547417
  0.6700818302462324  0.6664041885053038  0.5958479717257958
  0.6705190001561974  0.6674617936524854  0.4101854956454289
  0.9182739501916188  0.6653370782398795  0.5935121567714319
  0.9181895107058793  0.6659530213357812  0.4135867359759189
  0.1654399325183107  0.9181044774758220  0.5959263626183144
  0.1641505087016526  0.9187854186818498  0.4102024962626984
  0.4183793711529020  0.9180942672865200  0.5959469378271791
  0.4191301693787608  0.9188839104385309  0.4101356434759111
  0.6674558303796871  0.9156128391176495  0.5955509893599356
  0.6681250278192508  0.9162304811922439  0.4116603471166300
  0.9186872055744644  0.9157887274479037  0.5953867631768830
  0.9173720171843485  0.9162703188447878  0.4115770914511074
  0.4285596083613541  0.6604615965523095  0.6776121917728091
  0.3512712582996897  0.6946820331814791  0.6954643740490667
 
  0.00000000E+00  0.00000000E+00  0.00000000E+00
  0.00000000E+00  0.00000000E+00  0.00000000E+00
  0.00000000E+00  0.00000000E+00  0.00000000E+00
  0.00000000E+00  0.00000000E+00  0.00000000E+00
  0.00000000E+00  0.00000000E+00  0.00000000E+00
  0.00000000E+00  0.00000000E+00  0.00000000E+00
  0.00000000E+00  0.00000000E+00  0.00000000E+00
  0.00000000E+00  0.00000000E+00  0.00000000E+00
  0.00000000E+00  0.00000000E+00  0.00000000E+00
  0.00000000E+00  0.00000000E+00  0.00000000E+00
  0.00000000E+00  0.00000000E+00  0.00000000E+00
  0.00000000E+00  0.00000000E+00  0.00000000E+00
  0.00000000E+00  0.00000000E+00  0.00000000E+00
  0.00000000E+00  0.00000000E+00  0.00000000E+00
  0.00000000E+00  0.00000000E+00  0.00000000E+00
  0.00000000E+00  0.00000000E+00  0.00000000E+00
  0.00000000E+00  0.00000000E+00  0.00000000E+00
  0.00000000E+00  0.00000000E+00  0.00000000E+00
  0.00000000E+00  0.00000000E+00  0.00000000E+00
  0.00000000E+00  0.00000000E+00  0.00000000E+00
  0.00000000E+00  0.00000000E+00  0.00000000E+00
  0.00000000E+00  0.00000000E+00  0.00000000E+00
  0.00000000E+00  0.00000000E+00  0.00000000E+00
  0.00000000E+00  0.00000000E+00  0.00000000E+00
  0.00000000E+00  0.00000000E+00  0.00000000E+00
  0.00000000E+00  0.00000000E+00  0.00000000E+00
  0.00000000E+00  0.00000000E+00  0.00000000E+00
  0.00000000E+00  0.00000000E+00  0.00000000E+00
  0.00000000E+00  0.00000000E+00  0.00000000E+00
  0.00000000E+00  0.00000000E+00  0.00000000E+00
  0.00000000E+00  0.00000000E+00  0.00000000E+00
  0.00000000E+00  0.00000000E+00  0.00000000E+00
  0.00000000E+00  0.00000000E+00  0.00000000E+00
  0.00000000E+00  0.00000000E+00  0.00000000E+00
  0.00000000E+00  0.00000000E+00  0.00000000E+00
  0.00000000E+00  0.00000000E+00  0.00000000E+00
  0.00000000E+00  0.00000000E+00  0.00000000E+00
  0.00000000E+00  0.00000000E+00  0.00000000E+00
  0.00000000E+00  0.00000000E+00  0.00000000E+00
  0.00000000E+00  0.00000000E+00  0.00000000E+00
  0.00000000E+00  0.00000000E+00  0.00000000E+00
  0.00000000E+00  0.00000000E+00  0.00000000E+00
  0.00000000E+00  0.00000000E+00  0.00000000E+00
  0.00000000E+00  0.00000000E+00  0.00000000E+00
  0.00000000E+00  0.00000000E+00  0.00000000E+00
  0.00000000E+00  0.00000000E+00  0.00000000E+00
  0.00000000E+00  0.00000000E+00  0.00000000E+00
  0.00000000E+00  0.00000000E+00  0.00000000E+00
  0.00000000E+00  0.00000000E+00  0.00000000E+00
  0.00000000E+00  0.00000000E+00  0.00000000E+00
