CONTCAR                                 
   1.00000000000000     
    14.1084995269999993    0.0000000000000000    0.0000000000000000
     3.5075286754000001   19.1175987350000014    0.0000000000000000
     0.0000000000000000    0.0000000000000000   19.0792007446000014
   Ta   Te   O 
    24    48     1
Direct
  0.1605844587668938  0.3556433310500344  0.5025632770240218
  0.0932465686882661  0.1425510914123881  0.4988625131023224
  0.2443152290042964  0.4986592440524136  0.5002499731210561
  0.4092949425390660  0.3553137756231268  0.5033612144115333
  0.3386140223484810  0.1422184795388827  0.4987112480697952
  0.4949800751169945  0.4976211160046163  0.4994699108063114
  0.6605661523739702  0.3544683890888835  0.5034472443823168
  0.5843024508874911  0.1428558566333742  0.4990164167554916
  0.7558179288667970  0.4979828538953270  0.4991476449503555
  0.9124872985332616  0.3539103626722713  0.5021082573236514
  0.8386588834659567  0.1441342120896658  0.4980996562494826
  0.0038680109422208  0.4983148306453096  0.5001774255898406
  0.1653343644889033  0.8540416625922171  0.5020783888847540
  0.0887643960037469  0.6425482753916563  0.4985517632335462
  0.2553612681483049  0.9982555286333082  0.5004288843143213
  0.4107645879039034  0.8541589229885178  0.5023041176618425
  0.3382961355162939  0.6415441510558736  0.4975208643452502
  0.4941301930967867  0.9979977386004556  0.5005040969922591
  0.6564461329890242  0.8540098946133363  0.5022627184892718
  0.5877478989868186  0.6451583871869800  0.4980516690309447
  0.7255105536850921  0.9981221914547012  0.5004696903209142
  0.9107976579162069  0.8527681363705228  0.5032694183740737
  0.8389153617543619  0.6427116229521058  0.4982980318721699
  0.0241629111315690  0.9984379214361999  0.5005610316924191
  0.1375227306638503  0.4461660278000557  0.3931089637414871
  0.1169237417795340  0.0524111589151234  0.6089765538427465
  0.0565871121483064  0.2739779019243772  0.4184133568470763
  0.0265755682083469  0.3912351074066064  0.6074573215885847
  0.2246759078113701  0.1056032290102743  0.3929979467335881
  0.1947439384916929  0.2241170768550401  0.5827562785579963
  0.3853084205446518  0.4462733672556302  0.3947829485088591
  0.3614309937732052  0.0515201485138812  0.6077174767215928
  0.3054222495443812  0.2745021732994117  0.4195756045345015
  0.2752518458590025  0.3919858797796602  0.6080084867503155
  0.4715883235533265  0.1056768652015141  0.3933044150607476
  0.4420672596615365  0.2239820204733321  0.5830208508273296
  0.6379867912006799  0.4464193536492300  0.3961158626117699
  0.6055237719520523  0.0523258327782013  0.6087871162028429
  0.5548721365628927  0.2744743273464458  0.4193690088870266
  0.5254669675736273  0.3914514203880668  0.6076683116685972
  0.7205462165647496  0.1049001232631738  0.3950710451953335
  0.6930500920937943  0.2224064940545900  0.5824285232545102
  0.8902189288261274  0.4463479642503953  0.3943309746147181
  0.8628009702831947  0.0455177852643308  0.5965344765658154
  0.8050004524763152  0.2751123956503876  0.4179321338998125
  0.7781610132165181  0.3909363386410618  0.6067208841395563
  0.9759203155070475  0.1050004056848488  0.3948127175231579
  0.9452700514816509  0.2220701116086633  0.5822929575817455
  0.1436811524300283  0.9443296914544205  0.3920757179430401
  0.1109717426404447  0.5509618684549492  0.6071038042924738
  0.0560931195035003  0.7748993250918321  0.4190654487083686
  0.0289777230505635  0.8919753505123036  0.6061892097819066
  0.2220826649918477  0.6059900869346598  0.3930314353840783
  0.1940592760672774  0.7227145870618790  0.5821357775786689
  0.3880955139456890  0.9446408418642349  0.3931398115147677
  0.3599925577426854  0.5505543561119450  0.6056182055668079
  0.3068059035551973  0.7728972652530863  0.4176687635450613
  0.2781087020106684  0.8910355092457722  0.6079612895278725
  0.4732706089757289  0.6052740081465396  0.3933938318425480
  0.4424784937118615  0.7226779700178998  0.5820799847259969
  0.6327900000910479  0.9440086515491799  0.3919735881054763
  0.6126732607780464  0.5481381218146211  0.5992982901854083
  0.5545453927363169  0.7728224225768716  0.4166421945789590
  0.5248302172858353  0.8907279954987573  0.6079957166047897
  0.7231553834260718  0.6061037046058619  0.3935652499277211
  0.6942097827123124  0.7233587304087294  0.5828514480798082
  0.8870086957713176  0.9511045235715097  0.4046120725307521
  0.8631513320387637  0.5503741344258873  0.6057689355844671
  0.8045687485774591  0.7748329567802640  0.4185895586826543
  0.7732832085225498  0.8918909005436642  0.6064199655746404
  0.9730958403742368  0.6065549199936270  0.3936541071663650
  0.9444131541637754  0.7217428584574306  0.5837612284587530
  0.6218543459642044  0.5202587486276311  0.6925546232509773
 
  0.00000000E+00  0.00000000E+00  0.00000000E+00
  0.00000000E+00  0.00000000E+00  0.00000000E+00
  0.00000000E+00  0.00000000E+00  0.00000000E+00
  0.00000000E+00  0.00000000E+00  0.00000000E+00
  0.00000000E+00  0.00000000E+00  0.00000000E+00
  0.00000000E+00  0.00000000E+00  0.00000000E+00
  0.00000000E+00  0.00000000E+00  0.00000000E+00
  0.00000000E+00  0.00000000E+00  0.00000000E+00
  0.00000000E+00  0.00000000E+00  0.00000000E+00
  0.00000000E+00  0.00000000E+00  0.00000000E+00
  0.00000000E+00  0.00000000E+00  0.00000000E+00
  0.00000000E+00  0.00000000E+00  0.00000000E+00
  0.00000000E+00  0.00000000E+00  0.00000000E+00
  0.00000000E+00  0.00000000E+00  0.00000000E+00
  0.00000000E+00  0.00000000E+00  0.00000000E+00
  0.00000000E+00  0.00000000E+00  0.00000000E+00
  0.00000000E+00  0.00000000E+00  0.00000000E+00
  0.00000000E+00  0.00000000E+00  0.00000000E+00
  0.00000000E+00  0.00000000E+00  0.00000000E+00
  0.00000000E+00  0.00000000E+00  0.00000000E+00
  0.00000000E+00  0.00000000E+00  0.00000000E+00
  0.00000000E+00  0.00000000E+00  0.00000000E+00
  0.00000000E+00  0.00000000E+00  0.00000000E+00
  0.00000000E+00  0.00000000E+00  0.00000000E+00
  0.00000000E+00  0.00000000E+00  0.00000000E+00
  0.00000000E+00  0.00000000E+00  0.00000000E+00
  0.00000000E+00  0.00000000E+00  0.00000000E+00
  0.00000000E+00  0.00000000E+00  0.00000000E+00
  0.00000000E+00  0.00000000E+00  0.00000000E+00
  0.00000000E+00  0.00000000E+00  0.00000000E+00
  0.00000000E+00  0.00000000E+00  0.00000000E+00
  0.00000000E+00  0.00000000E+00  0.00000000E+00
  0.00000000E+00  0.00000000E+00  0.00000000E+00
  0.00000000E+00  0.00000000E+00  0.00000000E+00
  0.00000000E+00  0.00000000E+00  0.00000000E+00
  0.00000000E+00  0.00000000E+00  0.00000000E+00
  0.00000000E+00  0.00000000E+00  0.00000000E+00
  0.00000000E+00  0.00000000E+00  0.00000000E+00
  0.00000000E+00  0.00000000E+00  0.00000000E+00
  0.00000000E+00  0.00000000E+00  0.00000000E+00
  0.00000000E+00  0.00000000E+00  0.00000000E+00
  0.00000000E+00  0.00000000E+00  0.00000000E+00
  0.00000000E+00  0.00000000E+00  0.00000000E+00
  0.00000000E+00  0.00000000E+00  0.00000000E+00
  0.00000000E+00  0.00000000E+00  0.00000000E+00
  0.00000000E+00  0.00000000E+00  0.00000000E+00
  0.00000000E+00  0.00000000E+00  0.00000000E+00
  0.00000000E+00  0.00000000E+00  0.00000000E+00
  0.00000000E+00  0.00000000E+00  0.00000000E+00
  0.00000000E+00  0.00000000E+00  0.00000000E+00
  0.00000000E+00  0.00000000E+00  0.00000000E+00
  0.00000000E+00  0.00000000E+00  0.00000000E+00
  0.00000000E+00  0.00000000E+00  0.00000000E+00
  0.00000000E+00  0.00000000E+00  0.00000000E+00
  0.00000000E+00  0.00000000E+00  0.00000000E+00
  0.00000000E+00  0.00000000E+00  0.00000000E+00
  0.00000000E+00  0.00000000E+00  0.00000000E+00
  0.00000000E+00  0.00000000E+00  0.00000000E+00
  0.00000000E+00  0.00000000E+00  0.00000000E+00
  0.00000000E+00  0.00000000E+00  0.00000000E+00
  0.00000000E+00  0.00000000E+00  0.00000000E+00
  0.00000000E+00  0.00000000E+00  0.00000000E+00
  0.00000000E+00  0.00000000E+00  0.00000000E+00
  0.00000000E+00  0.00000000E+00  0.00000000E+00
  0.00000000E+00  0.00000000E+00  0.00000000E+00
  0.00000000E+00  0.00000000E+00  0.00000000E+00
  0.00000000E+00  0.00000000E+00  0.00000000E+00
  0.00000000E+00  0.00000000E+00  0.00000000E+00
  0.00000000E+00  0.00000000E+00  0.00000000E+00
  0.00000000E+00  0.00000000E+00  0.00000000E+00
  0.00000000E+00  0.00000000E+00  0.00000000E+00
  0.00000000E+00  0.00000000E+00  0.00000000E+00
  0.00000000E+00  0.00000000E+00  0.00000000E+00
