CONTCAR\(4)                             
   1.00000000000000     
    13.0347003936999997    0.0000000000000000    0.0000000000000000
     0.0000000000000000   13.0347003936999997    0.0000000000000000
     0.0000000000000000    0.0000000000000000   24.3213005066000001
   Sm   Te   O    H 
    18    54     1     1
Direct
  0.9997081399411130  0.1663781359411161  0.4132535760289073
  0.1662774455407927  0.0025996919442548  0.5850971815866117
  0.3329136438036784  0.1661019456697375  0.4136121056728328
  0.4996518062905437  0.9999741903352870  0.5871708333557848
  0.6662044988454525  0.1659210888796352  0.4132772409226320
  0.8326542880789418  0.9993243200789408  0.5856160346378942
  0.9994319496697344  0.4995836398036815  0.4136121056728328
  0.1679438156661348  0.3346038236661286  0.5870343908134643
  0.3332701863606218  0.4999401823606249  0.4155091948861624
  0.5003750385188255  0.3309106033865490  0.5863375157254112
  0.6656543600736597  0.5000518376692327  0.4147430899231921
  0.8359296599442558  0.3329374535407865  0.5850971815866117
  0.9992510928796321  0.8328644348454546  0.4132772409226320
  0.1642505953865552  0.6670450705188244  0.5863375157254112
  0.3333818416692296  0.8323142960736618  0.4147430899231921
  0.5000570842047694  0.6667271162047683  0.5919259012691356
  0.6659794937941896  0.8326394297941917  0.4145399800739256
  0.8333041583352880  0.6663218382905427  0.5871708333557848
  0.0006938499941000  0.1673638459941031  0.5463756269551823
  0.1664908809788628  0.9991832887160186  0.4525137958053307
  0.1696249804305978  0.1700509122301952  0.6904849120751066
  0.9995046125373648  0.9995027726187899  0.3091804343508855
  0.9978484344462260  0.0067802107019830  0.6894253332153468
  0.1661895373301405  0.1660716209062869  0.3096886923658886
  0.3335534967949272  0.1669995232544750  0.5471880664755489
  0.4995130221111594  0.9995851910761147  0.4534904878817727
  0.4993917452037167  0.1645831883103668  0.6910529354453416
  0.3327964753753605  0.9991318682605126  0.3102272904573056
  0.3345985903744477  0.0036813655759715  0.6903753781367925
  0.4993492104698873  0.1660613534955147  0.3096581369881051
  0.6664865082606042  0.1652776478540545  0.5465877327897957
  0.8329940982255408  0.9996641302255398  0.4525276503783360
  0.8401101787019840  0.1645184304462290  0.6894253332153468
  0.6660425372427881  0.9990273593447299  0.3100905241433978
  0.6674234969385751  0.9992288678631880  0.6904915867668819
  0.8328327406187910  0.1661746085373679  0.3091804343508855
  0.0003295272544719  0.5002234927949303  0.5471880664755489
  0.1665502915259651  0.3332102995259589  0.4535441249134422
  0.1673705833442725  0.5031625800088833  0.6920921151293413
  0.9994016249062838  0.3328495453301343  0.3096886923658886
  0.0033809162301921  0.3362849884305916  0.6904849120751066
  0.1665014413357753  0.4994151365151396  0.3107442016035407
  0.3352286099792892  0.5018986059792923  0.5505275003512722
  0.4996408230232916  0.3324158288178012  0.4534931614547091
  0.5182772443502444  0.4858049147593491  0.7022552147708794
  0.3327451405151365  0.3331614493357691  0.3107442016035407
  0.3364925840088802  0.3340305913442663  0.6920921151293413
  0.4991248449083159  0.4997031234718392  0.3112256664887738
  0.6655653943497128  0.5004168119445183  0.5491854603655923
  0.8325132567160196  0.3331508889788566  0.4525137958053307
  0.8370113335759726  0.5012685863744508  0.6903753781367925
  0.6658921374384477  0.3330335382854344  0.3102901499663702
  0.6709967140865913  0.3287793747610337  0.6849103716484208
  0.8324618362605065  0.4994664713753636  0.3102272904573056
  0.9986076518540514  0.8331464442606062  0.5465877327897957
  0.1657558208178074  0.6663108550232906  0.4534931614547091
  0.1621193667610399  0.8376566500865934  0.6849103716484208
  0.9993913574955116  0.6660192424698863  0.3096581369881051
  0.9979131923103637  0.6660617772037156  0.6910529354453416
  0.1663735302854334  0.8325520734384497  0.3102901499663702
  0.3337468159445081  0.8322253303497149  0.5491854603655923
  0.4998547293644791  0.6665247613644780  0.4560817306711016
  0.5003037353605961  0.8358139874538963  0.6943292343098051
  0.3330331274718361  0.6657948769083148  0.3112256664887738
  0.3191349187593460  0.6849472763502433  0.7022552147708794
  0.4993041468103101  0.8323755243804030  0.3108490138585225
  0.6651420662707466  0.8318020022707486  0.5487289465158085
  0.8329151590761157  0.6661830541111584  0.4534904878817727
  0.8325588358631890  0.8340834329385771  0.6904915867668819
  0.6657155883804009  0.6659741788103091  0.3108490138585225
  0.6691540514538943  0.6669737673605951  0.6943292343098051
  0.8323573273447309  0.8327024732427901  0.3100905241433978
  0.3978471330944444  0.5645471260944461  0.7560528536546869
  0.4331636604332871  0.5998636534332888  0.7862670404908698
 
  0.00000000E+00  0.00000000E+00  0.00000000E+00
  0.00000000E+00  0.00000000E+00  0.00000000E+00
  0.00000000E+00  0.00000000E+00  0.00000000E+00
  0.00000000E+00  0.00000000E+00  0.00000000E+00
  0.00000000E+00  0.00000000E+00  0.00000000E+00
  0.00000000E+00  0.00000000E+00  0.00000000E+00
  0.00000000E+00  0.00000000E+00  0.00000000E+00
  0.00000000E+00  0.00000000E+00  0.00000000E+00
  0.00000000E+00  0.00000000E+00  0.00000000E+00
  0.00000000E+00  0.00000000E+00  0.00000000E+00
  0.00000000E+00  0.00000000E+00  0.00000000E+00
  0.00000000E+00  0.00000000E+00  0.00000000E+00
  0.00000000E+00  0.00000000E+00  0.00000000E+00
  0.00000000E+00  0.00000000E+00  0.00000000E+00
  0.00000000E+00  0.00000000E+00  0.00000000E+00
  0.00000000E+00  0.00000000E+00  0.00000000E+00
  0.00000000E+00  0.00000000E+00  0.00000000E+00
  0.00000000E+00  0.00000000E+00  0.00000000E+00
  0.00000000E+00  0.00000000E+00  0.00000000E+00
  0.00000000E+00  0.00000000E+00  0.00000000E+00
  0.00000000E+00  0.00000000E+00  0.00000000E+00
  0.00000000E+00  0.00000000E+00  0.00000000E+00
  0.00000000E+00  0.00000000E+00  0.00000000E+00
  0.00000000E+00  0.00000000E+00  0.00000000E+00
  0.00000000E+00  0.00000000E+00  0.00000000E+00
  0.00000000E+00  0.00000000E+00  0.00000000E+00
  0.00000000E+00  0.00000000E+00  0.00000000E+00
  0.00000000E+00  0.00000000E+00  0.00000000E+00
  0.00000000E+00  0.00000000E+00  0.00000000E+00
  0.00000000E+00  0.00000000E+00  0.00000000E+00
  0.00000000E+00  0.00000000E+00  0.00000000E+00
  0.00000000E+00  0.00000000E+00  0.00000000E+00
  0.00000000E+00  0.00000000E+00  0.00000000E+00
  0.00000000E+00  0.00000000E+00  0.00000000E+00
  0.00000000E+00  0.00000000E+00  0.00000000E+00
  0.00000000E+00  0.00000000E+00  0.00000000E+00
  0.00000000E+00  0.00000000E+00  0.00000000E+00
  0.00000000E+00  0.00000000E+00  0.00000000E+00
  0.00000000E+00  0.00000000E+00  0.00000000E+00
  0.00000000E+00  0.00000000E+00  0.00000000E+00
  0.00000000E+00  0.00000000E+00  0.00000000E+00
  0.00000000E+00  0.00000000E+00  0.00000000E+00
  0.00000000E+00  0.00000000E+00  0.00000000E+00
  0.00000000E+00  0.00000000E+00  0.00000000E+00
  0.00000000E+00  0.00000000E+00  0.00000000E+00
  0.00000000E+00  0.00000000E+00  0.00000000E+00
  0.00000000E+00  0.00000000E+00  0.00000000E+00
  0.00000000E+00  0.00000000E+00  0.00000000E+00
  0.00000000E+00  0.00000000E+00  0.00000000E+00
  0.00000000E+00  0.00000000E+00  0.00000000E+00
  0.00000000E+00  0.00000000E+00  0.00000000E+00
  0.00000000E+00  0.00000000E+00  0.00000000E+00
  0.00000000E+00  0.00000000E+00  0.00000000E+00
  0.00000000E+00  0.00000000E+00  0.00000000E+00
  0.00000000E+00  0.00000000E+00  0.00000000E+00
  0.00000000E+00  0.00000000E+00  0.00000000E+00
  0.00000000E+00  0.00000000E+00  0.00000000E+00
  0.00000000E+00  0.00000000E+00  0.00000000E+00
  0.00000000E+00  0.00000000E+00  0.00000000E+00
  0.00000000E+00  0.00000000E+00  0.00000000E+00
  0.00000000E+00  0.00000000E+00  0.00000000E+00
  0.00000000E+00  0.00000000E+00  0.00000000E+00
  0.00000000E+00  0.00000000E+00  0.00000000E+00
  0.00000000E+00  0.00000000E+00  0.00000000E+00
  0.00000000E+00  0.00000000E+00  0.00000000E+00
  0.00000000E+00  0.00000000E+00  0.00000000E+00
  0.00000000E+00  0.00000000E+00  0.00000000E+00
  0.00000000E+00  0.00000000E+00  0.00000000E+00
  0.00000000E+00  0.00000000E+00  0.00000000E+00
  0.00000000E+00  0.00000000E+00  0.00000000E+00
  0.00000000E+00  0.00000000E+00  0.00000000E+00
  0.00000000E+00  0.00000000E+00  0.00000000E+00
  0.00000000E+00  0.00000000E+00  0.00000000E+00
  0.00000000E+00  0.00000000E+00  0.00000000E+00
