 CONTCAR\(2)                            
   1.00000000000000     
     2.7437083470609589    0.0000000000000000    0.0000000000000000
     0.0000000000000000    2.8855828391393632    0.0000000000000000
     0.0000000000000000    0.0000000000000000   19.8366070999999984
   Cr   B    O 
     2     2     2
Direct
 -0.0000000004356178  0.5036863499750466  0.5668561975109870
  0.5000000004653462  0.5037133930503784  0.4336334893806230
  0.0000000000300992  0.0037199300278621  0.4786840387216513
  0.4999999999799644  0.0036902831527169  0.5218497264729868
  0.4999999995920046  0.5036643814611131  0.6268653738696852
  0.0000000003682034  0.5036757063328754  0.3736166633573055
 
  0.00000000E+00  0.00000000E+00  0.00000000E+00
  0.00000000E+00  0.00000000E+00  0.00000000E+00
  0.00000000E+00  0.00000000E+00  0.00000000E+00
  0.00000000E+00  0.00000000E+00  0.00000000E+00
  0.00000000E+00  0.00000000E+00  0.00000000E+00
  0.00000000E+00  0.00000000E+00  0.00000000E+00
