CONTCAR                                 
   1.00000000000000     
    13.0951995849999996    0.0000000000000000    0.0000000000000000
     0.0000000000000000   17.1203994751000010    0.0000000000000000
     0.0000000000000000    0.0000000000000000   20.8015995025999985
   La   I    O 
    12    30     1
Direct
  0.2500179257132341  0.1084663065127058  0.5105716532398954
  0.0886167350054960  0.8379738683811281  0.4623322063504718
  0.2500222957678768  0.5521295904787379  0.6301228308382830
  0.0776694893895368  0.3403763106055017  0.4727580735223981
  0.5849918879161258  0.1071043544344193  0.5058147213424362
  0.4113195369834351  0.8379171479551969  0.4622936976870411
  0.5809114430254831  0.6070486642769084  0.5404992454907430
  0.4224635785626076  0.3402796655104063  0.4728037914391853
  0.9149939742065910  0.1071258888430605  0.5058136055503220
  0.7500162251207328  0.8357106909656759  0.4638756628774783
  0.9190555588533144  0.6070478370446701  0.5404935883785699
  0.7500145346345911  0.3396173044811716  0.4724545590792441
  0.2500968842139204  0.3606268784740987  0.3660524277857536
  0.0354715426721917  0.6273308187497775  0.6706504469126435
  0.2499938272573216  0.9655698786540383  0.4016276379110146
  0.0846606094842903  0.9840243272245602  0.5683543026314282
  0.1011401479422692  0.5366004524625034  0.4625152342429361
  0.2500225687370510  0.3742077338807958  0.5768807913458409
  0.0736503535578129  0.2053902130898001  0.5911942034254160
  0.2500436702000196  0.7409743236344967  0.3767046306152113
  0.0841742011537542  0.1647870532501305  0.4033545712054602
  0.2498568338232034  0.7793420532078585  0.5676825082068623
  0.5843723904668109  0.3649092207693406  0.3620823062671989
  0.4645797775498613  0.6273505625485906  0.6706827114359111
  0.5828568296320795  0.9563998560086115  0.3989737864459486
  0.4153513760601585  0.9840032810863990  0.5683722490151883
  0.3986637276642373  0.5366649631439318  0.4626725057113725
  0.5854036645573309  0.4111542934022175  0.5761160349695754
  0.4262826511097923  0.2052393120500721  0.5913360330929079
  0.5784802476714543  0.7189065004566793  0.3985344456240714
  0.4159475937922369  0.1647412680682750  0.4033310140135372
  0.5825442792659199  0.7957565478297216  0.5734440981323522
  0.9156865414874389  0.3649379926232359  0.3620796809043327
  0.7500114898224819  0.5974890536322837  0.6460591121679170
  0.9172277827730173  0.9564361444035562  0.3989232827695187
  0.7499836413072312  0.9852299417391407  0.5677737135310640
  0.7499848242151403  0.5348381777130268  0.4430802328117953
  0.9145901589405546  0.4112115250650599  0.5760991203116826
  0.7499681635368705  0.2093849888618708  0.5894097057956625
  0.9215370462993859  0.7188554125096264  0.3985604233152227
  0.7500017151368534  0.1654942244776541  0.4006737668512653
  0.9174138242192565  0.7957472952383533  0.5735288275596522
  0.2500283422710205  0.4907578342547195  0.7039967231951970
 
  0.00000000E+00  0.00000000E+00  0.00000000E+00
  0.00000000E+00  0.00000000E+00  0.00000000E+00
  0.00000000E+00  0.00000000E+00  0.00000000E+00
  0.00000000E+00  0.00000000E+00  0.00000000E+00
  0.00000000E+00  0.00000000E+00  0.00000000E+00
  0.00000000E+00  0.00000000E+00  0.00000000E+00
  0.00000000E+00  0.00000000E+00  0.00000000E+00
  0.00000000E+00  0.00000000E+00  0.00000000E+00
  0.00000000E+00  0.00000000E+00  0.00000000E+00
  0.00000000E+00  0.00000000E+00  0.00000000E+00
  0.00000000E+00  0.00000000E+00  0.00000000E+00
  0.00000000E+00  0.00000000E+00  0.00000000E+00
  0.00000000E+00  0.00000000E+00  0.00000000E+00
  0.00000000E+00  0.00000000E+00  0.00000000E+00
  0.00000000E+00  0.00000000E+00  0.00000000E+00
  0.00000000E+00  0.00000000E+00  0.00000000E+00
  0.00000000E+00  0.00000000E+00  0.00000000E+00
  0.00000000E+00  0.00000000E+00  0.00000000E+00
  0.00000000E+00  0.00000000E+00  0.00000000E+00
  0.00000000E+00  0.00000000E+00  0.00000000E+00
  0.00000000E+00  0.00000000E+00  0.00000000E+00
  0.00000000E+00  0.00000000E+00  0.00000000E+00
  0.00000000E+00  0.00000000E+00  0.00000000E+00
  0.00000000E+00  0.00000000E+00  0.00000000E+00
  0.00000000E+00  0.00000000E+00  0.00000000E+00
  0.00000000E+00  0.00000000E+00  0.00000000E+00
  0.00000000E+00  0.00000000E+00  0.00000000E+00
  0.00000000E+00  0.00000000E+00  0.00000000E+00
  0.00000000E+00  0.00000000E+00  0.00000000E+00
  0.00000000E+00  0.00000000E+00  0.00000000E+00
  0.00000000E+00  0.00000000E+00  0.00000000E+00
  0.00000000E+00  0.00000000E+00  0.00000000E+00
  0.00000000E+00  0.00000000E+00  0.00000000E+00
  0.00000000E+00  0.00000000E+00  0.00000000E+00
  0.00000000E+00  0.00000000E+00  0.00000000E+00
  0.00000000E+00  0.00000000E+00  0.00000000E+00
  0.00000000E+00  0.00000000E+00  0.00000000E+00
  0.00000000E+00  0.00000000E+00  0.00000000E+00
  0.00000000E+00  0.00000000E+00  0.00000000E+00
  0.00000000E+00  0.00000000E+00  0.00000000E+00
  0.00000000E+00  0.00000000E+00  0.00000000E+00
  0.00000000E+00  0.00000000E+00  0.00000000E+00
  0.00000000E+00  0.00000000E+00  0.00000000E+00
