CONTCAR\(2)                             
   1.00000000000000     
    13.5864000320000002    0.0000000000000000    0.0000000000000000
     0.0000000000000000   13.0711002349999994    0.0000000000000000
     0.0000000000000000    0.0000000000000000   20.1478996276999993
   Ta   Ni   Te   Se   O 
    16    32    16    16     1
Direct
  0.9993375067721010  0.2025786902619985  0.5208678793137417
  0.0000975149377034  0.4556524171136160  0.4784051775364093
  0.2491561575519675  0.2049634739371578  0.5224583066304294
  0.2504970835458830  0.4515086614883209  0.4793442176452217
  0.5008582128185716  0.2051795684476043  0.5224142436965333
  0.4997759048307310  0.4513953095339503  0.4794102943617108
  0.7506224707192796  0.2025257294548124  0.5210288016759760
  0.7499744985541352  0.4559452732231236  0.4784534010466298
  0.0004227108582259  0.7027802780577163  0.5227927405079628
  0.0000291078536769  0.9530151235640182  0.4785092956514591
  0.2512793528879525  0.7036543888717576  0.5221416804656838
  0.2496499391313112  0.9541576966338436  0.4784346022685232
  0.4988334743626803  0.7036458062760647  0.5221291394296342
  0.5002233939953441  0.9542459591449601  0.4783996929448694
  0.7495036961897956  0.7028561026782590  0.5227965887369836
  0.7497867306317234  0.9529627688206495  0.4785938386541748
  0.1249250688894546  0.0513599970673618  0.5575900179307508
  0.1253211273220909  0.1065326241762059  0.4424778595541997
  0.1253193759916933  0.2996382301397224  0.4409982017901016
  0.1182768353224598  0.3556465164527771  0.5545718107597016
  0.3748772081567379  0.0499836041643821  0.5574161011446741
  0.3752160561230454  0.1073976630617862  0.4432828155574475
  0.3747567212205184  0.2997727679748481  0.4442412212726948
  0.3752974073904998  0.3585743664067214  0.5604700033536895
  0.6245667015302109  0.0514177467161916  0.5576103212011998
  0.6248712173877772  0.1065702265692867  0.4424816968553167
  0.6253623130360916  0.2996500952875196  0.4411073670647502
  0.6321678228945391  0.3558917644469172  0.5546433331499151
  0.8750482898012190  0.0494048048498547  0.5572667247810975
  0.8745576087353147  0.1064355785410913  0.4423812367095257
  0.8747411741842025  0.3005447779634801  0.4426812957187374
  0.8748375393133235  0.3586846993208370  0.5575505172167499
  0.1360709655812362  0.5485451225109280  0.5596010154025496
  0.1264374162159525  0.6064572546789726  0.4442114360235806
  0.1251290427454890  0.7999504102634593  0.4432390582582207
  0.1255357431027409  0.8575812983772599  0.5577506972077033
  0.3752912465749261  0.5484653979528774  0.5556923980910322
  0.3748746062346001  0.6078869477475606  0.4416016170769145
  0.3750878817676400  0.8009769288489241  0.4422765198353913
  0.3752432948056765  0.8579290584762490  0.5573562685841936
  0.6142647202888423  0.5486866261264064  0.5597961393825440
  0.6233295693668256  0.6065131440962471  0.4442515765929475
  0.6247702925984754  0.7999658350567013  0.4432490031551779
  0.6243242939455218  0.8576591399947335  0.5577045266065355
  0.8751561645102983  0.5508811866400339  0.5579815326267771
  0.8749311460379656  0.6065524414804351  0.4430977421343420
  0.8749447013384164  0.7993743704237970  0.4434928809529270
  0.8750871624669020  0.8565843005497746  0.5579435945930510
  0.9998058700361445  0.2032311273836963  0.3703339383138591
  0.0039645279843566  0.4569601035559284  0.6286685360625563
  0.2504831740834574  0.2030527899855989  0.3705421163421751
  0.2545482403418253  0.4482752416402468  0.6396976457005704
  0.4996358228409606  0.2034862289866047  0.3708187973288227
  0.4951815102697431  0.4489211378058121  0.6399358783893315
  0.7499995139966174  0.2032111551471912  0.3700164903194853
  0.7462217017099567  0.4570937510351430  0.6288739016620660
  0.0004902946713317  0.7022854175390736  0.3719036852925247
  0.0003552347728383  0.9533134635973136  0.6295595425870021
  0.2496196182090973  0.7044219621444923  0.3705171825844515
  0.2501497393746069  0.9549942692610939  0.6296403991871737
  0.5001610007770534  0.7043614110741079  0.3705317080152883
  0.4997886802217525  0.9553685833636427  0.6297867605280357
  0.7494200906376751  0.7022568683916561  0.3718621745792261
  0.7495440756343653  0.9533771975682316  0.6295138224529903
  0.1250168529298262  0.2056618942216713  0.6225138585320377
  0.1257955797012869  0.4542323987774363  0.3780289056145574
  0.3749942816093704  0.2026932337081261  0.6224173117489676
  0.3753090783493601  0.4530546993228258  0.3785799395249249
  0.6248890058266274  0.2058061851077030  0.6225933811742534
  0.6242750633555963  0.4542458333626449  0.3780667136575710
  0.8752171117415629  0.2040197458074924  0.6215087786928142
  0.8750550549846082  0.4534049301497965  0.3775790393707271
  0.1250213470430998  0.7040448463590682  0.6226006567209735
  0.1246563124206940  0.9530100678667834  0.3777468372436956
  0.3751259506034397  0.7048052112356027  0.6217323912398318
  0.3748577523588386  0.9543898850502088  0.3778413693112204
  0.6250158692115937  0.7042660555722718  0.6226658590578438
  0.6250786117232037  0.9530364003456608  0.3777312399388206
  0.8748975982402988  0.7038465761838281  0.6231484522782572
  0.8749017574524947  0.9523098096139363  0.3780176706356908
  0.3747350163645363  0.4975098079638994  0.6959584937618698
 
  0.00000000E+00  0.00000000E+00  0.00000000E+00
  0.00000000E+00  0.00000000E+00  0.00000000E+00
  0.00000000E+00  0.00000000E+00  0.00000000E+00
  0.00000000E+00  0.00000000E+00  0.00000000E+00
  0.00000000E+00  0.00000000E+00  0.00000000E+00
  0.00000000E+00  0.00000000E+00  0.00000000E+00
  0.00000000E+00  0.00000000E+00  0.00000000E+00
  0.00000000E+00  0.00000000E+00  0.00000000E+00
  0.00000000E+00  0.00000000E+00  0.00000000E+00
  0.00000000E+00  0.00000000E+00  0.00000000E+00
  0.00000000E+00  0.00000000E+00  0.00000000E+00
  0.00000000E+00  0.00000000E+00  0.00000000E+00
  0.00000000E+00  0.00000000E+00  0.00000000E+00
  0.00000000E+00  0.00000000E+00  0.00000000E+00
  0.00000000E+00  0.00000000E+00  0.00000000E+00
  0.00000000E+00  0.00000000E+00  0.00000000E+00
  0.00000000E+00  0.00000000E+00  0.00000000E+00
  0.00000000E+00  0.00000000E+00  0.00000000E+00
  0.00000000E+00  0.00000000E+00  0.00000000E+00
  0.00000000E+00  0.00000000E+00  0.00000000E+00
  0.00000000E+00  0.00000000E+00  0.00000000E+00
  0.00000000E+00  0.00000000E+00  0.00000000E+00
  0.00000000E+00  0.00000000E+00  0.00000000E+00
  0.00000000E+00  0.00000000E+00  0.00000000E+00
  0.00000000E+00  0.00000000E+00  0.00000000E+00
  0.00000000E+00  0.00000000E+00  0.00000000E+00
  0.00000000E+00  0.00000000E+00  0.00000000E+00
  0.00000000E+00  0.00000000E+00  0.00000000E+00
  0.00000000E+00  0.00000000E+00  0.00000000E+00
  0.00000000E+00  0.00000000E+00  0.00000000E+00
  0.00000000E+00  0.00000000E+00  0.00000000E+00
  0.00000000E+00  0.00000000E+00  0.00000000E+00
  0.00000000E+00  0.00000000E+00  0.00000000E+00
  0.00000000E+00  0.00000000E+00  0.00000000E+00
  0.00000000E+00  0.00000000E+00  0.00000000E+00
  0.00000000E+00  0.00000000E+00  0.00000000E+00
  0.00000000E+00  0.00000000E+00  0.00000000E+00
  0.00000000E+00  0.00000000E+00  0.00000000E+00
  0.00000000E+00  0.00000000E+00  0.00000000E+00
  0.00000000E+00  0.00000000E+00  0.00000000E+00
  0.00000000E+00  0.00000000E+00  0.00000000E+00
  0.00000000E+00  0.00000000E+00  0.00000000E+00
  0.00000000E+00  0.00000000E+00  0.00000000E+00
  0.00000000E+00  0.00000000E+00  0.00000000E+00
  0.00000000E+00  0.00000000E+00  0.00000000E+00
  0.00000000E+00  0.00000000E+00  0.00000000E+00
  0.00000000E+00  0.00000000E+00  0.00000000E+00
  0.00000000E+00  0.00000000E+00  0.00000000E+00
  0.00000000E+00  0.00000000E+00  0.00000000E+00
  0.00000000E+00  0.00000000E+00  0.00000000E+00
  0.00000000E+00  0.00000000E+00  0.00000000E+00
  0.00000000E+00  0.00000000E+00  0.00000000E+00
  0.00000000E+00  0.00000000E+00  0.00000000E+00
  0.00000000E+00  0.00000000E+00  0.00000000E+00
  0.00000000E+00  0.00000000E+00  0.00000000E+00
  0.00000000E+00  0.00000000E+00  0.00000000E+00
  0.00000000E+00  0.00000000E+00  0.00000000E+00
  0.00000000E+00  0.00000000E+00  0.00000000E+00
  0.00000000E+00  0.00000000E+00  0.00000000E+00
  0.00000000E+00  0.00000000E+00  0.00000000E+00
  0.00000000E+00  0.00000000E+00  0.00000000E+00
  0.00000000E+00  0.00000000E+00  0.00000000E+00
  0.00000000E+00  0.00000000E+00  0.00000000E+00
  0.00000000E+00  0.00000000E+00  0.00000000E+00
  0.00000000E+00  0.00000000E+00  0.00000000E+00
  0.00000000E+00  0.00000000E+00  0.00000000E+00
  0.00000000E+00  0.00000000E+00  0.00000000E+00
  0.00000000E+00  0.00000000E+00  0.00000000E+00
  0.00000000E+00  0.00000000E+00  0.00000000E+00
  0.00000000E+00  0.00000000E+00  0.00000000E+00
  0.00000000E+00  0.00000000E+00  0.00000000E+00
  0.00000000E+00  0.00000000E+00  0.00000000E+00
  0.00000000E+00  0.00000000E+00  0.00000000E+00
  0.00000000E+00  0.00000000E+00  0.00000000E+00
  0.00000000E+00  0.00000000E+00  0.00000000E+00
  0.00000000E+00  0.00000000E+00  0.00000000E+00
  0.00000000E+00  0.00000000E+00  0.00000000E+00
  0.00000000E+00  0.00000000E+00  0.00000000E+00
  0.00000000E+00  0.00000000E+00  0.00000000E+00
  0.00000000E+00  0.00000000E+00  0.00000000E+00
  0.00000000E+00  0.00000000E+00  0.00000000E+00
