 Ta1 Se2                                
   1.00000000000000     
     3.4606651118214464    0.0000000000000000    0.0000000000000000
    -1.7303320577191117    2.9970234450915996    0.0000000000000000
     0.0000000000000000    0.0000000000000000   18.3542601784720034
   Ta   Se
     1     2
Direct
 -0.0000002429336683  0.0000002219098952  0.4999999999731463
  0.3333331214804706  0.6666668892027723  0.4085321899183368
  0.3333331214532041  0.6666668888873261  0.5914678101085168
 
  0.00000000E+00  0.00000000E+00  0.00000000E+00
  0.00000000E+00  0.00000000E+00  0.00000000E+00
  0.00000000E+00  0.00000000E+00  0.00000000E+00
