CONTCAR\(8)                             
   1.00000000000000     
    12.9882001877000004    0.0000000000000000    0.0000000000000000
     0.0000000000000000   20.1457004546999983    0.0000000000000000
     0.0000000000000000    0.0000000000000000   19.8038997650000006
   Ce   I    O    H 
    12    36     2     1
Direct
  0.1673256299108833  0.0011247202451348  0.5026106711033540
  0.0000935152943974  0.2466115274633977  0.4858034480131697
  0.5000254735705963  0.0019169767462673  0.5028152168345562
  0.3333942283643045  0.2534063125527471  0.4932735007504587
  0.8326336428892656  0.0010485658688250  0.5025776871018013
  0.6666171012150066  0.2533635552721361  0.4932453738359093
  0.1646065484699688  0.4988672627265560  0.4985557602602874
 -0.0000136493583588  0.7528674120332360  0.4902385759990297
  0.5000043949634987  0.5052316358030678  0.5530468568679293
  0.3321029927927677  0.7519603913477446  0.4939923707888003
  0.8354114753327323  0.4988926351017777  0.4987694739188325
  0.6680603193854517  0.7519772947258838  0.4939382745347227
  0.0000295272434756  0.4080784445689588  0.4161121920203841
  0.1565539559230570  0.3377533022603035  0.5700362807084421
  0.1659617928187834  0.1575463836011564  0.5700699684271924
  0.0000274843147875  0.0911680930401005  0.4183308379616837
  0.0000024029655235  0.0020484373591572  0.6181093645725942
  0.1709761882967062  0.2507644884388124  0.3739338677457026
  0.3407613331230602  0.4094900059568315  0.4334669086699210
  0.4999909509200838  0.3407507914229621  0.5869893548192225
  0.5000458492351793  0.1598080374696939  0.5722008287427414
  0.3343409508087560  0.0928646349892903  0.4215697608818506
  0.3332042652949266  0.0026255207549561  0.6189554389616834
  0.5000702645124039  0.2524775170374075  0.3779569464978680
  0.6592253902182942  0.4094699583367393  0.4334971064120741
  0.8434832100951730  0.3377223924883950  0.5700636902817353
  0.8341371605961305  0.1575067034933653  0.5699922057191790
  0.6657514589427717  0.0927030310075688  0.4214004837521658
  0.6667592626269577  0.0026688595491739  0.6189380487453309
  0.8290154158958383  0.2508092061248338  0.3739131638994584
  0.0000494080757986  0.9091211405769306  0.4201651708709666
  0.1658269150814505  0.8452205270242116  0.5727536390774687
  0.1612786772089020  0.6630677069234799  0.5737394162324646
  0.0000286913337280  0.5924756790527848  0.4190112072323868
  0.0001443437684690  0.5007017994553571  0.6121510104921039
  0.1701801890271660  0.7495307850811321  0.3762100643168824
  0.3331179729443982  0.9097054862093606  0.4210069736646089
  0.5001005013669609  0.8475242865938194  0.5716505710570644
  0.5000287902622313  0.6697985738747232  0.5872143590973036
  0.3430669384524584  0.5913214762158679  0.4381434890762907
  0.2826237703479696  0.4931815384729196  0.6291448327817891
  0.5000240259078710  0.7489630140360723  0.3790924269191034
  0.6668342100612374  0.9096724338954691  0.4209880640572800
  0.8341386989273522  0.8451920592960319  0.5726455968046142
  0.8386816675229735  0.6630157469699486  0.5736457462484681
  0.6568709990367557  0.5913159239717076  0.4381284304362378
  0.7173953279612415  0.4930717894367926  0.6293219420321225
  0.8300403750296901  0.7495046720900378  0.3762345940394894
  0.4999635176269763  0.5484734647225569  0.7207467721832294
  0.5000416718080719  0.5251131490875961  0.6535166206968189
  0.5000348735858828  0.5969648862267408  0.7132254388552319
 
  0.00000000E+00  0.00000000E+00  0.00000000E+00
  0.00000000E+00  0.00000000E+00  0.00000000E+00
  0.00000000E+00  0.00000000E+00  0.00000000E+00
  0.00000000E+00  0.00000000E+00  0.00000000E+00
  0.00000000E+00  0.00000000E+00  0.00000000E+00
  0.00000000E+00  0.00000000E+00  0.00000000E+00
  0.00000000E+00  0.00000000E+00  0.00000000E+00
  0.00000000E+00  0.00000000E+00  0.00000000E+00
  0.00000000E+00  0.00000000E+00  0.00000000E+00
  0.00000000E+00  0.00000000E+00  0.00000000E+00
  0.00000000E+00  0.00000000E+00  0.00000000E+00
  0.00000000E+00  0.00000000E+00  0.00000000E+00
  0.00000000E+00  0.00000000E+00  0.00000000E+00
  0.00000000E+00  0.00000000E+00  0.00000000E+00
  0.00000000E+00  0.00000000E+00  0.00000000E+00
  0.00000000E+00  0.00000000E+00  0.00000000E+00
  0.00000000E+00  0.00000000E+00  0.00000000E+00
  0.00000000E+00  0.00000000E+00  0.00000000E+00
  0.00000000E+00  0.00000000E+00  0.00000000E+00
  0.00000000E+00  0.00000000E+00  0.00000000E+00
  0.00000000E+00  0.00000000E+00  0.00000000E+00
  0.00000000E+00  0.00000000E+00  0.00000000E+00
  0.00000000E+00  0.00000000E+00  0.00000000E+00
  0.00000000E+00  0.00000000E+00  0.00000000E+00
  0.00000000E+00  0.00000000E+00  0.00000000E+00
  0.00000000E+00  0.00000000E+00  0.00000000E+00
  0.00000000E+00  0.00000000E+00  0.00000000E+00
  0.00000000E+00  0.00000000E+00  0.00000000E+00
  0.00000000E+00  0.00000000E+00  0.00000000E+00
  0.00000000E+00  0.00000000E+00  0.00000000E+00
  0.00000000E+00  0.00000000E+00  0.00000000E+00
  0.00000000E+00  0.00000000E+00  0.00000000E+00
  0.00000000E+00  0.00000000E+00  0.00000000E+00
  0.00000000E+00  0.00000000E+00  0.00000000E+00
  0.00000000E+00  0.00000000E+00  0.00000000E+00
  0.00000000E+00  0.00000000E+00  0.00000000E+00
  0.00000000E+00  0.00000000E+00  0.00000000E+00
  0.00000000E+00  0.00000000E+00  0.00000000E+00
  0.00000000E+00  0.00000000E+00  0.00000000E+00
  0.00000000E+00  0.00000000E+00  0.00000000E+00
  0.00000000E+00  0.00000000E+00  0.00000000E+00
  0.00000000E+00  0.00000000E+00  0.00000000E+00
  0.00000000E+00  0.00000000E+00  0.00000000E+00
  0.00000000E+00  0.00000000E+00  0.00000000E+00
  0.00000000E+00  0.00000000E+00  0.00000000E+00
  0.00000000E+00  0.00000000E+00  0.00000000E+00
  0.00000000E+00  0.00000000E+00  0.00000000E+00
  0.00000000E+00  0.00000000E+00  0.00000000E+00
  0.00000000E+00  0.00000000E+00  0.00000000E+00
  0.00000000E+00  0.00000000E+00  0.00000000E+00
  0.00000000E+00  0.00000000E+00  0.00000000E+00
