SYSTEM =gra_geo_opt
PREC=Normal
ENCUT = 400
ISTART = 0
ICHARG = 2
EDIFF = 1E-05
LREAL = Auto
EDIFFG = -2E-02
NSW =1000
IBRION =2
ISIF = 2
ISMEAR = 0
#MAGMOM = 12*1 36*-1 3*1
SIGMA =0.2
SYMPREC=1E-04
GGA = PE
NBANDS=320
ALGO=Normal
ISPIN =2
NCORE=3
NELM=150
LWAVE=.FALSE.
LCHARG=.FALSE.
IVDW=11
#AMIX=0.2
#BMIX=0.0001
