CONTCAR\(2)                             
   1.00000000000000     
    10.0141000748000000    0.0000000000000000    0.0000000000000000
    -5.0070500374000000    8.6724650608000005    0.0000000000000000
     0.0000000000000000    0.0000000000000000   20.7465000153000005
   Sc   N    Cl
    18     9    18
Direct
  0.2222200200000017  0.1111100070000006  0.4427900219999970
  0.1111100070000006  0.2222200140000012  0.5572100239999997
  0.5555599560000033  0.1111100070000006  0.4427900219999970
  0.4444400389999998  0.2222200140000012  0.5572100239999997
  0.8888900350000029  0.1111100070000006  0.4427900219999970
  0.7777800229999983  0.2222200140000012  0.5572100239999997
  0.2222200140000012  0.4444400289999990  0.4427900219999970
  0.1111100210000018  0.5555600020000000  0.5572100239999997
  0.5555599739999977  0.4444400289999990  0.4427900219999970
  0.4444400410000000  0.5555600020000000  0.5572100239999997
  0.8888900780000029  0.4444400289999990  0.4427900219999970
  0.7777800479999968  0.5555600020000000  0.5572100239999997
  0.2222200300000026  0.7777800429999999  0.4427900219999970
  0.1111100010000001  0.8888900640000017  0.5572100239999997
  0.5555599899999990  0.7777800429999999  0.4427900219999970
  0.4444400320000028  0.8888900640000017  0.5572100239999997
  0.8888900689999986  0.7777800429999999  0.4427900219999970
  0.7777800160000012  0.8888900640000017  0.5572100239999997
  0.0000000000000000  0.0000000000000000  0.5000000000000000
  0.3333300079999972  0.0000000000000000  0.5000000000000000
  0.6666700159999976  0.0000000000000000  0.5000000000000000
  0.0000000000000000  0.3333300079999972  0.5000000000000000
  0.3333300079999972  0.3333300079999972  0.5000000000000000
  0.6666700039999967  0.3333300079999972  0.5000000000000000
  0.0000000029999967  0.6666700230000018  0.5000000000000000
  0.3333300119999976  0.6666700230000018  0.5000000000000000
  0.6666700190000014  0.6666700230000018  0.5000000000000000
  0.2222200200000017  0.1111100070000006  0.6387000040000004
  0.1111100070000006  0.2222200140000012  0.3612999959999996
  0.5555599560000033  0.1111100070000006  0.6387000040000004
  0.4444400389999998  0.2222200140000012  0.3612999959999996
  0.8888900350000029  0.1111100070000006  0.6387000040000004
  0.7777800229999983  0.2222200140000012  0.3612999959999996
  0.2222200140000012  0.4444400289999990  0.6387000040000004
  0.1111100210000018  0.5555600020000000  0.3612999959999996
  0.5555599739999977  0.4444400289999990  0.6387000040000004
  0.4444400410000000  0.5555600020000000  0.3612999959999996
  0.8888900780000029  0.4444400289999990  0.6387000040000004
  0.7777800479999968  0.5555600020000000  0.3612999959999996
  0.2222200300000026  0.7777800429999999  0.6387000040000004
  0.1111100010000001  0.8888900640000017  0.3612999959999996
  0.5555599899999990  0.7777800429999999  0.6387000040000004
  0.4444400320000028  0.8888900640000017  0.3612999959999996
  0.8888900689999986  0.7777800429999999  0.6387000040000004
  0.7777800160000012  0.8888900640000017  0.3612999959999996
 
  0.00000000E+00  0.00000000E+00  0.00000000E+00
  0.00000000E+00  0.00000000E+00  0.00000000E+00
  0.00000000E+00  0.00000000E+00  0.00000000E+00
  0.00000000E+00  0.00000000E+00  0.00000000E+00
  0.00000000E+00  0.00000000E+00  0.00000000E+00
  0.00000000E+00  0.00000000E+00  0.00000000E+00
  0.00000000E+00  0.00000000E+00  0.00000000E+00
  0.00000000E+00  0.00000000E+00  0.00000000E+00
  0.00000000E+00  0.00000000E+00  0.00000000E+00
  0.00000000E+00  0.00000000E+00  0.00000000E+00
  0.00000000E+00  0.00000000E+00  0.00000000E+00
  0.00000000E+00  0.00000000E+00  0.00000000E+00
  0.00000000E+00  0.00000000E+00  0.00000000E+00
  0.00000000E+00  0.00000000E+00  0.00000000E+00
  0.00000000E+00  0.00000000E+00  0.00000000E+00
  0.00000000E+00  0.00000000E+00  0.00000000E+00
  0.00000000E+00  0.00000000E+00  0.00000000E+00
  0.00000000E+00  0.00000000E+00  0.00000000E+00
  0.00000000E+00  0.00000000E+00  0.00000000E+00
  0.00000000E+00  0.00000000E+00  0.00000000E+00
  0.00000000E+00  0.00000000E+00  0.00000000E+00
  0.00000000E+00  0.00000000E+00  0.00000000E+00
  0.00000000E+00  0.00000000E+00  0.00000000E+00
  0.00000000E+00  0.00000000E+00  0.00000000E+00
  0.00000000E+00  0.00000000E+00  0.00000000E+00
  0.00000000E+00  0.00000000E+00  0.00000000E+00
  0.00000000E+00  0.00000000E+00  0.00000000E+00
  0.00000000E+00  0.00000000E+00  0.00000000E+00
  0.00000000E+00  0.00000000E+00  0.00000000E+00
  0.00000000E+00  0.00000000E+00  0.00000000E+00
  0.00000000E+00  0.00000000E+00  0.00000000E+00
  0.00000000E+00  0.00000000E+00  0.00000000E+00
  0.00000000E+00  0.00000000E+00  0.00000000E+00
  0.00000000E+00  0.00000000E+00  0.00000000E+00
  0.00000000E+00  0.00000000E+00  0.00000000E+00
  0.00000000E+00  0.00000000E+00  0.00000000E+00
  0.00000000E+00  0.00000000E+00  0.00000000E+00
  0.00000000E+00  0.00000000E+00  0.00000000E+00
  0.00000000E+00  0.00000000E+00  0.00000000E+00
  0.00000000E+00  0.00000000E+00  0.00000000E+00
  0.00000000E+00  0.00000000E+00  0.00000000E+00
  0.00000000E+00  0.00000000E+00  0.00000000E+00
  0.00000000E+00  0.00000000E+00  0.00000000E+00
  0.00000000E+00  0.00000000E+00  0.00000000E+00
  0.00000000E+00  0.00000000E+00  0.00000000E+00
