CONTCAR\(4)                             
   1.00000000000000     
    10.8957996367999996    0.0000000000000000    0.0000000000000000
     0.0000000000000000   12.8001003265000008    0.0000000000000000
     0.0000000000000000    0.0000000000000000   21.8099994658999989
   Cu   Si   P    O    H 
    12    24    36     2     1
Direct
  0.0059745255938282  0.1078774618881368  0.4625770503237803
  0.0003484106338973  0.2898594061159940  0.3613042822260368
  0.3379985652259307  0.1081032870347300  0.4622699251539686
  0.3299029154632578  0.2874351193273981  0.3629158881495229
  0.6695964589523982  0.1079929101285515  0.4626640202428405
  0.6586175652502817  0.2892936465989706  0.3611375740450455
  0.9976471564694975  0.6081514443744922  0.4642848666893968
  0.9986104590970939  0.7879979029890549  0.3616947266992767
  0.3333548052718385  0.6077388614805770  0.4608540684218738
  0.3303495144014192  0.7817778900042427  0.3470473967306731
  0.6747726635402316  0.6092043286714031  0.4646925902809897
  0.6635538613527530  0.7886775050529025  0.3623515482269610
  0.1608298460461839  0.0432252215282816  0.3859129561058268
  0.1679994570921650  0.1955306136756505  0.6087987068487735
  0.1680520478024548  0.3567025357322819  0.4815265131178563
  0.9999625374654997  0.4445649232726296  0.6150677029726026
  0.4924281505441002  0.0429081777494886  0.3859360306161079
  0.5006192767661801  0.1959471616164095  0.6084631259138504
  0.4994616665499620  0.3579171918653188  0.4809919038713844
  0.3335603992224208  0.4433754166668820  0.6163713066232077
  0.8267263860262020  0.0463899653255524  0.3868507136608983
  0.8343314972534799  0.1944486851629321  0.6091131709211766
  0.8336911079949516  0.3530541213192393  0.4817455600120653
  0.6669904521550620  0.4445024873550807  0.6150905118194601
  0.1804932682727696  0.5544899598314643  0.3831856245007188
  0.1682553494819672  0.6947745916212895  0.6092108586336877
  0.1675836320309401  0.8521300488539865  0.4802468675157243
  0.0010104393141219  0.9442624784613116  0.6141692607443190
  0.4737805481494988  0.5546000194543197  0.3804957498347292
  0.4995465163153909  0.6943334122422229  0.6087739674253427
  0.4976820164154105  0.8512608199334153  0.4801039340418427
  0.3333402520592159  0.9444449312553687  0.6143561050257205
  0.8282937072674343  0.5451377450383958  0.3884678888223334
  0.8337609320180235  0.6963660826766187  0.6112062982907958
  0.8329250007701745  0.8547206176895585  0.4818744861857525
  0.6654197239843782  0.9442616582492889  0.6139285622223412
  0.9939940519038544  0.1209092215602467  0.3466543570161420
  0.1713040693645382  0.1894636896197426  0.5060942249783338
  0.1657231240440282  0.3809507575441771  0.3802765878094831
  0.0009108056628975  0.2761323168433094  0.6550124470667384
  0.9997890561180043  0.4487989652110898  0.5119596034856926
  0.1670015564313587  0.0312176538736253  0.6554733647537887
  0.3264580169906779  0.1197544484241035  0.3462601490526325
  0.5033766344031676  0.1904350498948020  0.5056736628108425
  0.4939472336410375  0.3813723443442996  0.3795112786213579
  0.3343126627433008  0.2752929373740685  0.6560277053856041
  0.3335254727533439  0.4501748418869411  0.5139334157236775
  0.4999357156938231  0.0316175430837120  0.6551665390442523
  0.6586744564313918  0.1202670423026078  0.3464263042342495
  0.8373066916313903  0.1861634761833315  0.5065810974458955
  0.8293685267959177  0.3730341760893623  0.3802696004273685
  0.6675767247509725  0.2760616574772286  0.6549854437924054
  0.6680090936520457  0.4492140369771889  0.5119402617049786
  0.8332614115865269  0.0296891214518311  0.6550412924337792
  0.9980171602839292  0.6192816657781961  0.3502845427389829
  0.1679956408260708  0.6857099308229664  0.5062872105379057
  0.1690022943920511  0.8713380475688339  0.3788664857345552
  0.0024616966554305  0.7774783683855233  0.6557940037515593
  0.0015665100156994  0.9479586130230899  0.5108620236913524
  0.1665459431852909  0.5308137039456966  0.6567029397915434
  0.3241866639288205  0.6166305760195243  0.3164670283408313
  0.5014037251416354  0.6842854853134313  0.5057557484329678
  0.4919880580711791  0.8708039000213148  0.3786454716081380
  0.3340876370914572  0.7768265842254323  0.6552047006479427
  0.3330978567389380  0.9480803679681244  0.5110531150870443
  0.5004817065164531  0.5307539071662504  0.6567794419698032
  0.6579321855990514  0.6200697354450000  0.3511327283796177
  0.8359033700194018  0.6904286549774596  0.5097491024285077
  0.8313398506911369  0.8745574690388409  0.3803135412058083
  0.6647767230784467  0.7774903821769712  0.6555036704846202
  0.6638723206103876  0.9474622751806407  0.5106373213950945
  0.8334337754160543  0.5307198140375178  0.6568167554326934
  0.2985329150780416  0.6730748249097971  0.2015605850337820
  0.3151354340718058  0.5794720719893149  0.2436110560796863
  0.3629426447400306  0.6560960726209828  0.1717037625234354
 
  0.00000000E+00  0.00000000E+00  0.00000000E+00
  0.00000000E+00  0.00000000E+00  0.00000000E+00
  0.00000000E+00  0.00000000E+00  0.00000000E+00
  0.00000000E+00  0.00000000E+00  0.00000000E+00
  0.00000000E+00  0.00000000E+00  0.00000000E+00
  0.00000000E+00  0.00000000E+00  0.00000000E+00
  0.00000000E+00  0.00000000E+00  0.00000000E+00
  0.00000000E+00  0.00000000E+00  0.00000000E+00
  0.00000000E+00  0.00000000E+00  0.00000000E+00
  0.00000000E+00  0.00000000E+00  0.00000000E+00
  0.00000000E+00  0.00000000E+00  0.00000000E+00
  0.00000000E+00  0.00000000E+00  0.00000000E+00
  0.00000000E+00  0.00000000E+00  0.00000000E+00
  0.00000000E+00  0.00000000E+00  0.00000000E+00
  0.00000000E+00  0.00000000E+00  0.00000000E+00
  0.00000000E+00  0.00000000E+00  0.00000000E+00
  0.00000000E+00  0.00000000E+00  0.00000000E+00
  0.00000000E+00  0.00000000E+00  0.00000000E+00
  0.00000000E+00  0.00000000E+00  0.00000000E+00
  0.00000000E+00  0.00000000E+00  0.00000000E+00
  0.00000000E+00  0.00000000E+00  0.00000000E+00
  0.00000000E+00  0.00000000E+00  0.00000000E+00
  0.00000000E+00  0.00000000E+00  0.00000000E+00
  0.00000000E+00  0.00000000E+00  0.00000000E+00
  0.00000000E+00  0.00000000E+00  0.00000000E+00
  0.00000000E+00  0.00000000E+00  0.00000000E+00
  0.00000000E+00  0.00000000E+00  0.00000000E+00
  0.00000000E+00  0.00000000E+00  0.00000000E+00
  0.00000000E+00  0.00000000E+00  0.00000000E+00
  0.00000000E+00  0.00000000E+00  0.00000000E+00
  0.00000000E+00  0.00000000E+00  0.00000000E+00
  0.00000000E+00  0.00000000E+00  0.00000000E+00
  0.00000000E+00  0.00000000E+00  0.00000000E+00
  0.00000000E+00  0.00000000E+00  0.00000000E+00
  0.00000000E+00  0.00000000E+00  0.00000000E+00
  0.00000000E+00  0.00000000E+00  0.00000000E+00
  0.00000000E+00  0.00000000E+00  0.00000000E+00
  0.00000000E+00  0.00000000E+00  0.00000000E+00
  0.00000000E+00  0.00000000E+00  0.00000000E+00
  0.00000000E+00  0.00000000E+00  0.00000000E+00
  0.00000000E+00  0.00000000E+00  0.00000000E+00
  0.00000000E+00  0.00000000E+00  0.00000000E+00
  0.00000000E+00  0.00000000E+00  0.00000000E+00
  0.00000000E+00  0.00000000E+00  0.00000000E+00
  0.00000000E+00  0.00000000E+00  0.00000000E+00
  0.00000000E+00  0.00000000E+00  0.00000000E+00
  0.00000000E+00  0.00000000E+00  0.00000000E+00
  0.00000000E+00  0.00000000E+00  0.00000000E+00
  0.00000000E+00  0.00000000E+00  0.00000000E+00
  0.00000000E+00  0.00000000E+00  0.00000000E+00
  0.00000000E+00  0.00000000E+00  0.00000000E+00
  0.00000000E+00  0.00000000E+00  0.00000000E+00
  0.00000000E+00  0.00000000E+00  0.00000000E+00
  0.00000000E+00  0.00000000E+00  0.00000000E+00
  0.00000000E+00  0.00000000E+00  0.00000000E+00
  0.00000000E+00  0.00000000E+00  0.00000000E+00
  0.00000000E+00  0.00000000E+00  0.00000000E+00
  0.00000000E+00  0.00000000E+00  0.00000000E+00
  0.00000000E+00  0.00000000E+00  0.00000000E+00
  0.00000000E+00  0.00000000E+00  0.00000000E+00
  0.00000000E+00  0.00000000E+00  0.00000000E+00
  0.00000000E+00  0.00000000E+00  0.00000000E+00
  0.00000000E+00  0.00000000E+00  0.00000000E+00
  0.00000000E+00  0.00000000E+00  0.00000000E+00
  0.00000000E+00  0.00000000E+00  0.00000000E+00
  0.00000000E+00  0.00000000E+00  0.00000000E+00
  0.00000000E+00  0.00000000E+00  0.00000000E+00
  0.00000000E+00  0.00000000E+00  0.00000000E+00
  0.00000000E+00  0.00000000E+00  0.00000000E+00
  0.00000000E+00  0.00000000E+00  0.00000000E+00
  0.00000000E+00  0.00000000E+00  0.00000000E+00
  0.00000000E+00  0.00000000E+00  0.00000000E+00
  0.00000000E+00  0.00000000E+00  0.00000000E+00
  0.00000000E+00  0.00000000E+00  0.00000000E+00
  0.00000000E+00  0.00000000E+00  0.00000000E+00
