CONTCAR\(5)                             
   1.00000000000000     
     7.8445000648000001    0.0000000000000000    0.0000000000000000
     3.9223001003000002    6.7936230563000004    0.0000000000000000
     0.0000000000000000    0.0000000000000000   18.9503002167000005
   Te   Pt   O 
     8     8     3
Selective dynamics
Direct
  0.3352597133355744  0.3346705975563324  0.6081210093743437   F   F   F
  0.3366329777085326  0.3319314805476239  0.3943910062210065   F   F   F
  0.8337373201078009  0.3322625919327393  0.6125813461872909   F   F   F
  0.8334664155122553  0.3324543932679020  0.3845937525155918   F   F   F
  0.3334731222159846  0.8323733731259537  0.6016329469949966   F   F   F
  0.3339315305535919  0.8328077849846522  0.3889981529585924   F   F   F
  0.8356367363016801  0.8343779861705940  0.6080825602455988   F   F   F
  0.8337421556836020  0.8346252349805852  0.3943375423054150   F   F   F
  0.1628481160856268  0.1729861525536904  0.5416005736582008   F   F   F
  0.0020935398586062  0.0054240058225616  0.4568994218970630   F   F   F
  0.6693606694058829  0.1683826009188536  0.5411822610792427   F   F   F
  0.4982880475800755  0.9969215345858089  0.4599698844742406   F   F   F
  0.1654444897474718  0.6643468218460953  0.5382077784509036   F   F   F
  0.9974571500785743  0.4961734427485069  0.4565975379161529   F   F   F
  0.6744802299536516  0.6613929394860421  0.5416430103452257   F   F   F
  0.5065168048672675  0.5010620264732424  0.4569105779021569   F   F   F
  0.3386320799147171  0.3278227183435405  0.2978002936111608   T   T   T
  0.3311270536258419  0.8313703933661856  0.6985352533798377   T   T   T
  0.8342117464632823  0.8325039092890875  0.2969434092948347   T   T   T
 
  0.00000000E+00  0.00000000E+00  0.00000000E+00
  0.00000000E+00  0.00000000E+00  0.00000000E+00
  0.00000000E+00  0.00000000E+00  0.00000000E+00
  0.00000000E+00  0.00000000E+00  0.00000000E+00
  0.00000000E+00  0.00000000E+00  0.00000000E+00
  0.00000000E+00  0.00000000E+00  0.00000000E+00
  0.00000000E+00  0.00000000E+00  0.00000000E+00
  0.00000000E+00  0.00000000E+00  0.00000000E+00
  0.00000000E+00  0.00000000E+00  0.00000000E+00
  0.00000000E+00  0.00000000E+00  0.00000000E+00
  0.00000000E+00  0.00000000E+00  0.00000000E+00
  0.00000000E+00  0.00000000E+00  0.00000000E+00
  0.00000000E+00  0.00000000E+00  0.00000000E+00
  0.00000000E+00  0.00000000E+00  0.00000000E+00
  0.00000000E+00  0.00000000E+00  0.00000000E+00
  0.00000000E+00  0.00000000E+00  0.00000000E+00
  0.00000000E+00  0.00000000E+00  0.00000000E+00
  0.00000000E+00  0.00000000E+00  0.00000000E+00
  0.00000000E+00  0.00000000E+00  0.00000000E+00
