CONTCAR\(13)                            
   1.00000000000000     
    10.8512001038000001    0.0000000000000000    0.0000000000000000
     5.4260522376999996    9.3985392002000001    0.0000000000000000
     0.0000000000000000    0.0000000000000000   22.4130992888999998
   Eu   Re   O 
     4     8    32
Direct
  0.4999846335007521  0.0000155874012423  0.4999983499920968
  0.9999846335007523  0.0000155874012423  0.4999983499920968
  0.4999846205007474  0.5000156004012397  0.4999983499920968
  0.9999846205007477  0.5000156004012397  0.4999983499920968
  0.3333534583234576  0.3332894845781023  0.4043904362640787
  0.1666408144653356  0.1667163169631120  0.5956182171614199
  0.8333534583234576  0.3332894845781023  0.4043904362640787
  0.6666407924653337  0.1667163169631120  0.5956182171614199
  0.3333534423234563  0.8332895025781039  0.4043904362640787
  0.1666407704653320  0.6667163479631110  0.5956182171614199
  0.8333534423234563  0.8332895025781039  0.4043904362640787
  0.6666407704653319  0.6667163479631110  0.5956182171614199
  0.1783554751512112  0.3385435645086957  0.4318856288807917
  0.3385947279855077  0.4830338889798207  0.4318651488838781
  0.3333252274121840  0.3332978268140588  0.3275634910676880
  0.0168778411291993  0.3217041270738579  0.5681368626921561
  0.4831022041324979  0.1783110496814771  0.4318692181255412
  0.1666479522751882  0.1667212729504359  0.6724457337014184
  0.1613896407521641  0.0169785956756822  0.5681412508462471
  0.3216279588725151  0.1614783743735260  0.5681258083846804
  0.6783555191512075  0.3385435645086957  0.4318856288807917
  0.8385947279855075  0.4830338889798207  0.4318651488838781
  0.8333251834121804  0.3332978268140588  0.3275634910676880
  0.5168778411291992  0.3217041270738579  0.5681368626921561
  0.9831022041324977  0.1783110496814771  0.4318692181255412
  0.6666479742751829  0.1667212729504359  0.6724457337014184
  0.6613896077521649  0.0169785956756822  0.5681412508462471
  0.8216279588725151  0.1614783743735260  0.5681258083846804
  0.1783554591512098  0.8385435825086899  0.4318856288807917
  0.3385947129855100  0.9830339079798255  0.4318651488838781
  0.3333251674121861  0.8332978448140606  0.3275634910676880
  0.0168778001291995  0.8217041960738530  0.5681368626921561
  0.4831021881324966  0.6783110686814751  0.4318692181255412
  0.1666479842751837  0.6667212409504403  0.6724457337014184
  0.1613896297521596  0.5169786256756774  0.5681412508462471
  0.3216279048725177  0.6614783793735227  0.5681258083846804
  0.6783555031512133  0.8385435825086899  0.4318856288807917
  0.8385947129855098  0.9830339079798255  0.4318651488838781
  0.8333251674121862  0.8332978448140606  0.3275634910676880
  0.5168778001291994  0.8217041960738530  0.5681368626921561
  0.9831021881324964  0.6783110686814751  0.4318692181255412
  0.6666479842751837  0.6667212409504403  0.6724457337014184
  0.6613895857521631  0.5169786256756774  0.5681412508462471
  0.8216278608725140  0.6614783793735227  0.5681258083846804
 
  0.00000000E+00  0.00000000E+00  0.00000000E+00
  0.00000000E+00  0.00000000E+00  0.00000000E+00
  0.00000000E+00  0.00000000E+00  0.00000000E+00
  0.00000000E+00  0.00000000E+00  0.00000000E+00
  0.00000000E+00  0.00000000E+00  0.00000000E+00
  0.00000000E+00  0.00000000E+00  0.00000000E+00
  0.00000000E+00  0.00000000E+00  0.00000000E+00
  0.00000000E+00  0.00000000E+00  0.00000000E+00
  0.00000000E+00  0.00000000E+00  0.00000000E+00
  0.00000000E+00  0.00000000E+00  0.00000000E+00
  0.00000000E+00  0.00000000E+00  0.00000000E+00
  0.00000000E+00  0.00000000E+00  0.00000000E+00
  0.00000000E+00  0.00000000E+00  0.00000000E+00
  0.00000000E+00  0.00000000E+00  0.00000000E+00
  0.00000000E+00  0.00000000E+00  0.00000000E+00
  0.00000000E+00  0.00000000E+00  0.00000000E+00
  0.00000000E+00  0.00000000E+00  0.00000000E+00
  0.00000000E+00  0.00000000E+00  0.00000000E+00
  0.00000000E+00  0.00000000E+00  0.00000000E+00
  0.00000000E+00  0.00000000E+00  0.00000000E+00
  0.00000000E+00  0.00000000E+00  0.00000000E+00
  0.00000000E+00  0.00000000E+00  0.00000000E+00
  0.00000000E+00  0.00000000E+00  0.00000000E+00
  0.00000000E+00  0.00000000E+00  0.00000000E+00
  0.00000000E+00  0.00000000E+00  0.00000000E+00
  0.00000000E+00  0.00000000E+00  0.00000000E+00
  0.00000000E+00  0.00000000E+00  0.00000000E+00
  0.00000000E+00  0.00000000E+00  0.00000000E+00
  0.00000000E+00  0.00000000E+00  0.00000000E+00
  0.00000000E+00  0.00000000E+00  0.00000000E+00
  0.00000000E+00  0.00000000E+00  0.00000000E+00
  0.00000000E+00  0.00000000E+00  0.00000000E+00
  0.00000000E+00  0.00000000E+00  0.00000000E+00
  0.00000000E+00  0.00000000E+00  0.00000000E+00
  0.00000000E+00  0.00000000E+00  0.00000000E+00
  0.00000000E+00  0.00000000E+00  0.00000000E+00
  0.00000000E+00  0.00000000E+00  0.00000000E+00
  0.00000000E+00  0.00000000E+00  0.00000000E+00
  0.00000000E+00  0.00000000E+00  0.00000000E+00
  0.00000000E+00  0.00000000E+00  0.00000000E+00
  0.00000000E+00  0.00000000E+00  0.00000000E+00
  0.00000000E+00  0.00000000E+00  0.00000000E+00
  0.00000000E+00  0.00000000E+00  0.00000000E+00
  0.00000000E+00  0.00000000E+00  0.00000000E+00
