CONTCAR\(2)                             
   1.00000000000000     
    11.2744998931999998    0.0000000000000000    0.0000000000000000
     0.0000000000000000   12.4884996414000007    0.0000000000000000
     0.0000000000000000    0.0000000000000000   19.0002002716000007
   Nb   Te   Ir   O    H 
     6    24     6     2     1
Direct
  0.0020558021638735  0.0468066751415535  0.5042259759395336
  0.1686063479291064  0.7275224100099251  0.4930854424806412
  0.3350609624405081  0.0470370132372935  0.5041033875064045
  0.5004762595286110  0.7274845594099872  0.4985656363098059
  0.6684031644703268  0.0459397752532809  0.5046411724356048
  0.8367463958339698  0.7270492208310344  0.4986118713895920
  0.1686787222049233  0.9326264655369201  0.4183530165124907
  0.0008189621124473  0.1913401556106322  0.4005851119669188
  0.0017787174964354  0.3474171526159893  0.5703566912836067
  0.1685105433254606  0.5821225160320509  0.5961273845382706
  0.1681037803655840  0.4294397976423028  0.4229639353869317
  0.0000474098149397  0.6759192627809085  0.3925739394109016
  0.0045531295706667  0.8434579069959369  0.5808288094510061
  0.1686845657669451  0.1051341575755984  0.6051708238031850
  0.5018035755616808  0.9306697627056266  0.4198687057040047
  0.3357211795890578  0.1918165826651190  0.4004699752152305
  0.3347237498731133  0.3476914252688346  0.5702174748507289
  0.4981770445424303  0.5819842298752462  0.6026103041245108
  0.5036771510483433  0.4333540382503500  0.4289675467627347
  0.3372651147121388  0.6764724374623441  0.3925052629405741
  0.3325911268748314  0.8437507816898560  0.5808660204271803
  0.5014158487076656  0.1032558756036224  0.6056343242628941
  0.8353869088048427  0.9303225848592760  0.4201511772430280
  0.6682750550864043  0.1908265644721894  0.4013288271396220
  0.6683386712801678  0.3429298688134850  0.5738592018145354
  0.8381715175900979  0.5817402257561284  0.6028356681396900
  0.8327645340780521  0.4330334706501304  0.4292666376445098
  0.6686940866997659  0.6728771178568991  0.3978946802403485
  0.6687463453278255  0.8423730325138550  0.5815400020138100
  0.8357277453516048  0.1026319140497804  0.6057981260549639
  0.0033252560118413  0.5351152426645100  0.4985274054524851
  0.1682822426985169  0.2434140766532522  0.4966522852454247
  0.3331959235241726  0.5353777853183672  0.4983234041002973
  0.5017277646611262  0.2432585484340422  0.4979045570179181
  0.6682370336390022  0.5328634749021006  0.5060694695830747
  0.8348435633828899  0.2428637616156095  0.4980589399124256
  0.6686479865633501  0.6037994730742398  0.6786396105161572
  0.6700003003183781  0.6842935804327936  0.7338985769111162
  0.6705057360488738  0.6385369167389072  0.7758486522678538
 
  0.00000000E+00  0.00000000E+00  0.00000000E+00
  0.00000000E+00  0.00000000E+00  0.00000000E+00
  0.00000000E+00  0.00000000E+00  0.00000000E+00
  0.00000000E+00  0.00000000E+00  0.00000000E+00
  0.00000000E+00  0.00000000E+00  0.00000000E+00
  0.00000000E+00  0.00000000E+00  0.00000000E+00
  0.00000000E+00  0.00000000E+00  0.00000000E+00
  0.00000000E+00  0.00000000E+00  0.00000000E+00
  0.00000000E+00  0.00000000E+00  0.00000000E+00
  0.00000000E+00  0.00000000E+00  0.00000000E+00
  0.00000000E+00  0.00000000E+00  0.00000000E+00
  0.00000000E+00  0.00000000E+00  0.00000000E+00
  0.00000000E+00  0.00000000E+00  0.00000000E+00
  0.00000000E+00  0.00000000E+00  0.00000000E+00
  0.00000000E+00  0.00000000E+00  0.00000000E+00
  0.00000000E+00  0.00000000E+00  0.00000000E+00
  0.00000000E+00  0.00000000E+00  0.00000000E+00
  0.00000000E+00  0.00000000E+00  0.00000000E+00
  0.00000000E+00  0.00000000E+00  0.00000000E+00
  0.00000000E+00  0.00000000E+00  0.00000000E+00
  0.00000000E+00  0.00000000E+00  0.00000000E+00
  0.00000000E+00  0.00000000E+00  0.00000000E+00
  0.00000000E+00  0.00000000E+00  0.00000000E+00
  0.00000000E+00  0.00000000E+00  0.00000000E+00
  0.00000000E+00  0.00000000E+00  0.00000000E+00
  0.00000000E+00  0.00000000E+00  0.00000000E+00
  0.00000000E+00  0.00000000E+00  0.00000000E+00
  0.00000000E+00  0.00000000E+00  0.00000000E+00
  0.00000000E+00  0.00000000E+00  0.00000000E+00
  0.00000000E+00  0.00000000E+00  0.00000000E+00
  0.00000000E+00  0.00000000E+00  0.00000000E+00
  0.00000000E+00  0.00000000E+00  0.00000000E+00
  0.00000000E+00  0.00000000E+00  0.00000000E+00
  0.00000000E+00  0.00000000E+00  0.00000000E+00
  0.00000000E+00  0.00000000E+00  0.00000000E+00
  0.00000000E+00  0.00000000E+00  0.00000000E+00
  0.00000000E+00  0.00000000E+00  0.00000000E+00
  0.00000000E+00  0.00000000E+00  0.00000000E+00
  0.00000000E+00  0.00000000E+00  0.00000000E+00
