CONTCAR\(3)                             
   1.00000000000000     
    12.4804000853999995    0.0000000000000000    0.0000000000000000
    -6.2402000426999997   10.8083435233999996    0.0000000000000000
     0.0000000000000000    0.0000000000000000   39.2775001525999983
   Ge   Te   As   O    H 
    45    72    18     2     1
Direct
  0.0057112266485433  0.0014233532203889  0.5010486456897638
  0.1183796223738369  0.2232343805387060  0.6807609431660850
  0.2275637349683208  0.1114767600332485  0.5903620315035312
  0.2284110947601548  0.1117688126341676  0.3213616802556700
  0.1171901558899506  0.2227884218353537  0.4112694004985400
  0.3396401736184629  0.0011507424185950  0.5005629980141180
  0.4512741215718918  0.2237522622735639  0.6800412733918435
  0.5610935967193242  0.1107285243623366  0.5902596195585943
  0.5614437254943141  0.1118532308098921  0.3215167550282345
  0.4505737512913299  0.2228951477574199  0.4115519038318851
  0.6738780416339623  0.0011823926180199  0.5007869682347348
  0.7832099996466226  0.2230613349923374  0.6801359015923651
  0.8935604957404450  0.1111667509817664  0.5913823639748017
  0.8949442548417608  0.1113319689765717  0.3213734223642746
  0.7838701382400828  0.2230490067374689  0.4112665109007381
  0.0057377706068209  0.3329743501222140  0.5009659194189737
  0.1177887282778940  0.5596875066643463  0.6807434911632413
  0.2275574852871785  0.4452246683397547  0.5904283008444864
  0.2283287152189075  0.4444995042634616  0.3213784812961293
  0.1168445135096903  0.5560335301113213  0.4112173402730974
  0.3382140178100599  0.3334727159430528  0.5010995556935001
  0.4514042083220460  0.5562427533598395  0.6801054063379723
  0.5612463100485954  0.4451918112010276  0.5899195213446617
  0.5611096564441667  0.4446866054690801  0.3214104172775620
  0.4504596686062499  0.5558997167064987  0.4114803076354434
  0.6731311375084630  0.3337589120003486  0.5009777899161350
  0.7836434706817883  0.5559182417875732  0.6798851071384391
  0.8954401663354545  0.4443909035159024  0.5902247829144613
  0.8942640230396748  0.4443635808933308  0.3214728518198200
  0.7837299843770680  0.5562437010608576  0.4115989596192762
  0.0061357146910694  0.6674902198543009  0.5007448901507274
  0.1179172033671705  0.8865133617531100  0.6806831874108425
  0.2290851641357605  0.7788151600684756  0.5899983160606581
  0.2281094894197082  0.7780953942523965  0.3214929568037022
  0.1168269923368328  0.8891999470889616  0.4112706989459483
  0.3395637566252603  0.6672794426629807  0.5005199187668836
  0.4461502649462687  0.8875627994959032  0.6810278119648885
  0.5609604284318834  0.7791336931508113  0.5903257478676096
  0.5613900603871755  0.7779565634913084  0.3214536685034020
  0.4502383355758326  0.8891847677764702  0.4111225205154199
  0.6729384022354310  0.6679096028089830  0.5010080867598035
  0.7831814642562804  0.8887657616041835  0.6800604473502503
  0.8954378412600619  0.7797343990985226  0.5902601753991803
  0.8943988170113357  0.7778792532862866  0.3214343841170404
  0.7839137368653226  0.8893314086599915  0.4112223594389164
  0.2156705514805921  0.1049834807694410  0.7235053364926074
  0.2123399841150260  0.1035163324043253  0.4557272168611988
  0.1036223603139419  0.2155696679031607  0.2774772245347208
  0.1014061422280363  0.2148828203598967  0.5448747095067858
  0.9909747954318178  0.9928468267625234  0.3664753330162682
  0.9907103315725720  0.9931767585710105  0.6339598018429626
  0.2157161248808279  0.1048317000706760  0.1913494894300669
  0.1048476294322072  0.2162710570798083  0.8097457553676009
  0.5486048258670877  0.1058005543732463  0.7237516294011570
  0.5463685941047132  0.1033686949469015  0.4555738799146241
  0.4370404947913258  0.2158000336748529  0.2773678110714499
  0.4346974762258924  0.2146931562658949  0.5449421258499143
  0.3239426321108994  0.9925583048080000  0.3664953322908318
  0.3249882297840188  0.9934159549926136  0.6339479567218831
  0.5490617139816933  0.1050806435903624  0.1911634137489528
  0.4395878540713767  0.2188220570379613  0.8120438203690128
  0.8813562323070485  0.1049061406869782  0.7233980149510941
  0.8798704557330268  0.1039347994143185  0.4554298748592274
  0.7703529809500580  0.2156797234201093  0.2775688706068351
  0.7686028989052005  0.2149527496049046  0.5446543235289738
  0.6572457833690351  0.9926030826348153  0.3664570552194917
  0.6572779865499143  0.9928788399829642  0.6339012730351783
  0.8824589736482835  0.1051208186083272  0.1910913073013418
  0.7717258090416763  0.2160800593024064  0.8099692110763783
  0.2157264266768664  0.4386768526479869  0.7235187755090564
  0.2124092837578928  0.4370831473015073  0.4556470107545394
  0.1031683245419117  0.5487800360295054  0.2775189467342543
  0.1020948473263843  0.5483814787409500  0.5447795625284257
  0.9910046722306447  0.3262519789757334  0.3665110917717982
  0.9906575546395828  0.3257225393251346  0.6339323377893962
  0.2158029848446290  0.4388909372420216  0.1913672799054922
  0.1061143974163983  0.5501876678328159  0.8098918650791731
  0.5480334776524671  0.4380925945782721  0.7237669792463564
  0.5454647106178143  0.4367827718942294  0.4557399806879587
  0.4370283735288396  0.5492472017911965  0.2773825060407233
  0.4346936059388469  0.5484439958902385  0.5449515898630608
  0.3241061803383332  0.3259079144214923  0.3663552413062163
  0.3240705146690885  0.3262290220622717  0.6343622830883291
  0.5493595247680929  0.4386138369517454  0.1913784892842472
  0.4391511201306457  0.5485385085925500  0.8119175803242769
  0.8819178647263186  0.4379424374726071  0.7233134400499495
  0.8798368738048126  0.4370096080645922  0.4557198973855279
  0.7702085267814027  0.5489966727224811  0.2773819129322987
  0.7686204193900323  0.5484695348725452  0.5449254678003470
  0.6572667855412888  0.3260544829894627  0.3664307980141288
  0.6576362899338619  0.3264999886560460  0.6341628994640018
  0.8826416647979869  0.4383407851956278  0.1911940934784369
  0.7789123659078143  0.5534292950257509  0.8095789047226845
  0.2155079296406939  0.7717526996971387  0.7213758390697862
  0.2129541400507122  0.7705427586566529  0.4557379599897686
  0.1034119604895594  0.8821925980766849  0.2775017113317091
  0.1019682012911218  0.8820506176868150  0.5447986376252203
  0.9907334981186651  0.6594651846419239  0.3666096213280312
  0.9906061119183818  0.6593489017965553  0.6338911674943262
  0.2156578884850262  0.7717721678595737  0.1912784244411654
  0.1060185498564792  0.8839656461777210  0.8097848202505702
  0.5486954292023043  0.7710525856308692  0.7237973839555210
  0.5463867220739189  0.7709293362286047  0.4555854954165426
  0.4371148853134486  0.8826339636176073  0.2775703449325988
  0.4357529011294972  0.8820184417286541  0.5446967218235557
  0.3239986277836451  0.6592305024597493  0.3664653744600486
  0.3248840614000770  0.6597729121879041  0.6339447259443816
  0.5488504288530152  0.7719493555807375  0.1912276340230719
  0.4379016474485979  0.8831627282502694  0.8099471999417531
  0.8816842470332347  0.7718466954791552  0.7233162491372767
  0.8797306456644307  0.7708358270214930  0.4557065814152068
  0.7703627390009018  0.8824755408525107  0.2775290327019633
  0.7685109130739392  0.8818436351549863  0.5447012963276308
  0.6573087164194718  0.6593207799227230  0.3664113105809221
  0.6577909971367220  0.6596869083049057  0.6341718732219306
  0.8824992534812850  0.7719549620633543  0.1911757877068325
  0.7715584911009259  0.8838206102318722  0.8099350047415612
  0.0055596718292890  0.9999125788071339  0.2303040681159274
  0.0086053523923582  0.0013793322127782  0.7703780909181006
  0.3391665239371164  0.9999999738628702  0.2304107067378069
  0.3427218545015904  0.0037805706438405  0.7722166493887030
  0.6722295682257382  0.9999266765227688  0.2300148573720264
  0.6736180700428278  0.0010942862409351  0.7708823475587820
  0.0056470595984877  0.3337904650625063  0.2303132459170456
  0.0086045093120219  0.3351887467039703  0.7704783341654462
  0.3390706683386639  0.3337468080667776  0.2303958608919032
  0.3399903980444847  0.3340596492047325  0.7717250626538288
  0.6727515734797009  0.3331889883824246  0.2303591762729695
  0.6726090941062566  0.3319279821223660  0.7716564180774341
  0.0056137245600283  0.6669316985715454  0.2304535283104414
  0.0027907147240640  0.6654586339421016  0.7722310395695189
  0.3391410422110255  0.6675536720925805  0.2304905103450636
  0.3422823796805332  0.6666549804147763  0.7723265513510569
  0.6725700619110953  0.6668477504586363  0.2303705496592912
  0.6724302485238880  0.6692248352405130  0.7715093795823478
  0.5247894631297925  0.4248379890889282  0.8379752176734527
  0.5210084586303267  0.4216651812072811  0.8750707990159441
  0.6096533649380049  0.4632056426185613  0.8804749700486596
 
  0.00000000E+00  0.00000000E+00  0.00000000E+00
  0.00000000E+00  0.00000000E+00  0.00000000E+00
  0.00000000E+00  0.00000000E+00  0.00000000E+00
  0.00000000E+00  0.00000000E+00  0.00000000E+00
  0.00000000E+00  0.00000000E+00  0.00000000E+00
  0.00000000E+00  0.00000000E+00  0.00000000E+00
  0.00000000E+00  0.00000000E+00  0.00000000E+00
  0.00000000E+00  0.00000000E+00  0.00000000E+00
  0.00000000E+00  0.00000000E+00  0.00000000E+00
  0.00000000E+00  0.00000000E+00  0.00000000E+00
  0.00000000E+00  0.00000000E+00  0.00000000E+00
  0.00000000E+00  0.00000000E+00  0.00000000E+00
  0.00000000E+00  0.00000000E+00  0.00000000E+00
  0.00000000E+00  0.00000000E+00  0.00000000E+00
  0.00000000E+00  0.00000000E+00  0.00000000E+00
  0.00000000E+00  0.00000000E+00  0.00000000E+00
  0.00000000E+00  0.00000000E+00  0.00000000E+00
  0.00000000E+00  0.00000000E+00  0.00000000E+00
  0.00000000E+00  0.00000000E+00  0.00000000E+00
  0.00000000E+00  0.00000000E+00  0.00000000E+00
  0.00000000E+00  0.00000000E+00  0.00000000E+00
  0.00000000E+00  0.00000000E+00  0.00000000E+00
  0.00000000E+00  0.00000000E+00  0.00000000E+00
  0.00000000E+00  0.00000000E+00  0.00000000E+00
  0.00000000E+00  0.00000000E+00  0.00000000E+00
  0.00000000E+00  0.00000000E+00  0.00000000E+00
  0.00000000E+00  0.00000000E+00  0.00000000E+00
  0.00000000E+00  0.00000000E+00  0.00000000E+00
  0.00000000E+00  0.00000000E+00  0.00000000E+00
  0.00000000E+00  0.00000000E+00  0.00000000E+00
  0.00000000E+00  0.00000000E+00  0.00000000E+00
  0.00000000E+00  0.00000000E+00  0.00000000E+00
  0.00000000E+00  0.00000000E+00  0.00000000E+00
  0.00000000E+00  0.00000000E+00  0.00000000E+00
  0.00000000E+00  0.00000000E+00  0.00000000E+00
  0.00000000E+00  0.00000000E+00  0.00000000E+00
  0.00000000E+00  0.00000000E+00  0.00000000E+00
  0.00000000E+00  0.00000000E+00  0.00000000E+00
  0.00000000E+00  0.00000000E+00  0.00000000E+00
  0.00000000E+00  0.00000000E+00  0.00000000E+00
  0.00000000E+00  0.00000000E+00  0.00000000E+00
  0.00000000E+00  0.00000000E+00  0.00000000E+00
  0.00000000E+00  0.00000000E+00  0.00000000E+00
  0.00000000E+00  0.00000000E+00  0.00000000E+00
  0.00000000E+00  0.00000000E+00  0.00000000E+00
  0.00000000E+00  0.00000000E+00  0.00000000E+00
  0.00000000E+00  0.00000000E+00  0.00000000E+00
  0.00000000E+00  0.00000000E+00  0.00000000E+00
  0.00000000E+00  0.00000000E+00  0.00000000E+00
  0.00000000E+00  0.00000000E+00  0.00000000E+00
  0.00000000E+00  0.00000000E+00  0.00000000E+00
  0.00000000E+00  0.00000000E+00  0.00000000E+00
  0.00000000E+00  0.00000000E+00  0.00000000E+00
  0.00000000E+00  0.00000000E+00  0.00000000E+00
  0.00000000E+00  0.00000000E+00  0.00000000E+00
  0.00000000E+00  0.00000000E+00  0.00000000E+00
  0.00000000E+00  0.00000000E+00  0.00000000E+00
  0.00000000E+00  0.00000000E+00  0.00000000E+00
  0.00000000E+00  0.00000000E+00  0.00000000E+00
  0.00000000E+00  0.00000000E+00  0.00000000E+00
  0.00000000E+00  0.00000000E+00  0.00000000E+00
  0.00000000E+00  0.00000000E+00  0.00000000E+00
  0.00000000E+00  0.00000000E+00  0.00000000E+00
  0.00000000E+00  0.00000000E+00  0.00000000E+00
  0.00000000E+00  0.00000000E+00  0.00000000E+00
  0.00000000E+00  0.00000000E+00  0.00000000E+00
  0.00000000E+00  0.00000000E+00  0.00000000E+00
  0.00000000E+00  0.00000000E+00  0.00000000E+00
  0.00000000E+00  0.00000000E+00  0.00000000E+00
  0.00000000E+00  0.00000000E+00  0.00000000E+00
  0.00000000E+00  0.00000000E+00  0.00000000E+00
  0.00000000E+00  0.00000000E+00  0.00000000E+00
  0.00000000E+00  0.00000000E+00  0.00000000E+00
  0.00000000E+00  0.00000000E+00  0.00000000E+00
  0.00000000E+00  0.00000000E+00  0.00000000E+00
  0.00000000E+00  0.00000000E+00  0.00000000E+00
  0.00000000E+00  0.00000000E+00  0.00000000E+00
  0.00000000E+00  0.00000000E+00  0.00000000E+00
  0.00000000E+00  0.00000000E+00  0.00000000E+00
  0.00000000E+00  0.00000000E+00  0.00000000E+00
  0.00000000E+00  0.00000000E+00  0.00000000E+00
  0.00000000E+00  0.00000000E+00  0.00000000E+00
  0.00000000E+00  0.00000000E+00  0.00000000E+00
  0.00000000E+00  0.00000000E+00  0.00000000E+00
  0.00000000E+00  0.00000000E+00  0.00000000E+00
  0.00000000E+00  0.00000000E+00  0.00000000E+00
  0.00000000E+00  0.00000000E+00  0.00000000E+00
  0.00000000E+00  0.00000000E+00  0.00000000E+00
  0.00000000E+00  0.00000000E+00  0.00000000E+00
  0.00000000E+00  0.00000000E+00  0.00000000E+00
  0.00000000E+00  0.00000000E+00  0.00000000E+00
  0.00000000E+00  0.00000000E+00  0.00000000E+00
  0.00000000E+00  0.00000000E+00  0.00000000E+00
  0.00000000E+00  0.00000000E+00  0.00000000E+00
  0.00000000E+00  0.00000000E+00  0.00000000E+00
  0.00000000E+00  0.00000000E+00  0.00000000E+00
  0.00000000E+00  0.00000000E+00  0.00000000E+00
  0.00000000E+00  0.00000000E+00  0.00000000E+00
  0.00000000E+00  0.00000000E+00  0.00000000E+00
  0.00000000E+00  0.00000000E+00  0.00000000E+00
  0.00000000E+00  0.00000000E+00  0.00000000E+00
  0.00000000E+00  0.00000000E+00  0.00000000E+00
  0.00000000E+00  0.00000000E+00  0.00000000E+00
  0.00000000E+00  0.00000000E+00  0.00000000E+00
  0.00000000E+00  0.00000000E+00  0.00000000E+00
  0.00000000E+00  0.00000000E+00  0.00000000E+00
  0.00000000E+00  0.00000000E+00  0.00000000E+00
  0.00000000E+00  0.00000000E+00  0.00000000E+00
  0.00000000E+00  0.00000000E+00  0.00000000E+00
  0.00000000E+00  0.00000000E+00  0.00000000E+00
  0.00000000E+00  0.00000000E+00  0.00000000E+00
  0.00000000E+00  0.00000000E+00  0.00000000E+00
  0.00000000E+00  0.00000000E+00  0.00000000E+00
  0.00000000E+00  0.00000000E+00  0.00000000E+00
  0.00000000E+00  0.00000000E+00  0.00000000E+00
  0.00000000E+00  0.00000000E+00  0.00000000E+00
  0.00000000E+00  0.00000000E+00  0.00000000E+00
  0.00000000E+00  0.00000000E+00  0.00000000E+00
  0.00000000E+00  0.00000000E+00  0.00000000E+00
  0.00000000E+00  0.00000000E+00  0.00000000E+00
  0.00000000E+00  0.00000000E+00  0.00000000E+00
  0.00000000E+00  0.00000000E+00  0.00000000E+00
  0.00000000E+00  0.00000000E+00  0.00000000E+00
  0.00000000E+00  0.00000000E+00  0.00000000E+00
  0.00000000E+00  0.00000000E+00  0.00000000E+00
  0.00000000E+00  0.00000000E+00  0.00000000E+00
  0.00000000E+00  0.00000000E+00  0.00000000E+00
  0.00000000E+00  0.00000000E+00  0.00000000E+00
  0.00000000E+00  0.00000000E+00  0.00000000E+00
  0.00000000E+00  0.00000000E+00  0.00000000E+00
  0.00000000E+00  0.00000000E+00  0.00000000E+00
  0.00000000E+00  0.00000000E+00  0.00000000E+00
  0.00000000E+00  0.00000000E+00  0.00000000E+00
  0.00000000E+00  0.00000000E+00  0.00000000E+00
  0.00000000E+00  0.00000000E+00  0.00000000E+00
  0.00000000E+00  0.00000000E+00  0.00000000E+00
  0.00000000E+00  0.00000000E+00  0.00000000E+00
  0.00000000E+00  0.00000000E+00  0.00000000E+00
