CONTCAR\(12)                            
   1.00000000000000     
    12.6871004104999994    0.0000000000000000    0.0000000000000000
     6.3137961378999998   11.0849910486999992    0.0000000000000000
     0.0000000000000000    0.0000000000000000   18.1028995514000002
   Ti   Br
     8    24
Direct
  0.0833999950000006  0.3351000030000009  0.5000799689999980
  0.2572199900000030  0.4867400199999992  0.4999600149999992
  0.5833999950000006  0.3351000030000009  0.5000799689999980
  0.7572199900000030  0.4867400199999992  0.4999600149999992
  0.0833999820000031  0.8351000219999989  0.5000799689999980
  0.2572199769999983  0.9867400380000007  0.4999600149999992
  0.5834000190000026  0.8351000219999989  0.5000799689999980
  0.7572199390000023  0.9867400380000007  0.4999600149999992
  0.0917700030000006  0.4887999930000007  0.4142400069999965
  0.2490699900000024  0.3330000249999969  0.5858199959999979
  0.2487100080000033  0.1610600099999999  0.4200899929999977
  0.0918500040000012  0.1607500120000012  0.5799000499999991
  0.4210600030000009  0.4895700309999995  0.5851699689999990
  0.4194900000000032  0.3324800210000021  0.4147599920000005
  0.5917699649999975  0.4887999930000007  0.4142400069999965
  0.7490699519999993  0.3330000249999969  0.5858199959999979
  0.7487099709999967  0.1610600099999999  0.4200899929999977
  0.5918499659999981  0.1607500120000012  0.5799000499999991
  0.9210600409999969  0.4895700309999995  0.5851699689999990
  0.9194899620000001  0.3324800210000021  0.4147599920000005
  0.0917699900000031  0.9888000110000021  0.4142400069999965
  0.2490700150000009  0.8330000440000020  0.5858199959999979
  0.2487100119999965  0.6610599959999988  0.4200899929999977
  0.0918499799999992  0.6607499770000018  0.5799000499999991
  0.4210599310000021  0.9895700920000010  0.5851699689999990
  0.4194900139999973  0.8324800609999983  0.4147599920000005
  0.5917699900000031  0.9888000110000021  0.4142400069999965
  0.7490699769999978  0.8330000440000020  0.5858199959999979
  0.7487099370000010  0.6610599959999988  0.4200899929999977
  0.5918499429999997  0.6607499770000018  0.5799000499999991
  0.9210600440000007  0.9895700920000010  0.5851699689999990
  0.9194900520000004  0.8324800609999983  0.4147599920000005
 
  0.00000000E+00  0.00000000E+00  0.00000000E+00
  0.00000000E+00  0.00000000E+00  0.00000000E+00
  0.00000000E+00  0.00000000E+00  0.00000000E+00
  0.00000000E+00  0.00000000E+00  0.00000000E+00
  0.00000000E+00  0.00000000E+00  0.00000000E+00
  0.00000000E+00  0.00000000E+00  0.00000000E+00
  0.00000000E+00  0.00000000E+00  0.00000000E+00
  0.00000000E+00  0.00000000E+00  0.00000000E+00
  0.00000000E+00  0.00000000E+00  0.00000000E+00
  0.00000000E+00  0.00000000E+00  0.00000000E+00
  0.00000000E+00  0.00000000E+00  0.00000000E+00
  0.00000000E+00  0.00000000E+00  0.00000000E+00
  0.00000000E+00  0.00000000E+00  0.00000000E+00
  0.00000000E+00  0.00000000E+00  0.00000000E+00
  0.00000000E+00  0.00000000E+00  0.00000000E+00
  0.00000000E+00  0.00000000E+00  0.00000000E+00
  0.00000000E+00  0.00000000E+00  0.00000000E+00
  0.00000000E+00  0.00000000E+00  0.00000000E+00
  0.00000000E+00  0.00000000E+00  0.00000000E+00
  0.00000000E+00  0.00000000E+00  0.00000000E+00
  0.00000000E+00  0.00000000E+00  0.00000000E+00
  0.00000000E+00  0.00000000E+00  0.00000000E+00
  0.00000000E+00  0.00000000E+00  0.00000000E+00
  0.00000000E+00  0.00000000E+00  0.00000000E+00
  0.00000000E+00  0.00000000E+00  0.00000000E+00
  0.00000000E+00  0.00000000E+00  0.00000000E+00
  0.00000000E+00  0.00000000E+00  0.00000000E+00
  0.00000000E+00  0.00000000E+00  0.00000000E+00
  0.00000000E+00  0.00000000E+00  0.00000000E+00
  0.00000000E+00  0.00000000E+00  0.00000000E+00
  0.00000000E+00  0.00000000E+00  0.00000000E+00
  0.00000000E+00  0.00000000E+00  0.00000000E+00
