CONTCAR\(4)                             
   1.00000000000000     
    10.8315000533999992    0.0000000000000000    0.0000000000000000
     5.4156999588000003    9.3802674871999994    0.0000000000000000
     0.0000000000000000    0.0000000000000000   21.2775001525999983
   Ti   Te   P    O    H 
    18    18     9     1     1
Direct
  0.1181822270908407  0.1151568445504565  0.4387271325393217
  0.2286914114999428  0.2248798721093199  0.5627449108128213
  0.4524131933679678  0.1142071422011577  0.4389181992750805
  0.5715038026891600  0.2076346927325717  0.5627946627408166
  0.7847005012335228  0.1143946963478138  0.4390929879135554
  0.8975863927103457  0.2254121354707490  0.5629798259145596
  0.1174281922883162  0.4491138592730347  0.4389501423985132
  0.2117316318557653  0.5682394750095104  0.5622756407008220
  0.4515478620151718  0.4482711771540703  0.4408987567497470
  0.5714916916770093  0.5689835785482037  0.5629879548756128
  0.7848130960870016  0.4490276186580049  0.4391290305612559
  0.8947959216103777  0.5619553107929585  0.5628014041770190
  0.1173313693800341  0.7818071071466579  0.4389191588751437
  0.2285164837075890  0.8947872899501901  0.5626912803596430
  0.4523449152844645  0.7816523922195400  0.4389457164990981
  0.5645452875240103  0.8918111564177510  0.5629021501026679
  0.7847630349549485  0.7816425974802333  0.4364832239667442
  0.8949849349057778  0.8916146195641014  0.5627915069384267
  0.2296382595899361  0.2261052852367547  0.3522905733628113
  0.1183241192894668  0.1149848120936278  0.6507016772928883
  0.5619324669350154  0.2276763673937764  0.3526711162649535
  0.4505059653413717  0.1130720519468404  0.6505649968860264
  0.8954283348114344  0.2262818238109789  0.3524019952484345
  0.7876247261567448  0.1129856662715703  0.6505553433432733
  0.2308221762181961  0.5586063090244101  0.3526765961640012
  0.1162915358431230  0.4471765008075398  0.6502925447007282
  0.5620252442150290  0.5584548526235322  0.3527377009976680
  0.4505511811730586  0.4489781160204429  0.6339691841849355
  0.8971351660910990  0.5569030089488493  0.3508445580152820
  0.7878713127522957  0.4474836145155435  0.6506186248843118
  0.2296504269412132  0.8922891693633236  0.3522869487599538
  0.1163140618965146  0.7846881982184111  0.6502524083370980
  0.5601870867018798  0.8939028364442544  0.3507505122212717
  0.4504637490320999  0.7847167819731953  0.6506311907782611
  0.8969919933694752  0.8942348507492657  0.3508203981651663
  0.7847587714800676  0.7819575511205047  0.6505266722287897
  0.0068406358223042  0.0039428260216506  0.5007629891578204
  0.3408468930169153  0.0037449269686207  0.5006210441953811
  0.6764113105773656 -0.0016211629660865  0.4988453213345262
  0.0068868632587809  0.3376709104400609  0.5008506786986446
  0.3404599074115047  0.3369506627053077  0.5027232689316254
  0.6734558799616752  0.3373500129372490  0.5031059875637491
  0.0014932967300842  0.6734107231029330  0.4986913138100162
  0.3404642327688842  0.6707608588168328  0.5027219381999652
  0.6763685203522747  0.6734282647498655  0.4988391503146298
  0.4429016974462461  0.4560794575799249  0.7279698960002994
  0.3453730319336976  0.4808125484544904  0.7393115135567049
 
  0.00000000E+00  0.00000000E+00  0.00000000E+00
  0.00000000E+00  0.00000000E+00  0.00000000E+00
  0.00000000E+00  0.00000000E+00  0.00000000E+00
  0.00000000E+00  0.00000000E+00  0.00000000E+00
  0.00000000E+00  0.00000000E+00  0.00000000E+00
  0.00000000E+00  0.00000000E+00  0.00000000E+00
  0.00000000E+00  0.00000000E+00  0.00000000E+00
  0.00000000E+00  0.00000000E+00  0.00000000E+00
  0.00000000E+00  0.00000000E+00  0.00000000E+00
  0.00000000E+00  0.00000000E+00  0.00000000E+00
  0.00000000E+00  0.00000000E+00  0.00000000E+00
  0.00000000E+00  0.00000000E+00  0.00000000E+00
  0.00000000E+00  0.00000000E+00  0.00000000E+00
  0.00000000E+00  0.00000000E+00  0.00000000E+00
  0.00000000E+00  0.00000000E+00  0.00000000E+00
  0.00000000E+00  0.00000000E+00  0.00000000E+00
  0.00000000E+00  0.00000000E+00  0.00000000E+00
  0.00000000E+00  0.00000000E+00  0.00000000E+00
  0.00000000E+00  0.00000000E+00  0.00000000E+00
  0.00000000E+00  0.00000000E+00  0.00000000E+00
  0.00000000E+00  0.00000000E+00  0.00000000E+00
  0.00000000E+00  0.00000000E+00  0.00000000E+00
  0.00000000E+00  0.00000000E+00  0.00000000E+00
  0.00000000E+00  0.00000000E+00  0.00000000E+00
  0.00000000E+00  0.00000000E+00  0.00000000E+00
  0.00000000E+00  0.00000000E+00  0.00000000E+00
  0.00000000E+00  0.00000000E+00  0.00000000E+00
  0.00000000E+00  0.00000000E+00  0.00000000E+00
  0.00000000E+00  0.00000000E+00  0.00000000E+00
  0.00000000E+00  0.00000000E+00  0.00000000E+00
  0.00000000E+00  0.00000000E+00  0.00000000E+00
  0.00000000E+00  0.00000000E+00  0.00000000E+00
  0.00000000E+00  0.00000000E+00  0.00000000E+00
  0.00000000E+00  0.00000000E+00  0.00000000E+00
  0.00000000E+00  0.00000000E+00  0.00000000E+00
  0.00000000E+00  0.00000000E+00  0.00000000E+00
  0.00000000E+00  0.00000000E+00  0.00000000E+00
  0.00000000E+00  0.00000000E+00  0.00000000E+00
  0.00000000E+00  0.00000000E+00  0.00000000E+00
  0.00000000E+00  0.00000000E+00  0.00000000E+00
  0.00000000E+00  0.00000000E+00  0.00000000E+00
  0.00000000E+00  0.00000000E+00  0.00000000E+00
  0.00000000E+00  0.00000000E+00  0.00000000E+00
  0.00000000E+00  0.00000000E+00  0.00000000E+00
  0.00000000E+00  0.00000000E+00  0.00000000E+00
  0.00000000E+00  0.00000000E+00  0.00000000E+00
  0.00000000E+00  0.00000000E+00  0.00000000E+00
