CONTCAR\(3)                             
   1.00000000000000     
    10.4815998077000003    0.0000000000000000    0.0000000000000000
     0.0000000000000000   10.4815998077000003    0.0000000000000000
     0.0000000000000000    0.0000000000000000   21.6266002654999987
   Hf   Si   Se
    18    18    18
Direct
  0.1666699909999991 -0.0000000000000000  0.5987886741033687
 -0.0000000000000000  0.1666699909999991  0.4011913058966302
  0.5000000000000000  0.0000000000000000  0.5987886741033687
  0.3333299969999999  0.1666699909999991  0.4011913058966302
  0.8333299969999999  0.0000000000000000  0.5987886741033687
  0.6666700030000001  0.1666699909999991  0.4011913058966302
  0.1666699909999991  0.3333299969999999  0.5987886741033687
 -0.0000000000000000  0.5000000000000000  0.4011913058966302
  0.5000000000000000  0.3333299969999999  0.5987886741033687
  0.3333299969999999  0.5000000000000000  0.4011913058966302
  0.8333299969999999  0.3333299969999999  0.5987886741033687
  0.6666700030000001  0.5000000000000000  0.4011913058966302
  0.1666699909999991  0.6666700030000001  0.5987886741033687
 -0.0000000000000000  0.8333299969999999  0.4011913058966302
  0.5000000000000000  0.6666700030000001  0.5987886741033687
  0.3333299969999999  0.8333299969999999  0.4011913058966302
  0.8333299969999999  0.6666700030000001  0.5987886741033687
  0.6666700030000001  0.8333299969999999  0.4011913058966302
 -0.0000000000000000 -0.0000000000000000  0.5000100099999969
  0.1666699909999991  0.1666699909999991  0.5000100099999969
  0.3333299969999999 -0.0000000000000000  0.5000100099999969
  0.5000000000000000  0.1666699909999991  0.5000100099999969
  0.6666700030000001  0.0000000000000000  0.5000100099999969
  0.8333299969999999  0.1666699909999991  0.5000100099999969
 -0.0000000000000000  0.3333299969999999  0.5000100099999969
  0.1666699909999991  0.5000000000000000  0.5000100099999969
  0.3333299969999999  0.3333299969999999  0.5000100099999969
  0.5000000000000000  0.5000000000000000  0.5000100099999969
  0.6666700030000001  0.3333299969999999  0.5000100099999969
  0.8333299969999999  0.5000000000000000  0.5000100099999969
 -0.0000000000000000  0.6666700030000001  0.5000100099999969
  0.1666699909999991  0.8333299969999999  0.5000100099999969
  0.3333299969999999  0.6666700030000001  0.5000100099999969
  0.5000000000000000  0.8333299969999999  0.5000100099999969
  0.6666700030000001  0.6666700030000001  0.5000100099999969
  0.8333299969999999  0.8333299969999999  0.5000100099999969
 -0.0000000000000000  0.1666699909999991  0.6538085162841646
  0.1666699909999991  0.0000000000000000  0.3461914837158353
  0.3333299969999999  0.1666699909999991  0.6538085162841646
  0.5000000000000000 -0.0000000000000000  0.3461914837158353
  0.6666700030000001  0.1666699909999991  0.6538085162841646
  0.8333299969999999 -0.0000000000000000  0.3461914837158353
 -0.0000000000000000  0.5000000000000000  0.6538085162841646
  0.1666699909999991  0.3333299969999999  0.3461914837158353
  0.3333299969999999  0.5000000000000000  0.6538085162841646
  0.5000000000000000  0.3333299969999999  0.3461914837158353
  0.6666700030000001  0.5000000000000000  0.6538085162841646
  0.8333299969999999  0.3333299969999999  0.3461914837158353
 -0.0000000000000000  0.8333299969999999  0.6538085162841646
  0.1666699909999991  0.6666700030000001  0.3461914837158353
  0.3333299969999999  0.8333299969999999  0.6538085162841646
  0.5000000000000000  0.6666700030000001  0.3461914837158353
  0.6666700030000001  0.8333299969999999  0.6538085162841646
  0.8333299969999999  0.6666700030000001  0.3461914837158353
 
  0.00000000E+00  0.00000000E+00  0.00000000E+00
  0.00000000E+00  0.00000000E+00  0.00000000E+00
  0.00000000E+00  0.00000000E+00  0.00000000E+00
  0.00000000E+00  0.00000000E+00  0.00000000E+00
  0.00000000E+00  0.00000000E+00  0.00000000E+00
  0.00000000E+00  0.00000000E+00  0.00000000E+00
  0.00000000E+00  0.00000000E+00  0.00000000E+00
  0.00000000E+00  0.00000000E+00  0.00000000E+00
  0.00000000E+00  0.00000000E+00  0.00000000E+00
  0.00000000E+00  0.00000000E+00  0.00000000E+00
  0.00000000E+00  0.00000000E+00  0.00000000E+00
  0.00000000E+00  0.00000000E+00  0.00000000E+00
  0.00000000E+00  0.00000000E+00  0.00000000E+00
  0.00000000E+00  0.00000000E+00  0.00000000E+00
  0.00000000E+00  0.00000000E+00  0.00000000E+00
  0.00000000E+00  0.00000000E+00  0.00000000E+00
  0.00000000E+00  0.00000000E+00  0.00000000E+00
  0.00000000E+00  0.00000000E+00  0.00000000E+00
  0.00000000E+00  0.00000000E+00  0.00000000E+00
  0.00000000E+00  0.00000000E+00  0.00000000E+00
  0.00000000E+00  0.00000000E+00  0.00000000E+00
  0.00000000E+00  0.00000000E+00  0.00000000E+00
  0.00000000E+00  0.00000000E+00  0.00000000E+00
  0.00000000E+00  0.00000000E+00  0.00000000E+00
  0.00000000E+00  0.00000000E+00  0.00000000E+00
  0.00000000E+00  0.00000000E+00  0.00000000E+00
  0.00000000E+00  0.00000000E+00  0.00000000E+00
  0.00000000E+00  0.00000000E+00  0.00000000E+00
  0.00000000E+00  0.00000000E+00  0.00000000E+00
  0.00000000E+00  0.00000000E+00  0.00000000E+00
  0.00000000E+00  0.00000000E+00  0.00000000E+00
  0.00000000E+00  0.00000000E+00  0.00000000E+00
  0.00000000E+00  0.00000000E+00  0.00000000E+00
  0.00000000E+00  0.00000000E+00  0.00000000E+00
  0.00000000E+00  0.00000000E+00  0.00000000E+00
  0.00000000E+00  0.00000000E+00  0.00000000E+00
  0.00000000E+00  0.00000000E+00  0.00000000E+00
  0.00000000E+00  0.00000000E+00  0.00000000E+00
  0.00000000E+00  0.00000000E+00  0.00000000E+00
  0.00000000E+00  0.00000000E+00  0.00000000E+00
  0.00000000E+00  0.00000000E+00  0.00000000E+00
  0.00000000E+00  0.00000000E+00  0.00000000E+00
  0.00000000E+00  0.00000000E+00  0.00000000E+00
  0.00000000E+00  0.00000000E+00  0.00000000E+00
  0.00000000E+00  0.00000000E+00  0.00000000E+00
  0.00000000E+00  0.00000000E+00  0.00000000E+00
  0.00000000E+00  0.00000000E+00  0.00000000E+00
  0.00000000E+00  0.00000000E+00  0.00000000E+00
  0.00000000E+00  0.00000000E+00  0.00000000E+00
  0.00000000E+00  0.00000000E+00  0.00000000E+00
  0.00000000E+00  0.00000000E+00  0.00000000E+00
  0.00000000E+00  0.00000000E+00  0.00000000E+00
  0.00000000E+00  0.00000000E+00  0.00000000E+00
  0.00000000E+00  0.00000000E+00  0.00000000E+00
