CONTCAR\(2)                             
   1.00000000000000     
    11.7119998931999998    0.0000000000000000    0.0000000000000000
    -5.1174287261000000   10.4860139793999991    0.0000000000000000
     0.0000000000000000    0.0000000000000000   18.3064994811999995
   Mo   Cl   O    H 
     8    24     2     1
Direct
  0.0672049820732874  0.4356074735992979  0.4965726860422521
  0.4358249065660729  0.0668400632546345  0.4963311996880754
  0.5678019612585363  0.4358022629403951  0.4960796136284965
  0.9358862784595334  0.0671485083686069  0.4965107900668626
  0.0675740516027266  0.9356489995453977  0.4962940991741024
  0.4366397998576988  0.5681558751609943  0.4958287102310095
  0.5676033812574677  0.9356762717704559  0.4962278452425788
  0.9359965306368978  0.5672434654796351  0.4965968632814023
  0.0846351097291165  0.0844150569977903  0.5891706275317774
  0.4196109336430590  0.4188824683128041  0.4031824001392504
  0.0789180977086517  0.2511904152757501  0.4252289865795653
  0.2534862861816709  0.4244146507257396  0.5678172285125703
  0.4252389480956208  0.2525915679090586  0.5679559976506546
  0.2513752466128067  0.0783368231805260  0.4248500190876054
  0.5841449633126307  0.0841064571958923  0.5891514428894820
  0.9186466686445562  0.4178854547841823  0.4039190093407176
  0.5784005374731713  0.2508667178119067  0.4247041280570125
  0.7519417601742274  0.4246700870512587  0.5679542285091742
  0.9251327558278972  0.2520870342910233  0.5682445854314506
  0.7515210020598223  0.0785417584803784  0.4247934740726247
  0.0844578195537257  0.5843605667299875  0.5894197319460233
  0.4188130584543067  0.9181134548024263  0.4034608424585902
  0.0782556909320131  0.7506582955115917  0.4247348666627139
  0.2521476874245450  0.9243349951137181  0.5676799957059081
  0.4252374617085489  0.7518283109327540  0.5674296513461006
  0.2512081090684734  0.5780920313275251  0.4250273090495180
  0.5845882823411859  0.5849173957254912  0.5892544694986909
  0.9189960607711065  0.9184589021184181  0.4035538485530530
  0.5792008338909972  0.7512805075892846  0.4243040553819874
  0.7520689706183386  0.9248153496416261  0.5678211920582199
  0.9249671300467129  0.7518906382321090  0.5679521119980280
  0.7515690161170556  0.5780573319766011  0.4247312507565505
  0.4312275957714659  0.6217520451917204  0.7502980224346683
  0.3841158880060183  0.4947448681972741  0.7419937781742961
  0.3983925821200621  0.4820446107737211  0.6895851678189667
 
  0.00000000E+00  0.00000000E+00  0.00000000E+00
  0.00000000E+00  0.00000000E+00  0.00000000E+00
  0.00000000E+00  0.00000000E+00  0.00000000E+00
  0.00000000E+00  0.00000000E+00  0.00000000E+00
  0.00000000E+00  0.00000000E+00  0.00000000E+00
  0.00000000E+00  0.00000000E+00  0.00000000E+00
  0.00000000E+00  0.00000000E+00  0.00000000E+00
  0.00000000E+00  0.00000000E+00  0.00000000E+00
  0.00000000E+00  0.00000000E+00  0.00000000E+00
  0.00000000E+00  0.00000000E+00  0.00000000E+00
  0.00000000E+00  0.00000000E+00  0.00000000E+00
  0.00000000E+00  0.00000000E+00  0.00000000E+00
  0.00000000E+00  0.00000000E+00  0.00000000E+00
  0.00000000E+00  0.00000000E+00  0.00000000E+00
  0.00000000E+00  0.00000000E+00  0.00000000E+00
  0.00000000E+00  0.00000000E+00  0.00000000E+00
  0.00000000E+00  0.00000000E+00  0.00000000E+00
  0.00000000E+00  0.00000000E+00  0.00000000E+00
  0.00000000E+00  0.00000000E+00  0.00000000E+00
  0.00000000E+00  0.00000000E+00  0.00000000E+00
  0.00000000E+00  0.00000000E+00  0.00000000E+00
  0.00000000E+00  0.00000000E+00  0.00000000E+00
  0.00000000E+00  0.00000000E+00  0.00000000E+00
  0.00000000E+00  0.00000000E+00  0.00000000E+00
  0.00000000E+00  0.00000000E+00  0.00000000E+00
  0.00000000E+00  0.00000000E+00  0.00000000E+00
  0.00000000E+00  0.00000000E+00  0.00000000E+00
  0.00000000E+00  0.00000000E+00  0.00000000E+00
  0.00000000E+00  0.00000000E+00  0.00000000E+00
  0.00000000E+00  0.00000000E+00  0.00000000E+00
  0.00000000E+00  0.00000000E+00  0.00000000E+00
  0.00000000E+00  0.00000000E+00  0.00000000E+00
  0.00000000E+00  0.00000000E+00  0.00000000E+00
  0.00000000E+00  0.00000000E+00  0.00000000E+00
  0.00000000E+00  0.00000000E+00  0.00000000E+00
