CONTCAR\(11)                            
   1.00000000000000     
    11.7750997542999993    0.0000000000000000    0.0000000000000000
     5.8875498771999997   10.1975355193000006    0.0000000000000000
     0.0000000000000000    0.0000000000000000   23.2443008422999995
   Ce   Zn   P    O 
    18    18    18    19
Direct
  0.1118089068528984  0.1108116864242957  0.5649903041396697
  0.0007586951492553  0.9990777654397593  0.4367329395901732
  0.4440163256641309  0.1107765776216334  0.5650730642056374
  0.3337363404325647  0.9992164384757898  0.4372602372582208
  0.7794215372911920  0.1078724773927519  0.5645079554100977
  0.6668013616747384  0.9990511886665513  0.4368214708753612
  0.1112737838346975  0.4439840483291407  0.5658590806705341
  0.9996357446426413  0.3334970391827677  0.4375793390612674
  0.4454380624842276  0.4463851308297217  0.5665354661146843
  0.3335193559181771  0.3334859134815501  0.4377010253225795
  0.7749121917162706  0.4463732453087721  0.5664478316594483
  0.6670816372576325  0.3324344941673256  0.4375920377887246
  0.1115114471924199  0.7770917248924988  0.5653081839767199
  0.0002915903055251  0.6660492026679363  0.4371730645036360
  0.4467918416451362  0.7731099133828990  0.5651289019449151
  0.3334714190574651  0.6658127224456046  0.4370270035842447
  0.7780802327438482  0.7770357617715756  0.5653381925203635
  0.6673689919924484  0.6658565799319929  0.4369848857229986
  0.0018138352081321  0.9976266661645260  0.6758962040568933
  0.1113551858819613  0.1108762604906165  0.3264876247129705
  0.3330622396385020  1.0002990787206920  0.6750677890115282
  0.4445028730127968  0.1108937952774882  0.3265283685503551
  0.6672369757607228  0.9976397500075049  0.6758701267019145
  0.7779006416932551  0.1107767866419010  0.3264096960070135
  0.9993859288410877  0.3340353412857135  0.6761620775821940
  0.1114655681827493  0.4438311940725338  0.3265024401132399
  0.3332399833084119  0.3340367692645285  0.6760067019127024
  0.4447395873500338  0.4438609627124160  0.3264761482281448
  0.6687098234907422  0.3294492286316101  0.6692417084717134
  0.7779417902799697  0.4439305723979898  0.3264044227326500
  0.0013392847985129  0.6640659330618752  0.6768800900977087
  0.1114602397502065  0.7772013173377676  0.3262796034094891
  0.3367616564102338  0.6688146585625532  0.6817271463321792
  0.4447228962590454  0.7771902262749941  0.3264635970373691
  0.6612273771428189  0.6688049162471884  0.6815531355331420
  0.7779616184058473  0.7772670992355477  0.3262673886012575
  0.2224146065140107  0.2218986068048159  0.3452160154844267
  0.2218331037354020  0.2229227662843284  0.6571422562691612
  0.5557086970426959  0.2218394910523387  0.3451172619915599
  0.5555092869328841  0.2195261995788999  0.6564824692505491
  0.8891092844904930  0.2218479466171990  0.3449979776172857
  0.8917745916360178  0.2194820053056042  0.6564955344929477
  0.2224402370039350  0.5550415876146919  0.3450441794836436
  0.2251462820087004  0.5568869309882214  0.6596634758725554
  0.5557775234623383  0.5550170582533732  0.3449414885743481
  0.5572636098296122  0.5523139609234652  0.6427445782863951
  0.8891783945878092  0.5550676604569288  0.3449487317739138
  0.8848234446399146  0.5567981559788564  0.6596700437369558
  0.2224605086156489  0.8885123063614128  0.3449689669606117
  0.2236609934202969  0.8880912257383393  0.6554176277126967
  0.5556691391336579  0.8885318171949504  0.3449882071586928
  0.5547712818329684  0.8881806071153822  0.6554433458219959
  0.8891567187510432  0.8883400344048715  0.3446897869280864
  0.8897793214243385  0.8871134949762911  0.6575488825024667
  0.1110566991190524  0.1110482182159954  0.4632363865251047
  0.0012443945724304  0.9991149813726647  0.5384585046246316
  0.4445532688339526  0.1110744200276844  0.4633512561821155
  0.3335189590569566  0.9994792437966959  0.5383383096786704
  0.7790313787913542  0.1085463213132241  0.4627983291185052
  0.6663900368269741  0.9990434039345151  0.5385535092892697
  0.1112054004735896  0.4442715668747276  0.4636881223904483
  0.0001626559799703  0.3336669149833119  0.5390053518672580
  0.4452096448395093  0.4439314325619014  0.4635176289242710
  0.3326959091573504  0.3337571030833942  0.5391521409637284
  0.7774312055544257  0.4439792329397709  0.4633762557171622
  0.6698851056960209  0.3271071262728547  0.5381155406433996
  0.1100740943384903  0.7775497297793456  0.4630263248839415
  0.0007086934546561  0.6652635745541172  0.5393842972840633
  0.4450591206723167  0.7765515831390790  0.4630294848533965
  0.3292911808559366  0.6676892685305560  0.5373939847492418
  0.7790494130086241  0.7775472891383267  0.4630496732991972
  0.6697379776661924  0.6675815369173734  0.5373486312877238
  0.5314217097701407  0.6037130261145085  0.7131800283578756
 
  0.00000000E+00  0.00000000E+00  0.00000000E+00
  0.00000000E+00  0.00000000E+00  0.00000000E+00
  0.00000000E+00  0.00000000E+00  0.00000000E+00
  0.00000000E+00  0.00000000E+00  0.00000000E+00
  0.00000000E+00  0.00000000E+00  0.00000000E+00
  0.00000000E+00  0.00000000E+00  0.00000000E+00
  0.00000000E+00  0.00000000E+00  0.00000000E+00
  0.00000000E+00  0.00000000E+00  0.00000000E+00
  0.00000000E+00  0.00000000E+00  0.00000000E+00
  0.00000000E+00  0.00000000E+00  0.00000000E+00
  0.00000000E+00  0.00000000E+00  0.00000000E+00
  0.00000000E+00  0.00000000E+00  0.00000000E+00
  0.00000000E+00  0.00000000E+00  0.00000000E+00
  0.00000000E+00  0.00000000E+00  0.00000000E+00
  0.00000000E+00  0.00000000E+00  0.00000000E+00
  0.00000000E+00  0.00000000E+00  0.00000000E+00
  0.00000000E+00  0.00000000E+00  0.00000000E+00
  0.00000000E+00  0.00000000E+00  0.00000000E+00
  0.00000000E+00  0.00000000E+00  0.00000000E+00
  0.00000000E+00  0.00000000E+00  0.00000000E+00
  0.00000000E+00  0.00000000E+00  0.00000000E+00
  0.00000000E+00  0.00000000E+00  0.00000000E+00
  0.00000000E+00  0.00000000E+00  0.00000000E+00
  0.00000000E+00  0.00000000E+00  0.00000000E+00
  0.00000000E+00  0.00000000E+00  0.00000000E+00
  0.00000000E+00  0.00000000E+00  0.00000000E+00
  0.00000000E+00  0.00000000E+00  0.00000000E+00
  0.00000000E+00  0.00000000E+00  0.00000000E+00
  0.00000000E+00  0.00000000E+00  0.00000000E+00
  0.00000000E+00  0.00000000E+00  0.00000000E+00
  0.00000000E+00  0.00000000E+00  0.00000000E+00
  0.00000000E+00  0.00000000E+00  0.00000000E+00
  0.00000000E+00  0.00000000E+00  0.00000000E+00
  0.00000000E+00  0.00000000E+00  0.00000000E+00
  0.00000000E+00  0.00000000E+00  0.00000000E+00
  0.00000000E+00  0.00000000E+00  0.00000000E+00
  0.00000000E+00  0.00000000E+00  0.00000000E+00
  0.00000000E+00  0.00000000E+00  0.00000000E+00
  0.00000000E+00  0.00000000E+00  0.00000000E+00
  0.00000000E+00  0.00000000E+00  0.00000000E+00
  0.00000000E+00  0.00000000E+00  0.00000000E+00
  0.00000000E+00  0.00000000E+00  0.00000000E+00
  0.00000000E+00  0.00000000E+00  0.00000000E+00
  0.00000000E+00  0.00000000E+00  0.00000000E+00
  0.00000000E+00  0.00000000E+00  0.00000000E+00
  0.00000000E+00  0.00000000E+00  0.00000000E+00
  0.00000000E+00  0.00000000E+00  0.00000000E+00
  0.00000000E+00  0.00000000E+00  0.00000000E+00
  0.00000000E+00  0.00000000E+00  0.00000000E+00
  0.00000000E+00  0.00000000E+00  0.00000000E+00
  0.00000000E+00  0.00000000E+00  0.00000000E+00
  0.00000000E+00  0.00000000E+00  0.00000000E+00
  0.00000000E+00  0.00000000E+00  0.00000000E+00
  0.00000000E+00  0.00000000E+00  0.00000000E+00
  0.00000000E+00  0.00000000E+00  0.00000000E+00
  0.00000000E+00  0.00000000E+00  0.00000000E+00
  0.00000000E+00  0.00000000E+00  0.00000000E+00
  0.00000000E+00  0.00000000E+00  0.00000000E+00
  0.00000000E+00  0.00000000E+00  0.00000000E+00
  0.00000000E+00  0.00000000E+00  0.00000000E+00
  0.00000000E+00  0.00000000E+00  0.00000000E+00
  0.00000000E+00  0.00000000E+00  0.00000000E+00
  0.00000000E+00  0.00000000E+00  0.00000000E+00
  0.00000000E+00  0.00000000E+00  0.00000000E+00
  0.00000000E+00  0.00000000E+00  0.00000000E+00
  0.00000000E+00  0.00000000E+00  0.00000000E+00
  0.00000000E+00  0.00000000E+00  0.00000000E+00
  0.00000000E+00  0.00000000E+00  0.00000000E+00
  0.00000000E+00  0.00000000E+00  0.00000000E+00
  0.00000000E+00  0.00000000E+00  0.00000000E+00
  0.00000000E+00  0.00000000E+00  0.00000000E+00
  0.00000000E+00  0.00000000E+00  0.00000000E+00
  0.00000000E+00  0.00000000E+00  0.00000000E+00
