CONTCAR\(3)                             
   1.00000000000000     
    11.4651002884000004    0.0000000000000000    0.0000000000000000
     0.0000000000000000   11.4651002884000004    0.0000000000000000
     0.0000000000000000    0.0000000000000000   29.1504001616999986
   Sr   Mn   Cl   O    H 
    36    27    18    73     1
Direct
  0.0000154813064782 -0.0000586731142101  0.3056313533177150
 -0.0011709500101432  0.0013568124498673  0.6936194788351423
 -0.0004961168262974  0.0005799002863123  0.4375640812541679
  0.0018223507412158  0.9979453861379597  0.5634553692032918
  0.3333647776848164 -0.0001035159098736  0.3056115335443350
  0.3331529808086131  0.0012242696855494  0.6945383837079916
  0.3330961375613098  0.0008700039273546  0.4373924556350970
  0.3335506377831222  0.9982190175251384  0.5632909045965945
  0.6665961802016883 -0.0000516992370908  0.3056340783597184
  0.6687285100194594  0.0019559209326650  0.6935065304240196
  0.6673881776624299  0.0006721676643453  0.4375142334823300
  0.6646669996206465  0.9979452871178108  0.5634750193665623
  0.0000153583700743  0.3333840117981170  0.3056255261668736
 -0.0011787582715763  0.3319653403739148  0.6936143274252532
 -0.0005092309351935  0.3327452020436015  0.4375794980672176
  0.0018278822584070  0.3353466409818709  0.5634553745526232
  0.3333500488306878  0.3334139916630668  0.3056024444527182
  0.3331509635058659  0.3321013303596461  0.6945264396044170
  0.3331394436462519  0.3324878608622631  0.4373910807760319
  0.3335516684359107  0.3350830539469613  0.5632960085371764
  0.6666202479587170  0.3333541302058848  0.3056250489885359
  0.6687464949643692  0.3313597053573783  0.6934944849418817
  0.6673549900292390  0.3326967989219404  0.4375123915622737
  0.6646539373710623  0.3353628602771460  0.5634741710996122
  0.0000814813424632  0.6666768738108221  0.3056053595669846
 -0.0010156410681121  0.6666620497135693  0.6945963451984375
 -0.0006750228467903  0.6666727740592392  0.4373687519838942
  0.0014770810303331  0.6666999523093164  0.5632997427951182
  0.3333464181952989  0.6666940355782357  0.3055946000756100
  0.3341183203798184  0.6666571561530669  0.7134812215320526
  0.3331223563764392  0.6666372175590191  0.4373441128911452
  0.3338746836134811  0.6666809585531229  0.5645020858979379
  0.6665566501029083  0.6666990119412718  0.3055876363703569
  0.6678291522778512  0.6666604322963676  0.6948566569026995
  0.6675200668373519  0.6666306768895777  0.4373192093355022
  0.6647562412229506  0.6666853208845136  0.5633522902012026
  0.1668106136106876  0.1666642384936849  0.5004579277426291
  0.1673209275838614  0.1666599433705309  0.6270478520796312
  0.1665455696730168  0.1666873450581761  0.3726645116540910
  0.4998735279112489  0.1666532905057575  0.5003147432725352
  0.4993095424114748  0.1666646095326297  0.6270586436882990
  0.5000819997793213  0.1666738943263451  0.3727022127633039
  0.8333104453902944  0.1666743264189373  0.5008604079371969
  0.8335826630684062  0.1666682556759204  0.6259625273492597
  0.8333268116142011  0.1666831725707543  0.3725790077227876
  0.1671290015160119  0.5005642936972119  0.4998660154708884
  0.1694794269742794  0.5028014995888394  0.6287144014569382
  0.1665016358881576  0.4998687326267610  0.3728547956046776
  0.4995638258144313  0.5005000439727516  0.4996953050973207
  0.4976141518708053  0.5024584829419041  0.6289302562300251
  0.5001364605781693  0.4998146198734077  0.3729127416085564
  0.8332579275772436  0.5001989640944436  0.5003704698202567
  0.8333283301286175  0.5007537973978933  0.6270938273979979
  0.8333488858567746  0.4999221320058818  0.3727442967217834
  0.1671464184309308  0.8327647214937535  0.4998522372448613
  0.1694834698878993  0.8305194724869714  0.6286974786675762
  0.1665019805470092  0.8334376124669638  0.3728819433224156
  0.4995491967876208  0.8328394213380277  0.4996684530346203
  0.4976207525124444  0.8308676442023848  0.6289285095885984
  0.5001456676566607  0.8334857690145712  0.3728754889573010
  0.8332517455534765  0.8331191691900659  0.5003620987399001
  0.8333313433242268  0.8325686987251431  0.6271203677208391
  0.8333428882643058  0.8334027677038438  0.3727190668279589
  0.1666306077415886  0.1666725057350923  0.2609025528197211
  0.1664791827716980  0.1666673140202236  0.7385097586216944
  0.5000228419639710  0.1666699972654841  0.2608587600778768
  0.5000909976528284  0.1666660723490997  0.7382657428032917
  0.8333375104134343  0.1666702421442013  0.2609320644915814
  0.8337082634860681  0.1666594561907786  0.7392608582694379
  0.1666139049396473  0.4999547697948233  0.2608127572901260
  0.1581859411471954  0.4917748160553591  0.7370118675301681
  0.5000332356618238  0.4999531160402253  0.2607526332187777
  0.5092490542357228  0.4900331394182811  0.7354793588991261
  0.8333479534644294  0.4999663821768596  0.2608539922579656
  0.8335295530167515  0.4997716651017494  0.7384258279735231
  0.1666121467845250  0.8333756917340672  0.2608219129997120
  0.1581884504048674  0.8415388521156637  0.7370211235237145
  0.5000307287547604  0.8333770247503424  0.2607408954971114
  0.5092418804420545  0.8432777780299607  0.7354729211529527
  0.8333429998779620  0.8333632571687660  0.2608531059996668
  0.8335306382665595  0.8335568255801247  0.7384138431311835
  0.1666397352416763 -0.0000206607083747  0.3622406869010533
 -0.0000326949926880  0.1666539865272834  0.6367116317402618
  0.1668466070738648  0.9996266324032290  0.5000987582304716
  0.0002035363739447  0.1666689723263709  0.4999950698709758
  0.0000087968365271  0.1666645054132419  0.3623620460104059
  0.1666799854896642  0.1666738367105742  0.4350141058895403
  0.1670487801456273  0.0002141908488072  0.6372400717486705
  0.1670260368926285  0.1666585782055401  0.5649320998777014
  0.5000057816879079 -0.0000366163166619  0.3621618208818638
  0.3332252957108894  0.1666624817286814  0.6374268302063917
  0.4998374492825097  0.9996041495842982  0.5001677441113125
  0.3333133949601931  0.1666773064691640  0.4999424476630355
  0.3333064019212924  0.1666518733070874  0.3623866884828850
  0.4998830616703125  0.1666753214200065  0.4349788437888039
  0.4996153695739642  0.0004540020949667  0.6370499711889196
  0.4995671688421081  0.1666649803998249  0.5648909785784737
  0.8333264510947024  0.0000007415200936  0.3623711674319962
  0.6669805758405239  0.1666488940056482  0.6365788082009408
  0.8333065911180335  0.9997406064792670  0.5000344548265919
  0.6664709309052882  0.1666801872008505  0.4999311749098566
  0.6666745340284080  0.1666594407901049  0.3624140746325969
  0.8334198500223609  0.1666641018265560  0.4349366033794819
  0.8336774690488225  0.0001562997592285  0.6366399970689380
  0.8334004723422604  0.1666679936098926  0.5644912103646458
  0.1666305121692731  0.3333466930237868  0.3622445823262457
 -0.0001422464898437  0.5004932169855202  0.6372465616117992
  0.1668606596180462  0.3337133085901196  0.5001025470461542
  0.0003638425526229  0.5002246812051855  0.5001113930273332
  0.0000275865204220  0.4999853553339462  0.3621900576179932
  0.1670422336693565  0.5003261731782613  0.4350938239782252
  0.1670509184008114  0.3331084878398807  0.6372293092778774
  0.1666223937501389  0.5000176756846102  0.5659160651160705
  0.5000237868075469  0.3333511150920035  0.3621657566901149
  0.3333613925901496  0.5007966704937625  0.6379449623011523
  0.4998353272084332  0.3337265646380335  0.5001668109678273
  0.3333470904061739  0.5002027126376485  0.5003478612624606
  0.3333329635257807  0.4999992490304461  0.3621245105481204
  0.4996504880804504  0.5002900611083869  0.4351132153633571
  0.4996087649232122  0.3328733904869560  0.6370432062513504
  0.4998730387380181  0.5001807310405794  0.5660001033762012
  0.8333369403282724  0.3333301992584164  0.3623769012169905
  0.6671450823870749  0.5003453599780588  0.6370689194200659
  0.8332970936223451  0.3335767590505184  0.5000339925550924
  0.6662540684645433  0.5001913535420534  0.5001359639160508
  0.6666262579586221  0.4999899004126894  0.3622097224783407
  0.8332891066740752  0.5000941946170611  0.4349596982907789
  0.8336839555022811  0.3331510357409198  0.6366303504748176
  0.8335274552977882  0.5004568703059779  0.5649334733701192
  0.1666405509883046  0.6666694183879478  0.3621688914422037
 -0.0001366649570161  0.8328403711160022  0.6372505719169123
  0.1668911113224865  0.6666564753487857  0.5002769694069412
  0.0003405279870805  0.8331039209846821  0.5001133452436117
  0.0000251788920966  0.8333573154716787  0.3621773181509247
  0.1670259369745866  0.8330004239363559  0.4350477351966734
  0.1676801798961738  0.6666707165544687  0.6379469862358229
  0.1666229729690911  0.8333184373614920  0.5659349778752462
  0.5000011276719407  0.6666742346688798  0.3621057228613537
  0.3333581595021473  0.8325299252828564  0.6379433356664083
  0.4998129786693485  0.6666618430593225  0.5002740903269552
  0.3333558654890718  0.8331144300219240  0.5003570777289680
  0.3333345214344154  0.8333543533930948  0.3621128118813324
  0.4996609558010129  0.8330299604892817  0.4351339373529614
  0.4992239253335171  0.6666648152726349  0.6380611155685962
  0.4998591521133614  0.8331429068664937  0.5660158711732599
  0.8333366699676705  0.6666686007823739  0.3623584120425004
  0.6671327010112448  0.8329843056464714  0.6370652835558493
  0.8332633306967777  0.6666785409442002  0.4999412716573405
  0.6662637101651012  0.8331262080857026  0.5001376304086190
  0.6666112199589618  0.8333544774864018  0.3621997064700743
  0.8332810867760558  0.8332396847428011  0.4349778724457009
  0.8333465777935146  0.6666687715712065  0.6374894336467056
  0.8335382228462059  0.8328686380762673  0.5649299081985870
  0.3448037208756665  0.6665859244753212  0.7905876100631030
  0.3475145555861882  0.6664636116425156  0.8233807610806578
 
  0.00000000E+00  0.00000000E+00  0.00000000E+00
  0.00000000E+00  0.00000000E+00  0.00000000E+00
  0.00000000E+00  0.00000000E+00  0.00000000E+00
  0.00000000E+00  0.00000000E+00  0.00000000E+00
  0.00000000E+00  0.00000000E+00  0.00000000E+00
  0.00000000E+00  0.00000000E+00  0.00000000E+00
  0.00000000E+00  0.00000000E+00  0.00000000E+00
  0.00000000E+00  0.00000000E+00  0.00000000E+00
  0.00000000E+00  0.00000000E+00  0.00000000E+00
  0.00000000E+00  0.00000000E+00  0.00000000E+00
  0.00000000E+00  0.00000000E+00  0.00000000E+00
  0.00000000E+00  0.00000000E+00  0.00000000E+00
  0.00000000E+00  0.00000000E+00  0.00000000E+00
  0.00000000E+00  0.00000000E+00  0.00000000E+00
  0.00000000E+00  0.00000000E+00  0.00000000E+00
  0.00000000E+00  0.00000000E+00  0.00000000E+00
  0.00000000E+00  0.00000000E+00  0.00000000E+00
  0.00000000E+00  0.00000000E+00  0.00000000E+00
  0.00000000E+00  0.00000000E+00  0.00000000E+00
  0.00000000E+00  0.00000000E+00  0.00000000E+00
  0.00000000E+00  0.00000000E+00  0.00000000E+00
  0.00000000E+00  0.00000000E+00  0.00000000E+00
  0.00000000E+00  0.00000000E+00  0.00000000E+00
  0.00000000E+00  0.00000000E+00  0.00000000E+00
  0.00000000E+00  0.00000000E+00  0.00000000E+00
  0.00000000E+00  0.00000000E+00  0.00000000E+00
  0.00000000E+00  0.00000000E+00  0.00000000E+00
  0.00000000E+00  0.00000000E+00  0.00000000E+00
  0.00000000E+00  0.00000000E+00  0.00000000E+00
  0.00000000E+00  0.00000000E+00  0.00000000E+00
  0.00000000E+00  0.00000000E+00  0.00000000E+00
  0.00000000E+00  0.00000000E+00  0.00000000E+00
  0.00000000E+00  0.00000000E+00  0.00000000E+00
  0.00000000E+00  0.00000000E+00  0.00000000E+00
  0.00000000E+00  0.00000000E+00  0.00000000E+00
  0.00000000E+00  0.00000000E+00  0.00000000E+00
  0.00000000E+00  0.00000000E+00  0.00000000E+00
  0.00000000E+00  0.00000000E+00  0.00000000E+00
  0.00000000E+00  0.00000000E+00  0.00000000E+00
  0.00000000E+00  0.00000000E+00  0.00000000E+00
  0.00000000E+00  0.00000000E+00  0.00000000E+00
  0.00000000E+00  0.00000000E+00  0.00000000E+00
  0.00000000E+00  0.00000000E+00  0.00000000E+00
  0.00000000E+00  0.00000000E+00  0.00000000E+00
  0.00000000E+00  0.00000000E+00  0.00000000E+00
  0.00000000E+00  0.00000000E+00  0.00000000E+00
  0.00000000E+00  0.00000000E+00  0.00000000E+00
  0.00000000E+00  0.00000000E+00  0.00000000E+00
  0.00000000E+00  0.00000000E+00  0.00000000E+00
  0.00000000E+00  0.00000000E+00  0.00000000E+00
  0.00000000E+00  0.00000000E+00  0.00000000E+00
  0.00000000E+00  0.00000000E+00  0.00000000E+00
  0.00000000E+00  0.00000000E+00  0.00000000E+00
  0.00000000E+00  0.00000000E+00  0.00000000E+00
  0.00000000E+00  0.00000000E+00  0.00000000E+00
  0.00000000E+00  0.00000000E+00  0.00000000E+00
  0.00000000E+00  0.00000000E+00  0.00000000E+00
  0.00000000E+00  0.00000000E+00  0.00000000E+00
  0.00000000E+00  0.00000000E+00  0.00000000E+00
  0.00000000E+00  0.00000000E+00  0.00000000E+00
  0.00000000E+00  0.00000000E+00  0.00000000E+00
  0.00000000E+00  0.00000000E+00  0.00000000E+00
  0.00000000E+00  0.00000000E+00  0.00000000E+00
  0.00000000E+00  0.00000000E+00  0.00000000E+00
  0.00000000E+00  0.00000000E+00  0.00000000E+00
  0.00000000E+00  0.00000000E+00  0.00000000E+00
  0.00000000E+00  0.00000000E+00  0.00000000E+00
  0.00000000E+00  0.00000000E+00  0.00000000E+00
  0.00000000E+00  0.00000000E+00  0.00000000E+00
  0.00000000E+00  0.00000000E+00  0.00000000E+00
  0.00000000E+00  0.00000000E+00  0.00000000E+00
  0.00000000E+00  0.00000000E+00  0.00000000E+00
  0.00000000E+00  0.00000000E+00  0.00000000E+00
  0.00000000E+00  0.00000000E+00  0.00000000E+00
  0.00000000E+00  0.00000000E+00  0.00000000E+00
  0.00000000E+00  0.00000000E+00  0.00000000E+00
  0.00000000E+00  0.00000000E+00  0.00000000E+00
  0.00000000E+00  0.00000000E+00  0.00000000E+00
  0.00000000E+00  0.00000000E+00  0.00000000E+00
  0.00000000E+00  0.00000000E+00  0.00000000E+00
  0.00000000E+00  0.00000000E+00  0.00000000E+00
  0.00000000E+00  0.00000000E+00  0.00000000E+00
  0.00000000E+00  0.00000000E+00  0.00000000E+00
  0.00000000E+00  0.00000000E+00  0.00000000E+00
  0.00000000E+00  0.00000000E+00  0.00000000E+00
  0.00000000E+00  0.00000000E+00  0.00000000E+00
  0.00000000E+00  0.00000000E+00  0.00000000E+00
  0.00000000E+00  0.00000000E+00  0.00000000E+00
  0.00000000E+00  0.00000000E+00  0.00000000E+00
  0.00000000E+00  0.00000000E+00  0.00000000E+00
  0.00000000E+00  0.00000000E+00  0.00000000E+00
  0.00000000E+00  0.00000000E+00  0.00000000E+00
  0.00000000E+00  0.00000000E+00  0.00000000E+00
  0.00000000E+00  0.00000000E+00  0.00000000E+00
  0.00000000E+00  0.00000000E+00  0.00000000E+00
  0.00000000E+00  0.00000000E+00  0.00000000E+00
  0.00000000E+00  0.00000000E+00  0.00000000E+00
  0.00000000E+00  0.00000000E+00  0.00000000E+00
  0.00000000E+00  0.00000000E+00  0.00000000E+00
  0.00000000E+00  0.00000000E+00  0.00000000E+00
  0.00000000E+00  0.00000000E+00  0.00000000E+00
  0.00000000E+00  0.00000000E+00  0.00000000E+00
  0.00000000E+00  0.00000000E+00  0.00000000E+00
  0.00000000E+00  0.00000000E+00  0.00000000E+00
  0.00000000E+00  0.00000000E+00  0.00000000E+00
  0.00000000E+00  0.00000000E+00  0.00000000E+00
  0.00000000E+00  0.00000000E+00  0.00000000E+00
  0.00000000E+00  0.00000000E+00  0.00000000E+00
  0.00000000E+00  0.00000000E+00  0.00000000E+00
  0.00000000E+00  0.00000000E+00  0.00000000E+00
  0.00000000E+00  0.00000000E+00  0.00000000E+00
  0.00000000E+00  0.00000000E+00  0.00000000E+00
  0.00000000E+00  0.00000000E+00  0.00000000E+00
  0.00000000E+00  0.00000000E+00  0.00000000E+00
  0.00000000E+00  0.00000000E+00  0.00000000E+00
  0.00000000E+00  0.00000000E+00  0.00000000E+00
  0.00000000E+00  0.00000000E+00  0.00000000E+00
  0.00000000E+00  0.00000000E+00  0.00000000E+00
  0.00000000E+00  0.00000000E+00  0.00000000E+00
  0.00000000E+00  0.00000000E+00  0.00000000E+00
  0.00000000E+00  0.00000000E+00  0.00000000E+00
  0.00000000E+00  0.00000000E+00  0.00000000E+00
  0.00000000E+00  0.00000000E+00  0.00000000E+00
  0.00000000E+00  0.00000000E+00  0.00000000E+00
  0.00000000E+00  0.00000000E+00  0.00000000E+00
  0.00000000E+00  0.00000000E+00  0.00000000E+00
  0.00000000E+00  0.00000000E+00  0.00000000E+00
  0.00000000E+00  0.00000000E+00  0.00000000E+00
  0.00000000E+00  0.00000000E+00  0.00000000E+00
  0.00000000E+00  0.00000000E+00  0.00000000E+00
  0.00000000E+00  0.00000000E+00  0.00000000E+00
  0.00000000E+00  0.00000000E+00  0.00000000E+00
  0.00000000E+00  0.00000000E+00  0.00000000E+00
  0.00000000E+00  0.00000000E+00  0.00000000E+00
  0.00000000E+00  0.00000000E+00  0.00000000E+00
  0.00000000E+00  0.00000000E+00  0.00000000E+00
  0.00000000E+00  0.00000000E+00  0.00000000E+00
  0.00000000E+00  0.00000000E+00  0.00000000E+00
  0.00000000E+00  0.00000000E+00  0.00000000E+00
  0.00000000E+00  0.00000000E+00  0.00000000E+00
  0.00000000E+00  0.00000000E+00  0.00000000E+00
  0.00000000E+00  0.00000000E+00  0.00000000E+00
  0.00000000E+00  0.00000000E+00  0.00000000E+00
  0.00000000E+00  0.00000000E+00  0.00000000E+00
  0.00000000E+00  0.00000000E+00  0.00000000E+00
  0.00000000E+00  0.00000000E+00  0.00000000E+00
  0.00000000E+00  0.00000000E+00  0.00000000E+00
  0.00000000E+00  0.00000000E+00  0.00000000E+00
  0.00000000E+00  0.00000000E+00  0.00000000E+00
  0.00000000E+00  0.00000000E+00  0.00000000E+00
  0.00000000E+00  0.00000000E+00  0.00000000E+00
  0.00000000E+00  0.00000000E+00  0.00000000E+00
  0.00000000E+00  0.00000000E+00  0.00000000E+00
  0.00000000E+00  0.00000000E+00  0.00000000E+00
  0.00000000E+00  0.00000000E+00  0.00000000E+00
