CONTCAR                                 
   1.00000000000000     
    14.1827001571999993    0.0000000000000000    0.0000000000000000
     0.0000000000000000   18.7943000793000010    0.0000000000000000
     0.0000000000000000    0.0000000000000000   21.0296001433999997
   Ta   Pt   Se   O    H 
    16     8    56     1     1
Selective dynamics
Direct
  0.1868107095778058  0.4184542681405858  0.5594058040672607   F   F   F
  0.0608667453663756  0.5770627856547250  0.4356283117842494   F   F   F
  0.0606149979416273  0.9016740895061872  0.4900397763681852   F   F   F
  0.1879707941356159  0.0953641216326275  0.5075567016931046   F   F   F
  0.4341473583829156  0.4178162896827118  0.5599698154142487   F   F   F
  0.3105374925548929  0.5761512294887012  0.4357579148551523   F   F   F
  0.3106714422292995  0.9018487488610063  0.4904520932289742   F   F   F
  0.4352528114707752  0.0962001635277687  0.5138407666586176   F   F   F
  0.6847256385497289  0.4196925020696511  0.5610221781831441   F   F   F
  0.5605499957137710  0.5763036612008960  0.4364035632978585   F   F   F
  0.5600884204439680  0.9019790200745632  0.4910254868302744   F   F   F
  0.6861156012973737  0.0941950863405054  0.5126959571402168   F   F   F
  0.9351900428819562  0.4198480894356109  0.5604539496180792   F   F   F
  0.8105201609225432  0.5765848605512502  0.4360894594798879   F   F   F
  0.8101110044307305  0.9015930225346480  0.4906018343518568   F   F   F
  0.9370633031476387  0.0945377087676960  0.5099493035396065   F   F   F
  0.0599181792589292  0.2243989586300046  0.5323592954508882   F   F   F
  0.1859988846149321  0.7724272134655124  0.4651825617388354   F   F   F
  0.3083965597696192  0.2210151457351373  0.5256613627865221   F   F   F
  0.4357475127011625  0.7724196361292357  0.4658634084199775   F   F   F
  0.5598636206460696  0.2224859481692079  0.5374592009999120   F   F   F
  0.6856600862923869  0.7724404613509606  0.4661103322070161   F   F   F
  0.8102033337443046  0.2232911320603179  0.5341018046780874   F   F   F
  0.9359482546680411  0.7724363712124642  0.4652287469166012   F   F   F
  0.0611639316616106  0.6947148264885925  0.5140567275272900   F   F   F
  0.1790493631062802  0.3038267276524778  0.4789085726936619   F   F   F
  0.0584267505494083  0.4335876330870079  0.4657222826571541   F   F   F
  0.1860180709813974  0.5629878841542180  0.5298294568584154   F   F   F
  0.1855749020871897  0.5250193229902891  0.3555706020478979   F   F   F
  0.0611787300188453  0.4721912927020000  0.6389341143017049   F   F   F
  0.1859304154161805  0.9804012238618469  0.4295060752760236   F   F   F
  0.0610184262614482  0.0156497771440414  0.5690265902661764   F   F   F
  0.0607281952256571  0.3338242002268217  0.6119467148329960   F   F   F
  0.1861406254521114  0.6633031191172236  0.3842728724459974   F   F   F
  0.1888246260411606  0.1730735788723266  0.6037927836542636   F   F   F
  0.0608224109387692  0.8254952946190741  0.3921723196437767   F   F   F
  0.0591921772558663  0.1429744449920065  0.4312023784792203   F   F   F
  0.1856083060040703  0.8521823333686740  0.5673573641125600   F   F   F
  0.3109213776874284  0.6941249068892574  0.5142625020165639   F   F   F
  0.4370045222931012  0.2978446545985847  0.4827592347760259   F   F   F
  0.3103234690422738  0.4320372414345570  0.4645094221885486   F   F   F
  0.4354401751823076  0.5623128763889511  0.5298760502892108   F   F   F
  0.4362568311265207  0.5249032056277301  0.3558047774397437   F   F   F
  0.3103193397949866  0.4700608680318936  0.6387003746457296   F   F   F
  0.4357706843826108  0.9825865174581452  0.4322967107959030   F   F   F
  0.3081733556389707  0.0152806632046776  0.5707354168580281   F   F   F
  0.3101500479361121  0.3266924233741690  0.6067191421196085   F   F   F
  0.4358224404172830  0.6629323159329914  0.3848087246888028   F   F   F
  0.4394781126621368  0.1689310354205347  0.6163542246122660   F   F   F
  0.3115674070869900  0.8257965714762037  0.3925798000991776   F   F   F
  0.3121538440928120  0.1390300672647271  0.4290493014871899   F   F   F
  0.4353073323769010  0.8522933675940436  0.5680762951685736   F   F   F
  0.5606859457956404  0.6943789896504029  0.5148349242404393   F   F   F
  0.6837705063620447  0.2997915180251525  0.4852380952191311   F   F   F
  0.5603844505014806  0.4327644433148166  0.4663506520469767   F   F   F
  0.6863359848150736  0.5633687339283213  0.5305975284965854   F   F   F
  0.6857885933800958  0.5251152506792351  0.3561857405429620   F   F   F
  0.5588928612776698  0.4730954549649198  0.6391146153094027   F   F   F
  0.6855060543321514  0.9812861474037149  0.4313312776116476   F   F   F
  0.5589570348939361  0.0151301572079205  0.5711777539697067   F   F   F
  0.5597342982977622  0.3339983901733703  0.6144304766819602   F   F   F
  0.6855004161040128  0.6632050268405862  0.3851930995109072   F   F   F
  0.6874369738569897  0.1716191367740336  0.6096403725724358   F   F   F
  0.5606693505596851  0.8259943920643025  0.3931368346786499   F   F   F
  0.5597954948613264  0.1425143307981784  0.4354143750591604   F   F   F
  0.6855896214653541  0.8526026180453030  0.5682371939960689   F   F   F
  0.8113654511002650  0.6944399048485792  0.5145432816074234   F   F   F
  0.9333714244213525  0.3009938373605436  0.4831489043954136   F   F   F
  0.8090813977984723  0.4325121324446641  0.4663506734744729   F   F   F
  0.9364369870156963  0.5632637674718808  0.5296927075092484   F   F   F
  0.9357058177859230  0.5248621140881085  0.3562256243672195   F   F   F
  0.8103652172150788  0.4726841484719273  0.6399925280286780   F   F   F
  0.9353332976477731  0.9808303396959630  0.4302977565083879   F   F   F
  0.8107963781043352  0.0149007520074917  0.5709872736536568   F   F   F
  0.8101993765600213  0.3340440143263379  0.6132212582865719   F   F   F
  0.9354543188314750  0.6633863721934219  0.3844634790194092   F   F   F
  0.9365449365542631  0.1714004739564885  0.6071147608628991   F   F   F
  0.8099843296201925  0.8256044301909427  0.3927287056962498   F   F   F
  0.8087248117594541  0.1419287185606422  0.4333223042966026   F   F   F
  0.9359646555764911  0.8523304892009165  0.5674130663631942   F   F   F
  0.5189033106859213  0.1204213840694521  0.6778965041650054   T   T   T
  0.5190223573571302  0.1526738370474092  0.7137641558146220   T   T   T
 
  0.00000000E+00  0.00000000E+00  0.00000000E+00
  0.00000000E+00  0.00000000E+00  0.00000000E+00
  0.00000000E+00  0.00000000E+00  0.00000000E+00
  0.00000000E+00  0.00000000E+00  0.00000000E+00
  0.00000000E+00  0.00000000E+00  0.00000000E+00
  0.00000000E+00  0.00000000E+00  0.00000000E+00
  0.00000000E+00  0.00000000E+00  0.00000000E+00
  0.00000000E+00  0.00000000E+00  0.00000000E+00
  0.00000000E+00  0.00000000E+00  0.00000000E+00
  0.00000000E+00  0.00000000E+00  0.00000000E+00
  0.00000000E+00  0.00000000E+00  0.00000000E+00
  0.00000000E+00  0.00000000E+00  0.00000000E+00
  0.00000000E+00  0.00000000E+00  0.00000000E+00
  0.00000000E+00  0.00000000E+00  0.00000000E+00
  0.00000000E+00  0.00000000E+00  0.00000000E+00
  0.00000000E+00  0.00000000E+00  0.00000000E+00
  0.00000000E+00  0.00000000E+00  0.00000000E+00
  0.00000000E+00  0.00000000E+00  0.00000000E+00
  0.00000000E+00  0.00000000E+00  0.00000000E+00
  0.00000000E+00  0.00000000E+00  0.00000000E+00
  0.00000000E+00  0.00000000E+00  0.00000000E+00
  0.00000000E+00  0.00000000E+00  0.00000000E+00
  0.00000000E+00  0.00000000E+00  0.00000000E+00
  0.00000000E+00  0.00000000E+00  0.00000000E+00
  0.00000000E+00  0.00000000E+00  0.00000000E+00
  0.00000000E+00  0.00000000E+00  0.00000000E+00
  0.00000000E+00  0.00000000E+00  0.00000000E+00
  0.00000000E+00  0.00000000E+00  0.00000000E+00
  0.00000000E+00  0.00000000E+00  0.00000000E+00
  0.00000000E+00  0.00000000E+00  0.00000000E+00
  0.00000000E+00  0.00000000E+00  0.00000000E+00
  0.00000000E+00  0.00000000E+00  0.00000000E+00
  0.00000000E+00  0.00000000E+00  0.00000000E+00
  0.00000000E+00  0.00000000E+00  0.00000000E+00
  0.00000000E+00  0.00000000E+00  0.00000000E+00
  0.00000000E+00  0.00000000E+00  0.00000000E+00
  0.00000000E+00  0.00000000E+00  0.00000000E+00
  0.00000000E+00  0.00000000E+00  0.00000000E+00
  0.00000000E+00  0.00000000E+00  0.00000000E+00
  0.00000000E+00  0.00000000E+00  0.00000000E+00
  0.00000000E+00  0.00000000E+00  0.00000000E+00
  0.00000000E+00  0.00000000E+00  0.00000000E+00
  0.00000000E+00  0.00000000E+00  0.00000000E+00
  0.00000000E+00  0.00000000E+00  0.00000000E+00
  0.00000000E+00  0.00000000E+00  0.00000000E+00
  0.00000000E+00  0.00000000E+00  0.00000000E+00
  0.00000000E+00  0.00000000E+00  0.00000000E+00
  0.00000000E+00  0.00000000E+00  0.00000000E+00
  0.00000000E+00  0.00000000E+00  0.00000000E+00
  0.00000000E+00  0.00000000E+00  0.00000000E+00
  0.00000000E+00  0.00000000E+00  0.00000000E+00
  0.00000000E+00  0.00000000E+00  0.00000000E+00
  0.00000000E+00  0.00000000E+00  0.00000000E+00
  0.00000000E+00  0.00000000E+00  0.00000000E+00
  0.00000000E+00  0.00000000E+00  0.00000000E+00
  0.00000000E+00  0.00000000E+00  0.00000000E+00
  0.00000000E+00  0.00000000E+00  0.00000000E+00
  0.00000000E+00  0.00000000E+00  0.00000000E+00
  0.00000000E+00  0.00000000E+00  0.00000000E+00
  0.00000000E+00  0.00000000E+00  0.00000000E+00
  0.00000000E+00  0.00000000E+00  0.00000000E+00
  0.00000000E+00  0.00000000E+00  0.00000000E+00
  0.00000000E+00  0.00000000E+00  0.00000000E+00
  0.00000000E+00  0.00000000E+00  0.00000000E+00
  0.00000000E+00  0.00000000E+00  0.00000000E+00
  0.00000000E+00  0.00000000E+00  0.00000000E+00
  0.00000000E+00  0.00000000E+00  0.00000000E+00
  0.00000000E+00  0.00000000E+00  0.00000000E+00
  0.00000000E+00  0.00000000E+00  0.00000000E+00
  0.00000000E+00  0.00000000E+00  0.00000000E+00
  0.00000000E+00  0.00000000E+00  0.00000000E+00
  0.00000000E+00  0.00000000E+00  0.00000000E+00
  0.00000000E+00  0.00000000E+00  0.00000000E+00
  0.00000000E+00  0.00000000E+00  0.00000000E+00
  0.00000000E+00  0.00000000E+00  0.00000000E+00
  0.00000000E+00  0.00000000E+00  0.00000000E+00
  0.00000000E+00  0.00000000E+00  0.00000000E+00
  0.00000000E+00  0.00000000E+00  0.00000000E+00
  0.00000000E+00  0.00000000E+00  0.00000000E+00
  0.00000000E+00  0.00000000E+00  0.00000000E+00
  0.00000000E+00  0.00000000E+00  0.00000000E+00
  0.00000000E+00  0.00000000E+00  0.00000000E+00
