 Mn2 Ga2 S5                             
   1.00000000000000     
     3.6431365746070501    0.0000000000000000    0.0000000000000000
    -1.8215682873035250    3.1551691884809312    0.0000000000000000
     0.0000000000000000    0.0000000000000000   27.0860536333480013
   Mn   Ga   S 
     2     2     5
Direct
  0.3335551979349314  0.6671103636368453  0.4455105420424258
  0.6664447924814582  0.3328896445328751  0.5544881428279697
  0.3328672263244549  0.6657343708843272  0.6850017018502460
  0.6671326958294332  0.3342654689069268  0.3149983056633754
 -0.0000000182047331 -0.0000000170282659  0.4999996173365369
  0.3330542313639327  0.6661096397559011  0.6030828945216637
  0.6669458252446913  0.3338904474459152  0.3969171758390633
  0.3338128544756184  0.6676260936146269  0.2763291640874235
  0.6661871945502138  0.3323739882508494  0.7236724558312947
 
  0.00000000E+00  0.00000000E+00  0.00000000E+00
  0.00000000E+00  0.00000000E+00  0.00000000E+00
  0.00000000E+00  0.00000000E+00  0.00000000E+00
  0.00000000E+00  0.00000000E+00  0.00000000E+00
  0.00000000E+00  0.00000000E+00  0.00000000E+00
  0.00000000E+00  0.00000000E+00  0.00000000E+00
  0.00000000E+00  0.00000000E+00  0.00000000E+00
  0.00000000E+00  0.00000000E+00  0.00000000E+00
  0.00000000E+00  0.00000000E+00  0.00000000E+00
