CONTCAR\(5)                             
   1.00000000000000     
    15.0899000167999997    0.0000000000000000    0.0000000000000000
     0.0000000000000000   15.0899000167999997    0.0000000000000000
     0.0000000000000000    0.0000000000000000   20.7000007629000002
   Eu   Br   O 
    32    32    32
Direct
  0.0000000000000000  0.1250000000000000  0.4305399859999994
  0.1250000000000000  0.0000000000000000  0.5694699650000032
  0.2500000000000000  0.1250000000000000  0.4305399859999994
  0.3749999919999993  0.0000000000000000  0.5694699650000032
  0.5000000000000000  0.1250000000000000  0.4305399859999994
  0.6250000080000007  0.0000000000000000  0.5694699650000032
  0.7499999839999987  0.1250000000000000  0.4305399859999994
  0.8750000240000020  0.0000000000000000  0.5694699650000032
  0.0000000000000000  0.3749999919999993  0.4305399859999994
  0.1250000000000000  0.2500000000000000  0.5694699650000032
  0.2500000000000000  0.3749999919999993  0.4305399859999994
  0.3749999919999993  0.2500000000000000  0.5694699650000032
  0.5000000000000000  0.3749999919999993  0.4305399859999994
  0.6250000080000007  0.2500000000000000  0.5694699650000032
  0.7499999839999987  0.3749999919999993  0.4305399859999994
  0.8750000240000020  0.2500000000000000  0.5694699650000032
  0.0000000000000000  0.6250000080000007  0.4305399859999994
  0.1250000000000000  0.5000000000000000  0.5694699650000032
  0.2500000000000000  0.6250000080000007  0.4305399859999994
  0.3749999919999993  0.5000000000000000  0.5694699650000032
  0.5000000000000000  0.6250000080000007  0.4305399859999994
  0.6250000080000007  0.5000000000000000  0.5694699650000032
  0.7499999839999987  0.6250000080000007  0.4305399859999994
  0.8750000240000020  0.5000000000000000  0.5694699650000032
  0.0000000000000000  0.8750000240000020  0.4305399859999994
  0.1250000000000000  0.7499999839999987  0.5694699650000032
  0.2500000000000000  0.8750000240000020  0.4305399859999994
  0.3749999919999993  0.7499999839999987  0.5694699650000032
  0.5000000000000000  0.8750000240000020  0.4305399859999994
  0.6250000080000007  0.7499999839999987  0.5694699650000032
  0.7499999839999987  0.8750000240000020  0.4305399859999994
  0.8750000240000020  0.7499999839999987  0.5694699650000032
  0.0000000000000000  0.1250000000000000  0.6475899870000035
  0.1250000000000000  0.0000000000000000  0.3524200109999995
  0.2500000000000000  0.1250000000000000  0.6475899870000035
  0.3749999919999993  0.0000000000000000  0.3524200109999995
  0.5000000000000000  0.1250000000000000  0.6475899870000035
  0.6250000080000007  0.0000000000000000  0.3524200109999995
  0.7499999839999987  0.1250000000000000  0.6475899870000035
  0.8750000240000020  0.0000000000000000  0.3524200109999995
  0.0000000000000000  0.3749999919999993  0.6475899870000035
  0.1250000000000000  0.2500000000000000  0.3524200109999995
  0.2500000000000000  0.3749999919999993  0.6475899870000035
  0.3749999919999993  0.2500000000000000  0.3524200109999995
  0.5000000000000000  0.3749999919999993  0.6475899870000035
  0.6250000080000007  0.2500000000000000  0.3524200109999995
  0.7499999839999987  0.3749999919999993  0.6475899870000035
  0.8750000240000020  0.2500000000000000  0.3524200109999995
  0.0000000000000000  0.6250000080000007  0.6475899870000035
  0.1250000000000000  0.5000000000000000  0.3524200109999995
  0.2500000000000000  0.6250000080000007  0.6475899870000035
  0.3749999919999993  0.5000000000000000  0.3524200109999995
  0.5000000000000000  0.6250000080000007  0.6475899870000035
  0.6250000080000007  0.5000000000000000  0.3524200109999995
  0.7499999839999987  0.6250000080000007  0.6475899870000035
  0.8750000240000020  0.5000000000000000  0.3524200109999995
  0.0000000000000000  0.8750000240000020  0.6475899870000035
  0.1250000000000000  0.7499999839999987  0.3524200109999995
  0.2500000000000000  0.8750000240000020  0.6475899870000035
  0.3749999919999993  0.7499999839999987  0.3524200109999995
  0.5000000000000000  0.8750000240000020  0.6475899870000035
  0.6250000080000007  0.7499999839999987  0.3524200109999995
  0.7499999839999987  0.8750000240000020  0.6475899870000035
  0.8750000240000020  0.7499999839999987  0.3524200109999995
  0.1250000000000000  0.1250000000000000  0.5000000000000000
  0.0000000000000000  0.0000000000000000  0.5000000000000000
  0.3749999919999993  0.1250000000000000  0.5000000000000000
  0.2500000000000000  0.0000000000000000  0.5000000000000000
  0.6250000080000007  0.1250000000000000  0.5000000000000000
  0.5000000000000000  0.0000000000000000  0.5000000000000000
  0.8750000240000020  0.1250000000000000  0.5000000000000000
  0.7499999839999987  0.0000000000000000  0.5000000000000000
  0.1250000000000000  0.3749999919999993  0.5000000000000000
  0.0000000000000000  0.2500000000000000  0.5000000000000000
  0.3749999919999993  0.3749999919999993  0.5000000000000000
  0.2500000000000000  0.2500000000000000  0.5000000000000000
  0.6250000080000007  0.3749999919999993  0.5000000000000000
  0.5000000000000000  0.2500000000000000  0.5000000000000000
  0.8750000240000020  0.3749999919999993  0.5000000000000000
  0.7499999839999987  0.2500000000000000  0.5000000000000000
  0.1250000000000000  0.6250000080000007  0.5000000000000000
  0.0000000000000000  0.5000000000000000  0.5000000000000000
  0.3749999919999993  0.6250000080000007  0.5000000000000000
  0.2500000000000000  0.5000000000000000  0.5000000000000000
  0.6250000080000007  0.6250000080000007  0.5000000000000000
  0.5000000000000000  0.5000000000000000  0.5000000000000000
  0.8750000240000020  0.6250000080000007  0.5000000000000000
  0.7499999839999987  0.5000000000000000  0.5000000000000000
  0.1250000000000000  0.8750000240000020  0.5000000000000000
  0.0000000000000000  0.7499999839999987  0.5000000000000000
  0.3749999919999993  0.8750000240000020  0.5000000000000000
  0.2500000000000000  0.7499999839999987  0.5000000000000000
  0.6250000080000007  0.8750000240000020  0.5000000000000000
  0.5000000000000000  0.7499999839999987  0.5000000000000000
  0.8750000240000020  0.8750000240000020  0.5000000000000000
  0.7499999839999987  0.7499999839999987  0.5000000000000000
 
  0.00000000E+00  0.00000000E+00  0.00000000E+00
  0.00000000E+00  0.00000000E+00  0.00000000E+00
  0.00000000E+00  0.00000000E+00  0.00000000E+00
  0.00000000E+00  0.00000000E+00  0.00000000E+00
  0.00000000E+00  0.00000000E+00  0.00000000E+00
  0.00000000E+00  0.00000000E+00  0.00000000E+00
  0.00000000E+00  0.00000000E+00  0.00000000E+00
  0.00000000E+00  0.00000000E+00  0.00000000E+00
  0.00000000E+00  0.00000000E+00  0.00000000E+00
  0.00000000E+00  0.00000000E+00  0.00000000E+00
  0.00000000E+00  0.00000000E+00  0.00000000E+00
  0.00000000E+00  0.00000000E+00  0.00000000E+00
  0.00000000E+00  0.00000000E+00  0.00000000E+00
  0.00000000E+00  0.00000000E+00  0.00000000E+00
  0.00000000E+00  0.00000000E+00  0.00000000E+00
  0.00000000E+00  0.00000000E+00  0.00000000E+00
  0.00000000E+00  0.00000000E+00  0.00000000E+00
  0.00000000E+00  0.00000000E+00  0.00000000E+00
  0.00000000E+00  0.00000000E+00  0.00000000E+00
  0.00000000E+00  0.00000000E+00  0.00000000E+00
  0.00000000E+00  0.00000000E+00  0.00000000E+00
  0.00000000E+00  0.00000000E+00  0.00000000E+00
  0.00000000E+00  0.00000000E+00  0.00000000E+00
  0.00000000E+00  0.00000000E+00  0.00000000E+00
  0.00000000E+00  0.00000000E+00  0.00000000E+00
  0.00000000E+00  0.00000000E+00  0.00000000E+00
  0.00000000E+00  0.00000000E+00  0.00000000E+00
  0.00000000E+00  0.00000000E+00  0.00000000E+00
  0.00000000E+00  0.00000000E+00  0.00000000E+00
  0.00000000E+00  0.00000000E+00  0.00000000E+00
  0.00000000E+00  0.00000000E+00  0.00000000E+00
  0.00000000E+00  0.00000000E+00  0.00000000E+00
  0.00000000E+00  0.00000000E+00  0.00000000E+00
  0.00000000E+00  0.00000000E+00  0.00000000E+00
  0.00000000E+00  0.00000000E+00  0.00000000E+00
  0.00000000E+00  0.00000000E+00  0.00000000E+00
  0.00000000E+00  0.00000000E+00  0.00000000E+00
  0.00000000E+00  0.00000000E+00  0.00000000E+00
  0.00000000E+00  0.00000000E+00  0.00000000E+00
  0.00000000E+00  0.00000000E+00  0.00000000E+00
  0.00000000E+00  0.00000000E+00  0.00000000E+00
  0.00000000E+00  0.00000000E+00  0.00000000E+00
  0.00000000E+00  0.00000000E+00  0.00000000E+00
  0.00000000E+00  0.00000000E+00  0.00000000E+00
  0.00000000E+00  0.00000000E+00  0.00000000E+00
  0.00000000E+00  0.00000000E+00  0.00000000E+00
  0.00000000E+00  0.00000000E+00  0.00000000E+00
  0.00000000E+00  0.00000000E+00  0.00000000E+00
  0.00000000E+00  0.00000000E+00  0.00000000E+00
  0.00000000E+00  0.00000000E+00  0.00000000E+00
  0.00000000E+00  0.00000000E+00  0.00000000E+00
  0.00000000E+00  0.00000000E+00  0.00000000E+00
  0.00000000E+00  0.00000000E+00  0.00000000E+00
  0.00000000E+00  0.00000000E+00  0.00000000E+00
  0.00000000E+00  0.00000000E+00  0.00000000E+00
  0.00000000E+00  0.00000000E+00  0.00000000E+00
  0.00000000E+00  0.00000000E+00  0.00000000E+00
  0.00000000E+00  0.00000000E+00  0.00000000E+00
  0.00000000E+00  0.00000000E+00  0.00000000E+00
  0.00000000E+00  0.00000000E+00  0.00000000E+00
  0.00000000E+00  0.00000000E+00  0.00000000E+00
  0.00000000E+00  0.00000000E+00  0.00000000E+00
  0.00000000E+00  0.00000000E+00  0.00000000E+00
  0.00000000E+00  0.00000000E+00  0.00000000E+00
  0.00000000E+00  0.00000000E+00  0.00000000E+00
  0.00000000E+00  0.00000000E+00  0.00000000E+00
  0.00000000E+00  0.00000000E+00  0.00000000E+00
  0.00000000E+00  0.00000000E+00  0.00000000E+00
  0.00000000E+00  0.00000000E+00  0.00000000E+00
  0.00000000E+00  0.00000000E+00  0.00000000E+00
  0.00000000E+00  0.00000000E+00  0.00000000E+00
  0.00000000E+00  0.00000000E+00  0.00000000E+00
  0.00000000E+00  0.00000000E+00  0.00000000E+00
  0.00000000E+00  0.00000000E+00  0.00000000E+00
  0.00000000E+00  0.00000000E+00  0.00000000E+00
  0.00000000E+00  0.00000000E+00  0.00000000E+00
  0.00000000E+00  0.00000000E+00  0.00000000E+00
  0.00000000E+00  0.00000000E+00  0.00000000E+00
  0.00000000E+00  0.00000000E+00  0.00000000E+00
  0.00000000E+00  0.00000000E+00  0.00000000E+00
  0.00000000E+00  0.00000000E+00  0.00000000E+00
  0.00000000E+00  0.00000000E+00  0.00000000E+00
  0.00000000E+00  0.00000000E+00  0.00000000E+00
  0.00000000E+00  0.00000000E+00  0.00000000E+00
  0.00000000E+00  0.00000000E+00  0.00000000E+00
  0.00000000E+00  0.00000000E+00  0.00000000E+00
  0.00000000E+00  0.00000000E+00  0.00000000E+00
  0.00000000E+00  0.00000000E+00  0.00000000E+00
  0.00000000E+00  0.00000000E+00  0.00000000E+00
  0.00000000E+00  0.00000000E+00  0.00000000E+00
  0.00000000E+00  0.00000000E+00  0.00000000E+00
  0.00000000E+00  0.00000000E+00  0.00000000E+00
  0.00000000E+00  0.00000000E+00  0.00000000E+00
  0.00000000E+00  0.00000000E+00  0.00000000E+00
  0.00000000E+00  0.00000000E+00  0.00000000E+00
  0.00000000E+00  0.00000000E+00  0.00000000E+00
