CONTCAR                                 
   1.00000000000000     
    11.8599996566999994    0.0000000000000000    0.0000000000000000
     0.0000000000000000   16.8432006835999992    0.0000000000000000
     0.0000000000000000    0.0000000000000000   21.2530994415000016
   Y    C    I    O    H 
    24     6    30     1     1
Direct
  0.1667826210924652  0.0001223603099226  0.3883659966561576
  0.0000294861855596  0.0963582568198433  0.4997785911138421
  0.1656312126868732  0.4998638695342364  0.6133724851359470
  0.0000713886201545  0.4036712994720758  0.5006517962633245
  0.5000153558883523  0.0001045075648470  0.3885114806101958
  0.3331685741007699  0.0963435610181863  0.4999480585171885
  0.5001012152526636  0.4997652799673909  0.6305354594577879
  0.3351437906361652  0.4035539015252173  0.5018073584602750
  0.8332559220788260  0.0001190817498328  0.3883663945018525
  0.6668811489864689  0.0963528653640157  0.4999473523030351
  0.8345619491866477  0.4998559280703541  0.6133601693454573
  0.6649901104226688  0.4035603297549836  0.5017892624276367
  0.1667338522071992  0.5001500651670273  0.3903432023201481
  0.0000716057745756  0.5963481038744917  0.5008353756976111
  0.1664808709612055  0.9998662948212306  0.6112718745992143
  0.0000228631094182  0.9035960217640778  0.4996665562669354
  0.5000534274123063  0.5000882677399430  0.3912078910805978
  0.3351920756283871  0.5963718650775947  0.5019366371707495
  0.5000122597744304  0.9998791628240326  0.6113152459204996
  0.3331524946243171  0.9036205774559367  0.4998270434114536
  0.8333541537931587  0.5001593185620645  0.3903371226033668
  0.6649346156136643  0.5963745037428597  0.5019238415655978
  0.8335641534132957  0.9998599580549868  0.6112742451920342
  0.6668928411914413  0.9036195018148574  0.4998212710857077
  0.1666964614063341 -0.0000220987766372  0.4998235030905591
  0.5000443309670458 -0.0000203754865013  0.4999226610363007
  0.8333550178831967 -0.0000164190043058  0.4998239878740715
  0.1684385167227223  0.4999981227377833  0.5023313930795601
  0.5000573912996535  0.4999474734774801  0.5036301709866877
  0.8317150423815847  0.4999994679480667  0.5023247145420610
  0.0000064137257522  0.1303022531425830  0.3537311587735072
  0.0000522522404212  0.3704579733125817  0.3542804710067782
  0.0000118145640244  0.1302809998212201  0.6456878512041552
  0.1661934394429430  0.2495746421590266  0.4985875861646066
  0.0001080982915288  0.3685986428623234  0.6459187618608851
  0.3334362008954466  0.1304689091604421  0.3539497813604199
  0.3336455304324027  0.3701498366222235  0.3551175780833471
  0.3333003859512840  0.1298335829642753  0.6459079819842424
  0.5000198812897269  0.2496302552574999  0.4997241296384385
  0.3272959353265841  0.3648971263059166  0.6439783157447737
  0.6665922946528183  0.1304657254122500  0.3539431385011222
  0.6664135678534243  0.3701460642357883  0.3551129076334472
  0.6667197263012345  0.1298263261950981  0.6459103044707711
  0.8339051932261701  0.2496235629179698  0.4985576106072034
  0.6728948397261024  0.3648802930225438  0.6439179750481046
  0.0000463211543081  0.6299586056264446  0.3545082153466160
  0.0000126041345040  0.8699845214320865  0.3534907989511747
  0.0001420364031883  0.6310493703460879  0.6461983627791245
  0.1661715924723538  0.7504169952269197  0.4986813022869186
  0.0000396272407082  0.8693716247310093  0.6455910747278439
  0.3336699590194391  0.6301069402781991  0.3552664555803741
  0.3334038575892360  0.8697824836291616  0.3538315804166375
  0.3274065492686706  0.6347208711492702  0.6440850876282057
  0.5000186898977248  0.7503450865067501  0.4997457736847025
  0.3332725854490031  0.8698532158169591  0.6457372220192417
  0.6663773669836965  0.6301175886999859  0.3552568307282014
  0.6666190665534784  0.8697987732442939  0.3538191391339701
  0.6728133128775055  0.6347025354746106  0.6440783433817577
  0.8338683496469712  0.7504137553303963  0.4986807729899821
  0.6667667769536725  0.8698532690236908  0.6457307041245623
  0.5003185131275717  0.4995276116188841  0.7262405631629156
  0.5013926540065473  0.4990094515275922  0.7716409536600567
 
  0.00000000E+00  0.00000000E+00  0.00000000E+00
  0.00000000E+00  0.00000000E+00  0.00000000E+00
  0.00000000E+00  0.00000000E+00  0.00000000E+00
  0.00000000E+00  0.00000000E+00  0.00000000E+00
  0.00000000E+00  0.00000000E+00  0.00000000E+00
  0.00000000E+00  0.00000000E+00  0.00000000E+00
  0.00000000E+00  0.00000000E+00  0.00000000E+00
  0.00000000E+00  0.00000000E+00  0.00000000E+00
  0.00000000E+00  0.00000000E+00  0.00000000E+00
  0.00000000E+00  0.00000000E+00  0.00000000E+00
  0.00000000E+00  0.00000000E+00  0.00000000E+00
  0.00000000E+00  0.00000000E+00  0.00000000E+00
  0.00000000E+00  0.00000000E+00  0.00000000E+00
  0.00000000E+00  0.00000000E+00  0.00000000E+00
  0.00000000E+00  0.00000000E+00  0.00000000E+00
  0.00000000E+00  0.00000000E+00  0.00000000E+00
  0.00000000E+00  0.00000000E+00  0.00000000E+00
  0.00000000E+00  0.00000000E+00  0.00000000E+00
  0.00000000E+00  0.00000000E+00  0.00000000E+00
  0.00000000E+00  0.00000000E+00  0.00000000E+00
  0.00000000E+00  0.00000000E+00  0.00000000E+00
  0.00000000E+00  0.00000000E+00  0.00000000E+00
  0.00000000E+00  0.00000000E+00  0.00000000E+00
  0.00000000E+00  0.00000000E+00  0.00000000E+00
  0.00000000E+00  0.00000000E+00  0.00000000E+00
  0.00000000E+00  0.00000000E+00  0.00000000E+00
  0.00000000E+00  0.00000000E+00  0.00000000E+00
  0.00000000E+00  0.00000000E+00  0.00000000E+00
  0.00000000E+00  0.00000000E+00  0.00000000E+00
  0.00000000E+00  0.00000000E+00  0.00000000E+00
  0.00000000E+00  0.00000000E+00  0.00000000E+00
  0.00000000E+00  0.00000000E+00  0.00000000E+00
  0.00000000E+00  0.00000000E+00  0.00000000E+00
  0.00000000E+00  0.00000000E+00  0.00000000E+00
  0.00000000E+00  0.00000000E+00  0.00000000E+00
  0.00000000E+00  0.00000000E+00  0.00000000E+00
  0.00000000E+00  0.00000000E+00  0.00000000E+00
  0.00000000E+00  0.00000000E+00  0.00000000E+00
  0.00000000E+00  0.00000000E+00  0.00000000E+00
  0.00000000E+00  0.00000000E+00  0.00000000E+00
  0.00000000E+00  0.00000000E+00  0.00000000E+00
  0.00000000E+00  0.00000000E+00  0.00000000E+00
  0.00000000E+00  0.00000000E+00  0.00000000E+00
  0.00000000E+00  0.00000000E+00  0.00000000E+00
  0.00000000E+00  0.00000000E+00  0.00000000E+00
  0.00000000E+00  0.00000000E+00  0.00000000E+00
  0.00000000E+00  0.00000000E+00  0.00000000E+00
  0.00000000E+00  0.00000000E+00  0.00000000E+00
  0.00000000E+00  0.00000000E+00  0.00000000E+00
  0.00000000E+00  0.00000000E+00  0.00000000E+00
  0.00000000E+00  0.00000000E+00  0.00000000E+00
  0.00000000E+00  0.00000000E+00  0.00000000E+00
  0.00000000E+00  0.00000000E+00  0.00000000E+00
  0.00000000E+00  0.00000000E+00  0.00000000E+00
  0.00000000E+00  0.00000000E+00  0.00000000E+00
  0.00000000E+00  0.00000000E+00  0.00000000E+00
  0.00000000E+00  0.00000000E+00  0.00000000E+00
  0.00000000E+00  0.00000000E+00  0.00000000E+00
  0.00000000E+00  0.00000000E+00  0.00000000E+00
  0.00000000E+00  0.00000000E+00  0.00000000E+00
  0.00000000E+00  0.00000000E+00  0.00000000E+00
  0.00000000E+00  0.00000000E+00  0.00000000E+00
