CONTCAR\(2)                             
   1.00000000000000     
    12.2558002471999998    0.0000000000000000    0.0000000000000000
     6.1279165570999998   10.6146331497999995    0.0000000000000000
     0.0000000000000000    0.0000000000000000   18.0618000031000001
   Ni   P    Se   O    H 
     8     8    24     1     1
Direct
  0.1653418847993178  0.1692834512221616  0.4980384994653521
  0.3338808240026522  0.3360461961859232  0.5006691577966115
  0.6644613823172516  0.1711126954274045  0.5003789492354805
  0.8300207191208728  0.3370153846788935  0.5007091897875316
  0.1677809865876942  0.6683085550158506  0.5003340247133585
  0.3335100929243688  0.8335473408781788  0.5004972654594005
  0.6653061268917086  0.6673954606743236  0.5012626995316022
  0.8322911643216159  0.8358690686490677  0.4980049297148059
  0.9979735514458823  0.0033671897810382  0.4380367310415130
  0.4991513816391653  0.0017343575404474  0.5614100114848417
  0.4992305062569298  0.0012056295618630  0.4376872189373736
 -0.0009239722755896  0.0022461867870966  0.5618751207426027
 -0.0000244322821181  0.5019581710822775  0.4377968605330867
  0.4967767105108559  0.5040105544190691  0.5973577881869226
  0.4988574536696377  0.5023705603026153  0.4624259248193064
 -0.0003306990382030  0.5021104357033660  0.5615227747544981
  0.3211207559552607  0.9988034554666149  0.4134038076533311
  0.1785254012697196  0.0032862447163828  0.5849898506158157
  0.1797895115010812  0.3237828958381458  0.4132937534008777
  0.9952002453349945  0.1839794685042147  0.4135687220455749
  0.3190477928921014  0.1811399401999538  0.5850906538173032
  0.5009296726973187  0.3136750803914670  0.5877342091803200
  0.8173922851495413  0.0058052776315595  0.4136474221318937
  0.6786522170604937  0.0020146970414205  0.5851856829576770
  0.6712268909536128  0.3302374894487886  0.4187669161991051
  0.4986070508816330  0.1810364293217307  0.4130049514914483
  0.8199659067325304  0.1814870102324167  0.5869382802936058
 -0.0004284223842187  0.3226913113126351  0.5854833353818077
  0.3268336642644514  0.5022348372298681  0.4187057643112946
  0.1784319925208611  0.5023700086630606  0.5867931295676947
  0.1769927200956932  0.8241316627033256  0.4129168779098449
  0.0021700751670520  0.6800469949989597  0.4131868592376934
  0.3092781752036537  0.6923993675806844  0.5871918469932140
  0.4996289808618827  0.8229766600852719  0.5871113571698243
  0.8199447749756007  0.5025972012180727  0.4136264625022677
  0.6867798048545766  0.5003615408514512  0.5883957538606049
  0.6774362771906659  0.8215298327227252  0.4132672610512326
  0.4998110998441826  0.6740729289256215  0.4189267748050578
  0.8203705268913007  0.6824158661998979  0.5852335444260695
 -0.0019252682927962  0.8228188834832512  0.5848878820118474
  0.4851066746651751  0.5144652230361465  0.6898390219885669
  0.5537467358215804  0.4407891762867323  0.7142922257917765
 
  0.00000000E+00  0.00000000E+00  0.00000000E+00
  0.00000000E+00  0.00000000E+00  0.00000000E+00
  0.00000000E+00  0.00000000E+00  0.00000000E+00
  0.00000000E+00  0.00000000E+00  0.00000000E+00
  0.00000000E+00  0.00000000E+00  0.00000000E+00
  0.00000000E+00  0.00000000E+00  0.00000000E+00
  0.00000000E+00  0.00000000E+00  0.00000000E+00
  0.00000000E+00  0.00000000E+00  0.00000000E+00
  0.00000000E+00  0.00000000E+00  0.00000000E+00
  0.00000000E+00  0.00000000E+00  0.00000000E+00
  0.00000000E+00  0.00000000E+00  0.00000000E+00
  0.00000000E+00  0.00000000E+00  0.00000000E+00
  0.00000000E+00  0.00000000E+00  0.00000000E+00
  0.00000000E+00  0.00000000E+00  0.00000000E+00
  0.00000000E+00  0.00000000E+00  0.00000000E+00
  0.00000000E+00  0.00000000E+00  0.00000000E+00
  0.00000000E+00  0.00000000E+00  0.00000000E+00
  0.00000000E+00  0.00000000E+00  0.00000000E+00
  0.00000000E+00  0.00000000E+00  0.00000000E+00
  0.00000000E+00  0.00000000E+00  0.00000000E+00
  0.00000000E+00  0.00000000E+00  0.00000000E+00
  0.00000000E+00  0.00000000E+00  0.00000000E+00
  0.00000000E+00  0.00000000E+00  0.00000000E+00
  0.00000000E+00  0.00000000E+00  0.00000000E+00
  0.00000000E+00  0.00000000E+00  0.00000000E+00
  0.00000000E+00  0.00000000E+00  0.00000000E+00
  0.00000000E+00  0.00000000E+00  0.00000000E+00
  0.00000000E+00  0.00000000E+00  0.00000000E+00
  0.00000000E+00  0.00000000E+00  0.00000000E+00
  0.00000000E+00  0.00000000E+00  0.00000000E+00
  0.00000000E+00  0.00000000E+00  0.00000000E+00
  0.00000000E+00  0.00000000E+00  0.00000000E+00
  0.00000000E+00  0.00000000E+00  0.00000000E+00
  0.00000000E+00  0.00000000E+00  0.00000000E+00
  0.00000000E+00  0.00000000E+00  0.00000000E+00
  0.00000000E+00  0.00000000E+00  0.00000000E+00
  0.00000000E+00  0.00000000E+00  0.00000000E+00
  0.00000000E+00  0.00000000E+00  0.00000000E+00
  0.00000000E+00  0.00000000E+00  0.00000000E+00
  0.00000000E+00  0.00000000E+00  0.00000000E+00
  0.00000000E+00  0.00000000E+00  0.00000000E+00
  0.00000000E+00  0.00000000E+00  0.00000000E+00
