CONTCAR\(21)                            
   1.00000000000000     
    11.6593999863000004    0.0000000000000000    0.0000000000000000
    -5.8296999931000002   10.0973365810000004    0.0000000000000000
     0.0000000000000000    0.0000000000000000   24.5373001098999985
   Zn   In   S    O 
     9    18    36     1
Direct
  0.1113464278979158  0.2222894381269742  0.3292942220844675
  0.4446940831898792  0.2229204329346264  0.3292607280886904
  0.7774949278930037  0.2223738559185374  0.3293091834787029
  0.1115013522440128  0.5565446732217602  0.3280498803422612
  0.4446976243583028  0.5550144455417363  0.3292558419130349
  0.7768278971277205  0.5550826266529082  0.3293313646349921
  0.1115723066202236  0.8882814682098320  0.3280192959195652
  0.4433058283072042  0.8883129414337528  0.3280370104860562
  0.7774287307229397  0.8883389256350726  0.3292343105112190
 -0.0012506478573903  0.0012398874719706  0.4810307240163691
  0.2226556659919819  0.1090999120059216  0.6463753703736690
  0.3342628722529150  0.0016000359685700  0.4840655824333933
  0.5529834684961935  0.1090572658899933  0.6463750279447449
  0.6689807766031666  0.0012441181274259  0.4811248918576095
  0.8888743748056966  0.1111190364128385  0.6457038248840754
 -0.0012701909298675  0.3309923841131293  0.4812895380519909
  0.2226840075621435  0.4469446156395870  0.6464047851107209
  0.3382830431009243  0.3357782852669682  0.4916182329512584
  0.5554673865251198  0.4442633400698367  0.6691513251465838
  0.6641232380272399  0.3361842690253278  0.4913905318514444
  0.8907874647497377  0.4468268739940249  0.6464043677020452
 -0.0002400026357368  0.6665353597197269  0.4843002216157012
  0.2221413838772154  0.7777444122332472  0.6482832406386650
  0.3343687946353701  0.6658647019306869  0.4838910995068667
  0.5529582514248065  0.7772136951959286  0.6464031351119141
  0.6643821243556961  0.6617368499491870  0.4916416919397876
  0.8908543135440401  0.7773265693644051  0.6463828999014214
  0.2226911901757997  0.1112305425188826  0.3094297355660833
  0.2180293084587153  0.1075478110645293  0.5478450675790629
  0.1179210416416784  0.2257831664684060  0.4338302984763155
  0.1112672439042456  0.2223042715335808  0.6912367891534628
  0.5550742266763946  0.1112805308251252  0.3094415151279351
  0.5562553091182201  0.1078708536572011  0.5478320170942513
  0.4469744280020991  0.2274251452278937  0.4366374817728808
  0.4331168231298998  0.1996469563335359  0.6958344722182072
  0.8887317733027650  0.1109833252850905  0.3099985143732537
  0.8888735014250257  0.1110450431933027  0.5468794429727170
  0.7744697230309721  0.2257861401249107  0.4338360456988758
  0.7776032656048139  0.2222091927784213  0.6912607723046990
  0.2226588799771576  0.4447216107562675  0.3095078353935482
  0.2182186021730335  0.4439480897708004  0.5478747690295350
  0.1119187900330838  0.5568285477796269  0.4331205427982118
  0.1106206082069743  0.5546834551997498  0.6933407994248051
  0.5554810957592858  0.4443684964626626  0.3085874552089854
  0.5555208288092319  0.4444157204469234  0.5620491136008403
  0.4473039052844628  0.5529131048307295  0.4366824991681079
  0.4331632196927236  0.5667345237112308  0.6958672684365969
  0.8885618482520549  0.4447994387450517  0.3094441012702436
  0.8924419117179109  0.4439597405633838  0.5478795042331391
  0.7733930532416982  0.5535440612012836  0.4367606580094362
  0.8002427188319676  0.5668125835954980  0.6958220037040143
  0.2221557056082460  0.7777182023215676  0.3065252117868116
  0.2225898036579342  0.7779386400892230  0.5489230419485174
  0.1120189142224821  0.8884620810108712  0.4330869173212422
  0.1106503733684740  0.8893033990569329  0.6933359183548705
  0.5549906460909972  0.7770253604082614  0.3094327761453530
  0.5561395689160284  0.7818946089858851  0.5478572020120576
  0.4430927186704530  0.8882388219833450  0.4330930690981638
  0.4452006079417962  0.8892631764977184  0.6933299077352418
  0.8886161688803519  0.7770892074342413  0.3094347102216730
  0.8926048591967580  0.7820438185067803  0.5478674622842741
  0.7742587128636682  0.8820369802893978  0.4338020427470332
  0.7776058745834591  0.8886785121492716  0.6912382327526486
  0.5554878116587294  0.4443752661384357  0.7542663304797333
 
  0.00000000E+00  0.00000000E+00  0.00000000E+00
  0.00000000E+00  0.00000000E+00  0.00000000E+00
  0.00000000E+00  0.00000000E+00  0.00000000E+00
  0.00000000E+00  0.00000000E+00  0.00000000E+00
  0.00000000E+00  0.00000000E+00  0.00000000E+00
  0.00000000E+00  0.00000000E+00  0.00000000E+00
  0.00000000E+00  0.00000000E+00  0.00000000E+00
  0.00000000E+00  0.00000000E+00  0.00000000E+00
  0.00000000E+00  0.00000000E+00  0.00000000E+00
  0.00000000E+00  0.00000000E+00  0.00000000E+00
  0.00000000E+00  0.00000000E+00  0.00000000E+00
  0.00000000E+00  0.00000000E+00  0.00000000E+00
  0.00000000E+00  0.00000000E+00  0.00000000E+00
  0.00000000E+00  0.00000000E+00  0.00000000E+00
  0.00000000E+00  0.00000000E+00  0.00000000E+00
  0.00000000E+00  0.00000000E+00  0.00000000E+00
  0.00000000E+00  0.00000000E+00  0.00000000E+00
  0.00000000E+00  0.00000000E+00  0.00000000E+00
  0.00000000E+00  0.00000000E+00  0.00000000E+00
  0.00000000E+00  0.00000000E+00  0.00000000E+00
  0.00000000E+00  0.00000000E+00  0.00000000E+00
  0.00000000E+00  0.00000000E+00  0.00000000E+00
  0.00000000E+00  0.00000000E+00  0.00000000E+00
  0.00000000E+00  0.00000000E+00  0.00000000E+00
  0.00000000E+00  0.00000000E+00  0.00000000E+00
  0.00000000E+00  0.00000000E+00  0.00000000E+00
  0.00000000E+00  0.00000000E+00  0.00000000E+00
  0.00000000E+00  0.00000000E+00  0.00000000E+00
  0.00000000E+00  0.00000000E+00  0.00000000E+00
  0.00000000E+00  0.00000000E+00  0.00000000E+00
  0.00000000E+00  0.00000000E+00  0.00000000E+00
  0.00000000E+00  0.00000000E+00  0.00000000E+00
  0.00000000E+00  0.00000000E+00  0.00000000E+00
  0.00000000E+00  0.00000000E+00  0.00000000E+00
  0.00000000E+00  0.00000000E+00  0.00000000E+00
  0.00000000E+00  0.00000000E+00  0.00000000E+00
  0.00000000E+00  0.00000000E+00  0.00000000E+00
  0.00000000E+00  0.00000000E+00  0.00000000E+00
  0.00000000E+00  0.00000000E+00  0.00000000E+00
  0.00000000E+00  0.00000000E+00  0.00000000E+00
  0.00000000E+00  0.00000000E+00  0.00000000E+00
  0.00000000E+00  0.00000000E+00  0.00000000E+00
  0.00000000E+00  0.00000000E+00  0.00000000E+00
  0.00000000E+00  0.00000000E+00  0.00000000E+00
  0.00000000E+00  0.00000000E+00  0.00000000E+00
  0.00000000E+00  0.00000000E+00  0.00000000E+00
  0.00000000E+00  0.00000000E+00  0.00000000E+00
  0.00000000E+00  0.00000000E+00  0.00000000E+00
  0.00000000E+00  0.00000000E+00  0.00000000E+00
  0.00000000E+00  0.00000000E+00  0.00000000E+00
  0.00000000E+00  0.00000000E+00  0.00000000E+00
  0.00000000E+00  0.00000000E+00  0.00000000E+00
  0.00000000E+00  0.00000000E+00  0.00000000E+00
  0.00000000E+00  0.00000000E+00  0.00000000E+00
  0.00000000E+00  0.00000000E+00  0.00000000E+00
  0.00000000E+00  0.00000000E+00  0.00000000E+00
  0.00000000E+00  0.00000000E+00  0.00000000E+00
  0.00000000E+00  0.00000000E+00  0.00000000E+00
  0.00000000E+00  0.00000000E+00  0.00000000E+00
  0.00000000E+00  0.00000000E+00  0.00000000E+00
  0.00000000E+00  0.00000000E+00  0.00000000E+00
  0.00000000E+00  0.00000000E+00  0.00000000E+00
  0.00000000E+00  0.00000000E+00  0.00000000E+00
  0.00000000E+00  0.00000000E+00  0.00000000E+00
