CONTCAR                                 
   1.00000000000000     
     7.8445000648000001    0.0000000000000000    0.0000000000000000
     3.9223001003000002    6.7936230563000004    0.0000000000000000
     0.0000000000000000    0.0000000000000000   18.9503002167000005
   Te   Pt
     8     8
Direct
  0.3333300370000032  0.3333300190000017  0.6094478962906006
  0.3333300370000032  0.3333300190000017  0.3905320987093963
  0.8333299450000027  0.3333300190000017  0.6094478962906006
  0.8333299450000027  0.3333300190000017  0.3905320987093963
  0.3333300119999976  0.8333299769999982  0.6094478962906006
  0.3333300119999976  0.8333299769999982  0.3905320987093963
  0.8333299210000007  0.8333299769999982  0.6094478962906006
  0.8333299210000007  0.8333299769999982  0.3905320987093963
  0.1666700030000001  0.1666699929999993  0.5410247213222511
  0.0000000000000000  0.0000000000000000  0.4589952576777499
  0.6666700339999991  0.1666699929999993  0.5410247213222511
  0.5000000000000000  0.0000000000000000  0.4589952576777499
  0.1666700130000009  0.6666700039999967  0.5410247213222511
  0.0000000029999967  0.4999999939999995  0.4589952576777499
  0.6666700430000034  0.6666700039999967  0.5410247213222511
  0.4999999879999990  0.4999999939999995  0.4589952576777499
 
  0.00000000E+00  0.00000000E+00  0.00000000E+00
  0.00000000E+00  0.00000000E+00  0.00000000E+00
  0.00000000E+00  0.00000000E+00  0.00000000E+00
  0.00000000E+00  0.00000000E+00  0.00000000E+00
  0.00000000E+00  0.00000000E+00  0.00000000E+00
  0.00000000E+00  0.00000000E+00  0.00000000E+00
  0.00000000E+00  0.00000000E+00  0.00000000E+00
  0.00000000E+00  0.00000000E+00  0.00000000E+00
  0.00000000E+00  0.00000000E+00  0.00000000E+00
  0.00000000E+00  0.00000000E+00  0.00000000E+00
  0.00000000E+00  0.00000000E+00  0.00000000E+00
  0.00000000E+00  0.00000000E+00  0.00000000E+00
  0.00000000E+00  0.00000000E+00  0.00000000E+00
  0.00000000E+00  0.00000000E+00  0.00000000E+00
  0.00000000E+00  0.00000000E+00  0.00000000E+00
  0.00000000E+00  0.00000000E+00  0.00000000E+00
