CONTCAR\(2)                             
   1.00000000000000     
    13.1398000716999999    0.0000000000000000    0.0000000000000000
     0.0000000000000000   13.1344995498999992    0.0000000000000000
     0.0000000000000000    0.0000000000000000   24.5086002349999994
   Pr   Te   O    H 
    18    54     2     1
Direct
  0.1391681361825192  0.0011251130822174  0.5869387873165408
  0.3052802853816559  0.1677333172739139  0.4114207498629767
  0.4725252531610593  0.0010656635611141  0.5870968721126886
  0.6386048556802919  0.1673967452049965  0.4116896676152280
  0.8059552904018190  0.0014820481876257  0.5870787530151063
  0.9720932611707624  0.1675673801406035  0.4116215056783474
  0.1387885626809577  0.3345179694428708  0.5871375207996721
  0.3053128790058039  0.5011132429387359  0.4113090168147835
  0.4719578107305793  0.3341518627767144  0.5866526469621718
  0.6388115146887898  0.5008711998400130  0.4115595441099913
  0.8054575235118193  0.3346030665906383  0.5871618048510712
  0.9722533378132141  0.5010858306939738  0.4117461502519930
  0.1390852819246149  0.6677271913091118  0.5869228406227123
  0.3055003810092458  0.8342368016809942  0.4110248192566957
  0.4726898715906955  0.6685731055763569  0.5864187969950621
  0.6386545603938458  0.8344770717229579  0.4115156968955418
  0.8055912806417851  0.6680972202533439  0.5871528152894214
  0.9719966021986934  0.8344336233250189  0.4115317662081281
  0.1384426115434678  0.1676258739216294  0.3066811519808255
  0.3065109807435391  0.0011827826800754  0.6919782344105059
  0.3053906170615548  0.1676306392853917  0.5470594061828038
  0.1391072064241072  0.0007220956584320  0.4510206006001738
  0.3056917575201794  0.0011067347230878  0.3062033749410773
  0.1392458394838556  0.1676419035680254  0.6921503768598214
  0.4716376785639866  0.1682627328287225  0.3065454081205345
  0.6397829472351617  0.0005836653321580  0.6919248335913792
  0.6390430814689836  0.1677262152355041  0.5471574478922889
  0.4717136755352840  0.0009766291141702  0.4513264762625653
  0.6388317786719284  0.0011353690331859  0.3066625251726407
  0.4724068748670689  0.1679922160071925  0.6918869027881982
  0.8051845589161744  0.1674405664539691  0.3066943705788390
  0.9729197086738495  0.0014275524943699  0.6920805335818159
  0.9722108140048960  0.1681349446073597  0.5472494352764059
  0.8055844654302362  0.0009135567382330  0.4515404558524310
  0.9721678940218794  0.0012160404807204  0.3066370141926669
  0.8056300600715929  0.1681465973006908  0.6920286171559056
  0.1386842311311014  0.5011432229292225  0.3065437038153860
  0.3056403894887509  0.3351497763055775  0.6920076243980446
  0.3056880680995846  0.5011205158051411  0.5470155664382332
  0.1388377482265000  0.3342692380811059  0.4514841558205518
  0.3050798701703883  0.3344438085523436  0.3063559442862100
  0.1400314898339730  0.5007535800172889  0.6918613475748217
  0.4722554045990179  0.5013011286082829  0.3065308418035499
  0.6380620651309599  0.3343464350990644  0.6921286928673567
  0.6387288219127569  0.5011652656996120  0.5473286304091047
  0.4719437511453677  0.3342636727689126  0.4511970191597499
  0.6388170680407654  0.3339219451576483  0.3067410754471354
  0.4732314066533050  0.5022603423299898  0.6916629148418778
  0.8056596267859035  0.5008182498084253  0.3065028208819527
  0.9719733909561867  0.3343912590283935  0.6920050065334351
  0.9721494853190862  0.5011436773727311  0.5473963870088525
  0.8053551123964482  0.3344413761574003  0.4514955321934409
  0.9719846344398135  0.3348135180174054  0.3067519737727977
  0.8063190146716579  0.5014139017707109  0.6921551062403779
  0.1388160493029176  0.8341176029053372  0.3063308312431445
  0.3063200917725695  0.6681904859282568  0.6913883187437975
  0.3055047452471911  0.8347713458155752  0.5467640776772740
  0.1389077878553593  0.6678496048105274  0.4513119444783769
  0.3051407173353979  0.6674396982835944  0.3061929113681927
  0.1384818724439683  0.8340262382770831  0.6918948917617058
  0.4722678380894436  0.8349796714625057  0.3062570271657137
  0.6390531076538295  0.6676960709706421  0.6921125664644379
  0.6391603659988547  0.8347267003528529  0.5469748436216193
  0.4718718551656451  0.6677713898637236  0.4510371456956364
  0.6384975799542119  0.6675818088449645  0.3066417802398362
  0.4720041786384286  0.8340834696097517  0.6919271305306509
  0.8051796144262298  0.8344192425611681  0.3065146427391952
  0.9723954054532555  0.6679132218777823  0.6919730851271808
  0.9725002221840242  0.8346767271979445  0.5471053140878794
  0.8053152905971501  0.6675929231707087  0.4514556467819659
  0.9715627276491858  0.6682161123973813  0.3067150199364335
  0.8049812239105592  0.8348031196367600  0.6919205619453663
  0.3937632010085181  0.6068856008646009  0.8261597389023194
  0.4739979827880134  0.5492830131338025  0.8081898724217140
  0.3429969011178216  0.5563508984616874  0.8384307624757596
 
  0.00000000E+00  0.00000000E+00  0.00000000E+00
  0.00000000E+00  0.00000000E+00  0.00000000E+00
  0.00000000E+00  0.00000000E+00  0.00000000E+00
  0.00000000E+00  0.00000000E+00  0.00000000E+00
  0.00000000E+00  0.00000000E+00  0.00000000E+00
  0.00000000E+00  0.00000000E+00  0.00000000E+00
  0.00000000E+00  0.00000000E+00  0.00000000E+00
  0.00000000E+00  0.00000000E+00  0.00000000E+00
  0.00000000E+00  0.00000000E+00  0.00000000E+00
  0.00000000E+00  0.00000000E+00  0.00000000E+00
  0.00000000E+00  0.00000000E+00  0.00000000E+00
  0.00000000E+00  0.00000000E+00  0.00000000E+00
  0.00000000E+00  0.00000000E+00  0.00000000E+00
  0.00000000E+00  0.00000000E+00  0.00000000E+00
  0.00000000E+00  0.00000000E+00  0.00000000E+00
  0.00000000E+00  0.00000000E+00  0.00000000E+00
  0.00000000E+00  0.00000000E+00  0.00000000E+00
  0.00000000E+00  0.00000000E+00  0.00000000E+00
  0.00000000E+00  0.00000000E+00  0.00000000E+00
  0.00000000E+00  0.00000000E+00  0.00000000E+00
  0.00000000E+00  0.00000000E+00  0.00000000E+00
  0.00000000E+00  0.00000000E+00  0.00000000E+00
  0.00000000E+00  0.00000000E+00  0.00000000E+00
  0.00000000E+00  0.00000000E+00  0.00000000E+00
  0.00000000E+00  0.00000000E+00  0.00000000E+00
  0.00000000E+00  0.00000000E+00  0.00000000E+00
  0.00000000E+00  0.00000000E+00  0.00000000E+00
  0.00000000E+00  0.00000000E+00  0.00000000E+00
  0.00000000E+00  0.00000000E+00  0.00000000E+00
  0.00000000E+00  0.00000000E+00  0.00000000E+00
  0.00000000E+00  0.00000000E+00  0.00000000E+00
  0.00000000E+00  0.00000000E+00  0.00000000E+00
  0.00000000E+00  0.00000000E+00  0.00000000E+00
  0.00000000E+00  0.00000000E+00  0.00000000E+00
  0.00000000E+00  0.00000000E+00  0.00000000E+00
  0.00000000E+00  0.00000000E+00  0.00000000E+00
  0.00000000E+00  0.00000000E+00  0.00000000E+00
  0.00000000E+00  0.00000000E+00  0.00000000E+00
  0.00000000E+00  0.00000000E+00  0.00000000E+00
  0.00000000E+00  0.00000000E+00  0.00000000E+00
  0.00000000E+00  0.00000000E+00  0.00000000E+00
  0.00000000E+00  0.00000000E+00  0.00000000E+00
  0.00000000E+00  0.00000000E+00  0.00000000E+00
  0.00000000E+00  0.00000000E+00  0.00000000E+00
  0.00000000E+00  0.00000000E+00  0.00000000E+00
  0.00000000E+00  0.00000000E+00  0.00000000E+00
  0.00000000E+00  0.00000000E+00  0.00000000E+00
  0.00000000E+00  0.00000000E+00  0.00000000E+00
  0.00000000E+00  0.00000000E+00  0.00000000E+00
  0.00000000E+00  0.00000000E+00  0.00000000E+00
  0.00000000E+00  0.00000000E+00  0.00000000E+00
  0.00000000E+00  0.00000000E+00  0.00000000E+00
  0.00000000E+00  0.00000000E+00  0.00000000E+00
  0.00000000E+00  0.00000000E+00  0.00000000E+00
  0.00000000E+00  0.00000000E+00  0.00000000E+00
  0.00000000E+00  0.00000000E+00  0.00000000E+00
  0.00000000E+00  0.00000000E+00  0.00000000E+00
  0.00000000E+00  0.00000000E+00  0.00000000E+00
  0.00000000E+00  0.00000000E+00  0.00000000E+00
  0.00000000E+00  0.00000000E+00  0.00000000E+00
  0.00000000E+00  0.00000000E+00  0.00000000E+00
  0.00000000E+00  0.00000000E+00  0.00000000E+00
  0.00000000E+00  0.00000000E+00  0.00000000E+00
  0.00000000E+00  0.00000000E+00  0.00000000E+00
  0.00000000E+00  0.00000000E+00  0.00000000E+00
  0.00000000E+00  0.00000000E+00  0.00000000E+00
  0.00000000E+00  0.00000000E+00  0.00000000E+00
  0.00000000E+00  0.00000000E+00  0.00000000E+00
  0.00000000E+00  0.00000000E+00  0.00000000E+00
  0.00000000E+00  0.00000000E+00  0.00000000E+00
  0.00000000E+00  0.00000000E+00  0.00000000E+00
  0.00000000E+00  0.00000000E+00  0.00000000E+00
  0.00000000E+00  0.00000000E+00  0.00000000E+00
  0.00000000E+00  0.00000000E+00  0.00000000E+00
  0.00000000E+00  0.00000000E+00  0.00000000E+00
