Layer                                   
   1.00000000000000     
     3.9223001003000002    0.0000000000000000    0.0000000000000000
     1.9611500502000001    3.3968115281000002    0.0000000000000000
     0.0000000000000000    0.0000000000000000   19.0000000000000000
   H    O    Te   Pt
    10     7     2     2
Direct
  0.5868473280052043  0.5583039238595425  0.3830716654197421
  0.3288108168679570  0.3422683743256716  0.1803421300058231
  0.0611778211530609  0.6130548394811050  0.5758281430939862
  0.1243585980415622  0.0757619140549582  0.5405642956768493
  0.6038229653092487  0.0035542780054760  0.3718359924734499
  0.1935955247300858  0.7447852116376037  0.4799003869784437
  0.0640875761247319  0.5520854744174829  0.2511679194523097
  0.3747250003413127  0.9220862114399245  0.3028509280504326
  0.9204500597562217  0.4235972025365068  0.6388645682557361
  0.7229393202383730  0.2832661501803130  0.4528275291713580
  0.6058479439287935  0.8057158600034440  0.3357607462478371
  0.1372387498963046  0.3594101584741481  0.6037554064307268
  0.5219156235800813  0.3929168864768344  0.4138739962691423
  0.2459516839503751  0.3097676224263770  0.2271221565123294
  0.9928087730010314  0.9579312643063587  0.5113659531028886
  0.5119574799253417  0.5872474406798864  0.1238868119122904
  0.5021966466720617  0.5741639964036144  0.7051570452012051
  0.4735108312244264  0.5526889642143042  0.0288509109956734
  0.5262068333541960  0.5516377025131404  0.8025392155397941
  0.1623620540496498  0.2117052447693945  0.9629748053107828
  0.8678896640671058  0.8744673370800445  0.8687302818868451
 
  0.12110918E-02 -0.44416390E-02 -0.11022740E-02
 -0.12983276E-01 -0.24231999E-01  0.11107838E-01
  0.10330251E-01 -0.62168923E-03  0.25833146E-01
 -0.12575133E-01 -0.82838773E-02 -0.19207681E-01
 -0.55416754E-02  0.28864821E-01  0.12356093E-01
 -0.11936557E-01 -0.56402267E-02  0.23418892E-01
 -0.13935317E-01  0.12236761E-01  0.19527012E-01
  0.23296988E-01 -0.19520742E-01  0.14595726E-01
  0.71680211E-02 -0.18041431E-02 -0.27120327E-01
 -0.61641947E-02 -0.21345271E-01  0.71808951E-02
 -0.16287734E-03 -0.30741119E-02  0.66956124E-03
 -0.17889987E-02  0.36036853E-02 -0.68846320E-02
 -0.60695097E-03  0.51412613E-03  0.86059570E-03
 -0.46491035E-02 -0.98818000E-02 -0.52445737E-02
  0.11750396E-02  0.10660514E-01  0.28636569E-03
  0.21495110E-02 -0.33708912E-02  0.40516823E-02
  0.11832367E-02 -0.19691274E-02 -0.98225197E-03
 -0.22506315E-02 -0.89972867E-03  0.16124184E-02
 -0.10140434E-02 -0.10746138E-02  0.62720092E-03
  0.21252796E-02  0.12201930E-02 -0.79422977E-03
  0.33988646E-03  0.58929944E-03 -0.41795345E-03
 
           1
   1.00000000000000     
  0.23971155E+05  0.21744239E+03 -0.25938797E-17  0.00000000E+00
  0.58780989E+00  0.55699633E+00  0.38301365E+00
  0.32906757E+00  0.33513463E+00  0.18092675E+00
  0.63903055E-01  0.61287182E+00  0.57718778E+00
  0.12237190E+00  0.73323193E-01  0.53955337E+00
  0.59816129E+00  0.12051900E-01  0.37248631E+00
  0.19138249E+00  0.74312476E+00  0.48113296E+00
  0.58733520E-01  0.55568790E+00  0.25219566E+00
  0.38353802E+00  0.91633943E+00  0.30361912E+00
  0.92254313E+00  0.42306607E+00  0.63743718E+00
  0.72450970E+00  0.27698224E+00  0.45320547E+00
  0.60625892E+00  0.80481086E+00  0.33579599E+00
  0.13625219E+00  0.36047106E+00  0.60339306E+00
  0.52168520E+00  0.39306824E+00  0.41391929E+00
  0.24622095E+00  0.30685848E+00  0.22684613E+00
  0.99153916E+00  0.96106965E+00  0.51138102E+00
  0.51300169E+00  0.58625507E+00  0.12410006E+00
  0.50278817E+00  0.57358430E+00  0.70510535E+00
  0.47306946E+00  0.55242409E+00  0.28935775E-01
  0.52610648E+00  0.55132134E+00  0.80257223E+00
  0.16272429E+00  0.21206446E+00  0.96293300E+00
  0.86788958E+00  0.87464082E+00  0.86870828E+00
  0.89985787E-03 -0.18660729E-02  0.18622114E-03
  0.62969177E-03 -0.81942102E-02  0.52674740E-03
  0.26911716E-02  0.90343993E-03  0.11952536E-02
 -0.16685713E-02 -0.25236019E-02 -0.10545069E-02
 -0.46236683E-02  0.74498504E-02  0.87539058E-03
 -0.18862164E-02 -0.22901033E-02  0.12196932E-02
 -0.50889306E-02  0.30551496E-02  0.11336309E-02
  0.76746943E-02 -0.60507487E-02  0.60243002E-03
  0.12199204E-02 -0.46496174E-03 -0.12502106E-02
  0.17243805E-02 -0.58089389E-02  0.40611531E-03
  0.38977938E-03 -0.96295551E-03  0.48945428E-04
 -0.92267735E-03  0.98908233E-03 -0.35882465E-03
 -0.20803405E-03  0.29069019E-03  0.13119351E-04
  0.25987591E-03 -0.28324887E-02 -0.28450571E-03
 -0.13423719E-02  0.32151646E-02  0.13829673E-04
  0.10506363E-02 -0.98979440E-03  0.21123922E-03
  0.58359086E-03 -0.57908414E-03 -0.63822010E-04
 -0.44983308E-03 -0.26565233E-03  0.86019297E-04
 -0.10175068E-03 -0.31588406E-03  0.34511800E-04
  0.36567382E-03  0.35986109E-03 -0.41335675E-04
  0.25698305E-05  0.17276353E-03 -0.22741797E-04
  0.00000000E+00  0.00000000E+00  0.00000000E+00
  0.00000000E+00  0.00000000E+00  0.00000000E+00
  0.00000000E+00  0.00000000E+00  0.00000000E+00
  0.00000000E+00  0.00000000E+00  0.00000000E+00
  0.00000000E+00  0.00000000E+00  0.00000000E+00
  0.00000000E+00  0.00000000E+00  0.00000000E+00
  0.00000000E+00  0.00000000E+00  0.00000000E+00
  0.00000000E+00  0.00000000E+00  0.00000000E+00
  0.00000000E+00  0.00000000E+00  0.00000000E+00
  0.00000000E+00  0.00000000E+00  0.00000000E+00
  0.00000000E+00  0.00000000E+00  0.00000000E+00
  0.00000000E+00  0.00000000E+00  0.00000000E+00
  0.00000000E+00  0.00000000E+00  0.00000000E+00
  0.00000000E+00  0.00000000E+00  0.00000000E+00
  0.00000000E+00  0.00000000E+00  0.00000000E+00
  0.00000000E+00  0.00000000E+00  0.00000000E+00
  0.00000000E+00  0.00000000E+00  0.00000000E+00
  0.00000000E+00  0.00000000E+00  0.00000000E+00
  0.00000000E+00  0.00000000E+00  0.00000000E+00
  0.00000000E+00  0.00000000E+00  0.00000000E+00
  0.00000000E+00  0.00000000E+00  0.00000000E+00
