CONTCAR\(5)                             
   1.00000000000000     
    10.8753004073999993    0.0000000000000000    0.0000000000000000
     0.0000000000000000   10.8753004073999993    0.0000000000000000
     0.0000000000000000    0.0000000000000000   21.9909000397000014
   Hf   Si   Te   O 
    18    18    18     1
Direct
  0.1649886162065641  0.0016035137657111  0.5950352545463719
  0.9999669153373919  0.1666049725349743  0.4042570004235933
  0.4999474092901257  0.9972143534644403  0.5969457250474591
  0.3340865278711240  0.1666382474576313  0.4046826056796115
  0.8348991760415863  0.0015867933284242  0.5950434138060774
  0.6658540214347169  0.1666366916667163  0.4046900871675866
  0.1649781459883589  0.3318428438016420  0.5950275639623314
  0.9999792388932940  0.5006967964416686  0.4047391857726177
  0.4999481363328054  0.3363306458529089  0.5969445665231247
  0.3339704698655446  0.5005813124191729  0.4051277134874934
  0.8349056150981068  0.3318549476297948  0.5950358808043749
  0.6659969668403224  0.5005914841144640  0.4051323659288152
  0.1694503370776016  0.6666829766772457  0.5969799137460209
  0.9999816644842293  0.8326865321023414  0.4047377744373893
  0.4999758416606361  0.6667062849516521  0.6028349003614717
  0.3339678638993976  0.8328042357565597  0.4051212246584663
  0.8304958483346909  0.6666851222200063  0.5969780815788074
  0.6659860295525876  0.8328124065770962  0.4051262143993031
  0.9999434240752628  0.9993995565477451  0.4999478399893623
  0.1672588593299031  0.1666879150934358  0.4999282457488747
  0.3340150552798841  0.9999674535710364  0.5004315043911961
  0.4999579158778500  0.1667303473516818  0.5006080132227370
  0.6659261214502387  0.9999709256903616  0.5004390334478928
  0.8326742380705359  0.1666825663200192  0.4999371014598380
  0.9999494447651365  0.3339575446746245  0.4999363618184984
  0.1667210277133442  0.5007243839384097  0.5004397705504253
  0.3339981849199419  0.3334328551929575  0.5004273795818510
  0.4999812572742261  0.4997797669851087  0.5008646539028768
  0.6659446887587204  0.3334287668729747  0.5004311800586367
  0.8332362850184037  0.5007324520758369  0.5004407342664567
 -0.0000219892481888  0.6666768123341857  0.5006373671130695
  0.1667303426622457  0.8326539307099391  0.5004401381789396
  0.3330230890894150  0.6666931019893255  0.5008705649541160
  0.4999721486982356  0.8336767365960466  0.5008693900398126
  0.6669344498100138  0.6667026649853212  0.5008699364899493
  0.8332176059620107  0.8326591069904623  0.5004364062878004
  0.9999476531777112  0.1667365048543183  0.6607002732532381
  0.1669859599233521  0.9996603847547496  0.3407373259149494
  0.3337048686306742  0.1667321831535467  0.6596578233237070
  0.5000117342293060  0.9999056902041045  0.3401776512703530
  0.6661741554139420  0.1667222977117929  0.6596448234576699
  0.8329705527250181  0.9996676833428583  0.3407361525409746
  0.9999679865897332  0.5003688030383190  0.6598368574928344
  0.1669644397655677  0.3337403021043438  0.3408467885003421
  0.3272766009583668  0.4940704558985950  0.6622772820281898
  0.4999827821408035  0.3334227919064336  0.3402622498352151
  0.6726465457780274  0.4940801343738969  0.6622789466685541
  0.8329728848252395  0.3337389199393231  0.3408646270004822
  0.9999691971567982  0.8329544763341238  0.6597486486049856
  0.1667455999989605  0.6665868227309272  0.3403752593578330
  0.3273137104766048  0.8394179155628142  0.6622867944232232
  0.4999838327328936  0.6667483412685989  0.3405612987416852
  0.6726099055613549  0.8394311297328508  0.6622799717970543
  0.8332256320758771  0.6665950739679866  0.3403775558030707
  0.4997549821235127  0.6666130074384794  0.6904750231523802
 
  0.00000000E+00  0.00000000E+00  0.00000000E+00
  0.00000000E+00  0.00000000E+00  0.00000000E+00
  0.00000000E+00  0.00000000E+00  0.00000000E+00
  0.00000000E+00  0.00000000E+00  0.00000000E+00
  0.00000000E+00  0.00000000E+00  0.00000000E+00
  0.00000000E+00  0.00000000E+00  0.00000000E+00
  0.00000000E+00  0.00000000E+00  0.00000000E+00
  0.00000000E+00  0.00000000E+00  0.00000000E+00
  0.00000000E+00  0.00000000E+00  0.00000000E+00
  0.00000000E+00  0.00000000E+00  0.00000000E+00
  0.00000000E+00  0.00000000E+00  0.00000000E+00
  0.00000000E+00  0.00000000E+00  0.00000000E+00
  0.00000000E+00  0.00000000E+00  0.00000000E+00
  0.00000000E+00  0.00000000E+00  0.00000000E+00
  0.00000000E+00  0.00000000E+00  0.00000000E+00
  0.00000000E+00  0.00000000E+00  0.00000000E+00
  0.00000000E+00  0.00000000E+00  0.00000000E+00
  0.00000000E+00  0.00000000E+00  0.00000000E+00
  0.00000000E+00  0.00000000E+00  0.00000000E+00
  0.00000000E+00  0.00000000E+00  0.00000000E+00
  0.00000000E+00  0.00000000E+00  0.00000000E+00
  0.00000000E+00  0.00000000E+00  0.00000000E+00
  0.00000000E+00  0.00000000E+00  0.00000000E+00
  0.00000000E+00  0.00000000E+00  0.00000000E+00
  0.00000000E+00  0.00000000E+00  0.00000000E+00
  0.00000000E+00  0.00000000E+00  0.00000000E+00
  0.00000000E+00  0.00000000E+00  0.00000000E+00
  0.00000000E+00  0.00000000E+00  0.00000000E+00
  0.00000000E+00  0.00000000E+00  0.00000000E+00
  0.00000000E+00  0.00000000E+00  0.00000000E+00
  0.00000000E+00  0.00000000E+00  0.00000000E+00
  0.00000000E+00  0.00000000E+00  0.00000000E+00
  0.00000000E+00  0.00000000E+00  0.00000000E+00
  0.00000000E+00  0.00000000E+00  0.00000000E+00
  0.00000000E+00  0.00000000E+00  0.00000000E+00
  0.00000000E+00  0.00000000E+00  0.00000000E+00
  0.00000000E+00  0.00000000E+00  0.00000000E+00
  0.00000000E+00  0.00000000E+00  0.00000000E+00
  0.00000000E+00  0.00000000E+00  0.00000000E+00
  0.00000000E+00  0.00000000E+00  0.00000000E+00
  0.00000000E+00  0.00000000E+00  0.00000000E+00
  0.00000000E+00  0.00000000E+00  0.00000000E+00
  0.00000000E+00  0.00000000E+00  0.00000000E+00
  0.00000000E+00  0.00000000E+00  0.00000000E+00
  0.00000000E+00  0.00000000E+00  0.00000000E+00
  0.00000000E+00  0.00000000E+00  0.00000000E+00
  0.00000000E+00  0.00000000E+00  0.00000000E+00
  0.00000000E+00  0.00000000E+00  0.00000000E+00
  0.00000000E+00  0.00000000E+00  0.00000000E+00
  0.00000000E+00  0.00000000E+00  0.00000000E+00
  0.00000000E+00  0.00000000E+00  0.00000000E+00
  0.00000000E+00  0.00000000E+00  0.00000000E+00
  0.00000000E+00  0.00000000E+00  0.00000000E+00
  0.00000000E+00  0.00000000E+00  0.00000000E+00
  0.00000000E+00  0.00000000E+00  0.00000000E+00
