 Al1 Pd5 I2                             
   1.00000000000000     
     3.9897239531099324    0.0000000000000000    0.0000000000000000
     0.0000000000000000    3.9897239630958663    0.0000000000000000
     0.0000000000000000    0.0000000000000000   22.3084052846560041
   Al   Pd   I 
     1     5     2
Direct
  0.4999999997621600  0.5000000000367422  0.4999993304339441
  0.0000000000465263  0.4999999997588347  0.4192151986345323
  0.5000000003532818  0.9999999999732481  0.4192151982778043
  0.4999999997449223  0.0000000003148699  0.5807662446945656
  0.9999999992733208  0.5000000002273666  0.5807662443837387
  0.0000000001150795  0.0000000000699742  0.4999918885464112
  0.9999999995232187  0.0000000009283241  0.3337153405440674
  0.0000000011814834  0.9999999986906403  0.6663305544849294
 
  0.00000000E+00  0.00000000E+00  0.00000000E+00
  0.00000000E+00  0.00000000E+00  0.00000000E+00
  0.00000000E+00  0.00000000E+00  0.00000000E+00
  0.00000000E+00  0.00000000E+00  0.00000000E+00
  0.00000000E+00  0.00000000E+00  0.00000000E+00
  0.00000000E+00  0.00000000E+00  0.00000000E+00
  0.00000000E+00  0.00000000E+00  0.00000000E+00
  0.00000000E+00  0.00000000E+00  0.00000000E+00
