CONTCAR\(3)                             
   1.00000000000000     
    12.5341997146999997    0.0000000000000000    0.0000000000000000
    -6.2670998572999999   10.8549353689999997    0.0000000000000000
     0.0000000000000000    0.0000000000000000   23.0692996979000000
   Tb   Ga   I    O 
    18    18    18     1
Direct
  0.9999903777674319  0.9999931821604164  0.5879449970812800
  0.0000408550262563  0.9999964424921259  0.4139988293514065
  0.3345415057292200  0.0021840576494583  0.5872134377296447
  0.3336516825969156  0.9991059222706369  0.4126175463170938
  0.6676850558034673  0.0021594947898933  0.5872153984653536
  0.6655029690913423  0.9991314844720520  0.4126159528617279
  0.9980228383028589  0.3325348247701569  0.5872653942228681
  0.0009409723331260  0.3345660458903126  0.4126291304506466
  0.3345255744412654  0.3325125121102417  0.5872498448120353
  0.3336549211765671  0.3345648153309853  0.4126197362372466
  0.6666573835755685  0.3332910569923584  0.5864048658856333
  0.6666511387310123  0.3333015985428460  0.4111765699136427
  0.9979973138510587  0.6654625139590848  0.5872939363149712
  0.0008878545575186  0.6663545179842671  0.4126432045231283
  0.3336240135790263  0.6670875397562170  0.6217953719486644
  0.3333184601405250  0.6666250849623907  0.4153544134883020
  0.6675631676136859  0.6654815192284715  0.5872617833977927
  0.6654882071481580  0.6663677780509545  0.4126407136219967
  0.2203958878749930  0.1102369780064123  0.5130487904466889
  0.1133448185447605  0.2266629234209177  0.4861015015239118
  0.5560619900284607  0.1120810300815265  0.5119942362435808
  0.4436675675881787  0.2218287957694116  0.4848187491107581
  0.8898720744611950  0.1102468719207153  0.5130485394880537
  0.7782007864645095  0.2218534269383454  0.4848199869138199
  0.2255328034425617  0.4510543413646886  0.5183238654407987
  0.1096649020248037  0.5548443199335438  0.4860857932219673
  0.5560324445974132  0.4439764010520264  0.5120731097086590
  0.4452019225226209  0.5548551346251216  0.4860807533067018
  0.8879628504027579  0.4439877949441993  0.5121027555611946
  0.7781628821795152  0.5563094074411481  0.4848202341419707
  0.2255189417289643  0.7745399705543363  0.5183316983840669
  0.1133292629501526  0.8866885166997065  0.4861185177017475
  0.5490623629410223  0.7745512163730197  0.5183341718272914
  0.4451679403916842  0.8903055128377844  0.4860586233610107
  0.8898286819782442  0.7796003964978198  0.5130838830741311
  0.7734017412587093  0.8866915673223161  0.4861182982367538
  0.2227434592063204  0.1113394827890346  0.3270514261940605
  0.1117348980399839  0.2234507828250685  0.6731143851070911
  0.5553071883538934  0.1106061121396564  0.3257573502120579
  0.4448623465710071  0.2225226393273232  0.6721595994124314
  0.8887510290925889  0.1113805612701242  0.3271038345131245
  0.7777010828098199  0.2225117219465460  0.6721566191008250
  0.2230172567199205  0.4460228267131825  0.3272655787553020
  0.0721663613315116  0.5360390129851424  0.6751798343817512
  0.5553294490657663  0.4447255757117148  0.3258137450642877
  0.4640093703682879  0.5359995298963867  0.6751398171749088
  0.8893845787274799  0.4446978478909216  0.3258304315019842
  0.7775689360734930  0.5550859763459925  0.6721549767389874
  0.2230404731131728  0.7769455095716751  0.3272987939631165
  0.1117703489224198  0.8882694874862693  0.6731217699157739
  0.5539142007763331  0.7769453225788823  0.3272963532401647
  0.4643392969233204  0.9285994004058509  0.6750210598946325
  0.8886699921844041  0.7773283370538735  0.3270760563221771
  0.7764933291767875  0.8882618352167739  0.6731344919834683
  0.3342126366979343  0.6679536376496458  0.7056096082072969
 
  0.00000000E+00  0.00000000E+00  0.00000000E+00
  0.00000000E+00  0.00000000E+00  0.00000000E+00
  0.00000000E+00  0.00000000E+00  0.00000000E+00
  0.00000000E+00  0.00000000E+00  0.00000000E+00
  0.00000000E+00  0.00000000E+00  0.00000000E+00
  0.00000000E+00  0.00000000E+00  0.00000000E+00
  0.00000000E+00  0.00000000E+00  0.00000000E+00
  0.00000000E+00  0.00000000E+00  0.00000000E+00
  0.00000000E+00  0.00000000E+00  0.00000000E+00
  0.00000000E+00  0.00000000E+00  0.00000000E+00
  0.00000000E+00  0.00000000E+00  0.00000000E+00
  0.00000000E+00  0.00000000E+00  0.00000000E+00
  0.00000000E+00  0.00000000E+00  0.00000000E+00
  0.00000000E+00  0.00000000E+00  0.00000000E+00
  0.00000000E+00  0.00000000E+00  0.00000000E+00
  0.00000000E+00  0.00000000E+00  0.00000000E+00
  0.00000000E+00  0.00000000E+00  0.00000000E+00
  0.00000000E+00  0.00000000E+00  0.00000000E+00
  0.00000000E+00  0.00000000E+00  0.00000000E+00
  0.00000000E+00  0.00000000E+00  0.00000000E+00
  0.00000000E+00  0.00000000E+00  0.00000000E+00
  0.00000000E+00  0.00000000E+00  0.00000000E+00
  0.00000000E+00  0.00000000E+00  0.00000000E+00
  0.00000000E+00  0.00000000E+00  0.00000000E+00
  0.00000000E+00  0.00000000E+00  0.00000000E+00
  0.00000000E+00  0.00000000E+00  0.00000000E+00
  0.00000000E+00  0.00000000E+00  0.00000000E+00
  0.00000000E+00  0.00000000E+00  0.00000000E+00
  0.00000000E+00  0.00000000E+00  0.00000000E+00
  0.00000000E+00  0.00000000E+00  0.00000000E+00
  0.00000000E+00  0.00000000E+00  0.00000000E+00
  0.00000000E+00  0.00000000E+00  0.00000000E+00
  0.00000000E+00  0.00000000E+00  0.00000000E+00
  0.00000000E+00  0.00000000E+00  0.00000000E+00
  0.00000000E+00  0.00000000E+00  0.00000000E+00
  0.00000000E+00  0.00000000E+00  0.00000000E+00
  0.00000000E+00  0.00000000E+00  0.00000000E+00
  0.00000000E+00  0.00000000E+00  0.00000000E+00
  0.00000000E+00  0.00000000E+00  0.00000000E+00
  0.00000000E+00  0.00000000E+00  0.00000000E+00
  0.00000000E+00  0.00000000E+00  0.00000000E+00
  0.00000000E+00  0.00000000E+00  0.00000000E+00
  0.00000000E+00  0.00000000E+00  0.00000000E+00
  0.00000000E+00  0.00000000E+00  0.00000000E+00
  0.00000000E+00  0.00000000E+00  0.00000000E+00
  0.00000000E+00  0.00000000E+00  0.00000000E+00
  0.00000000E+00  0.00000000E+00  0.00000000E+00
  0.00000000E+00  0.00000000E+00  0.00000000E+00
  0.00000000E+00  0.00000000E+00  0.00000000E+00
  0.00000000E+00  0.00000000E+00  0.00000000E+00
  0.00000000E+00  0.00000000E+00  0.00000000E+00
  0.00000000E+00  0.00000000E+00  0.00000000E+00
  0.00000000E+00  0.00000000E+00  0.00000000E+00
  0.00000000E+00  0.00000000E+00  0.00000000E+00
  0.00000000E+00  0.00000000E+00  0.00000000E+00
