CONTCAR                                 
   1.00000000000000     
    11.9160003662000005    0.0000000000000000    0.0000000000000000
    -5.9580032889999996   10.3494530515999994    0.0000000000000000
     0.0000000000000000    0.0000000000000000   17.8166999817000011
   Hf   Fe   Cl   O 
     4     4    24     1
Direct
  0.1514943666259470  0.3191409062119845  0.5007810327813047
  0.6667498048456295  0.3256045485460533  0.4986443740354716
  0.1745066367871431  0.8317008414848246  0.4999592658345833
  0.6381129529479068  0.8128062509505440  0.5121762175760693
  0.4966579432743927  0.5052390725796627  0.5016233742953773
  0.9965378242923819  0.4943200678932342  0.5000958730079503
  0.4913596803745932  0.9953170479073279  0.5020410713027985
  0.0134648239241386  0.0069670348382260  0.5106556958016100
  0.1500173607515976  0.4912153081404398  0.5768795648459601
  0.3253437353791497  0.3311916895832354  0.5794186067907532
  0.0022548222270231  0.1573391652133651  0.5882578306054782
  0.1479096560719455  0.1521480321438347  0.4200447354507304
  0.9911562237659695  0.3346948894459771  0.4217727812960206
  0.3238457043565219  0.4830977499778371  0.4189555655084192
  0.6544017933361559  0.4876227279984207  0.5804037493444625
  0.8403733987088913  0.3407496661531084  0.5800534071398786
  0.4996733614456943  0.1567412260983687  0.5784062581944696
  0.6538197561099466  0.1478133068052330  0.4238726614817239
  0.5089548383353772  0.3375443232071333  0.4176313157167471
  0.8405473181680136  0.4958117111040465  0.4229222714469714
  0.1807060691391555  0.0082715982446970  0.5786658180555548
  0.3402347885816823  0.8430219743851310  0.5836995540469943
  0.0067476655001570  0.6554305035282795  0.5784349104912963
  0.1535775158634962  0.6540391636611673  0.4215814268726419
  0.0022973446931189  0.8449912704392659  0.4315538645744894
  0.3402180457402864  0.9950557456138043  0.4189774328650842
  0.6430967717438136  0.9941993503149220  0.5825462477876826
  0.9088940414350262  0.8706088916263752  0.5995837797852914
  0.4708003764464337  0.6466718437906351  0.5894907533427443
  0.6507750964476884  0.6661630339209879  0.4194955113538654
  0.4924853499187236  0.8401519113102935  0.4242593446878544
  0.8372328141168950  0.9856353757643674  0.4464455417217010
  0.7497216726451370  0.7963736541172253  0.5887203439580162
 
  0.00000000E+00  0.00000000E+00  0.00000000E+00
  0.00000000E+00  0.00000000E+00  0.00000000E+00
  0.00000000E+00  0.00000000E+00  0.00000000E+00
  0.00000000E+00  0.00000000E+00  0.00000000E+00
  0.00000000E+00  0.00000000E+00  0.00000000E+00
  0.00000000E+00  0.00000000E+00  0.00000000E+00
  0.00000000E+00  0.00000000E+00  0.00000000E+00
  0.00000000E+00  0.00000000E+00  0.00000000E+00
  0.00000000E+00  0.00000000E+00  0.00000000E+00
  0.00000000E+00  0.00000000E+00  0.00000000E+00
  0.00000000E+00  0.00000000E+00  0.00000000E+00
  0.00000000E+00  0.00000000E+00  0.00000000E+00
  0.00000000E+00  0.00000000E+00  0.00000000E+00
  0.00000000E+00  0.00000000E+00  0.00000000E+00
  0.00000000E+00  0.00000000E+00  0.00000000E+00
  0.00000000E+00  0.00000000E+00  0.00000000E+00
  0.00000000E+00  0.00000000E+00  0.00000000E+00
  0.00000000E+00  0.00000000E+00  0.00000000E+00
  0.00000000E+00  0.00000000E+00  0.00000000E+00
  0.00000000E+00  0.00000000E+00  0.00000000E+00
  0.00000000E+00  0.00000000E+00  0.00000000E+00
  0.00000000E+00  0.00000000E+00  0.00000000E+00
  0.00000000E+00  0.00000000E+00  0.00000000E+00
  0.00000000E+00  0.00000000E+00  0.00000000E+00
  0.00000000E+00  0.00000000E+00  0.00000000E+00
  0.00000000E+00  0.00000000E+00  0.00000000E+00
  0.00000000E+00  0.00000000E+00  0.00000000E+00
  0.00000000E+00  0.00000000E+00  0.00000000E+00
  0.00000000E+00  0.00000000E+00  0.00000000E+00
  0.00000000E+00  0.00000000E+00  0.00000000E+00
  0.00000000E+00  0.00000000E+00  0.00000000E+00
  0.00000000E+00  0.00000000E+00  0.00000000E+00
  0.00000000E+00  0.00000000E+00  0.00000000E+00
