CONTCAR                                 
   1.00000000000000     
    12.9555997849000004    0.0000000000000000    0.0000000000000000
     0.0000000000000000   12.9555997849000004    0.0000000000000000
     0.0000000000000000    0.0000000000000000   24.1623992919999999
   Tb   Te   O    H 
    18    54     1     1
Direct
  0.1638073730448506  0.0002341835642284  0.5837482521928178
  0.0009011009828002  0.1675711049827968  0.4143564446706145
  0.4991884875199148  0.0031477396690603  0.5845147880342503
  0.3344578968813331  0.1681697107415394  0.4144143926108789
  0.8318721987812968  0.9985422397813001  0.5855973887696770
  0.6675970907814773  0.1677157142544080  0.4149509536970717
  0.1670548989792960  0.3337148909793026  0.5843239840778499
  0.0014997067415427  0.5011279008813300  0.4144143926108789
  0.5000667677627677  0.3339211553071701  0.5860298903263600
  0.3346213859311764  0.5012913899311731  0.4156707334912541
  0.8335641425642253  0.3304673650448574  0.5837482521928178
  0.6669913966027882  0.5015746844351697  0.4158358364936578
  0.1672611633071634  0.6667367717627647  0.5860298903263600
  0.0010457102544113  0.8342570457814774  0.4149509536970717
  0.5001331263493092  0.6668031303493058  0.5906258563509954
  0.3349046804351734  0.8336513516027882  0.4158358364936578
  0.8364776986690572  0.6658584915199117  0.5845147880342503
  0.6671492763732717  0.8338092313732718  0.4167109080517721
  0.0014377359417839  0.0012786046529484  0.3117043498976215
  0.1606155986702585  0.1680752987523702  0.6874942282229459
  0.9956564084131068  0.9974271207839576  0.6882028018582017
  0.1681996331457195  0.1681885712983581  0.3111875231155407
  0.1682394822535830  0.0006106865264930  0.4530287795246907
  0.9991996292209603  0.1658696332209569  0.5455760624235952
  0.3353808720808906  0.0016844952636152  0.3120414791760527
  0.5004757615345802  0.1684810830650562  0.6889526313662763
  0.3291658958145670  0.0023081769100179  0.6821878616668603
  0.5018532594146917  0.1684280592049200  0.3116805734526659
  0.5006286859524482  0.0012017406276959  0.4537828948348229
  0.3331089347925523  0.1681779911690126  0.5459263310788316
  0.6683258802715535  0.0012040095132844  0.3126418447108187
  0.8307570797839543  0.1623264124131036  0.6882028018582017
  0.6616448323249272  0.9961136400071237  0.6900573422746760
  0.8346085636529450  0.1681077399417805  0.3117143358976164
  0.8338475218702727  0.0005175628702759  0.4539388891880223
  0.6665375226196881  0.1663714309169880  0.5467271502096696
  0.0015185672983615  0.3348596251457264  0.3111775371155457
  0.1662115413104186  0.4976443684411424  0.6886957803910303
  0.0014052947523735  0.3272755906702653  0.6874942282229459
  0.1686310129280734  0.5015713781988991  0.3118706838190053
  0.1675979143476323  0.3342579063476389  0.4531197216554048
  0.0015079871690160  0.4997789387925490  0.5459263310788316
  0.3349013741989023  0.3352910049280801  0.3118606978190104
  0.4987517434640915  0.4975610068222917  0.6926304742977062
  0.3309743644411458  0.3328715333104254  0.6886957803910303
  0.5015054079165520  0.5017309963169572  0.3126514678044985
  0.5009363654661759  0.3342885891791921  0.4541072787621429
  0.3349297153500296  0.5015997193500265  0.5480560974701679
  0.6682786642349811  0.3353244870208691  0.3123092675987059
  0.8356381359100146  0.4958358998145637  0.6821878616668603
  0.6642915629661870  0.3288149536109388  0.6885078370873867
  0.8350144542636119  0.5020508760808872  0.3120514651760476
  0.8339406455264898  0.3348994742535897  0.4530287795246907
  0.6662656021355238  0.5011429125177945  0.5482958155061748
  0.0017580552049234  0.6685232634146884  0.3116705874526710
  0.1621549616109321  0.8309515179661870  0.6885078370873867
  0.0018110790650596  0.6671457655345767  0.6889526313662763
  0.1686644950208625  0.8349386192349811  0.3123192535987008
  0.1676285971791853  0.6676063694661726  0.4541072787621429
  0.9997014269169909  0.8331974776196882  0.5467271502096696
  0.3350609923169601  0.6681754119165486  0.3126414818045036
  0.4814414288755011  0.8433575848040009  0.7001208146484734
  0.3308910028222951  0.6654217474640881  0.6926304742977062
  0.5017452959386445  0.8346269450562674  0.3130877563778205
  0.5006921805847039  0.6673621845847005  0.4564454634484621
  0.3344729085177980  0.8329255571355239  0.5482958155061748
  0.6679669900562674  0.6684152999386411  0.3130777703778256
  0.8294435990071204  0.8283047873249273  0.6900573422746760
  0.6766976298040008  0.6481114328754977  0.7001208146484734
  0.8345339685132809  0.8349858352715536  0.3126518307108136
  0.8345316996276930  0.6672986899524449  0.4537828948348229
  0.6648182508195747  0.8314782058195748  0.5498251092276346
  0.5628598815157071  0.7295298485157113  0.7592076686897825
  0.6033073732024903  0.7699773402024945  0.7858016364094098
 
  0.00000000E+00  0.00000000E+00  0.00000000E+00
  0.00000000E+00  0.00000000E+00  0.00000000E+00
  0.00000000E+00  0.00000000E+00  0.00000000E+00
  0.00000000E+00  0.00000000E+00  0.00000000E+00
  0.00000000E+00  0.00000000E+00  0.00000000E+00
  0.00000000E+00  0.00000000E+00  0.00000000E+00
  0.00000000E+00  0.00000000E+00  0.00000000E+00
  0.00000000E+00  0.00000000E+00  0.00000000E+00
  0.00000000E+00  0.00000000E+00  0.00000000E+00
  0.00000000E+00  0.00000000E+00  0.00000000E+00
  0.00000000E+00  0.00000000E+00  0.00000000E+00
  0.00000000E+00  0.00000000E+00  0.00000000E+00
  0.00000000E+00  0.00000000E+00  0.00000000E+00
  0.00000000E+00  0.00000000E+00  0.00000000E+00
  0.00000000E+00  0.00000000E+00  0.00000000E+00
  0.00000000E+00  0.00000000E+00  0.00000000E+00
  0.00000000E+00  0.00000000E+00  0.00000000E+00
  0.00000000E+00  0.00000000E+00  0.00000000E+00
  0.00000000E+00  0.00000000E+00  0.00000000E+00
  0.00000000E+00  0.00000000E+00  0.00000000E+00
  0.00000000E+00  0.00000000E+00  0.00000000E+00
  0.00000000E+00  0.00000000E+00  0.00000000E+00
  0.00000000E+00  0.00000000E+00  0.00000000E+00
  0.00000000E+00  0.00000000E+00  0.00000000E+00
  0.00000000E+00  0.00000000E+00  0.00000000E+00
  0.00000000E+00  0.00000000E+00  0.00000000E+00
  0.00000000E+00  0.00000000E+00  0.00000000E+00
  0.00000000E+00  0.00000000E+00  0.00000000E+00
  0.00000000E+00  0.00000000E+00  0.00000000E+00
  0.00000000E+00  0.00000000E+00  0.00000000E+00
  0.00000000E+00  0.00000000E+00  0.00000000E+00
  0.00000000E+00  0.00000000E+00  0.00000000E+00
  0.00000000E+00  0.00000000E+00  0.00000000E+00
  0.00000000E+00  0.00000000E+00  0.00000000E+00
  0.00000000E+00  0.00000000E+00  0.00000000E+00
  0.00000000E+00  0.00000000E+00  0.00000000E+00
  0.00000000E+00  0.00000000E+00  0.00000000E+00
  0.00000000E+00  0.00000000E+00  0.00000000E+00
  0.00000000E+00  0.00000000E+00  0.00000000E+00
  0.00000000E+00  0.00000000E+00  0.00000000E+00
  0.00000000E+00  0.00000000E+00  0.00000000E+00
  0.00000000E+00  0.00000000E+00  0.00000000E+00
  0.00000000E+00  0.00000000E+00  0.00000000E+00
  0.00000000E+00  0.00000000E+00  0.00000000E+00
  0.00000000E+00  0.00000000E+00  0.00000000E+00
  0.00000000E+00  0.00000000E+00  0.00000000E+00
  0.00000000E+00  0.00000000E+00  0.00000000E+00
  0.00000000E+00  0.00000000E+00  0.00000000E+00
  0.00000000E+00  0.00000000E+00  0.00000000E+00
  0.00000000E+00  0.00000000E+00  0.00000000E+00
  0.00000000E+00  0.00000000E+00  0.00000000E+00
  0.00000000E+00  0.00000000E+00  0.00000000E+00
  0.00000000E+00  0.00000000E+00  0.00000000E+00
  0.00000000E+00  0.00000000E+00  0.00000000E+00
  0.00000000E+00  0.00000000E+00  0.00000000E+00
  0.00000000E+00  0.00000000E+00  0.00000000E+00
  0.00000000E+00  0.00000000E+00  0.00000000E+00
  0.00000000E+00  0.00000000E+00  0.00000000E+00
  0.00000000E+00  0.00000000E+00  0.00000000E+00
  0.00000000E+00  0.00000000E+00  0.00000000E+00
  0.00000000E+00  0.00000000E+00  0.00000000E+00
  0.00000000E+00  0.00000000E+00  0.00000000E+00
  0.00000000E+00  0.00000000E+00  0.00000000E+00
  0.00000000E+00  0.00000000E+00  0.00000000E+00
  0.00000000E+00  0.00000000E+00  0.00000000E+00
  0.00000000E+00  0.00000000E+00  0.00000000E+00
  0.00000000E+00  0.00000000E+00  0.00000000E+00
  0.00000000E+00  0.00000000E+00  0.00000000E+00
  0.00000000E+00  0.00000000E+00  0.00000000E+00
  0.00000000E+00  0.00000000E+00  0.00000000E+00
  0.00000000E+00  0.00000000E+00  0.00000000E+00
  0.00000000E+00  0.00000000E+00  0.00000000E+00
  0.00000000E+00  0.00000000E+00  0.00000000E+00
  0.00000000E+00  0.00000000E+00  0.00000000E+00
