 Fe2 Br6                                
   1.00000000000000     
     6.2017805788048213    0.0000000000000000    0.0000000000000000
     3.1008902894024106    5.3708833690077640    0.0000000000000000
     0.0000000000000000    0.0000000000000000   17.7593513193199968
   Fe   Br
     2     6
Direct
  0.0000000937664950  0.0000000623457410  0.5000070553734517
  0.3333331252028344  0.3333336423358304  0.4999929895495399
  0.0277617853742456  0.3055424556624544  0.4222764502342002
  0.3055423996904025  0.6666956829219757  0.4222765047022250
  0.6666958495354578  0.0277618158440305  0.4222764953468712
  0.3055294571605458  0.0277487730147712  0.5777235364571851
  0.0277490972390950  0.6667230735864038  0.5777234934841005
  0.6667231920309220  0.3055294942887983  0.5777234748524407
 
  0.00000000E+00  0.00000000E+00  0.00000000E+00
  0.00000000E+00  0.00000000E+00  0.00000000E+00
  0.00000000E+00  0.00000000E+00  0.00000000E+00
  0.00000000E+00  0.00000000E+00  0.00000000E+00
  0.00000000E+00  0.00000000E+00  0.00000000E+00
  0.00000000E+00  0.00000000E+00  0.00000000E+00
  0.00000000E+00  0.00000000E+00  0.00000000E+00
  0.00000000E+00  0.00000000E+00  0.00000000E+00
