CONTCAR\(5)                             
   1.00000000000000     
    11.4335002898999996    0.0000000000000000    0.0000000000000000
     5.7167501449999998    9.9017017052000007    0.0000000000000000
     0.0000000000000000    0.0000000000000000   21.6627006530999999
   Zr   Te   P    O    H 
    18    18     9     1     1
Direct
  0.1059361779939110  0.1066934875258312  0.5661796926386984
  0.9945630348846493  0.9959074653773428  0.4326797555481079
  0.4383435994041207  0.1081467279210102  0.5659465693620689
  0.3281723828978116  0.9961013495659543  0.4340187723435633
  0.7720189662375958  0.1073172218181995  0.5661682934237646
  0.6608543159651674  0.9960305052444838  0.4339847386794062
  0.1064760616347087  0.4399590097548156  0.5660588057587645
  0.9944292873464420  0.3300545433832340  0.4341593206477015
  0.4385536987978895  0.4399949133408754  0.5659285019428424
  0.3276939571509772  0.3294736588321427  0.4338825616064952
  0.7764221335142096  0.4318611776813057  0.5656516322524396
  0.6607924075104066  0.3297195441604757  0.4338544935772646
  0.1062452694457861  0.7737777001352413  0.5662906139270731
  0.9944863656609542  0.6620955849589407  0.4342097481581959
  0.4310356704210747  0.7778060904438036  0.5655006943937266
  0.3281917547357907  0.6624085077979700  0.4340287796956517
  0.7763931068879515  0.7782039911751113  0.5658940632962626
  0.6614084284798452  0.6626386854720963  0.4348781361584244
  0.9945398159338978  0.9960631659457064  0.6542825253181803
  0.1063975136181554  0.1079825827543957  0.3452261689574456
  0.3274677912073329  0.9970213651158559  0.6546618135105433
  0.4390373515288815  0.1072221404569191  0.3456120560879370
  0.6605540388266178  0.9976177253949245  0.6548514761417152
  0.7709282869846419  0.1077487989680961  0.3451314921766340
  0.9962402767890381  0.3281786956190516  0.6547907544113443
  0.1057087759385382  0.4403538084323060  0.3456401884069678
  0.3279938694530173  0.3292827934637685  0.6548786161777329
  0.4387896101808337  0.4405155120336417  0.3456108798554212
  0.6606889412042918  0.3285019172162720  0.6547658180453411
  0.7720311871261032  0.4412633296728643  0.3460702377880622
  0.9964622933365916  0.6619431207275568  0.6549119664340566
  0.1062998348899526  0.7722203261988909  0.3452688704809717
  0.3277342655100242  0.6618309123618502  0.6547820238678383
  0.4396577680088001  0.7736399403398408  0.3461342190248970
  0.6591967369572274  0.6633465678297625  0.6456902328842133
  0.7719546443434595  0.7733386387911239  0.3462104754129598
  0.2166680446895697  0.2182969314069254  0.4999167180489650
  0.5498981903754157  0.2183327167016529  0.4998365265470568
  0.8845965725369780  0.2157302107005989  0.4990112803993938
  0.2167528667226293  0.5515794345228642  0.5000011383326495
  0.5500366368006837  0.5511984421743819  0.5006499763922392
  0.8835958749552759  0.5515326146451685  0.5009937647324705
  0.2140692837272482  0.8862863187991863  0.4989229770502135
  0.5500671298126534  0.8854446640019376  0.5006860556441026
  0.8847520455620312  0.8859576990183271  0.4991655065380840
  0.6333446570818069  0.6745212283997191  0.7380167429756241
  0.7228192119290782  0.6389489807175082  0.7567343379464972
 
  0.00000000E+00  0.00000000E+00  0.00000000E+00
  0.00000000E+00  0.00000000E+00  0.00000000E+00
  0.00000000E+00  0.00000000E+00  0.00000000E+00
  0.00000000E+00  0.00000000E+00  0.00000000E+00
  0.00000000E+00  0.00000000E+00  0.00000000E+00
  0.00000000E+00  0.00000000E+00  0.00000000E+00
  0.00000000E+00  0.00000000E+00  0.00000000E+00
  0.00000000E+00  0.00000000E+00  0.00000000E+00
  0.00000000E+00  0.00000000E+00  0.00000000E+00
  0.00000000E+00  0.00000000E+00  0.00000000E+00
  0.00000000E+00  0.00000000E+00  0.00000000E+00
  0.00000000E+00  0.00000000E+00  0.00000000E+00
  0.00000000E+00  0.00000000E+00  0.00000000E+00
  0.00000000E+00  0.00000000E+00  0.00000000E+00
  0.00000000E+00  0.00000000E+00  0.00000000E+00
  0.00000000E+00  0.00000000E+00  0.00000000E+00
  0.00000000E+00  0.00000000E+00  0.00000000E+00
  0.00000000E+00  0.00000000E+00  0.00000000E+00
  0.00000000E+00  0.00000000E+00  0.00000000E+00
  0.00000000E+00  0.00000000E+00  0.00000000E+00
  0.00000000E+00  0.00000000E+00  0.00000000E+00
  0.00000000E+00  0.00000000E+00  0.00000000E+00
  0.00000000E+00  0.00000000E+00  0.00000000E+00
  0.00000000E+00  0.00000000E+00  0.00000000E+00
  0.00000000E+00  0.00000000E+00  0.00000000E+00
  0.00000000E+00  0.00000000E+00  0.00000000E+00
  0.00000000E+00  0.00000000E+00  0.00000000E+00
  0.00000000E+00  0.00000000E+00  0.00000000E+00
  0.00000000E+00  0.00000000E+00  0.00000000E+00
  0.00000000E+00  0.00000000E+00  0.00000000E+00
  0.00000000E+00  0.00000000E+00  0.00000000E+00
  0.00000000E+00  0.00000000E+00  0.00000000E+00
  0.00000000E+00  0.00000000E+00  0.00000000E+00
  0.00000000E+00  0.00000000E+00  0.00000000E+00
  0.00000000E+00  0.00000000E+00  0.00000000E+00
  0.00000000E+00  0.00000000E+00  0.00000000E+00
  0.00000000E+00  0.00000000E+00  0.00000000E+00
  0.00000000E+00  0.00000000E+00  0.00000000E+00
  0.00000000E+00  0.00000000E+00  0.00000000E+00
  0.00000000E+00  0.00000000E+00  0.00000000E+00
  0.00000000E+00  0.00000000E+00  0.00000000E+00
  0.00000000E+00  0.00000000E+00  0.00000000E+00
  0.00000000E+00  0.00000000E+00  0.00000000E+00
  0.00000000E+00  0.00000000E+00  0.00000000E+00
  0.00000000E+00  0.00000000E+00  0.00000000E+00
  0.00000000E+00  0.00000000E+00  0.00000000E+00
  0.00000000E+00  0.00000000E+00  0.00000000E+00
