 Ti2 Cl2 O2                             
   1.00000000000000     
     3.1892779167624594    0.0000000000000000    0.0000000000000000
     0.0000000000000000    3.9615958604888242    0.0000000000000000
     0.0000000000000000    0.0000000000000000   20.2326486746080008
   Ti   Cl   O 
     2     2     2
Direct
  0.4999998610892717  0.0000000056240523  0.5368406782970894
  0.0000002159139285  0.4999999974023481  0.4631603348426552
  0.5000000237527118  0.5000000061184551  0.3742466255338499
  0.9999999136007816  0.9999999889675522  0.6257519224584200
  0.9999999072454244  0.9999999978789731  0.4696437155649917
  0.5000000783978891  0.5000000040086192  0.5303567233030009
 
  0.00000000E+00  0.00000000E+00  0.00000000E+00
  0.00000000E+00  0.00000000E+00  0.00000000E+00
  0.00000000E+00  0.00000000E+00  0.00000000E+00
  0.00000000E+00  0.00000000E+00  0.00000000E+00
  0.00000000E+00  0.00000000E+00  0.00000000E+00
  0.00000000E+00  0.00000000E+00  0.00000000E+00
