G   63   50    1    0.005     # Parameters to Generate KPOINTS (Don't Edit This Line)
     832
Reciprocal lattice
    0.000000000000    0.000000000000    0.000000000000       1
    0.015873015873    0.000000000000    0.000000000000       2
    0.031746031746    0.000000000000    0.000000000000       2
    0.047619047619    0.000000000000    0.000000000000       2
    0.063492063492    0.000000000000    0.000000000000       2
    0.079365079365    0.000000000000    0.000000000000       2
    0.095238095238    0.000000000000    0.000000000000       2
    0.111111111111    0.000000000000    0.000000000000       2
    0.126984126984    0.000000000000    0.000000000000       2
    0.142857142857    0.000000000000    0.000000000000       2
    0.158730158730    0.000000000000    0.000000000000       2
    0.174603174603    0.000000000000    0.000000000000       2
    0.190476190476    0.000000000000    0.000000000000       2
    0.206349206349    0.000000000000    0.000000000000       2
    0.222222222222    0.000000000000    0.000000000000       2
    0.238095238095    0.000000000000    0.000000000000       2
    0.253968253968    0.000000000000    0.000000000000       2
    0.269841269841    0.000000000000    0.000000000000       2
    0.285714285714    0.000000000000    0.000000000000       2
    0.301587301587    0.000000000000    0.000000000000       2
    0.317460317460    0.000000000000    0.000000000000       2
    0.333333333333    0.000000000000    0.000000000000       2
    0.349206349206    0.000000000000    0.000000000000       2
    0.365079365079    0.000000000000    0.000000000000       2
    0.380952380952    0.000000000000    0.000000000000       2
    0.396825396825    0.000000000000    0.000000000000       2
    0.412698412698    0.000000000000    0.000000000000       2
    0.428571428571    0.000000000000    0.000000000000       2
    0.444444444444    0.000000000000    0.000000000000       2
    0.460317460317    0.000000000000    0.000000000000       2
    0.476190476190    0.000000000000    0.000000000000       2
    0.492063492063    0.000000000000    0.000000000000       2
    0.000000000000    0.020000000000    0.000000000000       2
    0.015873015873    0.020000000000    0.000000000000       4
    0.031746031746    0.020000000000    0.000000000000       4
    0.047619047619    0.020000000000    0.000000000000       4
    0.063492063492    0.020000000000    0.000000000000       4
    0.079365079365    0.020000000000    0.000000000000       4
    0.095238095238    0.020000000000    0.000000000000       4
    0.111111111111    0.020000000000    0.000000000000       4
    0.126984126984    0.020000000000    0.000000000000       4
    0.142857142857    0.020000000000    0.000000000000       4
    0.158730158730    0.020000000000    0.000000000000       4
    0.174603174603    0.020000000000    0.000000000000       4
    0.190476190476    0.020000000000    0.000000000000       4
    0.206349206349    0.020000000000    0.000000000000       4
    0.222222222222    0.020000000000    0.000000000000       4
    0.238095238095    0.020000000000    0.000000000000       4
    0.253968253968    0.020000000000    0.000000000000       4
    0.269841269841    0.020000000000    0.000000000000       4
    0.285714285714    0.020000000000    0.000000000000       4
    0.301587301587    0.020000000000    0.000000000000       4
    0.317460317460    0.020000000000    0.000000000000       4
    0.333333333333    0.020000000000    0.000000000000       4
    0.349206349206    0.020000000000    0.000000000000       4
    0.365079365079    0.020000000000    0.000000000000       4
    0.380952380952    0.020000000000    0.000000000000       4
    0.396825396825    0.020000000000    0.000000000000       4
    0.412698412698    0.020000000000    0.000000000000       4
    0.428571428571    0.020000000000    0.000000000000       4
    0.444444444444    0.020000000000    0.000000000000       4
    0.460317460317    0.020000000000    0.000000000000       4
    0.476190476190    0.020000000000    0.000000000000       4
    0.492063492063    0.020000000000    0.000000000000       4
    0.000000000000    0.040000000000    0.000000000000       2
    0.015873015873    0.040000000000    0.000000000000       4
    0.031746031746    0.040000000000    0.000000000000       4
    0.047619047619    0.040000000000    0.000000000000       4
    0.063492063492    0.040000000000    0.000000000000       4
    0.079365079365    0.040000000000    0.000000000000       4
    0.095238095238    0.040000000000    0.000000000000       4
    0.111111111111    0.040000000000    0.000000000000       4
    0.126984126984    0.040000000000    0.000000000000       4
    0.142857142857    0.040000000000    0.000000000000       4
    0.158730158730    0.040000000000    0.000000000000       4
    0.174603174603    0.040000000000    0.000000000000       4
    0.190476190476    0.040000000000    0.000000000000       4
    0.206349206349    0.040000000000    0.000000000000       4
    0.222222222222    0.040000000000    0.000000000000       4
    0.238095238095    0.040000000000    0.000000000000       4
    0.253968253968    0.040000000000    0.000000000000       4
    0.269841269841    0.040000000000    0.000000000000       4
    0.285714285714    0.040000000000    0.000000000000       4
    0.301587301587    0.040000000000    0.000000000000       4
    0.317460317460    0.040000000000    0.000000000000       4
    0.333333333333    0.040000000000    0.000000000000       4
    0.349206349206    0.040000000000    0.000000000000       4
    0.365079365079    0.040000000000    0.000000000000       4
    0.380952380952    0.040000000000    0.000000000000       4
    0.396825396825    0.040000000000    0.000000000000       4
    0.412698412698    0.040000000000    0.000000000000       4
    0.428571428571    0.040000000000    0.000000000000       4
    0.444444444444    0.040000000000    0.000000000000       4
    0.460317460317    0.040000000000    0.000000000000       4
    0.476190476190    0.040000000000    0.000000000000       4
    0.492063492063    0.040000000000    0.000000000000       4
    0.000000000000    0.060000000000    0.000000000000       2
    0.015873015873    0.060000000000    0.000000000000       4
    0.031746031746    0.060000000000    0.000000000000       4
    0.047619047619    0.060000000000    0.000000000000       4
    0.063492063492    0.060000000000    0.000000000000       4
    0.079365079365    0.060000000000    0.000000000000       4
    0.095238095238    0.060000000000    0.000000000000       4
    0.111111111111    0.060000000000    0.000000000000       4
    0.126984126984    0.060000000000    0.000000000000       4
    0.142857142857    0.060000000000    0.000000000000       4
    0.158730158730    0.060000000000    0.000000000000       4
    0.174603174603    0.060000000000    0.000000000000       4
    0.190476190476    0.060000000000    0.000000000000       4
    0.206349206349    0.060000000000    0.000000000000       4
    0.222222222222    0.060000000000    0.000000000000       4
    0.238095238095    0.060000000000    0.000000000000       4
    0.253968253968    0.060000000000    0.000000000000       4
    0.269841269841    0.060000000000    0.000000000000       4
    0.285714285714    0.060000000000    0.000000000000       4
    0.301587301587    0.060000000000    0.000000000000       4
    0.317460317460    0.060000000000    0.000000000000       4
    0.333333333333    0.060000000000    0.000000000000       4
    0.349206349206    0.060000000000    0.000000000000       4
    0.365079365079    0.060000000000    0.000000000000       4
    0.380952380952    0.060000000000    0.000000000000       4
    0.396825396825    0.060000000000    0.000000000000       4
    0.412698412698    0.060000000000    0.000000000000       4
    0.428571428571    0.060000000000    0.000000000000       4
    0.444444444444    0.060000000000    0.000000000000       4
    0.460317460317    0.060000000000    0.000000000000       4
    0.476190476190    0.060000000000    0.000000000000       4
    0.492063492063    0.060000000000    0.000000000000       4
    0.000000000000    0.080000000000    0.000000000000       2
    0.015873015873    0.080000000000    0.000000000000       4
    0.031746031746    0.080000000000    0.000000000000       4
    0.047619047619    0.080000000000    0.000000000000       4
    0.063492063492    0.080000000000    0.000000000000       4
    0.079365079365    0.080000000000    0.000000000000       4
    0.095238095238    0.080000000000    0.000000000000       4
    0.111111111111    0.080000000000    0.000000000000       4
    0.126984126984    0.080000000000    0.000000000000       4
    0.142857142857    0.080000000000    0.000000000000       4
    0.158730158730    0.080000000000    0.000000000000       4
    0.174603174603    0.080000000000    0.000000000000       4
    0.190476190476    0.080000000000    0.000000000000       4
    0.206349206349    0.080000000000    0.000000000000       4
    0.222222222222    0.080000000000    0.000000000000       4
    0.238095238095    0.080000000000    0.000000000000       4
    0.253968253968    0.080000000000    0.000000000000       4
    0.269841269841    0.080000000000    0.000000000000       4
    0.285714285714    0.080000000000    0.000000000000       4
    0.301587301587    0.080000000000    0.000000000000       4
    0.317460317460    0.080000000000    0.000000000000       4
    0.333333333333    0.080000000000    0.000000000000       4
    0.349206349206    0.080000000000    0.000000000000       4
    0.365079365079    0.080000000000    0.000000000000       4
    0.380952380952    0.080000000000    0.000000000000       4
    0.396825396825    0.080000000000    0.000000000000       4
    0.412698412698    0.080000000000    0.000000000000       4
    0.428571428571    0.080000000000    0.000000000000       4
    0.444444444444    0.080000000000    0.000000000000       4
    0.460317460317    0.080000000000    0.000000000000       4
    0.476190476190    0.080000000000    0.000000000000       4
    0.492063492063    0.080000000000    0.000000000000       4
    0.000000000000    0.100000000000    0.000000000000       2
    0.015873015873    0.100000000000    0.000000000000       4
    0.031746031746    0.100000000000    0.000000000000       4
    0.047619047619    0.100000000000    0.000000000000       4
    0.063492063492    0.100000000000    0.000000000000       4
    0.079365079365    0.100000000000    0.000000000000       4
    0.095238095238    0.100000000000    0.000000000000       4
    0.111111111111    0.100000000000    0.000000000000       4
    0.126984126984    0.100000000000    0.000000000000       4
    0.142857142857    0.100000000000    0.000000000000       4
    0.158730158730    0.100000000000    0.000000000000       4
    0.174603174603    0.100000000000    0.000000000000       4
    0.190476190476    0.100000000000    0.000000000000       4
    0.206349206349    0.100000000000    0.000000000000       4
    0.222222222222    0.100000000000    0.000000000000       4
    0.238095238095    0.100000000000    0.000000000000       4
    0.253968253968    0.100000000000    0.000000000000       4
    0.269841269841    0.100000000000    0.000000000000       4
    0.285714285714    0.100000000000    0.000000000000       4
    0.301587301587    0.100000000000    0.000000000000       4
    0.317460317460    0.100000000000    0.000000000000       4
    0.333333333333    0.100000000000    0.000000000000       4
    0.349206349206    0.100000000000    0.000000000000       4
    0.365079365079    0.100000000000    0.000000000000       4
    0.380952380952    0.100000000000    0.000000000000       4
    0.396825396825    0.100000000000    0.000000000000       4
    0.412698412698    0.100000000000    0.000000000000       4
    0.428571428571    0.100000000000    0.000000000000       4
    0.444444444444    0.100000000000    0.000000000000       4
    0.460317460317    0.100000000000    0.000000000000       4
    0.476190476190    0.100000000000    0.000000000000       4
    0.492063492063    0.100000000000    0.000000000000       4
    0.000000000000    0.120000000000    0.000000000000       2
    0.015873015873    0.120000000000    0.000000000000       4
    0.031746031746    0.120000000000    0.000000000000       4
    0.047619047619    0.120000000000    0.000000000000       4
    0.063492063492    0.120000000000    0.000000000000       4
    0.079365079365    0.120000000000    0.000000000000       4
    0.095238095238    0.120000000000    0.000000000000       4
    0.111111111111    0.120000000000    0.000000000000       4
    0.126984126984    0.120000000000    0.000000000000       4
    0.142857142857    0.120000000000    0.000000000000       4
    0.158730158730    0.120000000000    0.000000000000       4
    0.174603174603    0.120000000000    0.000000000000       4
    0.190476190476    0.120000000000    0.000000000000       4
    0.206349206349    0.120000000000    0.000000000000       4
    0.222222222222    0.120000000000    0.000000000000       4
    0.238095238095    0.120000000000    0.000000000000       4
    0.253968253968    0.120000000000    0.000000000000       4
    0.269841269841    0.120000000000    0.000000000000       4
    0.285714285714    0.120000000000    0.000000000000       4
    0.301587301587    0.120000000000    0.000000000000       4
    0.317460317460    0.120000000000    0.000000000000       4
    0.333333333333    0.120000000000    0.000000000000       4
    0.349206349206    0.120000000000    0.000000000000       4
    0.365079365079    0.120000000000    0.000000000000       4
    0.380952380952    0.120000000000    0.000000000000       4
    0.396825396825    0.120000000000    0.000000000000       4
    0.412698412698    0.120000000000    0.000000000000       4
    0.428571428571    0.120000000000    0.000000000000       4
    0.444444444444    0.120000000000    0.000000000000       4
    0.460317460317    0.120000000000    0.000000000000       4
    0.476190476190    0.120000000000    0.000000000000       4
    0.492063492063    0.120000000000    0.000000000000       4
    0.000000000000    0.140000000000    0.000000000000       2
    0.015873015873    0.140000000000    0.000000000000       4
    0.031746031746    0.140000000000    0.000000000000       4
    0.047619047619    0.140000000000    0.000000000000       4
    0.063492063492    0.140000000000    0.000000000000       4
    0.079365079365    0.140000000000    0.000000000000       4
    0.095238095238    0.140000000000    0.000000000000       4
    0.111111111111    0.140000000000    0.000000000000       4
    0.126984126984    0.140000000000    0.000000000000       4
    0.142857142857    0.140000000000    0.000000000000       4
    0.158730158730    0.140000000000    0.000000000000       4
    0.174603174603    0.140000000000    0.000000000000       4
    0.190476190476    0.140000000000    0.000000000000       4
    0.206349206349    0.140000000000    0.000000000000       4
    0.222222222222    0.140000000000    0.000000000000       4
    0.238095238095    0.140000000000    0.000000000000       4
    0.253968253968    0.140000000000    0.000000000000       4
    0.269841269841    0.140000000000    0.000000000000       4
    0.285714285714    0.140000000000    0.000000000000       4
    0.301587301587    0.140000000000    0.000000000000       4
    0.317460317460    0.140000000000    0.000000000000       4
    0.333333333333    0.140000000000    0.000000000000       4
    0.349206349206    0.140000000000    0.000000000000       4
    0.365079365079    0.140000000000    0.000000000000       4
    0.380952380952    0.140000000000    0.000000000000       4
    0.396825396825    0.140000000000    0.000000000000       4
    0.412698412698    0.140000000000    0.000000000000       4
    0.428571428571    0.140000000000    0.000000000000       4
    0.444444444444    0.140000000000    0.000000000000       4
    0.460317460317    0.140000000000    0.000000000000       4
    0.476190476190    0.140000000000    0.000000000000       4
    0.492063492063    0.140000000000    0.000000000000       4
    0.000000000000    0.160000000000    0.000000000000       2
    0.015873015873    0.160000000000    0.000000000000       4
    0.031746031746    0.160000000000    0.000000000000       4
    0.047619047619    0.160000000000    0.000000000000       4
    0.063492063492    0.160000000000    0.000000000000       4
    0.079365079365    0.160000000000    0.000000000000       4
    0.095238095238    0.160000000000    0.000000000000       4
    0.111111111111    0.160000000000    0.000000000000       4
    0.126984126984    0.160000000000    0.000000000000       4
    0.142857142857    0.160000000000    0.000000000000       4
    0.158730158730    0.160000000000    0.000000000000       4
    0.174603174603    0.160000000000    0.000000000000       4
    0.190476190476    0.160000000000    0.000000000000       4
    0.206349206349    0.160000000000    0.000000000000       4
    0.222222222222    0.160000000000    0.000000000000       4
    0.238095238095    0.160000000000    0.000000000000       4
    0.253968253968    0.160000000000    0.000000000000       4
    0.269841269841    0.160000000000    0.000000000000       4
    0.285714285714    0.160000000000    0.000000000000       4
    0.301587301587    0.160000000000    0.000000000000       4
    0.317460317460    0.160000000000    0.000000000000       4
    0.333333333333    0.160000000000    0.000000000000       4
    0.349206349206    0.160000000000    0.000000000000       4
    0.365079365079    0.160000000000    0.000000000000       4
    0.380952380952    0.160000000000    0.000000000000       4
    0.396825396825    0.160000000000    0.000000000000       4
    0.412698412698    0.160000000000    0.000000000000       4
    0.428571428571    0.160000000000    0.000000000000       4
    0.444444444444    0.160000000000    0.000000000000       4
    0.460317460317    0.160000000000    0.000000000000       4
    0.476190476190    0.160000000000    0.000000000000       4
    0.492063492063    0.160000000000    0.000000000000       4
    0.000000000000    0.180000000000    0.000000000000       2
    0.015873015873    0.180000000000    0.000000000000       4
    0.031746031746    0.180000000000    0.000000000000       4
    0.047619047619    0.180000000000    0.000000000000       4
    0.063492063492    0.180000000000    0.000000000000       4
    0.079365079365    0.180000000000    0.000000000000       4
    0.095238095238    0.180000000000    0.000000000000       4
    0.111111111111    0.180000000000    0.000000000000       4
    0.126984126984    0.180000000000    0.000000000000       4
    0.142857142857    0.180000000000    0.000000000000       4
    0.158730158730    0.180000000000    0.000000000000       4
    0.174603174603    0.180000000000    0.000000000000       4
    0.190476190476    0.180000000000    0.000000000000       4
    0.206349206349    0.180000000000    0.000000000000       4
    0.222222222222    0.180000000000    0.000000000000       4
    0.238095238095    0.180000000000    0.000000000000       4
    0.253968253968    0.180000000000    0.000000000000       4
    0.269841269841    0.180000000000    0.000000000000       4
    0.285714285714    0.180000000000    0.000000000000       4
    0.301587301587    0.180000000000    0.000000000000       4
    0.317460317460    0.180000000000    0.000000000000       4
    0.333333333333    0.180000000000    0.000000000000       4
    0.349206349206    0.180000000000    0.000000000000       4
    0.365079365079    0.180000000000    0.000000000000       4
    0.380952380952    0.180000000000    0.000000000000       4
    0.396825396825    0.180000000000    0.000000000000       4
    0.412698412698    0.180000000000    0.000000000000       4
    0.428571428571    0.180000000000    0.000000000000       4
    0.444444444444    0.180000000000    0.000000000000       4
    0.460317460317    0.180000000000    0.000000000000       4
    0.476190476190    0.180000000000    0.000000000000       4
    0.492063492063    0.180000000000    0.000000000000       4
    0.000000000000    0.200000000000    0.000000000000       2
    0.015873015873    0.200000000000    0.000000000000       4
    0.031746031746    0.200000000000    0.000000000000       4
    0.047619047619    0.200000000000    0.000000000000       4
    0.063492063492    0.200000000000    0.000000000000       4
    0.079365079365    0.200000000000    0.000000000000       4
    0.095238095238    0.200000000000    0.000000000000       4
    0.111111111111    0.200000000000    0.000000000000       4
    0.126984126984    0.200000000000    0.000000000000       4
    0.142857142857    0.200000000000    0.000000000000       4
    0.158730158730    0.200000000000    0.000000000000       4
    0.174603174603    0.200000000000    0.000000000000       4
    0.190476190476    0.200000000000    0.000000000000       4
    0.206349206349    0.200000000000    0.000000000000       4
    0.222222222222    0.200000000000    0.000000000000       4
    0.238095238095    0.200000000000    0.000000000000       4
    0.253968253968    0.200000000000    0.000000000000       4
    0.269841269841    0.200000000000    0.000000000000       4
    0.285714285714    0.200000000000    0.000000000000       4
    0.301587301587    0.200000000000    0.000000000000       4
    0.317460317460    0.200000000000    0.000000000000       4
    0.333333333333    0.200000000000    0.000000000000       4
    0.349206349206    0.200000000000    0.000000000000       4
    0.365079365079    0.200000000000    0.000000000000       4
    0.380952380952    0.200000000000    0.000000000000       4
    0.396825396825    0.200000000000    0.000000000000       4
    0.412698412698    0.200000000000    0.000000000000       4
    0.428571428571    0.200000000000    0.000000000000       4
    0.444444444444    0.200000000000    0.000000000000       4
    0.460317460317    0.200000000000    0.000000000000       4
    0.476190476190    0.200000000000    0.000000000000       4
    0.492063492063    0.200000000000    0.000000000000       4
    0.000000000000    0.220000000000    0.000000000000       2
    0.015873015873    0.220000000000    0.000000000000       4
    0.031746031746    0.220000000000    0.000000000000       4
    0.047619047619    0.220000000000    0.000000000000       4
    0.063492063492    0.220000000000    0.000000000000       4
    0.079365079365    0.220000000000    0.000000000000       4
    0.095238095238    0.220000000000    0.000000000000       4
    0.111111111111    0.220000000000    0.000000000000       4
    0.126984126984    0.220000000000    0.000000000000       4
    0.142857142857    0.220000000000    0.000000000000       4
    0.158730158730    0.220000000000    0.000000000000       4
    0.174603174603    0.220000000000    0.000000000000       4
    0.190476190476    0.220000000000    0.000000000000       4
    0.206349206349    0.220000000000    0.000000000000       4
    0.222222222222    0.220000000000    0.000000000000       4
    0.238095238095    0.220000000000    0.000000000000       4
    0.253968253968    0.220000000000    0.000000000000       4
    0.269841269841    0.220000000000    0.000000000000       4
    0.285714285714    0.220000000000    0.000000000000       4
    0.301587301587    0.220000000000    0.000000000000       4
    0.317460317460    0.220000000000    0.000000000000       4
    0.333333333333    0.220000000000    0.000000000000       4
    0.349206349206    0.220000000000    0.000000000000       4
    0.365079365079    0.220000000000    0.000000000000       4
    0.380952380952    0.220000000000    0.000000000000       4
    0.396825396825    0.220000000000    0.000000000000       4
    0.412698412698    0.220000000000    0.000000000000       4
    0.428571428571    0.220000000000    0.000000000000       4
    0.444444444444    0.220000000000    0.000000000000       4
    0.460317460317    0.220000000000    0.000000000000       4
    0.476190476190    0.220000000000    0.000000000000       4
    0.492063492063    0.220000000000    0.000000000000       4
    0.000000000000    0.240000000000    0.000000000000       2
    0.015873015873    0.240000000000    0.000000000000       4
    0.031746031746    0.240000000000    0.000000000000       4
    0.047619047619    0.240000000000    0.000000000000       4
    0.063492063492    0.240000000000    0.000000000000       4
    0.079365079365    0.240000000000    0.000000000000       4
    0.095238095238    0.240000000000    0.000000000000       4
    0.111111111111    0.240000000000    0.000000000000       4
    0.126984126984    0.240000000000    0.000000000000       4
    0.142857142857    0.240000000000    0.000000000000       4
    0.158730158730    0.240000000000    0.000000000000       4
    0.174603174603    0.240000000000    0.000000000000       4
    0.190476190476    0.240000000000    0.000000000000       4
    0.206349206349    0.240000000000    0.000000000000       4
    0.222222222222    0.240000000000    0.000000000000       4
    0.238095238095    0.240000000000    0.000000000000       4
    0.253968253968    0.240000000000    0.000000000000       4
    0.269841269841    0.240000000000    0.000000000000       4
    0.285714285714    0.240000000000    0.000000000000       4
    0.301587301587    0.240000000000    0.000000000000       4
    0.317460317460    0.240000000000    0.000000000000       4
    0.333333333333    0.240000000000    0.000000000000       4
    0.349206349206    0.240000000000    0.000000000000       4
    0.365079365079    0.240000000000    0.000000000000       4
    0.380952380952    0.240000000000    0.000000000000       4
    0.396825396825    0.240000000000    0.000000000000       4
    0.412698412698    0.240000000000    0.000000000000       4
    0.428571428571    0.240000000000    0.000000000000       4
    0.444444444444    0.240000000000    0.000000000000       4
    0.460317460317    0.240000000000    0.000000000000       4
    0.476190476190    0.240000000000    0.000000000000       4
    0.492063492063    0.240000000000    0.000000000000       4
    0.000000000000    0.260000000000    0.000000000000       2
    0.015873015873    0.260000000000    0.000000000000       4
    0.031746031746    0.260000000000    0.000000000000       4
    0.047619047619    0.260000000000    0.000000000000       4
    0.063492063492    0.260000000000    0.000000000000       4
    0.079365079365    0.260000000000    0.000000000000       4
    0.095238095238    0.260000000000    0.000000000000       4
    0.111111111111    0.260000000000    0.000000000000       4
    0.126984126984    0.260000000000    0.000000000000       4
    0.142857142857    0.260000000000    0.000000000000       4
    0.158730158730    0.260000000000    0.000000000000       4
    0.174603174603    0.260000000000    0.000000000000       4
    0.190476190476    0.260000000000    0.000000000000       4
    0.206349206349    0.260000000000    0.000000000000       4
    0.222222222222    0.260000000000    0.000000000000       4
    0.238095238095    0.260000000000    0.000000000000       4
    0.253968253968    0.260000000000    0.000000000000       4
    0.269841269841    0.260000000000    0.000000000000       4
    0.285714285714    0.260000000000    0.000000000000       4
    0.301587301587    0.260000000000    0.000000000000       4
    0.317460317460    0.260000000000    0.000000000000       4
    0.333333333333    0.260000000000    0.000000000000       4
    0.349206349206    0.260000000000    0.000000000000       4
    0.365079365079    0.260000000000    0.000000000000       4
    0.380952380952    0.260000000000    0.000000000000       4
    0.396825396825    0.260000000000    0.000000000000       4
    0.412698412698    0.260000000000    0.000000000000       4
    0.428571428571    0.260000000000    0.000000000000       4
    0.444444444444    0.260000000000    0.000000000000       4
    0.460317460317    0.260000000000    0.000000000000       4
    0.476190476190    0.260000000000    0.000000000000       4
    0.492063492063    0.260000000000    0.000000000000       4
    0.000000000000    0.280000000000    0.000000000000       2
    0.015873015873    0.280000000000    0.000000000000       4
    0.031746031746    0.280000000000    0.000000000000       4
    0.047619047619    0.280000000000    0.000000000000       4
    0.063492063492    0.280000000000    0.000000000000       4
    0.079365079365    0.280000000000    0.000000000000       4
    0.095238095238    0.280000000000    0.000000000000       4
    0.111111111111    0.280000000000    0.000000000000       4
    0.126984126984    0.280000000000    0.000000000000       4
    0.142857142857    0.280000000000    0.000000000000       4
    0.158730158730    0.280000000000    0.000000000000       4
    0.174603174603    0.280000000000    0.000000000000       4
    0.190476190476    0.280000000000    0.000000000000       4
    0.206349206349    0.280000000000    0.000000000000       4
    0.222222222222    0.280000000000    0.000000000000       4
    0.238095238095    0.280000000000    0.000000000000       4
    0.253968253968    0.280000000000    0.000000000000       4
    0.269841269841    0.280000000000    0.000000000000       4
    0.285714285714    0.280000000000    0.000000000000       4
    0.301587301587    0.280000000000    0.000000000000       4
    0.317460317460    0.280000000000    0.000000000000       4
    0.333333333333    0.280000000000    0.000000000000       4
    0.349206349206    0.280000000000    0.000000000000       4
    0.365079365079    0.280000000000    0.000000000000       4
    0.380952380952    0.280000000000    0.000000000000       4
    0.396825396825    0.280000000000    0.000000000000       4