CONTCAR\(4)                             
   1.00000000000000     
    13.7187995910999998    0.0000000000000000    0.0000000000000000
    -4.5729412920000003   17.9978325079000001    0.0000000000000000
     0.0000000000000000    0.0000000000000000   21.4340000153000005
   Ag   Te   Mo   O    H 
     6    36    36     2     1
Direct
  0.0033752254255976  0.9981682792433627  0.5031045126738189
  0.3308286020206788  0.9983414892701294  0.5027128036358036
  0.6664017537501151  0.9982161308488069  0.4995858915140021
  0.0013821947797474  0.4982793767359245  0.4960923536427354
  0.3362138534053586  0.4984424453671601  0.4938077288359559
  0.6664231503004157  0.4985192269178422  0.4942614438272567
  0.2584291891903543  0.2735835759628645  0.6475863372056859
  0.1389602822958171  0.4139728410570918  0.5614905441231786
  0.1946102742060893  0.0830279738820896  0.4350162211403775
  0.0361736543419016  0.1074351537982500  0.5969718937346851
  0.2963963836129514  0.3890033725759688  0.3998664526137463
  0.0747850348731388  0.2235286874242570  0.3493152263519164
  0.5917790485652036  0.2733991400849318  0.6477230965500770
  0.4721749740831916  0.4137982631792235  0.5616141492676243
  0.5275567153956271  0.0825750748838487  0.4356631393038564
  0.3699021955990484  0.1073458839099324  0.5970142896748778
  0.6302518756798491  0.3889253088914424  0.3999976927665346
  0.4083594930172982  0.2233423440643176  0.3493509938277957
  0.9250692119028869  0.2731286912213191  0.6477992695654461
  0.8053078407661102  0.4138130528824502  0.5616244286156002
  0.8616584230364762  0.0826798902711814  0.4359570577102053
  0.7024432626768986  0.1069971696494049  0.5963140388380440
  0.9634720967088840  0.3895090682870154  0.4004396993111466
  0.7417546562373623  0.2232729274689977  0.3492797912226646
  0.2600154363265002  0.7680809300730663  0.6489064636127836
  0.1388609455385942  0.9117884893885566  0.5674939821808794
  0.1959179821838823  0.5852057402026410  0.4323291565499777
  0.0367099906201783  0.6050291447623375  0.5941880128143487
  0.2987615594235034  0.8928750420804569  0.4047589877094402
  0.0779576711851899  0.7295160725186007  0.3497548734831613
  0.5895264916142640  0.7626832637843797  0.6518242093493667
  0.4757271795256681  0.9108805642661835  0.5655451760866664
  0.5296690053650606  0.5843903185851339  0.4305812066750576
  0.3693588030506954  0.6037406280130700  0.5921343393884595
  0.6321958033253686  0.8913138839773975  0.4008662565109880
  0.4095540454164883  0.7283728032820488  0.3483415661293781
  0.9220609303950237  0.7681770383307548  0.6490217689922914
  0.8014174270542908  0.9110769788955656  0.5651518421968896
  0.8637575991875734  0.5850076552174794  0.4326849403841980
  0.7025189615928785  0.6040569774598717  0.5931147179317566
  0.9659368541578083  0.8927827524581033  0.4050070674781345
  0.7457987937136821  0.7277676228017487  0.3486128794895811
  0.1057757281930959  0.3160550282941209  0.4548055231764432
  0.2274291614799052  0.1807641899907486  0.5422229987782695
  0.0567794386383806  0.1690812398031590  0.4724691462449097
  0.2765428879535213  0.3277727449407594  0.5245313060554322
  0.0871496145759712  0.2600008842407890  0.5694361834394847
  0.2460506286930233  0.2368101467837796  0.4275689172895649
  0.4391694053798469  0.3159319981136856  0.4547254819499567
  0.5607275213351687  0.1806791693126878  0.5422355019716467
  0.3900981774014719  0.1689766092126851  0.4724139206881005
  0.6098434981658448  0.3276288387270855  0.5245804120329446
  0.4204841992602883  0.2598407410093855  0.5694001428198275
  0.5794645979134763  0.2366658281973371  0.4275723705406075
  0.7725457455702559  0.3159043851925235  0.4548701511168569
  0.8939770628372152  0.1806232797677582  0.5423416322203349
  0.7234271034599200  0.1689296093854595  0.4723981017124086
  0.9430418027796081  0.3276636180839707  0.5247762278428914
  0.7538082567635236  0.2597742166399997  0.5695095197198968
  0.9127426896632999  0.2367622380235432  0.4277191555292690
  0.1074574401760641  0.8178397215455319  0.4578961785738366
  0.2286999161395287  0.6797300726838101  0.5413156124561987
  0.0583469884430336  0.6705911499099698  0.4715984979129956
  0.2785565218610125  0.8272248081949221  0.5275072995522745
  0.0876009231253253  0.7581283794106306  0.5710182778940370
  0.2477705272083181  0.7394467131462045  0.4279593046838849
  0.4397354452336832  0.8170118174853478  0.4556635694832149
  0.5608891436532706  0.6787392838946200  0.5392740214831583
  0.3912957845990421  0.6701292440327576  0.4699870743244308
  0.6104440434808341  0.8267560331345872  0.5221842168895988
  0.4230876467426140  0.7565431815671392  0.5704592699841176
  0.5810133709500127  0.7384897275125596  0.4258322907332337
  0.7746180563586715  0.8168138945028333  0.4557286888297953
  0.8941326740518611  0.6796923257189070  0.5415559831321318
  0.7250096282847733  0.6700104742818540  0.4703885153131918
  0.9427372965876091  0.8271904741070374  0.5276312807264720
  0.7511150268535199  0.7569304802015091  0.5706776751588369
  0.9148468937332724  0.7393170650733498  0.4281790420199449
  0.4687535340531118  0.6418179189659700  0.7353723905747791
  0.5661567626862540  0.6603438629014050  0.7055614233753736
  0.4832807021667082  0.6669293840344082  0.7758661138532392
 
  0.00000000E+00  0.00000000E+00  0.00000000E+00
  0.00000000E+00  0.00000000E+00  0.00000000E+00
  0.00000000E+00  0.00000000E+00  0.00000000E+00
  0.00000000E+00  0.00000000E+00  0.00000000E+00
  0.00000000E+00  0.00000000E+00  0.00000000E+00
  0.00000000E+00  0.00000000E+00  0.00000000E+00
  0.00000000E+00  0.00000000E+00  0.00000000E+00
  0.00000000E+00  0.00000000E+00  0.00000000E+00
  0.00000000E+00  0.00000000E+00  0.00000000E+00
  0.00000000E+00  0.00000000E+00  0.00000000E+00
  0.00000000E+00  0.00000000E+00  0.00000000E+00
  0.00000000E+00  0.00000000E+00  0.00000000E+00
  0.00000000E+00  0.00000000E+00  0.00000000E+00
  0.00000000E+00  0.00000000E+00  0.00000000E+00
  0.00000000E+00  0.00000000E+00  0.00000000E+00
  0.00000000E+00  0.00000000E+00  0.00000000E+00
  0.00000000E+00  0.00000000E+00  0.00000000E+00
  0.00000000E+00  0.00000000E+00  0.00000000E+00
  0.00000000E+00  0.00000000E+00  0.00000000E+00
  0.00000000E+00  0.00000000E+00  0.00000000E+00
  0.00000000E+00  0.00000000E+00  0.00000000E+00
  0.00000000E+00  0.00000000E+00  0.00000000E+00
  0.00000000E+00  0.00000000E+00  0.00000000E+00
  0.00000000E+00  0.00000000E+00  0.00000000E+00
  0.00000000E+00  0.00000000E+00  0.00000000E+00
  0.00000000E+00  0.00000000E+00  0.00000000E+00
  0.00000000E+00  0.00000000E+00  0.00000000E+00
  0.00000000E+00  0.00000000E+00  0.00000000E+00
  0.00000000E+00  0.00000000E+00  0.00000000E+00
  0.00000000E+00  0.00000000E+00  0.00000000E+00
  0.00000000E+00  0.00000000E+00  0.00000000E+00
  0.00000000E+00  0.00000000E+00  0.00000000E+00
  0.00000000E+00  0.00000000E+00  0.00000000E+00
  0.00000000E+00  0.00000000E+00  0.00000000E+00
  0.00000000E+00  0.00000000E+00  0.00000000E+00
  0.00000000E+00  0.00000000E+00  0.00000000E+00
  0.00000000E+00  0.00000000E+00  0.00000000E+00
  0.00000000E+00  0.00000000E+00  0.00000000E+00
  0.00000000E+00  0.00000000E+00  0.00000000E+00
  0.00000000E+00  0.00000000E+00  0.00000000E+00
  0.00000000E+00  0.00000000E+00  0.00000000E+00
  0.00000000E+00  0.00000000E+00  0.00000000E+00
  0.00000000E+00  0.00000000E+00  0.00000000E+00
  0.00000000E+00  0.00000000E+00  0.00000000E+00
  0.00000000E+00  0.00000000E+00  0.00000000E+00
  0.00000000E+00  0.00000000E+00  0.00000000E+00
  0.00000000E+00  0.00000000E+00  0.00000000E+00
  0.00000000E+00  0.00000000E+00  0.00000000E+00
  0.00000000E+00  0.00000000E+00  0.00000000E+00
  0.00000000E+00  0.00000000E+00  0.00000000E+00
  0.00000000E+00  0.00000000E+00  0.00000000E+00
  0.00000000E+00  0.00000000E+00  0.00000000E+00
  0.00000000E+00  0.00000000E+00  0.00000000E+00
  0.00000000E+00  0.00000000E+00  0.00000000E+00
  0.00000000E+00  0.00000000E+00  0.00000000E+00
  0.00000000E+00  0.00000000E+00  0.00000000E+00
  0.00000000E+00  0.00000000E+00  0.00000000E+00
  0.00000000E+00  0.00000000E+00  0.00000000E+00
  0.00000000E+00  0.00000000E+00  0.00000000E+00
  0.00000000E+00  0.00000000E+00  0.00000000E+00
  0.00000000E+00  0.00000000E+00  0.00000000E+00
  0.00000000E+00  0.00000000E+00  0.00000000E+00
  0.00000000E+00  0.00000000E+00  0.00000000E+00
  0.00000000E+00  0.00000000E+00  0.00000000E+00
  0.00000000E+00  0.00000000E+00  0.00000000E+00
  0.00000000E+00  0.00000000E+00  0.00000000E+00
  0.00000000E+00  0.00000000E+00  0.00000000E+00
  0.00000000E+00  0.00000000E+00  0.00000000E+00
  0.00000000E+00  0.00000000E+00  0.00000000E+00
  0.00000000E+00  0.00000000E+00  0.00000000E+00
  0.00000000E+00  0.00000000E+00  0.00000000E+00
  0.00000000E+00  0.00000000E+00  0.00000000E+00
  0.00000000E+00  0.00000000E+00  0.00000000E+00
  0.00000000E+00  0.00000000E+00  0.00000000E+00
  0.00000000E+00  0.00000000E+00  0.00000000E+00
  0.00000000E+00  0.00000000E+00  0.00000000E+00
  0.00000000E+00  0.00000000E+00  0.00000000E+00
  0.00000000E+00  0.00000000E+00  0.00000000E+00
  0.00000000E+00  0.00000000E+00  0.00000000E+00
  0.00000000E+00  0.00000000E+00  0.00000000E+00
  0.00000000E+00  0.00000000E+00  0.00000000E+00
