 Pr2 Te6                                
   1.00000000000000     
     4.3799264342436315    0.0000000000000000    0.0000000000000000
     0.0000000000000000    4.3781684239236043    0.0000000000000000
     0.0000000000000000    0.0000000000000000   24.5086115592400056
   Pr   Te
     2     6
Direct
  0.4197172213919416  0.0000002418040523  0.5879275705042986
  0.9197171887576587  0.4999997559201290  0.4120724602677726
  0.4201511825689153  0.4999999986334416  0.3062718799292270
  0.9201513550248563  0.0000000042657504  0.6937280899907705
  0.9197621205867961  0.5000000998144856  0.5480276370191035
  0.4197621232215454  0.9999999157238406  0.4519723675562091
  0.9201698340636710  0.9999999670553663  0.3062717249819613
  0.4201699743846206  0.5000000167829270  0.6937282697506504
 
  0.00000000E+00  0.00000000E+00  0.00000000E+00
  0.00000000E+00  0.00000000E+00  0.00000000E+00
  0.00000000E+00  0.00000000E+00  0.00000000E+00
  0.00000000E+00  0.00000000E+00  0.00000000E+00
  0.00000000E+00  0.00000000E+00  0.00000000E+00
  0.00000000E+00  0.00000000E+00  0.00000000E+00
  0.00000000E+00  0.00000000E+00  0.00000000E+00
  0.00000000E+00  0.00000000E+00  0.00000000E+00
