CONTCAR\(2)                             
   1.00000000000000     
    12.9315996169999998    0.0000000000000000    0.0000000000000000
     0.0000000000000000   12.9343004226999998    0.0000000000000000
     0.0000000000000000    0.0000000000000000   24.0856990814000014
   La   Te   Se   O    H 
    18    36    18     1     1
Direct
  0.1655794662483939  0.0016589054066755  0.5781420778218772
  0.9977493468763546  0.1684745603001868  0.4238394664444001
  0.5000006426970914  0.0015679244920955  0.5781713108959674
  0.3307728281358249  0.1676147300344084  0.4227137321966189
  0.8340098077720827  0.0018632578463808  0.5785796866970598
  0.6649257977274250  0.1677404017849983  0.4232662562299095
  0.1650165085424318  0.3350365560628632  0.5782842765682271
  0.9975324332792084  0.5016070988504550  0.4240749888551334
  0.4961594392615707  0.3271271998662457  0.5749865047922038
  0.3308714406487200  0.5017022059687226  0.4234250910102217
  0.8319860090843364  0.3348506905782921  0.5795532248242471
  0.6641164918334846  0.5016891564505309  0.4240198684644099
  0.1645332368798650  0.6679592045581116  0.5782119063772658
  0.9977927245577033  0.8347583358314709  0.4237614271203693
  0.4964102804684233  0.6757010233478129  0.5751459884900145
  0.3308085400949460  0.8356149421610106  0.4228062670447640
  0.8320225509771048  0.6687916439759242  0.5793972925475840
  0.6649219319651732  0.8355942337819162  0.4231556909519737
  0.0063418567136207  0.0019955132050779  0.6900765453589240
  0.1641114149123631  0.1683280999453435  0.3125565828230389
  0.1647810920743611  0.1680871055941270  0.6897984354865456
  0.9980272058187772  0.0015312555581506  0.3127666008613476
  0.3354673092926609  0.0022805652328783  0.6891486396362595
  0.4977214781584136  0.1683684648124426  0.3122502210778777
  0.4972699410418200  0.1670287730614201  0.6887267190168757
  0.3305621861355181  0.0015345666048700  0.3120885610598774
  0.6706678309724547  0.0011983972643776  0.6901855083335603
  0.8314958377334875  0.1684609686985776  0.3128489561280408
  0.8325005450876001  0.1673616219711689  0.6906126838380241
  0.6644588451301354  0.0020451735845449  0.3123413606535582
  0.9995271238008913  0.3350050639387028  0.6903426216752209
  0.1641582689041467  0.5020523441616610  0.3129219025164004
  0.1716575056616321  0.5009102947149973  0.6893541250287801
  0.9975961363139294  0.3353808583670885  0.3131523646975324
  0.3327605363296086  0.3356485459412344  0.6868906343553294
  0.4981557547169052  0.5015532334032141  0.3130614429651121
  0.5156480126802516  0.5016816433097494  0.6807342849988846
  0.3311443606762831  0.3352141352124895  0.3124275100188187
  0.6692989642108758  0.3300009665723586  0.6909226659243803
  0.8305704351529172  0.5015330132478742  0.3131252463168367
  0.8374302453710326  0.5020070687201851  0.6904752884442932
  0.6646615217646177  0.3348259408589750  0.3129360067746976
  0.9987991959235178  0.6678840418221405  0.6900380516730271
  0.1641534884866539  0.8345506744045069  0.3124906532634541
  0.1643178418672772  0.8357565711590706  0.6898854142668438
  0.9973108596324859  0.6680523811530488  0.3131838509822646
  0.3314618754531232  0.6697424991333499  0.6870900261542376
  0.4976310743545316  0.8353190751827094  0.3122263127991228
  0.4980894215691269  0.8358922158075835  0.6884608258861420
  0.3311397716737189  0.6683988808822219  0.3124759907901488
  0.6684127507956249  0.6720781651228332  0.6897822259620048
  0.8314027620123468  0.8351246225378174  0.3127657764994958
  0.8333463555111883  0.8375403429791711  0.6903582357887337
  0.6644631453606838  0.6682051367059315  0.3128426476884191
  0.9982123663756681  0.1690879522269281  0.5508184956072210
  0.1639730394787238  0.0014133248608759  0.4515492833307320
  0.3308773520187850  0.1663723450017201  0.5495253512675121
  0.4980195124919293  0.0016549733050245  0.4513705634625175
  0.6659405736396109  0.1671853802815372  0.5504371396536757
  0.8317319833118257  0.0016585144211883  0.4518743828637617
  0.9981504387878490  0.5017251287417460  0.5510588128073379
  0.1650082371370648  0.3351151551821667  0.4518481476326268
  0.3348117192789476  0.5018727747320769  0.5505982591215465
  0.4979251978984945  0.3339802626441038  0.4505014853888235
  0.6586304591905063  0.5012800289537387  0.5536973391930792
  0.8298583261001231  0.3359343234910991  0.4527425936994888
  0.9984427500768537  0.8345377302798679  0.5506853431417936
  0.1649531478004359  0.6679977325031347  0.4518315192554495
  0.3307993402684170  0.8365443537370090  0.5497629783900397
  0.4979513324598375  0.6693892697349089  0.4506873231632560
  0.6662131910944027  0.8360412130404505  0.5502329226080269
  0.8301143325745719  0.6673713843162379  0.4527969032122778
  0.4906253210640070  0.5008391277084866  0.7628221185962857
  0.4296493466071821  0.5448691626676713  0.7690283955281962
 
  0.00000000E+00  0.00000000E+00  0.00000000E+00
  0.00000000E+00  0.00000000E+00  0.00000000E+00
  0.00000000E+00  0.00000000E+00  0.00000000E+00
  0.00000000E+00  0.00000000E+00  0.00000000E+00
  0.00000000E+00  0.00000000E+00  0.00000000E+00
  0.00000000E+00  0.00000000E+00  0.00000000E+00
  0.00000000E+00  0.00000000E+00  0.00000000E+00
  0.00000000E+00  0.00000000E+00  0.00000000E+00
  0.00000000E+00  0.00000000E+00  0.00000000E+00
  0.00000000E+00  0.00000000E+00  0.00000000E+00
  0.00000000E+00  0.00000000E+00  0.00000000E+00
  0.00000000E+00  0.00000000E+00  0.00000000E+00
  0.00000000E+00  0.00000000E+00  0.00000000E+00
  0.00000000E+00  0.00000000E+00  0.00000000E+00
  0.00000000E+00  0.00000000E+00  0.00000000E+00
  0.00000000E+00  0.00000000E+00  0.00000000E+00
  0.00000000E+00  0.00000000E+00  0.00000000E+00
  0.00000000E+00  0.00000000E+00  0.00000000E+00
  0.00000000E+00  0.00000000E+00  0.00000000E+00
  0.00000000E+00  0.00000000E+00  0.00000000E+00
  0.00000000E+00  0.00000000E+00  0.00000000E+00
  0.00000000E+00  0.00000000E+00  0.00000000E+00
  0.00000000E+00  0.00000000E+00  0.00000000E+00
  0.00000000E+00  0.00000000E+00  0.00000000E+00
  0.00000000E+00  0.00000000E+00  0.00000000E+00
  0.00000000E+00  0.00000000E+00  0.00000000E+00
  0.00000000E+00  0.00000000E+00  0.00000000E+00
  0.00000000E+00  0.00000000E+00  0.00000000E+00
  0.00000000E+00  0.00000000E+00  0.00000000E+00
  0.00000000E+00  0.00000000E+00  0.00000000E+00
  0.00000000E+00  0.00000000E+00  0.00000000E+00
  0.00000000E+00  0.00000000E+00  0.00000000E+00
  0.00000000E+00  0.00000000E+00  0.00000000E+00
  0.00000000E+00  0.00000000E+00  0.00000000E+00
  0.00000000E+00  0.00000000E+00  0.00000000E+00
  0.00000000E+00  0.00000000E+00  0.00000000E+00
  0.00000000E+00  0.00000000E+00  0.00000000E+00
  0.00000000E+00  0.00000000E+00  0.00000000E+00
  0.00000000E+00  0.00000000E+00  0.00000000E+00
  0.00000000E+00  0.00000000E+00  0.00000000E+00
  0.00000000E+00  0.00000000E+00  0.00000000E+00
  0.00000000E+00  0.00000000E+00  0.00000000E+00
  0.00000000E+00  0.00000000E+00  0.00000000E+00
  0.00000000E+00  0.00000000E+00  0.00000000E+00
  0.00000000E+00  0.00000000E+00  0.00000000E+00
  0.00000000E+00  0.00000000E+00  0.00000000E+00
  0.00000000E+00  0.00000000E+00  0.00000000E+00
  0.00000000E+00  0.00000000E+00  0.00000000E+00
  0.00000000E+00  0.00000000E+00  0.00000000E+00
  0.00000000E+00  0.00000000E+00  0.00000000E+00
  0.00000000E+00  0.00000000E+00  0.00000000E+00
  0.00000000E+00  0.00000000E+00  0.00000000E+00
  0.00000000E+00  0.00000000E+00  0.00000000E+00
  0.00000000E+00  0.00000000E+00  0.00000000E+00
  0.00000000E+00  0.00000000E+00  0.00000000E+00
  0.00000000E+00  0.00000000E+00  0.00000000E+00
  0.00000000E+00  0.00000000E+00  0.00000000E+00
  0.00000000E+00  0.00000000E+00  0.00000000E+00
  0.00000000E+00  0.00000000E+00  0.00000000E+00
  0.00000000E+00  0.00000000E+00  0.00000000E+00
  0.00000000E+00  0.00000000E+00  0.00000000E+00
  0.00000000E+00  0.00000000E+00  0.00000000E+00
  0.00000000E+00  0.00000000E+00  0.00000000E+00
  0.00000000E+00  0.00000000E+00  0.00000000E+00
  0.00000000E+00  0.00000000E+00  0.00000000E+00
  0.00000000E+00  0.00000000E+00  0.00000000E+00
  0.00000000E+00  0.00000000E+00  0.00000000E+00
  0.00000000E+00  0.00000000E+00  0.00000000E+00
  0.00000000E+00  0.00000000E+00  0.00000000E+00
  0.00000000E+00  0.00000000E+00  0.00000000E+00
  0.00000000E+00  0.00000000E+00  0.00000000E+00
  0.00000000E+00  0.00000000E+00  0.00000000E+00
  0.00000000E+00  0.00000000E+00  0.00000000E+00
  0.00000000E+00  0.00000000E+00  0.00000000E+00
