CONTCAR                                 
   1.00000000000000     
    11.4335002898999996    0.0000000000000000    0.0000000000000000
     5.7167501449999998    9.9017017052000007    0.0000000000000000
     0.0000000000000000    0.0000000000000000   21.6627006530999999
   Zr   Te   P    O    H 
    18    18     9     2     1
Direct
  0.0994620290794775  0.1187240883131598  0.5675560883295926
  0.9888355085716261  0.0061378331817811  0.4351402508325011
  0.4339367013153383  0.1198604626965455  0.5673386707376789
  0.3214861855304586  0.0081962554450372  0.4341403566794628
  0.7778754039270646  0.0973497938323322  0.5681417724605458
  0.6570812120169874  0.0060468348286226  0.4345413738088547
  0.0983938252333222  0.4525871043998878  0.5653794635986829
  0.9886024945665460  0.3392943399186029  0.4356238600526280
  0.4401508875812359  0.4560602868106496  0.5700426071486346
  0.3235752016732789  0.3389104284328590  0.4354748486983666
  0.7549456574499296  0.4619815872512342  0.5669254325701644
  0.6559122848670124  0.3403275857888655  0.4356554910439899
  0.0997999799536035  0.7813644118251282  0.5654084786359950
  0.9908575747018653  0.6709511562521273  0.4343865074206109
  0.4325170547188010  0.7871484721059370  0.5654407118138595
  0.3184971594509183  0.6753699135048539  0.4333684408368126
  0.7693016853645729  0.7834989391743773  0.5650747342334912
  0.6572398651781811  0.6759351241056791  0.4327875233944489
  0.0067808301668562  0.9903410634471719  0.6584315968677300
  0.0984387201190870  0.1189000714107430  0.3468710150309970
  0.3229931615868063  0.0078554928814044  0.6553191026259354
  0.4343163196474168  0.1185097015935420  0.3466628150584407
  0.6569996251568616  0.9981875761575049  0.6559669430826407
  0.7666403507385042  0.1189001137031700  0.3465948912909216
  0.9818938318450946  0.3441720753143699  0.6553844540758539
  0.1021671659791535  0.4478511235998913  0.3467964303181358
  0.3223333970083000  0.3440258373248458  0.6543713964542890
  0.4342813956944795  0.4502638609632225  0.3467187165838087
  0.7354548049585280  0.2602825069394407  0.6786723633310578
  0.7673499659948979  0.4504676279696264  0.3463444506511670
  0.9897753182293036  0.6707689049678551  0.6547925057987584
  0.0981884484944179  0.7856449084734427  0.3454155570242561
  0.3203747389923316  0.6781715596413587  0.6553881734710659
  0.4322033572859779  0.7862066005119931  0.3455480267003666
  0.6532922307836059  0.6801417468874268  0.6549865629631294
  0.7686928688306589  0.7852701352619046  0.3452838424878308
  0.2113729722292880  0.2286596603216883  0.5012240118415479
  0.5493631781940110  0.2288324445430072  0.5034879462099606
  0.8741460479700504  0.2294298856695661  0.5035413360367667
  0.2151457302433961  0.5594671416673390  0.5008771449817023
  0.5408331844794554  0.5688693774404712  0.4971325979287338
  0.8769803048825076  0.5615601986853499  0.4998769169851198
  0.2103182018361770  0.8967785654212586  0.5004083432258023
  0.5440745778112070  0.8975657486908002  0.5000127766074186
  0.8804927358282587  0.8910673666094499  0.4988312604552974
  0.6169569090335741  0.4187602454913266  0.6207947301203456
  0.5896117867406859  0.2637823613574125  0.7318090654221193
  0.5801071980589307  0.3181821951857030  0.7684184270724932
 
  0.00000000E+00  0.00000000E+00  0.00000000E+00
  0.00000000E+00  0.00000000E+00  0.00000000E+00
  0.00000000E+00  0.00000000E+00  0.00000000E+00
  0.00000000E+00  0.00000000E+00  0.00000000E+00
  0.00000000E+00  0.00000000E+00  0.00000000E+00
  0.00000000E+00  0.00000000E+00  0.00000000E+00
  0.00000000E+00  0.00000000E+00  0.00000000E+00
  0.00000000E+00  0.00000000E+00  0.00000000E+00
  0.00000000E+00  0.00000000E+00  0.00000000E+00
  0.00000000E+00  0.00000000E+00  0.00000000E+00
  0.00000000E+00  0.00000000E+00  0.00000000E+00
  0.00000000E+00  0.00000000E+00  0.00000000E+00
  0.00000000E+00  0.00000000E+00  0.00000000E+00
  0.00000000E+00  0.00000000E+00  0.00000000E+00
  0.00000000E+00  0.00000000E+00  0.00000000E+00
  0.00000000E+00  0.00000000E+00  0.00000000E+00
  0.00000000E+00  0.00000000E+00  0.00000000E+00
  0.00000000E+00  0.00000000E+00  0.00000000E+00
  0.00000000E+00  0.00000000E+00  0.00000000E+00
  0.00000000E+00  0.00000000E+00  0.00000000E+00
  0.00000000E+00  0.00000000E+00  0.00000000E+00
  0.00000000E+00  0.00000000E+00  0.00000000E+00
  0.00000000E+00  0.00000000E+00  0.00000000E+00
  0.00000000E+00  0.00000000E+00  0.00000000E+00
  0.00000000E+00  0.00000000E+00  0.00000000E+00
  0.00000000E+00  0.00000000E+00  0.00000000E+00
  0.00000000E+00  0.00000000E+00  0.00000000E+00
  0.00000000E+00  0.00000000E+00  0.00000000E+00
  0.00000000E+00  0.00000000E+00  0.00000000E+00
  0.00000000E+00  0.00000000E+00  0.00000000E+00
  0.00000000E+00  0.00000000E+00  0.00000000E+00
  0.00000000E+00  0.00000000E+00  0.00000000E+00
  0.00000000E+00  0.00000000E+00  0.00000000E+00
  0.00000000E+00  0.00000000E+00  0.00000000E+00
  0.00000000E+00  0.00000000E+00  0.00000000E+00
  0.00000000E+00  0.00000000E+00  0.00000000E+00
  0.00000000E+00  0.00000000E+00  0.00000000E+00
  0.00000000E+00  0.00000000E+00  0.00000000E+00
  0.00000000E+00  0.00000000E+00  0.00000000E+00
  0.00000000E+00  0.00000000E+00  0.00000000E+00
  0.00000000E+00  0.00000000E+00  0.00000000E+00
  0.00000000E+00  0.00000000E+00  0.00000000E+00
  0.00000000E+00  0.00000000E+00  0.00000000E+00
  0.00000000E+00  0.00000000E+00  0.00000000E+00
  0.00000000E+00  0.00000000E+00  0.00000000E+00
  0.00000000E+00  0.00000000E+00  0.00000000E+00
  0.00000000E+00  0.00000000E+00  0.00000000E+00
  0.00000000E+00  0.00000000E+00  0.00000000E+00
