CONTCAR\(10)                            
   1.00000000000000     
     9.7571001052999993    0.0000000000000000    0.0000000000000000
    -3.0063686365000000   15.8319856181999992    0.0000000000000000
     0.0000000000000000    0.0000000000000000   18.2793006897000012
   V    P    S    O 
     4     8    26     1
Direct
  0.6437684744429496  0.6118782623393865  0.4806317882819957
  0.6167782451944787  0.1029778774106708  0.4990378789127437
  0.3803750846266776  0.3960777010039670  0.5027945908176161
  0.3825416108481975  0.8936236286646064  0.4967680345227487
  0.8277868227713843  0.2600770080624102  0.4924314358230816
  0.6949363617049766  0.4348434455284396  0.5338970934534684
  0.1666325891150811  0.7401887020016242  0.5082273294517721
  0.1722385971522921  0.2378516351927091  0.4948880043110034
  0.3050257855135729  0.0646940839349807  0.5369347876017503
  0.6953068476288725  0.9321955511630478  0.4617051488723861
  0.3074495950038849  0.5666306934585370  0.4656912398277922
  0.8362708346511851  0.8099379686796658  0.5702158503582152
  0.1130715454835192  0.1076607436041251  0.5249684328973413
  0.8790452789494535  0.8788139695129088  0.4691680179739812
  0.0121445969178078  0.7472152841776115  0.5887893064565614
  0.3906911622797629  0.0379811259146040  0.4380355189349411
  0.5445855395553110  0.3549988738556740  0.5882080544365220
  0.2436498699158992  0.4547376390609060  0.4138916258148228
  0.1984303115082631  0.3176193148692357  0.5803984711838247
  0.6535833763304284  0.7222265392977434  0.5664874649502473
  0.4583425056211974  0.6467339598534484  0.4099750485743506
  0.6022510003743136  0.4594509805171029  0.4365698120048029
  0.6625469481400910  0.2310686798220892  0.4251777201455191
  0.8856625217663489  0.3907900688230162  0.5211423724981912
  0.0020797167075329  0.2496082783266614  0.4242649721247319
  0.6068335050770534  0.9605750955142467  0.5590816314165888
  0.7932551216484305  0.6659521534588299  0.4089532139772648
  0.3920534537376812  0.5378191294713511  0.5623426604752779
  0.1850896662154769  0.8212360266661519  0.4239624698959726
  0.7613707741734628  0.5502953431014971  0.5777999956567755
  0.5365521613308734  0.8558550918001963  0.4080945271946735
  0.2444490673494395  0.9530509891777260  0.5877080096085201
  0.3451728142150040  0.7662599460361808  0.5673383766541327
  0.8003786127528459  0.1801175907085446  0.5775794202339998
  0.7569684696258515  0.0441974127309406  0.4102560863470716
  0.4604091103680639  0.1464296467930719  0.5864364850364198
  0.1149069955051520  0.6101495181001286  0.4748638941587943
  0.3391939748370478  0.2675271253132402  0.4290494187361127
  0.8371608699601391  0.8670230580527146  0.6340439783779717
 
  0.00000000E+00  0.00000000E+00  0.00000000E+00
  0.00000000E+00  0.00000000E+00  0.00000000E+00
  0.00000000E+00  0.00000000E+00  0.00000000E+00
  0.00000000E+00  0.00000000E+00  0.00000000E+00
  0.00000000E+00  0.00000000E+00  0.00000000E+00
  0.00000000E+00  0.00000000E+00  0.00000000E+00
  0.00000000E+00  0.00000000E+00  0.00000000E+00
  0.00000000E+00  0.00000000E+00  0.00000000E+00
  0.00000000E+00  0.00000000E+00  0.00000000E+00
  0.00000000E+00  0.00000000E+00  0.00000000E+00
  0.00000000E+00  0.00000000E+00  0.00000000E+00
  0.00000000E+00  0.00000000E+00  0.00000000E+00
  0.00000000E+00  0.00000000E+00  0.00000000E+00
  0.00000000E+00  0.00000000E+00  0.00000000E+00
  0.00000000E+00  0.00000000E+00  0.00000000E+00
  0.00000000E+00  0.00000000E+00  0.00000000E+00
  0.00000000E+00  0.00000000E+00  0.00000000E+00
  0.00000000E+00  0.00000000E+00  0.00000000E+00
  0.00000000E+00  0.00000000E+00  0.00000000E+00
  0.00000000E+00  0.00000000E+00  0.00000000E+00
  0.00000000E+00  0.00000000E+00  0.00000000E+00
  0.00000000E+00  0.00000000E+00  0.00000000E+00
  0.00000000E+00  0.00000000E+00  0.00000000E+00
  0.00000000E+00  0.00000000E+00  0.00000000E+00
  0.00000000E+00  0.00000000E+00  0.00000000E+00
  0.00000000E+00  0.00000000E+00  0.00000000E+00
  0.00000000E+00  0.00000000E+00  0.00000000E+00
  0.00000000E+00  0.00000000E+00  0.00000000E+00
  0.00000000E+00  0.00000000E+00  0.00000000E+00
  0.00000000E+00  0.00000000E+00  0.00000000E+00
  0.00000000E+00  0.00000000E+00  0.00000000E+00
  0.00000000E+00  0.00000000E+00  0.00000000E+00
  0.00000000E+00  0.00000000E+00  0.00000000E+00
  0.00000000E+00  0.00000000E+00  0.00000000E+00
  0.00000000E+00  0.00000000E+00  0.00000000E+00
  0.00000000E+00  0.00000000E+00  0.00000000E+00
  0.00000000E+00  0.00000000E+00  0.00000000E+00
  0.00000000E+00  0.00000000E+00  0.00000000E+00
  0.00000000E+00  0.00000000E+00  0.00000000E+00
