CONTCAR\(4)                             
   1.00000000000000     
    13.8191995620999997    0.0000000000000000    0.0000000000000000
     0.0000000000000000   12.6052999496000009    0.0000000000000000
     0.0000000000000000    0.0000000000000000   19.1947002411000014
   Te   W 
    32    16
Direct
  0.1250000000000000  0.3952386846517300  0.4223537844687044
  0.0000000000000000  0.1498484997451826  0.3905863980690896
  0.1250000000000000  0.0706414962548152  0.6093936289309099
  0.0000000000000000  0.3252813563482704  0.5776562015312976
  0.3750000089999972  0.3952386846517300  0.4223537844687044
  0.2500000000000000  0.1498484997451826  0.3905863980690896
  0.3750000089999972  0.0706414962548152  0.6093936289309099
  0.2500000000000000  0.3252813563482704  0.5776562015312976
  0.6250000260000022  0.3952386846517300  0.4223537844687044
  0.5000000000000000  0.1498484997451826  0.3905863980690896
  0.6250000260000022  0.0706414962548152  0.6093936289309099
  0.5000000000000000  0.3252813563482704  0.5776562015312976
  0.8750000089999972  0.3952386846517300  0.4223537844687044
  0.7500000169999979  0.1498484997451826  0.3905863980690896
  0.8750000089999972  0.0706414962548152  0.6093936289309099
  0.7500000169999979  0.3252813563482704  0.5776562015312976
  0.1250000000000000  0.8952386846517300  0.4223537844687044
  0.0000000000000000  0.6498484997451826  0.3905863980690896
  0.1250000000000000  0.5706415052548195  0.6093936289309099
  0.0000000000000000  0.8252813183482743  0.5776562015312976
  0.3750000089999972  0.8952386846517300  0.4223537844687044
  0.2500000000000000  0.6498484997451826  0.3905863980690896
  0.3750000089999972  0.5706415052548195  0.6093936289309099
  0.2500000000000000  0.8252813183482743  0.5776562015312976
  0.6250000260000022  0.8952386846517300  0.4223537844687044
  0.5000000000000000  0.6498484997451826  0.3905863980690896
  0.6250000260000022  0.5706415052548195  0.6093936289309099
  0.5000000000000000  0.8252813183482743  0.5776562015312976
  0.8750000089999972  0.8952386846517300  0.4223537844687044
  0.7500000169999979  0.6498484997451826  0.3905863980690896
  0.8750000089999972  0.5706415052548195  0.6093936289309099
  0.7500000169999979  0.8252813183482743  0.5776562015312976
  0.0000000000000000  0.0210231954834015  0.5050613456837212
  0.1250000000000000  0.1994767885165984  0.4949386543162788
  0.2500000000000000  0.0210231954834015  0.5050613456837212
  0.3750000089999972  0.1994767885165984  0.4949386543162788
  0.5000000000000000  0.0210231954834015  0.5050613456837212
  0.6250000260000022  0.1994767885165984  0.4949386543162788
  0.7500000169999979  0.0210231954834015  0.5050613456837212
  0.8750000089999972  0.1994767885165984  0.4949386543162788
  0.0000000000000000  0.5210232404834017  0.5050613456837212
  0.1250000000000000  0.6994768265165945  0.4949386543162788
  0.2500000000000000  0.5210232404834017  0.5050613456837212
  0.3750000089999972  0.6994768265165945  0.4949386543162788
  0.5000000000000000  0.5210232404834017  0.5050613456837212
  0.6250000260000022  0.6994768265165945  0.4949386543162788
  0.7500000169999979  0.5210232404834017  0.5050613456837212
  0.8750000089999972  0.6994768265165945  0.4949386543162788
 
  0.00000000E+00  0.00000000E+00  0.00000000E+00
  0.00000000E+00  0.00000000E+00  0.00000000E+00
  0.00000000E+00  0.00000000E+00  0.00000000E+00
  0.00000000E+00  0.00000000E+00  0.00000000E+00
  0.00000000E+00  0.00000000E+00  0.00000000E+00
  0.00000000E+00  0.00000000E+00  0.00000000E+00
  0.00000000E+00  0.00000000E+00  0.00000000E+00
  0.00000000E+00  0.00000000E+00  0.00000000E+00
  0.00000000E+00  0.00000000E+00  0.00000000E+00
  0.00000000E+00  0.00000000E+00  0.00000000E+00
  0.00000000E+00  0.00000000E+00  0.00000000E+00
  0.00000000E+00  0.00000000E+00  0.00000000E+00
  0.00000000E+00  0.00000000E+00  0.00000000E+00
  0.00000000E+00  0.00000000E+00  0.00000000E+00
  0.00000000E+00  0.00000000E+00  0.00000000E+00
  0.00000000E+00  0.00000000E+00  0.00000000E+00
  0.00000000E+00  0.00000000E+00  0.00000000E+00
  0.00000000E+00  0.00000000E+00  0.00000000E+00
  0.00000000E+00  0.00000000E+00  0.00000000E+00
  0.00000000E+00  0.00000000E+00  0.00000000E+00
  0.00000000E+00  0.00000000E+00  0.00000000E+00
  0.00000000E+00  0.00000000E+00  0.00000000E+00
  0.00000000E+00  0.00000000E+00  0.00000000E+00
  0.00000000E+00  0.00000000E+00  0.00000000E+00
  0.00000000E+00  0.00000000E+00  0.00000000E+00
  0.00000000E+00  0.00000000E+00  0.00000000E+00
  0.00000000E+00  0.00000000E+00  0.00000000E+00
  0.00000000E+00  0.00000000E+00  0.00000000E+00
  0.00000000E+00  0.00000000E+00  0.00000000E+00
  0.00000000E+00  0.00000000E+00  0.00000000E+00
  0.00000000E+00  0.00000000E+00  0.00000000E+00
  0.00000000E+00  0.00000000E+00  0.00000000E+00
  0.00000000E+00  0.00000000E+00  0.00000000E+00
  0.00000000E+00  0.00000000E+00  0.00000000E+00
  0.00000000E+00  0.00000000E+00  0.00000000E+00
  0.00000000E+00  0.00000000E+00  0.00000000E+00
  0.00000000E+00  0.00000000E+00  0.00000000E+00
  0.00000000E+00  0.00000000E+00  0.00000000E+00
  0.00000000E+00  0.00000000E+00  0.00000000E+00
  0.00000000E+00  0.00000000E+00  0.00000000E+00
  0.00000000E+00  0.00000000E+00  0.00000000E+00
  0.00000000E+00  0.00000000E+00  0.00000000E+00
  0.00000000E+00  0.00000000E+00  0.00000000E+00
  0.00000000E+00  0.00000000E+00  0.00000000E+00
  0.00000000E+00  0.00000000E+00  0.00000000E+00
  0.00000000E+00  0.00000000E+00  0.00000000E+00
  0.00000000E+00  0.00000000E+00  0.00000000E+00
  0.00000000E+00  0.00000000E+00  0.00000000E+00
