CONTCAR\(2)                             
   1.00000000000000     
    11.7119998931999998    0.0000000000000000    0.0000000000000000
    -5.1174287261000000   10.4860139793999991    0.0000000000000000
     0.0000000000000000    0.0000000000000000   18.3064994811999995
   Mo   Cl   O    H 
     8    24     2     1
Selective dynamics
Direct
  0.0672049820732852  0.4356074735992976  0.4965726860422492   F   F   F
  0.4358249065660758  0.0668400632546380  0.4963311996880719   F   F   F
  0.5678019612585388  0.4358022629403919  0.4960796136284955   F   F   F
  0.9358862784595345  0.0671485083686036  0.4965107900668642   F   F   F
  0.0675740516027261  0.9356489995453998  0.4962940991741007   F   F   F
  0.4366397998577014  0.5681558751609970  0.4958287102310095   F   F   F
  0.5676033812574701  0.9356762717704541  0.4962278452425792   F   F   F
  0.9359965306368991  0.5672434654796348  0.4965968632814040   F   F   F
  0.0846351097291134  0.0844150569977913  0.5891706275317787   F   F   F
  0.4196109336430567  0.4188824683128018  0.4031824001392508   F   F   F
  0.0789180977086517  0.2511904152757509  0.4252289865795689   F   F   F
  0.2534862861816691  0.4244146507257369  0.5678172285125669   F   F   F
  0.4252389480956182  0.2525915679090573  0.5679559976506567   F   F   F
  0.2513752466128096  0.0783368231805284  0.4248500190876072   F   F   F
  0.5841449633126317  0.0841064571958938  0.5891514428894808   F   F   F
  0.9186466686445556  0.4178854547841837  0.4039190093407186   F   F   F
  0.5784005374731720  0.2508667178119097  0.4247041280570159   F   F   F
  0.7519417601742262  0.4246700870512612  0.5679542285091728   F   F   F
  0.9251327558278959  0.2520870342910229  0.5682445854314508   F   F   F
  0.7515210020598246  0.0785417584803767  0.4247934740726222   F   F   F
  0.0844578195537267  0.5843605667299840  0.5894197319460233   F   F   F
  0.4188130584543046  0.9181134548024232  0.4034608424585926   F   F   F
  0.0782556909320107  0.7506582955115917  0.4247348666627104   F   F   F
  0.2521476874245465  0.9243349951137176  0.5676799957059089   F   F   F
  0.4252374617085479  0.7518283109327513  0.5674296513461030   F   F   F
  0.2512081090684717  0.5780920313275217  0.4250273090495185   F   F   F
  0.5845882823411870  0.5849173957254905  0.5892544694986910   F   F   F
  0.9189960607711072  0.9184589021184166  0.4035538485530523   F   F   F
  0.5792008338909937  0.7512805075892857  0.4243040553819881   F   F   F
  0.7520689706183390  0.9248153496416265  0.5678211920582186   F   F   F
  0.9249671300467099  0.7518906382321120  0.5679521119980251   F   F   F
  0.7515690161170525  0.5780573319766020  0.4247312507565510   F   F   F
  0.4312275957714675  0.6217520451917196  0.7502980224346700   T   T   T
  0.3841158880060149  0.4947448681972730  0.7419937781742973   T   T   T
  0.3983925821200600  0.4820446107737197  0.6887657867016006   T   T   T
 
  0.00000000E+00  0.00000000E+00  0.00000000E+00
  0.00000000E+00  0.00000000E+00  0.00000000E+00
  0.00000000E+00  0.00000000E+00  0.00000000E+00
  0.00000000E+00  0.00000000E+00  0.00000000E+00
  0.00000000E+00  0.00000000E+00  0.00000000E+00
  0.00000000E+00  0.00000000E+00  0.00000000E+00
  0.00000000E+00  0.00000000E+00  0.00000000E+00
  0.00000000E+00  0.00000000E+00  0.00000000E+00
  0.00000000E+00  0.00000000E+00  0.00000000E+00
  0.00000000E+00  0.00000000E+00  0.00000000E+00
  0.00000000E+00  0.00000000E+00  0.00000000E+00
  0.00000000E+00  0.00000000E+00  0.00000000E+00
  0.00000000E+00  0.00000000E+00  0.00000000E+00
  0.00000000E+00  0.00000000E+00  0.00000000E+00
  0.00000000E+00  0.00000000E+00  0.00000000E+00
  0.00000000E+00  0.00000000E+00  0.00000000E+00
  0.00000000E+00  0.00000000E+00  0.00000000E+00
  0.00000000E+00  0.00000000E+00  0.00000000E+00
  0.00000000E+00  0.00000000E+00  0.00000000E+00
  0.00000000E+00  0.00000000E+00  0.00000000E+00
  0.00000000E+00  0.00000000E+00  0.00000000E+00
  0.00000000E+00  0.00000000E+00  0.00000000E+00
  0.00000000E+00  0.00000000E+00  0.00000000E+00
  0.00000000E+00  0.00000000E+00  0.00000000E+00
  0.00000000E+00  0.00000000E+00  0.00000000E+00
  0.00000000E+00  0.00000000E+00  0.00000000E+00
  0.00000000E+00  0.00000000E+00  0.00000000E+00
  0.00000000E+00  0.00000000E+00  0.00000000E+00
  0.00000000E+00  0.00000000E+00  0.00000000E+00
  0.00000000E+00  0.00000000E+00  0.00000000E+00
  0.00000000E+00  0.00000000E+00  0.00000000E+00
  0.00000000E+00  0.00000000E+00  0.00000000E+00
  0.00000000E+00  0.00000000E+00  0.00000000E+00
  0.00000000E+00  0.00000000E+00  0.00000000E+00
  0.00000000E+00  0.00000000E+00  0.00000000E+00
