 Ce2 I6                                 
   1.00000000000000     
     4.3268065115649099    0.0000000000000000    0.0000000000000000
     0.0000000000000000   10.1036548709657019    0.0000000000000000
     0.0000000000000000    0.0000000000000000   19.8038660740979964
   Ce   I 
     2     6
Direct
  0.4999999987036432  0.0000000058640595  0.5056409842915528
  0.0000000043641748  0.5000000032614054  0.4943588974319368
  0.0000000172680714  0.8171455027202086  0.4248713206357522
  0.4999999806866384  0.6828521338577502  0.5751280833739401
  0.5000000064045338  0.3171478580656668  0.5751280838686483
  0.9999999751129067  0.1828545043825045  0.4248713248303631
  0.0000000090893408  0.9999999974059861  0.6212890041173225
  0.5000000083706908  0.4999999944424260  0.3787123014504914
 
  0.00000000E+00  0.00000000E+00  0.00000000E+00
  0.00000000E+00  0.00000000E+00  0.00000000E+00
  0.00000000E+00  0.00000000E+00  0.00000000E+00
  0.00000000E+00  0.00000000E+00  0.00000000E+00
  0.00000000E+00  0.00000000E+00  0.00000000E+00
  0.00000000E+00  0.00000000E+00  0.00000000E+00
  0.00000000E+00  0.00000000E+00  0.00000000E+00
  0.00000000E+00  0.00000000E+00  0.00000000E+00
