G   46   20    1    0.005     # Parameters to Generate KPOINTS (Don't Edit This Line)
     264
Reciprocal lattice
    0.000000000000    0.000000000000    0.000000000000       1
    0.021739130435    0.000000000000    0.000000000000       2
    0.043478260870    0.000000000000    0.000000000000       2
    0.065217391304    0.000000000000    0.000000000000       2
    0.086956521739    0.000000000000    0.000000000000       2
    0.108695652174    0.000000000000    0.000000000000       2
    0.130434782609    0.000000000000    0.000000000000       2
    0.152173913043    0.000000000000    0.000000000000       2
    0.173913043478    0.000000000000    0.000000000000       2
    0.195652173913    0.000000000000    0.000000000000       2
    0.217391304348    0.000000000000    0.000000000000       2
    0.239130434783    0.000000000000    0.000000000000       2
    0.260869565217    0.000000000000    0.000000000000       2
    0.282608695652    0.000000000000    0.000000000000       2
    0.304347826087    0.000000000000    0.000000000000       2
    0.326086956522    0.000000000000    0.000000000000       2
    0.347826086957    0.000000000000    0.000000000000       2
    0.369565217391    0.000000000000    0.000000000000       2
    0.391304347826    0.000000000000    0.000000000000       2
    0.413043478261    0.000000000000    0.000000000000       2
    0.434782608696    0.000000000000    0.000000000000       2
    0.456521739130    0.000000000000    0.000000000000       2
    0.478260869565    0.000000000000    0.000000000000       2
    0.500000000000    0.000000000000    0.000000000000       1
    0.000000000000    0.050000000000    0.000000000000       2
    0.021739130435    0.050000000000    0.000000000000       4
    0.043478260870    0.050000000000    0.000000000000       4
    0.065217391304    0.050000000000    0.000000000000       4
    0.086956521739    0.050000000000    0.000000000000       4
    0.108695652174    0.050000000000    0.000000000000       4
    0.130434782609    0.050000000000    0.000000000000       4
    0.152173913043    0.050000000000    0.000000000000       4
    0.173913043478    0.050000000000    0.000000000000       4
    0.195652173913    0.050000000000    0.000000000000       4
    0.217391304348    0.050000000000    0.000000000000       4
    0.239130434783    0.050000000000    0.000000000000       4
    0.260869565217    0.050000000000    0.000000000000       4
    0.282608695652    0.050000000000    0.000000000000       4
    0.304347826087    0.050000000000    0.000000000000       4
    0.326086956522    0.050000000000    0.000000000000       4
    0.347826086957    0.050000000000    0.000000000000       4
    0.369565217391    0.050000000000    0.000000000000       4
    0.391304347826    0.050000000000    0.000000000000       4
    0.413043478261    0.050000000000    0.000000000000       4
    0.434782608696    0.050000000000    0.000000000000       4
    0.456521739130    0.050000000000    0.000000000000       4
    0.478260869565    0.050000000000    0.000000000000       4
    0.500000000000    0.050000000000    0.000000000000       2
    0.000000000000    0.100000000000    0.000000000000       2
    0.021739130435    0.100000000000    0.000000000000       4
    0.043478260870    0.100000000000    0.000000000000       4
    0.065217391304    0.100000000000    0.000000000000       4
    0.086956521739    0.100000000000    0.000000000000       4
    0.108695652174    0.100000000000    0.000000000000       4
    0.130434782609    0.100000000000    0.000000000000       4
    0.152173913043    0.100000000000    0.000000000000       4
    0.173913043478    0.100000000000    0.000000000000       4
    0.195652173913    0.100000000000    0.000000000000       4
    0.217391304348    0.100000000000    0.000000000000       4
    0.239130434783    0.100000000000    0.000000000000       4
    0.260869565217    0.100000000000    0.000000000000       4
    0.282608695652    0.100000000000    0.000000000000       4
    0.304347826087    0.100000000000    0.000000000000       4
    0.326086956522    0.100000000000    0.000000000000       4
    0.347826086957    0.100000000000    0.000000000000       4
    0.369565217391    0.100000000000    0.000000000000       4
    0.391304347826    0.100000000000    0.000000000000       4
    0.413043478261    0.100000000000    0.000000000000       4
    0.434782608696    0.100000000000    0.000000000000       4
    0.456521739130    0.100000000000    0.000000000000       4
    0.478260869565    0.100000000000    0.000000000000       4
    0.500000000000    0.100000000000    0.000000000000       2
    0.000000000000    0.150000000000    0.000000000000       2
    0.021739130435    0.150000000000    0.000000000000       4
    0.043478260870    0.150000000000    0.000000000000       4
    0.065217391304    0.150000000000    0.000000000000       4
    0.086956521739    0.150000000000    0.000000000000       4
    0.108695652174    0.150000000000    0.000000000000       4
    0.130434782609    0.150000000000    0.000000000000       4
    0.152173913043    0.150000000000    0.000000000000       4
    0.173913043478    0.150000000000    0.000000000000       4
    0.195652173913    0.150000000000    0.000000000000       4
    0.217391304348    0.150000000000    0.000000000000       4
    0.239130434783    0.150000000000    0.000000000000       4
    0.260869565217    0.150000000000    0.000000000000       4
    0.282608695652    0.150000000000    0.000000000000       4
    0.304347826087    0.150000000000    0.000000000000       4
    0.326086956522    0.150000000000    0.000000000000       4
    0.347826086957    0.150000000000    0.000000000000       4
    0.369565217391    0.150000000000    0.000000000000       4
    0.391304347826    0.150000000000    0.000000000000       4
    0.413043478261    0.150000000000    0.000000000000       4
    0.434782608696    0.150000000000    0.000000000000       4
    0.456521739130    0.150000000000    0.000000000000       4
    0.478260869565    0.150000000000    0.000000000000       4
    0.500000000000    0.150000000000    0.000000000000       2
    0.000000000000    0.200000000000    0.000000000000       2
    0.021739130435    0.200000000000    0.000000000000       4
    0.043478260870    0.200000000000    0.000000000000       4
    0.065217391304    0.200000000000    0.000000000000       4
    0.086956521739    0.200000000000    0.000000000000       4
    0.108695652174    0.200000000000    0.000000000000       4
    0.130434782609    0.200000000000    0.000000000000       4
    0.152173913043    0.200000000000    0.000000000000       4
    0.173913043478    0.200000000000    0.000000000000       4
    0.195652173913    0.200000000000    0.000000000000       4
    0.217391304348    0.200000000000    0.000000000000       4
    0.239130434783    0.200000000000    0.000000000000       4
    0.260869565217    0.200000000000    0.000000000000       4
    0.282608695652    0.200000000000    0.000000000000       4
    0.304347826087    0.200000000000    0.000000000000       4
    0.326086956522    0.200000000000    0.000000000000       4
    0.347826086957    0.200000000000    0.000000000000       4
    0.369565217391    0.200000000000    0.000000000000       4
    0.391304347826    0.200000000000    0.000000000000       4
    0.413043478261    0.200000000000    0.000000000000       4
    0.434782608696    0.200000000000    0.000000000000       4
    0.456521739130    0.200000000000    0.000000000000       4
    0.478260869565    0.200000000000    0.000000000000       4
    0.500000000000    0.200000000000    0.000000000000       2
    0.000000000000    0.250000000000    0.000000000000       2
    0.021739130435    0.250000000000    0.000000000000       4
    0.043478260870    0.250000000000    0.000000000000       4
    0.065217391304    0.250000000000    0.000000000000       4
    0.086956521739    0.250000000000    0.000000000000       4
    0.108695652174    0.250000000000    0.000000000000       4
    0.130434782609    0.250000000000    0.000000000000       4
    0.152173913043    0.250000000000    0.000000000000       4
    0.173913043478    0.250000000000    0.000000000000       4
    0.195652173913    0.250000000000    0.000000000000       4
    0.217391304348    0.250000000000    0.000000000000       4
    0.239130434783    0.250000000000    0.000000000000       4
    0.260869565217    0.250000000000    0.000000000000       4
    0.282608695652    0.250000000000    0.000000000000       4
    0.304347826087    0.250000000000    0.000000000000       4
    0.326086956522    0.250000000000    0.000000000000       4
    0.347826086957    0.250000000000    0.000000000000       4
    0.369565217391    0.250000000000    0.000000000000       4
    0.391304347826    0.250000000000    0.000000000000       4
    0.413043478261    0.250000000000    0.000000000000       4
    0.434782608696    0.250000000000    0.000000000000       4
    0.456521739130    0.250000000000    0.000000000000       4
    0.478260869565    0.250000000000    0.000000000000       4
    0.500000000000    0.250000000000    0.000000000000       2
    0.000000000000    0.300000000000    0.000000000000       2
    0.021739130435    0.300000000000    0.000000000000       4
    0.043478260870    0.300000000000    0.000000000000       4
    0.065217391304    0.300000000000    0.000000000000       4
    0.086956521739    0.300000000000    0.000000000000       4
    0.108695652174    0.300000000000    0.000000000000       4
    0.130434782609    0.300000000000    0.000000000000       4
    0.152173913043    0.300000000000    0.000000000000       4
    0.173913043478    0.300000000000    0.000000000000       4
    0.195652173913    0.300000000000    0.000000000000       4
    0.217391304348    0.300000000000    0.000000000000       4
    0.239130434783    0.300000000000    0.000000000000       4
    0.260869565217    0.300000000000    0.000000000000       4
    0.282608695652    0.300000000000    0.000000000000       4
    0.304347826087    0.300000000000    0.000000000000       4
    0.326086956522    0.300000000000    0.000000000000       4
    0.347826086957    0.300000000000    0.000000000000       4
    0.369565217391    0.300000000000    0.000000000000       4
    0.391304347826    0.300000000000    0.000000000000       4
    0.413043478261    0.300000000000    0.000000000000       4
    0.434782608696    0.300000000000    0.000000000000       4
    0.456521739130    0.300000000000    0.000000000000       4
    0.478260869565    0.300000000000    0.000000000000       4
    0.500000000000    0.300000000000    0.000000000000       2
    0.000000000000    0.350000000000    0.000000000000       2
    0.021739130435    0.350000000000    0.000000000000       4
    0.043478260870    0.350000000000    0.000000000000       4
    0.065217391304    0.350000000000    0.000000000000       4
    0.086956521739    0.350000000000    0.000000000000       4
    0.108695652174    0.350000000000    0.000000000000       4
    0.130434782609    0.350000000000    0.000000000000       4
    0.152173913043    0.350000000000    0.000000000000       4
    0.173913043478    0.350000000000    0.000000000000       4
    0.195652173913    0.350000000000    0.000000000000       4
    0.217391304348    0.350000000000    0.000000000000       4
    0.239130434783    0.350000000000    0.000000000000       4
    0.260869565217    0.350000000000    0.000000000000       4
    0.282608695652    0.350000000000    0.000000000000       4
    0.304347826087    0.350000000000    0.000000000000       4
    0.326086956522    0.350000000000    0.000000000000       4
    0.347826086957    0.350000000000    0.000000000000       4
    0.369565217391    0.350000000000    0.000000000000       4
    0.391304347826    0.350000000000    0.000000000000       4
    0.413043478261    0.350000000000    0.000000000000       4
    0.434782608696    0.350000000000    0.000000000000       4
    0.456521739130    0.350000000000    0.000000000000       4
    0.478260869565    0.350000000000    0.000000000000       4
    0.500000000000    0.350000000000    0.000000000000       2
    0.000000000000    0.400000000000    0.000000000000       2
    0.021739130435    0.400000000000    0.000000000000       4
    0.043478260870    0.400000000000    0.000000000000       4
    0.065217391304    0.400000000000    0.000000000000       4
    0.086956521739    0.400000000000    0.000000000000       4
    0.108695652174    0.400000000000    0.000000000000       4
    0.130434782609    0.400000000000    0.000000000000       4
    0.152173913043    0.400000000000    0.000000000000       4
    0.173913043478    0.400000000000    0.000000000000       4
    0.195652173913    0.400000000000    0.000000000000       4
    0.217391304348    0.400000000000    0.000000000000       4
    0.239130434783    0.400000000000    0.000000000000       4
    0.260869565217    0.400000000000    0.000000000000       4
    0.282608695652    0.400000000000    0.000000000000       4
    0.304347826087    0.400000000000    0.000000000000       4
    0.326086956522    0.400000000000    0.000000000000       4
    0.347826086957    0.400000000000    0.000000000000       4
    0.369565217391    0.400000000000    0.000000000000       4
    0.391304347826    0.400000000000    0.000000000000       4
    0.413043478261    0.400000000000    0.000000000000       4
    0.434782608696    0.400000000000    0.000000000000       4
    0.456521739130    0.400000000000    0.000000000000       4
    0.478260869565    0.400000000000    0.000000000000       4
    0.500000000000    0.400000000000    0.000000000000       2
    0.000000000000    0.450000000000    0.000000000000       2
    0.021739130435    0.450000000000    0.000000000000       4
    0.043478260870    0.450000000000    0.000000000000       4
    0.065217391304    0.450000000000    0.000000000000       4
    0.086956521739    0.450000000000    0.000000000000       4
    0.108695652174    0.450000000000    0.000000000000       4
    0.130434782609    0.450000000000    0.000000000000       4
    0.152173913043    0.450000000000    0.000000000000       4
    0.173913043478    0.450000000000    0.000000000000       4
    0.195652173913    0.450000000000    0.000000000000       4
    0.217391304348    0.450000000000    0.000000000000       4
    0.239130434783    0.450000000000    0.000000000000       4
    0.260869565217    0.450000000000    0.000000000000       4
    0.282608695652    0.450000000000    0.000000000000       4
    0.304347826087    0.450000000000    0.000000000000       4
    0.326086956522    0.450000000000    0.000000000000       4
    0.347826086957    0.450000000000    0.000000000000       4
    0.369565217391    0.450000000000    0.000000000000       4
    0.391304347826    0.450000000000    0.000000000000       4
    0.413043478261    0.450000000000    0.000000000000       4
    0.434782608696    0.450000000000    0.000000000000       4
    0.456521739130    0.450000000000    0.000000000000       4
    0.478260869565    0.450000000000    0.000000000000       4
    0.500000000000    0.450000000000    0.000000000000       2
    0.000000000000    0.500000000000    0.000000000000       1
    0.021739130435    0.500000000000    0.000000000000       2
    0.043478260870    0.500000000000    0.000000000000       2
    0.065217391304    0.500000000000    0.000000000000       2
    0.086956521739    0.500000000000    0.000000000000       2
    0.108695652174    0.500000000000    0.000000000000       2
    0.130434782609    0.500000000000    0.000000000000       2
    0.152173913043    0.500000000000    0.000000000000       2
    0.173913043478    0.500000000000    0.000000000000       2
    0.195652173913    0.500000000000    0.000000000000       2
    0.217391304348    0.500000000000    0.000000000000       2
    0.239130434783    0.500000000000    0.000000000000       2
    0.260869565217    0.500000000000    0.000000000000       2
    0.282608695652    0.500000000000    0.000000000000       2
    0.304347826087    0.500000000000    0.000000000000       2
    0.326086956522    0.500000000000    0.000000000000       2
    0.347826086957    0.500000000000    0.000000000000       2
    0.369565217391    0.500000000000    0.000000000000       2
    0.391304347826    0.500000000000    0.000000000000       2
    0.413043478261    0.500000000000    0.000000000000       2
    0.434782608696    0.500000000000    0.000000000000       2
    0.456521739130    0.500000000000    0.000000000000       2
    0.478260869565    0.500000000000    0.000000000000       2
    0.500000000000    0.500000000000    0.000000000000       1
