CONTCAR\(2)                             
   1.00000000000000     
    13.1398000716999999    0.0000000000000000    0.0000000000000000
     0.0000000000000000   13.1344995498999992    0.0000000000000000
     0.0000000000000000    0.0000000000000000   24.5086002349999994
   Pr   Te   O    H 
    18    54     1     1
Direct
  0.1396405951123226  0.0020080294786254  0.5863688902717354
  0.3069081527558210  0.1667296538267519  0.4124263531037657
  0.4729379223007464  0.9995596565316411  0.5881994442349144
  0.6396917217974929  0.1664156459281182  0.4124457536728235
  0.8060033146773549  0.9991776322286710  0.5866933768077647
  0.9735182375085271  0.1666615107362600  0.4121327133257016
  0.1408221114399306  0.3344772270171166  0.5881007376171155
  0.3069584371274225  0.5002113636874345  0.4140634585245178
  0.4733779186458832  0.3311395972802488  0.5879980227449018
  0.6395099959283937  0.5001036943576040  0.4132876572691011
  0.8085832423855664  0.3328998831285274  0.5865840277039369
  0.9734633233574929  0.4999001977263983  0.4125238775646271
  0.1379611195178116  0.6664978612417003  0.5879424233053638
  0.3071112848310512  0.8326278279563921  0.4134935566264704
  0.4740282217694415  0.6658749493734936  0.5931899145889601
  0.6397020454016571  0.8327603833601895  0.4133375324929371
  0.8068892773822257  0.6663163656173544  0.5884122970385277
  0.9730425836622140  0.8330105787002169  0.4122633516974833
  0.1403223573529759  0.1664951751469634  0.3073038660798781
  0.3076294990555409  0.0035207652107665  0.6927255887647127
  0.3067633991053302  0.1666601313120118  0.5479321972615139
  0.1403236769729713  0.9994789855790991  0.4516985418221036
  0.3071431336794476  0.9993911339647615  0.3077918898214086
  0.1434466454332312  0.1696227315794461  0.6924777541825069
  0.4731991939841496  0.1665117488787115  0.3076399715952551
  0.6403505273782359  0.9992981032398739  0.6922631496053049
  0.6399794363782388  0.1657204692865480  0.5476426526257973
  0.4731011013267853  0.9996270500083738  0.4528028087780541
  0.6402574066662359  0.9996086739972766  0.3080926471107824
  0.4722079721211138  0.1632824762961692  0.6932778944121546
  0.8065896234396189  0.1667236492042168  0.3074667189503309
  0.9708572823436111  0.0058662569999957  0.6915581146914327
  0.9742684111342469  0.1672827886507768  0.5469070673458150
  0.8065533710138347  0.9998087346359097  0.4520096097404008
  0.9734630376675227  0.9996842811852122  0.3072463786958373
  0.8153383491613880  0.1643160191693721  0.6919013664103791
  0.1404679564043769  0.4998745727080632  0.3083248366541544
  0.3068936606745507  0.3336923612185465  0.6942963015976404
  0.3085571845007178  0.5017422367089820  0.5511863181587214
  0.1403328899557706  0.3334184356751634  0.4525886825269718
  0.3064901675009823  0.3334333310289848  0.3081762550975943
  0.1394070500678469  0.5026524382586922  0.6942931491886802
  0.4730054562102260  0.4999428681427501  0.3087209984795594
  0.6431471011558556  0.3278440994923064  0.6886190814601961
  0.6393873974739613  0.5001875572241117  0.5497788197407355
  0.4735357406847533  0.3331975618555080  0.4531384805546472
  0.6396164365503476  0.3333883271777192  0.3078048837607771
  0.4932187683151962  0.4829141873974861  0.7023679141188778
  0.8067133747084410  0.4999846612350333  0.3079332291199454
  0.9752942964392562  0.3353651587947415  0.6926574745030636
  0.9735451733304153  0.5000241043458932  0.5479541282681339
  0.8062392979648655  0.3334415410293805  0.4520001203590527
  0.9733441423511173  0.3333513354781533  0.3075556766098281
  0.8111397026639597  0.5005942398800405  0.6926246425837795
  0.1402336667899593  0.8328141641733252  0.3078310728007690
  0.2934991024989864  0.6868272615911271  0.7056040518490123
  0.3072586325154139  0.8312794803905149  0.5501810790342663
  0.1396241981244719  0.6667491067311615  0.4529993522382900
  0.3068433837712815  0.6664200792400031  0.3087798907258051
  0.1325619622608852  0.8373988743144699  0.6876828967377748
  0.4733216947104796  0.8327852115119343  0.3085009227141003
  0.6440838988292641  0.6661289505264287  0.6961709067695228
  0.6381910174701786  0.8311642314153205  0.5492702123029516
  0.4734649294313102  0.6662294780341155  0.4551755255746628
  0.6397590149913674  0.6665219320363472  0.3084675094972367
  0.4728967234440333  0.8359314672220782  0.6967490902088752
  0.8062826095495846  0.8331352784245214  0.3078533282876950
  0.9712073076944456  0.6649211047652489  0.6933977352534980
  0.9721695118645672  0.8331571434389362  0.5473518102898938
  0.8063723755343327  0.6661216943551170  0.4528841012372462
  0.9732623541895962  0.6664439854079995  0.3076428370157375
  0.8035556915819032  0.8337592377948514  0.6928843059522826
  0.3657670135799377  0.5666268647177247  0.7546006906518692
  0.3968247433995691  0.5989246457350099  0.7866393805919195
 
  0.00000000E+00  0.00000000E+00  0.00000000E+00
  0.00000000E+00  0.00000000E+00  0.00000000E+00
  0.00000000E+00  0.00000000E+00  0.00000000E+00
  0.00000000E+00  0.00000000E+00  0.00000000E+00
  0.00000000E+00  0.00000000E+00  0.00000000E+00
  0.00000000E+00  0.00000000E+00  0.00000000E+00
  0.00000000E+00  0.00000000E+00  0.00000000E+00
  0.00000000E+00  0.00000000E+00  0.00000000E+00
  0.00000000E+00  0.00000000E+00  0.00000000E+00
  0.00000000E+00  0.00000000E+00  0.00000000E+00
  0.00000000E+00  0.00000000E+00  0.00000000E+00
  0.00000000E+00  0.00000000E+00  0.00000000E+00
  0.00000000E+00  0.00000000E+00  0.00000000E+00
  0.00000000E+00  0.00000000E+00  0.00000000E+00
  0.00000000E+00  0.00000000E+00  0.00000000E+00
  0.00000000E+00  0.00000000E+00  0.00000000E+00
  0.00000000E+00  0.00000000E+00  0.00000000E+00
  0.00000000E+00  0.00000000E+00  0.00000000E+00
  0.00000000E+00  0.00000000E+00  0.00000000E+00
  0.00000000E+00  0.00000000E+00  0.00000000E+00
  0.00000000E+00  0.00000000E+00  0.00000000E+00
  0.00000000E+00  0.00000000E+00  0.00000000E+00
  0.00000000E+00  0.00000000E+00  0.00000000E+00
  0.00000000E+00  0.00000000E+00  0.00000000E+00
  0.00000000E+00  0.00000000E+00  0.00000000E+00
  0.00000000E+00  0.00000000E+00  0.00000000E+00
  0.00000000E+00  0.00000000E+00  0.00000000E+00
  0.00000000E+00  0.00000000E+00  0.00000000E+00
  0.00000000E+00  0.00000000E+00  0.00000000E+00
  0.00000000E+00  0.00000000E+00  0.00000000E+00
  0.00000000E+00  0.00000000E+00  0.00000000E+00
  0.00000000E+00  0.00000000E+00  0.00000000E+00
  0.00000000E+00  0.00000000E+00  0.00000000E+00
  0.00000000E+00  0.00000000E+00  0.00000000E+00
  0.00000000E+00  0.00000000E+00  0.00000000E+00
  0.00000000E+00  0.00000000E+00  0.00000000E+00
  0.00000000E+00  0.00000000E+00  0.00000000E+00
  0.00000000E+00  0.00000000E+00  0.00000000E+00
  0.00000000E+00  0.00000000E+00  0.00000000E+00
  0.00000000E+00  0.00000000E+00  0.00000000E+00
  0.00000000E+00  0.00000000E+00  0.00000000E+00
  0.00000000E+00  0.00000000E+00  0.00000000E+00
  0.00000000E+00  0.00000000E+00  0.00000000E+00
  0.00000000E+00  0.00000000E+00  0.00000000E+00
  0.00000000E+00  0.00000000E+00  0.00000000E+00
  0.00000000E+00  0.00000000E+00  0.00000000E+00
  0.00000000E+00  0.00000000E+00  0.00000000E+00
  0.00000000E+00  0.00000000E+00  0.00000000E+00
  0.00000000E+00  0.00000000E+00  0.00000000E+00
  0.00000000E+00  0.00000000E+00  0.00000000E+00
  0.00000000E+00  0.00000000E+00  0.00000000E+00
  0.00000000E+00  0.00000000E+00  0.00000000E+00
  0.00000000E+00  0.00000000E+00  0.00000000E+00
  0.00000000E+00  0.00000000E+00  0.00000000E+00
  0.00000000E+00  0.00000000E+00  0.00000000E+00
  0.00000000E+00  0.00000000E+00  0.00000000E+00
  0.00000000E+00  0.00000000E+00  0.00000000E+00
  0.00000000E+00  0.00000000E+00  0.00000000E+00
  0.00000000E+00  0.00000000E+00  0.00000000E+00
  0.00000000E+00  0.00000000E+00  0.00000000E+00
  0.00000000E+00  0.00000000E+00  0.00000000E+00
  0.00000000E+00  0.00000000E+00  0.00000000E+00
  0.00000000E+00  0.00000000E+00  0.00000000E+00
  0.00000000E+00  0.00000000E+00  0.00000000E+00
  0.00000000E+00  0.00000000E+00  0.00000000E+00
  0.00000000E+00  0.00000000E+00  0.00000000E+00
  0.00000000E+00  0.00000000E+00  0.00000000E+00
  0.00000000E+00  0.00000000E+00  0.00000000E+00
  0.00000000E+00  0.00000000E+00  0.00000000E+00
  0.00000000E+00  0.00000000E+00  0.00000000E+00
  0.00000000E+00  0.00000000E+00  0.00000000E+00
  0.00000000E+00  0.00000000E+00  0.00000000E+00
  0.00000000E+00  0.00000000E+00  0.00000000E+00
  0.00000000E+00  0.00000000E+00  0.00000000E+00
