 Ag2 O4 F2                              
   1.00000000000000     
     3.8462842134211868    0.0000000000000000    0.0000000000000000
     0.0000000000000000    3.6786334339323803    0.0000000000000000
     0.0000000000000000    0.0000000000000000   20.6323501841959356
   Ag   O    F 
     2     4     2
Direct
  0.7500002254512864  0.7451036317618049  0.5677237197805192
  0.2500002052348590  0.2730202878725574  0.4322762089563672
  0.5846076791328469  0.3311851231462824  0.3455647239917636
  0.9153929089343689  0.3311858275966267  0.3455647718136896
  0.0846249058060710  0.6869399687888432  0.6544346437026890
  0.4153756955835738  0.6869398855347232  0.6544346694207166
  0.7500001653853831  0.2515162035758407  0.4831670555749927
  0.2500002144716096  0.7667251689130324  0.5168342067592580
 
  0.00000000E+00  0.00000000E+00  0.00000000E+00
  0.00000000E+00  0.00000000E+00  0.00000000E+00
  0.00000000E+00  0.00000000E+00  0.00000000E+00
  0.00000000E+00  0.00000000E+00  0.00000000E+00
  0.00000000E+00  0.00000000E+00  0.00000000E+00
  0.00000000E+00  0.00000000E+00  0.00000000E+00
  0.00000000E+00  0.00000000E+00  0.00000000E+00
  0.00000000E+00  0.00000000E+00  0.00000000E+00
