CONTCAR\(2)                             
   1.00000000000000     
    11.2371997832999995    0.0000000000000000    0.0000000000000000
     0.0000000000000000   14.7250003814999992    0.0000000000000000
     0.0000000000000000    0.0000000000000000   22.6672992706000009
   Li   Cu   F    O    H 
    32    32    80     2     1
Direct
  0.1880754287869328  0.0736054606726010  0.5184182984518300
  0.1938909229913828  0.4237068224035960  0.6040335365950239
  0.0622845622471458  0.0788124102592533  0.3913943459591213
  0.0614939952530308  0.4351815580486273  0.4780287764200538
  0.4402199052571089  0.0765158185225264  0.5259699151425575
  0.4401821414266718  0.3583708977197106  0.6768664499433124
  0.3127885688807106  0.0802193811307470  0.3931365618602597
  0.3123237292438515  0.4340703854609876  0.4806112026666968
  0.6865643567795086  0.0687086234401571  0.5193377684797172
  0.6822020820255361  0.4248534099307449  0.6024183043427283
  0.5620430585572780  0.0791095625113591  0.3929468048025839
  0.5605452371621633  0.4326621698660417  0.4819015477130503
  0.9373161649481188  0.0709223984134094  0.5192655546170742
  0.9376622340671532  0.4269938800826104  0.6050008438675158
  0.8121047715242049  0.0779439313886034  0.3913581391435635
  0.8120493471275998  0.4344658506186712  0.4781457193978521
  0.1856187407248402  0.5732880900794831  0.5184772577400676
  0.1883258327587747  0.9268921643283776  0.6080144558212607
  0.0620215138575904  0.5800048173853459  0.3898520302049661
  0.0626947427434352  0.9334008408504839  0.4796138168636582
  0.4367694072369197  0.5683093007656486  0.5232316694010379
  0.4438513094856154  0.9282486334333194  0.6106217677545869
  0.3116806733802437  0.5795964159402021  0.3927349531303915
  0.3137824546854384  0.9349081691795287  0.4806165289734627
  0.6885157003367209  0.5732610137072198  0.5179266660775597
  0.6838517851320565  0.9283734300493899  0.6079302015456683
  0.5628279550599607  0.5787248853946341  0.3927408402362660
  0.5610003873848527  0.9331276265002768  0.4797009332317881
  0.9369207543779930  0.5730807568019456  0.5181974517724107
  0.9361817566027762  0.9262466199688338  0.6074295876541752
  0.8123824327314432  0.5792449484221533  0.3895492510732714
  0.8123823225496337  0.9324029197644642  0.4793960180246082
  0.0616224373411668  0.2531285664872217  0.5633560625191236
  0.0630859126959940  0.0885432357089670  0.6562738804093765
  0.1876321623188426  0.4212245961937484  0.3394291866872921
  0.1844356300308814  0.2535636376252142  0.4302074845273133
  0.3138977532124766  0.2572650745710048  0.5630958608532950
  0.3182196066782218  0.0863337591135200  0.6515141256261436
  0.4369862117178116  0.4212210770480151  0.3425428303243659
  0.4382759032207062  0.2510675407233824  0.4325314706622503
  0.5704095750132361  0.2478109649076825  0.5696048035654190
  0.5592281439255355  0.1004006574393129  0.6881257372568539
  0.6864728915443540  0.4189507894403769  0.3400595678918897
  0.6880438187831943  0.2517280579354521  0.4329607904535385
  0.8109973612602760  0.2514249878232664  0.5663115871428203
  0.8069772249760527  0.0892249623556379  0.6579490958510582
  0.9372221860562732  0.4190992488818756  0.3377119304021504
  0.9356111531195176  0.2525870442107110  0.4305187118268987
  0.0630119251868231  0.7528079526630148  0.5674398024883159
  0.0639330833471222  0.5822997094179291  0.6568752670921832
  0.1877232560179390  0.9202254582431080  0.3412314460167372
  0.1876674148401605  0.7529717872754805  0.4329516597798758
  0.3144439510570095  0.7522662189050769  0.5674648119074086
  0.3150299143326445  0.5697424835479897  0.6546321423133172
  0.4373442438480679  0.9210964021728596  0.3424887133389757
  0.4370110064849017  0.7507624703070435  0.4334545272677029
  0.5623403635395434  0.7509035096981619  0.5673421032878281
  0.5589452568351634  0.5694341426608523  0.6541129953146021
  0.6870240256980344  0.9192236959260183  0.3406675768188790
  0.6874838776879042  0.7517646653900446  0.4323082566949222
  0.8098655429353409  0.7531130661517358  0.5670697578935699
  0.8112106466610324  0.5823216832522987  0.6567405938907276
  0.9374157916695148  0.9185435333555397  0.3397497162300159
  0.9373420079271554  0.7519433465644569  0.4324914205761456
  0.0613801017773303  0.1618884672284839  0.5047005024109857
  0.0592547053656837  0.4977718392201129  0.5536592176829924
  0.0633280122896323  0.3461510949763689  0.6170978738419070
  0.1891877412922670  0.1650236827759710  0.6215802749056928
  0.1895963444011958  0.0068956518491047  0.6786707902115362
  0.0617171755390601  0.5050189905880809  0.3180128258223618
  0.0627510836193301  0.3387873759282519  0.3676233728417483
  0.1867681135183861  0.1595447102807430  0.3767737952297384
  0.1872196427178515  0.0088804552711008  0.4430523343282094
  0.1858981336288268  0.3432549939644688  0.4904931305743823
  0.3108130767255572  0.1672087829377024  0.5013655197585379
  0.3027416586104246  0.4981314053438788  0.5540461829560660
  0.3127624852976061  0.3404897747530926  0.6245487309395302
  0.4370956743624293  0.1543822503123749  0.6062967643318465
  0.4372777022513316  0.0039737659420620  0.6822673875176765
  0.3128464175670151  0.5057093265143725  0.3200543624945033
  0.3114536262687964  0.3410700729723074  0.3729834790307981
  0.4380283341754146  0.1600312698976004  0.3770538793185323
  0.4375619945262137  0.0105569045097146  0.4443266515381664
  0.4352062176792557  0.3399841731035709  0.4926873390871778
  0.5688418573478495  0.1636297487954611  0.5054491485794385
  0.5709691123281857  0.4996683614246243  0.5540151302134572
  0.5628811882341815  0.3426962693956594  0.6226769328201823
  0.6805035668958319  0.1751678687646721  0.6436975547629300
  0.6828081805000009  0.0040938982230631  0.6772764526588930
  0.5622665818803994  0.5042671926623974  0.3201717244102437
  0.5615801749592085  0.3401171909504706  0.3734641058930021
  0.6876621828879018  0.1593625832943671  0.3784714723767318
  0.6879161537960837  0.0076027540527608  0.4427247908213183
  0.6874325896823378  0.3431670889969869  0.4915703466498520
  0.8121380236215897  0.1605626476589702  0.5080792327145928
  0.8144868905709666  0.4976529185888732  0.5535449436690227
  0.8118273427620672  0.3470485189783972  0.6177499570700278
  0.9354663318621279  0.1667622575324024  0.6257447793582558
  0.9348222550642636  0.0058090225023359  0.6768439132199201
  0.8115189791915994  0.5035040337142811  0.3180782720581818
  0.8123962592682581  0.3381592290411953  0.3684104130147289
  0.9367457584327163  0.1587296998977564  0.3773053375382867
  0.9372797622138884  0.0081623282564540  0.4430371418768504
  0.9372270124628876  0.3436376203644846  0.4890307084961548
  0.0619050355199746  0.6648339778760547  0.5063403088718276
  0.0624243990132443  0.9967507098761095  0.5553435482727209
  0.0629553013595057  0.8458210268358691  0.6216123270862198
  0.1919914506942824  0.6575526958957311  0.6248756062395258
  0.1848906447599611  0.4936918079981523  0.6785889466353111
  0.0621653582148108  0.0033915429014489  0.3191634288157503
  0.0626595376725652  0.8398695121193167  0.3724298473027034
  0.1874189662164987  0.6611129740767780  0.3779608436578225
  0.1864280872939604  0.5094284776435849  0.4416890845199138
  0.1875442849417547  0.8431258345579412  0.4925513008049287
  0.3129012936361197  0.6642619128760361  0.5062552134896315
  0.3107856644873685  0.9986098981555349  0.5556865554042432
  0.3148719193925190  0.8464713943081429  0.6208475682529943
  0.4369751371491987  0.6509321853337428  0.6225550717315184
  0.4372566783057379  0.4915406410041827  0.6896477698278158
  0.3124947743877311  0.0048634906980386  0.3205858540287195
  0.3125595649306758  0.8407080803916885  0.3735239159689061
  0.4374513250821685  0.6591472855097121  0.3783849243431432
  0.4370079630118920  0.5081166852378400  0.4442229831182741
  0.4369873967700815  0.8424417870801891  0.4919066870839297
  0.5614012964736907  0.6645670427350129  0.5052977229886187
  0.5633517179565094  0.9932380208696986  0.5548212776493932
  0.5630061868707980  0.8422817139107776  0.6224910333938023
  0.6826747750217278  0.6567093055005101  0.6242437344098712
  0.6897512814469547  0.4943466695978363  0.6780317467308934
  0.5625476541179405  0.0043142209950825  0.3203007196436713
  0.5619685024655883  0.8404309851110198  0.3736691400284304
  0.6870654191829629  0.6600718268271286  0.3772936132584658
  0.6874601610595714  0.5087452532413405  0.4417329334943140
  0.6874452125936622  0.8420265707889278  0.4916419539094417
  0.8122879536664280  0.6647763049821908  0.5061651620672357
  0.8126915101241079  0.9956364837442651  0.5553934461286129
  0.8108210862239218  0.8456217952217636  0.6213859813895485
  0.9374164421365324  0.6635071514199714  0.6266379842189617
  0.9375207135648909  0.5002958556217401  0.6788759990228593
  0.8123139967420013  0.0029862276454739  0.3189003312302737
  0.8123023358287568  0.8390182048763964  0.3715335823524820
  0.9370558855841506  0.6609151331991336  0.3769180923866342
  0.9369782263798002  0.5101734243809648  0.4414324938607658
  0.9377210234205482  0.8421523570161494  0.4920647153266772
  0.4664430789070782  0.2714118112543888  0.7432164484677131
  0.4404206392311718  0.1782923179230258  0.7317342487395293
  0.4341080712955830  0.1530557262581274  0.7718384400022908
 
  0.00000000E+00  0.00000000E+00  0.00000000E+00
  0.00000000E+00  0.00000000E+00  0.00000000E+00
  0.00000000E+00  0.00000000E+00  0.00000000E+00
  0.00000000E+00  0.00000000E+00  0.00000000E+00
  0.00000000E+00  0.00000000E+00  0.00000000E+00
  0.00000000E+00  0.00000000E+00  0.00000000E+00
  0.00000000E+00  0.00000000E+00  0.00000000E+00
  0.00000000E+00  0.00000000E+00  0.00000000E+00
  0.00000000E+00  0.00000000E+00  0.00000000E+00
  0.00000000E+00  0.00000000E+00  0.00000000E+00
  0.00000000E+00  0.00000000E+00  0.00000000E+00
  0.00000000E+00  0.00000000E+00  0.00000000E+00
  0.00000000E+00  0.00000000E+00  0.00000000E+00
  0.00000000E+00  0.00000000E+00  0.00000000E+00
  0.00000000E+00  0.00000000E+00  0.00000000E+00
  0.00000000E+00  0.00000000E+00  0.00000000E+00
  0.00000000E+00  0.00000000E+00  0.00000000E+00
  0.00000000E+00  0.00000000E+00  0.00000000E+00
  0.00000000E+00  0.00000000E+00  0.00000000E+00
  0.00000000E+00  0.00000000E+00  0.00000000E+00
  0.00000000E+00  0.00000000E+00  0.00000000E+00
  0.00000000E+00  0.00000000E+00  0.00000000E+00
  0.00000000E+00  0.00000000E+00  0.00000000E+00
  0.00000000E+00  0.00000000E+00  0.00000000E+00
  0.00000000E+00  0.00000000E+00  0.00000000E+00
  0.00000000E+00  0.00000000E+00  0.00000000E+00
  0.00000000E+00  0.00000000E+00  0.00000000E+00
  0.00000000E+00  0.00000000E+00  0.00000000E+00
  0.00000000E+00  0.00000000E+00  0.00000000E+00
  0.00000000E+00  0.00000000E+00  0.00000000E+00
  0.00000000E+00  0.00000000E+00  0.00000000E+00
  0.00000000E+00  0.00000000E+00  0.00000000E+00
  0.00000000E+00  0.00000000E+00  0.00000000E+00
  0.00000000E+00  0.00000000E+00  0.00000000E+00
  0.00000000E+00  0.00000000E+00  0.00000000E+00
  0.00000000E+00  0.00000000E+00  0.00000000E+00
  0.00000000E+00  0.00000000E+00  0.00000000E+00
  0.00000000E+00  0.00000000E+00  0.00000000E+00
  0.00000000E+00  0.00000000E+00  0.00000000E+00
  0.00000000E+00  0.00000000E+00  0.00000000E+00
  0.00000000E+00  0.00000000E+00  0.00000000E+00
  0.00000000E+00  0.00000000E+00  0.00000000E+00
  0.00000000E+00  0.00000000E+00  0.00000000E+00
  0.00000000E+00  0.00000000E+00  0.00000000E+00
  0.00000000E+00  0.00000000E+00  0.00000000E+00
  0.00000000E+00  0.00000000E+00  0.00000000E+00
  0.00000000E+00  0.00000000E+00  0.00000000E+00
  0.00000000E+00  0.00000000E+00  0.00000000E+00
  0.00000000E+00  0.00000000E+00  0.00000000E+00
  0.00000000E+00  0.00000000E+00  0.00000000E+00
  0.00000000E+00  0.00000000E+00  0.00000000E+00
  0.00000000E+00  0.00000000E+00  0.00000000E+00
  0.00000000E+00  0.00000000E+00  0.00000000E+00
  0.00000000E+00  0.00000000E+00  0.00000000E+00
  0.00000000E+00  0.00000000E+00  0.00000000E+00
  0.00000000E+00  0.00000000E+00  0.00000000E+00
  0.00000000E+00  0.00000000E+00  0.00000000E+00
  0.00000000E+00  0.00000000E+00  0.00000000E+00
  0.00000000E+00  0.00000000E+00  0.00000000E+00
  0.00000000E+00  0.00000000E+00  0.00000000E+00
  0.00000000E+00  0.00000000E+00  0.00000000E+00
  0.00000000E+00  0.00000000E+00  0.00000000E+00
  0.00000000E+00  0.00000000E+00  0.00000000E+00
  0.00000000E+00  0.00000000E+00  0.00000000E+00
  0.00000000E+00  0.00000000E+00  0.00000000E+00
  0.00000000E+00  0.00000000E+00  0.00000000E+00
  0.00000000E+00  0.00000000E+00  0.00000000E+00
  0.00000000E+00  0.00000000E+00  0.00000000E+00
  0.00000000E+00  0.00000000E+00  0.00000000E+00
  0.00000000E+00  0.00000000E+00  0.00000000E+00
  0.00000000E+00  0.00000000E+00  0.00000000E+00
  0.00000000E+00  0.00000000E+00  0.00000000E+00
  0.00000000E+00  0.00000000E+00  0.00000000E+00
  0.00000000E+00  0.00000000E+00  0.00000000E+00
  0.00000000E+00  0.00000000E+00  0.00000000E+00
  0.00000000E+00  0.00000000E+00  0.00000000E+00
  0.00000000E+00  0.00000000E+00  0.00000000E+00
  0.00000000E+00  0.00000000E+00  0.00000000E+00
  0.00000000E+00  0.00000000E+00  0.00000000E+00
  0.00000000E+00  0.00000000E+00  0.00000000E+00
  0.00000000E+00  0.00000000E+00  0.00000000E+00
  0.00000000E+00  0.00000000E+00  0.00000000E+00
  0.00000000E+00  0.00000000E+00  0.00000000E+00
  0.00000000E+00  0.00000000E+00  0.00000000E+00
  0.00000000E+00  0.00000000E+00  0.00000000E+00
  0.00000000E+00  0.00000000E+00  0.00000000E+00
  0.00000000E+00  0.00000000E+00  0.00000000E+00
  0.00000000E+00  0.00000000E+00  0.00000000E+00
  0.00000000E+00  0.00000000E+00  0.00000000E+00
  0.00000000E+00  0.00000000E+00  0.00000000E+00
  0.00000000E+00  0.00000000E+00  0.00000000E+00
  0.00000000E+00  0.00000000E+00  0.00000000E+00
  0.00000000E+00  0.00000000E+00  0.00000000E+00
  0.00000000E+00  0.00000000E+00  0.00000000E+00
  0.00000000E+00  0.00000000E+00  0.00000000E+00
  0.00000000E+00  0.00000000E+00  0.00000000E+00
  0.00000000E+00  0.00000000E+00  0.00000000E+00
  0.00000000E+00  0.00000000E+00  0.00000000E+00
  0.00000000E+00  0.00000000E+00  0.00000000E+00
  0.00000000E+00  0.00000000E+00  0.00000000E+00
  0.00000000E+00  0.00000000E+00  0.00000000E+00
  0.00000000E+00  0.00000000E+00  0.00000000E+00
  0.00000000E+00  0.00000000E+00  0.00000000E+00
  0.00000000E+00  0.00000000E+00  0.00000000E+00
  0.00000000E+00  0.00000000E+00  0.00000000E+00
  0.00000000E+00  0.00000000E+00  0.00000000E+00
  0.00000000E+00  0.00000000E+00  0.00000000E+00
  0.00000000E+00  0.00000000E+00  0.00000000E+00
  0.00000000E+00  0.00000000E+00  0.00000000E+00
  0.00000000E+00  0.00000000E+00  0.00000000E+00
  0.00000000E+00  0.00000000E+00  0.00000000E+00
  0.00000000E+00  0.00000000E+00  0.00000000E+00
  0.00000000E+00  0.00000000E+00  0.00000000E+00
  0.00000000E+00  0.00000000E+00  0.00000000E+00
  0.00000000E+00  0.00000000E+00  0.00000000E+00
  0.00000000E+00  0.00000000E+00  0.00000000E+00
  0.00000000E+00  0.00000000E+00  0.00000000E+00
  0.00000000E+00  0.00000000E+00  0.00000000E+00
  0.00000000E+00  0.00000000E+00  0.00000000E+00
  0.00000000E+00  0.00000000E+00  0.00000000E+00
  0.00000000E+00  0.00000000E+00  0.00000000E+00
  0.00000000E+00  0.00000000E+00  0.00000000E+00
  0.00000000E+00  0.00000000E+00  0.00000000E+00
  0.00000000E+00  0.00000000E+00  0.00000000E+00
  0.00000000E+00  0.00000000E+00  0.00000000E+00
  0.00000000E+00  0.00000000E+00  0.00000000E+00
  0.00000000E+00  0.00000000E+00  0.00000000E+00
  0.00000000E+00  0.00000000E+00  0.00000000E+00
  0.00000000E+00  0.00000000E+00  0.00000000E+00
  0.00000000E+00  0.00000000E+00  0.00000000E+00
  0.00000000E+00  0.00000000E+00  0.00000000E+00
  0.00000000E+00  0.00000000E+00  0.00000000E+00
  0.00000000E+00  0.00000000E+00  0.00000000E+00
  0.00000000E+00  0.00000000E+00  0.00000000E+00
  0.00000000E+00  0.00000000E+00  0.00000000E+00
  0.00000000E+00  0.00000000E+00  0.00000000E+00
  0.00000000E+00  0.00000000E+00  0.00000000E+00
  0.00000000E+00  0.00000000E+00  0.00000000E+00
  0.00000000E+00  0.00000000E+00  0.00000000E+00
  0.00000000E+00  0.00000000E+00  0.00000000E+00
  0.00000000E+00  0.00000000E+00  0.00000000E+00
  0.00000000E+00  0.00000000E+00  0.00000000E+00
  0.00000000E+00  0.00000000E+00  0.00000000E+00
  0.00000000E+00  0.00000000E+00  0.00000000E+00
  0.00000000E+00  0.00000000E+00  0.00000000E+00
  0.00000000E+00  0.00000000E+00  0.00000000E+00
  0.00000000E+00  0.00000000E+00  0.00000000E+00
