CONTCAR\(2)                             
   1.00000000000000     
    14.8558998108000004    0.0000000000000000    0.0000000000000000
     0.0000000000000000   13.4555997849000004    0.0000000000000000
     0.0000000000000000    0.0000000000000000   21.2884006499999998
   Nb   S    O 
    24    72     1
Direct
  0.2341726097525646  0.4230923907441943  0.4371047771834365
  0.2342321767319772  0.1983021463036952  0.4335620875688126
  0.0678007133646364  0.0720184140992299  0.5641143487477892
  0.0678033685652257  0.2970928231815735  0.5678211478993350
  0.5678718147977477  0.4230738509371578  0.4370745752666448
  0.5678055262997204  0.1982148370758966  0.4335193861003049
  0.4011578486616685  0.0719566499008215  0.5638540268003688
  0.4011774491219138  0.2966677854217010  0.5675153066057040
  0.9010166313733909  0.4236867545094525  0.4375967785984157
  0.9010282618038763  0.1988168879882962  0.4339022092163077
  0.7345141530167116  0.0719374602464642  0.5641334628466967
  0.7343689557758953  0.2970600566688834  0.5678523431863102
  0.2342739201678338  0.9238720133316949  0.4372109917775761
  0.2343903605740042  0.6982547765397086  0.4330520382008661
  0.0677538491498768  0.5722891247325704  0.5646230247032185
  0.0678012660134035  0.7965918703523258  0.5682592055369680
  0.5678128347255245  0.9237100444299673  0.4372416583128746
  0.5678460285785921  0.6981143652607849  0.4331205379504314
  0.4011259650982770  0.5717074743629297  0.5627550592565321
  0.4010978616999432  0.7972666207453509  0.5667774468572312
  0.9010721251486959  0.9236916871917583  0.4374736223586563
  0.9010923001339620  0.6987912590399692  0.4340114635075797
  0.7344823444950085  0.5722253587614206  0.5646788879517157
  0.7344525693386075  0.7965767806461618  0.5683268905947808
  0.3330355788220226  0.1819831649951946  0.6470069659085795
  0.2344686624993028  0.0644789879264473  0.5193752631081083
  0.2344602531466621  0.3050888759641307  0.5271733937630182
  0.0677148254022679  0.1903738704445234  0.4741995709478128
  0.1664944458697841  0.3130517040452214  0.3537533836101774
  0.0677022257329633  0.4310571762162003  0.4822052559336829
  0.3336552961869194  0.4364234997236445  0.6354746420794689
  0.3017789953466471  0.0595303031807545  0.3650702590291328
  0.3024246508419012  0.3130032652173209  0.3541706294840796
  0.1354778834023759  0.1821520672277566  0.6475242096828052
  0.1362859359979028  0.4361143140656958  0.6355758801168861
  0.1659099403526210  0.0592545828527598  0.3657070269599231
  0.6661780500930028  0.1819893069252912  0.6471186993253553
  0.5677944520527998  0.0644090223119529  0.5193311369327643
  0.5677285418730319  0.3050490226651873  0.5271238945164790
  0.4010708423499041  0.1899213827116706  0.4738973477413891
  0.5004364950874868  0.3129757102485064  0.3535583825520440
  0.4010114550830098  0.4294265066383555  0.4812521696984852
  0.6664420424732852  0.4359833213166055  0.6360592889597256
  0.6357104893490922  0.0591273776178262  0.3654034536552198
  0.6363628835381949  0.3129062191220146  0.3542799126540311
  0.4689325472916561  0.1818607570150197  0.6473456500035060
  0.4692484223998635  0.4364492570450291  0.6349708550282196
  0.4998591989140029  0.0592217942806814  0.3653449211531952
  0.9995869780260820  0.1821422749323820  0.6471137283779974
  0.9011858890183320  0.0646960828854974  0.5195731923718321
  0.9010852590315320  0.3055037340354682  0.5275625075590858
  0.7343611768426809  0.1903105817534433  0.4742317769990771
  0.8333500723763659  0.3137835872045038  0.3541175183185017
  0.7343064101955227  0.4310137729987075  0.4822655517864383
  0.0004803655861035  0.4362158948734830  0.6363616578146698
  0.9687684088076470  0.0596563641874996  0.3657044545816527
  0.9692730137986648  0.3136489264989482  0.3545493536566832
  0.8020870730682268  0.1821734303392886  0.6474651746767420
  0.8022445465829513  0.4361991717057086  0.6360778131769421
  0.8329269943715882  0.0597714635249496  0.3660604378247505
  0.3205222921851248  0.6822305140604160  0.6384971736437201
  0.2343799754830448  0.5649418163395273  0.5189024083223965
  0.2343281916562515  0.8041407270245126  0.5267747789297276
  0.0678189833975371  0.6901720878670370  0.4744498350536720
  0.1665348295803732  0.8137373974780542  0.3538553451727775
  0.0678628709646913  0.9307231876894942  0.4822279227825944
  0.3334966160972282  0.9357499180766670  0.6355642213850077
  0.3019195663069782  0.5587724256129916  0.3649525797456213
  0.3024963235470899  0.8138539203165880  0.3539073357608948
  0.1323857055548315  0.6820035084293018  0.6504150586740327
  0.1363558055009855  0.9362565468192143  0.6354309918609977
  0.1660767635827556  0.5589172989187802  0.3654789071910775
  0.6696462304471604  0.6819098707521845  0.6503657691215365
  0.5679163941646921  0.5649346758896246  0.5189727493855379
  0.5679151209000985  0.8039991246881930  0.5268465191307822
  0.4011270857468290  0.6904911729087632  0.4726003635634408
  0.5002288403613866  0.8135429705643503  0.3535907392488954
  0.4010417448034773  0.9322481651639670  0.4812400216501184
  0.6664070667363838  0.9362940889036089  0.6359293567529216
  0.6357266340308425  0.5587843837085666  0.3651554716848067
  0.6361834566523624  0.8135506066051886  0.3542964996245278
  0.4810712555336867  0.6822960817295217  0.6389058605823333
  0.4692251345118618  0.9357474430634198  0.6351079125833961
  0.4998883550954129  0.5588116346850365  0.3652070632293284
  0.9956886175756769  0.6821278979758691  0.6453148279918084
  0.9011358282391156  0.5643483062627022  0.5194662330403511
  0.9011321389209533  0.8060674024469582  0.5273634637504195
  0.7344187287428328  0.6900927954217698  0.4744952174197525
  0.8334725507867633  0.8136087537890780  0.3541398848195759
  0.7342339756855469  0.9306805464096456  0.4822663550756034
  0.0005496942046990  0.9360766548411320  0.6362544415470093
  0.9688121262094705  0.5597421463273410  0.3658625012031537
  0.9693713801516386  0.8135985361982589  0.3545334958524120
  0.8063509380375032  0.6820783884006519  0.6454755771161331
  0.8022139046310437  0.9360732637017810  0.6360621568005210
  0.8330005407287802  0.5596922174421645  0.3660900330548623
  0.4004232930434017  0.6777951823179138  0.6995344802312937
 
  0.00000000E+00  0.00000000E+00  0.00000000E+00
  0.00000000E+00  0.00000000E+00  0.00000000E+00
  0.00000000E+00  0.00000000E+00  0.00000000E+00
  0.00000000E+00  0.00000000E+00  0.00000000E+00
  0.00000000E+00  0.00000000E+00  0.00000000E+00
  0.00000000E+00  0.00000000E+00  0.00000000E+00
  0.00000000E+00  0.00000000E+00  0.00000000E+00
  0.00000000E+00  0.00000000E+00  0.00000000E+00
  0.00000000E+00  0.00000000E+00  0.00000000E+00
  0.00000000E+00  0.00000000E+00  0.00000000E+00
  0.00000000E+00  0.00000000E+00  0.00000000E+00
  0.00000000E+00  0.00000000E+00  0.00000000E+00
  0.00000000E+00  0.00000000E+00  0.00000000E+00
  0.00000000E+00  0.00000000E+00  0.00000000E+00
  0.00000000E+00  0.00000000E+00  0.00000000E+00
  0.00000000E+00  0.00000000E+00  0.00000000E+00
  0.00000000E+00  0.00000000E+00  0.00000000E+00
  0.00000000E+00  0.00000000E+00  0.00000000E+00
  0.00000000E+00  0.00000000E+00  0.00000000E+00
  0.00000000E+00  0.00000000E+00  0.00000000E+00
  0.00000000E+00  0.00000000E+00  0.00000000E+00
  0.00000000E+00  0.00000000E+00  0.00000000E+00
  0.00000000E+00  0.00000000E+00  0.00000000E+00
  0.00000000E+00  0.00000000E+00  0.00000000E+00
  0.00000000E+00  0.00000000E+00  0.00000000E+00
  0.00000000E+00  0.00000000E+00  0.00000000E+00
  0.00000000E+00  0.00000000E+00  0.00000000E+00
  0.00000000E+00  0.00000000E+00  0.00000000E+00
  0.00000000E+00  0.00000000E+00  0.00000000E+00
  0.00000000E+00  0.00000000E+00  0.00000000E+00
  0.00000000E+00  0.00000000E+00  0.00000000E+00
  0.00000000E+00  0.00000000E+00  0.00000000E+00
  0.00000000E+00  0.00000000E+00  0.00000000E+00
  0.00000000E+00  0.00000000E+00  0.00000000E+00
  0.00000000E+00  0.00000000E+00  0.00000000E+00
  0.00000000E+00  0.00000000E+00  0.00000000E+00
  0.00000000E+00  0.00000000E+00  0.00000000E+00
  0.00000000E+00  0.00000000E+00  0.00000000E+00
  0.00000000E+00  0.00000000E+00  0.00000000E+00
  0.00000000E+00  0.00000000E+00  0.00000000E+00
  0.00000000E+00  0.00000000E+00  0.00000000E+00
  0.00000000E+00  0.00000000E+00  0.00000000E+00
  0.00000000E+00  0.00000000E+00  0.00000000E+00
  0.00000000E+00  0.00000000E+00  0.00000000E+00
  0.00000000E+00  0.00000000E+00  0.00000000E+00
  0.00000000E+00  0.00000000E+00  0.00000000E+00
  0.00000000E+00  0.00000000E+00  0.00000000E+00
  0.00000000E+00  0.00000000E+00  0.00000000E+00
  0.00000000E+00  0.00000000E+00  0.00000000E+00
  0.00000000E+00  0.00000000E+00  0.00000000E+00
  0.00000000E+00  0.00000000E+00  0.00000000E+00
  0.00000000E+00  0.00000000E+00  0.00000000E+00
  0.00000000E+00  0.00000000E+00  0.00000000E+00
  0.00000000E+00  0.00000000E+00  0.00000000E+00
  0.00000000E+00  0.00000000E+00  0.00000000E+00
  0.00000000E+00  0.00000000E+00  0.00000000E+00
  0.00000000E+00  0.00000000E+00  0.00000000E+00
  0.00000000E+00  0.00000000E+00  0.00000000E+00
  0.00000000E+00  0.00000000E+00  0.00000000E+00
  0.00000000E+00  0.00000000E+00  0.00000000E+00
  0.00000000E+00  0.00000000E+00  0.00000000E+00
  0.00000000E+00  0.00000000E+00  0.00000000E+00
  0.00000000E+00  0.00000000E+00  0.00000000E+00
  0.00000000E+00  0.00000000E+00  0.00000000E+00
  0.00000000E+00  0.00000000E+00  0.00000000E+00
  0.00000000E+00  0.00000000E+00  0.00000000E+00
  0.00000000E+00  0.00000000E+00  0.00000000E+00
  0.00000000E+00  0.00000000E+00  0.00000000E+00
  0.00000000E+00  0.00000000E+00  0.00000000E+00
  0.00000000E+00  0.00000000E+00  0.00000000E+00
  0.00000000E+00  0.00000000E+00  0.00000000E+00
  0.00000000E+00  0.00000000E+00  0.00000000E+00
  0.00000000E+00  0.00000000E+00  0.00000000E+00
  0.00000000E+00  0.00000000E+00  0.00000000E+00
  0.00000000E+00  0.00000000E+00  0.00000000E+00
  0.00000000E+00  0.00000000E+00  0.00000000E+00
  0.00000000E+00  0.00000000E+00  0.00000000E+00
  0.00000000E+00  0.00000000E+00  0.00000000E+00
  0.00000000E+00  0.00000000E+00  0.00000000E+00
  0.00000000E+00  0.00000000E+00  0.00000000E+00
  0.00000000E+00  0.00000000E+00  0.00000000E+00
  0.00000000E+00  0.00000000E+00  0.00000000E+00
  0.00000000E+00  0.00000000E+00  0.00000000E+00
  0.00000000E+00  0.00000000E+00  0.00000000E+00
  0.00000000E+00  0.00000000E+00  0.00000000E+00
  0.00000000E+00  0.00000000E+00  0.00000000E+00
  0.00000000E+00  0.00000000E+00  0.00000000E+00
  0.00000000E+00  0.00000000E+00  0.00000000E+00
  0.00000000E+00  0.00000000E+00  0.00000000E+00
  0.00000000E+00  0.00000000E+00  0.00000000E+00
  0.00000000E+00  0.00000000E+00  0.00000000E+00
  0.00000000E+00  0.00000000E+00  0.00000000E+00
  0.00000000E+00  0.00000000E+00  0.00000000E+00
  0.00000000E+00  0.00000000E+00  0.00000000E+00
  0.00000000E+00  0.00000000E+00  0.00000000E+00
  0.00000000E+00  0.00000000E+00  0.00000000E+00
  0.00000000E+00  0.00000000E+00  0.00000000E+00
