CONTCAR\(7)                             
   1.00000000000000     
    11.3970003127999995    0.0000000000000000    0.0000000000000000
    -5.6736486034000002    9.8767870360999996    0.0000000000000000
     0.0000000000000000    0.0000000000000000   16.9332008362000010
   Mn   Cu   O 
    12     4    33
Direct
  0.0106935848089323  0.2718083363184801  0.5025909250086305
  0.2496555921823126  0.0002152884995843  0.5042572641717892
  0.0002523239931850  0.0000810757237693  0.5009667391369038
  0.5075681398262918  0.2723214809225463  0.5019621890609747
  0.7637075605922156  0.0087014205238046  0.5019761558854814
  0.4894539131639263  0.0091147875321951  0.5014906888146512
 -0.0061143280601013  0.7412439082146357  0.4987164356235641
  0.2253325793734251  0.4837814604460604  0.5007210536943564
  0.0044236797801332  0.4868005033867687  0.5001685799078919
  0.4873582433544925  0.7300113316025473  0.5003076931995146
  0.7285362917531942  0.4873627355452140  0.5009494578075286
  0.5045994060669325  0.4846785165618791  0.5004373463827073
  0.2463950906574877  0.2468097908532321  0.4934285984068339
  0.7463389230877776  0.2473609580016460  0.4980835218458335
  0.2469161077356349  0.7475214001427122  0.5030597028641568
  0.7469408353730458  0.7493314218790305  0.5024076428386517
  0.0810472260836260  0.4155706429999170  0.5739338937014807
  0.3318750824162951  0.4172568957513413  0.5487031770114643
  0.0774612496282691  0.1718187041567026  0.5534454333378808
  0.4169797122826633  0.0908129463810814  0.4420501249167617
  0.3409622856178271  0.1707951695984151  0.5533589979091272
  0.1619278537828855  0.0722326386448142  0.4426956280572528
  0.4214834727185958  0.3348895471865762  0.4365046951555289
  0.1581713597019110  0.3352428863085756  0.4360480493419454
  0.5802142486520463  0.4161247309814446  0.5738560982416292
  0.8324513238788349  0.4205045347831168  0.5502107341516975
  0.5732025176267371  0.1723722322307652  0.5566813429711014
  0.9162001294393909  0.0879221604131140  0.4427237318027756
  0.8431841792147912  0.1721101365605819  0.5567079077214167
  0.6556467436772688  0.0693987120794412  0.4505664025636049
  0.9206194278658517  0.3340331855038945  0.4386589207282858
  0.6586636877144335  0.3344395439959295  0.4386860906305331
  0.0839489523098653  0.9190788785283369  0.5588489033731714
  0.3307808613218288  0.9269594097082308  0.5634975405185150
  0.0729340948591921  0.6540258093742523  0.5544365263586792
  0.4101958077640499  0.5750896339810815  0.4425817345441295
  0.3242669666710882  0.6491298547907595  0.5560849326925149
  0.1578288828801135  0.5703817910762434  0.4392465061265432
  0.4210974423932316  0.8373362600348009  0.4520149540808906
  0.1645262811803342  0.8365927713946353  0.4461879171686185
  0.5699417424610851  0.9121855640077985  0.5753918577486886
  0.8399152581899119  0.9297302858281544  0.5616913891841572
  0.5711208646732470  0.6503622886806568  0.5555745759525716
  0.9113273764564023  0.5765021448949319  0.4439530130240132
  0.8261138092372928  0.6544419643427678  0.5537746872390239
  0.6572425732444934  0.5704706420041882  0.4392811624553912
  0.9187710363614674  0.8349782684611010  0.4452429323970193
  0.6595883412956024  0.8371359307256161  0.4519436972406932
  0.5702211067104781  0.9127297144366021  0.6523925050034058
 
  0.00000000E+00  0.00000000E+00  0.00000000E+00
  0.00000000E+00  0.00000000E+00  0.00000000E+00
  0.00000000E+00  0.00000000E+00  0.00000000E+00
  0.00000000E+00  0.00000000E+00  0.00000000E+00
  0.00000000E+00  0.00000000E+00  0.00000000E+00
  0.00000000E+00  0.00000000E+00  0.00000000E+00
  0.00000000E+00  0.00000000E+00  0.00000000E+00
  0.00000000E+00  0.00000000E+00  0.00000000E+00
  0.00000000E+00  0.00000000E+00  0.00000000E+00
  0.00000000E+00  0.00000000E+00  0.00000000E+00
  0.00000000E+00  0.00000000E+00  0.00000000E+00
  0.00000000E+00  0.00000000E+00  0.00000000E+00
  0.00000000E+00  0.00000000E+00  0.00000000E+00
  0.00000000E+00  0.00000000E+00  0.00000000E+00
  0.00000000E+00  0.00000000E+00  0.00000000E+00
  0.00000000E+00  0.00000000E+00  0.00000000E+00
  0.00000000E+00  0.00000000E+00  0.00000000E+00
  0.00000000E+00  0.00000000E+00  0.00000000E+00
  0.00000000E+00  0.00000000E+00  0.00000000E+00
  0.00000000E+00  0.00000000E+00  0.00000000E+00
  0.00000000E+00  0.00000000E+00  0.00000000E+00
  0.00000000E+00  0.00000000E+00  0.00000000E+00
  0.00000000E+00  0.00000000E+00  0.00000000E+00
  0.00000000E+00  0.00000000E+00  0.00000000E+00
  0.00000000E+00  0.00000000E+00  0.00000000E+00
  0.00000000E+00  0.00000000E+00  0.00000000E+00
  0.00000000E+00  0.00000000E+00  0.00000000E+00
  0.00000000E+00  0.00000000E+00  0.00000000E+00
  0.00000000E+00  0.00000000E+00  0.00000000E+00
  0.00000000E+00  0.00000000E+00  0.00000000E+00
  0.00000000E+00  0.00000000E+00  0.00000000E+00
  0.00000000E+00  0.00000000E+00  0.00000000E+00
  0.00000000E+00  0.00000000E+00  0.00000000E+00
  0.00000000E+00  0.00000000E+00  0.00000000E+00
  0.00000000E+00  0.00000000E+00  0.00000000E+00
  0.00000000E+00  0.00000000E+00  0.00000000E+00
  0.00000000E+00  0.00000000E+00  0.00000000E+00
  0.00000000E+00  0.00000000E+00  0.00000000E+00
  0.00000000E+00  0.00000000E+00  0.00000000E+00
  0.00000000E+00  0.00000000E+00  0.00000000E+00
  0.00000000E+00  0.00000000E+00  0.00000000E+00
  0.00000000E+00  0.00000000E+00  0.00000000E+00
  0.00000000E+00  0.00000000E+00  0.00000000E+00
  0.00000000E+00  0.00000000E+00  0.00000000E+00
  0.00000000E+00  0.00000000E+00  0.00000000E+00
  0.00000000E+00  0.00000000E+00  0.00000000E+00
  0.00000000E+00  0.00000000E+00  0.00000000E+00
  0.00000000E+00  0.00000000E+00  0.00000000E+00
  0.00000000E+00  0.00000000E+00  0.00000000E+00
