CONTCAR\(5)                             
   1.00000000000000     
    11.8264999389999996    0.0000000000000000    0.0000000000000000
    -5.9132499694999998   10.2420493849999996    0.0000000000000000
     0.0000000000000000    0.0000000000000000   18.5140991210999992
   Hf   Te   O    H 
     9    18     2     1
Direct
  0.9988926333096123  0.9983333875835272  0.5011909149954311
  0.3325786550116470  0.9978746378871085  0.5011894508925185
  0.6650712503182232  0.9969329035674734  0.5008679135946983
  0.9983177233921616  0.3304879554001127  0.5010050447154557
  0.3321964960915043  0.3313104685078256  0.5008186951577961
  0.6654511990838081  0.3305083305723501  0.5009662592451999
 -0.0009856662485989  0.6646308208299645  0.5007866408629694
  0.3322228923983718  0.6644777565225257  0.5005073096867685
  0.6655141757083204  0.6647107801112199  0.5005502543101006
  0.1097655853976955  0.2198314055758055  0.4045243337617915
  0.2212874679901814  0.1090905950294332  0.5972761243164695
  0.4432927060892896  0.2198779105909148  0.4045507310402495
  0.5546050705049912  0.1083548190252213  0.5974330664476913
  0.7766789922888273  0.2200223773968918  0.4042850451549456
  0.8870763280514256  0.1084163422368242  0.5974414966772047
  0.1095742070929159  0.5530002501236299  0.4043743809240358
  0.2211289728850398  0.4424344879883703  0.5970969725405053
  0.4429474436716169  0.5525990174671328  0.4041530064076032
  0.5544315061767093  0.4424015168579482  0.5970967797233993
  0.7766088906326664  0.5531248168304183  0.4044672334448297
  0.8877068428239552  0.4423242317163402  0.5971590243088101
  0.1101896830667853  0.8871433679051284  0.4047744123508966
  0.2212621674522924  0.7753470853248160  0.5971672382043107
  0.4429280760938225  0.8868318614881399  0.4042620855596560
  0.5546093188950312  0.7760401575515321  0.5960220717052225
  0.7773464419833890  0.8869326837387077  0.4042927942265624
  0.8874636404630428  0.7754642537815185  0.5972323651687276
  0.6060605366298661  0.8569817096668358  0.7370836341353705
  0.5501121270587206  0.7620554254214391  0.7897315177911083
  0.6185146746866766  0.7401986963008308  0.8009531996496687
 
  0.00000000E+00  0.00000000E+00  0.00000000E+00
  0.00000000E+00  0.00000000E+00  0.00000000E+00
  0.00000000E+00  0.00000000E+00  0.00000000E+00
  0.00000000E+00  0.00000000E+00  0.00000000E+00
  0.00000000E+00  0.00000000E+00  0.00000000E+00
  0.00000000E+00  0.00000000E+00  0.00000000E+00
  0.00000000E+00  0.00000000E+00  0.00000000E+00
  0.00000000E+00  0.00000000E+00  0.00000000E+00
  0.00000000E+00  0.00000000E+00  0.00000000E+00
  0.00000000E+00  0.00000000E+00  0.00000000E+00
  0.00000000E+00  0.00000000E+00  0.00000000E+00
  0.00000000E+00  0.00000000E+00  0.00000000E+00
  0.00000000E+00  0.00000000E+00  0.00000000E+00
  0.00000000E+00  0.00000000E+00  0.00000000E+00
  0.00000000E+00  0.00000000E+00  0.00000000E+00
  0.00000000E+00  0.00000000E+00  0.00000000E+00
  0.00000000E+00  0.00000000E+00  0.00000000E+00
  0.00000000E+00  0.00000000E+00  0.00000000E+00
  0.00000000E+00  0.00000000E+00  0.00000000E+00
  0.00000000E+00  0.00000000E+00  0.00000000E+00
  0.00000000E+00  0.00000000E+00  0.00000000E+00
  0.00000000E+00  0.00000000E+00  0.00000000E+00
  0.00000000E+00  0.00000000E+00  0.00000000E+00
  0.00000000E+00  0.00000000E+00  0.00000000E+00
  0.00000000E+00  0.00000000E+00  0.00000000E+00
  0.00000000E+00  0.00000000E+00  0.00000000E+00
  0.00000000E+00  0.00000000E+00  0.00000000E+00
  0.00000000E+00  0.00000000E+00  0.00000000E+00
  0.00000000E+00  0.00000000E+00  0.00000000E+00
  0.00000000E+00  0.00000000E+00  0.00000000E+00
