 Cu4 Se4 O12                            
   1.00000000000000     
     6.0176149830770580    0.0000000000000000    0.0000000000000000
     0.0000000000000000   12.2137613201393016    0.0000000000000000
     0.0000000000000000    0.0000000000000000   16.9626198425599988
   Cu   Se   O 
     4     4    12
Direct
  0.1656596250438369  0.9079590714476140  0.4848259560381294
  0.6664482233492137  0.5926291404598416  0.5151017745625381
  0.8343332074629970  0.0920407428172254  0.5151778444521042
  0.3335607812697248  0.4073722109421141  0.4848914767452470
  0.3859460371844250  0.1483099816667917  0.4789722490613997
  0.8855207163102108  0.3517681505629895  0.5210934531797804
  0.6140503832658482  0.8516874482760883  0.5210333152588760
  0.1145004478641951  0.6482428045210540  0.4789011855486791
  0.9658570891362075  0.5886243394119646  0.5550155830091867
  0.4657267462022006  0.9110758573144011  0.4447564500415950
  0.0341676161331179  0.4113690791070681  0.4449682381259237
  0.5342636639524798  0.0889131344554812  0.5552464291483474
  0.3630288455613027  0.5661385115104522  0.4837610545175792
  0.8614162947548536  0.9327994259308170  0.5171255994714627
  0.6369734535251652  0.4338596326247526  0.5162377725308218
  0.1385713465855858  0.0672012521329464  0.4828739381264384
  0.2842111405549801  0.2629037895024027  0.5260103906234477
  0.7840361324000824  0.2373260526881609  0.4742098177688376
  0.7157832803150157  0.7371027508913315  0.4739924080272075
  0.2159449691285644  0.7626766237364819  0.5258050637623910
 
  0.00000000E+00  0.00000000E+00  0.00000000E+00
  0.00000000E+00  0.00000000E+00  0.00000000E+00
  0.00000000E+00  0.00000000E+00  0.00000000E+00
  0.00000000E+00  0.00000000E+00  0.00000000E+00
  0.00000000E+00  0.00000000E+00  0.00000000E+00
  0.00000000E+00  0.00000000E+00  0.00000000E+00
  0.00000000E+00  0.00000000E+00  0.00000000E+00
  0.00000000E+00  0.00000000E+00  0.00000000E+00
  0.00000000E+00  0.00000000E+00  0.00000000E+00
  0.00000000E+00  0.00000000E+00  0.00000000E+00
  0.00000000E+00  0.00000000E+00  0.00000000E+00
  0.00000000E+00  0.00000000E+00  0.00000000E+00
  0.00000000E+00  0.00000000E+00  0.00000000E+00
  0.00000000E+00  0.00000000E+00  0.00000000E+00
  0.00000000E+00  0.00000000E+00  0.00000000E+00
  0.00000000E+00  0.00000000E+00  0.00000000E+00
  0.00000000E+00  0.00000000E+00  0.00000000E+00
  0.00000000E+00  0.00000000E+00  0.00000000E+00
  0.00000000E+00  0.00000000E+00  0.00000000E+00
  0.00000000E+00  0.00000000E+00  0.00000000E+00
