G   33   16    1    0.005     # Parameters to Generate KPOINTS (Don't Edit This Line)
     265
Reciprocal lattice
    0.000000000000    0.000000000000    0.000000000000       1
    0.030303030303    0.000000000000    0.000000000000       2
    0.060606060606    0.000000000000    0.000000000000       2
    0.090909090909    0.000000000000    0.000000000000       2
    0.121212121212    0.000000000000    0.000000000000       2
    0.151515151515    0.000000000000    0.000000000000       2
    0.181818181818    0.000000000000    0.000000000000       2
    0.212121212121    0.000000000000    0.000000000000       2
    0.242424242424    0.000000000000    0.000000000000       2
    0.272727272727    0.000000000000    0.000000000000       2
    0.303030303030    0.000000000000    0.000000000000       2
    0.333333333333    0.000000000000    0.000000000000       2
    0.363636363636    0.000000000000    0.000000000000       2
    0.393939393939    0.000000000000    0.000000000000       2
    0.424242424242    0.000000000000    0.000000000000       2
    0.454545454545    0.000000000000    0.000000000000       2
    0.484848484848    0.000000000000    0.000000000000       2
    0.000000000000    0.062500000000    0.000000000000       2
    0.030303030303    0.062500000000    0.000000000000       2
    0.060606060606    0.062500000000    0.000000000000       2
    0.090909090909    0.062500000000    0.000000000000       2
    0.121212121212    0.062500000000    0.000000000000       2
    0.151515151515    0.062500000000    0.000000000000       2
    0.181818181818    0.062500000000    0.000000000000       2
    0.212121212121    0.062500000000    0.000000000000       2
    0.242424242424    0.062500000000    0.000000000000       2
    0.272727272727    0.062500000000    0.000000000000       2
    0.303030303030    0.062500000000    0.000000000000       2
    0.333333333333    0.062500000000    0.000000000000       2
    0.363636363636    0.062500000000    0.000000000000       2
    0.393939393939    0.062500000000    0.000000000000       2
    0.424242424242    0.062500000000    0.000000000000       2
    0.454545454545    0.062500000000    0.000000000000       2
    0.484848484848    0.062500000000    0.000000000000       2
   -0.484848484848    0.062500000000    0.000000000000       2
   -0.454545454545    0.062500000000    0.000000000000       2
   -0.424242424242    0.062500000000    0.000000000000       2
   -0.393939393939    0.062500000000    0.000000000000       2
   -0.363636363636    0.062500000000    0.000000000000       2
   -0.333333333333    0.062500000000    0.000000000000       2
   -0.303030303030    0.062500000000    0.000000000000       2
   -0.272727272727    0.062500000000    0.000000000000       2
   -0.242424242424    0.062500000000    0.000000000000       2
   -0.212121212121    0.062500000000    0.000000000000       2
   -0.181818181818    0.062500000000    0.000000000000       2
   -0.151515151515    0.062500000000    0.000000000000       2
   -0.121212121212    0.062500000000    0.000000000000       2
   -0.090909090909    0.062500000000    0.000000000000       2
   -0.060606060606    0.062500000000    0.000000000000       2
   -0.030303030303    0.062500000000    0.000000000000       2
    0.000000000000    0.125000000000    0.000000000000       2
    0.030303030303    0.125000000000    0.000000000000       2
    0.060606060606    0.125000000000    0.000000000000       2
    0.090909090909    0.125000000000    0.000000000000       2
    0.121212121212    0.125000000000    0.000000000000       2
    0.151515151515    0.125000000000    0.000000000000       2
    0.181818181818    0.125000000000    0.000000000000       2
    0.212121212121    0.125000000000    0.000000000000       2
    0.242424242424    0.125000000000    0.000000000000       2
    0.272727272727    0.125000000000    0.000000000000       2
    0.303030303030    0.125000000000    0.000000000000       2
    0.333333333333    0.125000000000    0.000000000000       2
    0.363636363636    0.125000000000    0.000000000000       2
    0.393939393939    0.125000000000    0.000000000000       2
    0.424242424242    0.125000000000    0.000000000000       2
    0.454545454545    0.125000000000    0.000000000000       2
    0.484848484848    0.125000000000    0.000000000000       2
   -0.484848484848    0.125000000000    0.000000000000       2
   -0.454545454545    0.125000000000    0.000000000000       2
   -0.424242424242    0.125000000000    0.000000000000       2
   -0.393939393939    0.125000000000    0.000000000000       2
   -0.363636363636    0.125000000000    0.000000000000       2
   -0.333333333333    0.125000000000    0.000000000000       2
   -0.303030303030    0.125000000000    0.000000000000       2
   -0.272727272727    0.125000000000    0.000000000000       2
   -0.242424242424    0.125000000000    0.000000000000       2
   -0.212121212121    0.125000000000    0.000000000000       2
   -0.181818181818    0.125000000000    0.000000000000       2
   -0.151515151515    0.125000000000    0.000000000000       2
   -0.121212121212    0.125000000000    0.000000000000       2
   -0.090909090909    0.125000000000    0.000000000000       2
   -0.060606060606    0.125000000000    0.000000000000       2
   -0.030303030303    0.125000000000    0.000000000000       2
    0.000000000000    0.187500000000    0.000000000000       2
    0.030303030303    0.187500000000    0.000000000000       2
    0.060606060606    0.187500000000    0.000000000000       2
    0.090909090909    0.187500000000    0.000000000000       2
    0.121212121212    0.187500000000    0.000000000000       2
    0.151515151515    0.187500000000    0.000000000000       2
    0.181818181818    0.187500000000    0.000000000000       2
    0.212121212121    0.187500000000    0.000000000000       2
    0.242424242424    0.187500000000    0.000000000000       2
    0.272727272727    0.187500000000    0.000000000000       2
    0.303030303030    0.187500000000    0.000000000000       2
    0.333333333333    0.187500000000    0.000000000000       2
    0.363636363636    0.187500000000    0.000000000000       2
    0.393939393939    0.187500000000    0.000000000000       2
    0.424242424242    0.187500000000    0.000000000000       2
    0.454545454545    0.187500000000    0.000000000000       2
    0.484848484848    0.187500000000    0.000000000000       2
   -0.484848484848    0.187500000000    0.000000000000       2
   -0.454545454545    0.187500000000    0.000000000000       2
   -0.424242424242    0.187500000000    0.000000000000       2
   -0.393939393939    0.187500000000    0.000000000000       2
   -0.363636363636    0.187500000000    0.000000000000       2
   -0.333333333333    0.187500000000    0.000000000000       2
   -0.303030303030    0.187500000000    0.000000000000       2
   -0.272727272727    0.187500000000    0.000000000000       2
   -0.242424242424    0.187500000000    0.000000000000       2
   -0.212121212121    0.187500000000    0.000000000000       2
   -0.181818181818    0.187500000000    0.000000000000       2
   -0.151515151515    0.187500000000    0.000000000000       2
   -0.121212121212    0.187500000000    0.000000000000       2
   -0.090909090909    0.187500000000    0.000000000000       2
   -0.060606060606    0.187500000000    0.000000000000       2
   -0.030303030303    0.187500000000    0.000000000000       2
    0.000000000000    0.250000000000    0.000000000000       2
    0.030303030303    0.250000000000    0.000000000000       2
    0.060606060606    0.250000000000    0.000000000000       2
    0.090909090909    0.250000000000    0.000000000000       2
    0.121212121212    0.250000000000    0.000000000000       2
    0.151515151515    0.250000000000    0.000000000000       2
    0.181818181818    0.250000000000    0.000000000000       2
    0.212121212121    0.250000000000    0.000000000000       2
    0.242424242424    0.250000000000    0.000000000000       2
    0.272727272727    0.250000000000    0.000000000000       2
    0.303030303030    0.250000000000    0.000000000000       2
    0.333333333333    0.250000000000    0.000000000000       2
    0.363636363636    0.250000000000    0.000000000000       2
    0.393939393939    0.250000000000    0.000000000000       2
    0.424242424242    0.250000000000    0.000000000000       2
    0.454545454545    0.250000000000    0.000000000000       2
    0.484848484848    0.250000000000    0.000000000000       2
   -0.484848484848    0.250000000000    0.000000000000       2
   -0.454545454545    0.250000000000    0.000000000000       2
   -0.424242424242    0.250000000000    0.000000000000       2
   -0.393939393939    0.250000000000    0.000000000000       2
   -0.363636363636    0.250000000000    0.000000000000       2
   -0.333333333333    0.250000000000    0.000000000000       2
   -0.303030303030    0.250000000000    0.000000000000       2
   -0.272727272727    0.250000000000    0.000000000000       2
   -0.242424242424    0.250000000000    0.000000000000       2
   -0.212121212121    0.250000000000    0.000000000000       2
   -0.181818181818    0.250000000000    0.000000000000       2
   -0.151515151515    0.250000000000    0.000000000000       2
   -0.121212121212    0.250000000000    0.000000000000       2
   -0.090909090909    0.250000000000    0.000000000000       2
   -0.060606060606    0.250000000000    0.000000000000       2
   -0.030303030303    0.250000000000    0.000000000000       2
    0.000000000000    0.312500000000    0.000000000000       2
    0.030303030303    0.312500000000    0.000000000000       2
    0.060606060606    0.312500000000    0.000000000000       2
    0.090909090909    0.312500000000    0.000000000000       2
    0.121212121212    0.312500000000    0.000000000000       2
    0.151515151515    0.312500000000    0.000000000000       2
    0.181818181818    0.312500000000    0.000000000000       2
    0.212121212121    0.312500000000    0.000000000000       2
    0.242424242424    0.312500000000    0.000000000000       2
    0.272727272727    0.312500000000    0.000000000000       2
    0.303030303030    0.312500000000    0.000000000000       2
    0.333333333333    0.312500000000    0.000000000000       2
    0.363636363636    0.312500000000    0.000000000000       2
    0.393939393939    0.312500000000    0.000000000000       2
    0.424242424242    0.312500000000    0.000000000000       2
    0.454545454545    0.312500000000    0.000000000000       2
    0.484848484848    0.312500000000    0.000000000000       2
   -0.484848484848    0.312500000000    0.000000000000       2
   -0.454545454545    0.312500000000    0.000000000000       2
   -0.424242424242    0.312500000000    0.000000000000       2
   -0.393939393939    0.312500000000    0.000000000000       2
   -0.363636363636    0.312500000000    0.000000000000       2
   -0.333333333333    0.312500000000    0.000000000000       2
   -0.303030303030    0.312500000000    0.000000000000       2
   -0.272727272727    0.312500000000    0.000000000000       2
   -0.242424242424    0.312500000000    0.000000000000       2
   -0.212121212121    0.312500000000    0.000000000000       2
   -0.181818181818    0.312500000000    0.000000000000       2
   -0.151515151515    0.312500000000    0.000000000000       2
   -0.121212121212    0.312500000000    0.000000000000       2
   -0.090909090909    0.312500000000    0.000000000000       2
   -0.060606060606    0.312500000000    0.000000000000       2
   -0.030303030303    0.312500000000    0.000000000000       2
    0.000000000000    0.375000000000    0.000000000000       2
    0.030303030303    0.375000000000    0.000000000000       2
    0.060606060606    0.375000000000    0.000000000000       2
    0.090909090909    0.375000000000    0.000000000000       2
    0.121212121212    0.375000000000    0.000000000000       2
    0.151515151515    0.375000000000    0.000000000000       2
    0.181818181818    0.375000000000    0.000000000000       2
    0.212121212121    0.375000000000    0.000000000000       2
    0.242424242424    0.375000000000    0.000000000000       2
    0.272727272727    0.375000000000    0.000000000000       2
    0.303030303030    0.375000000000    0.000000000000       2
    0.333333333333    0.375000000000    0.000000000000       2
    0.363636363636    0.375000000000    0.000000000000       2
    0.393939393939    0.375000000000    0.000000000000       2
    0.424242424242    0.375000000000    0.000000000000       2
    0.454545454545    0.375000000000    0.000000000000       2
    0.484848484848    0.375000000000    0.000000000000       2
   -0.484848484848    0.375000000000    0.000000000000       2
   -0.454545454545    0.375000000000    0.000000000000       2
   -0.424242424242    0.375000000000    0.000000000000       2
   -0.393939393939    0.375000000000    0.000000000000       2
   -0.363636363636    0.375000000000    0.000000000000       2
   -0.333333333333    0.375000000000    0.000000000000       2
   -0.303030303030    0.375000000000    0.000000000000       2
   -0.272727272727    0.375000000000    0.000000000000       2
   -0.242424242424    0.375000000000    0.000000000000       2
   -0.212121212121    0.375000000000    0.000000000000       2
   -0.181818181818    0.375000000000    0.000000000000       2
   -0.151515151515    0.375000000000    0.000000000000       2
   -0.121212121212    0.375000000000    0.000000000000       2
   -0.090909090909    0.375000000000    0.000000000000       2
   -0.060606060606    0.375000000000    0.000000000000       2
   -0.030303030303    0.375000000000    0.000000000000       2
    0.000000000000    0.437500000000    0.000000000000       2
    0.030303030303    0.437500000000    0.000000000000       2
    0.060606060606    0.437500000000    0.000000000000       2
    0.090909090909    0.437500000000    0.000000000000       2
    0.121212121212    0.437500000000    0.000000000000       2
    0.151515151515    0.437500000000    0.000000000000       2
    0.181818181818    0.437500000000    0.000000000000       2
    0.212121212121    0.437500000000    0.000000000000       2
    0.242424242424    0.437500000000    0.000000000000       2
    0.272727272727    0.437500000000    0.000000000000       2
    0.303030303030    0.437500000000    0.000000000000       2
    0.333333333333    0.437500000000    0.000000000000       2
    0.363636363636    0.437500000000    0.000000000000       2
    0.393939393939    0.437500000000    0.000000000000       2
    0.424242424242    0.437500000000    0.000000000000       2
    0.454545454545    0.437500000000    0.000000000000       2
    0.484848484848    0.437500000000    0.000000000000       2
   -0.484848484848    0.437500000000    0.000000000000       2
   -0.454545454545    0.437500000000    0.000000000000       2
   -0.424242424242    0.437500000000    0.000000000000       2
   -0.393939393939    0.437500000000    0.000000000000       2
   -0.363636363636    0.437500000000    0.000000000000       2
   -0.333333333333    0.437500000000    0.000000000000       2
   -0.303030303030    0.437500000000    0.000000000000       2
   -0.272727272727    0.437500000000    0.000000000000       2
   -0.242424242424    0.437500000000    0.000000000000       2
   -0.212121212121    0.437500000000    0.000000000000       2
   -0.181818181818    0.437500000000    0.000000000000       2
   -0.151515151515    0.437500000000    0.000000000000       2
   -0.121212121212    0.437500000000    0.000000000000       2
   -0.090909090909    0.437500000000    0.000000000000       2
   -0.060606060606    0.437500000000    0.000000000000       2
   -0.030303030303    0.437500000000    0.000000000000       2
    0.000000000000    0.500000000000    0.000000000000       1
    0.030303030303    0.500000000000    0.000000000000       2
    0.060606060606    0.500000000000    0.000000000000       2
    0.090909090909    0.500000000000    0.000000000000       2
    0.121212121212    0.500000000000    0.000000000000       2
    0.151515151515    0.500000000000    0.000000000000       2
    0.181818181818    0.500000000000    0.000000000000       2
    0.212121212121    0.500000000000    0.000000000000       2
    0.242424242424    0.500000000000    0.000000000000       2
    0.272727272727    0.500000000000    0.000000000000       2
    0.303030303030    0.500000000000    0.000000000000       2
    0.333333333333    0.500000000000    0.000000000000       2
    0.363636363636    0.500000000000    0.000000000000       2
    0.393939393939    0.500000000000    0.000000000000       2
    0.424242424242    0.500000000000    0.000000000000       2
    0.454545454545    0.500000000000    0.000000000000       2
    0.484848484848    0.500000000000    0.000000000000       2
