CONTCAR\(3)                             
   1.00000000000000     
    15.7967996596999996    0.0000000000000000    0.0000000000000000
    -7.8983998298999998   13.6804298037999992    0.0000000000000000
     0.0000000000000000    0.0000000000000000   18.1074008942000013
   Co   I    O    H 
    16    32     1     1
Direct
 -0.0033725711884925  0.9981382532393214  0.4997806215634383
  0.2436442139703392  0.9941380887231004  0.5047731328378183
  0.4966861473639985 -0.0016617895156059  0.4998924525593902
  0.7465941778600844  0.0011548947407753  0.4949667603816965
  0.9934073313522340  0.2465241046767576  0.4941976811636560
  0.2482091965234319  0.2498520535694867  0.4974052682870972
  0.4960480258496301  0.2491817857671287  0.4991001055516526
  0.7475126422552676  0.2449700883604305  0.4944220002996440
  0.9959948400623526  0.4971848720358344  0.4989221703480009
  0.2481354092083723  0.4982721488665295  0.4974170405350171
  0.4944325452918765  0.4975020318291341  0.4947141898660716
  0.7447297969361790  0.4965131049591994  0.4989411855786827
  0.0023455760145419  0.7514497623542803  0.5048169418529976
  0.2437951917470259  0.7496026286289437  0.5046469719825999
  0.4955824670942022  0.7463424346505927  0.4992349017100522
  0.7446744719589817  0.7469057460438306  0.4997086313419229
  0.0878175245374602  0.1678383146232817  0.4150162983783715
  0.1660484484013492  0.0890262177456523  0.5814596735457166
  0.3341346021479528  0.1726504750515905  0.4203966879114422
  0.4167985728345519  0.0886986240565736  0.5826324198579261
  0.5753923046020897  0.1675203031576024  0.4161322552526282
  0.6638703209167072  0.0818332134990055  0.5834283039602328
  0.8299550438550495  0.1641630610057064  0.4059273656450406
  0.9121969435471925  0.0819777511386086  0.5822391873222296
  0.0881607838945160  0.4199267670023782  0.4151341082176881
  0.1714737819368900  0.3357342518520105  0.5748008761254759
  0.3259814671326088  0.4130193860598179  0.4151816403935917
  0.4103914681572864  0.3285861493422201  0.5776655498850305
  0.5847845959497813  0.4141741648027811  0.4193039906936056
  0.6589528785435466  0.3347330303736686  0.5770770208898752
  0.8285620399527540  0.4172717238877015  0.4130745691892598
  0.9121926365745243  0.3296112889290966  0.5823360147186034
  0.0796884675787677  0.6663948197822126  0.4159385116591429
  0.1658598896053374  0.5768863218654880  0.5812817546577037
  0.3338206214143875  0.6613438140571611  0.4203945244038988
  0.4095010986447606  0.5815042695280430  0.5775054921094969
  0.5836651907348351  0.6697782232074253  0.4194175270545161
  0.6685957107630832  0.5836542299673165  0.5804587930740573
  0.8169461444499032  0.6579095597329780  0.4258287009697246
  0.9030425398683227  0.5744684592140856  0.5815914630786352
  0.0798785102251865  0.9134371253095560  0.4159790858591704
  0.1623306558624814  0.8310439220993312  0.5940178358725328
  0.3284325953382994  0.9142578434183921  0.4168441631191799
  0.4168387020174146  0.8279331930197030  0.5827826616999590
  0.5749238295411958  0.9070268015078311  0.4164399543636619
  0.6582707907838021  0.8234050709051510  0.5778051410070907
  0.8277419533257216  0.9093970448461038  0.4145398036166744
  0.9042873462681411  0.8283131235295083  0.5824453915820739
  0.5710829211964568  0.5410112418199420  0.6774966847234080
  0.6145999450976521  0.5624394777322888  0.7204865383025285
 
  0.00000000E+00  0.00000000E+00  0.00000000E+00
  0.00000000E+00  0.00000000E+00  0.00000000E+00
  0.00000000E+00  0.00000000E+00  0.00000000E+00
  0.00000000E+00  0.00000000E+00  0.00000000E+00
  0.00000000E+00  0.00000000E+00  0.00000000E+00
  0.00000000E+00  0.00000000E+00  0.00000000E+00
  0.00000000E+00  0.00000000E+00  0.00000000E+00
  0.00000000E+00  0.00000000E+00  0.00000000E+00
  0.00000000E+00  0.00000000E+00  0.00000000E+00
  0.00000000E+00  0.00000000E+00  0.00000000E+00
  0.00000000E+00  0.00000000E+00  0.00000000E+00
  0.00000000E+00  0.00000000E+00  0.00000000E+00
  0.00000000E+00  0.00000000E+00  0.00000000E+00
  0.00000000E+00  0.00000000E+00  0.00000000E+00
  0.00000000E+00  0.00000000E+00  0.00000000E+00
  0.00000000E+00  0.00000000E+00  0.00000000E+00
  0.00000000E+00  0.00000000E+00  0.00000000E+00
  0.00000000E+00  0.00000000E+00  0.00000000E+00
  0.00000000E+00  0.00000000E+00  0.00000000E+00
  0.00000000E+00  0.00000000E+00  0.00000000E+00
  0.00000000E+00  0.00000000E+00  0.00000000E+00
  0.00000000E+00  0.00000000E+00  0.00000000E+00
  0.00000000E+00  0.00000000E+00  0.00000000E+00
  0.00000000E+00  0.00000000E+00  0.00000000E+00
  0.00000000E+00  0.00000000E+00  0.00000000E+00
  0.00000000E+00  0.00000000E+00  0.00000000E+00
  0.00000000E+00  0.00000000E+00  0.00000000E+00
  0.00000000E+00  0.00000000E+00  0.00000000E+00
  0.00000000E+00  0.00000000E+00  0.00000000E+00
  0.00000000E+00  0.00000000E+00  0.00000000E+00
  0.00000000E+00  0.00000000E+00  0.00000000E+00
  0.00000000E+00  0.00000000E+00  0.00000000E+00
  0.00000000E+00  0.00000000E+00  0.00000000E+00
  0.00000000E+00  0.00000000E+00  0.00000000E+00
  0.00000000E+00  0.00000000E+00  0.00000000E+00
  0.00000000E+00  0.00000000E+00  0.00000000E+00
  0.00000000E+00  0.00000000E+00  0.00000000E+00
  0.00000000E+00  0.00000000E+00  0.00000000E+00
  0.00000000E+00  0.00000000E+00  0.00000000E+00
  0.00000000E+00  0.00000000E+00  0.00000000E+00
  0.00000000E+00  0.00000000E+00  0.00000000E+00
  0.00000000E+00  0.00000000E+00  0.00000000E+00
  0.00000000E+00  0.00000000E+00  0.00000000E+00
  0.00000000E+00  0.00000000E+00  0.00000000E+00
  0.00000000E+00  0.00000000E+00  0.00000000E+00
  0.00000000E+00  0.00000000E+00  0.00000000E+00
  0.00000000E+00  0.00000000E+00  0.00000000E+00
  0.00000000E+00  0.00000000E+00  0.00000000E+00
  0.00000000E+00  0.00000000E+00  0.00000000E+00
  0.00000000E+00  0.00000000E+00  0.00000000E+00
