 Zr2 Te6                                
   1.00000000000000     
     3.9189119776068848    0.0000000000000000    0.0000000000000000
     0.0000000000000000    5.9127449691272007    0.0000000000000000
     0.0000000000000000    0.0000000000000000   21.8331356721979972
   Zr   Te
     2     6
Direct
  0.2500000009083863  0.6779327434323008  0.5775912856772791
  0.7500000005859775  0.1776056429565429  0.4224139391688695
  0.7500000003710880  0.4355313886231400  0.6545914180326022
  0.7499999994832152  0.6781381580064831  0.4745923866573634
  0.2500000000774989  0.4201933312863417  0.3454042519852720
  0.2499999993712123  0.9386996477062155  0.3439946608177706
  0.7499999992312141  0.9169273553962398  0.6559856942544471
  0.2499999999714220  0.1773317325927337  0.5254263634063889
 
  0.00000000E+00  0.00000000E+00  0.00000000E+00
  0.00000000E+00  0.00000000E+00  0.00000000E+00
  0.00000000E+00  0.00000000E+00  0.00000000E+00
  0.00000000E+00  0.00000000E+00  0.00000000E+00
  0.00000000E+00  0.00000000E+00  0.00000000E+00
  0.00000000E+00  0.00000000E+00  0.00000000E+00
  0.00000000E+00  0.00000000E+00  0.00000000E+00
  0.00000000E+00  0.00000000E+00  0.00000000E+00
