CONTCAR\(2)                             
   1.00000000000000     
    10.5677003860000003    0.0000000000000000    0.0000000000000000
    -1.7612875669000001   15.6418507631000008    0.0000000000000000
     0.0000000000000000    0.0000000000000000   21.6047992706000009
   Sc   Cl   O 
    21    30     1
Direct
  0.0721414401677820  0.4330448040160049  0.4694092224883550
  0.2617080631747145  0.5714287038160156  0.5343289078290128
  0.0708300064004764  0.4237414605273163  0.6118740275619693
  0.2643587597100509  0.5786295334548566  0.3913799225259302
  0.2077626007240199  0.2807799931841745  0.5380100090065758
  0.1208349066727900  0.7196463196326283  0.4643334069645006
  0.0002489684839208  0.9991143533738419  0.4972351739313697
  0.4116405651007026  0.4305877528449564  0.4705054649988044
  0.5952625484191062  0.5744750853818519  0.5343174771846783
  0.4053364853898155  0.4275506733808939  0.6169013529377314
  0.5959234679068282  0.5780638574489093  0.3918103989100954
  0.5354466188644925  0.2230541616432314  0.5746266794527275
  0.4535112361640036  0.7220005836512082  0.4641190830861173
  0.3342527872879790  0.9985732655268436  0.4958751735977500
  0.7326689383311186  0.4312803674902247  0.4703549928380801
  0.9294238401678339  0.5711866040802351  0.5343415979671339
  0.7374660847945445  0.4279930073496424  0.6170697755996831
  0.9290212710899015  0.5784336867360809  0.3913110423637058
  0.8861504766806857  0.2807255223615224  0.5380333464193497
  0.7863093477197746  0.7200681041672645  0.4641958116838700
  0.6657915761520586  0.9977887550502375  0.4954879121234223
  0.0261129544649133  0.1561544753089206  0.5433325471837392
  0.3043242520506727  0.8414170119208790  0.4520382674204484
  0.2199693900713044  0.3109379313232775  0.6519749945138807
  0.1145953513754547  0.6888121906110017  0.3499681659026139
  0.1669439832181263  0.0254423146682810  0.4171409270427002
  0.1636121620459422  0.9653738145703997  0.5743201064261101
  0.2535850003145204  0.5291962122399209  0.6556550708719927
  0.1151344290464719  0.6880714998562967  0.5754451101137398
  0.2187253575324171  0.3190673232462174  0.4280060804167280
  0.0794923722853848  0.4749761029067528  0.3489745529683476
  0.3423292175626017  0.1607953324002211  0.5094513438399367
  0.6428265798747131  0.8414259431290902  0.4513411725606732
  0.5553260941716230  0.3293641778421480  0.6673491850049026
  0.4485390433183207  0.6887514722576967  0.3496847116086234
  0.5051719490611487  0.0294258164742595  0.4166805789099788
  0.4916674203413083  0.9464807703230330  0.5675248349346863
  0.5893701051145828  0.5369931679772757  0.6546644634930541
  0.4461395324595608  0.6902927108975256  0.5748837756389826
  0.5537412442430037  0.3179258768282796  0.4394835778850005
  0.4125986269770823  0.4731592248136415  0.3502520099299044
  0.7106097544531467  0.1599156640473011  0.5119161805899811
  0.9737821436376572  0.8397862502984602  0.4639987831501912
  0.8834858587827010  0.3110200378126362  0.6519522770361362
  0.7814007123337854  0.6887147681187665  0.3497575458384717
  0.8422793252352143  0.0262038968430470  0.4172388309776351
  0.8252326199551198  0.9643034441160513  0.5740019355571589
  0.9234452353650501  0.5292508543615075  0.6558186182449351
  0.7835034085835657  0.6894386387579172  0.5752456782385950
  0.8876979092029769  0.3186510765689480  0.4281211425300079
  0.7449747691681320  0.4734135667767316  0.3502421347433423
  0.5175131623509249  0.1358712935855780  0.6227048509566111
 
  0.00000000E+00  0.00000000E+00  0.00000000E+00
  0.00000000E+00  0.00000000E+00  0.00000000E+00
  0.00000000E+00  0.00000000E+00  0.00000000E+00
  0.00000000E+00  0.00000000E+00  0.00000000E+00
  0.00000000E+00  0.00000000E+00  0.00000000E+00
  0.00000000E+00  0.00000000E+00  0.00000000E+00
  0.00000000E+00  0.00000000E+00  0.00000000E+00
  0.00000000E+00  0.00000000E+00  0.00000000E+00
  0.00000000E+00  0.00000000E+00  0.00000000E+00
  0.00000000E+00  0.00000000E+00  0.00000000E+00
  0.00000000E+00  0.00000000E+00  0.00000000E+00
  0.00000000E+00  0.00000000E+00  0.00000000E+00
  0.00000000E+00  0.00000000E+00  0.00000000E+00
  0.00000000E+00  0.00000000E+00  0.00000000E+00
  0.00000000E+00  0.00000000E+00  0.00000000E+00
  0.00000000E+00  0.00000000E+00  0.00000000E+00
  0.00000000E+00  0.00000000E+00  0.00000000E+00
  0.00000000E+00  0.00000000E+00  0.00000000E+00
  0.00000000E+00  0.00000000E+00  0.00000000E+00
  0.00000000E+00  0.00000000E+00  0.00000000E+00
  0.00000000E+00  0.00000000E+00  0.00000000E+00
  0.00000000E+00  0.00000000E+00  0.00000000E+00
  0.00000000E+00  0.00000000E+00  0.00000000E+00
  0.00000000E+00  0.00000000E+00  0.00000000E+00
  0.00000000E+00  0.00000000E+00  0.00000000E+00
  0.00000000E+00  0.00000000E+00  0.00000000E+00
  0.00000000E+00  0.00000000E+00  0.00000000E+00
  0.00000000E+00  0.00000000E+00  0.00000000E+00
  0.00000000E+00  0.00000000E+00  0.00000000E+00
  0.00000000E+00  0.00000000E+00  0.00000000E+00
  0.00000000E+00  0.00000000E+00  0.00000000E+00
  0.00000000E+00  0.00000000E+00  0.00000000E+00
  0.00000000E+00  0.00000000E+00  0.00000000E+00
  0.00000000E+00  0.00000000E+00  0.00000000E+00
  0.00000000E+00  0.00000000E+00  0.00000000E+00
  0.00000000E+00  0.00000000E+00  0.00000000E+00
  0.00000000E+00  0.00000000E+00  0.00000000E+00
  0.00000000E+00  0.00000000E+00  0.00000000E+00
  0.00000000E+00  0.00000000E+00  0.00000000E+00
  0.00000000E+00  0.00000000E+00  0.00000000E+00
  0.00000000E+00  0.00000000E+00  0.00000000E+00
  0.00000000E+00  0.00000000E+00  0.00000000E+00
  0.00000000E+00  0.00000000E+00  0.00000000E+00
  0.00000000E+00  0.00000000E+00  0.00000000E+00
  0.00000000E+00  0.00000000E+00  0.00000000E+00
  0.00000000E+00  0.00000000E+00  0.00000000E+00
  0.00000000E+00  0.00000000E+00  0.00000000E+00
  0.00000000E+00  0.00000000E+00  0.00000000E+00
  0.00000000E+00  0.00000000E+00  0.00000000E+00
  0.00000000E+00  0.00000000E+00  0.00000000E+00
  0.00000000E+00  0.00000000E+00  0.00000000E+00
  0.00000000E+00  0.00000000E+00  0.00000000E+00
