CONTCAR                                 
   1.00000000000000     
    14.0796003342000002    0.0000000000000000    0.0000000000000000
    -7.0398001671000001   12.1932915645000008    0.0000000000000000
     0.0000000000000000    0.0000000000000000   18.0872001647999987
   Ti   Se   O    H 
    16    32     1     1
Direct
  0.9947863061955289  0.0039616300624843  0.5020886959510733
  0.2375510063453063  0.9905342962468779  0.5003278423198978
  0.4910492682276058  0.0010716326615281  0.5000163410890792
  0.7374894076030074  0.9953990366612686  0.5010425082004559
  0.9925779802436878  0.2467009389259545  0.5028217220304043
  0.2434919623742218  0.2429444943871530  0.5006839179648424
  0.4912645055164404  0.2458739831775745  0.4987602043841122
  0.7469508032236121  0.2438628384799699  0.5017031861677452
  0.9961777155468994  0.5008672425929745  0.5006255389786176
  0.2356541826410279  0.4918493438037430  0.5017262070075361
  0.4751083200103068  0.4925886687227532  0.4967424983717379
  0.7459563111934173  0.4823382444586244  0.4967089423079543
  0.9926098376790833  0.7461125961859167  0.4986923397466541
  0.2479089448705807  0.7474172196648254  0.4997143383561351
  0.4924889405407527  0.7472832371450124  0.4987062371268891
  0.7551262331577604  0.7637541047233611  0.4965207688744471
  0.0732322487171899  0.1620090709797992  0.4143200439777956
  0.1596628758463652  0.0793660536281635  0.5878521644289876
  0.3245316215058551  0.1639667528880366  0.4135511853980276
  0.4105879015360046  0.0799970161235137  0.5867261904958667
  0.5743800889258992  0.1610439441055931  0.4136322430310670
  0.6576512812446325  0.0791101512023573  0.5878733283603097
  0.8267585205198529  0.1651994159124257  0.4142871386177731
  0.9107876533230979  0.0805757913905438  0.5883403376289706
  0.0767985952449806  0.4116852342081003  0.4142461788414451
  0.1586708704196482  0.3311674344812587  0.5882718188574430
  0.3174089945401164  0.4089327753206007  0.4112517955926478
  0.4067573981393906  0.3280924473471742  0.5858596725836946
  0.5776595255032788  0.4141905671955257  0.4159707394492642
  0.6588480855078558  0.3302594959858851  0.5867720386922741
  0.8297445448604748  0.4089821332277452  0.4114634619330175
  0.9078981645317370  0.3281015366784601  0.5880387639054661
  0.0743857982284339  0.6610575250368171  0.4134162279953415
  0.1595657204142142  0.5811016173647445  0.5875193960015324
  0.3251010427727792  0.6644570046466711  0.4133673525054959
  0.4096519679879762  0.5794455431816559  0.5865970455173013
  0.5751559871392473  0.6612688093457564  0.4159230401787397
  0.6582084742806344  0.5790832045134238  0.5693080641743862
  0.8238013093958685  0.6631715845138686  0.4162975867293497
  0.9102603057641261  0.5789017407273178  0.5861975915663180
  0.0773124042096711  0.9135484898489210  0.4139730345803514
  0.1584040048427440  0.8306450141009520  0.5866156438020269
  0.3255740854905298  0.9134152975957335  0.4133362805230973
  0.4074605176187873  0.8278702101818993  0.5865011318900599
  0.5775924702215676  0.9139469575863615  0.4135943478436843
  0.6593574455245346  0.8314304764849965  0.5860381782141886
  0.8295827873581842  0.9213323078402169  0.4117055275175758
  0.9079394752922383  0.8290429903767844  0.5867732722983376
  0.6502131598454142  0.5743616332575385  0.6707666863731987
  0.7258832708774321  0.6019807438211302  0.6874603826173598
 
  0.00000000E+00  0.00000000E+00  0.00000000E+00
  0.00000000E+00  0.00000000E+00  0.00000000E+00
  0.00000000E+00  0.00000000E+00  0.00000000E+00
  0.00000000E+00  0.00000000E+00  0.00000000E+00
  0.00000000E+00  0.00000000E+00  0.00000000E+00
  0.00000000E+00  0.00000000E+00  0.00000000E+00
  0.00000000E+00  0.00000000E+00  0.00000000E+00
  0.00000000E+00  0.00000000E+00  0.00000000E+00
  0.00000000E+00  0.00000000E+00  0.00000000E+00
  0.00000000E+00  0.00000000E+00  0.00000000E+00
  0.00000000E+00  0.00000000E+00  0.00000000E+00
  0.00000000E+00  0.00000000E+00  0.00000000E+00
  0.00000000E+00  0.00000000E+00  0.00000000E+00
  0.00000000E+00  0.00000000E+00  0.00000000E+00
  0.00000000E+00  0.00000000E+00  0.00000000E+00
  0.00000000E+00  0.00000000E+00  0.00000000E+00
  0.00000000E+00  0.00000000E+00  0.00000000E+00
  0.00000000E+00  0.00000000E+00  0.00000000E+00
  0.00000000E+00  0.00000000E+00  0.00000000E+00
  0.00000000E+00  0.00000000E+00  0.00000000E+00
  0.00000000E+00  0.00000000E+00  0.00000000E+00
  0.00000000E+00  0.00000000E+00  0.00000000E+00
  0.00000000E+00  0.00000000E+00  0.00000000E+00
  0.00000000E+00  0.00000000E+00  0.00000000E+00
  0.00000000E+00  0.00000000E+00  0.00000000E+00
  0.00000000E+00  0.00000000E+00  0.00000000E+00
  0.00000000E+00  0.00000000E+00  0.00000000E+00
  0.00000000E+00  0.00000000E+00  0.00000000E+00
  0.00000000E+00  0.00000000E+00  0.00000000E+00
  0.00000000E+00  0.00000000E+00  0.00000000E+00
  0.00000000E+00  0.00000000E+00  0.00000000E+00
  0.00000000E+00  0.00000000E+00  0.00000000E+00
  0.00000000E+00  0.00000000E+00  0.00000000E+00
  0.00000000E+00  0.00000000E+00  0.00000000E+00
  0.00000000E+00  0.00000000E+00  0.00000000E+00
  0.00000000E+00  0.00000000E+00  0.00000000E+00
  0.00000000E+00  0.00000000E+00  0.00000000E+00
  0.00000000E+00  0.00000000E+00  0.00000000E+00
  0.00000000E+00  0.00000000E+00  0.00000000E+00
  0.00000000E+00  0.00000000E+00  0.00000000E+00
  0.00000000E+00  0.00000000E+00  0.00000000E+00
  0.00000000E+00  0.00000000E+00  0.00000000E+00
  0.00000000E+00  0.00000000E+00  0.00000000E+00
  0.00000000E+00  0.00000000E+00  0.00000000E+00
  0.00000000E+00  0.00000000E+00  0.00000000E+00
  0.00000000E+00  0.00000000E+00  0.00000000E+00
  0.00000000E+00  0.00000000E+00  0.00000000E+00
  0.00000000E+00  0.00000000E+00  0.00000000E+00
  0.00000000E+00  0.00000000E+00  0.00000000E+00
  0.00000000E+00  0.00000000E+00  0.00000000E+00
