CONTCAR\(2)                             
   1.00000000000000     
    14.3248996734999992    0.0000000000000000    0.0000000000000000
    -7.1590188013000002   12.4195981305000007    0.0000000000000000
     0.0000000000000000    0.0000000000000000   17.6436004639000004
   Rb   O    H 
    24    14     1
Direct
  0.3400884048941091  0.3471592425748662  0.5639437062661790
  0.4971207966487828  0.3244461017022063  0.4109983563777587
  0.1616014515457438  0.1662192090574648  0.4198387466603276
  0.0032646206924247  0.1746455122334260  0.5791148527876717
  0.3260528937462808  0.9910774554088305  0.4257713103017358
  0.1760749547761787  0.5002639817549552  0.5778751612965124
  0.8237535086384600  0.3336600684113411  0.5879322663742144
  0.9875259508731140  0.3373795150887695  0.4283657276950473
  0.6614735897031434  0.1656009097506191  0.4308147169290005
  0.4892499584552003  0.1676575185732459  0.5795834118467552
  0.8349702065162461  0.0093182722383814  0.4257122772741512
  0.6372594588490830  0.5003036375525104  0.5756260850898708
  0.3287685300711691  0.8259942488251120  0.5793974408420546
  0.4957271439390769  0.8345319150237719  0.4201786089520761
  0.1504083258759600  0.6631781321078231  0.4285061621852754
  0.9904268132391039  0.6668434663016061  0.5880189713458283
  0.3205523572138212  0.5005202437193305  0.4040947970599846
  0.1662622370681727  0.0069528543625671  0.5801327229788583
  0.8222326583785438  0.8332438178732812  0.5796390224743815
 -0.0038772653423591  0.8348011936347941  0.4307899093757868
  0.6730294563417213  0.6764088556284658  0.4112146416362675
  0.4930914367456101  0.6534337390910175  0.5643032432307394
  0.8229206764689274  0.5003529116742407  0.4342198743526690
  0.6596795695046688  0.9937928551485609  0.5804155464044369
  0.1586677494618509  0.3345195968190010  0.4888831179243641
  0.3281848638551317  0.1626611998251829  0.4920323125027599
 -0.0035302815701693  0.0026419327257076  0.5047071073833170
  0.6577755545926731  0.3312192471008700  0.5053040326802408
  0.8278422791468996  0.1681459158227919  0.5100876970490479
  0.4941390547237646 -0.0019160171194071  0.5050943203901108
  0.1598832524463792  0.8324031724096195  0.5102147180710008
  0.3244858688748622  0.6663659900291148  0.4890419366085021
  0.9926961064100369  0.5002186592182803  0.5130947557144805
  0.6656427324136125  0.8378849809978540  0.4924261522883201
  0.8268782304354843  0.6694455985924501  0.5054834430646302
  0.4956615941825177  0.5004011685136873  0.4590719298011542
  0.3789064090272402  0.4996816415794269  0.6911445348221712
  0.4828209728145678  0.5001543885254539  0.6757901219892516
  0.3792580443419531  0.4991077912227826  0.7463560169730521
 
  0.00000000E+00  0.00000000E+00  0.00000000E+00
  0.00000000E+00  0.00000000E+00  0.00000000E+00
  0.00000000E+00  0.00000000E+00  0.00000000E+00
  0.00000000E+00  0.00000000E+00  0.00000000E+00
  0.00000000E+00  0.00000000E+00  0.00000000E+00
  0.00000000E+00  0.00000000E+00  0.00000000E+00
  0.00000000E+00  0.00000000E+00  0.00000000E+00
  0.00000000E+00  0.00000000E+00  0.00000000E+00
  0.00000000E+00  0.00000000E+00  0.00000000E+00
  0.00000000E+00  0.00000000E+00  0.00000000E+00
  0.00000000E+00  0.00000000E+00  0.00000000E+00
  0.00000000E+00  0.00000000E+00  0.00000000E+00
  0.00000000E+00  0.00000000E+00  0.00000000E+00
  0.00000000E+00  0.00000000E+00  0.00000000E+00
  0.00000000E+00  0.00000000E+00  0.00000000E+00
  0.00000000E+00  0.00000000E+00  0.00000000E+00
  0.00000000E+00  0.00000000E+00  0.00000000E+00
  0.00000000E+00  0.00000000E+00  0.00000000E+00
  0.00000000E+00  0.00000000E+00  0.00000000E+00
  0.00000000E+00  0.00000000E+00  0.00000000E+00
  0.00000000E+00  0.00000000E+00  0.00000000E+00
  0.00000000E+00  0.00000000E+00  0.00000000E+00
  0.00000000E+00  0.00000000E+00  0.00000000E+00
  0.00000000E+00  0.00000000E+00  0.00000000E+00
  0.00000000E+00  0.00000000E+00  0.00000000E+00
  0.00000000E+00  0.00000000E+00  0.00000000E+00
  0.00000000E+00  0.00000000E+00  0.00000000E+00
  0.00000000E+00  0.00000000E+00  0.00000000E+00
  0.00000000E+00  0.00000000E+00  0.00000000E+00
  0.00000000E+00  0.00000000E+00  0.00000000E+00
  0.00000000E+00  0.00000000E+00  0.00000000E+00
  0.00000000E+00  0.00000000E+00  0.00000000E+00
  0.00000000E+00  0.00000000E+00  0.00000000E+00
  0.00000000E+00  0.00000000E+00  0.00000000E+00
  0.00000000E+00  0.00000000E+00  0.00000000E+00
  0.00000000E+00  0.00000000E+00  0.00000000E+00
  0.00000000E+00  0.00000000E+00  0.00000000E+00
  0.00000000E+00  0.00000000E+00  0.00000000E+00
  0.00000000E+00  0.00000000E+00  0.00000000E+00
