CONTCAR\(3)                             
   1.00000000000000     
    14.6440000533999992    0.0000000000000000    0.0000000000000000
     0.0000000000000000   14.6358003615999994    0.0000000000000000
     0.0000000000000000    0.0000000000000000   19.3710002898999996
   Pd   Se   O    H 
    18    18    56     1
Direct
  0.0024345246127078  0.1667775523945314  0.5000156123067561
  0.1691895089997237 -0.0000346689727949  0.5002488846259071
  0.3357969955370367  0.1668353339952651  0.5000039456642151
  0.5030014977451099  0.0005416527995585  0.5003990330001009
  0.6690739223934288  0.1667516344748325  0.5000923211410790
  0.8361109222884899  0.0000425020776848  0.5001657939743184
  0.0032466296789195  0.4997994998829410  0.4978821179327561
  0.1693189293454534  0.3334185855529174  0.4989086089489075
  0.3360571651266739  0.4999763321680102  0.4979014436857503
  0.5028259516706829  0.3336653227125243  0.4993807240518505
  0.6701178070474382  0.5001840866534327  0.4998290897215141
  0.8364416772916695  0.3334959336712098  0.4997079534337218
  0.0029967615704915  0.8332716525347462  0.4990012824915026
  0.1695549642014424  0.6661863679882369  0.4974946781871749
  0.3364019353963474  0.8338478976950292  0.4996152918670850
  0.5035433531335909  0.6671551872286040  0.4996022109518654
  0.6697526391682272  0.8336364691485252  0.5000149209550444
  0.8364635098512022  0.6666800996215738  0.4988153203501156
  0.1684318386007755  0.1665245983745530  0.6154078572417409
  0.1699195184888311  0.1661103120069160  0.3842796482382992
  0.5015910717140128  0.1669438144378408  0.6156558224869124
  0.5033765482505227  0.1670199619520831  0.3844016436928001
  0.8349654306171858  0.1661346320185730  0.6156241026870934
  0.8363808232907431  0.1670261459636767  0.3845220089586305
  0.1688806268232589  0.5003571434071429  0.6140672858127163
  0.1704367208698972  0.4999364133302996  0.3821963432138212
  0.5009098771841853  0.5000265574427672  0.6147375159936136
  0.5045568994281682  0.5012599511001571  0.3837321267474950
  0.8372978285677967  0.5000819181739232  0.6145525080731485
  0.8362064604060137  0.5003712115859479  0.3833589050814894
  0.1690233917048414  0.8305805718045138  0.6146950808256461
  0.1706836487988311  0.8349836055002293  0.3836042224922556
  0.5019675483647246  0.8328924716519049  0.6155599285194646
  0.5039282342847029  0.8348757468472819  0.3843562234088256
  0.8363297869696393  0.8318551782335514  0.6151646078399216
  0.8364384823055112  0.8347142782843405  0.3839202620481216
  0.1471176332015832  0.2772323395938162  0.4043006182491255
  0.2808255470046589  0.1434846386071867  0.4053459260553168
  0.1127943055445053  0.1102582584489114  0.4564110576199261
  0.1912684437372683  0.0554054514504289  0.5949671793074136
  0.2254168617973527  0.2233725208736204  0.5436929675108710
  0.0575247580645397  0.1894018047632755  0.5946823599722715
  0.4807196538512022  0.2781281601701456  0.4047151797065457
  0.6142448268925712  0.1441625146619136  0.4052984204661665
  0.4464680095719145  0.1107382787983981  0.4564545858649018
  0.5246460510543512  0.0558836268216163  0.5952103626947168
  0.5589117331874333  0.2235975257521748  0.5439379179561553
  0.3907490984826006  0.1897583811250677  0.5946964527556934
  0.8134891090269563  0.2780173034687917  0.4051092080434585
  0.9473205243745596  0.1442518346673981  0.4052438991703216
  0.7795630728810833  0.1104064173562130  0.4564785345061694
  0.8579924675648799  0.0551360618863682  0.5949953031211163
  0.8921605739686896  0.2230733827622558  0.5439729205332819
  0.7240756214559592  0.1889907573656886  0.5948357904488427
  0.1474343273602435  0.6110097800205937  0.4026948510946105
  0.2812904166934546  0.4769604663348623  0.4031280941370303
  0.1125357149708112  0.4424480949010016  0.4533562130120369
  0.1916736882005022  0.3891537834962596  0.5933864000493839
  0.2248561290999232  0.5552330772689851  0.5405034797489802
  0.0580389785648415  0.5224497230929298  0.5924736151338592
  0.4815349463775132  0.6121045465294618  0.4047726033567607
  0.6152504998564350  0.4781890967398675  0.4048993330182867
  0.4470644081298372  0.4438760632130185  0.4549054467739453
  0.5242833613698274  0.3890792309481048  0.5941547646507395
  0.5598811082330930  0.5569325161469538  0.5437678185301660
  0.3905767178982951  0.5231632884360494  0.5926853974445021
  0.8137482153638943  0.6114835404883641  0.4041116774626036
  0.9472613534021517  0.4773189422785437  0.4033114635093021
  0.7799910192978535  0.4435340967724058  0.4555442743413779
  0.8599101015516323  0.3889280148514010  0.5941467227759663
  0.8930734827950211  0.5561225402846730  0.5419782065413256
  0.7260170819977989  0.5224772526675260  0.5943579209157092
  0.1474568804138206  0.9456100429258948  0.4051302243254682
  0.2814423538137611  0.8118656580400543  0.4047588586306020
  0.1128975213554322  0.7769086140178244  0.4543115977359856
  0.1923303234779881  0.7203921407896529  0.5923603711195993
  0.2260826723666421  0.8896534785431205  0.5437951214107262
  0.0583021784079709  0.8542574979296392  0.5938416355211300
  0.4811167967429866  0.9457144822408867  0.4054818530426146
  0.6147944584618172  0.8118911368053617  0.4051518604392097
  0.4468972050601934  0.7775239937774865  0.4557749621889243
  0.5252667640792187  0.7221310495795891  0.5944681355282032
  0.5598240197797897  0.8904385526743822  0.5444052261915212
  0.3912890753564580  0.8560235888099318  0.5943944352397980
  0.8137544519574779  0.9455255161271423  0.4052024121646228
  0.9474372033736314  0.8116791903916661  0.4042661512135389
  0.7798648606618539  0.7774007186079896  0.4556498770294357
  0.8592918416224601  0.7212025599717258  0.5936507943379445
  0.8931891989565705  0.8897754006686984  0.5437369073033623
  0.7253734608444727  0.8551066297389045  0.5947082374510035
  0.1659670618609072  0.5234825579368972  0.7724734585600128
  0.1503141866549920  0.4917653961352237  0.8374817428813205
  0.1539041811980656  0.4245125545010992  0.8331238385544631
 
  0.00000000E+00  0.00000000E+00  0.00000000E+00
  0.00000000E+00  0.00000000E+00  0.00000000E+00
  0.00000000E+00  0.00000000E+00  0.00000000E+00
  0.00000000E+00  0.00000000E+00  0.00000000E+00
  0.00000000E+00  0.00000000E+00  0.00000000E+00
  0.00000000E+00  0.00000000E+00  0.00000000E+00
  0.00000000E+00  0.00000000E+00  0.00000000E+00
  0.00000000E+00  0.00000000E+00  0.00000000E+00
  0.00000000E+00  0.00000000E+00  0.00000000E+00
  0.00000000E+00  0.00000000E+00  0.00000000E+00
  0.00000000E+00  0.00000000E+00  0.00000000E+00
  0.00000000E+00  0.00000000E+00  0.00000000E+00
  0.00000000E+00  0.00000000E+00  0.00000000E+00
  0.00000000E+00  0.00000000E+00  0.00000000E+00
  0.00000000E+00  0.00000000E+00  0.00000000E+00
  0.00000000E+00  0.00000000E+00  0.00000000E+00
  0.00000000E+00  0.00000000E+00  0.00000000E+00
  0.00000000E+00  0.00000000E+00  0.00000000E+00
  0.00000000E+00  0.00000000E+00  0.00000000E+00
  0.00000000E+00  0.00000000E+00  0.00000000E+00
  0.00000000E+00  0.00000000E+00  0.00000000E+00
  0.00000000E+00  0.00000000E+00  0.00000000E+00
  0.00000000E+00  0.00000000E+00  0.00000000E+00
  0.00000000E+00  0.00000000E+00  0.00000000E+00
  0.00000000E+00  0.00000000E+00  0.00000000E+00
  0.00000000E+00  0.00000000E+00  0.00000000E+00
  0.00000000E+00  0.00000000E+00  0.00000000E+00
  0.00000000E+00  0.00000000E+00  0.00000000E+00
  0.00000000E+00  0.00000000E+00  0.00000000E+00
  0.00000000E+00  0.00000000E+00  0.00000000E+00
  0.00000000E+00  0.00000000E+00  0.00000000E+00
  0.00000000E+00  0.00000000E+00  0.00000000E+00
  0.00000000E+00  0.00000000E+00  0.00000000E+00
  0.00000000E+00  0.00000000E+00  0.00000000E+00
  0.00000000E+00  0.00000000E+00  0.00000000E+00
  0.00000000E+00  0.00000000E+00  0.00000000E+00
  0.00000000E+00  0.00000000E+00  0.00000000E+00
  0.00000000E+00  0.00000000E+00  0.00000000E+00
  0.00000000E+00  0.00000000E+00  0.00000000E+00
  0.00000000E+00  0.00000000E+00  0.00000000E+00
  0.00000000E+00  0.00000000E+00  0.00000000E+00
  0.00000000E+00  0.00000000E+00  0.00000000E+00
  0.00000000E+00  0.00000000E+00  0.00000000E+00
  0.00000000E+00  0.00000000E+00  0.00000000E+00
  0.00000000E+00  0.00000000E+00  0.00000000E+00
  0.00000000E+00  0.00000000E+00  0.00000000E+00
  0.00000000E+00  0.00000000E+00  0.00000000E+00
  0.00000000E+00  0.00000000E+00  0.00000000E+00
  0.00000000E+00  0.00000000E+00  0.00000000E+00
  0.00000000E+00  0.00000000E+00  0.00000000E+00
  0.00000000E+00  0.00000000E+00  0.00000000E+00
  0.00000000E+00  0.00000000E+00  0.00000000E+00
  0.00000000E+00  0.00000000E+00  0.00000000E+00
  0.00000000E+00  0.00000000E+00  0.00000000E+00
  0.00000000E+00  0.00000000E+00  0.00000000E+00
  0.00000000E+00  0.00000000E+00  0.00000000E+00
  0.00000000E+00  0.00000000E+00  0.00000000E+00
  0.00000000E+00  0.00000000E+00  0.00000000E+00
  0.00000000E+00  0.00000000E+00  0.00000000E+00
  0.00000000E+00  0.00000000E+00  0.00000000E+00
  0.00000000E+00  0.00000000E+00  0.00000000E+00
  0.00000000E+00  0.00000000E+00  0.00000000E+00
  0.00000000E+00  0.00000000E+00  0.00000000E+00
  0.00000000E+00  0.00000000E+00  0.00000000E+00
  0.00000000E+00  0.00000000E+00  0.00000000E+00
  0.00000000E+00  0.00000000E+00  0.00000000E+00
  0.00000000E+00  0.00000000E+00  0.00000000E+00
  0.00000000E+00  0.00000000E+00  0.00000000E+00
  0.00000000E+00  0.00000000E+00  0.00000000E+00
  0.00000000E+00  0.00000000E+00  0.00000000E+00
  0.00000000E+00  0.00000000E+00  0.00000000E+00
  0.00000000E+00  0.00000000E+00  0.00000000E+00
  0.00000000E+00  0.00000000E+00  0.00000000E+00
  0.00000000E+00  0.00000000E+00  0.00000000E+00
  0.00000000E+00  0.00000000E+00  0.00000000E+00
  0.00000000E+00  0.00000000E+00  0.00000000E+00
  0.00000000E+00  0.00000000E+00  0.00000000E+00
  0.00000000E+00  0.00000000E+00  0.00000000E+00
  0.00000000E+00  0.00000000E+00  0.00000000E+00
  0.00000000E+00  0.00000000E+00  0.00000000E+00
  0.00000000E+00  0.00000000E+00  0.00000000E+00
  0.00000000E+00  0.00000000E+00  0.00000000E+00
  0.00000000E+00  0.00000000E+00  0.00000000E+00
  0.00000000E+00  0.00000000E+00  0.00000000E+00
  0.00000000E+00  0.00000000E+00  0.00000000E+00
  0.00000000E+00  0.00000000E+00  0.00000000E+00
  0.00000000E+00  0.00000000E+00  0.00000000E+00
  0.00000000E+00  0.00000000E+00  0.00000000E+00
  0.00000000E+00  0.00000000E+00  0.00000000E+00
  0.00000000E+00  0.00000000E+00  0.00000000E+00
  0.00000000E+00  0.00000000E+00  0.00000000E+00
  0.00000000E+00  0.00000000E+00  0.00000000E+00
  0.00000000E+00  0.00000000E+00  0.00000000E+00
