 V3 Te6                                 
   1.00000000000000     
     3.3606161116554172    0.0000000000000000    0.0000000000000000
     1.6803075928496445    9.2881524522364405    0.0000000000000000
     0.0000000000000000    0.0000000000000000   18.6295635591599975
   V    Te
     3     6
Direct
  0.9999920550513508  0.0000103016691213  0.4999999934098867
  0.3543513342769060  0.2905679557643026  0.4973398225393879
  0.6456542932787244  0.7094239477743685  0.5026599028529191
  0.4462920826134820  0.1071151609072913  0.6016824755696462
  0.5537113551125898  0.8928874459683627  0.3983211699276552
  0.7753848715310241  0.4489808007241152  0.5815111690355934
  0.2246141290314512  0.5510074881002183  0.4184882410241713
  0.1076225178820422  0.7854575504654662  0.6036611013500917
  0.8923773612224366  0.2145493486267540  0.3963361242906558
 
  0.00000000E+00  0.00000000E+00  0.00000000E+00
  0.00000000E+00  0.00000000E+00  0.00000000E+00
  0.00000000E+00  0.00000000E+00  0.00000000E+00
  0.00000000E+00  0.00000000E+00  0.00000000E+00
  0.00000000E+00  0.00000000E+00  0.00000000E+00
  0.00000000E+00  0.00000000E+00  0.00000000E+00
  0.00000000E+00  0.00000000E+00  0.00000000E+00
  0.00000000E+00  0.00000000E+00  0.00000000E+00
  0.00000000E+00  0.00000000E+00  0.00000000E+00
