G   60   22    1    0.005     # Parameters to Generate KPOINTS (Don't Edit This Line)
     662
Reciprocal lattice
    0.000000000000    0.000000000000    0.000000000000       1
    0.016666666667    0.000000000000    0.000000000000       2
    0.033333333333    0.000000000000    0.000000000000       2
    0.050000000000    0.000000000000    0.000000000000       2
    0.066666666667    0.000000000000    0.000000000000       2
    0.083333333333    0.000000000000    0.000000000000       2
    0.100000000000    0.000000000000    0.000000000000       2
    0.116666666667    0.000000000000    0.000000000000       2
    0.133333333333    0.000000000000    0.000000000000       2
    0.150000000000    0.000000000000    0.000000000000       2
    0.166666666667    0.000000000000    0.000000000000       2
    0.183333333333    0.000000000000    0.000000000000       2
    0.200000000000    0.000000000000    0.000000000000       2
    0.216666666667    0.000000000000    0.000000000000       2
    0.233333333333    0.000000000000    0.000000000000       2
    0.250000000000    0.000000000000    0.000000000000       2
    0.266666666667    0.000000000000    0.000000000000       2
    0.283333333333    0.000000000000    0.000000000000       2
    0.300000000000    0.000000000000    0.000000000000       2
    0.316666666667    0.000000000000    0.000000000000       2
    0.333333333333    0.000000000000    0.000000000000       2
    0.350000000000    0.000000000000    0.000000000000       2
    0.366666666667    0.000000000000    0.000000000000       2
    0.383333333333    0.000000000000    0.000000000000       2
    0.400000000000    0.000000000000    0.000000000000       2
    0.416666666667    0.000000000000    0.000000000000       2
    0.433333333333    0.000000000000    0.000000000000       2
    0.450000000000    0.000000000000    0.000000000000       2
    0.466666666667    0.000000000000    0.000000000000       2
    0.483333333333    0.000000000000    0.000000000000       2
    0.500000000000    0.000000000000    0.000000000000       1
    0.000000000000    0.045454545455    0.000000000000       2
    0.016666666667    0.045454545455    0.000000000000       2
    0.033333333333    0.045454545455    0.000000000000       2
    0.050000000000    0.045454545455    0.000000000000       2
    0.066666666667    0.045454545455    0.000000000000       2
    0.083333333333    0.045454545455    0.000000000000       2
    0.100000000000    0.045454545455    0.000000000000       2
    0.116666666667    0.045454545455    0.000000000000       2
    0.133333333333    0.045454545455    0.000000000000       2
    0.150000000000    0.045454545455    0.000000000000       2
    0.166666666667    0.045454545455    0.000000000000       2
    0.183333333333    0.045454545455    0.000000000000       2
    0.200000000000    0.045454545455    0.000000000000       2
    0.216666666667    0.045454545455    0.000000000000       2
    0.233333333333    0.045454545455    0.000000000000       2
    0.250000000000    0.045454545455    0.000000000000       2
    0.266666666667    0.045454545455    0.000000000000       2
    0.283333333333    0.045454545455    0.000000000000       2
    0.300000000000    0.045454545455    0.000000000000       2
    0.316666666667    0.045454545455    0.000000000000       2
    0.333333333333    0.045454545455    0.000000000000       2
    0.350000000000    0.045454545455    0.000000000000       2
    0.366666666667    0.045454545455    0.000000000000       2
    0.383333333333    0.045454545455    0.000000000000       2
    0.400000000000    0.045454545455    0.000000000000       2
    0.416666666667    0.045454545455    0.000000000000       2
    0.433333333333    0.045454545455    0.000000000000       2
    0.450000000000    0.045454545455    0.000000000000       2
    0.466666666667    0.045454545455    0.000000000000       2
    0.483333333333    0.045454545455    0.000000000000       2
    0.500000000000    0.045454545455    0.000000000000       2
   -0.483333333333    0.045454545455    0.000000000000       2
   -0.466666666667    0.045454545455    0.000000000000       2
   -0.450000000000    0.045454545455    0.000000000000       2
   -0.433333333333    0.045454545455    0.000000000000       2
   -0.416666666667    0.045454545455    0.000000000000       2
   -0.400000000000    0.045454545455    0.000000000000       2
   -0.383333333333    0.045454545455    0.000000000000       2
   -0.366666666667    0.045454545455    0.000000000000       2
   -0.350000000000    0.045454545455    0.000000000000       2
   -0.333333333333    0.045454545455    0.000000000000       2
   -0.316666666667    0.045454545455    0.000000000000       2
   -0.300000000000    0.045454545455    0.000000000000       2
   -0.283333333333    0.045454545455    0.000000000000       2
   -0.266666666667    0.045454545455    0.000000000000       2
   -0.250000000000    0.045454545455    0.000000000000       2
   -0.233333333333    0.045454545455    0.000000000000       2
   -0.216666666667    0.045454545455    0.000000000000       2
   -0.200000000000    0.045454545455    0.000000000000       2
   -0.183333333333    0.045454545455    0.000000000000       2
   -0.166666666667    0.045454545455    0.000000000000       2
   -0.150000000000    0.045454545455    0.000000000000       2
   -0.133333333333    0.045454545455    0.000000000000       2
   -0.116666666667    0.045454545455    0.000000000000       2
   -0.100000000000    0.045454545455    0.000000000000       2
   -0.083333333333    0.045454545455    0.000000000000       2
   -0.066666666667    0.045454545455    0.000000000000       2
   -0.050000000000    0.045454545455    0.000000000000       2
   -0.033333333333    0.045454545455    0.000000000000       2
   -0.016666666667    0.045454545455    0.000000000000       2
    0.000000000000    0.090909090909    0.000000000000       2
    0.016666666667    0.090909090909    0.000000000000       2
    0.033333333333    0.090909090909    0.000000000000       2
    0.050000000000    0.090909090909    0.000000000000       2
    0.066666666667    0.090909090909    0.000000000000       2
    0.083333333333    0.090909090909    0.000000000000       2
    0.100000000000    0.090909090909    0.000000000000       2
    0.116666666667    0.090909090909    0.000000000000       2
    0.133333333333    0.090909090909    0.000000000000       2
    0.150000000000    0.090909090909    0.000000000000       2
    0.166666666667    0.090909090909    0.000000000000       2
    0.183333333333    0.090909090909    0.000000000000       2
    0.200000000000    0.090909090909    0.000000000000       2
    0.216666666667    0.090909090909    0.000000000000       2
    0.233333333333    0.090909090909    0.000000000000       2
    0.250000000000    0.090909090909    0.000000000000       2
    0.266666666667    0.090909090909    0.000000000000       2
    0.283333333333    0.090909090909    0.000000000000       2
    0.300000000000    0.090909090909    0.000000000000       2
    0.316666666667    0.090909090909    0.000000000000       2
    0.333333333333    0.090909090909    0.000000000000       2
    0.350000000000    0.090909090909    0.000000000000       2
    0.366666666667    0.090909090909    0.000000000000       2
    0.383333333333    0.090909090909    0.000000000000       2
    0.400000000000    0.090909090909    0.000000000000       2
    0.416666666667    0.090909090909    0.000000000000       2
    0.433333333333    0.090909090909    0.000000000000       2
    0.450000000000    0.090909090909    0.000000000000       2
    0.466666666667    0.090909090909    0.000000000000       2
    0.483333333333    0.090909090909    0.000000000000       2
    0.500000000000    0.090909090909    0.000000000000       2
   -0.483333333333    0.090909090909    0.000000000000       2
   -0.466666666667    0.090909090909    0.000000000000       2
   -0.450000000000    0.090909090909    0.000000000000       2
   -0.433333333333    0.090909090909    0.000000000000       2
   -0.416666666667    0.090909090909    0.000000000000       2
   -0.400000000000    0.090909090909    0.000000000000       2
   -0.383333333333    0.090909090909    0.000000000000       2
   -0.366666666667    0.090909090909    0.000000000000       2
   -0.350000000000    0.090909090909    0.000000000000       2
   -0.333333333333    0.090909090909    0.000000000000       2
   -0.316666666667    0.090909090909    0.000000000000       2
   -0.300000000000    0.090909090909    0.000000000000       2
   -0.283333333333    0.090909090909    0.000000000000       2
   -0.266666666667    0.090909090909    0.000000000000       2
   -0.250000000000    0.090909090909    0.000000000000       2
   -0.233333333333    0.090909090909    0.000000000000       2
   -0.216666666667    0.090909090909    0.000000000000       2
   -0.200000000000    0.090909090909    0.000000000000       2
   -0.183333333333    0.090909090909    0.000000000000       2
   -0.166666666667    0.090909090909    0.000000000000       2
   -0.150000000000    0.090909090909    0.000000000000       2
   -0.133333333333    0.090909090909    0.000000000000       2
   -0.116666666667    0.090909090909    0.000000000000       2
   -0.100000000000    0.090909090909    0.000000000000       2
   -0.083333333333    0.090909090909    0.000000000000       2
   -0.066666666667    0.090909090909    0.000000000000       2
   -0.050000000000    0.090909090909    0.000000000000       2
   -0.033333333333    0.090909090909    0.000000000000       2
   -0.016666666667    0.090909090909    0.000000000000       2
    0.000000000000    0.136363636364    0.000000000000       2
    0.016666666667    0.136363636364    0.000000000000       2
    0.033333333333    0.136363636364    0.000000000000       2
    0.050000000000    0.136363636364    0.000000000000       2
    0.066666666667    0.136363636364    0.000000000000       2
    0.083333333333    0.136363636364    0.000000000000       2
    0.100000000000    0.136363636364    0.000000000000       2
    0.116666666667    0.136363636364    0.000000000000       2
    0.133333333333    0.136363636364    0.000000000000       2
    0.150000000000    0.136363636364    0.000000000000       2
    0.166666666667    0.136363636364    0.000000000000       2
    0.183333333333    0.136363636364    0.000000000000       2
    0.200000000000    0.136363636364    0.000000000000       2
    0.216666666667    0.136363636364    0.000000000000       2
    0.233333333333    0.136363636364    0.000000000000       2
    0.250000000000    0.136363636364    0.000000000000       2
    0.266666666667    0.136363636364    0.000000000000       2
    0.283333333333    0.136363636364    0.000000000000       2
    0.300000000000    0.136363636364    0.000000000000       2
    0.316666666667    0.136363636364    0.000000000000       2
    0.333333333333    0.136363636364    0.000000000000       2
    0.350000000000    0.136363636364    0.000000000000       2
    0.366666666667    0.136363636364    0.000000000000       2
    0.383333333333    0.136363636364    0.000000000000       2
    0.400000000000    0.136363636364    0.000000000000       2
    0.416666666667    0.136363636364    0.000000000000       2
    0.433333333333    0.136363636364    0.000000000000       2
    0.450000000000    0.136363636364    0.000000000000       2
    0.466666666667    0.136363636364    0.000000000000       2
    0.483333333333    0.136363636364    0.000000000000       2
    0.500000000000    0.136363636364    0.000000000000       2
   -0.483333333333    0.136363636364    0.000000000000       2
   -0.466666666667    0.136363636364    0.000000000000       2
   -0.450000000000    0.136363636364    0.000000000000       2
   -0.433333333333    0.136363636364    0.000000000000       2
   -0.416666666667    0.136363636364    0.000000000000       2
   -0.400000000000    0.136363636364    0.000000000000       2
   -0.383333333333    0.136363636364    0.000000000000       2
   -0.366666666667    0.136363636364    0.000000000000       2
   -0.350000000000    0.136363636364    0.000000000000       2
   -0.333333333333    0.136363636364    0.000000000000       2
   -0.316666666667    0.136363636364    0.000000000000       2
   -0.300000000000    0.136363636364    0.000000000000       2
   -0.283333333333    0.136363636364    0.000000000000       2
   -0.266666666667    0.136363636364    0.000000000000       2
   -0.250000000000    0.136363636364    0.000000000000       2
   -0.233333333333    0.136363636364    0.000000000000       2
   -0.216666666667    0.136363636364    0.000000000000       2
   -0.200000000000    0.136363636364    0.000000000000       2
   -0.183333333333    0.136363636364    0.000000000000       2
   -0.166666666667    0.136363636364    0.000000000000       2
   -0.150000000000    0.136363636364    0.000000000000       2
   -0.133333333333    0.136363636364    0.000000000000       2
   -0.116666666667    0.136363636364    0.000000000000       2
   -0.100000000000    0.136363636364    0.000000000000       2
   -0.083333333333    0.136363636364    0.000000000000       2
   -0.066666666667    0.136363636364    0.000000000000       2
   -0.050000000000    0.136363636364    0.000000000000       2
   -0.033333333333    0.136363636364    0.000000000000       2
   -0.016666666667    0.136363636364    0.000000000000       2
    0.000000000000    0.181818181818    0.000000000000       2
    0.016666666667    0.181818181818    0.000000000000       2
    0.033333333333    0.181818181818    0.000000000000       2
    0.050000000000    0.181818181818    0.000000000000       2
    0.066666666667    0.181818181818    0.000000000000       2
    0.083333333333    0.181818181818    0.000000000000       2
    0.100000000000    0.181818181818    0.000000000000       2
    0.116666666667    0.181818181818    0.000000000000       2
    0.133333333333    0.181818181818    0.000000000000       2
    0.150000000000    0.181818181818    0.000000000000       2
    0.166666666667    0.181818181818    0.000000000000       2
    0.183333333333    0.181818181818    0.000000000000       2
    0.200000000000    0.181818181818    0.000000000000       2
    0.216666666667    0.181818181818    0.000000000000       2
    0.233333333333    0.181818181818    0.000000000000       2
    0.250000000000    0.181818181818    0.000000000000       2
    0.266666666667    0.181818181818    0.000000000000       2
    0.283333333333    0.181818181818    0.000000000000       2
    0.300000000000    0.181818181818    0.000000000000       2
    0.316666666667    0.181818181818    0.000000000000       2
    0.333333333333    0.181818181818    0.000000000000       2
    0.350000000000    0.181818181818    0.000000000000       2
    0.366666666667    0.181818181818    0.000000000000       2
    0.383333333333    0.181818181818    0.000000000000       2
    0.400000000000    0.181818181818    0.000000000000       2
    0.416666666667    0.181818181818    0.000000000000       2
    0.433333333333    0.181818181818    0.000000000000       2
    0.450000000000    0.181818181818    0.000000000000       2
    0.466666666667    0.181818181818    0.000000000000       2
    0.483333333333    0.181818181818    0.000000000000       2
    0.500000000000    0.181818181818    0.000000000000       2
   -0.483333333333    0.181818181818    0.000000000000       2
   -0.466666666667    0.181818181818    0.000000000000       2
   -0.450000000000    0.181818181818    0.000000000000       2
   -0.433333333333    0.181818181818    0.000000000000       2
   -0.416666666667    0.181818181818    0.000000000000       2
   -0.400000000000    0.181818181818    0.000000000000       2
   -0.383333333333    0.181818181818    0.000000000000       2
   -0.366666666667    0.181818181818    0.000000000000       2
   -0.350000000000    0.181818181818    0.000000000000       2
   -0.333333333333    0.181818181818    0.000000000000       2
   -0.316666666667    0.181818181818    0.000000000000       2
   -0.300000000000    0.181818181818    0.000000000000       2
   -0.283333333333    0.181818181818    0.000000000000       2
   -0.266666666667    0.181818181818    0.000000000000       2
   -0.250000000000    0.181818181818    0.000000000000       2
   -0.233333333333    0.181818181818    0.000000000000       2
   -0.216666666667    0.181818181818    0.000000000000       2
   -0.200000000000    0.181818181818    0.000000000000       2
   -0.183333333333    0.181818181818    0.000000000000       2
   -0.166666666667    0.181818181818    0.000000000000       2
   -0.150000000000    0.181818181818    0.000000000000       2
   -0.133333333333    0.181818181818    0.000000000000       2
   -0.116666666667    0.181818181818    0.000000000000       2
   -0.100000000000    0.181818181818    0.000000000000       2
   -0.083333333333    0.181818181818    0.000000000000       2
   -0.066666666667    0.181818181818    0.000000000000       2
   -0.050000000000    0.181818181818    0.000000000000       2
   -0.033333333333    0.181818181818    0.000000000000       2
   -0.016666666667    0.181818181818    0.000000000000       2
    0.000000000000    0.227272727273    0.000000000000       2
    0.016666666667    0.227272727273    0.000000000000       2
    0.033333333333    0.227272727273    0.000000000000       2
    0.050000000000    0.227272727273    0.000000000000       2
    0.066666666667    0.227272727273    0.000000000000       2
    0.083333333333    0.227272727273    0.000000000000       2
    0.100000000000    0.227272727273    0.000000000000       2
    0.116666666667    0.227272727273    0.000000000000       2
    0.133333333333    0.227272727273    0.000000000000       2
    0.150000000000    0.227272727273    0.000000000000       2
    0.166666666667    0.227272727273    0.000000000000       2
    0.183333333333    0.227272727273    0.000000000000       2
    0.200000000000    0.227272727273    0.000000000000       2
    0.216666666667    0.227272727273    0.000000000000       2
    0.233333333333    0.227272727273    0.000000000000       2
    0.250000000000    0.227272727273    0.000000000000       2
    0.266666666667    0.227272727273    0.000000000000       2
    0.283333333333    0.227272727273    0.000000000000       2
    0.300000000000    0.227272727273    0.000000000000       2
    0.316666666667    0.227272727273    0.000000000000       2
    0.333333333333    0.227272727273    0.000000000000       2
    0.350000000000    0.227272727273    0.000000000000       2
    0.366666666667    0.227272727273    0.000000000000       2
    0.383333333333    0.227272727273    0.000000000000       2
    0.400000000000    0.227272727273    0.000000000000       2
    0.416666666667    0.227272727273    0.000000000000       2
    0.433333333333    0.227272727273    0.000000000000       2
    0.450000000000    0.227272727273    0.000000000000       2
    0.466666666667    0.227272727273    0.000000000000       2
    0.483333333333    0.227272727273    0.000000000000       2
    0.500000000000    0.227272727273    0.000000000000       2
   -0.483333333333    0.227272727273    0.000000000000       2
   -0.466666666667    0.227272727273    0.000000000000       2
   -0.450000000000    0.227272727273    0.000000000000       2
   -0.433333333333    0.227272727273    0.000000000000       2
   -0.416666666667    0.227272727273    0.000000000000       2
   -0.400000000000    0.227272727273    0.000000000000       2
   -0.383333333333    0.227272727273    0.000000000000       2
   -0.366666666667    0.227272727273    0.000000000000       2
   -0.350000000000    0.227272727273    0.000000000000       2
   -0.333333333333    0.227272727273    0.000000000000       2
   -0.316666666667    0.227272727273    0.000000000000       2
   -0.300000000000    0.227272727273    0.000000000000       2
   -0.283333333333    0.227272727273    0.000000000000       2
   -0.266666666667    0.227272727273    0.000000000000       2
   -0.250000000000    0.227272727273    0.000000000000       2
   -0.233333333333    0.227272727273    0.000000000000       2
   -0.216666666667    0.227272727273    0.000000000000       2
   -0.200000000000    0.227272727273    0.000000000000       2
   -0.183333333333    0.227272727273    0.000000000000       2
   -0.166666666667    0.227272727273    0.000000000000       2
   -0.150000000000    0.227272727273    0.000000000000       2
   -0.133333333333    0.227272727273    0.000000000000       2
   -0.116666666667    0.227272727273    0.000000000000       2
   -0.100000000000    0.227272727273    0.000000000000       2
   -0.083333333333    0.227272727273    0.000000000000       2
   -0.066666666667    0.227272727273    0.000000000000       2
   -0.050000000000    0.227272727273    0.000000000000       2
   -0.033333333333    0.227272727273    0.000000000000       2
   -0.016666666667    0.227272727273    0.000000000000       2
    0.000000000000    0.272727272727    0.000000000000       2
    0.016666666667    0.272727272727    0.000000000000       2
    0.033333333333    0.272727272727    0.000000000000       2
    0.050000000000    0.272727272727    0.000000000000       2
    0.066666666667    0.272727272727    0.000000000000       2
    0.083333333333    0.272727272727    0.000000000000       2
    0.100000000000    0.272727272727    0.000000000000       2
    0.116666666667    0.272727272727    0.000000000000       2
    0.133333333333    0.272727272727    0.000000000000       2
    0.150000000000    0.272727272727    0.000000000000       2
    0.166666666667    0.272727272727    0.000000000000       2
    0.183333333333    0.272727272727    0.000000000000       2
    0.200000000000    0.272727272727    0.000000000000       2
    0.216666666667    0.272727272727    0.000000000000       2
    0.233333333333    0.272727272727    0.000000000000       2
    0.250000000000    0.272727272727    0.000000000000       2
    0.266666666667    0.272727272727    0.000000000000       2
    0.283333333333    0.272727272727    0.000000000000       2
    0.300000000000    0.272727272727    0.000000000000       2
    0.316666666667    0.272727272727    0.000000000000       2
    0.333333333333    0.272727272727    0.000000000000       2
    0.350000000000    0.272727272727    0.000000000000       2
    0.366666666667    0.272727272727    0.000000000000       2
    0.383333333333    0.272727272727    0.000000000000       2
    0.400000000000    0.272727272727    0.000000000000       2
    0.416666666667    0.272727272727    0.000000000000       2
    0.433333333333    0.272727272727    0.000000000000       2
    0.450000000000    0.272727272727    0.000000000000       2
    0.466666666667    0.272727272727    0.000000000000       2
    0.483333333333    0.272727272727    0.000000000000       2
    0.500000000000    0.272727272727    0.000000000000       2
   -0.483333333333    0.272727272727    0.000000000000       2
   -0.466666666667    0.272727272727    0.000000000000       2
   -0.450000000000    0.272727272727    0.000000000000       2
   -0.433333333333    0.272727272727    0.000000000000       2
   -0.416666666667    0.272727272727    0.000000000000       2
   -0.400000000000    0.272727272727    0.000000000000       2
   -0.383333333333    0.272727272727    0.000000000000       2
   -0.366666666667    0.272727272727    0.000000000000       2
   -0.350000000000    0.272727272727    0.000000000000       2
   -0.333333333333    0.272727272727    0.000000000000       2
   -0.316666666667    0.272727272727    0.000000000000       2
   -0.300000000000    0.272727272727    0.000000000000       2
   -0.283333333333    0.272727272727    0.000000000000       2
   -0.266666666667    0.272727272727    0.000000000000       2
   -0.250000000000    0.272727272727    0.000000000000       2
   -0.233333333333    0.272727272727    0.000000000000       2
   -0.216666666667    0.272727272727    0.000000000000       2
   -0.200000000000    0.272727272727    0.000000000000       2
   -0.183333333333    0.272727272727    0.000000000000       2
   -0.166666666667    0.272727272727    0.000000000000       2
   -0.150000000000    0.272727272727    0.000000000000       2
   -0.133333333333    0.272727272727    0.000000000000       2
   -0.116666666667    0.272727272727    0.000000000000       2
   -0.100000000000    0.272727272727    0.000000000000       2
   -0.083333333333    0.272727272727    0.000000000000       2
   -0.066666666667    0.272727272727    0.000000000000       2
   -0.050000000000    0.272727272727    0.000000000000       2
   -0.033333333333    0.272727272727    0.000000000000       2
   -0.016666666667    0.272727272727    0.000000000000       2
    0.000000000000    0.318181818182    0.000000000000       2
    0.016666666667    0.318181818182    0.000000000000       2
    0.033333333333    0.318181818182    0.000000000000       2
    0.050000000000    0.318181818182    0.000000000000       2
    0.066666666667    0.318181818182    0.000000000000       2
    0.083333333333    0.318181818182    0.000000000000       2
    0.100000000000    0.318181818182    0.000000000000       2
    0.116666666667    0.318181818182    0.000000000000       2
    0.133333333333    0.318181818182    0.000000000000       2
    0.150000000000    0.318181818182    0.000000000000       2
    0.166666666667    0.318181818182    0.000000000000       2
    0.183333333333    0.318181818182    0.000000000000       2
    0.200000000000    0.318181818182    0.000000000000       2
    0.216666666667    0.318181818182    0.000000000000       2
    0.233333333333    0.318181818182    0.000000000000       2
    0.250000000000    0.318181818182    0.000000000000       2
    0.266666666667    0.318181818182    0.000000000000       2
    0.283333333333    0.318181818182    0.000000000000       2
    0.300000000000    0.318181818182    0.000000000000       2
    0.316666666667    0.318181818182    0.000000000000       2
    0.333333333333    0.318181818182    0.000000000000       2
    0.350000000000    0.318181818182    0.000000000000       2
    0.366666666667    0.318181818182    0.000000000000       2
    0.383333333333    0.318181818182    0.000000000000       2
    0.400000000000    0.318181818182    0.000000000000       2
    0.416666666667    0.318181818182    0.000000000000       2
    0.433333333333    0.318181818182    0.000000000000       2
    0.450000000000    0.318181818182    0.000000000000       2
    0.466666666667    0.318181818182    0.000000000000       2
    0.483333333333    0.318181818182    0.000000000000       2
    0.500000000000    0.318181818182    0.000000000000       2
   -0.483333333333    0.318181818182    0.000000000000       2
   -0.466666666667    0.318181818182    0.000000000000       2
   -0.450000000000    0.318181818182    0.000000000000       2
   -0.433333333333    0.318181818182    0.000000000000       2
   -0.416666666667    0.318181818182    0.000000000000       2
   -0.400000000000    0.318181818182    0.000000000000       2
   -0.383333333333    0.318181818182    0.000000000000       2
   -0.366666666667    0.318181818182    0.000000000000       2
   -0.350000000000    0.318181818182    0.000000000000       2
   -0.333333333333    0.318181818182    0.000000000000       2
   -0.316666666667    0.318181818182    0.000000000000       2
   -0.300000000000    0.318181818182    0.000000000000       2
   -0.283333333333    0.318181818182    0.000000000000       2
   -0.266666666667    0.318181818182    0.000000000000       2
   -0.250000000000    0.318181818182    0.000000000000       2
   -0.233333333333    0.318181818182    0.000000000000       2
   -0.216666666667    0.318181818182    0.000000000000       2
   -0.200000000000    0.318181818182    0.000000000000       2
   -0.183333333333    0.318181818182    0.000000000000       2
   -0.166666666667    0.318181818182    0.000000000000       2
   -0.150000000000    0.318181818182    0.000000000000       2
   -0.133333333333    0.318181818182    0.000000000000       2
   -0.116666666667    0.318181818182    0.000000000000       2
   -0.100000000000    0.318181818182    0.000000000000       2
   -0.083333333333    0.318181818182    0.000000000000       2
   -0.066666666667    0.318181818182    0.000000000000       2
   -0.050000000000    0.318181818182    0.000000000000       2
   -0.033333333333    0.318181818182    0.000000000000       2
   -0.016666666667    0.318181818182    0.000000000000       2
    0.000000000000    0.363636363636    0.000000000000       2
    0.016666666667    0.363636363636    0.000000000000       2
    0.033333333333    0.363636363636    0.000000000000       2
    0.050000000000    0.363636363636    0.000000000000       2
    0.066666666667    0.363636363636    0.000000000000       2
    0.083333333333    0.363636363636    0.000000000000       2
    0.100000000000    0.363636363636    0.000000000000       2
    0.116666666667    0.363636363636    0.000000000000       2
    0.133333333333    0.363636363636    0.000000000000       2
    0.150000000000    0.363636363636    0.000000000000       2
    0.166666666667    0.363636363636    0.000000000000       2
    0.183333333333    0.363636363636    0.000000000000       2
    0.200000000000    0.363636363636    0.000000000000       2
    0.216666666667    0.363636363636    0.000000000000       2
    0.233333333333    0.363636363636    0.000000000000       2
    0.250000000000    0.363636363636    0.000000000000       2
    0.266666666667    0.363636363636    0.000000000000       2
    0.283333333333    0.363636363636    0.000000000000       2
    0.300000000000    0.363636363636    0.000000000000       2
    0.316666666667    0.363636363636    0.000000000000       2
    0.333333333333    0.363636363636    0.000000000000       2
    0.350000000000    0.363636363636    0.000000000000       2
    0.366666666667    0.363636363636    0.000000000000       2