CONTCAR\(6)                             
   1.00000000000000     
    15.1738004683999996    0.0000000000000000    0.0000000000000000
     7.5869002341999998   13.1408966776000007    0.0000000000000000
     0.0000000000000000    0.0000000000000000   21.6410999297999993
   Tb   Br   O 
    32    32     1
Selective dynamics
Direct
  0.0833116011833326  0.0832983788462371  0.4337804737628872   F   F   F
  0.1680244324445752  0.1680278904835788  0.5614384568702135   F   F   F
  0.3338432158230304  0.0839849387533818  0.4325852541800472   F   F   F
  0.4198552786207301  0.1631971154098153  0.5610430993077102   F   F   F
  0.5840414563670890  0.0818611895564132  0.4318058076141469   F   F   F
  0.6669702120573433  0.1631395202772126  0.5609926558113045   F   F   F
  0.8320667531300288  0.0840600028303555  0.4325100485060815   F   F   F
  0.9138763496761868  0.1680354757301004  0.5613912874723468   F   F   F
  0.0839812086176721  0.3338502348546939  0.4325923758284276   F   F   F
  0.1632084259774587  0.4198582815050358  0.5610620402252238   F   F   F
  0.3353952058018521  0.3353966736314717  0.4340632204825354   F   F   F
  0.4168658771849110  0.4168940274977828  0.7128064353271668   F   F   F
  0.5791000038783665  0.3354232250163349  0.4340501994623409   F   F   F
  0.6669493272386688  0.4198756544019417  0.5610542575534794   F   F   F
  0.8320917720931291  0.3338267895663449  0.4325693249011451   F   F   F
  0.9178934187187480  0.4142228407744497  0.5588223128199772   F   F   F
  0.0818653476711901  0.5840478574178292  0.4318166869017901   F   F   F
  0.1631466557748951  0.6669749786586650  0.5610118163550055   F   F   F
  0.3354288027874048  0.5790963421054016  0.4340573204145954   F   F   F
  0.4198877242094312  0.6669416701789359  0.5610630756582822   F   F   F
  0.5840399407699266  0.5840264113033413  0.4318420526143782   F   F   F
  0.6669729727028937  0.6669571744826754  0.5594654927959652   F   F   F
  0.8335505826803526  0.5828295710036784  0.4310061037631101   F   F   F
  0.9160754685355599  0.6669626840857461  0.5594350673285362   F   F   F
  0.0840656609731312  0.8320564810981779  0.4325134132589668   F   F   F
  0.1680407768521164  0.9138598393089836  0.5613955814910625   F   F   F
  0.3338232798896072  0.8320813910369935  0.4325747227939161   F   F   F
  0.4142108079921272  0.9178899917525243  0.5588274671035904   F   F   F
  0.5828334482320443  0.8335393641020374  0.4310085601998210   F   F   F
  0.6669629826534802  0.9160668716865032  0.5594346491600461   F   F   F
  0.8335350134733019  0.8335373526568901  0.4309301127023772   F   F   F
  0.9178796704106276  0.9178768526513608  0.5587309981531234   F   F   F
  0.0002031916671470  0.0002026127789918  0.3443945484518096   F   F   F
  0.0001863214090818  0.0001851404550592  0.6495167744509089   F   F   F
  0.2496104568962352  0.0001292616004562  0.3444317019951910   F   F   F
  0.2496252075905758  0.0001669390689116  0.6495773178991726   F   F   F
  0.4991404940927282  0.0004657147347729  0.3424942411163627   F   F   F
  0.5004822504661632  0.9951112621078408  0.6481910674117941   F   F   F
  0.7502698480779060  0.0004827189321830  0.3424401511532125   F   F   F
  0.7544508969340384  0.9950841394634224  0.6481541823287813   F   F   F
  0.0001481935230814  0.2496096606059197  0.3444398643865014   F   F   F
  0.0001465066765434  0.2496208503257122  0.6495887818468447   F   F   F
  0.2516859504969204  0.2516794105265916  0.3449201921148202   F   F   F
  0.2521957742856529  0.2521841040426338  0.6501289243191835   F   F   F
  0.4997180404052983  0.2504231769324292  0.3439834889550113   F   F   F
  0.5151755580541391  0.2196899282512774  0.6583695565027767   F   F   F
  0.7464530497773652  0.2518020568459534  0.3448569237454819   F   F   F
  0.7455636808240484  0.2521836047079020  0.6500896379646548   F   F   F
  0.0004660605278985  0.4991425269381509  0.3424954584515731   F   F   F
  0.9951053888025996  0.5004877756285921  0.6481927211810401   F   F   F
  0.2504205998770317  0.4997273118579315  0.3439909055734418   F   F   F
  0.2196670410703874  0.5151875392735690  0.6584013922935625   F   F   F
  0.4997558922633800  0.4997540270078247  0.3439594301513793   F   F   F
  0.5154638086999626  0.5154586474011538  0.6586462304451786   F   F   F
  0.7502980912724411  0.4991765171334137  0.3424779701987362   F   F   F
  0.7546163844499247  0.5004458206703646  0.6481898335620997   F   F   F
  0.0004835053989041  0.7502707244060218  0.3424465292256187   F   F   F
  0.9950734370974956  0.7544670748889644  0.6481571966669364   F   F   F
  0.2518019623679919  0.7464455126509577  0.3448606618468375   F   F   F
  0.2521855548251892  0.7455679538076936  0.6501013217986440   F   F   F
  0.4991746072785332  0.7502946398349621  0.3424773842038249   F   F   F
  0.5004798743049435  0.7545954962539057  0.6481955116111848   F   F   F
  0.7499036012200477  0.7499071143643121  0.3423214046730578   F   F   F
  0.7499940501991560  0.7499987728046733  0.6486377326271509   F   F   F
  0.4166706907459742  0.4166354790325500  0.7980377484449137   T   T   T
 
  0.00000000E+00  0.00000000E+00  0.00000000E+00
  0.00000000E+00  0.00000000E+00  0.00000000E+00
  0.00000000E+00  0.00000000E+00  0.00000000E+00
  0.00000000E+00  0.00000000E+00  0.00000000E+00
  0.00000000E+00  0.00000000E+00  0.00000000E+00
  0.00000000E+00  0.00000000E+00  0.00000000E+00
  0.00000000E+00  0.00000000E+00  0.00000000E+00
  0.00000000E+00  0.00000000E+00  0.00000000E+00
  0.00000000E+00  0.00000000E+00  0.00000000E+00
  0.00000000E+00  0.00000000E+00  0.00000000E+00
  0.00000000E+00  0.00000000E+00  0.00000000E+00
  0.00000000E+00  0.00000000E+00  0.00000000E+00
  0.00000000E+00  0.00000000E+00  0.00000000E+00
  0.00000000E+00  0.00000000E+00  0.00000000E+00
  0.00000000E+00  0.00000000E+00  0.00000000E+00
  0.00000000E+00  0.00000000E+00  0.00000000E+00
  0.00000000E+00  0.00000000E+00  0.00000000E+00
  0.00000000E+00  0.00000000E+00  0.00000000E+00
  0.00000000E+00  0.00000000E+00  0.00000000E+00
  0.00000000E+00  0.00000000E+00  0.00000000E+00
  0.00000000E+00  0.00000000E+00  0.00000000E+00
  0.00000000E+00  0.00000000E+00  0.00000000E+00
  0.00000000E+00  0.00000000E+00  0.00000000E+00
  0.00000000E+00  0.00000000E+00  0.00000000E+00
  0.00000000E+00  0.00000000E+00  0.00000000E+00
  0.00000000E+00  0.00000000E+00  0.00000000E+00
  0.00000000E+00  0.00000000E+00  0.00000000E+00
  0.00000000E+00  0.00000000E+00  0.00000000E+00
  0.00000000E+00  0.00000000E+00  0.00000000E+00
  0.00000000E+00  0.00000000E+00  0.00000000E+00
  0.00000000E+00  0.00000000E+00  0.00000000E+00
  0.00000000E+00  0.00000000E+00  0.00000000E+00
  0.00000000E+00  0.00000000E+00  0.00000000E+00
  0.00000000E+00  0.00000000E+00  0.00000000E+00
  0.00000000E+00  0.00000000E+00  0.00000000E+00
  0.00000000E+00  0.00000000E+00  0.00000000E+00
  0.00000000E+00  0.00000000E+00  0.00000000E+00
  0.00000000E+00  0.00000000E+00  0.00000000E+00
  0.00000000E+00  0.00000000E+00  0.00000000E+00
  0.00000000E+00  0.00000000E+00  0.00000000E+00
  0.00000000E+00  0.00000000E+00  0.00000000E+00
  0.00000000E+00  0.00000000E+00  0.00000000E+00
  0.00000000E+00  0.00000000E+00  0.00000000E+00
  0.00000000E+00  0.00000000E+00  0.00000000E+00
  0.00000000E+00  0.00000000E+00  0.00000000E+00
  0.00000000E+00  0.00000000E+00  0.00000000E+00
  0.00000000E+00  0.00000000E+00  0.00000000E+00
  0.00000000E+00  0.00000000E+00  0.00000000E+00
  0.00000000E+00  0.00000000E+00  0.00000000E+00
  0.00000000E+00  0.00000000E+00  0.00000000E+00
  0.00000000E+00  0.00000000E+00  0.00000000E+00
  0.00000000E+00  0.00000000E+00  0.00000000E+00
  0.00000000E+00  0.00000000E+00  0.00000000E+00
  0.00000000E+00  0.00000000E+00  0.00000000E+00
  0.00000000E+00  0.00000000E+00  0.00000000E+00
  0.00000000E+00  0.00000000E+00  0.00000000E+00
  0.00000000E+00  0.00000000E+00  0.00000000E+00
  0.00000000E+00  0.00000000E+00  0.00000000E+00
  0.00000000E+00  0.00000000E+00  0.00000000E+00
  0.00000000E+00  0.00000000E+00  0.00000000E+00
  0.00000000E+00  0.00000000E+00  0.00000000E+00
  0.00000000E+00  0.00000000E+00  0.00000000E+00
  0.00000000E+00  0.00000000E+00  0.00000000E+00
  0.00000000E+00  0.00000000E+00  0.00000000E+00
  0.00000000E+00  0.00000000E+00  0.00000000E+00
