CONTCAR\(2)                             
   1.00000000000000     
    11.1623001099000003    0.0000000000000000    0.0000000000000000
     0.0000000000000000   10.7430000304999993    0.0000000000000000
     0.0000000000000000    0.0000000000000000   21.1923999786000010
   Hf   Se   O    H 
    12    36     2     1
Direct
  0.0815976736067307  0.3280537647287203  0.5712113058682997
  0.2484158765915793  0.0783968076868718  0.4302310747269358
  0.4151347621884721  0.3282013501319481  0.5712788272546588
  0.5820083386546980  0.0787453783437678  0.4303979656587563
  0.7485671721910290  0.3284346797091141  0.5715507810978411
  0.9152428030928885  0.0784087883623155  0.4304361039332829
  0.0815833051451141  0.8278841678687633  0.5711505211617532
  0.2484977021116401  0.5782330331996649  0.4301596259951808
  0.4149109544550539  0.8286687389483919  0.5706186586276989
  0.5820718117015207  0.5787418636061239  0.4304207766776832
  0.7489307889270120  0.8286604810041399  0.5710100793742930
  0.9153949478605480  0.5782744084595874  0.4303766047267902
  0.0821192155805563  0.4659975626368358  0.3541076078601467
  0.2483520292231692  0.4384675850533355  0.6483947393020210
  0.2483871531243972  0.3284154072185719  0.4775195872887391
  0.0818967203160457  0.0782027949053103  0.5241064334475525
  0.2484169424700020  0.2151695793381620  0.6468584771662436
  0.0812764715911077  0.1894421424205146  0.3535651365128228
  0.4158828253938647  0.4670654898829823  0.3538287695842857
  0.5818387304299203  0.4365969753888653  0.6505418013802854
  0.5819742150019352  0.3290620207840159  0.4776920603228606
  0.4150649839317413  0.0782652753934837  0.5239425235228840
  0.5813003382042499  0.2131874274121390  0.6453087302848114
  0.4150595852191547  0.1906296280858237  0.3541051807675661
  0.7489362033789020  0.4669680796677126  0.3541289253172838
  0.9156934721864810  0.4397163258241756  0.6478407973335596
  0.9149159144025846  0.3284366338612302  0.4776027132639104
  0.7485805746767527  0.0785672514384486  0.5241620672556750
  0.9147325160918570  0.2164355716935479  0.6477396805827094
  0.7484440623554721  0.1905271866114639  0.3541250604304866
  0.0820709186057289  0.9662344099725186  0.3541020224035533
  0.2483740006611085  0.9386345834690228  0.6479592140102652
  0.2481605266496618  0.8284436578729001  0.4771211351138942
  0.0820198842582427  0.5782280572089328  0.5240844509358992
  0.2489204768721742  0.7154472223454764  0.6467133798757343
  0.0814769912884628  0.6892329257589229  0.3534161410854291
  0.4158317400900179  0.9673920537048685  0.3538594837715578
  0.5816540306652713  0.9353501334202085  0.6499326877369792
  0.5820725646272571  0.8290687072770696  0.4771230164536778
  0.4150137194035407  0.5779834030824634  0.5239592385377863
  0.5822069852361433  0.7126265333893608  0.6430889745583819
  0.4152263140929526  0.6903429842886937  0.3540744661596372
  0.7489431145301658  0.9672228286461475  0.3540636564535792
  0.9157479520807952  0.9395038124466090  0.6476980964732955
  0.9153695252631235  0.8284695695798322  0.4772773143177519
  0.7489517463199201  0.5782922774194889  0.5240960023403165
  0.9145251671281263  0.7164693512676699  0.6474579590710916
  0.7485942634356647  0.6903061594490547  0.3541089391359077
  0.6866531371408059  0.6852669575840311  0.7726102751067905
  0.5916092343483851  0.6928560181130551  0.8122681097505370
  0.5573699721980221  0.6078319620376706  0.8126126119808789
 
  0.00000000E+00  0.00000000E+00  0.00000000E+00
  0.00000000E+00  0.00000000E+00  0.00000000E+00
  0.00000000E+00  0.00000000E+00  0.00000000E+00
  0.00000000E+00  0.00000000E+00  0.00000000E+00
  0.00000000E+00  0.00000000E+00  0.00000000E+00
  0.00000000E+00  0.00000000E+00  0.00000000E+00
  0.00000000E+00  0.00000000E+00  0.00000000E+00
  0.00000000E+00  0.00000000E+00  0.00000000E+00
  0.00000000E+00  0.00000000E+00  0.00000000E+00
  0.00000000E+00  0.00000000E+00  0.00000000E+00
  0.00000000E+00  0.00000000E+00  0.00000000E+00
  0.00000000E+00  0.00000000E+00  0.00000000E+00
  0.00000000E+00  0.00000000E+00  0.00000000E+00
  0.00000000E+00  0.00000000E+00  0.00000000E+00
  0.00000000E+00  0.00000000E+00  0.00000000E+00
  0.00000000E+00  0.00000000E+00  0.00000000E+00
  0.00000000E+00  0.00000000E+00  0.00000000E+00
  0.00000000E+00  0.00000000E+00  0.00000000E+00
  0.00000000E+00  0.00000000E+00  0.00000000E+00
  0.00000000E+00  0.00000000E+00  0.00000000E+00
  0.00000000E+00  0.00000000E+00  0.00000000E+00
  0.00000000E+00  0.00000000E+00  0.00000000E+00
  0.00000000E+00  0.00000000E+00  0.00000000E+00
  0.00000000E+00  0.00000000E+00  0.00000000E+00
  0.00000000E+00  0.00000000E+00  0.00000000E+00
  0.00000000E+00  0.00000000E+00  0.00000000E+00
  0.00000000E+00  0.00000000E+00  0.00000000E+00
  0.00000000E+00  0.00000000E+00  0.00000000E+00
  0.00000000E+00  0.00000000E+00  0.00000000E+00
  0.00000000E+00  0.00000000E+00  0.00000000E+00
  0.00000000E+00  0.00000000E+00  0.00000000E+00
  0.00000000E+00  0.00000000E+00  0.00000000E+00
  0.00000000E+00  0.00000000E+00  0.00000000E+00
  0.00000000E+00  0.00000000E+00  0.00000000E+00
  0.00000000E+00  0.00000000E+00  0.00000000E+00
  0.00000000E+00  0.00000000E+00  0.00000000E+00
  0.00000000E+00  0.00000000E+00  0.00000000E+00
  0.00000000E+00  0.00000000E+00  0.00000000E+00
  0.00000000E+00  0.00000000E+00  0.00000000E+00
  0.00000000E+00  0.00000000E+00  0.00000000E+00
  0.00000000E+00  0.00000000E+00  0.00000000E+00
  0.00000000E+00  0.00000000E+00  0.00000000E+00
  0.00000000E+00  0.00000000E+00  0.00000000E+00
  0.00000000E+00  0.00000000E+00  0.00000000E+00
  0.00000000E+00  0.00000000E+00  0.00000000E+00
  0.00000000E+00  0.00000000E+00  0.00000000E+00
  0.00000000E+00  0.00000000E+00  0.00000000E+00
  0.00000000E+00  0.00000000E+00  0.00000000E+00
  0.00000000E+00  0.00000000E+00  0.00000000E+00
  0.00000000E+00  0.00000000E+00  0.00000000E+00
  0.00000000E+00  0.00000000E+00  0.00000000E+00
