CONTCAR\(13)                            
   1.00000000000000     
    14.1827001571999993    0.0000000000000000    0.0000000000000000
     0.0000000000000000   18.7943000793000010    0.0000000000000000
     0.0000000000000000    0.0000000000000000   21.0296001433999997
   Ta   Pt   Se
    16     8    56
Direct
  0.1874999959999997  0.4223334224422371  0.5631015531672097
  0.0625000000000000  0.5776665775577630  0.4368984468327903
  0.0625000000000000  0.9036076771659259  0.4894839089207622
  0.1874999959999997  0.0963923228340740  0.5105160910792379
  0.4374999959999997  0.4223334224422371  0.5631015531672097
  0.3124999870000025  0.5776665775577630  0.4368984468327903
  0.3124999870000025  0.9036076771659259  0.4894839089207622
  0.4374999959999997  0.0963923228340740  0.5105160910792379
  0.6875000129999975  0.4223334224422371  0.5631015531672097
  0.5625000040000003  0.5776665775577630  0.4368984468327903
  0.5625000040000003  0.9036076771659259  0.4894839089207622
  0.6875000129999975  0.0963923228340740  0.5105160910792379
  0.9375000289999988  0.4223334224422371  0.5631015531672097
  0.8125000209999982  0.5776665775577630  0.4368984468327903
  0.8125000209999982  0.9036076771659259  0.4894839089207622
  0.9375000289999988  0.0963923228340740  0.5105160910792379
  0.0625000000000000  0.2256194135689375  0.5358775630965915
  0.1874999959999997  0.7743805864310624  0.4641223919034084
  0.3124999870000025  0.2256194135689375  0.5358775630965915
  0.4374999959999997  0.7743805864310624  0.4641223919034084
  0.5625000040000003  0.2256194135689375  0.5358775630965915
  0.6875000129999975  0.7743805864310624  0.4641223919034084
  0.8125000209999982  0.2256194135689375  0.5358775630965915
  0.9375000289999988  0.7743805864310624  0.4641223919034084
  0.0625000000000000  0.6967790882909599  0.5134518494098965
  0.1874999959999997  0.3032209617090443  0.4865481505901035
  0.0625000000000000  0.4346468253057940  0.4688337490219211
  0.1874999959999997  0.5653531746942060  0.5311662509780789
  0.1874999959999997  0.5251245315539161  0.3574132625136338
  0.0625000000000000  0.4748754684460839  0.6425867374863662
  0.1874999959999997  0.9834879445003156  0.4299637534229632
  0.0625000000000000  0.0165220914996905  0.5700362465770367
  0.0625000000000000  0.3363461678328930  0.6153613346463338
  0.1874999959999997  0.6636538571671056  0.3846386653536663
  0.1874999959999997  0.1720771159793441  0.6086981747307589
  0.0625000000000000  0.8279229090206616  0.3913018252692410
  0.0625000000000000  0.1460278547296389  0.4334541955799174
  0.1874999959999997  0.8539721842703607  0.5665557814200873
  0.3124999870000025  0.6967790882909599  0.5134518494098965
  0.4374999959999997  0.3032209617090443  0.4865481505901035
  0.3124999870000025  0.4346468253057940  0.4688337490219211
  0.4374999959999997  0.5653531746942060  0.5311662509780789
  0.4374999959999997  0.5251245315539161  0.3574132625136338
  0.3124999870000025  0.4748754684460839  0.6425867374863662
  0.4374999959999997  0.9834879445003156  0.4299637534229632
  0.3124999870000025  0.0165220914996905  0.5700362465770367
  0.3124999870000025  0.3363461678328930  0.6153613346463338
  0.4374999959999997  0.6636538571671056  0.3846386653536663
  0.4374999959999997  0.1720771159793441  0.6086981747307589
  0.3124999870000025  0.8279229090206616  0.3913018252692410
  0.3124999870000025  0.1460278547296389  0.4334541955799174
  0.4374999959999997  0.8539721842703607  0.5665557814200873
  0.5625000040000003  0.6967790882909599  0.5134518494098965
  0.6875000129999975  0.3032209617090443  0.4865481505901035
  0.5625000040000003  0.4346468253057940  0.4688337490219211
  0.6875000129999975  0.5653531746942060  0.5311662509780789
  0.6875000129999975  0.5251245315539161  0.3574132625136338
  0.5625000040000003  0.4748754684460839  0.6425867374863662
  0.6875000129999975  0.9834879445003156  0.4299637534229632
  0.5625000040000003  0.0165220914996905  0.5700362465770367
  0.5625000040000003  0.3363461678328930  0.6153613346463338
  0.6875000129999975  0.6636538571671056  0.3846386653536663
  0.6875000129999975  0.1720771159793441  0.6086981747307589
  0.5625000040000003  0.8279229090206616  0.3913018252692410
  0.5625000040000003  0.1460278547296389  0.4334541955799174
  0.6875000129999975  0.8539721842703607  0.5665557814200873
  0.8125000209999982  0.6967790882909599  0.5134518494098965
  0.9375000289999988  0.3032209617090443  0.4865481505901035
  0.8125000209999982  0.4346468253057940  0.4688337490219211
  0.9375000289999988  0.5653531746942060  0.5311662509780789
  0.9375000289999988  0.5251245315539161  0.3574132625136338
  0.8125000209999982  0.4748754684460839  0.6425867374863662
  0.9375000289999988  0.9834879445003156  0.4299637534229632
  0.8125000209999982  0.0165220914996905  0.5700362465770367
  0.8125000209999982  0.3363461678328930  0.6153613346463338
  0.9375000289999988  0.6636538571671056  0.3846386653536663
  0.9375000289999988  0.1720771159793441  0.6086981747307589
  0.8125000209999982  0.8279229090206616  0.3913018252692410
  0.8125000209999982  0.1460278547296389  0.4334541955799174
  0.9375000289999988  0.8539721842703607  0.5665557814200873
 
  0.00000000E+00  0.00000000E+00  0.00000000E+00
  0.00000000E+00  0.00000000E+00  0.00000000E+00
  0.00000000E+00  0.00000000E+00  0.00000000E+00
  0.00000000E+00  0.00000000E+00  0.00000000E+00
  0.00000000E+00  0.00000000E+00  0.00000000E+00
  0.00000000E+00  0.00000000E+00  0.00000000E+00
  0.00000000E+00  0.00000000E+00  0.00000000E+00
  0.00000000E+00  0.00000000E+00  0.00000000E+00
  0.00000000E+00  0.00000000E+00  0.00000000E+00
  0.00000000E+00  0.00000000E+00  0.00000000E+00
  0.00000000E+00  0.00000000E+00  0.00000000E+00
  0.00000000E+00  0.00000000E+00  0.00000000E+00
  0.00000000E+00  0.00000000E+00  0.00000000E+00
  0.00000000E+00  0.00000000E+00  0.00000000E+00
  0.00000000E+00  0.00000000E+00  0.00000000E+00
  0.00000000E+00  0.00000000E+00  0.00000000E+00
  0.00000000E+00  0.00000000E+00  0.00000000E+00
  0.00000000E+00  0.00000000E+00  0.00000000E+00
  0.00000000E+00  0.00000000E+00  0.00000000E+00
  0.00000000E+00  0.00000000E+00  0.00000000E+00
  0.00000000E+00  0.00000000E+00  0.00000000E+00
  0.00000000E+00  0.00000000E+00  0.00000000E+00
  0.00000000E+00  0.00000000E+00  0.00000000E+00
  0.00000000E+00  0.00000000E+00  0.00000000E+00
  0.00000000E+00  0.00000000E+00  0.00000000E+00
  0.00000000E+00  0.00000000E+00  0.00000000E+00
  0.00000000E+00  0.00000000E+00  0.00000000E+00
  0.00000000E+00  0.00000000E+00  0.00000000E+00
  0.00000000E+00  0.00000000E+00  0.00000000E+00
  0.00000000E+00  0.00000000E+00  0.00000000E+00
  0.00000000E+00  0.00000000E+00  0.00000000E+00
  0.00000000E+00  0.00000000E+00  0.00000000E+00
  0.00000000E+00  0.00000000E+00  0.00000000E+00
  0.00000000E+00  0.00000000E+00  0.00000000E+00
  0.00000000E+00  0.00000000E+00  0.00000000E+00
  0.00000000E+00  0.00000000E+00  0.00000000E+00
  0.00000000E+00  0.00000000E+00  0.00000000E+00
  0.00000000E+00  0.00000000E+00  0.00000000E+00
  0.00000000E+00  0.00000000E+00  0.00000000E+00
  0.00000000E+00  0.00000000E+00  0.00000000E+00
  0.00000000E+00  0.00000000E+00  0.00000000E+00
  0.00000000E+00  0.00000000E+00  0.00000000E+00
  0.00000000E+00  0.00000000E+00  0.00000000E+00
  0.00000000E+00  0.00000000E+00  0.00000000E+00
  0.00000000E+00  0.00000000E+00  0.00000000E+00
  0.00000000E+00  0.00000000E+00  0.00000000E+00
  0.00000000E+00  0.00000000E+00  0.00000000E+00
  0.00000000E+00  0.00000000E+00  0.00000000E+00
  0.00000000E+00  0.00000000E+00  0.00000000E+00
  0.00000000E+00  0.00000000E+00  0.00000000E+00
  0.00000000E+00  0.00000000E+00  0.00000000E+00
  0.00000000E+00  0.00000000E+00  0.00000000E+00
  0.00000000E+00  0.00000000E+00  0.00000000E+00
  0.00000000E+00  0.00000000E+00  0.00000000E+00
  0.00000000E+00  0.00000000E+00  0.00000000E+00
  0.00000000E+00  0.00000000E+00  0.00000000E+00
  0.00000000E+00  0.00000000E+00  0.00000000E+00
  0.00000000E+00  0.00000000E+00  0.00000000E+00
  0.00000000E+00  0.00000000E+00  0.00000000E+00
  0.00000000E+00  0.00000000E+00  0.00000000E+00
  0.00000000E+00  0.00000000E+00  0.00000000E+00
  0.00000000E+00  0.00000000E+00  0.00000000E+00
  0.00000000E+00  0.00000000E+00  0.00000000E+00
  0.00000000E+00  0.00000000E+00  0.00000000E+00
  0.00000000E+00  0.00000000E+00  0.00000000E+00
  0.00000000E+00  0.00000000E+00  0.00000000E+00
  0.00000000E+00  0.00000000E+00  0.00000000E+00
  0.00000000E+00  0.00000000E+00  0.00000000E+00
  0.00000000E+00  0.00000000E+00  0.00000000E+00
  0.00000000E+00  0.00000000E+00  0.00000000E+00
  0.00000000E+00  0.00000000E+00  0.00000000E+00
  0.00000000E+00  0.00000000E+00  0.00000000E+00
  0.00000000E+00  0.00000000E+00  0.00000000E+00
  0.00000000E+00  0.00000000E+00  0.00000000E+00
  0.00000000E+00  0.00000000E+00  0.00000000E+00
  0.00000000E+00  0.00000000E+00  0.00000000E+00
  0.00000000E+00  0.00000000E+00  0.00000000E+00
  0.00000000E+00  0.00000000E+00  0.00000000E+00
  0.00000000E+00  0.00000000E+00  0.00000000E+00
  0.00000000E+00  0.00000000E+00  0.00000000E+00
