CONTCAR\(8)                             
   1.00000000000000     
    18.0916004181000005    0.0000000000000000    0.0000000000000000
     1.9381108455000000   16.0410405593999990    0.0000000000000000
     0.0000000000000000    0.0000000000000000   22.7443008422999995
   Sc   C    I    O 
    24     8    44     1
Direct
  0.3764499849515767  0.5316806176855888  0.5517196880454768
  0.2097636498351645  0.6834850656904430  0.4460936686256446
  0.4639416638363097  0.3376282332049751  0.4938525669486507
  0.1200257689007525  0.8760746506384687  0.5041039586481920
  0.3458244576477416  0.3352883094947137  0.5973402839485433
  0.2387899389528239  0.8802875446063538  0.4011111988127180
  0.2153536002308030  0.4201295996184526  0.5178435389791444
  0.3697859346525728  0.7975353518788224  0.4811396446682574
  0.3334364805975276  0.4273889186123869  0.4153794314082903
  0.2512549449464339  0.7879165500003459  0.5830749345317046
  0.3089954802747257  0.2286734541015921  0.4628232414442301
  0.2745927009196564  0.9865507252953645  0.5364474969383349
  0.8749507234895317  0.5326261103509080  0.5516708577691802
  0.7078492483623662  0.6860877809312524  0.4403043212111054
  0.9640736674095536  0.3380877274371575  0.4930046547650970
  0.6299762793747016  0.8707834594941228  0.5103969511868842
  0.8461812054126113  0.3354439274451941  0.5965084712282839
  0.7370814157675207  0.8824361182915984  0.3947646595326099
  0.7160600203816133  0.4222739483282137  0.5175703878630130
  0.8612854763825601  0.7934700404113914  0.4848255627415016
  0.8331505070374302  0.4278171120617328  0.4142375602912776
  0.7586767268664930  0.7617283612244018  0.6479766266854017
  0.8089873268811932  0.2288298777688653  0.4614551052011770
  0.7769827491107678  0.9841005969692567  0.5347251712869440
  0.2374304143124137  0.7938165505014979  0.4812713693764449
  0.3478558875539848  0.4214793949991141  0.5169263985765759
  0.2531940942870457  0.8720750823298278  0.5027272567800909
  0.3308538932501421  0.3434547440151474  0.4958637363619590
  0.7362653329988627  0.7966922767333701  0.4734026971239870
  0.8482734173424252  0.4216292933505264  0.5158779830866816
  0.7536417297311566  0.8730439352191174  0.4959334398119011
  0.8311383025221897  0.3437705321210816  0.4944914141591923
  0.3810209504800641  0.4766292095434729  0.6703186229973088
  0.2060904578283391  0.7382950094231123  0.3273395477926725
  0.0340057780799154  0.4875931580983885  0.5344723922511924
  0.0540923079753158  0.7240685174008221  0.4623219483694931
  0.2168780961515645  0.6017116681195848  0.5668325128727822
  0.3697857787421990  0.6131957045768566  0.4311805882218923
  0.2715701313174197  0.0595298592620225  0.4157992339772580
  0.3098287682789256  0.1573185691641697  0.5835604610791272
  0.4622533957503831  0.1715592867339118  0.4447984933899032
  0.1204660195940024  0.0426085716538257  0.5536253638041811
  0.1461196556365002  0.2792253328533219  0.4758114748984350
  0.4358397042433442  0.9386849607991099  0.5241411151632299
  0.3883042767284724  0.8445509099711770  0.3617972906962750
  0.1964340176558494  0.3731919177932471  0.6371255500366986
  0.0887766419305979  0.9475984551719984  0.3889973901584360
  0.4954452742554024  0.2655842694430320  0.6084785492849049
  0.4028427129674829  0.7087346715607626  0.5940406197017992
  0.1821971488492224  0.5066408136930878  0.4041383759387900
  0.1040452423508818  0.8115935158319119  0.6226954511844608
  0.4803815349550815  0.4015114390874102  0.3746947998084085
  0.2894256732530329  0.9207068341858174  0.6561637737713819
  0.2931708341992877  0.2939894119596980  0.3431067827586836
  0.8792064800535818  0.4764498713927997  0.6691394886492639
  0.7013111499967075  0.7413757442088967  0.3218002651156426
  0.5332824213012132  0.4879361577026894  0.5352158546413676
  0.5513286289575257  0.7276203296055869  0.4644378082433815
  0.7162317954607497  0.6004979379400399  0.5615122941834276
  0.8678414902383417  0.6131483461578144  0.4290034871972251
  0.7737493872505231  0.0598571001246550  0.4142252931019452
  0.8122646383114766  0.1575102911285992  0.5808374766755140
  0.9629953411733557  0.1723134805842522  0.4433364841456229
  0.6247139203580467  0.0398789310839007  0.5558675500143632
  0.6455256570101339  0.2808156137025798  0.4751640428108392
  0.9393584673965620  0.9321063947871321  0.5221500022339745
  0.8895689431361720  0.8402707049228350  0.3637022610284092
  0.6968470998575765  0.3717321954900362  0.6361314225694434
  0.5867043791056886  0.9490412731748220  0.3943583350795599
  0.9959351302446298  0.2656162091118193  0.6075052454169736
  0.9070213238791920  0.7045696268685959  0.5927769048526343
  0.6813787366755154  0.5061898486439490  0.4021933692753447
  0.6001517441617652  0.8119969325464639  0.6257208790625989
  0.9807882283309443  0.4020171703697749  0.3741241713785231
  0.7980070476845078  0.9330592661538329  0.6579097869603341
  0.7933002605909095  0.2946417232845379  0.3416928935452816
  0.7683304323809901  0.7052264608764545  0.7110899706225042
 
  0.00000000E+00  0.00000000E+00  0.00000000E+00
  0.00000000E+00  0.00000000E+00  0.00000000E+00
  0.00000000E+00  0.00000000E+00  0.00000000E+00
  0.00000000E+00  0.00000000E+00  0.00000000E+00
  0.00000000E+00  0.00000000E+00  0.00000000E+00
  0.00000000E+00  0.00000000E+00  0.00000000E+00
  0.00000000E+00  0.00000000E+00  0.00000000E+00
  0.00000000E+00  0.00000000E+00  0.00000000E+00
  0.00000000E+00  0.00000000E+00  0.00000000E+00
  0.00000000E+00  0.00000000E+00  0.00000000E+00
  0.00000000E+00  0.00000000E+00  0.00000000E+00
  0.00000000E+00  0.00000000E+00  0.00000000E+00
  0.00000000E+00  0.00000000E+00  0.00000000E+00
  0.00000000E+00  0.00000000E+00  0.00000000E+00
  0.00000000E+00  0.00000000E+00  0.00000000E+00
  0.00000000E+00  0.00000000E+00  0.00000000E+00
  0.00000000E+00  0.00000000E+00  0.00000000E+00
  0.00000000E+00  0.00000000E+00  0.00000000E+00
  0.00000000E+00  0.00000000E+00  0.00000000E+00
  0.00000000E+00  0.00000000E+00  0.00000000E+00
  0.00000000E+00  0.00000000E+00  0.00000000E+00
  0.00000000E+00  0.00000000E+00  0.00000000E+00
  0.00000000E+00  0.00000000E+00  0.00000000E+00
  0.00000000E+00  0.00000000E+00  0.00000000E+00
  0.00000000E+00  0.00000000E+00  0.00000000E+00
  0.00000000E+00  0.00000000E+00  0.00000000E+00
  0.00000000E+00  0.00000000E+00  0.00000000E+00
  0.00000000E+00  0.00000000E+00  0.00000000E+00
  0.00000000E+00  0.00000000E+00  0.00000000E+00
  0.00000000E+00  0.00000000E+00  0.00000000E+00
  0.00000000E+00  0.00000000E+00  0.00000000E+00
  0.00000000E+00  0.00000000E+00  0.00000000E+00
  0.00000000E+00  0.00000000E+00  0.00000000E+00
  0.00000000E+00  0.00000000E+00  0.00000000E+00
  0.00000000E+00  0.00000000E+00  0.00000000E+00
  0.00000000E+00  0.00000000E+00  0.00000000E+00
  0.00000000E+00  0.00000000E+00  0.00000000E+00
  0.00000000E+00  0.00000000E+00  0.00000000E+00
  0.00000000E+00  0.00000000E+00  0.00000000E+00
  0.00000000E+00  0.00000000E+00  0.00000000E+00
  0.00000000E+00  0.00000000E+00  0.00000000E+00
  0.00000000E+00  0.00000000E+00  0.00000000E+00
  0.00000000E+00  0.00000000E+00  0.00000000E+00
  0.00000000E+00  0.00000000E+00  0.00000000E+00
  0.00000000E+00  0.00000000E+00  0.00000000E+00
  0.00000000E+00  0.00000000E+00  0.00000000E+00
  0.00000000E+00  0.00000000E+00  0.00000000E+00
  0.00000000E+00  0.00000000E+00  0.00000000E+00
  0.00000000E+00  0.00000000E+00  0.00000000E+00
  0.00000000E+00  0.00000000E+00  0.00000000E+00
  0.00000000E+00  0.00000000E+00  0.00000000E+00
  0.00000000E+00  0.00000000E+00  0.00000000E+00
  0.00000000E+00  0.00000000E+00  0.00000000E+00
  0.00000000E+00  0.00000000E+00  0.00000000E+00
  0.00000000E+00  0.00000000E+00  0.00000000E+00
  0.00000000E+00  0.00000000E+00  0.00000000E+00
  0.00000000E+00  0.00000000E+00  0.00000000E+00
  0.00000000E+00  0.00000000E+00  0.00000000E+00
  0.00000000E+00  0.00000000E+00  0.00000000E+00
  0.00000000E+00  0.00000000E+00  0.00000000E+00
  0.00000000E+00  0.00000000E+00  0.00000000E+00
  0.00000000E+00  0.00000000E+00  0.00000000E+00
  0.00000000E+00  0.00000000E+00  0.00000000E+00
  0.00000000E+00  0.00000000E+00  0.00000000E+00
  0.00000000E+00  0.00000000E+00  0.00000000E+00
  0.00000000E+00  0.00000000E+00  0.00000000E+00
  0.00000000E+00  0.00000000E+00  0.00000000E+00
  0.00000000E+00  0.00000000E+00  0.00000000E+00
  0.00000000E+00  0.00000000E+00  0.00000000E+00
  0.00000000E+00  0.00000000E+00  0.00000000E+00
  0.00000000E+00  0.00000000E+00  0.00000000E+00
  0.00000000E+00  0.00000000E+00  0.00000000E+00
  0.00000000E+00  0.00000000E+00  0.00000000E+00
  0.00000000E+00  0.00000000E+00  0.00000000E+00
  0.00000000E+00  0.00000000E+00  0.00000000E+00
  0.00000000E+00  0.00000000E+00  0.00000000E+00
  0.00000000E+00  0.00000000E+00  0.00000000E+00
