CONTCAR\(11)                            
   1.00000000000000     
    14.8263998031999993    0.0000000000000000    0.0000000000000000
     0.0000000000000000   11.8667001723999999    0.0000000000000000
     0.0000000000000000    0.0000000000000000   17.5359001160000005
   Cu   Te   O    H 
    10    10    41     1
Direct
 -0.0014341038129663  0.2913752907991213  0.5454319441157151
  0.1999135125356842  0.2910233221567338  0.5455642364021365
  0.4001141233087488  0.2956786137487011  0.5742849099343996
  0.6005263939237098  0.2910395268398422  0.5469512935542077
  0.8021448790954704  0.2914179253000785  0.5461024124801800
  0.0003017768304741  0.7916958403833722  0.4504844091171607
  0.2004529252841670  0.7918121031009423  0.4526124001606543
  0.4005197281755737  0.7917199684591544  0.4548372677955994
  0.6017722569789765  0.7918872283689559  0.4536026379841674
  0.7983666829754522  0.7917718372114314  0.4512703149387814
  0.1002488234711855  0.0404061740897117  0.5092441652358659
  0.3001387523816454  0.0414213325533078  0.5119572076127734
  0.5003836483932177  0.0413553046082757  0.5127718868627935
  0.7002241630724226  0.0411572437781411  0.5098065787747432
  0.9002072348880379  0.0401494352942758  0.5094528933663894
  0.1004278229576055  0.5408233377852935  0.4873011338148993
  0.3003448327540559  0.5399949183830288  0.4898198014887412
  0.5003345848043342  0.5400798270024117  0.4906330198918118
  0.7001631438045932  0.5403719739840501  0.4882165338711754
  0.9002481915865237  0.5414701560740227  0.4878320008177606
 -0.0002133316145652  0.0911989385706683  0.4421785023667570
  0.0996016239065148  0.1888145127405937  0.5582291388445523
  0.0002271143589685 -0.0093788010679671  0.5763607702255669
  0.0998781816231242  0.3931401910282770  0.5365359261134014
  0.2010069244857518  0.0910759055347884  0.4431187524417166
  0.2967766895414637  0.1869116899418279  0.5628368568023312
  0.1983086604830468 -0.0104608783256558  0.5772864694942731
  0.2994098102527327  0.3929858772216326  0.5382295622302716
  0.4007078039546395  0.0915993640149145  0.4455726483693690
  0.5036488686440671  0.1864743857242974  0.5642158733999236
  0.3999191281412360 -0.0070374632031838  0.5802208206610509
  0.5011716665837218  0.3932951879135607  0.5394766661931845
  0.5994352011175893  0.0919147950559542  0.4440717076046553
  0.7010408719420670  0.1889501949960899  0.5594664881291993
  0.6026613339772563 -0.0107411086558512  0.5778020711226372
  0.7007529253076380  0.3931568329657395  0.5380316781789598
  0.8003500206602763  0.0921478899800645  0.4427101464192357
  0.9004057470292812  0.1860648088571008  0.5613824945370154
  0.8001647239592171 -0.0096026773916064  0.5764459091675022
  0.9003710206220317  0.3970540245413444  0.5407743474435204
 -0.0003196116939034  0.4916182098375937  0.4203819526245299
  0.1004303614424761  0.6882318073889423  0.4376183591740616
  0.0004633092606557  0.5909632555859756  0.5548279757373988
  0.1001351391656177  0.8952521790894242  0.4572127093271812
  0.2011253943862435  0.4921167333219311  0.4208784468217247
  0.3008207493712737  0.6886188667209513  0.4414556119726118
  0.1987916007814418  0.5906847471310490  0.5559020573154931
  0.3007848607408937  0.8949739575389121  0.4613958911459298
  0.4007888348553370  0.4930362564389922  0.4224882286251123
  0.5006622808320355  0.6891309478303906  0.4428466767927636
  0.3999756818945616  0.5884869841599558  0.5582657324369441
  0.5005095338388899  0.8943670251696596  0.4627094165207207
  0.5995925106830520  0.4915881742405446  0.4219480439259808
  0.6999594663554574  0.6864578038505659  0.4366611178328156
  0.6020944376162092  0.5908890569691060  0.5567237624614824
  0.7002336518271822  0.8979265531742089  0.4554270277145829
  0.8003604904405115  0.4909069404028603  0.4210439183732489
  0.8995841009945140  0.6889992834530732  0.4385061017571562
  0.8002263926585620  0.5911619032045382  0.5552097017834984
  0.8996877161064849  0.8941742330500454  0.4584385788954678
  0.3989968991807027  0.2934811417827060  0.6812779194631488
  0.4014114488768417  0.2157986362951101  0.7001264423331263
 
  0.00000000E+00  0.00000000E+00  0.00000000E+00
  0.00000000E+00  0.00000000E+00  0.00000000E+00
  0.00000000E+00  0.00000000E+00  0.00000000E+00
  0.00000000E+00  0.00000000E+00  0.00000000E+00
  0.00000000E+00  0.00000000E+00  0.00000000E+00
  0.00000000E+00  0.00000000E+00  0.00000000E+00
  0.00000000E+00  0.00000000E+00  0.00000000E+00
  0.00000000E+00  0.00000000E+00  0.00000000E+00
  0.00000000E+00  0.00000000E+00  0.00000000E+00
  0.00000000E+00  0.00000000E+00  0.00000000E+00
  0.00000000E+00  0.00000000E+00  0.00000000E+00
  0.00000000E+00  0.00000000E+00  0.00000000E+00
  0.00000000E+00  0.00000000E+00  0.00000000E+00
  0.00000000E+00  0.00000000E+00  0.00000000E+00
  0.00000000E+00  0.00000000E+00  0.00000000E+00
  0.00000000E+00  0.00000000E+00  0.00000000E+00
  0.00000000E+00  0.00000000E+00  0.00000000E+00
  0.00000000E+00  0.00000000E+00  0.00000000E+00
  0.00000000E+00  0.00000000E+00  0.00000000E+00
  0.00000000E+00  0.00000000E+00  0.00000000E+00
  0.00000000E+00  0.00000000E+00  0.00000000E+00
  0.00000000E+00  0.00000000E+00  0.00000000E+00
  0.00000000E+00  0.00000000E+00  0.00000000E+00
  0.00000000E+00  0.00000000E+00  0.00000000E+00
  0.00000000E+00  0.00000000E+00  0.00000000E+00
  0.00000000E+00  0.00000000E+00  0.00000000E+00
  0.00000000E+00  0.00000000E+00  0.00000000E+00
  0.00000000E+00  0.00000000E+00  0.00000000E+00
  0.00000000E+00  0.00000000E+00  0.00000000E+00
  0.00000000E+00  0.00000000E+00  0.00000000E+00
  0.00000000E+00  0.00000000E+00  0.00000000E+00
  0.00000000E+00  0.00000000E+00  0.00000000E+00
  0.00000000E+00  0.00000000E+00  0.00000000E+00
  0.00000000E+00  0.00000000E+00  0.00000000E+00
  0.00000000E+00  0.00000000E+00  0.00000000E+00
  0.00000000E+00  0.00000000E+00  0.00000000E+00
  0.00000000E+00  0.00000000E+00  0.00000000E+00
  0.00000000E+00  0.00000000E+00  0.00000000E+00
  0.00000000E+00  0.00000000E+00  0.00000000E+00
  0.00000000E+00  0.00000000E+00  0.00000000E+00
  0.00000000E+00  0.00000000E+00  0.00000000E+00
  0.00000000E+00  0.00000000E+00  0.00000000E+00
  0.00000000E+00  0.00000000E+00  0.00000000E+00
  0.00000000E+00  0.00000000E+00  0.00000000E+00
  0.00000000E+00  0.00000000E+00  0.00000000E+00
  0.00000000E+00  0.00000000E+00  0.00000000E+00
  0.00000000E+00  0.00000000E+00  0.00000000E+00
  0.00000000E+00  0.00000000E+00  0.00000000E+00
  0.00000000E+00  0.00000000E+00  0.00000000E+00
  0.00000000E+00  0.00000000E+00  0.00000000E+00
  0.00000000E+00  0.00000000E+00  0.00000000E+00
  0.00000000E+00  0.00000000E+00  0.00000000E+00
  0.00000000E+00  0.00000000E+00  0.00000000E+00
  0.00000000E+00  0.00000000E+00  0.00000000E+00
  0.00000000E+00  0.00000000E+00  0.00000000E+00
  0.00000000E+00  0.00000000E+00  0.00000000E+00
  0.00000000E+00  0.00000000E+00  0.00000000E+00
  0.00000000E+00  0.00000000E+00  0.00000000E+00
  0.00000000E+00  0.00000000E+00  0.00000000E+00
  0.00000000E+00  0.00000000E+00  0.00000000E+00
  0.00000000E+00  0.00000000E+00  0.00000000E+00
  0.00000000E+00  0.00000000E+00  0.00000000E+00
