CONTCAR\(3)                             
   1.00000000000000     
    13.7960996627999997    0.0000000000000000    0.0000000000000000
    -6.5035079245000000   17.1935171878000013    0.0000000000000000
     0.0000000000000000    0.0000000000000000   23.1921005248999990
   Ce   P    H    O 
     8    24    64    57
Direct
  0.3291806635286400  0.4237170605499386  0.4807144218681930
  0.1696028081439990  0.0763673821556113  0.5206959758113923
  0.8304774481504911  0.4236479898146910  0.4791396503757914
  0.6691385011773331  0.0760039818426213  0.5220090256542487
  0.3256143500195530  0.9243034558647804  0.4801251259928045
  0.1727783783846579  0.5767326003861090  0.5212593568943039
  0.8252496597206733  0.9226347682696239  0.4807434833368832
  0.6739906534740840  0.5755365839188310  0.5197719699129574
  0.0644561097550899  0.3676378401360119  0.5216007686410694
  0.4353767981691370  0.1332654037549904  0.4806730549135509
  0.4672252606203537  0.4808725988151976  0.6291259959502395
  0.0364767923629701  0.0274325433411401  0.3742177630219177
  0.2446267170400660  0.2636253175105186  0.5865735891877284
  0.2547823732733189  0.2355649791972717  0.4140313703892989
  0.5647948350513131  0.3678149755682844  0.5179399748678171
  0.9342630544970464  0.1314606839725553  0.4807921977186752
  0.9599447976912310  0.4727395477412074  0.6268739900226628
  0.5381640174899326  0.0280607794652374  0.3746758447706431
  0.7445320598038596  0.2648920637537509  0.5862618902032084
  0.7575135810375053  0.2345650762980361  0.4151903213731558
  0.0601197653317262  0.8663849436281363  0.5205350846565727
  0.4386918755364924  0.6319556167866891  0.4819763700174844
  0.4566908128138640  0.9720452873155057  0.6273968920060400
  0.0430513661108026  0.5283821401626984  0.3734799401241353
  0.2419521791905442  0.7645405690812088  0.5857823889639227
  0.2610584230986716  0.7358577281655787  0.4158039341662761
  0.5597911126430453  0.8678312802192160  0.5206158098374013
  0.9390321331330813  0.6332520137119182  0.4795812376823581
  0.9580975684149892  0.9717387406992326  0.6273234047046888
  0.5390058274125991  0.5274412999304509  0.3737848105197785
  0.7373882923553812  0.7626688345355372  0.5862352264356793
  0.7564866790452583  0.7351351541671514  0.4144445990163537
  0.0644189459749498  0.3106364650919547  0.4806394879687735
  0.4351274535134442  0.1903939625745970  0.5214856406338575
  0.0602771294027526  0.3316409371312737  0.5759528847356937
  0.4392041973573436  0.1689689573397640  0.4262187867228863
  0.4625574677458445  0.5316493422724887  0.6739368382360633
  0.0475039451935913  0.9926378212499303  0.3209749971044387
  0.5022868242873023  0.3877707387797680  0.6715914126047696
  0.0528007037301752  0.1057000387715471  0.3583036585866676
  0.2309830156592209  0.2982554485946636  0.6391832512993982
  0.2731077880486993  0.2006992971805237  0.3623257509452381
  0.3495845603633477  0.2684462425511031  0.5883562517483996
  0.1480693528465724  0.2260865319061338  0.4100899823967109
  0.1787555693981544  0.4623730472613075  0.4004209265225012
  0.3191450510323295  0.0383038562003044  0.6019739525903526
  0.2522220385334398  0.4278653855902919  0.3647678003396029
  0.2407702990922513  0.0682760865465433  0.6371496194425863
  0.5661183923219034  0.3105501811430663  0.4774929488405982
  0.9361672766962325  0.1885732058801566  0.5220819593704131
  0.5575090112380281  0.3314726691205042  0.5724329126570641
  0.9376181732703972  0.1676634291658349  0.4265781947845655
  0.9473246383517036  0.5076253256076849  0.6797912059704250
  0.5500276977994770  0.9918048091133982  0.3222617736372651
  0.9418680720328970  0.3942632056629253  0.6428667462627692
  0.5561787815753120  0.1061690884402821  0.3576243188698517
  0.7298561393918375  0.3010437419914476  0.6382345858395018
  0.7758178635097509  0.1984686020278316  0.3640924411536147
  0.8505940305468874  0.2722509718815881  0.5890133411603917
  0.6511761504074675  0.2258745094409082  0.4106277182998131
  0.6797925781834747  0.4626122963079187  0.3982314241272958
  0.8189384620997036  0.0364340081978864  0.6023492018266843
  0.7578879362672242  0.4330217550530689  0.3624744698239755
  0.7421929150533769  0.0671018767599316  0.6384018989241500
  0.0600821280301016  0.8097623323866215  0.4792099505189607
  0.4407230287587160  0.6883886830241065  0.5239126305746046
  0.0577589755293103  0.8303679836166353  0.5747369972374857
  0.4429439880319971  0.6693085001003080  0.4281731624989507
  0.4435723782884187  0.0057314373515159  0.6807423208398440
  0.0565806011447381  0.4938066694382868  0.3206209637035249
  0.4408755525772001  0.8936680533303898  0.6427167035814277
  0.0575907922696160  0.6062268183244834  0.3572377020825483
  0.2257033157526728  0.8000354933032255  0.6376621408762421
  0.2809438605695115  0.7004961399029348  0.3647221235372887
  0.3485915434060182  0.7735851014448050  0.5886597254494930
  0.1540593224953624  0.7250207962408742  0.4112181311302814
  0.1753556376487648  0.9613364879130281  0.3988783180981763
  0.3204506405868487  0.5357636044710166  0.6028939837129395
  0.2541916688590360  0.9322511534946980  0.3633988050173803
  0.2362678701542399  0.5601021213245326  0.6370391250473064
  0.5579588694856848  0.8120248124174538  0.4782266617224264
  0.9385472967790518  0.6888676360237916  0.5215888301162882
  0.5540088175114024  0.8293340539385131  0.5740805647762990
  0.9433461425755354  0.6708870932021519  0.4258805179160358
  0.9469902742228919  0.0082149324346795  0.6797848569368697
  0.5493145208795808  0.4917279899034116  0.3208190388365112
  0.9423408200562582  0.8940611270612618  0.6446338448083583
  0.5551016467658634  0.6054653264145921  0.3572469430828893
  0.7169035766683147  0.7975446333811261  0.6374242379279218
  0.7748628868267210  0.7003849989719590  0.3626962590944787
  0.8444749503017842  0.7737715777418734  0.5910087835330358
  0.6494106187681228  0.7245465981479822  0.4108828596257340
  0.6755628462161429  0.9620507957343899  0.4003424779877747
  0.8267546061643432  0.5415338263711745  0.6001616704882287
  0.7531627558366648  0.9316976271514386  0.3647575463663355
  0.7523998673838840  0.5751225040480779  0.6358119543215740
  0.9681384772040557  0.3883306587961448  0.5142648723478357
  0.5320190380894492  0.1131067515377231  0.4880441157599101
  0.1655662785951688  0.4377061615400343  0.5159416994176490
  0.3341823834646711  0.0633047775830444  0.4865800277222987
  0.3791015172672761  0.4735975834576255  0.5878283222571531
  0.1254091874964481  0.0271194770617190  0.4133092179596085
  0.5768602221422376  0.5054925844529310  0.6064453152122542
  0.9259409984496350  0.9898092230892854  0.3953123636413358
  0.1734478651332368  0.1790725821083648  0.5866380561257936
  0.3204514514275327  0.3212238249128686  0.4125622651315692
  0.2319333232691397  0.3140702094064447  0.5369777900934233
  0.2690924032104738  0.1878731278310554  0.4648255640277899
  0.2044983825353730  0.4174994135298851  0.3972882627847292
  0.2913087665771454  0.0819893683687219  0.6058876553014667
  0.4698591651398430  0.3893871455681396  0.5085907838559677
  0.0303538597004763  0.1102461542891753  0.4869448758726666
  0.6668081929595794  0.4372653352826844  0.5134624733802849
  0.8328739172062160  0.0618502128519248  0.4870946001257971
  0.8731060043610793  0.4740413253548360  0.5865168741089409
  0.6256109115886747  0.0277484828737295  0.4149671794545808
  0.0712947118508672  0.5097042953593058  0.6070105097237064
  0.4269952342512641  0.9918681368887803  0.3950339153930230
  0.6762313080498978  0.1798614795247294  0.5885725029269666
  0.8243102826833437  0.3199764464658012  0.4131075725065644
  0.7302101014815722  0.3130453349243359  0.5357951382443803
  0.7705401498885954  0.1875275793971465  0.4667085904652762
  0.7083948946046088  0.4194071944556543  0.3942242232259781
  0.7915334315830806  0.0802615771674189  0.6065706939621578
  0.9627413519165873  0.8858551717510789  0.5142858715395812
  0.5338322772764814  0.6095950598583170  0.4879945364660713
  0.1607116169753203  0.9368035577854188  0.5142534629092732
  0.3366679060559107  0.5627355609944016  0.4875617000658253
  0.3685066154571198  0.9723498332135779  0.5876780756937916
  0.1317106603214118  0.5297410960662593  0.4134657461012299
  0.5677297912577730  0.0108139085941957  0.6074232972912624
  0.9323718766189495  0.4891473230242632  0.3938239789439428
  0.1757898155966935  0.6789855329191715  0.5878557833181705
  0.3252337173255001  0.8218227135536240  0.4137773718094138
  0.2262960816529775  0.8120009668033547  0.5351663743148575
  0.2758352885631279  0.6893992428072772  0.4673340372176147
  0.2040591140525052  0.9181257792585412  0.3948518764801698
  0.2903174712499384  0.5778101010267892  0.6077034934856810
  0.4653336384307225  0.8910737190641997  0.5144474215954585
  0.0354385692763799  0.6125515259095357  0.4861067926601348
  0.6623005104244453  0.9367514319309157  0.5162483064648508
  0.8379224130335031  0.5629688296468232  0.4842213615483008
  0.8687737440847207  0.9703763333629439  0.5878790396949505
  0.6285545967956473  0.5278601141651089  0.4126896621885272
  0.0684148853614219  0.0090395660844604  0.6058609594012622
  0.4286542212924012  0.4903442339609587  0.3952613342070174
  0.6736055533239406  0.6765508841070890  0.5880423506981223
  0.8208837721442875  0.8210166850045101  0.4128324168617283
  0.7227326631580840  0.8093359774567221  0.5348355513461815
  0.7724540500776677  0.6879430956393506  0.4651731702272623
  0.7029263344854403  0.9181879355555161  0.3961695773002678
  0.8003593227156156  0.5861096582974661  0.6033794411494288
  0.4394403209168782  0.3978601388709236  0.6619092900797808
 
  0.00000000E+00  0.00000000E+00  0.00000000E+00
  0.00000000E+00  0.00000000E+00  0.00000000E+00
  0.00000000E+00  0.00000000E+00  0.00000000E+00
  0.00000000E+00  0.00000000E+00  0.00000000E+00
  0.00000000E+00  0.00000000E+00  0.00000000E+00
  0.00000000E+00  0.00000000E+00  0.00000000E+00
  0.00000000E+00  0.00000000E+00  0.00000000E+00
  0.00000000E+00  0.00000000E+00  0.00000000E+00
  0.00000000E+00  0.00000000E+00  0.00000000E+00
  0.00000000E+00  0.00000000E+00  0.00000000E+00
  0.00000000E+00  0.00000000E+00  0.00000000E+00
  0.00000000E+00  0.00000000E+00  0.00000000E+00
  0.00000000E+00  0.00000000E+00  0.00000000E+00
  0.00000000E+00  0.00000000E+00  0.00000000E+00
  0.00000000E+00  0.00000000E+00  0.00000000E+00
  0.00000000E+00  0.00000000E+00  0.00000000E+00
  0.00000000E+00  0.00000000E+00  0.00000000E+00
  0.00000000E+00  0.00000000E+00  0.00000000E+00
  0.00000000E+00  0.00000000E+00  0.00000000E+00
  0.00000000E+00  0.00000000E+00  0.00000000E+00
  0.00000000E+00  0.00000000E+00  0.00000000E+00
  0.00000000E+00  0.00000000E+00  0.00000000E+00
  0.00000000E+00  0.00000000E+00  0.00000000E+00
  0.00000000E+00  0.00000000E+00  0.00000000E+00
  0.00000000E+00  0.00000000E+00  0.00000000E+00
  0.00000000E+00  0.00000000E+00  0.00000000E+00
  0.00000000E+00  0.00000000E+00  0.00000000E+00
  0.00000000E+00  0.00000000E+00  0.00000000E+00
  0.00000000E+00  0.00000000E+00  0.00000000E+00
  0.00000000E+00  0.00000000E+00  0.00000000E+00
  0.00000000E+00  0.00000000E+00  0.00000000E+00
  0.00000000E+00  0.00000000E+00  0.00000000E+00
  0.00000000E+00  0.00000000E+00  0.00000000E+00
  0.00000000E+00  0.00000000E+00  0.00000000E+00
  0.00000000E+00  0.00000000E+00  0.00000000E+00
  0.00000000E+00  0.00000000E+00  0.00000000E+00
  0.00000000E+00  0.00000000E+00  0.00000000E+00
  0.00000000E+00  0.00000000E+00  0.00000000E+00
  0.00000000E+00  0.00000000E+00  0.00000000E+00
  0.00000000E+00  0.00000000E+00  0.00000000E+00
  0.00000000E+00  0.00000000E+00  0.00000000E+00
  0.00000000E+00  0.00000000E+00  0.00000000E+00
  0.00000000E+00  0.00000000E+00  0.00000000E+00
  0.00000000E+00  0.00000000E+00  0.00000000E+00
  0.00000000E+00  0.00000000E+00  0.00000000E+00
  0.00000000E+00  0.00000000E+00  0.00000000E+00
  0.00000000E+00  0.00000000E+00  0.00000000E+00
  0.00000000E+00  0.00000000E+00  0.00000000E+00
  0.00000000E+00  0.00000000E+00  0.00000000E+00
  0.00000000E+00  0.00000000E+00  0.00000000E+00
  0.00000000E+00  0.00000000E+00  0.00000000E+00
  0.00000000E+00  0.00000000E+00  0.00000000E+00
  0.00000000E+00  0.00000000E+00  0.00000000E+00
  0.00000000E+00  0.00000000E+00  0.00000000E+00
  0.00000000E+00  0.00000000E+00  0.00000000E+00
  0.00000000E+00  0.00000000E+00  0.00000000E+00
  0.00000000E+00  0.00000000E+00  0.00000000E+00
  0.00000000E+00  0.00000000E+00  0.00000000E+00
  0.00000000E+00  0.00000000E+00  0.00000000E+00
  0.00000000E+00  0.00000000E+00  0.00000000E+00
  0.00000000E+00  0.00000000E+00  0.00000000E+00
  0.00000000E+00  0.00000000E+00  0.00000000E+00
  0.00000000E+00  0.00000000E+00  0.00000000E+00
  0.00000000E+00  0.00000000E+00  0.00000000E+00
  0.00000000E+00  0.00000000E+00  0.00000000E+00
  0.00000000E+00  0.00000000E+00  0.00000000E+00
  0.00000000E+00  0.00000000E+00  0.00000000E+00
  0.00000000E+00  0.00000000E+00  0.00000000E+00
  0.00000000E+00  0.00000000E+00  0.00000000E+00
  0.00000000E+00  0.00000000E+00  0.00000000E+00
  0.00000000E+00  0.00000000E+00  0.00000000E+00
  0.00000000E+00  0.00000000E+00  0.00000000E+00
  0.00000000E+00  0.00000000E+00  0.00000000E+00
  0.00000000E+00  0.00000000E+00  0.00000000E+00
  0.00000000E+00  0.00000000E+00  0.00000000E+00
  0.00000000E+00  0.00000000E+00  0.00000000E+00
  0.00000000E+00  0.00000000E+00  0.00000000E+00
  0.00000000E+00  0.00000000E+00  0.00000000E+00
  0.00000000E+00  0.00000000E+00  0.00000000E+00
  0.00000000E+00  0.00000000E+00  0.00000000E+00
  0.00000000E+00  0.00000000E+00  0.00000000E+00
  0.00000000E+00  0.00000000E+00  0.00000000E+00
  0.00000000E+00  0.00000000E+00  0.00000000E+00
  0.00000000E+00  0.00000000E+00  0.00000000E+00
  0.00000000E+00  0.00000000E+00  0.00000000E+00
  0.00000000E+00  0.00000000E+00  0.00000000E+00
  0.00000000E+00  0.00000000E+00  0.00000000E+00
  0.00000000E+00  0.00000000E+00  0.00000000E+00
  0.00000000E+00  0.00000000E+00  0.00000000E+00
  0.00000000E+00  0.00000000E+00  0.00000000E+00
  0.00000000E+00  0.00000000E+00  0.00000000E+00
  0.00000000E+00  0.00000000E+00  0.00000000E+00
  0.00000000E+00  0.00000000E+00  0.00000000E+00
  0.00000000E+00  0.00000000E+00  0.00000000E+00
  0.00000000E+00  0.00000000E+00  0.00000000E+00
  0.00000000E+00  0.00000000E+00  0.00000000E+00
  0.00000000E+00  0.00000000E+00  0.00000000E+00
  0.00000000E+00  0.00000000E+00  0.00000000E+00
  0.00000000E+00  0.00000000E+00  0.00000000E+00
  0.00000000E+00  0.00000000E+00  0.00000000E+00
  0.00000000E+00  0.00000000E+00  0.00000000E+00
  0.00000000E+00  0.00000000E+00  0.00000000E+00
  0.00000000E+00  0.00000000E+00  0.00000000E+00
  0.00000000E+00  0.00000000E+00  0.00000000E+00
  0.00000000E+00  0.00000000E+00  0.00000000E+00
  0.00000000E+00  0.00000000E+00  0.00000000E+00
  0.00000000E+00  0.00000000E+00  0.00000000E+00
  0.00000000E+00  0.00000000E+00  0.00000000E+00
  0.00000000E+00  0.00000000E+00  0.00000000E+00
  0.00000000E+00  0.00000000E+00  0.00000000E+00
  0.00000000E+00  0.00000000E+00  0.00000000E+00
  0.00000000E+00  0.00000000E+00  0.00000000E+00
  0.00000000E+00  0.00000000E+00  0.00000000E+00
  0.00000000E+00  0.00000000E+00  0.00000000E+00
  0.00000000E+00  0.00000000E+00  0.00000000E+00
  0.00000000E+00  0.00000000E+00  0.00000000E+00
  0.00000000E+00  0.00000000E+00  0.00000000E+00
  0.00000000E+00  0.00000000E+00  0.00000000E+00
  0.00000000E+00  0.00000000E+00  0.00000000E+00
  0.00000000E+00  0.00000000E+00  0.00000000E+00
  0.00000000E+00  0.00000000E+00  0.00000000E+00
  0.00000000E+00  0.00000000E+00  0.00000000E+00
  0.00000000E+00  0.00000000E+00  0.00000000E+00
  0.00000000E+00  0.00000000E+00  0.00000000E+00
  0.00000000E+00  0.00000000E+00  0.00000000E+00
  0.00000000E+00  0.00000000E+00  0.00000000E+00
  0.00000000E+00  0.00000000E+00  0.00000000E+00
  0.00000000E+00  0.00000000E+00  0.00000000E+00
  0.00000000E+00  0.00000000E+00  0.00000000E+00
  0.00000000E+00  0.00000000E+00  0.00000000E+00
  0.00000000E+00  0.00000000E+00  0.00000000E+00
  0.00000000E+00  0.00000000E+00  0.00000000E+00
  0.00000000E+00  0.00000000E+00  0.00000000E+00
  0.00000000E+00  0.00000000E+00  0.00000000E+00
  0.00000000E+00  0.00000000E+00  0.00000000E+00
  0.00000000E+00  0.00000000E+00  0.00000000E+00
  0.00000000E+00  0.00000000E+00  0.00000000E+00
  0.00000000E+00  0.00000000E+00  0.00000000E+00
  0.00000000E+00  0.00000000E+00  0.00000000E+00
  0.00000000E+00  0.00000000E+00  0.00000000E+00
  0.00000000E+00  0.00000000E+00  0.00000000E+00
  0.00000000E+00  0.00000000E+00  0.00000000E+00
  0.00000000E+00  0.00000000E+00  0.00000000E+00
  0.00000000E+00  0.00000000E+00  0.00000000E+00
  0.00000000E+00  0.00000000E+00  0.00000000E+00
  0.00000000E+00  0.00000000E+00  0.00000000E+00
  0.00000000E+00  0.00000000E+00  0.00000000E+00
  0.00000000E+00  0.00000000E+00  0.00000000E+00
  0.00000000E+00  0.00000000E+00  0.00000000E+00
  0.00000000E+00  0.00000000E+00  0.00000000E+00
  0.00000000E+00  0.00000000E+00  0.00000000E+00
  0.00000000E+00  0.00000000E+00  0.00000000E+00
  0.00000000E+00  0.00000000E+00  0.00000000E+00
