CONTCAR\(6)                             
   1.00000000000000     
    11.7119998931999998    0.0000000000000000    0.0000000000000000
    -5.1174287261000000   10.4860139793999991    0.0000000000000000
     0.0000000000000000    0.0000000000000000   18.3064994811999995
   Mo   Cl   O 
     8    24     1
Selective dynamics
Direct
  0.0486414896724554  0.4358679624307698  0.4795621471759262   F   F   F
  0.4398256769681552  0.0682643930911340  0.5101344336068365   F   F   F
  0.6174857413247707  0.4447260533172184  0.5128060173097566   F   F   F
  0.9304939898844111  0.0696182020373470  0.4938275486231447   F   F   F
  0.0682277903582360  0.9439981967433368  0.4953892394648705   F   F   F
  0.4436803485701617  0.5513577646496302  0.5534024497918892   F   F   F
  0.5611514642672475  0.9261299185761445  0.5088406555686760   F   F   F
  0.9063716772520110  0.5709228507325008  0.4928527528632998   F   F   F
  0.0853575206349007  0.0983569834755045  0.5849805435930548   F   F   F
  0.4257322027065484  0.4219183002663627  0.4492280989141477   F   F   F
  0.0538571417866507  0.2448558046094576  0.4113645263543617   F   F   F
  0.2074251876432385  0.4173884399046202  0.5543964255067522   F   F   F
  0.4552317377614727  0.2590184992884303  0.5856413445042747   F   F   F
  0.2612743508292255  0.0914450910175830  0.4332365898481498   F   F   F
  0.5865637470816765  0.0776085481985547  0.6019345585778453   F   F   F
  0.8832967934168181  0.4182494006722450  0.3989981863902585   F   F   F
  0.5899314734883632  0.2504999298529995  0.4396164046120745   F   F   F
  0.7751796503130848  0.4234261032035889  0.5852688463485407   F   F   F
  0.9106338632651401  0.2494175853909724  0.5586051826592850   F   F   F
  0.7320594550130934  0.0580114843605557  0.4267420726651494   F   F   F
  0.0793760572895010  0.5930116026376382  0.5684831444517258   F   F   F
  0.4078276281610016  0.9113817110568831  0.4195864853840732   F   F   F
  0.0673645553207436  0.7556458572595091  0.4238482889201265   F   F   F
  0.2482177284082141  0.9306877096408783  0.5752801048986953   F   F   F
  0.4293645538431861  0.7497139904902852  0.5940559238367129   F   F   F
  0.2066640580806691  0.5661126986189586  0.4010943018904669   F   F   F
  0.6599721414510782  0.6271125098006394  0.5885341810723617   F   F   F
  0.9179800452698714  0.9208681757874544  0.4025953028782041   F   F   F
  0.5459192413456577  0.7320166225084179  0.4461503249475527   F   F   F
  0.7573920658998929  0.9296402000784880  0.5730430069620596   F   F   F
  0.9344334433609234  0.7654274080209191  0.5705749006597713   F   F   F
  0.7414253219754769  0.5941130987414383  0.4206352597732206   F   F   F
  0.4120922423561382  0.4827775695394933  0.6351116038293501   T   T   T
 
  0.00000000E+00  0.00000000E+00  0.00000000E+00
  0.00000000E+00  0.00000000E+00  0.00000000E+00
  0.00000000E+00  0.00000000E+00  0.00000000E+00
  0.00000000E+00  0.00000000E+00  0.00000000E+00
  0.00000000E+00  0.00000000E+00  0.00000000E+00
  0.00000000E+00  0.00000000E+00  0.00000000E+00
  0.00000000E+00  0.00000000E+00  0.00000000E+00
  0.00000000E+00  0.00000000E+00  0.00000000E+00
  0.00000000E+00  0.00000000E+00  0.00000000E+00
  0.00000000E+00  0.00000000E+00  0.00000000E+00
  0.00000000E+00  0.00000000E+00  0.00000000E+00
  0.00000000E+00  0.00000000E+00  0.00000000E+00
  0.00000000E+00  0.00000000E+00  0.00000000E+00
  0.00000000E+00  0.00000000E+00  0.00000000E+00
  0.00000000E+00  0.00000000E+00  0.00000000E+00
  0.00000000E+00  0.00000000E+00  0.00000000E+00
  0.00000000E+00  0.00000000E+00  0.00000000E+00
  0.00000000E+00  0.00000000E+00  0.00000000E+00
  0.00000000E+00  0.00000000E+00  0.00000000E+00
  0.00000000E+00  0.00000000E+00  0.00000000E+00
  0.00000000E+00  0.00000000E+00  0.00000000E+00
  0.00000000E+00  0.00000000E+00  0.00000000E+00
  0.00000000E+00  0.00000000E+00  0.00000000E+00
  0.00000000E+00  0.00000000E+00  0.00000000E+00
  0.00000000E+00  0.00000000E+00  0.00000000E+00
  0.00000000E+00  0.00000000E+00  0.00000000E+00
  0.00000000E+00  0.00000000E+00  0.00000000E+00
  0.00000000E+00  0.00000000E+00  0.00000000E+00
  0.00000000E+00  0.00000000E+00  0.00000000E+00
  0.00000000E+00  0.00000000E+00  0.00000000E+00
  0.00000000E+00  0.00000000E+00  0.00000000E+00
  0.00000000E+00  0.00000000E+00  0.00000000E+00
  0.00000000E+00  0.00000000E+00  0.00000000E+00
