CONTCAR\(3)                             
   1.00000000000000     
    12.8629999160999997    0.0000000000000000    0.0000000000000000
     0.0000000000000000   14.3196001052999993    0.0000000000000000
     0.0000000000000000    0.0000000000000000   19.5569992064999987
   Ag   Au   S    O    H 
    12    24    24     1     1
Direct
  0.1017889290499858  0.3388562772316190  0.6013669800415858
  0.2517894803313045  0.0587351913243934  0.5963322527300661
  0.4222698939188355  0.2940109153193297  0.5990525380826837
  0.5717574073123528  0.0644295388051750  0.5965936108110909
  0.7446602261964652  0.3421160271730311  0.5967808902605328
  0.9094378622593710  0.1094207282843273  0.6006400821611231
  0.0758904279410353  0.8458778957433639  0.5923583480975605
  0.2637107712727105  0.5803931714547681  0.6122107788841318
  0.4149632865461583  0.8010920717357622  0.6152835888672953
  0.5599744717347056  0.5817351040604497  0.6197638035095498
  0.7594212775694614  0.8411743152149765  0.5941137425246737
  0.9130604718290400  0.5792444330439919  0.6026160275228523
  0.0348727109525641  0.5006173254521750  0.4897816098429461
  0.2967782020069427  0.2293707876396680  0.4881213921697292
  0.1693533241786171  0.3675895765588828  0.4067160391358800
  0.1639659686474309  0.1154704281789410  0.4044813318253525
  0.3667053222183264  0.4837040633580421  0.4949436228576629
  0.6467100014738776  0.2368533078007087  0.4820315675455411
  0.5023869601650054  0.3611093110909460  0.4119325330897019
  0.5023897077621400  0.1124707217086119  0.4051233746574960
  0.6857170784954079  0.5022195476593863  0.5090637279775289
  0.9686620397098163  0.2609967681772888  0.4922214370238536
  0.8349948864428284  0.3681263117510012  0.3976634018726003
  0.8362425768613724  0.1179379393231299  0.3938673965590925
  0.0201890578005658  0.0033085683629238  0.4938222947957548
  0.2947696269235366  0.7439439779681511  0.4894613511378872
  0.1664246275252839  0.8647144822880024  0.3911239910740590
  0.1690750615649404  0.6166645410054171  0.4004596580782430
  0.3633057692601422  0.9767853145538880  0.4821468080342615
  0.6339405366628457  0.7400739694687067  0.4940192252874196
  0.5052960022939144  0.8629030846807277  0.4046729933501748
  0.5021196770169647  0.6120608457943630  0.4125264437516879
  0.7057980117952600  0.0003608198511731  0.4860539469505258
  0.9719668567443430  0.7437633131150774  0.4789639351350257
  0.8320416750881245  0.8689674045320935  0.4052772862013456
  0.8293138784380288  0.6189881051769041  0.4074243456903046
  0.2826709640445739  0.4916672888087218  0.3898701512091783
  0.2445900182228371  0.2312974172682826  0.6027173350351569
  0.0924751366042862  0.5086056851244908  0.6027569067134855
  0.0558433368542159  0.2435124850966172  0.3887516690926435
  0.6159438991311964  0.4866423186658569  0.4010132674042621
  0.5960983159809786  0.2343206695141823  0.5967726129666987
  0.4171255248889916  0.4635677457191330  0.6079516060299379
  0.3916992839359247  0.2375373425552665  0.3867928321255009
  0.9424110827672910  0.4962280949858325  0.3875811814584752
  0.9188719663038138  0.2768768904996249  0.6064247084203861
  0.7418605654204062  0.5106338211027500  0.6216676915770504
  0.7259134122838417  0.2432524607630326  0.3749474144416112
  0.2748119661209993  0.9918166272792868  0.3791412036224102
  0.2280751988152280  0.7519116595764943  0.5992708975711203
  0.0699531643890834  0.0127113869868815  0.6083684061762448
  0.0571857409482907  0.7390239304384520  0.3737887443332578
  0.6141797614858344  0.9887431780044876  0.3833964545610354
  0.6001930670648591  0.7520764975874985  0.6104721542685383
  0.4172134761565010  0.9677292588836981  0.5959099159322582
  0.3937311632944325  0.7369975718583501  0.3902841098650271
  0.9483095951224264  0.9913605897206070  0.3856610439323901
  0.9172838031754004  0.7515455240264527  0.5928645557766751
  0.7591517874104717  0.0092848121467118  0.6002873432375450
  0.7183742344319807  0.7441996207489625  0.3882707555809858
  0.4103642091680628  0.6544205972385273  0.6548311802353119
  0.4080454769883279  0.6550306975124359  0.7050041368955542
 
  0.00000000E+00  0.00000000E+00  0.00000000E+00
  0.00000000E+00  0.00000000E+00  0.00000000E+00
  0.00000000E+00  0.00000000E+00  0.00000000E+00
  0.00000000E+00  0.00000000E+00  0.00000000E+00
  0.00000000E+00  0.00000000E+00  0.00000000E+00
  0.00000000E+00  0.00000000E+00  0.00000000E+00
  0.00000000E+00  0.00000000E+00  0.00000000E+00
  0.00000000E+00  0.00000000E+00  0.00000000E+00
  0.00000000E+00  0.00000000E+00  0.00000000E+00
  0.00000000E+00  0.00000000E+00  0.00000000E+00
  0.00000000E+00  0.00000000E+00  0.00000000E+00
  0.00000000E+00  0.00000000E+00  0.00000000E+00
  0.00000000E+00  0.00000000E+00  0.00000000E+00
  0.00000000E+00  0.00000000E+00  0.00000000E+00
  0.00000000E+00  0.00000000E+00  0.00000000E+00
  0.00000000E+00  0.00000000E+00  0.00000000E+00
  0.00000000E+00  0.00000000E+00  0.00000000E+00
  0.00000000E+00  0.00000000E+00  0.00000000E+00
  0.00000000E+00  0.00000000E+00  0.00000000E+00
  0.00000000E+00  0.00000000E+00  0.00000000E+00
  0.00000000E+00  0.00000000E+00  0.00000000E+00
  0.00000000E+00  0.00000000E+00  0.00000000E+00
  0.00000000E+00  0.00000000E+00  0.00000000E+00
  0.00000000E+00  0.00000000E+00  0.00000000E+00
  0.00000000E+00  0.00000000E+00  0.00000000E+00
  0.00000000E+00  0.00000000E+00  0.00000000E+00
  0.00000000E+00  0.00000000E+00  0.00000000E+00
  0.00000000E+00  0.00000000E+00  0.00000000E+00
  0.00000000E+00  0.00000000E+00  0.00000000E+00
  0.00000000E+00  0.00000000E+00  0.00000000E+00
  0.00000000E+00  0.00000000E+00  0.00000000E+00
  0.00000000E+00  0.00000000E+00  0.00000000E+00
  0.00000000E+00  0.00000000E+00  0.00000000E+00
  0.00000000E+00  0.00000000E+00  0.00000000E+00
  0.00000000E+00  0.00000000E+00  0.00000000E+00
  0.00000000E+00  0.00000000E+00  0.00000000E+00
  0.00000000E+00  0.00000000E+00  0.00000000E+00
  0.00000000E+00  0.00000000E+00  0.00000000E+00
  0.00000000E+00  0.00000000E+00  0.00000000E+00
  0.00000000E+00  0.00000000E+00  0.00000000E+00
  0.00000000E+00  0.00000000E+00  0.00000000E+00
  0.00000000E+00  0.00000000E+00  0.00000000E+00
  0.00000000E+00  0.00000000E+00  0.00000000E+00
  0.00000000E+00  0.00000000E+00  0.00000000E+00
  0.00000000E+00  0.00000000E+00  0.00000000E+00
  0.00000000E+00  0.00000000E+00  0.00000000E+00
  0.00000000E+00  0.00000000E+00  0.00000000E+00
  0.00000000E+00  0.00000000E+00  0.00000000E+00
  0.00000000E+00  0.00000000E+00  0.00000000E+00
  0.00000000E+00  0.00000000E+00  0.00000000E+00
  0.00000000E+00  0.00000000E+00  0.00000000E+00
  0.00000000E+00  0.00000000E+00  0.00000000E+00
  0.00000000E+00  0.00000000E+00  0.00000000E+00
  0.00000000E+00  0.00000000E+00  0.00000000E+00
  0.00000000E+00  0.00000000E+00  0.00000000E+00
  0.00000000E+00  0.00000000E+00  0.00000000E+00
  0.00000000E+00  0.00000000E+00  0.00000000E+00
  0.00000000E+00  0.00000000E+00  0.00000000E+00
  0.00000000E+00  0.00000000E+00  0.00000000E+00
  0.00000000E+00  0.00000000E+00  0.00000000E+00
  0.00000000E+00  0.00000000E+00  0.00000000E+00
  0.00000000E+00  0.00000000E+00  0.00000000E+00
