CONTCAR\(3)                             
   1.00000000000000     
    11.8208999634000005    0.0000000000000000    0.0000000000000000
     2.9552306013999998    8.5110336759000003    0.0000000000000000
     0.0000000000000000    0.0000000000000000   24.9838008880999993
   Na   Ti   S    O    H 
     6    20    40     1     1
Selective dynamics
Direct
  0.1409775483247913  0.0020827643851575  0.5001356719642160   F   F   F
  0.3641536594679380  0.3809636699820160  0.5032893267966756   F   F   F
  0.0525816554851559  0.6223367794945318  0.5034232389086029   F   F   F
  0.6426765468339042  0.0014307448704471  0.4999368624109763   F   F   F
  0.8630499427379874  0.3835471689188310  0.5031288401639387   F   F   F
  0.5539008748801990  0.6217389154227746  0.5033432061793803   F   F   F
  0.4336573159997101  0.8045219645919630  0.6398845262274619   F   F   F
  0.1317873856364216  0.0059421788839487  0.6424070673208533   F   F   F
  0.4673695586618223  0.0012056954619268  0.3621873757822485   F   F   F
  0.3316219472576520  0.2011343216067871  0.6407709948996896   F   F   F
  0.1686996312885825  0.1998360889167117  0.3625699311003956   F   F   F
  0.0305810024464677  0.4023917752351949  0.6416770727250309   F   F   F
  0.3665880051481452  0.4021589699705146  0.3611975926702584   F   F   F
  0.2297112376780532  0.5979042304871243  0.6394893817691596   F   F   F
  0.0672176303397194  0.6003427551301499  0.3611199054550198   F   F   F
  0.2680387370527271  0.8029319180407342  0.3626612244397265   F   F   F
  0.9304724102220874  0.8034235834125809  0.6408717134100641   F   F   F
  0.6335992667522561  0.0017080204240898  0.6434482482708859   F   F   F
  0.9674395207677549  0.0014191767379685  0.3620984811774974   F   F   F
  0.8342350101658624  0.1988050147805467  0.6417185238522549   F   F   F
  0.6687312294358208  0.1998104234524334  0.3624202008601287   F   F   F
  0.5314542081561342  0.4011867580368573  0.6405551728001271   F   F   F
  0.8666262003228269  0.4023155644543266  0.3610758810475048   F   F   F
  0.7293384390047919  0.6016095322720645  0.6417399129530494   F   F   F
  0.5671943924420688  0.6002825039823776  0.3611309664897391   F   F   F
  0.7680815856938139  0.8030882356069213  0.3624287388865071   F   F   F
  0.0973396519056990  0.8052708940618203  0.5830076545830636   F   F   F
  0.4339655885298370  0.8013458006735021  0.3058853718013808   F   F   F
  0.3003307973731282  0.0036880898659177  0.5827458104098113   F   F   F
  0.1344826252981122  0.0012233371210328  0.3061979511906756   F   F   F
  0.9989343334792977  0.2012571269282120  0.5825686169716136   F   F   F
  0.3339464048650811  0.2011807122994966  0.3058995295679381   F   F   F
  0.1950382901563188  0.3992661963076571  0.5811993444708534   F   F   F
  0.4642881005457653  0.0017375256280800  0.6976374486271908   F   F   F
  0.0342590635864468  0.4004194169397550  0.3057481572815490   F   F   F
  0.3039385768637999  0.0014133827338583  0.4212014576697882   F   F   F
  0.3963305481998773  0.6018546598067758  0.5819219493364116   F   F   F
  0.1660129655195846  0.2033208491061274  0.6979260745787172   F   F   F
  0.2339257875340479  0.6022233288743664  0.3058451848743360   F   F   F
  0.0008542865620882  0.2022109279543827  0.4206598005450175   F   F   F
  0.3642298030343909  0.4036912913311070  0.6968932680340032   F   F   F
  0.1991256078336008  0.4015841838665182  0.4209897205586444   F   F   F
  0.0653602749899989  0.6026040488176889  0.6969381506103360   F   F   F
  0.3993654488179885  0.6011886364273096  0.4210431184106511   F   F   F
  0.2649534313491628  0.8002054778018604  0.6945117401915439   F   F   F
  0.1012360831934345  0.8009614339848454  0.4207333122658312   F   F   F
  0.6007215506024366  0.8041059917723032  0.5825054896167927   F   F   F
  0.9341643415977501  0.8015275256634524  0.3057666201167635   F   F   F
  0.7997542212055322  0.0026063691320388  0.5831185756651607   F   F   F
  0.6342260910905893  0.0012916055656476  0.3061209290098077   F   F   F
  0.5010292350723304  0.1985761611972947  0.5830030089869069   F   F   F
  0.8340266598745032  0.2013353042946164  0.3057733569406977   F   F   F
  0.6970477331849452  0.4007200629546119  0.5823830225299460   F   F   F
  0.9659487108263605  0.0009718279768407  0.6981022290673025   F   F   F
  0.5341375952756380  0.4003609441994413  0.3057688779381493   F   F   F
  0.8041111771510643  0.0014519220880445  0.4210094054725673   F   F   F
  0.8951437368213462  0.6022381169175617  0.5825173319256152   F   F   F
  0.6647954720131324  0.2037450926601423  0.6978045664906602   F   F   F
  0.7338028372889127  0.6023086839406702  0.3057469414194358   F   F   F
  0.5012142565831326  0.2017750424529794  0.4206815615705466   F   F   F
  0.8647839347947226  0.4021307730406534  0.6973972260442807   F   F   F
  0.6991619780871545  0.4014371093655882  0.4209384946844068   F   F   F
  0.5635609791750582  0.6022148415051305  0.6971846231481678   F   F   F
  0.8992655128338001  0.6013987873777467  0.4209084087067936   F   F   F
  0.7658020144333264  0.8005581540983968  0.6981296795244631   F   F   F
  0.6014566190419828  0.8008660106016805  0.4206465886106230   F   F   F
  0.2633341898024995  0.7987694581255340  0.7614454410418006   T   T   T
  0.3142385484033882  0.6932853129803079  0.7719738459176301   T   T   T
 
  0.00000000E+00  0.00000000E+00  0.00000000E+00
  0.00000000E+00  0.00000000E+00  0.00000000E+00
  0.00000000E+00  0.00000000E+00  0.00000000E+00
  0.00000000E+00  0.00000000E+00  0.00000000E+00
  0.00000000E+00  0.00000000E+00  0.00000000E+00
  0.00000000E+00  0.00000000E+00  0.00000000E+00
  0.00000000E+00  0.00000000E+00  0.00000000E+00
  0.00000000E+00  0.00000000E+00  0.00000000E+00
  0.00000000E+00  0.00000000E+00  0.00000000E+00
  0.00000000E+00  0.00000000E+00  0.00000000E+00
  0.00000000E+00  0.00000000E+00  0.00000000E+00
  0.00000000E+00  0.00000000E+00  0.00000000E+00
  0.00000000E+00  0.00000000E+00  0.00000000E+00
  0.00000000E+00  0.00000000E+00  0.00000000E+00
  0.00000000E+00  0.00000000E+00  0.00000000E+00
  0.00000000E+00  0.00000000E+00  0.00000000E+00
  0.00000000E+00  0.00000000E+00  0.00000000E+00
  0.00000000E+00  0.00000000E+00  0.00000000E+00
  0.00000000E+00  0.00000000E+00  0.00000000E+00
  0.00000000E+00  0.00000000E+00  0.00000000E+00
  0.00000000E+00  0.00000000E+00  0.00000000E+00
  0.00000000E+00  0.00000000E+00  0.00000000E+00
  0.00000000E+00  0.00000000E+00  0.00000000E+00
  0.00000000E+00  0.00000000E+00  0.00000000E+00
  0.00000000E+00  0.00000000E+00  0.00000000E+00
  0.00000000E+00  0.00000000E+00  0.00000000E+00
  0.00000000E+00  0.00000000E+00  0.00000000E+00
  0.00000000E+00  0.00000000E+00  0.00000000E+00
  0.00000000E+00  0.00000000E+00  0.00000000E+00
  0.00000000E+00  0.00000000E+00  0.00000000E+00
  0.00000000E+00  0.00000000E+00  0.00000000E+00
  0.00000000E+00  0.00000000E+00  0.00000000E+00
  0.00000000E+00  0.00000000E+00  0.00000000E+00
  0.00000000E+00  0.00000000E+00  0.00000000E+00
  0.00000000E+00  0.00000000E+00  0.00000000E+00
  0.00000000E+00  0.00000000E+00  0.00000000E+00
  0.00000000E+00  0.00000000E+00  0.00000000E+00
  0.00000000E+00  0.00000000E+00  0.00000000E+00
  0.00000000E+00  0.00000000E+00  0.00000000E+00
  0.00000000E+00  0.00000000E+00  0.00000000E+00
  0.00000000E+00  0.00000000E+00  0.00000000E+00
  0.00000000E+00  0.00000000E+00  0.00000000E+00
  0.00000000E+00  0.00000000E+00  0.00000000E+00
  0.00000000E+00  0.00000000E+00  0.00000000E+00
  0.00000000E+00  0.00000000E+00  0.00000000E+00
  0.00000000E+00  0.00000000E+00  0.00000000E+00
  0.00000000E+00  0.00000000E+00  0.00000000E+00
  0.00000000E+00  0.00000000E+00  0.00000000E+00
  0.00000000E+00  0.00000000E+00  0.00000000E+00
  0.00000000E+00  0.00000000E+00  0.00000000E+00
  0.00000000E+00  0.00000000E+00  0.00000000E+00
  0.00000000E+00  0.00000000E+00  0.00000000E+00
  0.00000000E+00  0.00000000E+00  0.00000000E+00
  0.00000000E+00  0.00000000E+00  0.00000000E+00
  0.00000000E+00  0.00000000E+00  0.00000000E+00
  0.00000000E+00  0.00000000E+00  0.00000000E+00
  0.00000000E+00  0.00000000E+00  0.00000000E+00
  0.00000000E+00  0.00000000E+00  0.00000000E+00
  0.00000000E+00  0.00000000E+00  0.00000000E+00
  0.00000000E+00  0.00000000E+00  0.00000000E+00
  0.00000000E+00  0.00000000E+00  0.00000000E+00
  0.00000000E+00  0.00000000E+00  0.00000000E+00
  0.00000000E+00  0.00000000E+00  0.00000000E+00
  0.00000000E+00  0.00000000E+00  0.00000000E+00
  0.00000000E+00  0.00000000E+00  0.00000000E+00
  0.00000000E+00  0.00000000E+00  0.00000000E+00
  0.00000000E+00  0.00000000E+00  0.00000000E+00
  0.00000000E+00  0.00000000E+00  0.00000000E+00
