 Lu2 H2 Cl2                             
   1.00000000000000     
     3.6109050194070225    0.0000000000000000    0.0000000000000000
     1.8054525097035112    3.1271361450756907    0.0000000000000000
     0.0000000000000000    0.0000000000000000   20.9591817214559981
   Lu   H    Cl
     2     2     2
Direct
  0.0000000357816177  0.9999998308422633  0.4376992581295127
  0.3333332977504710  0.3333331726176070  0.5623007499934332
  0.9999999253223919  0.9999999725012572  0.5386750249908161
  0.3333331338472831  0.3333331478781076  0.4613249684565233
  0.6666668646354665  0.6666670300932367  0.6421589662468890
  0.6666667426627697  0.6666668460675211  0.3578410321828116
 
  0.00000000E+00  0.00000000E+00  0.00000000E+00
  0.00000000E+00  0.00000000E+00  0.00000000E+00
  0.00000000E+00  0.00000000E+00  0.00000000E+00
  0.00000000E+00  0.00000000E+00  0.00000000E+00
  0.00000000E+00  0.00000000E+00  0.00000000E+00
  0.00000000E+00  0.00000000E+00  0.00000000E+00
