CONTCAR\(5)                             
   1.00000000000000     
    12.9137001038000001    0.0000000000000000    0.0000000000000000
     0.0000000000000000   12.9135999679999998    0.0000000000000000
     0.0000000000000000    0.0000000000000000   24.0200996398999997
   Er   Te   O    H 
    18    54     1     1
Direct
  0.1633091196793077  0.0023462851323017  0.5856636634956454
  0.9965909099830879  0.1689822786103674  0.4165129732015029
  0.4982067863006472  0.0024115562284111  0.5851801475868192
  0.3294527472460996  0.1677115532155389  0.4149939886440944
  0.8329861676476746  0.0024765614590307  0.5862566455520530
  0.6638817936739836  0.1680097528777554  0.4157268408137139
  0.1635986119368954  0.3362598659763069  0.5857003112963631
  0.9965956411676777  0.5018770980905909  0.4168007346773659
  0.4941173362475991  0.3237496523014246  0.5818823071831406
  0.3300540034917028  0.5020942912509662  0.4158065211797015
  0.8316166081837832  0.3356259576804070  0.5868390341630533
  0.6619234294353400  0.5019449466278354  0.4167337279556928
  0.1632760208163448  0.6683942911933854  0.5856674724831408
  0.9965545907505643  0.8347975589266008  0.4164168375624381
  0.4938344139895610  0.6814122685394455  0.5819631128090809
  0.3295077582973235  0.8361466117971812  0.4149524169192301
  0.8313433068357395  0.6693201649189487  0.5867206876757890
  0.6639741685737560  0.8358847370803648  0.4156248164496673
  0.9967790261965596  0.0015764329444897  0.3134165935737827
  0.1638630932030356  0.1696859747349798  0.6891381562433955
  0.0033485761757122  0.0033025208676920  0.6895258365258623
  0.1631966573145990  0.1683104741317009  0.3130883477708557
  0.1622128436495038  0.0020118719212499  0.4543503829276971
  0.9970782622980694  0.1695495643229461  0.5476184160822499
  0.3295862256781079  0.0016291788021702  0.3122305292302969
  0.4960804328430453  0.1680591392208804  0.6875405258109590
  0.3324175868092608  0.0030807438097560  0.6885619153750518
  0.4967485439338224  0.1680353390316882  0.3125718175160906
  0.4971737469516364  0.0020048607948934  0.4541336499905320
  0.3282118046557359  0.1661695167033924  0.5459038133142345
  0.6637714407569445  0.0020504337479135  0.3128908547824980
  0.8312761057528346  0.1681473892546485  0.6902949979779081
  0.6675711430333714  0.0025154837610839  0.6891889240397220
  0.8305446760202918  0.1686196321190413  0.3138094107017456
  0.8308779678681052  0.0019093690857112  0.4548500780570253
  0.6656890799332370  0.1671586895624088  0.5469616518934152
  0.9966747773656319  0.3354073497715644  0.3141374565326385
  0.1689746533726744  0.5023299217516486  0.6887293821538794
 -0.0021705516919865  0.3364647338491924  0.6895128083724826
  0.1634513496982074  0.5019435113901518  0.3134708193009429
  0.1641413688432315  0.3358454459466805  0.4549415784921849
  0.9965822763561619  0.5022534110499534  0.5478526610281996
  0.3301950867484084  0.3350265930402271  0.3128218647406342
  0.5096813581289728  0.5041565343902737  0.6780683320474271
  0.3313584686598334  0.3362029241224091  0.6863328385296742
  0.4968659056791730  0.5017286338771358  0.3135466617401748
  0.4961520854615975  0.3336883364081659  0.4532210838626669
  0.3327666601756057  0.5025851663921855  0.5475976290500981
  0.6633990757446157  0.3348976515856277  0.3136229394105632
  0.8346567196851745  0.5030349546348765  0.6900805735749844
  0.6670259730280571  0.3320066751435303  0.6888387993460563
  0.8293787431075137  0.5014369629115293  0.3143966829897717
  0.8282544744713689  0.3367939308585834  0.4558393920155449
  0.6579408076513512  0.5021779659964916  0.5510703119252938
  0.9964884375277824  0.6676707164241779  0.3140965718479263
  0.1637252840356860  0.8358565230438985  0.6891375784263066
  0.9974797824504451  0.6689528161737297  0.6893530540587364
  0.1629841317938224  0.8348452308758443  0.3130310609671696
  0.1640480181939147  0.6680727274020570  0.4548105802160620
  0.9969492730701098  0.8350606051067294  0.5475478951073113
  0.3301590362287676  0.6688421931622852  0.3126612055388853
  0.4961489984019415  0.8372165746991559  0.6875498850872304
  0.3297152939154701  0.6704367974549524  0.6863840549593084
  0.4969719951430705  0.8355811092106067  0.3125354575038134
  0.4964963438769396  0.6703841386358306  0.4532237064965249
  0.3280699977966452  0.8386027481450314  0.5458680048412664
  0.6634824090962882  0.6681838494450958  0.3133535871868143
  0.8322117122512084  0.8383335191754464  0.6900542528505722
  0.6671665261345147  0.6736745966387303  0.6884112171054350
  0.8304112995555932  0.8347204932410206  0.3136644545095684
  0.8283614257674601  0.6672863054684091  0.4557379029908118
  0.6656554065398989  0.8374940462269027  0.5469171772128899
  0.4792437123358685  0.5088703829831697  0.7611500553265284
  0.5453112920680442  0.4955116426432572  0.7799234371917291
 
  0.00000000E+00  0.00000000E+00  0.00000000E+00
  0.00000000E+00  0.00000000E+00  0.00000000E+00
  0.00000000E+00  0.00000000E+00  0.00000000E+00
  0.00000000E+00  0.00000000E+00  0.00000000E+00
  0.00000000E+00  0.00000000E+00  0.00000000E+00
  0.00000000E+00  0.00000000E+00  0.00000000E+00
  0.00000000E+00  0.00000000E+00  0.00000000E+00
  0.00000000E+00  0.00000000E+00  0.00000000E+00
  0.00000000E+00  0.00000000E+00  0.00000000E+00
  0.00000000E+00  0.00000000E+00  0.00000000E+00
  0.00000000E+00  0.00000000E+00  0.00000000E+00
  0.00000000E+00  0.00000000E+00  0.00000000E+00
  0.00000000E+00  0.00000000E+00  0.00000000E+00
  0.00000000E+00  0.00000000E+00  0.00000000E+00
  0.00000000E+00  0.00000000E+00  0.00000000E+00
  0.00000000E+00  0.00000000E+00  0.00000000E+00
  0.00000000E+00  0.00000000E+00  0.00000000E+00
  0.00000000E+00  0.00000000E+00  0.00000000E+00
  0.00000000E+00  0.00000000E+00  0.00000000E+00
  0.00000000E+00  0.00000000E+00  0.00000000E+00
  0.00000000E+00  0.00000000E+00  0.00000000E+00
  0.00000000E+00  0.00000000E+00  0.00000000E+00
  0.00000000E+00  0.00000000E+00  0.00000000E+00
  0.00000000E+00  0.00000000E+00  0.00000000E+00
  0.00000000E+00  0.00000000E+00  0.00000000E+00
  0.00000000E+00  0.00000000E+00  0.00000000E+00
  0.00000000E+00  0.00000000E+00  0.00000000E+00
  0.00000000E+00  0.00000000E+00  0.00000000E+00
  0.00000000E+00  0.00000000E+00  0.00000000E+00
  0.00000000E+00  0.00000000E+00  0.00000000E+00
  0.00000000E+00  0.00000000E+00  0.00000000E+00
  0.00000000E+00  0.00000000E+00  0.00000000E+00
  0.00000000E+00  0.00000000E+00  0.00000000E+00
  0.00000000E+00  0.00000000E+00  0.00000000E+00
  0.00000000E+00  0.00000000E+00  0.00000000E+00
  0.00000000E+00  0.00000000E+00  0.00000000E+00
  0.00000000E+00  0.00000000E+00  0.00000000E+00
  0.00000000E+00  0.00000000E+00  0.00000000E+00
  0.00000000E+00  0.00000000E+00  0.00000000E+00
  0.00000000E+00  0.00000000E+00  0.00000000E+00
  0.00000000E+00  0.00000000E+00  0.00000000E+00
  0.00000000E+00  0.00000000E+00  0.00000000E+00
  0.00000000E+00  0.00000000E+00  0.00000000E+00
  0.00000000E+00  0.00000000E+00  0.00000000E+00
  0.00000000E+00  0.00000000E+00  0.00000000E+00
  0.00000000E+00  0.00000000E+00  0.00000000E+00
  0.00000000E+00  0.00000000E+00  0.00000000E+00
  0.00000000E+00  0.00000000E+00  0.00000000E+00
  0.00000000E+00  0.00000000E+00  0.00000000E+00
  0.00000000E+00  0.00000000E+00  0.00000000E+00
  0.00000000E+00  0.00000000E+00  0.00000000E+00
  0.00000000E+00  0.00000000E+00  0.00000000E+00
  0.00000000E+00  0.00000000E+00  0.00000000E+00
  0.00000000E+00  0.00000000E+00  0.00000000E+00
  0.00000000E+00  0.00000000E+00  0.00000000E+00
  0.00000000E+00  0.00000000E+00  0.00000000E+00
  0.00000000E+00  0.00000000E+00  0.00000000E+00
  0.00000000E+00  0.00000000E+00  0.00000000E+00
  0.00000000E+00  0.00000000E+00  0.00000000E+00
  0.00000000E+00  0.00000000E+00  0.00000000E+00
  0.00000000E+00  0.00000000E+00  0.00000000E+00
  0.00000000E+00  0.00000000E+00  0.00000000E+00
  0.00000000E+00  0.00000000E+00  0.00000000E+00
  0.00000000E+00  0.00000000E+00  0.00000000E+00
  0.00000000E+00  0.00000000E+00  0.00000000E+00
  0.00000000E+00  0.00000000E+00  0.00000000E+00
  0.00000000E+00  0.00000000E+00  0.00000000E+00
  0.00000000E+00  0.00000000E+00  0.00000000E+00
  0.00000000E+00  0.00000000E+00  0.00000000E+00
  0.00000000E+00  0.00000000E+00  0.00000000E+00
  0.00000000E+00  0.00000000E+00  0.00000000E+00
  0.00000000E+00  0.00000000E+00  0.00000000E+00
  0.00000000E+00  0.00000000E+00  0.00000000E+00
  0.00000000E+00  0.00000000E+00  0.00000000E+00
