CONTCAR\(2)                             
   1.00000000000000     
    14.8558998108000004    0.0000000000000000    0.0000000000000000
     0.0000000000000000   13.4555997849000004    0.0000000000000000
     0.0000000000000000    0.0000000000000000   21.2884006499999998
   Nb   S    O 
    24    72     1
Selective dynamics
Direct
  0.2335942264832838  0.4240286854836768  0.4366750729098996   F   F   F
  0.2335194316312936  0.1991088026606036  0.4330293675674639   F   F   F
  0.0669396553751440  0.0722538356361540  0.5633598382373606   F   F   F
  0.0669542599777273  0.2971840723390997  0.5669906118096719   F   F   F
  0.5666376105678808  0.4231957899909986  0.4370958749345135   F   F   F
  0.5666902549915065  0.1982975189221889  0.4332265909316746   F   F   F
  0.4000027570516025  0.0723268109617266  0.5637619962667202   F   F   F
  0.4000462108485650  0.2973914034116163  0.5673483680583047   F   F   F
  0.9006652647778139  0.4229630793585883  0.4362622105314671   F   F   F
  0.9003275205266661  0.1983154666129749  0.4327757075823015   F   F   F
  0.7341054743423783  0.0716230616254947  0.5633957016335174   F   F   F
  0.7341630766277234  0.2964352159841184  0.5669795890045464   F   F   F
  0.2337061122296475  0.9242185568777401  0.4365610170071861   F   F   F
  0.2333905964807599  0.6992528467817394  0.4329481212367483   F   F   F
  0.0668352527429761  0.5721367002797848  0.5634145009230878   F   F   F
  0.0666158094023430  0.7973706184166929  0.5671397076575033   F   F   F
  0.5667774152837382  0.9231286452336960  0.4374761747272444   F   F   F
  0.5668586434207725  0.6982093553851882  0.4344238577350055   F   F   F
  0.3993518491063597  0.5724354604515440  0.5638766482322310   F   F   F
  0.3991420538284558  0.7972553676846346  0.5674719542522340   F   F   F
  0.9006712035546798  0.9234410182137935  0.4362981612305887   F   F   F
  0.8997973265155892  0.6985443721874418  0.4334714870570409   F   F   F
  0.7336129316585769  0.5674563899863188  0.5642406990005142   F   F   F
  0.7327100131738007  0.8003850304403599  0.5688231271832294   F   F   F
  0.3340495085921660  0.1826023783607553  0.6481420190318730   F   F   F
  0.2335674629407052  0.0651668429425811  0.5187630453447056   F   F   F
  0.2335457245361567  0.3057782693207614  0.5266532037753180   F   F   F
  0.0668575845911477  0.1903832964756873  0.4733919112672069   F   F   F
  0.1659546320974314  0.3140551706785004  0.3532553069801025   F   F   F
  0.0671667601084920  0.4309431096766048  0.4812120457277160   F   F   F
  0.3303405387442027  0.4362039070721480  0.6342104919156810   F   F   F
  0.3011997831607900  0.0602504100939285  0.3645870193712284   F   F   F
  0.3018669522910145  0.3139843593836673  0.3536307865207675   F   F   F
  0.1368127714406171  0.1822932592372126  0.6453149925612536   F   F   F
  0.1331405888329655  0.4363180941183060  0.6364803269945796   F   F   F
  0.1653854012833236  0.0601931333949892  0.3652439688252542   F   F   F
  0.6679213014665564  0.1817556014902522  0.6476437175235432   F   F   F
  0.5669553339569120  0.0645700916852832  0.5191073463781350   F   F   F
  0.5669242532880787  0.3049572159563709  0.5268663616850375   F   F   F
  0.4001624140444875  0.1904519827309414  0.4737827663371519   F   F   F
  0.4989438412048699  0.3132590947131746  0.3535780406726801   F   F   F
  0.4001793245045704  0.4312832618688773  0.4816671823584784   F   F   F
  0.6638479827817818  0.4331867795910682  0.6338316333062153   F   F   F
  0.6342479243404000  0.0587928456627012  0.3650979930250529   F   F   F
  0.6348302920948470  0.3133343841317284  0.3538491245593676   F   F   F
  0.4699312889512086  0.1825785189664941  0.6457252580680901   F   F   F
  0.4660873168396478  0.4366712242733684  0.6367751105518309   F   F   F
  0.4984931536867094  0.0586607539647517  0.3657742340803267   F   F   F
  0.0009343762858904  0.1824131359581074  0.6478561931750022   F   F   F
  0.9003559901470055  0.0644474574333884  0.5185996929560304   F   F   F
  0.9003042292418328  0.3050633948170329  0.5263904600989164   F   F   F
  0.7336067286694004  0.1896808142099147  0.4733156148929751   F   F   F
  0.8327188177855476  0.3129561461528070  0.3527638726776132   F   F   F
  0.7336393171383619  0.4298266672058588  0.4807475194070605   F   F   F
  0.9974103293841026  0.4363714098050551  0.6335802052408823   F   F   F
  0.9677387562404292  0.0590969504906980  0.3642998833928885   F   F   F
  0.9686843281161543  0.3128599208726470  0.3532547302063094   F   F   F
  0.8038360435657808  0.1816332009994142  0.6451576765727438   F   F   F
  0.7996431630380911  0.4341132590720065  0.6386584719585429   F   F   F
  0.8318763329470755  0.0595023741997522  0.3650940280941697   F   F   F
  0.3319397760531899  0.6825902530192920  0.6473091579365473   F   F   F
  0.2332830470710050  0.5650204602529101  0.5185363889324535   F   F   F
  0.2331584835313976  0.8062056932791037  0.5263821579423507   F   F   F
  0.0664460810314438  0.6905496905628823  0.4735942342910846   F   F   F
  0.1665665132681511  0.8143304654673997  0.3528242234071612   F   F   F
  0.0671529168323701  0.9311661565471283  0.4812088868860158   F   F   F
  0.3300713480269550  0.9368215258135990  0.6342540906524050   F   F   F
  0.3010788610426758  0.5600803715903950  0.3646703690266264   F   F   F
  0.3024828303588407  0.8140530657025309  0.3538739882695481   F   F   F
  0.1386136069657340  0.6824534126814257  0.6441580640367519   F   F   F
  0.1330878738030634  0.9363102412477815  0.6365083268251936   F   F   F
  0.1652620001371190  0.5601134295544341  0.3652451082744790   F   F   F
  0.6740398589208141  0.6794807433559313  0.6470568568192050   F   F   F
  0.5666697558874318  0.5639865744059875  0.5199749750561935   F   F   F
  0.5665606032363968  0.8052127210695801  0.5279905525379434   F   F   F
  0.4001056448366214  0.6904983117333359  0.4739484282907611   F   F   F
  0.5000689082598768  0.8124448815037155  0.3539117143950605   F   F   F
  0.4002541304052869  0.9312813517150218  0.4816711198858101   F   F   F
  0.6632294910917480  0.9381394486904568  0.6340718237280356   F   F   F
  0.6344753070665163  0.5594724854323090  0.3656956484920286   F   F   F
  0.6359295472717008  0.8125353566912352  0.3552420212931224   F   F   F
  0.4673401812474580  0.6827385219347590  0.6466697422491805   F   F   F
  0.4658400310256852  0.9362814978047780  0.6368186413076629   F   F   F
  0.4986933039087802  0.5595571751924595  0.3662178029752710   F   F   F
  0.0027032894192374  0.6821838074615059  0.6492030544556755   F   F   F
  0.9005255877390539  0.5627568471407471  0.5182545499262829   F   F   F
  0.9001492564592155  0.8072095063348286  0.5265002437874671   F   F   F
  0.7337913355990580  0.6899200570515376  0.4754136672747435   F   F   F
  0.8332088254242151  0.8132213087520839  0.3528004552899020   F   F   F
  0.7337356510512549  0.9304884954365349  0.4812480417551441   F   F   F
  0.9973586166009625  0.9366183293109387  0.6336792166820118   F   F   F
  0.9675272669302331  0.5595474451627567  0.3648873877376602   F   F   F
  0.9691105006026532  0.8124224325220695  0.3541533375023178   F   F   F
  0.8140123667836576  0.6815721238537620  0.6384461648679292   F   F   F
  0.7990539328161148  0.9369796257459626  0.6391331346506135   F   F   F
  0.8317027696573192  0.5594164004167581  0.3654957404867361   F   F   F
  0.6388551946987135  0.6717928296290054  0.7116576057664674   T   T   T
 
  0.00000000E+00  0.00000000E+00  0.00000000E+00
  0.00000000E+00  0.00000000E+00  0.00000000E+00
  0.00000000E+00  0.00000000E+00  0.00000000E+00
  0.00000000E+00  0.00000000E+00  0.00000000E+00
  0.00000000E+00  0.00000000E+00  0.00000000E+00
  0.00000000E+00  0.00000000E+00  0.00000000E+00
  0.00000000E+00  0.00000000E+00  0.00000000E+00
  0.00000000E+00  0.00000000E+00  0.00000000E+00
  0.00000000E+00  0.00000000E+00  0.00000000E+00
  0.00000000E+00  0.00000000E+00  0.00000000E+00
  0.00000000E+00  0.00000000E+00  0.00000000E+00
  0.00000000E+00  0.00000000E+00  0.00000000E+00
  0.00000000E+00  0.00000000E+00  0.00000000E+00
  0.00000000E+00  0.00000000E+00  0.00000000E+00
  0.00000000E+00  0.00000000E+00  0.00000000E+00
  0.00000000E+00  0.00000000E+00  0.00000000E+00
  0.00000000E+00  0.00000000E+00  0.00000000E+00
  0.00000000E+00  0.00000000E+00  0.00000000E+00
  0.00000000E+00  0.00000000E+00  0.00000000E+00
  0.00000000E+00  0.00000000E+00  0.00000000E+00
  0.00000000E+00  0.00000000E+00  0.00000000E+00
  0.00000000E+00  0.00000000E+00  0.00000000E+00
  0.00000000E+00  0.00000000E+00  0.00000000E+00
  0.00000000E+00  0.00000000E+00  0.00000000E+00
  0.00000000E+00  0.00000000E+00  0.00000000E+00
  0.00000000E+00  0.00000000E+00  0.00000000E+00
  0.00000000E+00  0.00000000E+00  0.00000000E+00
  0.00000000E+00  0.00000000E+00  0.00000000E+00
  0.00000000E+00  0.00000000E+00  0.00000000E+00
  0.00000000E+00  0.00000000E+00  0.00000000E+00
  0.00000000E+00  0.00000000E+00  0.00000000E+00
  0.00000000E+00  0.00000000E+00  0.00000000E+00
  0.00000000E+00  0.00000000E+00  0.00000000E+00
  0.00000000E+00  0.00000000E+00  0.00000000E+00
  0.00000000E+00  0.00000000E+00  0.00000000E+00
  0.00000000E+00  0.00000000E+00  0.00000000E+00
  0.00000000E+00  0.00000000E+00  0.00000000E+00
  0.00000000E+00  0.00000000E+00  0.00000000E+00
  0.00000000E+00  0.00000000E+00  0.00000000E+00
  0.00000000E+00  0.00000000E+00  0.00000000E+00
  0.00000000E+00  0.00000000E+00  0.00000000E+00
  0.00000000E+00  0.00000000E+00  0.00000000E+00
  0.00000000E+00  0.00000000E+00  0.00000000E+00
  0.00000000E+00  0.00000000E+00  0.00000000E+00
  0.00000000E+00  0.00000000E+00  0.00000000E+00
  0.00000000E+00  0.00000000E+00  0.00000000E+00
  0.00000000E+00  0.00000000E+00  0.00000000E+00
  0.00000000E+00  0.00000000E+00  0.00000000E+00
  0.00000000E+00  0.00000000E+00  0.00000000E+00
  0.00000000E+00  0.00000000E+00  0.00000000E+00
  0.00000000E+00  0.00000000E+00  0.00000000E+00
  0.00000000E+00  0.00000000E+00  0.00000000E+00
  0.00000000E+00  0.00000000E+00  0.00000000E+00
  0.00000000E+00  0.00000000E+00  0.00000000E+00
  0.00000000E+00  0.00000000E+00  0.00000000E+00
  0.00000000E+00  0.00000000E+00  0.00000000E+00
  0.00000000E+00  0.00000000E+00  0.00000000E+00
  0.00000000E+00  0.00000000E+00  0.00000000E+00
  0.00000000E+00  0.00000000E+00  0.00000000E+00
  0.00000000E+00  0.00000000E+00  0.00000000E+00
  0.00000000E+00  0.00000000E+00  0.00000000E+00
  0.00000000E+00  0.00000000E+00  0.00000000E+00
  0.00000000E+00  0.00000000E+00  0.00000000E+00
  0.00000000E+00  0.00000000E+00  0.00000000E+00
  0.00000000E+00  0.00000000E+00  0.00000000E+00
  0.00000000E+00  0.00000000E+00  0.00000000E+00
  0.00000000E+00  0.00000000E+00  0.00000000E+00
  0.00000000E+00  0.00000000E+00  0.00000000E+00
  0.00000000E+00  0.00000000E+00  0.00000000E+00
  0.00000000E+00  0.00000000E+00  0.00000000E+00
  0.00000000E+00  0.00000000E+00  0.00000000E+00
  0.00000000E+00  0.00000000E+00  0.00000000E+00
  0.00000000E+00  0.00000000E+00  0.00000000E+00
  0.00000000E+00  0.00000000E+00  0.00000000E+00
  0.00000000E+00  0.00000000E+00  0.00000000E+00
  0.00000000E+00  0.00000000E+00  0.00000000E+00
  0.00000000E+00  0.00000000E+00  0.00000000E+00
  0.00000000E+00  0.00000000E+00  0.00000000E+00
  0.00000000E+00  0.00000000E+00  0.00000000E+00
  0.00000000E+00  0.00000000E+00  0.00000000E+00
  0.00000000E+00  0.00000000E+00  0.00000000E+00
  0.00000000E+00  0.00000000E+00  0.00000000E+00
  0.00000000E+00  0.00000000E+00  0.00000000E+00
  0.00000000E+00  0.00000000E+00  0.00000000E+00
  0.00000000E+00  0.00000000E+00  0.00000000E+00
  0.00000000E+00  0.00000000E+00  0.00000000E+00
  0.00000000E+00  0.00000000E+00  0.00000000E+00
  0.00000000E+00  0.00000000E+00  0.00000000E+00
  0.00000000E+00  0.00000000E+00  0.00000000E+00
  0.00000000E+00  0.00000000E+00  0.00000000E+00
  0.00000000E+00  0.00000000E+00  0.00000000E+00
  0.00000000E+00  0.00000000E+00  0.00000000E+00
  0.00000000E+00  0.00000000E+00  0.00000000E+00
  0.00000000E+00  0.00000000E+00  0.00000000E+00
  0.00000000E+00  0.00000000E+00  0.00000000E+00
  0.00000000E+00  0.00000000E+00  0.00000000E+00
  0.00000000E+00  0.00000000E+00  0.00000000E+00
