CONTCAR\(3)                             
   1.00000000000000     
    14.6440000533999992    0.0000000000000000    0.0000000000000000
     0.0000000000000000   14.6358003615999994    0.0000000000000000
     0.0000000000000000    0.0000000000000000   19.3710002898999996
   Pd   Se   O 
    18    18    54
Direct
  0.0027547523727023  0.1666885079287539  0.4999933723454575
  0.1695187728624106  0.0000028103254905  0.5000293117626882
  0.3360847553727027  0.1666885079287539  0.4999933723454575
  0.5028487848624081  0.0000028103254905  0.5000293117626882
  0.6694247643726996  0.1666885079287539  0.4999933723454575
  0.8361887608624059  0.0000028103254905  0.5000293117626882
  0.0027547523727023  0.5000185349287491  0.4999933723454575
  0.1695187728624106  0.3333328203254879  0.5000293117626882
  0.3360847553727027  0.5000185349287491  0.4999933723454575
  0.5028487848624081  0.3333328203254879  0.5000293117626882
  0.6694247643726996  0.5000185349287491  0.4999933723454575
  0.8361887608624059  0.3333328203254879  0.5000293117626882
  0.0027547523727023  0.8333585149287472  0.4999933723454575
  0.1695187728624106  0.6666728653254879  0.5000293117626882
  0.3360847553727027  0.8333585149287472  0.4999933723454575
  0.5028487848624081  0.6666728653254879  0.5000293117626882
  0.6694247643726996  0.8333585149287472  0.4999933723454575
  0.8361887608624059  0.6666728653254879  0.5000293117626882
  0.1686032908268871  0.1659726338385141  0.6155686737689336
  0.1702019068281828  0.1673215922735594  0.3844316328527384
  0.5019432508268835  0.1659726338385141  0.6155686737689336
  0.5035418828281877  0.1673215922735594  0.3844316328527384
  0.8352733278268829  0.1659726338385141  0.6155686737689336
  0.8368719268281879  0.1673215922735594  0.3844316328527384
  0.1686032908268871  0.4993126298385135  0.6155686737689336
  0.1702019068281828  0.5006616202735614  0.3844316328527384
  0.5019432508268835  0.4993126298385135  0.6155686737689336
  0.5035418828281877  0.5006616202735614  0.3844316328527384
  0.8352733278268829  0.4993126298385135  0.6155686737689336
  0.8368719268281879  0.5006616202735614  0.3844316328527384
  0.1686032908268871  0.8326426398385109  0.6155686737689336
  0.1702019068281828  0.8339915982735562  0.3844316328527384
  0.5019432508268835  0.8326426398385109  0.6155686737689336
  0.5035418828281877  0.8339915982735562  0.3844316328527384
  0.8352733278268829  0.8326426398385109  0.6155686737689336
  0.8368719268281879  0.8339915982735562  0.3844316328527384
  0.1474184227153685  0.2782646411876684  0.4052333410144513
  0.2810549131529783  0.1442984198113848  0.4052458559006382
  0.1131121944775515  0.1103214392442666  0.4560394351874280
  0.1917510427278799  0.0550856213803641  0.5947522714634701
  0.2258217088219538  0.2230190356842030  0.5440365199105912
  0.0578529872140763  0.1890452853257898  0.5946695347935886
  0.4807484347153661  0.2782646411876684  0.4052333410144513
  0.6143849581529750  0.1442984198113848  0.4052458559006382
  0.4464421734775499  0.1103214392442666  0.4560394351874280
  0.5250810547278775  0.0550856213803641  0.5947522714634701
  0.5591516718219580  0.2230190356842030  0.5440365199105912
  0.3911829702140750  0.1890452853257898  0.5946695347935886
  0.8140884427153665  0.2782646411876684  0.4052333410144513
  0.9477149051529778  0.1442984198113848  0.4052458559006382
  0.7797822144775495  0.1103214392442666  0.4560394351874280
  0.8584210627278779  0.0550856213803641  0.5947522714634701
  0.8924917128219576  0.2230190356842030  0.5440365199105912
  0.7245130152140788  0.1890452853257898  0.5946695347935886
  0.1474184227153685  0.6115945861876710  0.4052333410144513
  0.2810549131529783  0.4776284298113822  0.4052458559006382
  0.1131121944775515  0.4436514502442677  0.4560394351874280
  0.1917510427278799  0.3884256333803648  0.5947522714634701
  0.2258217088219538  0.5563590316842095  0.5440365199105912
  0.0578529872140763  0.5223852813257892  0.5946695347935886
  0.4807484347153661  0.6115945861876710  0.4052333410144513
  0.6143849581529750  0.4776284298113822  0.4052458559006382
  0.4464421734775499  0.4436514502442677  0.4560394351874280
  0.5250810547278775  0.3884256333803648  0.5947522714634701
  0.5591516718219580  0.5563590316842095  0.5440365199105912
  0.3911829702140750  0.5223852813257892  0.5946695347935886
  0.8140884427153665  0.6115945861876710  0.4052333410144513
  0.9477149051529778  0.4776284298113822  0.4052458559006382
  0.7797822144775495  0.4436514502442677  0.4560394351874280
  0.8584210627278779  0.3884256333803648  0.5947522714634701
  0.8924917128219576  0.5563590316842095  0.5440365199105912
  0.7245130152140788  0.5223852813257892  0.5946695347935886
  0.1474184227153685  0.9449346311876710  0.4052333410144513
  0.2810549131529783  0.8109684428113866  0.4052458559006382
  0.1131121944775515  0.7769814272442659  0.4560394351874280
  0.1917510427278799  0.7217556113803667  0.5947522714634701
  0.2258217088219538  0.8896890416842069  0.5440365199105912
  0.0578529872140763  0.8557153243257858  0.5946695347935886
  0.4807484347153661  0.9449346311876710  0.4052333410144513
  0.6143849581529750  0.8109684428113866  0.4052458559006382
  0.4464421734775499  0.7769814272442659  0.4560394351874280
  0.5250810547278775  0.7217556113803667  0.5947522714634701
  0.5591516718219580  0.8896890416842069  0.5440365199105912
  0.3911829702140750  0.8557153243257858  0.5946695347935886
  0.8140884427153665  0.9449346311876710  0.4052333410144513
  0.9477149051529778  0.8109684428113866  0.4052458559006382
  0.7797822144775495  0.7769814272442659  0.4560394351874280
  0.8584210627278779  0.7217556113803667  0.5947522714634701
  0.8924917128219576  0.8896890416842069  0.5440365199105912
  0.7245130152140788  0.8557153243257858  0.5946695347935886
 
  0.00000000E+00  0.00000000E+00  0.00000000E+00
  0.00000000E+00  0.00000000E+00  0.00000000E+00
  0.00000000E+00  0.00000000E+00  0.00000000E+00
  0.00000000E+00  0.00000000E+00  0.00000000E+00
  0.00000000E+00  0.00000000E+00  0.00000000E+00
  0.00000000E+00  0.00000000E+00  0.00000000E+00
  0.00000000E+00  0.00000000E+00  0.00000000E+00
  0.00000000E+00  0.00000000E+00  0.00000000E+00
  0.00000000E+00  0.00000000E+00  0.00000000E+00
  0.00000000E+00  0.00000000E+00  0.00000000E+00
  0.00000000E+00  0.00000000E+00  0.00000000E+00
  0.00000000E+00  0.00000000E+00  0.00000000E+00
  0.00000000E+00  0.00000000E+00  0.00000000E+00
  0.00000000E+00  0.00000000E+00  0.00000000E+00
  0.00000000E+00  0.00000000E+00  0.00000000E+00
  0.00000000E+00  0.00000000E+00  0.00000000E+00
  0.00000000E+00  0.00000000E+00  0.00000000E+00
  0.00000000E+00  0.00000000E+00  0.00000000E+00
  0.00000000E+00  0.00000000E+00  0.00000000E+00
  0.00000000E+00  0.00000000E+00  0.00000000E+00
  0.00000000E+00  0.00000000E+00  0.00000000E+00
  0.00000000E+00  0.00000000E+00  0.00000000E+00
  0.00000000E+00  0.00000000E+00  0.00000000E+00
  0.00000000E+00  0.00000000E+00  0.00000000E+00
  0.00000000E+00  0.00000000E+00  0.00000000E+00
  0.00000000E+00  0.00000000E+00  0.00000000E+00
  0.00000000E+00  0.00000000E+00  0.00000000E+00
  0.00000000E+00  0.00000000E+00  0.00000000E+00
  0.00000000E+00  0.00000000E+00  0.00000000E+00
  0.00000000E+00  0.00000000E+00  0.00000000E+00
  0.00000000E+00  0.00000000E+00  0.00000000E+00
  0.00000000E+00  0.00000000E+00  0.00000000E+00
  0.00000000E+00  0.00000000E+00  0.00000000E+00
  0.00000000E+00  0.00000000E+00  0.00000000E+00
  0.00000000E+00  0.00000000E+00  0.00000000E+00
  0.00000000E+00  0.00000000E+00  0.00000000E+00
  0.00000000E+00  0.00000000E+00  0.00000000E+00
  0.00000000E+00  0.00000000E+00  0.00000000E+00
  0.00000000E+00  0.00000000E+00  0.00000000E+00
  0.00000000E+00  0.00000000E+00  0.00000000E+00
  0.00000000E+00  0.00000000E+00  0.00000000E+00
  0.00000000E+00  0.00000000E+00  0.00000000E+00
  0.00000000E+00  0.00000000E+00  0.00000000E+00
  0.00000000E+00  0.00000000E+00  0.00000000E+00
  0.00000000E+00  0.00000000E+00  0.00000000E+00
  0.00000000E+00  0.00000000E+00  0.00000000E+00
  0.00000000E+00  0.00000000E+00  0.00000000E+00
  0.00000000E+00  0.00000000E+00  0.00000000E+00
  0.00000000E+00  0.00000000E+00  0.00000000E+00
  0.00000000E+00  0.00000000E+00  0.00000000E+00
  0.00000000E+00  0.00000000E+00  0.00000000E+00
  0.00000000E+00  0.00000000E+00  0.00000000E+00
  0.00000000E+00  0.00000000E+00  0.00000000E+00
  0.00000000E+00  0.00000000E+00  0.00000000E+00
  0.00000000E+00  0.00000000E+00  0.00000000E+00
  0.00000000E+00  0.00000000E+00  0.00000000E+00
  0.00000000E+00  0.00000000E+00  0.00000000E+00
  0.00000000E+00  0.00000000E+00  0.00000000E+00
  0.00000000E+00  0.00000000E+00  0.00000000E+00
  0.00000000E+00  0.00000000E+00  0.00000000E+00
  0.00000000E+00  0.00000000E+00  0.00000000E+00
  0.00000000E+00  0.00000000E+00  0.00000000E+00
  0.00000000E+00  0.00000000E+00  0.00000000E+00
  0.00000000E+00  0.00000000E+00  0.00000000E+00
  0.00000000E+00  0.00000000E+00  0.00000000E+00
  0.00000000E+00  0.00000000E+00  0.00000000E+00
  0.00000000E+00  0.00000000E+00  0.00000000E+00
  0.00000000E+00  0.00000000E+00  0.00000000E+00
  0.00000000E+00  0.00000000E+00  0.00000000E+00
  0.00000000E+00  0.00000000E+00  0.00000000E+00
  0.00000000E+00  0.00000000E+00  0.00000000E+00
  0.00000000E+00  0.00000000E+00  0.00000000E+00
  0.00000000E+00  0.00000000E+00  0.00000000E+00
  0.00000000E+00  0.00000000E+00  0.00000000E+00
  0.00000000E+00  0.00000000E+00  0.00000000E+00
  0.00000000E+00  0.00000000E+00  0.00000000E+00
  0.00000000E+00  0.00000000E+00  0.00000000E+00
  0.00000000E+00  0.00000000E+00  0.00000000E+00
  0.00000000E+00  0.00000000E+00  0.00000000E+00
  0.00000000E+00  0.00000000E+00  0.00000000E+00
  0.00000000E+00  0.00000000E+00  0.00000000E+00
  0.00000000E+00  0.00000000E+00  0.00000000E+00
  0.00000000E+00  0.00000000E+00  0.00000000E+00
  0.00000000E+00  0.00000000E+00  0.00000000E+00
  0.00000000E+00  0.00000000E+00  0.00000000E+00
  0.00000000E+00  0.00000000E+00  0.00000000E+00
  0.00000000E+00  0.00000000E+00  0.00000000E+00
  0.00000000E+00  0.00000000E+00  0.00000000E+00
  0.00000000E+00  0.00000000E+00  0.00000000E+00
  0.00000000E+00  0.00000000E+00  0.00000000E+00
