CONTCAR\(5)                             
   1.00000000000000     
    14.5763998031999993    0.0000000000000000    0.0000000000000000
     0.0000000000000000   14.5763998031999993    0.0000000000000000
     0.0000000000000000    0.0000000000000000   17.7768993377999998
   Fe   Se   O    H 
    32    32     1     1
Direct
  0.9999356388003378  0.9999694761635780  0.4962934615122450
  0.1234733935199799  0.1240213539157438  0.4955287776785084
  0.2491955954950527  0.9980473158427756  0.4934559531121749
  0.3749612913337614  0.1245868627187505  0.4948428927162425
  0.5008427716512287  0.9995735970426267  0.4955169326576438
  0.6242188530675961  0.1242842905302339  0.4982127539436760
  0.7509581320838308  0.0004235781966671  0.4977874299205851
  0.8743089618784765  0.1236486956776801  0.4985927819514160
  0.9972825791956694  0.2485935405470983  0.4976829150312270
  0.1227495303306299  0.3731726913171656  0.5007223947094630
  0.2469538393357666  0.2477921985300426  0.4961476626366093
  0.3756789047457403  0.3692007884334743  0.5140366339323066
  0.4979735673967340  0.2475362146006503  0.4995733179309312
  0.6248286605952416  0.3741223752563414  0.5021245795956162
  0.7487325216500409  0.2489228861754711  0.4978218039396580
  0.8740896990202813  0.3739274531402970  0.4942320868541117
  0.9997146153506549  0.4982841212386262  0.4963073810931107
  0.1231253061655266  0.6262621828424457  0.4989966843854106
  0.2469919702955536  0.5015631491179704  0.5189466751284328
  0.3761210951952307  0.6274226816238269  0.5242488353115249
  0.5020176211617624  0.5009726731545285  0.5223852805208438
  0.6278688346208696  0.6256524530481968  0.5028034407785213
  0.7509959759590146  0.4996931557810242  0.4956846267433548
  0.8759815281650631  0.6226808489772893  0.4950010175697770
  0.9999540112663965  0.7493199895320615  0.4968334927270135
  0.1258608923714206  0.8758224473129701  0.4959029165811799
  0.2477240097911704  0.7551611395016238  0.5019747298377695
  0.3768269559929465  0.8750529742237347  0.5012709816036249
  0.5037057541518024  0.7527383195830737  0.5035432549645975
  0.6276054561457300  0.8760210969320710  0.4969972417316555
  0.7523812914811501  0.7491361512805241  0.4989517652472202
  0.8761234427405213  0.8746355408792255  0.4966876958008797
  0.1229907392235106  0.0004481412045436  0.4107665505393427
  0.9995976953435886  0.1246122211892029  0.5805666156737104
  0.3760184072738184  0.9969147330507298  0.4124805267542158
  0.2495479694441585  0.1215384866523834  0.5781115079410313
  0.6281773079463235  0.0000562673206304  0.4143665583214613
  0.4984097187549779  0.1207281924162018  0.5811584204401683
  0.8733764519235336  0.9994405167456648  0.4150649017384467
  0.7494311264561802  0.1241146045713606  0.5798992802536063
  0.1214841933884614  0.2513631642698257  0.4141508823572693
  0.9944528854303911  0.3738048573689241  0.5805778859393911
  0.3709756845185908  0.2537965053643205  0.4143312155444789
  0.2382596320831638  0.3611653383898528  0.5912719573535838
  0.6226402710734149  0.2514564074342118  0.4146045938525305
  0.5094125914621799  0.3616115885314173  0.5925263689157561
  0.8719377978242804  0.2468170831607495  0.4147355594978492
  0.7527951102262804  0.3738853576003862  0.5813329768461415
  0.1318769731424609  0.4991898744640650  0.4202158383624095
  0.9974852433339123  0.6233456934520660  0.5806873510015507
  0.3767896442104259  0.5026095603353014  0.4322637715432336
  0.2346807731867244  0.6409897653166681  0.5920414120617750
  0.6181795732827027  0.5007931193232764  0.4217630763861848
  0.5158792501431080  0.6404704658249329  0.5945197698114129
  0.8759537551226657  0.4964287551238939  0.4104531226878549
  0.7550061336036720  0.6237868645963829  0.5817740822563593
  0.1263669900154696  0.7486696852724108  0.4136593311209893
  0.0007700029416355  0.8745934666951030  0.5811207596490959
  0.3766223069583461  0.7410379312042537  0.4250076409256351
  0.2522524859814865  0.8812574671894495  0.5846353855005830
  0.6250504171009794  0.7479743933338412  0.4169182440776069
  0.5041521411553944  0.8801022439996586  0.5827891888388521
  0.8756806814336642  0.7497256270946622  0.4121024412559251
  0.7532966039969509  0.8763476074883627  0.5799595927201793
  0.3754828259692076  0.5099534830466155  0.5880205871183151
  0.3749534820931544  0.5174178238509128  0.6428337995657998
 
  0.00000000E+00  0.00000000E+00  0.00000000E+00
  0.00000000E+00  0.00000000E+00  0.00000000E+00
  0.00000000E+00  0.00000000E+00  0.00000000E+00
  0.00000000E+00  0.00000000E+00  0.00000000E+00
  0.00000000E+00  0.00000000E+00  0.00000000E+00
  0.00000000E+00  0.00000000E+00  0.00000000E+00
  0.00000000E+00  0.00000000E+00  0.00000000E+00
  0.00000000E+00  0.00000000E+00  0.00000000E+00
  0.00000000E+00  0.00000000E+00  0.00000000E+00
  0.00000000E+00  0.00000000E+00  0.00000000E+00
  0.00000000E+00  0.00000000E+00  0.00000000E+00
  0.00000000E+00  0.00000000E+00  0.00000000E+00
  0.00000000E+00  0.00000000E+00  0.00000000E+00
  0.00000000E+00  0.00000000E+00  0.00000000E+00
  0.00000000E+00  0.00000000E+00  0.00000000E+00
  0.00000000E+00  0.00000000E+00  0.00000000E+00
  0.00000000E+00  0.00000000E+00  0.00000000E+00
  0.00000000E+00  0.00000000E+00  0.00000000E+00
  0.00000000E+00  0.00000000E+00  0.00000000E+00
  0.00000000E+00  0.00000000E+00  0.00000000E+00
  0.00000000E+00  0.00000000E+00  0.00000000E+00
  0.00000000E+00  0.00000000E+00  0.00000000E+00
  0.00000000E+00  0.00000000E+00  0.00000000E+00
  0.00000000E+00  0.00000000E+00  0.00000000E+00
  0.00000000E+00  0.00000000E+00  0.00000000E+00
  0.00000000E+00  0.00000000E+00  0.00000000E+00
  0.00000000E+00  0.00000000E+00  0.00000000E+00
  0.00000000E+00  0.00000000E+00  0.00000000E+00
  0.00000000E+00  0.00000000E+00  0.00000000E+00
  0.00000000E+00  0.00000000E+00  0.00000000E+00
  0.00000000E+00  0.00000000E+00  0.00000000E+00
  0.00000000E+00  0.00000000E+00  0.00000000E+00
  0.00000000E+00  0.00000000E+00  0.00000000E+00
  0.00000000E+00  0.00000000E+00  0.00000000E+00
  0.00000000E+00  0.00000000E+00  0.00000000E+00
  0.00000000E+00  0.00000000E+00  0.00000000E+00
  0.00000000E+00  0.00000000E+00  0.00000000E+00
  0.00000000E+00  0.00000000E+00  0.00000000E+00
  0.00000000E+00  0.00000000E+00  0.00000000E+00
  0.00000000E+00  0.00000000E+00  0.00000000E+00
  0.00000000E+00  0.00000000E+00  0.00000000E+00
  0.00000000E+00  0.00000000E+00  0.00000000E+00
  0.00000000E+00  0.00000000E+00  0.00000000E+00
  0.00000000E+00  0.00000000E+00  0.00000000E+00
  0.00000000E+00  0.00000000E+00  0.00000000E+00
  0.00000000E+00  0.00000000E+00  0.00000000E+00
  0.00000000E+00  0.00000000E+00  0.00000000E+00
  0.00000000E+00  0.00000000E+00  0.00000000E+00
  0.00000000E+00  0.00000000E+00  0.00000000E+00
  0.00000000E+00  0.00000000E+00  0.00000000E+00
  0.00000000E+00  0.00000000E+00  0.00000000E+00
  0.00000000E+00  0.00000000E+00  0.00000000E+00
  0.00000000E+00  0.00000000E+00  0.00000000E+00
  0.00000000E+00  0.00000000E+00  0.00000000E+00
  0.00000000E+00  0.00000000E+00  0.00000000E+00
  0.00000000E+00  0.00000000E+00  0.00000000E+00
  0.00000000E+00  0.00000000E+00  0.00000000E+00
  0.00000000E+00  0.00000000E+00  0.00000000E+00
  0.00000000E+00  0.00000000E+00  0.00000000E+00
  0.00000000E+00  0.00000000E+00  0.00000000E+00
  0.00000000E+00  0.00000000E+00  0.00000000E+00
  0.00000000E+00  0.00000000E+00  0.00000000E+00
  0.00000000E+00  0.00000000E+00  0.00000000E+00
  0.00000000E+00  0.00000000E+00  0.00000000E+00
  0.00000000E+00  0.00000000E+00  0.00000000E+00
  0.00000000E+00  0.00000000E+00  0.00000000E+00
