 Bi6 Te6                                
   1.00000000000000     
     4.4330651401998820    0.0000000000000000    0.0000000000000000
    -2.2165330647568906    3.8387144852522983    0.0000000000000000
     0.0000000000000000    0.0000000000000000   36.9293088183119949
   Bi   Te
     6     6
Direct
  0.3333572376911178  0.6666365016781981  0.6409118855443765
  0.6667030959602798  0.3334098767986617  0.3590851574745955
  0.9998411202229178  0.9998839515734304  0.2491492136562101
  0.9999892608540932  0.9999307865877043  0.7508499672227416
  0.6667256245976532  0.3334384106442343  0.5227641854182394
  0.3334011826897196  0.6667319232065552  0.4772440813385117
  0.3333176896149155  0.6666256968595334  0.7969417335995033
  0.6666103401204850  0.3332893950059699  0.2030576365606436
  0.0000382231167322  0.0000580239645345  0.4060665773039460
  0.0000193145216514  0.0000051866639694  0.5939311067483004
  0.6666677085463917  0.3333229172142325  0.6954987005083737
  0.3333292020640357  0.6666673298029764  0.3044997546245582
 
  0.00000000E+00  0.00000000E+00  0.00000000E+00
  0.00000000E+00  0.00000000E+00  0.00000000E+00
  0.00000000E+00  0.00000000E+00  0.00000000E+00
  0.00000000E+00  0.00000000E+00  0.00000000E+00
  0.00000000E+00  0.00000000E+00  0.00000000E+00
  0.00000000E+00  0.00000000E+00  0.00000000E+00
  0.00000000E+00  0.00000000E+00  0.00000000E+00
  0.00000000E+00  0.00000000E+00  0.00000000E+00
  0.00000000E+00  0.00000000E+00  0.00000000E+00
  0.00000000E+00  0.00000000E+00  0.00000000E+00
  0.00000000E+00  0.00000000E+00  0.00000000E+00
  0.00000000E+00  0.00000000E+00  0.00000000E+00
