CONTCAR\(3)                             
   1.00000000000000     
    15.6891002655000005    0.0000000000000000    0.0000000000000000
     7.8445501328000002   13.5871593924000003    0.0000000000000000
     0.0000000000000000    0.0000000000000000   18.9503002167000005
   Te   Pt   O    H 
    32    32     1     1
Direct
  0.1666061981206079  0.1668179772988419  0.6109756464700511
  0.1668510096956680  0.1669746732121306  0.3912440952903253
  0.4165130703621405  0.1668504358490450  0.6122562557762146
  0.4184337537662224  0.1658901069604601  0.3936490003046430
  0.6670522228701964  0.1662889448917293  0.6121031672552352
  0.6669921449572637  0.1663509911464236  0.3931451259627800
  0.9167632270143138  0.1666909093485431  0.6121783135600893
  0.9166216522002606  0.1662545087346040  0.3935525883696946
  0.1666425830542714  0.4158323635975088  0.6110551481619463
  0.1666871335639666  0.4158121752517318  0.3912594928907696
  0.4171234262834203  0.4140125010241781  0.6126347964395273
  0.4170885455568263  0.4154689365882102  0.3932187826397472
  0.6694288566432786  0.4141715480750868  0.6124794054053538
  0.6681755313805434  0.4157414901401552  0.3932100559461438
  0.9181320799311905  0.4157918492947434  0.6110128318462156
  0.9188736673165188  0.4155365053049745  0.3907655127862062
  0.1650978941469511  0.6668655694893992  0.6124186995256999
  0.1659120540794863  0.6668877511763793  0.3934518877047067
  0.4191153109210632  0.6655042625489865  0.5962985818882164
  0.4168132228231763  0.6666916082508525  0.3948686341922271
  0.6691962616638807  0.6665435809584790  0.6126187712441137
  0.6674566086435288  0.6665423317057455  0.3934522897469995
  0.9169716506129953  0.6662468200443395  0.6122276732874835
  0.9161442502321129  0.6677075335518924  0.3935564875141636
  0.1647651908053075  0.9183100575781290  0.6127892014833413
  0.1663035064370773  0.9169395959444814  0.3936430105883564
  0.4168186606452993  0.9188979094757567  0.6127235948756197
  0.4174196639475313  0.9174224288122265  0.3933217972268556
  0.6673629968901202  0.9167981499113944  0.6125884503543059
  0.6676855944792335  0.9163010844865340  0.3933654321464712
  0.9164288744573018  0.9166001540765997  0.6122042842981364
  0.9162209600926138  0.9166461433416205  0.3934163768483904
  0.0826229850941594  0.0840536478386323  0.5429156997856612
  0.9996749125053711  0.9998103376425783  0.4619148606946100
  0.3335124597415116  0.0842130385747063  0.5428788190601174
  0.2494615466707659  0.0017902290678013  0.4608305991523009
  0.5833525005214600  0.0833016742225797  0.5442058769791897
  0.5011548698452403  0.9996864021874365  0.4622830357050319
  0.8336461521366333  0.0832573031688984  0.5439069429869241
  0.7500017355072697  0.0000898453236260  0.4626489759339275
  0.0839466609580752  0.3328787712762705  0.5420384640248007
  0.0007485898621335  0.2496092113956100  0.4604470039398496
  0.3333347858623861  0.3324191120601187  0.5427216424264482
  0.2505989427714034  0.2496000460749341  0.4602547573742686
  0.5836042877961937  0.3334694722842881  0.5443072205906936
  0.5008397584853446  0.2495204058558696  0.4623916199261029
  0.8349416764255794  0.3321847727989044  0.5427623394957002
  0.7502008392490892  0.2495888754972672  0.4620498462129511
  0.0828717969312534  0.5828766316250044  0.5431570002473166
  0.0005317050017374  0.4998725218506930  0.4603661536636888
  0.3309677610015290  0.5798040695820924  0.5429160208011996
  0.2492142575995364  0.4988399317062322  0.4606733646075922
  0.5906988501365245  0.5796570358914598  0.5422491412313643
  0.5010384243295304  0.4986302116008204  0.4608033924035146
  0.8348713433314726  0.5827471346741357  0.5430150837953661
  0.7533022310431183  0.4984157150571039  0.4604430321819370
  0.0833408215298752  0.8334043602353158  0.5440539360586184
  0.9998213536686517  0.7502426654370085  0.4622092605244251
  0.3306234375963961  0.8392302415710295  0.5431428479008376
  0.2493881603985871  0.7501978146321852  0.4615541471089943
  0.5835939259378782  0.8332630684669924  0.5446297152203972
  0.5006528885038115  0.7506834128247560  0.4613124333347368
  0.8336323230714469  0.8328707597703336  0.5438435658250722
  0.7500476376257385  0.7501182344490848  0.4622955689405447
  0.4367982494764237  0.6572949097040646  0.7027617751297979
  0.3717436947894537  0.6896173235809827  0.7248296727059041
 
  0.00000000E+00  0.00000000E+00  0.00000000E+00
  0.00000000E+00  0.00000000E+00  0.00000000E+00
  0.00000000E+00  0.00000000E+00  0.00000000E+00
  0.00000000E+00  0.00000000E+00  0.00000000E+00
  0.00000000E+00  0.00000000E+00  0.00000000E+00
  0.00000000E+00  0.00000000E+00  0.00000000E+00
  0.00000000E+00  0.00000000E+00  0.00000000E+00
  0.00000000E+00  0.00000000E+00  0.00000000E+00
  0.00000000E+00  0.00000000E+00  0.00000000E+00
  0.00000000E+00  0.00000000E+00  0.00000000E+00
  0.00000000E+00  0.00000000E+00  0.00000000E+00
  0.00000000E+00  0.00000000E+00  0.00000000E+00
  0.00000000E+00  0.00000000E+00  0.00000000E+00
  0.00000000E+00  0.00000000E+00  0.00000000E+00
  0.00000000E+00  0.00000000E+00  0.00000000E+00
  0.00000000E+00  0.00000000E+00  0.00000000E+00
  0.00000000E+00  0.00000000E+00  0.00000000E+00
  0.00000000E+00  0.00000000E+00  0.00000000E+00
  0.00000000E+00  0.00000000E+00  0.00000000E+00
  0.00000000E+00  0.00000000E+00  0.00000000E+00
  0.00000000E+00  0.00000000E+00  0.00000000E+00
  0.00000000E+00  0.00000000E+00  0.00000000E+00
  0.00000000E+00  0.00000000E+00  0.00000000E+00
  0.00000000E+00  0.00000000E+00  0.00000000E+00
  0.00000000E+00  0.00000000E+00  0.00000000E+00
  0.00000000E+00  0.00000000E+00  0.00000000E+00
  0.00000000E+00  0.00000000E+00  0.00000000E+00
  0.00000000E+00  0.00000000E+00  0.00000000E+00
  0.00000000E+00  0.00000000E+00  0.00000000E+00
  0.00000000E+00  0.00000000E+00  0.00000000E+00
  0.00000000E+00  0.00000000E+00  0.00000000E+00
  0.00000000E+00  0.00000000E+00  0.00000000E+00
  0.00000000E+00  0.00000000E+00  0.00000000E+00
  0.00000000E+00  0.00000000E+00  0.00000000E+00
  0.00000000E+00  0.00000000E+00  0.00000000E+00
  0.00000000E+00  0.00000000E+00  0.00000000E+00
  0.00000000E+00  0.00000000E+00  0.00000000E+00
  0.00000000E+00  0.00000000E+00  0.00000000E+00
  0.00000000E+00  0.00000000E+00  0.00000000E+00
  0.00000000E+00  0.00000000E+00  0.00000000E+00
  0.00000000E+00  0.00000000E+00  0.00000000E+00
  0.00000000E+00  0.00000000E+00  0.00000000E+00
  0.00000000E+00  0.00000000E+00  0.00000000E+00
  0.00000000E+00  0.00000000E+00  0.00000000E+00
  0.00000000E+00  0.00000000E+00  0.00000000E+00
  0.00000000E+00  0.00000000E+00  0.00000000E+00
  0.00000000E+00  0.00000000E+00  0.00000000E+00
  0.00000000E+00  0.00000000E+00  0.00000000E+00
  0.00000000E+00  0.00000000E+00  0.00000000E+00
  0.00000000E+00  0.00000000E+00  0.00000000E+00
  0.00000000E+00  0.00000000E+00  0.00000000E+00
  0.00000000E+00  0.00000000E+00  0.00000000E+00
  0.00000000E+00  0.00000000E+00  0.00000000E+00
  0.00000000E+00  0.00000000E+00  0.00000000E+00
  0.00000000E+00  0.00000000E+00  0.00000000E+00
  0.00000000E+00  0.00000000E+00  0.00000000E+00
  0.00000000E+00  0.00000000E+00  0.00000000E+00
  0.00000000E+00  0.00000000E+00  0.00000000E+00
  0.00000000E+00  0.00000000E+00  0.00000000E+00
  0.00000000E+00  0.00000000E+00  0.00000000E+00
  0.00000000E+00  0.00000000E+00  0.00000000E+00
  0.00000000E+00  0.00000000E+00  0.00000000E+00
  0.00000000E+00  0.00000000E+00  0.00000000E+00
  0.00000000E+00  0.00000000E+00  0.00000000E+00
  0.00000000E+00  0.00000000E+00  0.00000000E+00
  0.00000000E+00  0.00000000E+00  0.00000000E+00
