CONTCAR\(3)                             
   1.00000000000000     
    12.4804000853999995    0.0000000000000000    0.0000000000000000
    -6.2402000426999997   10.8083435233999996    0.0000000000000000
     0.0000000000000000    0.0000000000000000   39.2775001525999983
   Ge   Te   As   O    H 
    45    72    18     1     1
Selective dynamics
Direct
  0.0053012405708088  0.0045792875842139  0.5008987769548412   F   F   F
  0.1183725844210102  0.2266317690688169  0.6803640470771342   F   F   F
  0.2264157924387646  0.1144533387916624  0.5901154866331311   F   F   F
  0.2284531116583821  0.1147182703579759  0.3214298351996874   F   F   F
  0.1171473580551705  0.2267106826739393  0.4111714119616394   F   F   F
  0.3390576169340420  0.0050471876368618  0.5002349565916191   F   F   F
  0.4517667900750766  0.2285180595791516  0.6794779691240933   F   F   F
  0.5613815840957059  0.1137735372401210  0.5899815076139348   F   F   F
  0.5609738046531945  0.1144211163237259  0.3215627289641887   F   F   F
  0.4500026161831912  0.2265482633548004  0.4114966515647183   F   F   F
  0.6741090885737648  0.0051349531338900  0.5006201912943169   F   F   F
  0.7813692280249214  0.2268438218479005  0.6801559456986652   F   F   F
  0.8920198213126724  0.1133513682941327  0.5916994884031155   F   F   F
  0.8942283967010383  0.1148920259259611  0.3213816860408016   F   F   F
  0.7836224265346345  0.2266388361571714  0.4113517921494108   F   F   F
  0.0054673024202927  0.3368320441729722  0.5009870856554031   F   F   F
  0.1174403976026923  0.5644941032041331  0.6800814520438010   F   F   F
  0.2263012215052242  0.4486853064257659  0.5902068987955928   F   F   F
  0.2278938812424443  0.4485873272128913  0.3214754135833928   F   F   F
  0.1159583245156881  0.5591560928308539  0.4112926458469062   F   F   F
  0.3371722166779705  0.3366591720471561  0.5012349260624518   F   F   F
  0.4509682092506537  0.5602681614880964  0.6794319450455646   F   F   F
  0.5610489781392332  0.4486447454004008  0.5895817897658020   F   F   F
  0.5611497425891940  0.4481555220726818  0.3216128237472091   F   F   F
  0.4503674524531860  0.5589791680123284  0.4115802116894685   F   F   F
  0.6722968499469317  0.3371459430212624  0.5011097115577172   F   F   F
  0.7836940948130149  0.5608712256683503  0.6789888614352577   F   F   F
  0.8962698115774970  0.4477608531158666  0.5900314959636148   F   F   F
  0.8943281600551245  0.4482740507742591  0.3215848365170544   F   F   F
  0.7821849347625900  0.5587667755190537  0.4116224366492602   F   F   F
  0.0055755315563175  0.6710383084166835  0.5003685085156775   F   F   F
  0.1192954263460706  0.8902441311705260  0.6805818413525913   F   F   F
  0.2298668703356839  0.7830339623824969  0.5896046971687028   F   F   F
  0.2279238652499203  0.7811522565863100  0.3217185769084665   F   F   F
  0.1163653203304875  0.8929226510414523  0.4111885029967155   F   F   F
  0.3397053589328962  0.6707701715681011  0.5002245964251486   F   F   F
  0.4427290873885781  0.8908786160348257  0.6811782797149917   F   F   F
  0.5608807757360381  0.7838504164698890  0.5899753901878313   F   F   F
  0.5606115851741578  0.7816798836122487  0.3216332227955476   F   F   F
  0.4504756233104104  0.8928796999423341  0.4113521228361705   F   F   F
  0.6728619259587560  0.6705952817602494  0.5010400226949301   F   F   F
  0.7817668716588884  0.8923304603257591  0.6797841254917714   F   F   F
  0.8957830452084110  0.7838033174961438  0.5898553197995682   F   F   F
  0.8944089413154757  0.7816040385180969  0.3215831971505736   F   F   F
  0.7839677483986023  0.8929832016158628  0.4111878241999563   F   F   F
  0.2174429184130773  0.1061491448849736  0.7232219880088948   F   F   F
  0.2141953499076763  0.1026029748880788  0.4555290786902333   F   F   F
  0.1050749345168143  0.2149839214139746  0.2775671285385286   F   F   F
  0.1028425106445496  0.2136413630686747  0.5446693528207902   F   F   F
  0.9925585673118391  0.9919261183546624  0.3665066027017403   F   F   F
  0.9924257653573250  0.9927914744920301  0.6335756095371394   F   F   F
  0.2168945192455780  0.1046120370128207  0.1914875226828343   F   F   F
  0.1063910060736788  0.2178537413392334  0.8089591179717033   F   F   F
  0.5492388689071888  0.1058146581382005  0.7234496986896701   F   F   F
  0.5482682113734043  0.1030733132141393  0.4555618708420113   F   F   F
  0.4387666378626207  0.2151068938432772  0.2775295607607617   F   F   F
  0.4363816030722774  0.2135302271584578  0.5447573208647825   F   F   F
  0.3257336649983245  0.9916977346826741  0.3666076840364880   F   F   F
  0.3271147610855394  0.9932003716180589  0.6336013416730637   F   F   F
  0.5503593027490297  0.1045035668753229  0.1914122995914056   F   F   F
  0.4443553396527022  0.2258689823739459  0.8115033409504662   F   F   F
  0.8826923862800555  0.1052721827564298  0.7230676116800083   F   F   F
  0.8819188563802385  0.1033277943899691  0.4553757217204932   F   F   F
  0.7716912434869414  0.2151571453557324  0.2777105469690326   F   F   F
  0.7704864568681913  0.2146847985015583  0.5444521317263664   F   F   F
  0.6593396609159257  0.9919259910298663  0.3665937139525894   F   F   F
  0.6596505206710646  0.9928473898249308  0.6334970833290896   F   F   F
  0.8840055143963070  0.1049712664243501  0.1914968226043428   F   F   F
  0.7724506324783889  0.2168054359913185  0.8094162929999555   F   F   F
  0.2163373215145157  0.4397029643430841  0.7229293967648829   F   F   F
  0.2141709814496835  0.4360945972051624  0.4556582532803475   F   F   F
  0.1048964704525090  0.5485969703718609  0.2776450399540380   F   F   F
  0.1037669705315380  0.5480538409795344  0.5446094480413990   F   F   F
  0.9924279251862700  0.3248802795787284  0.3665244094263898   F   F   F
  0.9921598694592859  0.3255747983466293  0.6337712018531363   F   F   F
  0.2174245964716377  0.4381854797455560  0.1916174521662555   F   F   F
  0.1052702045435794  0.5502251783671070  0.8096232625313817   F   F   F
  0.5497302573721257  0.4386358330829978  0.7232464913367167   F   F   F
  0.5471433812692865  0.4359510857810989  0.4557451824076608   F   F   F
  0.4386717323252114  0.5489669606149548  0.2775191394141103   F   F   F
  0.4363840687368352  0.5475987458175808  0.5447698986897933   F   F   F
  0.3258810360265443  0.3250561701862722  0.3663435979748186   F   F   F
  0.3259293165776427  0.3256201499770910  0.6340403619952326   F   F   F
  0.5507335308868235  0.4381879168981655  0.1914480741067166   F   F   F
  0.4397700702061371  0.5519677368217017  0.8103810330996311   F   F   F
  0.8837200550003956  0.4391863334118540  0.7226917336390173   F   F   F
  0.8811318132649291  0.4362079930971063  0.4557046038631682   F   F   F
  0.7718702655475127  0.5483244177913278  0.2776518256066325   F   F   F
  0.7706080496976853  0.5477017370665322  0.5447888049398983   F   F   F
  0.6588984327529346  0.3247795247339127  0.3665288306748096   F   F   F
  0.6594597335698538  0.3257968820269070  0.6337756990715917   F   F   F
  0.8838214683151051  0.4383706844524795  0.1912489437604208   F   F   F
  0.7779285475757760  0.5529136447696459  0.8100347248580420   F   F   F
  0.2180968018345411  0.7734127437585059  0.7208199522439713   F   F   F
  0.2145483696643780  0.7694450070284589  0.4556449559566360   F   F   F
  0.1049150774128194  0.8815912488683253  0.2776609451283818   F   F   F
  0.1039913009914386  0.8811334492081215  0.5444824337689695   F   F   F
  0.9918049280650436  0.6578284860845898  0.3666868727414538   F   F   F
  0.9926702873267530  0.6596443631556284  0.6334096807639824   F   F   F
  0.2170183973977231  0.7715303422655495  0.1913588557308472   F   F   F
  0.1066199714043634  0.8847700417931819  0.8096149507897863   F   F   F
  0.5502198408206809  0.7713298945032747  0.7233455099439965   F   F   F
  0.5484507206199041  0.7699707309897121  0.4556147687525538   F   F   F
  0.4383223315567477  0.8818751054690850  0.2777472916767181   F   F   F
  0.4374886822336919  0.8815451655459867  0.5443832604510632   F   F   F
  0.3253693263076229  0.6583877548173760  0.3666215607151244   F   F   F
  0.3273122126428092  0.6598173578270092  0.6334628810373601   F   F   F
  0.5507098353701068  0.7714757319610115  0.1915121489851757   F   F   F
  0.4387481869618242  0.8846672772373196  0.8098463170108943   F   F   F
  0.8828679556690204  0.7723756424428174  0.7227833363258611   F   F   F
  0.8812636269447651  0.7694704716747722  0.4556322824537560   F   F   F
  0.7717884392798879  0.8817848022356642  0.2777576162510584   F   F   F
  0.7708725851183758  0.8815648459984828  0.5443900550758585   F   F   F
  0.6589090293472992  0.6582531229102742  0.3665341244239926   F   F   F
  0.6596018414405052  0.6592089782215140  0.6338560005612663   F   F   F
  0.8837174307896376  0.7714739632569803  0.1913668139238212   F   F   F
  0.7729985315943395  0.8847871055968000  0.8093559564181163   F   F   F
  0.0054652289153907  0.0040366101942340  0.2306658999861213   F   F   F
  0.0085181736263351  0.0064253543982531  0.7699168609169931   F   F   F
  0.3388792615692964  0.0044320673120737  0.2304662972279061   F   F   F
  0.3406762159381884  0.0066341738673685  0.7726701065482118   F   F   F
  0.6726632677864472  0.0048187346306818  0.2305742371049249   F   F   F
  0.6727935934695424  0.0049814321387842  0.7703819628266046   F   F   F
  0.0057200506591641  0.3381262159921192  0.2305665350433443   F   F   F
  0.0065433058608519  0.3397276422799465  0.7696086512982845   F   F   F
  0.3394015323925643  0.3379569436401297  0.2307196538744094   F   F   F
  0.3389541958349085  0.3385350270240508  0.7705819375913094   F   F   F
  0.6727579887863087  0.3385651119137023  0.2305169609273250   F   F   F
  0.6710448028995373  0.3359029192152505  0.7714146137080604   F   F   F
  0.0055280489623470  0.6712378394898124  0.2304678955119996   F   F   F
  0.9970880718635655  0.6668826974059598  0.7729275263249562   F   F   F
  0.3392103981942611  0.6712003236580770  0.2306262822678846   F   F   F
  0.3402600786246381  0.6686825991921737  0.7726322900239850   F   F   F
  0.6724609766200587  0.6711373833519474  0.2305261351561825   F   F   F
  0.6729950544563366  0.6745529256633276  0.7704533498345327   F   F   F
  0.5421686701051627  0.4285375525326884  0.8358869566231064   T   T   T
  0.5377610635734982  0.4216576622714996  0.8603482693745468   T   T   T
 
  0.00000000E+00  0.00000000E+00  0.00000000E+00
  0.00000000E+00  0.00000000E+00  0.00000000E+00
  0.00000000E+00  0.00000000E+00  0.00000000E+00
  0.00000000E+00  0.00000000E+00  0.00000000E+00
  0.00000000E+00  0.00000000E+00  0.00000000E+00
  0.00000000E+00  0.00000000E+00  0.00000000E+00
  0.00000000E+00  0.00000000E+00  0.00000000E+00
  0.00000000E+00  0.00000000E+00  0.00000000E+00
  0.00000000E+00  0.00000000E+00  0.00000000E+00
  0.00000000E+00  0.00000000E+00  0.00000000E+00
  0.00000000E+00  0.00000000E+00  0.00000000E+00
  0.00000000E+00  0.00000000E+00  0.00000000E+00
  0.00000000E+00  0.00000000E+00  0.00000000E+00
  0.00000000E+00  0.00000000E+00  0.00000000E+00
  0.00000000E+00  0.00000000E+00  0.00000000E+00
  0.00000000E+00  0.00000000E+00  0.00000000E+00
  0.00000000E+00  0.00000000E+00  0.00000000E+00
  0.00000000E+00  0.00000000E+00  0.00000000E+00
  0.00000000E+00  0.00000000E+00  0.00000000E+00
  0.00000000E+00  0.00000000E+00  0.00000000E+00
  0.00000000E+00  0.00000000E+00  0.00000000E+00
  0.00000000E+00  0.00000000E+00  0.00000000E+00
  0.00000000E+00  0.00000000E+00  0.00000000E+00
  0.00000000E+00  0.00000000E+00  0.00000000E+00
  0.00000000E+00  0.00000000E+00  0.00000000E+00
  0.00000000E+00  0.00000000E+00  0.00000000E+00
  0.00000000E+00  0.00000000E+00  0.00000000E+00
  0.00000000E+00  0.00000000E+00  0.00000000E+00
  0.00000000E+00  0.00000000E+00  0.00000000E+00
  0.00000000E+00  0.00000000E+00  0.00000000E+00
  0.00000000E+00  0.00000000E+00  0.00000000E+00
  0.00000000E+00  0.00000000E+00  0.00000000E+00
  0.00000000E+00  0.00000000E+00  0.00000000E+00
  0.00000000E+00  0.00000000E+00  0.00000000E+00
  0.00000000E+00  0.00000000E+00  0.00000000E+00
  0.00000000E+00  0.00000000E+00  0.00000000E+00
  0.00000000E+00  0.00000000E+00  0.00000000E+00
  0.00000000E+00  0.00000000E+00  0.00000000E+00
  0.00000000E+00  0.00000000E+00  0.00000000E+00
  0.00000000E+00  0.00000000E+00  0.00000000E+00
  0.00000000E+00  0.00000000E+00  0.00000000E+00
  0.00000000E+00  0.00000000E+00  0.00000000E+00
  0.00000000E+00  0.00000000E+00  0.00000000E+00
  0.00000000E+00  0.00000000E+00  0.00000000E+00
  0.00000000E+00  0.00000000E+00  0.00000000E+00
  0.00000000E+00  0.00000000E+00  0.00000000E+00
  0.00000000E+00  0.00000000E+00  0.00000000E+00
  0.00000000E+00  0.00000000E+00  0.00000000E+00
  0.00000000E+00  0.00000000E+00  0.00000000E+00
  0.00000000E+00  0.00000000E+00  0.00000000E+00
  0.00000000E+00  0.00000000E+00  0.00000000E+00
  0.00000000E+00  0.00000000E+00  0.00000000E+00
  0.00000000E+00  0.00000000E+00  0.00000000E+00
  0.00000000E+00  0.00000000E+00  0.00000000E+00
  0.00000000E+00  0.00000000E+00  0.00000000E+00
  0.00000000E+00  0.00000000E+00  0.00000000E+00
  0.00000000E+00  0.00000000E+00  0.00000000E+00
  0.00000000E+00  0.00000000E+00  0.00000000E+00
  0.00000000E+00  0.00000000E+00  0.00000000E+00
  0.00000000E+00  0.00000000E+00  0.00000000E+00
  0.00000000E+00  0.00000000E+00  0.00000000E+00
  0.00000000E+00  0.00000000E+00  0.00000000E+00
  0.00000000E+00  0.00000000E+00  0.00000000E+00
  0.00000000E+00  0.00000000E+00  0.00000000E+00
  0.00000000E+00  0.00000000E+00  0.00000000E+00
  0.00000000E+00  0.00000000E+00  0.00000000E+00
  0.00000000E+00  0.00000000E+00  0.00000000E+00
  0.00000000E+00  0.00000000E+00  0.00000000E+00
  0.00000000E+00  0.00000000E+00  0.00000000E+00
  0.00000000E+00  0.00000000E+00  0.00000000E+00
  0.00000000E+00  0.00000000E+00  0.00000000E+00
  0.00000000E+00  0.00000000E+00  0.00000000E+00
  0.00000000E+00  0.00000000E+00  0.00000000E+00
  0.00000000E+00  0.00000000E+00  0.00000000E+00
  0.00000000E+00  0.00000000E+00  0.00000000E+00
  0.00000000E+00  0.00000000E+00  0.00000000E+00
  0.00000000E+00  0.00000000E+00  0.00000000E+00
  0.00000000E+00  0.00000000E+00  0.00000000E+00
  0.00000000E+00  0.00000000E+00  0.00000000E+00
  0.00000000E+00  0.00000000E+00  0.00000000E+00
  0.00000000E+00  0.00000000E+00  0.00000000E+00
  0.00000000E+00  0.00000000E+00  0.00000000E+00
  0.00000000E+00  0.00000000E+00  0.00000000E+00
  0.00000000E+00  0.00000000E+00  0.00000000E+00
  0.00000000E+00  0.00000000E+00  0.00000000E+00
  0.00000000E+00  0.00000000E+00  0.00000000E+00
  0.00000000E+00  0.00000000E+00  0.00000000E+00
  0.00000000E+00  0.00000000E+00  0.00000000E+00
  0.00000000E+00  0.00000000E+00  0.00000000E+00
  0.00000000E+00  0.00000000E+00  0.00000000E+00
  0.00000000E+00  0.00000000E+00  0.00000000E+00
  0.00000000E+00  0.00000000E+00  0.00000000E+00
  0.00000000E+00  0.00000000E+00  0.00000000E+00
  0.00000000E+00  0.00000000E+00  0.00000000E+00
  0.00000000E+00  0.00000000E+00  0.00000000E+00
  0.00000000E+00  0.00000000E+00  0.00000000E+00
  0.00000000E+00  0.00000000E+00  0.00000000E+00
  0.00000000E+00  0.00000000E+00  0.00000000E+00
  0.00000000E+00  0.00000000E+00  0.00000000E+00
  0.00000000E+00  0.00000000E+00  0.00000000E+00
  0.00000000E+00  0.00000000E+00  0.00000000E+00
  0.00000000E+00  0.00000000E+00  0.00000000E+00
  0.00000000E+00  0.00000000E+00  0.00000000E+00
  0.00000000E+00  0.00000000E+00  0.00000000E+00
  0.00000000E+00  0.00000000E+00  0.00000000E+00
  0.00000000E+00  0.00000000E+00  0.00000000E+00
  0.00000000E+00  0.00000000E+00  0.00000000E+00
  0.00000000E+00  0.00000000E+00  0.00000000E+00
  0.00000000E+00  0.00000000E+00  0.00000000E+00
  0.00000000E+00  0.00000000E+00  0.00000000E+00
  0.00000000E+00  0.00000000E+00  0.00000000E+00
  0.00000000E+00  0.00000000E+00  0.00000000E+00
  0.00000000E+00  0.00000000E+00  0.00000000E+00
  0.00000000E+00  0.00000000E+00  0.00000000E+00
  0.00000000E+00  0.00000000E+00  0.00000000E+00
  0.00000000E+00  0.00000000E+00  0.00000000E+00
  0.00000000E+00  0.00000000E+00  0.00000000E+00
  0.00000000E+00  0.00000000E+00  0.00000000E+00
  0.00000000E+00  0.00000000E+00  0.00000000E+00
  0.00000000E+00  0.00000000E+00  0.00000000E+00
  0.00000000E+00  0.00000000E+00  0.00000000E+00
  0.00000000E+00  0.00000000E+00  0.00000000E+00
  0.00000000E+00  0.00000000E+00  0.00000000E+00
  0.00000000E+00  0.00000000E+00  0.00000000E+00
  0.00000000E+00  0.00000000E+00  0.00000000E+00
  0.00000000E+00  0.00000000E+00  0.00000000E+00
  0.00000000E+00  0.00000000E+00  0.00000000E+00
  0.00000000E+00  0.00000000E+00  0.00000000E+00
  0.00000000E+00  0.00000000E+00  0.00000000E+00
  0.00000000E+00  0.00000000E+00  0.00000000E+00
  0.00000000E+00  0.00000000E+00  0.00000000E+00
  0.00000000E+00  0.00000000E+00  0.00000000E+00
  0.00000000E+00  0.00000000E+00  0.00000000E+00
  0.00000000E+00  0.00000000E+00  0.00000000E+00
  0.00000000E+00  0.00000000E+00  0.00000000E+00
  0.00000000E+00  0.00000000E+00  0.00000000E+00
  0.00000000E+00  0.00000000E+00  0.00000000E+00
