 Y2 C2 I2                               
   1.00000000000000     
     3.8747506579325197    0.0000000000000000    0.0000000000000000
     1.9373753289662599    3.6309308186226539    0.0000000000000000
     0.0000000000000000    0.0000000000000000   21.9749709552480006
   Y    C    I 
     2     2     2
Direct
  0.3139036165721905  0.3719384728063275  0.4373178841638392
  0.0476547557267750  0.9049446718300445  0.5626846950874622
  0.7605291602881508  0.4786524273723387  0.5147910889517249
  0.6010278470661490  0.7982320153562341  0.4852147317553843
  0.3846109537595623  0.2306977392849276  0.6582389843883689
  0.9769986665871784  0.0460826733501420  0.3417526156532205
 
  0.00000000E+00  0.00000000E+00  0.00000000E+00
  0.00000000E+00  0.00000000E+00  0.00000000E+00
  0.00000000E+00  0.00000000E+00  0.00000000E+00
  0.00000000E+00  0.00000000E+00  0.00000000E+00
  0.00000000E+00  0.00000000E+00  0.00000000E+00
  0.00000000E+00  0.00000000E+00  0.00000000E+00
