G   59   55    1    0.005     # Parameters to Generate KPOINTS (Don't Edit This Line)
    1623
Reciprocal lattice
    0.000000000000    0.000000000000    0.000000000000       1
    0.016949152542    0.000000000000    0.000000000000       2
    0.033898305085    0.000000000000    0.000000000000       2
    0.050847457627    0.000000000000    0.000000000000       2
    0.067796610169    0.000000000000    0.000000000000       2
    0.084745762712    0.000000000000    0.000000000000       2
    0.101694915254    0.000000000000    0.000000000000       2
    0.118644067797    0.000000000000    0.000000000000       2
    0.135593220339    0.000000000000    0.000000000000       2
    0.152542372881    0.000000000000    0.000000000000       2
    0.169491525424    0.000000000000    0.000000000000       2
    0.186440677966    0.000000000000    0.000000000000       2
    0.203389830508    0.000000000000    0.000000000000       2
    0.220338983051    0.000000000000    0.000000000000       2
    0.237288135593    0.000000000000    0.000000000000       2
    0.254237288136    0.000000000000    0.000000000000       2
    0.271186440678    0.000000000000    0.000000000000       2
    0.288135593220    0.000000000000    0.000000000000       2
    0.305084745763    0.000000000000    0.000000000000       2
    0.322033898305    0.000000000000    0.000000000000       2
    0.338983050847    0.000000000000    0.000000000000       2
    0.355932203390    0.000000000000    0.000000000000       2
    0.372881355932    0.000000000000    0.000000000000       2
    0.389830508475    0.000000000000    0.000000000000       2
    0.406779661017    0.000000000000    0.000000000000       2
    0.423728813559    0.000000000000    0.000000000000       2
    0.440677966102    0.000000000000    0.000000000000       2
    0.457627118644    0.000000000000    0.000000000000       2
    0.474576271186    0.000000000000    0.000000000000       2
    0.491525423729    0.000000000000    0.000000000000       2
    0.000000000000    0.018181818182    0.000000000000       2
    0.016949152542    0.018181818182    0.000000000000       2
    0.033898305085    0.018181818182    0.000000000000       2
    0.050847457627    0.018181818182    0.000000000000       2
    0.067796610169    0.018181818182    0.000000000000       2
    0.084745762712    0.018181818182    0.000000000000       2
    0.101694915254    0.018181818182    0.000000000000       2
    0.118644067797    0.018181818182    0.000000000000       2
    0.135593220339    0.018181818182    0.000000000000       2
    0.152542372881    0.018181818182    0.000000000000       2
    0.169491525424    0.018181818182    0.000000000000       2
    0.186440677966    0.018181818182    0.000000000000       2
    0.203389830508    0.018181818182    0.000000000000       2
    0.220338983051    0.018181818182    0.000000000000       2
    0.237288135593    0.018181818182    0.000000000000       2
    0.254237288136    0.018181818182    0.000000000000       2
    0.271186440678    0.018181818182    0.000000000000       2
    0.288135593220    0.018181818182    0.000000000000       2
    0.305084745763    0.018181818182    0.000000000000       2
    0.322033898305    0.018181818182    0.000000000000       2
    0.338983050847    0.018181818182    0.000000000000       2
    0.355932203390    0.018181818182    0.000000000000       2
    0.372881355932    0.018181818182    0.000000000000       2
    0.389830508475    0.018181818182    0.000000000000       2
    0.406779661017    0.018181818182    0.000000000000       2
    0.423728813559    0.018181818182    0.000000000000       2
    0.440677966102    0.018181818182    0.000000000000       2
    0.457627118644    0.018181818182    0.000000000000       2
    0.474576271186    0.018181818182    0.000000000000       2
    0.491525423729    0.018181818182    0.000000000000       2
   -0.491525423729    0.018181818182    0.000000000000       2
   -0.474576271186    0.018181818182    0.000000000000       2
   -0.457627118644    0.018181818182    0.000000000000       2
   -0.440677966102    0.018181818182    0.000000000000       2
   -0.423728813559    0.018181818182    0.000000000000       2
   -0.406779661017    0.018181818182    0.000000000000       2
   -0.389830508475    0.018181818182    0.000000000000       2
   -0.372881355932    0.018181818182    0.000000000000       2
   -0.355932203390    0.018181818182    0.000000000000       2
   -0.338983050847    0.018181818182    0.000000000000       2
   -0.322033898305    0.018181818182    0.000000000000       2
   -0.305084745763    0.018181818182    0.000000000000       2
   -0.288135593220    0.018181818182    0.000000000000       2
   -0.271186440678    0.018181818182    0.000000000000       2
   -0.254237288136    0.018181818182    0.000000000000       2
   -0.237288135593    0.018181818182    0.000000000000       2
   -0.220338983051    0.018181818182    0.000000000000       2
   -0.203389830508    0.018181818182    0.000000000000       2
   -0.186440677966    0.018181818182    0.000000000000       2
   -0.169491525424    0.018181818182    0.000000000000       2
   -0.152542372881    0.018181818182    0.000000000000       2
   -0.135593220339    0.018181818182    0.000000000000       2
   -0.118644067797    0.018181818182    0.000000000000       2
   -0.101694915254    0.018181818182    0.000000000000       2
   -0.084745762712    0.018181818182    0.000000000000       2
   -0.067796610169    0.018181818182    0.000000000000       2
   -0.050847457627    0.018181818182    0.000000000000       2
   -0.033898305085    0.018181818182    0.000000000000       2
   -0.016949152542    0.018181818182    0.000000000000       2
    0.000000000000    0.036363636364    0.000000000000       2
    0.016949152542    0.036363636364    0.000000000000       2
    0.033898305085    0.036363636364    0.000000000000       2
    0.050847457627    0.036363636364    0.000000000000       2
    0.067796610169    0.036363636364    0.000000000000       2
    0.084745762712    0.036363636364    0.000000000000       2
    0.101694915254    0.036363636364    0.000000000000       2
    0.118644067797    0.036363636364    0.000000000000       2
    0.135593220339    0.036363636364    0.000000000000       2
    0.152542372881    0.036363636364    0.000000000000       2
    0.169491525424    0.036363636364    0.000000000000       2
    0.186440677966    0.036363636364    0.000000000000       2
    0.203389830508    0.036363636364    0.000000000000       2
    0.220338983051    0.036363636364    0.000000000000       2
    0.237288135593    0.036363636364    0.000000000000       2
    0.254237288136    0.036363636364    0.000000000000       2
    0.271186440678    0.036363636364    0.000000000000       2
    0.288135593220    0.036363636364    0.000000000000       2
    0.305084745763    0.036363636364    0.000000000000       2
    0.322033898305    0.036363636364    0.000000000000       2
    0.338983050847    0.036363636364    0.000000000000       2
    0.355932203390    0.036363636364    0.000000000000       2
    0.372881355932    0.036363636364    0.000000000000       2
    0.389830508475    0.036363636364    0.000000000000       2
    0.406779661017    0.036363636364    0.000000000000       2
    0.423728813559    0.036363636364    0.000000000000       2
    0.440677966102    0.036363636364    0.000000000000       2
    0.457627118644    0.036363636364    0.000000000000       2
    0.474576271186    0.036363636364    0.000000000000       2
    0.491525423729    0.036363636364    0.000000000000       2
   -0.491525423729    0.036363636364    0.000000000000       2
   -0.474576271186    0.036363636364    0.000000000000       2
   -0.457627118644    0.036363636364    0.000000000000       2
   -0.440677966102    0.036363636364    0.000000000000       2
   -0.423728813559    0.036363636364    0.000000000000       2
   -0.406779661017    0.036363636364    0.000000000000       2
   -0.389830508475    0.036363636364    0.000000000000       2
   -0.372881355932    0.036363636364    0.000000000000       2
   -0.355932203390    0.036363636364    0.000000000000       2
   -0.338983050847    0.036363636364    0.000000000000       2
   -0.322033898305    0.036363636364    0.000000000000       2
   -0.305084745763    0.036363636364    0.000000000000       2
   -0.288135593220    0.036363636364    0.000000000000       2
   -0.271186440678    0.036363636364    0.000000000000       2
   -0.254237288136    0.036363636364    0.000000000000       2
   -0.237288135593    0.036363636364    0.000000000000       2
   -0.220338983051    0.036363636364    0.000000000000       2
   -0.203389830508    0.036363636364    0.000000000000       2
   -0.186440677966    0.036363636364    0.000000000000       2
   -0.169491525424    0.036363636364    0.000000000000       2
   -0.152542372881    0.036363636364    0.000000000000       2
   -0.135593220339    0.036363636364    0.000000000000       2
   -0.118644067797    0.036363636364    0.000000000000       2
   -0.101694915254    0.036363636364    0.000000000000       2
   -0.084745762712    0.036363636364    0.000000000000       2
   -0.067796610169    0.036363636364    0.000000000000       2
   -0.050847457627    0.036363636364    0.000000000000       2
   -0.033898305085    0.036363636364    0.000000000000       2
   -0.016949152542    0.036363636364    0.000000000000       2
    0.000000000000    0.054545454545    0.000000000000       2
    0.016949152542    0.054545454545    0.000000000000       2
    0.033898305085    0.054545454545    0.000000000000       2
    0.050847457627    0.054545454545    0.000000000000       2
    0.067796610169    0.054545454545    0.000000000000       2
    0.084745762712    0.054545454545    0.000000000000       2
    0.101694915254    0.054545454545    0.000000000000       2
    0.118644067797    0.054545454545    0.000000000000       2
    0.135593220339    0.054545454545    0.000000000000       2
    0.152542372881    0.054545454545    0.000000000000       2
    0.169491525424    0.054545454545    0.000000000000       2
    0.186440677966    0.054545454545    0.000000000000       2
    0.203389830508    0.054545454545    0.000000000000       2
    0.220338983051    0.054545454545    0.000000000000       2
    0.237288135593    0.054545454545    0.000000000000       2
    0.254237288136    0.054545454545    0.000000000000       2
    0.271186440678    0.054545454545    0.000000000000       2
    0.288135593220    0.054545454545    0.000000000000       2
    0.305084745763    0.054545454545    0.000000000000       2
    0.322033898305    0.054545454545    0.000000000000       2
    0.338983050847    0.054545454545    0.000000000000       2
    0.355932203390    0.054545454545    0.000000000000       2
    0.372881355932    0.054545454545    0.000000000000       2
    0.389830508475    0.054545454545    0.000000000000       2
    0.406779661017    0.054545454545    0.000000000000       2
    0.423728813559    0.054545454545    0.000000000000       2
    0.440677966102    0.054545454545    0.000000000000       2
    0.457627118644    0.054545454545    0.000000000000       2
    0.474576271186    0.054545454545    0.000000000000       2
    0.491525423729    0.054545454545    0.000000000000       2
   -0.491525423729    0.054545454545    0.000000000000       2
   -0.474576271186    0.054545454545    0.000000000000       2
   -0.457627118644    0.054545454545    0.000000000000       2
   -0.440677966102    0.054545454545    0.000000000000       2
   -0.423728813559    0.054545454545    0.000000000000       2
   -0.406779661017    0.054545454545    0.000000000000       2
   -0.389830508475    0.054545454545    0.000000000000       2
   -0.372881355932    0.054545454545    0.000000000000       2
   -0.355932203390    0.054545454545    0.000000000000       2
   -0.338983050847    0.054545454545    0.000000000000       2
   -0.322033898305    0.054545454545    0.000000000000       2
   -0.305084745763    0.054545454545    0.000000000000       2
   -0.288135593220    0.054545454545    0.000000000000       2
   -0.271186440678    0.054545454545    0.000000000000       2
   -0.254237288136    0.054545454545    0.000000000000       2
   -0.237288135593    0.054545454545    0.000000000000       2
   -0.220338983051    0.054545454545    0.000000000000       2
   -0.203389830508    0.054545454545    0.000000000000       2
   -0.186440677966    0.054545454545    0.000000000000       2
   -0.169491525424    0.054545454545    0.000000000000       2
   -0.152542372881    0.054545454545    0.000000000000       2
   -0.135593220339    0.054545454545    0.000000000000       2
   -0.118644067797    0.054545454545    0.000000000000       2
   -0.101694915254    0.054545454545    0.000000000000       2
   -0.084745762712    0.054545454545    0.000000000000       2
   -0.067796610169    0.054545454545    0.000000000000       2
   -0.050847457627    0.054545454545    0.000000000000       2
   -0.033898305085    0.054545454545    0.000000000000       2
   -0.016949152542    0.054545454545    0.000000000000       2
    0.000000000000    0.072727272727    0.000000000000       2
    0.016949152542    0.072727272727    0.000000000000       2
    0.033898305085    0.072727272727    0.000000000000       2
    0.050847457627    0.072727272727    0.000000000000       2
    0.067796610169    0.072727272727    0.000000000000       2
    0.084745762712    0.072727272727    0.000000000000       2
    0.101694915254    0.072727272727    0.000000000000       2
    0.118644067797    0.072727272727    0.000000000000       2
    0.135593220339    0.072727272727    0.000000000000       2
    0.152542372881    0.072727272727    0.000000000000       2
    0.169491525424    0.072727272727    0.000000000000       2
    0.186440677966    0.072727272727    0.000000000000       2
    0.203389830508    0.072727272727    0.000000000000       2
    0.220338983051    0.072727272727    0.000000000000       2
    0.237288135593    0.072727272727    0.000000000000       2
    0.254237288136    0.072727272727    0.000000000000       2
    0.271186440678    0.072727272727    0.000000000000       2
    0.288135593220    0.072727272727    0.000000000000       2
    0.305084745763    0.072727272727    0.000000000000       2
    0.322033898305    0.072727272727    0.000000000000       2
    0.338983050847    0.072727272727    0.000000000000       2
    0.355932203390    0.072727272727    0.000000000000       2
    0.372881355932    0.072727272727    0.000000000000       2
    0.389830508475    0.072727272727    0.000000000000       2
    0.406779661017    0.072727272727    0.000000000000       2
    0.423728813559    0.072727272727    0.000000000000       2
    0.440677966102    0.072727272727    0.000000000000       2
    0.457627118644    0.072727272727    0.000000000000       2
    0.474576271186    0.072727272727    0.000000000000       2
    0.491525423729    0.072727272727    0.000000000000       2
   -0.491525423729    0.072727272727    0.000000000000       2
   -0.474576271186    0.072727272727    0.000000000000       2
   -0.457627118644    0.072727272727    0.000000000000       2
   -0.440677966102    0.072727272727    0.000000000000       2
   -0.423728813559    0.072727272727    0.000000000000       2
   -0.406779661017    0.072727272727    0.000000000000       2
   -0.389830508475    0.072727272727    0.000000000000       2
   -0.372881355932    0.072727272727    0.000000000000       2
   -0.355932203390    0.072727272727    0.000000000000       2
   -0.338983050847    0.072727272727    0.000000000000       2
   -0.322033898305    0.072727272727    0.000000000000       2
   -0.305084745763    0.072727272727    0.000000000000       2
   -0.288135593220    0.072727272727    0.000000000000       2
   -0.271186440678    0.072727272727    0.000000000000       2
   -0.254237288136    0.072727272727    0.000000000000       2
   -0.237288135593    0.072727272727    0.000000000000       2
   -0.220338983051    0.072727272727    0.000000000000       2
   -0.203389830508    0.072727272727    0.000000000000       2
   -0.186440677966    0.072727272727    0.000000000000       2
   -0.169491525424    0.072727272727    0.000000000000       2
   -0.152542372881    0.072727272727    0.000000000000       2
   -0.135593220339    0.072727272727    0.000000000000       2
   -0.118644067797    0.072727272727    0.000000000000       2
   -0.101694915254    0.072727272727    0.000000000000       2
   -0.084745762712    0.072727272727    0.000000000000       2
   -0.067796610169    0.072727272727    0.000000000000       2
   -0.050847457627    0.072727272727    0.000000000000       2
   -0.033898305085    0.072727272727    0.000000000000       2
   -0.016949152542    0.072727272727    0.000000000000       2
    0.000000000000    0.090909090909    0.000000000000       2
    0.016949152542    0.090909090909    0.000000000000       2
    0.033898305085    0.090909090909    0.000000000000       2
    0.050847457627    0.090909090909    0.000000000000       2
    0.067796610169    0.090909090909    0.000000000000       2
    0.084745762712    0.090909090909    0.000000000000       2
    0.101694915254    0.090909090909    0.000000000000       2
    0.118644067797    0.090909090909    0.000000000000       2
    0.135593220339    0.090909090909    0.000000000000       2
    0.152542372881    0.090909090909    0.000000000000       2
    0.169491525424    0.090909090909    0.000000000000       2
    0.186440677966    0.090909090909    0.000000000000       2
    0.203389830508    0.090909090909    0.000000000000       2
    0.220338983051    0.090909090909    0.000000000000       2
    0.237288135593    0.090909090909    0.000000000000       2
    0.254237288136    0.090909090909    0.000000000000       2
    0.271186440678    0.090909090909    0.000000000000       2
    0.288135593220    0.090909090909    0.000000000000       2
    0.305084745763    0.090909090909    0.000000000000       2
    0.322033898305    0.090909090909    0.000000000000       2
    0.338983050847    0.090909090909    0.000000000000       2
    0.355932203390    0.090909090909    0.000000000000       2
    0.372881355932    0.090909090909    0.000000000000       2
    0.389830508475    0.090909090909    0.000000000000       2
    0.406779661017    0.090909090909    0.000000000000       2
    0.423728813559    0.090909090909    0.000000000000       2
    0.440677966102    0.090909090909    0.000000000000       2
    0.457627118644    0.090909090909    0.000000000000       2
    0.474576271186    0.090909090909    0.000000000000       2
    0.491525423729    0.090909090909    0.000000000000       2
   -0.491525423729    0.090909090909    0.000000000000       2
   -0.474576271186    0.090909090909    0.000000000000       2
   -0.457627118644    0.090909090909    0.000000000000       2
   -0.440677966102    0.090909090909    0.000000000000       2
   -0.423728813559    0.090909090909    0.000000000000       2
   -0.406779661017    0.090909090909    0.000000000000       2
   -0.389830508475    0.090909090909    0.000000000000       2
   -0.372881355932    0.090909090909    0.000000000000       2
   -0.355932203390    0.090909090909    0.000000000000       2
   -0.338983050847    0.090909090909    0.000000000000       2
   -0.322033898305    0.090909090909    0.000000000000       2
   -0.305084745763    0.090909090909    0.000000000000       2
   -0.288135593220    0.090909090909    0.000000000000       2
   -0.271186440678    0.090909090909    0.000000000000       2
   -0.254237288136    0.090909090909    0.000000000000       2
   -0.237288135593    0.090909090909    0.000000000000       2
   -0.220338983051    0.090909090909    0.000000000000       2
   -0.203389830508    0.090909090909    0.000000000000       2
   -0.186440677966    0.090909090909    0.000000000000       2
   -0.169491525424    0.090909090909    0.000000000000       2
   -0.152542372881    0.090909090909    0.000000000000       2
   -0.135593220339    0.090909090909    0.000000000000       2
   -0.118644067797    0.090909090909    0.000000000000       2
   -0.101694915254    0.090909090909    0.000000000000       2
   -0.084745762712    0.090909090909    0.000000000000       2
   -0.067796610169    0.090909090909    0.000000000000       2
   -0.050847457627    0.090909090909    0.000000000000       2
   -0.033898305085    0.090909090909    0.000000000000       2
   -0.016949152542    0.090909090909    0.000000000000       2
    0.000000000000    0.109090909091    0.000000000000       2
    0.016949152542    0.109090909091    0.000000000000       2
    0.033898305085    0.109090909091    0.000000000000       2
    0.050847457627    0.109090909091    0.000000000000       2
    0.067796610169    0.109090909091    0.000000000000       2
    0.084745762712    0.109090909091    0.000000000000       2
    0.101694915254    0.109090909091    0.000000000000       2
    0.118644067797    0.109090909091    0.000000000000       2
    0.135593220339    0.109090909091    0.000000000000       2
    0.152542372881    0.109090909091    0.000000000000       2
    0.169491525424    0.109090909091    0.000000000000       2
    0.186440677966    0.109090909091    0.000000000000       2
    0.203389830508    0.109090909091    0.000000000000       2
    0.220338983051    0.109090909091    0.000000000000       2
    0.237288135593    0.109090909091    0.000000000000       2
    0.254237288136    0.109090909091    0.000000000000       2
    0.271186440678    0.109090909091    0.000000000000       2
    0.288135593220    0.109090909091    0.000000000000       2
    0.305084745763    0.109090909091    0.000000000000       2
    0.322033898305    0.109090909091    0.000000000000       2
    0.338983050847    0.109090909091    0.000000000000       2
    0.355932203390    0.109090909091    0.000000000000       2
    0.372881355932    0.109090909091    0.000000000000       2
    0.389830508475    0.109090909091    0.000000000000       2
    0.406779661017    0.109090909091    0.000000000000       2
    0.423728813559    0.109090909091    0.000000000000       2
    0.440677966102    0.109090909091    0.000000000000       2
    0.457627118644    0.109090909091    0.000000000000       2
    0.474576271186    0.109090909091    0.000000000000       2
    0.491525423729    0.109090909091    0.000000000000       2
   -0.491525423729    0.109090909091    0.000000000000       2
   -0.474576271186    0.109090909091    0.000000000000       2
   -0.457627118644    0.109090909091    0.000000000000       2
   -0.440677966102    0.109090909091    0.000000000000       2
   -0.423728813559    0.109090909091    0.000000000000       2
   -0.406779661017    0.109090909091    0.000000000000       2
   -0.389830508475    0.109090909091    0.000000000000       2
   -0.372881355932    0.109090909091    0.000000000000       2
   -0.355932203390    0.109090909091    0.000000000000       2
   -0.338983050847    0.109090909091    0.000000000000       2
   -0.322033898305    0.109090909091    0.000000000000       2
   -0.305084745763    0.109090909091    0.000000000000       2
   -0.288135593220    0.109090909091    0.000000000000       2
   -0.271186440678    0.109090909091    0.000000000000       2
   -0.254237288136    0.109090909091    0.000000000000       2
   -0.237288135593    0.109090909091    0.000000000000       2
   -0.220338983051    0.109090909091    0.000000000000       2
   -0.203389830508    0.109090909091    0.000000000000       2
   -0.186440677966    0.109090909091    0.000000000000       2
   -0.169491525424    0.109090909091    0.000000000000       2
   -0.152542372881    0.109090909091    0.000000000000       2
   -0.135593220339    0.109090909091    0.000000000000       2
   -0.118644067797    0.109090909091    0.000000000000       2
   -0.101694915254    0.109090909091    0.000000000000       2
   -0.084745762712    0.109090909091    0.000000000000       2
   -0.067796610169    0.109090909091    0.000000000000       2
   -0.050847457627    0.109090909091    0.000000000000       2
   -0.033898305085    0.109090909091    0.000000000000       2
   -0.016949152542    0.109090909091    0.000000000000       2
    0.000000000000    0.127272727273    0.000000000000       2
    0.016949152542    0.127272727273    0.000000000000       2
    0.033898305085    0.127272727273    0.000000000000       2
    0.050847457627    0.127272727273    0.000000000000       2
    0.067796610169    0.127272727273    0.000000000000       2
    0.084745762712    0.127272727273    0.000000000000       2
    0.101694915254    0.127272727273    0.000000000000       2
    0.118644067797    0.127272727273    0.000000000000       2
    0.135593220339    0.127272727273    0.000000000000       2
    0.152542372881    0.127272727273    0.000000000000       2
    0.169491525424    0.127272727273    0.000000000000       2
    0.186440677966    0.127272727273    0.000000000000       2
    0.203389830508    0.127272727273    0.000000000000       2
    0.220338983051    0.127272727273    0.000000000000       2
    0.237288135593    0.127272727273    0.000000000000       2
    0.254237288136    0.127272727273    0.000000000000       2
    0.271186440678    0.127272727273    0.000000000000       2
    0.288135593220    0.127272727273    0.000000000000       2
    0.305084745763    0.127272727273    0.000000000000       2
    0.322033898305    0.127272727273    0.000000000000       2
    0.338983050847    0.127272727273    0.000000000000       2
    0.355932203390    0.127272727273    0.000000000000       2
    0.372881355932    0.127272727273    0.000000000000       2
    0.389830508475    0.127272727273    0.000000000000       2
    0.406779661017    0.127272727273    0.000000000000       2
    0.423728813559    0.127272727273    0.000000000000       2
    0.440677966102    0.127272727273    0.000000000000       2
    0.457627118644    0.127272727273    0.000000000000       2
    0.474576271186    0.127272727273    0.000000000000       2
    0.491525423729    0.127272727273    0.000000000000       2
   -0.491525423729    0.127272727273    0.000000000000       2
   -0.474576271186    0.127272727273    0.000000000000       2
   -0.457627118644    0.127272727273    0.000000000000       2
   -0.440677966102    0.127272727273    0.000000000000       2
   -0.423728813559    0.127272727273    0.000000000000       2
   -0.406779661017    0.127272727273    0.000000000000       2
   -0.389830508475    0.127272727273    0.000000000000       2
   -0.372881355932    0.127272727273    0.000000000000       2
   -0.355932203390    0.127272727273    0.000000000000       2
   -0.338983050847    0.127272727273    0.000000000000       2
   -0.322033898305    0.127272727273    0.000000000000       2
   -0.305084745763    0.127272727273    0.000000000000       2
   -0.288135593220    0.127272727273    0.000000000000       2
   -0.271186440678    0.127272727273    0.000000000000       2
   -0.254237288136    0.127272727273    0.000000000000       2
   -0.237288135593    0.127272727273    0.000000000000       2
   -0.220338983051    0.127272727273    0.000000000000       2
   -0.203389830508    0.127272727273    0.000000000000       2
   -0.186440677966    0.127272727273    0.000000000000       2
   -0.169491525424    0.127272727273    0.000000000000       2
   -0.152542372881    0.127272727273    0.000000000000       2
   -0.135593220339    0.127272727273    0.000000000000       2
   -0.118644067797    0.127272727273    0.000000000000       2
   -0.101694915254    0.127272727273    0.000000000000       2
   -0.084745762712    0.127272727273    0.000000000000       2
   -0.067796610169    0.127272727273    0.000000000000       2
   -0.050847457627    0.127272727273    0.000000000000       2
   -0.033898305085    0.127272727273    0.000000000000       2
   -0.016949152542    0.127272727273    0.000000000000       2
    0.000000000000    0.145454545455    0.000000000000       2
    0.016949152542    0.145454545455    0.000000000000       2
    0.033898305085    0.145454545455    0.000000000000       2
    0.050847457627    0.145454545455    0.000000000000       2
    0.067796610169    0.145454545455    0.000000000000       2
    0.084745762712    0.145454545455    0.000000000000       2
    0.101694915254    0.145454545455    0.000000000000       2
    0.118644067797    0.145454545455    0.000000000000       2
    0.135593220339    0.145454545455    0.000000000000       2
    0.152542372881    0.145454545455    0.000000000000       2
    0.169491525424    0.145454545455    0.000000000000       2
    0.186440677966    0.145454545455    0.000000000000       2
    0.203389830508    0.145454545455    0.000000000000       2
    0.220338983051    0.145454545455    0.000000000000       2
    0.237288135593    0.145454545455    0.000000000000       2
    0.254237288136    0.145454545455    0.000000000000       2
    0.271186440678    0.145454545455    0.000000000000       2
    0.288135593220    0.145454545455    0.000000000000       2
    0.305084745763    0.145454545455    0.000000000000       2
    0.322033898305    0.145454545455    0.000000000000       2
    0.338983050847    0.145454545455    0.000000000000       2
    0.355932203390    0.145454545455    0.000000000000       2
    0.372881355932    0.145454545455    0.000000000000       2
    0.389830508475    0.145454545455    0.000000000000       2
    0.406779661017    0.145454545455    0.000000000000       2
    0.423728813559    0.145454545455    0.000000000000       2
    0.440677966102    0.145454545455    0.000000000000       2
    0.457627118644    0.145454545455    0.000000000000       2
    0.474576271186    0.145454545455    0.000000000000       2
    0.491525423729    0.145454545455    0.000000000000       2
   -0.491525423729    0.145454545455    0.000000000000       2