CONTCAR\(9)                             
   1.00000000000000     
    13.1094999313000002    0.0000000000000000    0.0000000000000000
    -6.5547499657000001   11.3531599714000002    0.0000000000000000
     0.0000000000000000    0.0000000000000000   20.2374000549000002
   Na   Hf   N    O    H 
    32    16    32     1     1
Direct
  0.1667475605643247  0.0835011223728799  0.3737833565291240
  0.0841550541112142  0.1675707369701200  0.6266451736219238
  0.4169724411477276  0.0834945459060350  0.3736972689888134
  0.3334256344432660  0.1675669084580136  0.6266306335351572
  0.6671308735903523  0.0842568290900942  0.3734168948795400
  0.5833886124398902  0.1666925934590253  0.6271501802350201
  0.9165254317241960  0.0834991573854111  0.3736981306160274
  0.8333178884457979  0.1666844070656595  0.6271607900570828
  0.1655420177248672  0.3323820597392810  0.3730746554074216
  0.0859247636432698  0.4179600148081093  0.6269474202710796
  0.4168154900634775  0.3323749922422650  0.3730736604310891
  0.3394701345265929  0.4288862133022562  0.6307657780671647
  0.6671217041703841  0.3328825501070440  0.3734166621146215
  0.5820630237676454  0.4179738095816532  0.6269344252600817
  0.9157680171704428  0.3328834809258581  0.3734218519080699
  0.8333141034576244  0.4166222672427224  0.6271492752945846
  0.1655531508491777  0.5831632392107977  0.3730807276188273
  0.0841431491435287  0.6665850609627029  0.6266307932209969
  0.4166671828152815  0.5833263944469920  0.3725923108012381
  0.3394675190520573  0.6605922158105315  0.6307550021118402
  0.6676187754362601  0.5831685834148601  0.3730613120736237
  0.5712331960904038  0.6606187940923860  0.6307303751212743
  0.9165195021228101  0.5830304454371458  0.3736944817353844
  0.8324502678033738  0.6665864195677287  0.6266216122426513
  0.1667509204866775  0.8332586183212527  0.3737810563103565
  0.0833345056954897  0.9166647366490537  0.6270368146511487
  0.4168362461873372  0.8344561029533466  0.3730760278426146
  0.3334253395057161  0.9158657773966894  0.6266288729316045
  0.6676179085590590  0.8344751806288428  0.3730551518912719
  0.5820560804334178  0.9140704710865108  0.6269420446342693
  0.9165191910641752  0.8332677007327547  0.3737766962786111
  0.8324443457196438  0.9158547032116076  0.6266364756372909
  0.9999661634035348  0.0000445852096078  0.5002383959950905
  0.2500893827404340  0.0000474195285634  0.5002328657499078
  0.4999113953986480  0.9994855062869590  0.5003179447199173
  0.7495880671712172  0.9994871168567556  0.5003194689126360
  0.0005247026029309  0.2504266056886877  0.5003287466756063
  0.2506098310691982  0.2512069417017528  0.5007619503815661
  0.4999104567173873  0.2504274439036962  0.5003165026322094
  0.7500095858927480  0.2500048681033391  0.5005694053244483
  0.0005228568301732  0.5000961046207948  0.5003201589316433
  0.2508791728610476  0.5004389934172906  0.4993775170149632
  0.4995744943371179  0.5004361437544134  0.4993664847409107
  0.7495868985900316  0.5000997830608611  0.5003093463317754
  0.9999633917452329  0.7499211120457261  0.5002287483291070
  0.2506093304183707  0.7494052228575043  0.5007520875420397
  0.4995749600036703  0.7491378844379142  0.4993646432941503
  0.7488150866428498  0.7494087999756616  0.5007411273685349
  0.1667577561614522  0.0834947933446912  0.5574361976748179
  0.0829496532571667  0.1664225629229037  0.4434190462774978
  0.4166847739925217  0.0833430119525360  0.5575620276387738
  0.3334705185448072  0.1664240801662729  0.4434093937795751
  0.6664099148584910  0.0828161533116329  0.5577358181444154
  0.5836073013974499  0.1668081289131749  0.4436444270728828
  0.9166723815593514  0.0833370893889267  0.5575708557474641
  0.8332141969062477  0.1668038319121621  0.4436547907365167
  0.1678235313698551  0.3345057598469410  0.5571195438462553
  0.0821229344103003  0.4160458682845274  0.4424728673428717
  0.4167198311584812  0.3344948463350690  0.5571009868458603
  0.3325066559926526  0.4150422057287315  0.4413462552794698
  0.6664210883617727  0.3335927863181212  0.5577305618230213
  0.5839326530288034  0.4160719157286081  0.4424560201575005
  0.9171907990512693  0.3336003500593421  0.5577392564918853
  0.8332049064160003  0.4164002638893365  0.4436422421239072
  0.1678025787766160  0.5833286380258400  0.5571047798421276
  0.0829499847601625  0.6665254104124330  0.4434051171180329
  0.4166869671850861  0.5833432244017445  0.5505900426669257
  0.3325396008498558  0.6674689544781245  0.4413442062863453
  0.6655287390123021  0.5832996817933847  0.5570902528238975
  0.5849674457326373  0.6675029176965239  0.4413343981276441
  0.9166668142867351  0.5833245353282237  0.5575588857196365
  0.8335889796799449  0.6665368155176310  0.4433977021971813
  0.1667517296582801  0.8332559841249108  0.5574302897909860
  0.0833397336357322  0.9166744835025824  0.4434390803937944
  0.4166884900743710  0.8322141685634961  0.5570979130602751
  0.3334822901007044  0.9170630458187006  0.4434050090259447
  0.6655168872209174  0.8321965488905150  0.5571017496176296
  0.5839649661472563  0.9178949520726292  0.4424635384217908
  0.9165131640412554  0.8332497762130799  0.5574285710191447
  0.8335957269776486  0.9170683618219329  0.4434075815651255
  0.4168255640050873  0.5834284050754661  0.7045611880107998
  0.4170861810087061  0.5835902311306924  0.7525388520656975
 
  0.00000000E+00  0.00000000E+00  0.00000000E+00
  0.00000000E+00  0.00000000E+00  0.00000000E+00
  0.00000000E+00  0.00000000E+00  0.00000000E+00
  0.00000000E+00  0.00000000E+00  0.00000000E+00
  0.00000000E+00  0.00000000E+00  0.00000000E+00
  0.00000000E+00  0.00000000E+00  0.00000000E+00
  0.00000000E+00  0.00000000E+00  0.00000000E+00
  0.00000000E+00  0.00000000E+00  0.00000000E+00
  0.00000000E+00  0.00000000E+00  0.00000000E+00
  0.00000000E+00  0.00000000E+00  0.00000000E+00
  0.00000000E+00  0.00000000E+00  0.00000000E+00
  0.00000000E+00  0.00000000E+00  0.00000000E+00
  0.00000000E+00  0.00000000E+00  0.00000000E+00
  0.00000000E+00  0.00000000E+00  0.00000000E+00
  0.00000000E+00  0.00000000E+00  0.00000000E+00
  0.00000000E+00  0.00000000E+00  0.00000000E+00
  0.00000000E+00  0.00000000E+00  0.00000000E+00
  0.00000000E+00  0.00000000E+00  0.00000000E+00
  0.00000000E+00  0.00000000E+00  0.00000000E+00
  0.00000000E+00  0.00000000E+00  0.00000000E+00
  0.00000000E+00  0.00000000E+00  0.00000000E+00
  0.00000000E+00  0.00000000E+00  0.00000000E+00
  0.00000000E+00  0.00000000E+00  0.00000000E+00
  0.00000000E+00  0.00000000E+00  0.00000000E+00
  0.00000000E+00  0.00000000E+00  0.00000000E+00
  0.00000000E+00  0.00000000E+00  0.00000000E+00
  0.00000000E+00  0.00000000E+00  0.00000000E+00
  0.00000000E+00  0.00000000E+00  0.00000000E+00
  0.00000000E+00  0.00000000E+00  0.00000000E+00
  0.00000000E+00  0.00000000E+00  0.00000000E+00
  0.00000000E+00  0.00000000E+00  0.00000000E+00
  0.00000000E+00  0.00000000E+00  0.00000000E+00
  0.00000000E+00  0.00000000E+00  0.00000000E+00
  0.00000000E+00  0.00000000E+00  0.00000000E+00
  0.00000000E+00  0.00000000E+00  0.00000000E+00
  0.00000000E+00  0.00000000E+00  0.00000000E+00
  0.00000000E+00  0.00000000E+00  0.00000000E+00
  0.00000000E+00  0.00000000E+00  0.00000000E+00
  0.00000000E+00  0.00000000E+00  0.00000000E+00
  0.00000000E+00  0.00000000E+00  0.00000000E+00
  0.00000000E+00  0.00000000E+00  0.00000000E+00
  0.00000000E+00  0.00000000E+00  0.00000000E+00
  0.00000000E+00  0.00000000E+00  0.00000000E+00
  0.00000000E+00  0.00000000E+00  0.00000000E+00
  0.00000000E+00  0.00000000E+00  0.00000000E+00
  0.00000000E+00  0.00000000E+00  0.00000000E+00
  0.00000000E+00  0.00000000E+00  0.00000000E+00
  0.00000000E+00  0.00000000E+00  0.00000000E+00
  0.00000000E+00  0.00000000E+00  0.00000000E+00
  0.00000000E+00  0.00000000E+00  0.00000000E+00
  0.00000000E+00  0.00000000E+00  0.00000000E+00
  0.00000000E+00  0.00000000E+00  0.00000000E+00
  0.00000000E+00  0.00000000E+00  0.00000000E+00
  0.00000000E+00  0.00000000E+00  0.00000000E+00
  0.00000000E+00  0.00000000E+00  0.00000000E+00
  0.00000000E+00  0.00000000E+00  0.00000000E+00
  0.00000000E+00  0.00000000E+00  0.00000000E+00
  0.00000000E+00  0.00000000E+00  0.00000000E+00
  0.00000000E+00  0.00000000E+00  0.00000000E+00
  0.00000000E+00  0.00000000E+00  0.00000000E+00
  0.00000000E+00  0.00000000E+00  0.00000000E+00
  0.00000000E+00  0.00000000E+00  0.00000000E+00
  0.00000000E+00  0.00000000E+00  0.00000000E+00
  0.00000000E+00  0.00000000E+00  0.00000000E+00
  0.00000000E+00  0.00000000E+00  0.00000000E+00
  0.00000000E+00  0.00000000E+00  0.00000000E+00
  0.00000000E+00  0.00000000E+00  0.00000000E+00
  0.00000000E+00  0.00000000E+00  0.00000000E+00
  0.00000000E+00  0.00000000E+00  0.00000000E+00
  0.00000000E+00  0.00000000E+00  0.00000000E+00
  0.00000000E+00  0.00000000E+00  0.00000000E+00
  0.00000000E+00  0.00000000E+00  0.00000000E+00
  0.00000000E+00  0.00000000E+00  0.00000000E+00
  0.00000000E+00  0.00000000E+00  0.00000000E+00
  0.00000000E+00  0.00000000E+00  0.00000000E+00
  0.00000000E+00  0.00000000E+00  0.00000000E+00
  0.00000000E+00  0.00000000E+00  0.00000000E+00
  0.00000000E+00  0.00000000E+00  0.00000000E+00
  0.00000000E+00  0.00000000E+00  0.00000000E+00
  0.00000000E+00  0.00000000E+00  0.00000000E+00
  0.00000000E+00  0.00000000E+00  0.00000000E+00
  0.00000000E+00  0.00000000E+00  0.00000000E+00
