CONTCAR\(2)                             
   1.00000000000000     
    12.6843996047999994    0.0000000000000000    0.0000000000000000
     0.0000000000000000   11.4939002990999999    0.0000000000000000
     0.0000000000000000    0.0000000000000000   18.8276996612999987
   Nb   Si   Te   O 
    12     4    24     1
Selective dynamics
Direct
  0.0841542551468919  0.0839097645970242  0.4993507601522396   F   F   F
  0.3353666596374651  0.9192393182341831  0.5017540453233735   F   F   F
  0.3499886012980511  0.2174212003276921  0.5034942151598827   F   F   F
  0.0998190869600393  0.7899113514314280  0.5010401903309827   F   F   F
  0.4872433477898426  0.5567008280348418  0.5129830473153234   F   F   F
  0.2268027435249778  0.4394660331711719  0.5037159518420609   F   F   F
  0.5825014328001501  0.0842251866275703  0.5017597762226913   F   F   F
  0.8339009873957011  0.9176579735143306  0.4993109361849690   F   F   F
  0.8498382161952449  0.2172839257017927  0.5006620413982361   F   F   F
  0.5981158400177549  0.7864503042128987  0.5023900795933685   F   F   F
  0.9853030082315399  0.5656555830604049  0.5002834561848317   F   F   F
  0.7361626455164654  0.4409752081771146  0.5030902932061281   F   F   F
  0.0366063044388198  0.3275621103415887  0.4978362362647886   F   F   F
  0.2899979247680662  0.6776036422663694  0.5060112509634322   F   F   F
  0.5431250164893626  0.3178810752738528  0.5017254932374087   F   F   F
  0.7912214430353686  0.6805091815834885  0.4988403211024561   F   F   F
  0.4264742126535452  0.0678569652795034  0.6057709624912420   F   F   F
  0.1770511551270175  0.9347965938884357  0.3970768204992723   F   F   F
  0.1750793211651001  0.9361197792145219  0.6044169082264119   F   F   F
  0.4245693317124903  0.0709228300332754  0.3987695292072999   F   F   F
  0.3609272515212822  0.3820579239236608  0.6167934468202390   F   F   F
  0.1517739738925385  0.5999854680810159  0.4028791668256702   F   F   F
  0.1442132385627062  0.6000274426779129  0.6024157890557689   F   F   F
  0.3964483641171768  0.4130490141646348  0.4078569224256938   F   F   F
  0.1678123623937893  0.2427760996732431  0.6005780169878321   F   F   F
  0.4264563608891621  0.7531300088404649  0.4077133582670101   F   F   F
  0.4283742563783619  0.7646989253411220  0.6006228739154551   F   F   F
  0.1804582685398231  0.2480972512315063  0.4042797165577525   F   F   F
  0.9252775776308297  0.0676811363011183  0.6025076651750538   F   F   F
  0.6734061286434070  0.9334859440880265  0.3981739629530949   F   F   F
  0.6775035415976873  0.9350912865632850  0.6037380941817858   F   F   F
  0.9243976917115191  0.0696527406408691  0.3966623203401198   F   F   F
  0.9006828649139393  0.4063524598158281  0.6004829202278685   F   F   F
  0.6481063080076552  0.5971330987277312  0.4041973275276902   F   F   F
  0.6669817256606194  0.6083057698018592  0.6026092182836749   F   F   F
  0.8979508638057112  0.4082243560801047  0.4003378987510828   F   F   F
  0.6802673084646571  0.2466982438203971  0.5993074039135138   F   F   F
  0.9318911585782530  0.7569535946256849  0.4020535177108542   F   F   F
  0.9279875866119625  0.7571385562095330  0.5972037191095083   F   F   F
  0.6760570791849219  0.2495150300927946  0.4046832972374403   F   F   F
  0.4790348819900743  0.5018565903277121  0.6097643053306437   T   T   T
 
  0.00000000E+00  0.00000000E+00  0.00000000E+00
  0.00000000E+00  0.00000000E+00  0.00000000E+00
  0.00000000E+00  0.00000000E+00  0.00000000E+00
  0.00000000E+00  0.00000000E+00  0.00000000E+00
  0.00000000E+00  0.00000000E+00  0.00000000E+00
  0.00000000E+00  0.00000000E+00  0.00000000E+00
  0.00000000E+00  0.00000000E+00  0.00000000E+00
  0.00000000E+00  0.00000000E+00  0.00000000E+00
  0.00000000E+00  0.00000000E+00  0.00000000E+00
  0.00000000E+00  0.00000000E+00  0.00000000E+00
  0.00000000E+00  0.00000000E+00  0.00000000E+00
  0.00000000E+00  0.00000000E+00  0.00000000E+00
  0.00000000E+00  0.00000000E+00  0.00000000E+00
  0.00000000E+00  0.00000000E+00  0.00000000E+00
  0.00000000E+00  0.00000000E+00  0.00000000E+00
  0.00000000E+00  0.00000000E+00  0.00000000E+00
  0.00000000E+00  0.00000000E+00  0.00000000E+00
  0.00000000E+00  0.00000000E+00  0.00000000E+00
  0.00000000E+00  0.00000000E+00  0.00000000E+00
  0.00000000E+00  0.00000000E+00  0.00000000E+00
  0.00000000E+00  0.00000000E+00  0.00000000E+00
  0.00000000E+00  0.00000000E+00  0.00000000E+00
  0.00000000E+00  0.00000000E+00  0.00000000E+00
  0.00000000E+00  0.00000000E+00  0.00000000E+00
  0.00000000E+00  0.00000000E+00  0.00000000E+00
  0.00000000E+00  0.00000000E+00  0.00000000E+00
  0.00000000E+00  0.00000000E+00  0.00000000E+00
  0.00000000E+00  0.00000000E+00  0.00000000E+00
  0.00000000E+00  0.00000000E+00  0.00000000E+00
  0.00000000E+00  0.00000000E+00  0.00000000E+00
  0.00000000E+00  0.00000000E+00  0.00000000E+00
  0.00000000E+00  0.00000000E+00  0.00000000E+00
  0.00000000E+00  0.00000000E+00  0.00000000E+00
  0.00000000E+00  0.00000000E+00  0.00000000E+00
  0.00000000E+00  0.00000000E+00  0.00000000E+00
  0.00000000E+00  0.00000000E+00  0.00000000E+00
  0.00000000E+00  0.00000000E+00  0.00000000E+00
  0.00000000E+00  0.00000000E+00  0.00000000E+00
  0.00000000E+00  0.00000000E+00  0.00000000E+00
  0.00000000E+00  0.00000000E+00  0.00000000E+00
  0.00000000E+00  0.00000000E+00  0.00000000E+00
