CONTCAR\(7)                             
   1.00000000000000     
    13.0895996094000004    0.0000000000000000    0.0000000000000000
     6.5373165239000004   11.3368964473999991    0.0000000000000000
     0.0000000000000000    0.0000000000000000   17.7437992095999988
   Cr   S    O 
    16    32     1
Selective dynamics
Direct
  0.0084303559278709  0.2302486648712687  0.4949967394475436   F   F   F
  0.2704292812483402  0.2442766461976760  0.4978440192341154   F   F   F
  0.5148541784999381  0.2261952235459432  0.5014537019187841   F   F   F
  0.7735529035816313  0.2278585348841631  0.5019091572056524   F   F   F
  0.0029605195330902  0.5055421368838680  0.4982313180028299   F   F   F
  0.2454371886966058  0.4912171403619183  0.5058155025542064   F   F   F
  0.5008781027990352  0.4667050063968432  0.5277479185296485   F   F   F
  0.7902787296751654  0.4622398533430356  0.5018442606878821   F   F   F
  0.9825630585689069  0.7492558232885287  0.4995464307538882   F   F   F
  0.2373655976227695  0.7866854682299760  0.5042524656069531   F   F   F
  0.4609550055505238  0.8016472626432645  0.4979893938501618   F   F   F
  0.7580532767730190  0.7469116526220034  0.4938236912167255   F   F   F
  0.0046020528700907  0.9994285981117272  0.4989054112062306   F   F   F
  0.2340622884307209  0.0059542934334473  0.4949323508670247   F   F   F
  0.4951872339287675  0.0143686805638126  0.4963000582569705   F   F   F
  0.7532214850112311  0.9884163491656821  0.4990618490987586   F   F   F
  0.0818624388042153  0.0805822332011061  0.4112861821094214   F   F   F
  0.1708158392798325  0.1700388279988942  0.5726987611438616   F   F   F
  0.3295750282729344  0.0896168843828491  0.4183102133473469   F   F   F
  0.4249985665847333  0.1592745317734412  0.5843681819026187   F   F   F
  0.5865281305066006  0.0785124944164508  0.4154616434890883   F   F   F
  0.6801960461363734  0.1491446947246899  0.5791448770695951   F   F   F
  0.8387324179986280  0.0712844312967746  0.4194447730294897   F   F   F
  0.9285048410291665  0.1580918575050347  0.5830801363249236   F   F   F
  0.0928597906598441  0.3285104962079330  0.4295641640215209   F   F   F
  0.1668531627814147  0.4137338509700896  0.5818424039257124   F   F   F
  0.3447442937802805  0.3366348418865925  0.4232414831916529   F   F   F
  0.4190672060944252  0.3857108148197312  0.5913514153897879   F   F   F
  0.5899731614061139  0.3305584997357798  0.4339075245162718   F   F   F
  0.6893839147694933  0.3927678674486188  0.5804591089029145   F   F   F
  0.8447612352494644  0.3191450603307828  0.4170524035528729   F   F   F
  0.9368704646686510  0.4006338120625301  0.5792450013848764   F   F   F
  0.0909243085038085  0.5812369188072068  0.4214467237729949   F   F   F
  0.1608912621199465  0.6741670723823390  0.5686200112397870   F   F   F
  0.3453214053053273  0.5905631176198440  0.4528732290254567   F   F   F
  0.3721069710338512  0.7238723283280848  0.5986486022283515   F   F   F
  0.5778224004143055  0.5982103941166557  0.4717103864407335   F   F   F
  0.6483063773101634  0.6591736390778564  0.5589509254761822   F   F   F
  0.8369113620178794  0.5712963582268529  0.4206473070037546   F   F   F
  0.9082153334401184  0.6654246839341056  0.5818862552118276   F   F   F
  0.0818304940030714  0.8288343808097238  0.4260815047487014   F   F   F
  0.1566477766195007  0.9350542622800830  0.5855760174665363   F   F   F
  0.3198601518168260  0.8461932322543007  0.4133770899480353   F   F   F
  0.3989208909161732  0.9420419926721522  0.5795674880494559   F   F   F
  0.5761589048532940  0.8395410049646728  0.4226462286052595   F   F   F
  0.6629112519575742  0.9084361260779872  0.5746062415473006   F   F   F
  0.8327634816714280  0.8253251456876995  0.4127751604381871   F   F   F
  0.9189111890013137  0.9122370170047347  0.5765775191868840   F   F   F
  0.4524980142755268  0.5878103984512677  0.6057309511283869   T   T   T
 
  0.00000000E+00  0.00000000E+00  0.00000000E+00
  0.00000000E+00  0.00000000E+00  0.00000000E+00
  0.00000000E+00  0.00000000E+00  0.00000000E+00
  0.00000000E+00  0.00000000E+00  0.00000000E+00
  0.00000000E+00  0.00000000E+00  0.00000000E+00
  0.00000000E+00  0.00000000E+00  0.00000000E+00
  0.00000000E+00  0.00000000E+00  0.00000000E+00
  0.00000000E+00  0.00000000E+00  0.00000000E+00
  0.00000000E+00  0.00000000E+00  0.00000000E+00
  0.00000000E+00  0.00000000E+00  0.00000000E+00
  0.00000000E+00  0.00000000E+00  0.00000000E+00
  0.00000000E+00  0.00000000E+00  0.00000000E+00
  0.00000000E+00  0.00000000E+00  0.00000000E+00
  0.00000000E+00  0.00000000E+00  0.00000000E+00
  0.00000000E+00  0.00000000E+00  0.00000000E+00
  0.00000000E+00  0.00000000E+00  0.00000000E+00
  0.00000000E+00  0.00000000E+00  0.00000000E+00
  0.00000000E+00  0.00000000E+00  0.00000000E+00
  0.00000000E+00  0.00000000E+00  0.00000000E+00
  0.00000000E+00  0.00000000E+00  0.00000000E+00
  0.00000000E+00  0.00000000E+00  0.00000000E+00
  0.00000000E+00  0.00000000E+00  0.00000000E+00
  0.00000000E+00  0.00000000E+00  0.00000000E+00
  0.00000000E+00  0.00000000E+00  0.00000000E+00
  0.00000000E+00  0.00000000E+00  0.00000000E+00
  0.00000000E+00  0.00000000E+00  0.00000000E+00
  0.00000000E+00  0.00000000E+00  0.00000000E+00
  0.00000000E+00  0.00000000E+00  0.00000000E+00
  0.00000000E+00  0.00000000E+00  0.00000000E+00
  0.00000000E+00  0.00000000E+00  0.00000000E+00
  0.00000000E+00  0.00000000E+00  0.00000000E+00
  0.00000000E+00  0.00000000E+00  0.00000000E+00
  0.00000000E+00  0.00000000E+00  0.00000000E+00
  0.00000000E+00  0.00000000E+00  0.00000000E+00
  0.00000000E+00  0.00000000E+00  0.00000000E+00
  0.00000000E+00  0.00000000E+00  0.00000000E+00
  0.00000000E+00  0.00000000E+00  0.00000000E+00
  0.00000000E+00  0.00000000E+00  0.00000000E+00
  0.00000000E+00  0.00000000E+00  0.00000000E+00
  0.00000000E+00  0.00000000E+00  0.00000000E+00
  0.00000000E+00  0.00000000E+00  0.00000000E+00
  0.00000000E+00  0.00000000E+00  0.00000000E+00
  0.00000000E+00  0.00000000E+00  0.00000000E+00
  0.00000000E+00  0.00000000E+00  0.00000000E+00
  0.00000000E+00  0.00000000E+00  0.00000000E+00
  0.00000000E+00  0.00000000E+00  0.00000000E+00
  0.00000000E+00  0.00000000E+00  0.00000000E+00
  0.00000000E+00  0.00000000E+00  0.00000000E+00
  0.00000000E+00  0.00000000E+00  0.00000000E+00
