 Li4 Cu4 F14                            
   1.00000000000000     
     5.0237785690333734    0.0000000000000000    0.0000000000000000
    -0.5604575078317329    6.0634306534504372    0.0000000000000000
     0.0000000000000000    0.0000000000000000   21.6053731378080016
   Li   Cu   F 
     4     4    14
Direct
  0.3147887277737311  0.0615398287338209  0.5829711228201688
  0.8323213921387875  0.9225264297996105  0.5483961665752162
  0.7803391987268142  0.5692605433879763  0.4516238585309651
  0.2979880818236609  0.4302626847852764  0.4170125175857819
  0.1376724504280702  0.6276751630609141  0.6303149520854348
  0.6099654500569542  0.4639518395874447  0.5762207781391524
  0.0025551736579814  0.0278067119029899  0.4238002226563822
  0.4748859125253162  0.8641167616169056  0.3696841995247553
  0.0339254142172933  0.9113694789301618  0.6299629560988649
  0.2831569401953544  0.3524180995407491  0.6222770535919011
  0.8010872667292261  0.4947071143083122  0.6554215725672776
  0.4734069220488735  0.7535650642420393  0.5956531161290499
  0.6734723563968430  0.1664535879973172  0.5707158906697813
  0.1567985953422806  0.0299102437141059  0.5044516433043000
  0.9207149999806603  0.6051543726240780  0.5370300747659584
  0.6918722229186258  0.8864267830554837  0.4630081742999934
  0.4558908538325781  0.4616965618564066  0.4955382496369225
  0.9393769616880547  0.3254375951642317  0.4293106809437290
  0.1392517711217778  0.7381803275842671  0.4042804201194201
  0.8114341906036771  0.9971163484350427  0.3446243175625412
  0.3295167185565475  0.1392991076718602  0.3777070613070137
  0.5788043992368799  0.5805073520009998  0.3699949710853900
 
  0.00000000E+00  0.00000000E+00  0.00000000E+00
  0.00000000E+00  0.00000000E+00  0.00000000E+00
  0.00000000E+00  0.00000000E+00  0.00000000E+00
  0.00000000E+00  0.00000000E+00  0.00000000E+00
  0.00000000E+00  0.00000000E+00  0.00000000E+00
  0.00000000E+00  0.00000000E+00  0.00000000E+00
  0.00000000E+00  0.00000000E+00  0.00000000E+00
  0.00000000E+00  0.00000000E+00  0.00000000E+00
  0.00000000E+00  0.00000000E+00  0.00000000E+00
  0.00000000E+00  0.00000000E+00  0.00000000E+00
  0.00000000E+00  0.00000000E+00  0.00000000E+00
  0.00000000E+00  0.00000000E+00  0.00000000E+00
  0.00000000E+00  0.00000000E+00  0.00000000E+00
  0.00000000E+00  0.00000000E+00  0.00000000E+00
  0.00000000E+00  0.00000000E+00  0.00000000E+00
  0.00000000E+00  0.00000000E+00  0.00000000E+00
  0.00000000E+00  0.00000000E+00  0.00000000E+00
  0.00000000E+00  0.00000000E+00  0.00000000E+00
  0.00000000E+00  0.00000000E+00  0.00000000E+00
  0.00000000E+00  0.00000000E+00  0.00000000E+00
  0.00000000E+00  0.00000000E+00  0.00000000E+00
  0.00000000E+00  0.00000000E+00  0.00000000E+00
