G   40   33    1    0.005     # Parameters to Generate KPOINTS (Don't Edit This Line)
     661
Reciprocal lattice
    0.000000000000    0.000000000000    0.000000000000       1
    0.025000000000    0.000000000000    0.000000000000       2
    0.050000000000    0.000000000000    0.000000000000       2
    0.075000000000    0.000000000000    0.000000000000       2
    0.100000000000    0.000000000000    0.000000000000       2
    0.125000000000    0.000000000000    0.000000000000       2
    0.150000000000    0.000000000000    0.000000000000       2
    0.175000000000    0.000000000000    0.000000000000       2
    0.200000000000    0.000000000000    0.000000000000       2
    0.225000000000    0.000000000000    0.000000000000       2
    0.250000000000    0.000000000000    0.000000000000       2
    0.275000000000    0.000000000000    0.000000000000       2
    0.300000000000    0.000000000000    0.000000000000       2
    0.325000000000    0.000000000000    0.000000000000       2
    0.350000000000    0.000000000000    0.000000000000       2
    0.375000000000    0.000000000000    0.000000000000       2
    0.400000000000    0.000000000000    0.000000000000       2
    0.425000000000    0.000000000000    0.000000000000       2
    0.450000000000    0.000000000000    0.000000000000       2
    0.475000000000    0.000000000000    0.000000000000       2
    0.500000000000    0.000000000000    0.000000000000       1
    0.000000000000    0.030303030303    0.000000000000       2
    0.025000000000    0.030303030303    0.000000000000       2
    0.050000000000    0.030303030303    0.000000000000       2
    0.075000000000    0.030303030303    0.000000000000       2
    0.100000000000    0.030303030303    0.000000000000       2
    0.125000000000    0.030303030303    0.000000000000       2
    0.150000000000    0.030303030303    0.000000000000       2
    0.175000000000    0.030303030303    0.000000000000       2
    0.200000000000    0.030303030303    0.000000000000       2
    0.225000000000    0.030303030303    0.000000000000       2
    0.250000000000    0.030303030303    0.000000000000       2
    0.275000000000    0.030303030303    0.000000000000       2
    0.300000000000    0.030303030303    0.000000000000       2
    0.325000000000    0.030303030303    0.000000000000       2
    0.350000000000    0.030303030303    0.000000000000       2
    0.375000000000    0.030303030303    0.000000000000       2
    0.400000000000    0.030303030303    0.000000000000       2
    0.425000000000    0.030303030303    0.000000000000       2
    0.450000000000    0.030303030303    0.000000000000       2
    0.475000000000    0.030303030303    0.000000000000       2
    0.500000000000    0.030303030303    0.000000000000       2
   -0.475000000000    0.030303030303    0.000000000000       2
   -0.450000000000    0.030303030303    0.000000000000       2
   -0.425000000000    0.030303030303    0.000000000000       2
   -0.400000000000    0.030303030303    0.000000000000       2
   -0.375000000000    0.030303030303    0.000000000000       2
   -0.350000000000    0.030303030303    0.000000000000       2
   -0.325000000000    0.030303030303    0.000000000000       2
   -0.300000000000    0.030303030303    0.000000000000       2
   -0.275000000000    0.030303030303    0.000000000000       2
   -0.250000000000    0.030303030303    0.000000000000       2
   -0.225000000000    0.030303030303    0.000000000000       2
   -0.200000000000    0.030303030303    0.000000000000       2
   -0.175000000000    0.030303030303    0.000000000000       2
   -0.150000000000    0.030303030303    0.000000000000       2
   -0.125000000000    0.030303030303    0.000000000000       2
   -0.100000000000    0.030303030303    0.000000000000       2
   -0.075000000000    0.030303030303    0.000000000000       2
   -0.050000000000    0.030303030303    0.000000000000       2
   -0.025000000000    0.030303030303    0.000000000000       2
    0.000000000000    0.060606060606    0.000000000000       2
    0.025000000000    0.060606060606    0.000000000000       2
    0.050000000000    0.060606060606    0.000000000000       2
    0.075000000000    0.060606060606    0.000000000000       2
    0.100000000000    0.060606060606    0.000000000000       2
    0.125000000000    0.060606060606    0.000000000000       2
    0.150000000000    0.060606060606    0.000000000000       2
    0.175000000000    0.060606060606    0.000000000000       2
    0.200000000000    0.060606060606    0.000000000000       2
    0.225000000000    0.060606060606    0.000000000000       2
    0.250000000000    0.060606060606    0.000000000000       2
    0.275000000000    0.060606060606    0.000000000000       2
    0.300000000000    0.060606060606    0.000000000000       2
    0.325000000000    0.060606060606    0.000000000000       2
    0.350000000000    0.060606060606    0.000000000000       2
    0.375000000000    0.060606060606    0.000000000000       2
    0.400000000000    0.060606060606    0.000000000000       2
    0.425000000000    0.060606060606    0.000000000000       2
    0.450000000000    0.060606060606    0.000000000000       2
    0.475000000000    0.060606060606    0.000000000000       2
    0.500000000000    0.060606060606    0.000000000000       2
   -0.475000000000    0.060606060606    0.000000000000       2
   -0.450000000000    0.060606060606    0.000000000000       2
   -0.425000000000    0.060606060606    0.000000000000       2
   -0.400000000000    0.060606060606    0.000000000000       2
   -0.375000000000    0.060606060606    0.000000000000       2
   -0.350000000000    0.060606060606    0.000000000000       2
   -0.325000000000    0.060606060606    0.000000000000       2
   -0.300000000000    0.060606060606    0.000000000000       2
   -0.275000000000    0.060606060606    0.000000000000       2
   -0.250000000000    0.060606060606    0.000000000000       2
   -0.225000000000    0.060606060606    0.000000000000       2
   -0.200000000000    0.060606060606    0.000000000000       2
   -0.175000000000    0.060606060606    0.000000000000       2
   -0.150000000000    0.060606060606    0.000000000000       2
   -0.125000000000    0.060606060606    0.000000000000       2
   -0.100000000000    0.060606060606    0.000000000000       2
   -0.075000000000    0.060606060606    0.000000000000       2
   -0.050000000000    0.060606060606    0.000000000000       2
   -0.025000000000    0.060606060606    0.000000000000       2
    0.000000000000    0.090909090909    0.000000000000       2
    0.025000000000    0.090909090909    0.000000000000       2
    0.050000000000    0.090909090909    0.000000000000       2
    0.075000000000    0.090909090909    0.000000000000       2
    0.100000000000    0.090909090909    0.000000000000       2
    0.125000000000    0.090909090909    0.000000000000       2
    0.150000000000    0.090909090909    0.000000000000       2
    0.175000000000    0.090909090909    0.000000000000       2
    0.200000000000    0.090909090909    0.000000000000       2
    0.225000000000    0.090909090909    0.000000000000       2
    0.250000000000    0.090909090909    0.000000000000       2
    0.275000000000    0.090909090909    0.000000000000       2
    0.300000000000    0.090909090909    0.000000000000       2
    0.325000000000    0.090909090909    0.000000000000       2
    0.350000000000    0.090909090909    0.000000000000       2
    0.375000000000    0.090909090909    0.000000000000       2
    0.400000000000    0.090909090909    0.000000000000       2
    0.425000000000    0.090909090909    0.000000000000       2
    0.450000000000    0.090909090909    0.000000000000       2
    0.475000000000    0.090909090909    0.000000000000       2
    0.500000000000    0.090909090909    0.000000000000       2
   -0.475000000000    0.090909090909    0.000000000000       2
   -0.450000000000    0.090909090909    0.000000000000       2
   -0.425000000000    0.090909090909    0.000000000000       2
   -0.400000000000    0.090909090909    0.000000000000       2
   -0.375000000000    0.090909090909    0.000000000000       2
   -0.350000000000    0.090909090909    0.000000000000       2
   -0.325000000000    0.090909090909    0.000000000000       2
   -0.300000000000    0.090909090909    0.000000000000       2
   -0.275000000000    0.090909090909    0.000000000000       2
   -0.250000000000    0.090909090909    0.000000000000       2
   -0.225000000000    0.090909090909    0.000000000000       2
   -0.200000000000    0.090909090909    0.000000000000       2
   -0.175000000000    0.090909090909    0.000000000000       2
   -0.150000000000    0.090909090909    0.000000000000       2
   -0.125000000000    0.090909090909    0.000000000000       2
   -0.100000000000    0.090909090909    0.000000000000       2
   -0.075000000000    0.090909090909    0.000000000000       2
   -0.050000000000    0.090909090909    0.000000000000       2
   -0.025000000000    0.090909090909    0.000000000000       2
    0.000000000000    0.121212121212    0.000000000000       2
    0.025000000000    0.121212121212    0.000000000000       2
    0.050000000000    0.121212121212    0.000000000000       2
    0.075000000000    0.121212121212    0.000000000000       2
    0.100000000000    0.121212121212    0.000000000000       2
    0.125000000000    0.121212121212    0.000000000000       2
    0.150000000000    0.121212121212    0.000000000000       2
    0.175000000000    0.121212121212    0.000000000000       2
    0.200000000000    0.121212121212    0.000000000000       2
    0.225000000000    0.121212121212    0.000000000000       2
    0.250000000000    0.121212121212    0.000000000000       2
    0.275000000000    0.121212121212    0.000000000000       2
    0.300000000000    0.121212121212    0.000000000000       2
    0.325000000000    0.121212121212    0.000000000000       2
    0.350000000000    0.121212121212    0.000000000000       2
    0.375000000000    0.121212121212    0.000000000000       2
    0.400000000000    0.121212121212    0.000000000000       2
    0.425000000000    0.121212121212    0.000000000000       2
    0.450000000000    0.121212121212    0.000000000000       2
    0.475000000000    0.121212121212    0.000000000000       2
    0.500000000000    0.121212121212    0.000000000000       2
   -0.475000000000    0.121212121212    0.000000000000       2
   -0.450000000000    0.121212121212    0.000000000000       2
   -0.425000000000    0.121212121212    0.000000000000       2
   -0.400000000000    0.121212121212    0.000000000000       2
   -0.375000000000    0.121212121212    0.000000000000       2
   -0.350000000000    0.121212121212    0.000000000000       2
   -0.325000000000    0.121212121212    0.000000000000       2
   -0.300000000000    0.121212121212    0.000000000000       2
   -0.275000000000    0.121212121212    0.000000000000       2
   -0.250000000000    0.121212121212    0.000000000000       2
   -0.225000000000    0.121212121212    0.000000000000       2
   -0.200000000000    0.121212121212    0.000000000000       2
   -0.175000000000    0.121212121212    0.000000000000       2
   -0.150000000000    0.121212121212    0.000000000000       2
   -0.125000000000    0.121212121212    0.000000000000       2
   -0.100000000000    0.121212121212    0.000000000000       2
   -0.075000000000    0.121212121212    0.000000000000       2
   -0.050000000000    0.121212121212    0.000000000000       2
   -0.025000000000    0.121212121212    0.000000000000       2
    0.000000000000    0.151515151515    0.000000000000       2
    0.025000000000    0.151515151515    0.000000000000       2
    0.050000000000    0.151515151515    0.000000000000       2
    0.075000000000    0.151515151515    0.000000000000       2
    0.100000000000    0.151515151515    0.000000000000       2
    0.125000000000    0.151515151515    0.000000000000       2
    0.150000000000    0.151515151515    0.000000000000       2
    0.175000000000    0.151515151515    0.000000000000       2
    0.200000000000    0.151515151515    0.000000000000       2
    0.225000000000    0.151515151515    0.000000000000       2
    0.250000000000    0.151515151515    0.000000000000       2
    0.275000000000    0.151515151515    0.000000000000       2
    0.300000000000    0.151515151515    0.000000000000       2
    0.325000000000    0.151515151515    0.000000000000       2
    0.350000000000    0.151515151515    0.000000000000       2
    0.375000000000    0.151515151515    0.000000000000       2
    0.400000000000    0.151515151515    0.000000000000       2
    0.425000000000    0.151515151515    0.000000000000       2
    0.450000000000    0.151515151515    0.000000000000       2
    0.475000000000    0.151515151515    0.000000000000       2
    0.500000000000    0.151515151515    0.000000000000       2
   -0.475000000000    0.151515151515    0.000000000000       2
   -0.450000000000    0.151515151515    0.000000000000       2
   -0.425000000000    0.151515151515    0.000000000000       2
   -0.400000000000    0.151515151515    0.000000000000       2
   -0.375000000000    0.151515151515    0.000000000000       2
   -0.350000000000    0.151515151515    0.000000000000       2
   -0.325000000000    0.151515151515    0.000000000000       2
   -0.300000000000    0.151515151515    0.000000000000       2
   -0.275000000000    0.151515151515    0.000000000000       2
   -0.250000000000    0.151515151515    0.000000000000       2
   -0.225000000000    0.151515151515    0.000000000000       2
   -0.200000000000    0.151515151515    0.000000000000       2
   -0.175000000000    0.151515151515    0.000000000000       2
   -0.150000000000    0.151515151515    0.000000000000       2
   -0.125000000000    0.151515151515    0.000000000000       2
   -0.100000000000    0.151515151515    0.000000000000       2
   -0.075000000000    0.151515151515    0.000000000000       2
   -0.050000000000    0.151515151515    0.000000000000       2
   -0.025000000000    0.151515151515    0.000000000000       2
    0.000000000000    0.181818181818    0.000000000000       2
    0.025000000000    0.181818181818    0.000000000000       2
    0.050000000000    0.181818181818    0.000000000000       2
    0.075000000000    0.181818181818    0.000000000000       2
    0.100000000000    0.181818181818    0.000000000000       2
    0.125000000000    0.181818181818    0.000000000000       2
    0.150000000000    0.181818181818    0.000000000000       2
    0.175000000000    0.181818181818    0.000000000000       2
    0.200000000000    0.181818181818    0.000000000000       2
    0.225000000000    0.181818181818    0.000000000000       2
    0.250000000000    0.181818181818    0.000000000000       2
    0.275000000000    0.181818181818    0.000000000000       2
    0.300000000000    0.181818181818    0.000000000000       2
    0.325000000000    0.181818181818    0.000000000000       2
    0.350000000000    0.181818181818    0.000000000000       2
    0.375000000000    0.181818181818    0.000000000000       2
    0.400000000000    0.181818181818    0.000000000000       2
    0.425000000000    0.181818181818    0.000000000000       2
    0.450000000000    0.181818181818    0.000000000000       2
    0.475000000000    0.181818181818    0.000000000000       2
    0.500000000000    0.181818181818    0.000000000000       2
   -0.475000000000    0.181818181818    0.000000000000       2
   -0.450000000000    0.181818181818    0.000000000000       2
   -0.425000000000    0.181818181818    0.000000000000       2
   -0.400000000000    0.181818181818    0.000000000000       2
   -0.375000000000    0.181818181818    0.000000000000       2
   -0.350000000000    0.181818181818    0.000000000000       2
   -0.325000000000    0.181818181818    0.000000000000       2
   -0.300000000000    0.181818181818    0.000000000000       2
   -0.275000000000    0.181818181818    0.000000000000       2
   -0.250000000000    0.181818181818    0.000000000000       2
   -0.225000000000    0.181818181818    0.000000000000       2
   -0.200000000000    0.181818181818    0.000000000000       2
   -0.175000000000    0.181818181818    0.000000000000       2
   -0.150000000000    0.181818181818    0.000000000000       2
   -0.125000000000    0.181818181818    0.000000000000       2
   -0.100000000000    0.181818181818    0.000000000000       2
   -0.075000000000    0.181818181818    0.000000000000       2
   -0.050000000000    0.181818181818    0.000000000000       2
   -0.025000000000    0.181818181818    0.000000000000       2
    0.000000000000    0.212121212121    0.000000000000       2
    0.025000000000    0.212121212121    0.000000000000       2
    0.050000000000    0.212121212121    0.000000000000       2
    0.075000000000    0.212121212121    0.000000000000       2
    0.100000000000    0.212121212121    0.000000000000       2
    0.125000000000    0.212121212121    0.000000000000       2
    0.150000000000    0.212121212121    0.000000000000       2
    0.175000000000    0.212121212121    0.000000000000       2
    0.200000000000    0.212121212121    0.000000000000       2
    0.225000000000    0.212121212121    0.000000000000       2
    0.250000000000    0.212121212121    0.000000000000       2
    0.275000000000    0.212121212121    0.000000000000       2
    0.300000000000    0.212121212121    0.000000000000       2
    0.325000000000    0.212121212121    0.000000000000       2
    0.350000000000    0.212121212121    0.000000000000       2
    0.375000000000    0.212121212121    0.000000000000       2
    0.400000000000    0.212121212121    0.000000000000       2
    0.425000000000    0.212121212121    0.000000000000       2
    0.450000000000    0.212121212121    0.000000000000       2
    0.475000000000    0.212121212121    0.000000000000       2
    0.500000000000    0.212121212121    0.000000000000       2
   -0.475000000000    0.212121212121    0.000000000000       2
   -0.450000000000    0.212121212121    0.000000000000       2
   -0.425000000000    0.212121212121    0.000000000000       2
   -0.400000000000    0.212121212121    0.000000000000       2
   -0.375000000000    0.212121212121    0.000000000000       2
   -0.350000000000    0.212121212121    0.000000000000       2
   -0.325000000000    0.212121212121    0.000000000000       2
   -0.300000000000    0.212121212121    0.000000000000       2
   -0.275000000000    0.212121212121    0.000000000000       2
   -0.250000000000    0.212121212121    0.000000000000       2
   -0.225000000000    0.212121212121    0.000000000000       2
   -0.200000000000    0.212121212121    0.000000000000       2
   -0.175000000000    0.212121212121    0.000000000000       2
   -0.150000000000    0.212121212121    0.000000000000       2
   -0.125000000000    0.212121212121    0.000000000000       2
   -0.100000000000    0.212121212121    0.000000000000       2
   -0.075000000000    0.212121212121    0.000000000000       2
   -0.050000000000    0.212121212121    0.000000000000       2
   -0.025000000000    0.212121212121    0.000000000000       2
    0.000000000000    0.242424242424    0.000000000000       2
    0.025000000000    0.242424242424    0.000000000000       2
    0.050000000000    0.242424242424    0.000000000000       2
    0.075000000000    0.242424242424    0.000000000000       2
    0.100000000000    0.242424242424    0.000000000000       2
    0.125000000000    0.242424242424    0.000000000000       2
    0.150000000000    0.242424242424    0.000000000000       2
    0.175000000000    0.242424242424    0.000000000000       2
    0.200000000000    0.242424242424    0.000000000000       2
    0.225000000000    0.242424242424    0.000000000000       2
    0.250000000000    0.242424242424    0.000000000000       2
    0.275000000000    0.242424242424    0.000000000000       2
    0.300000000000    0.242424242424    0.000000000000       2
    0.325000000000    0.242424242424    0.000000000000       2
    0.350000000000    0.242424242424    0.000000000000       2
    0.375000000000    0.242424242424    0.000000000000       2
    0.400000000000    0.242424242424    0.000000000000       2
    0.425000000000    0.242424242424    0.000000000000       2
    0.450000000000    0.242424242424    0.000000000000       2
    0.475000000000    0.242424242424    0.000000000000       2
    0.500000000000    0.242424242424    0.000000000000       2
   -0.475000000000    0.242424242424    0.000000000000       2
   -0.450000000000    0.242424242424    0.000000000000       2
   -0.425000000000    0.242424242424    0.000000000000       2
   -0.400000000000    0.242424242424    0.000000000000       2
   -0.375000000000    0.242424242424    0.000000000000       2
   -0.350000000000    0.242424242424    0.000000000000       2
   -0.325000000000    0.242424242424    0.000000000000       2
   -0.300000000000    0.242424242424    0.000000000000       2
   -0.275000000000    0.242424242424    0.000000000000       2
   -0.250000000000    0.242424242424    0.000000000000       2
   -0.225000000000    0.242424242424    0.000000000000       2
   -0.200000000000    0.242424242424    0.000000000000       2
   -0.175000000000    0.242424242424    0.000000000000       2
   -0.150000000000    0.242424242424    0.000000000000       2
   -0.125000000000    0.242424242424    0.000000000000       2
   -0.100000000000    0.242424242424    0.000000000000       2
   -0.075000000000    0.242424242424    0.000000000000       2
   -0.050000000000    0.242424242424    0.000000000000       2
   -0.025000000000    0.242424242424    0.000000000000       2
    0.000000000000    0.272727272727    0.000000000000       2
    0.025000000000    0.272727272727    0.000000000000       2
    0.050000000000    0.272727272727    0.000000000000       2
    0.075000000000    0.272727272727    0.000000000000       2
    0.100000000000    0.272727272727    0.000000000000       2
    0.125000000000    0.272727272727    0.000000000000       2
    0.150000000000    0.272727272727    0.000000000000       2
    0.175000000000    0.272727272727    0.000000000000       2
    0.200000000000    0.272727272727    0.000000000000       2
    0.225000000000    0.272727272727    0.000000000000       2
    0.250000000000    0.272727272727    0.000000000000       2
    0.275000000000    0.272727272727    0.000000000000       2
    0.300000000000    0.272727272727    0.000000000000       2
    0.325000000000    0.272727272727    0.000000000000       2
    0.350000000000    0.272727272727    0.000000000000       2
    0.375000000000    0.272727272727    0.000000000000       2
    0.400000000000    0.272727272727    0.000000000000       2
    0.425000000000    0.272727272727    0.000000000000       2
    0.450000000000    0.272727272727    0.000000000000       2
    0.475000000000    0.272727272727    0.000000000000       2
    0.500000000000    0.272727272727    0.000000000000       2
   -0.475000000000    0.272727272727    0.000000000000       2
   -0.450000000000    0.272727272727    0.000000000000       2
   -0.425000000000    0.272727272727    0.000000000000       2
   -0.400000000000    0.272727272727    0.000000000000       2
   -0.375000000000    0.272727272727    0.000000000000       2
   -0.350000000000    0.272727272727    0.000000000000       2
   -0.325000000000    0.272727272727    0.000000000000       2
   -0.300000000000    0.272727272727    0.000000000000       2
   -0.275000000000    0.272727272727    0.000000000000       2
   -0.250000000000    0.272727272727    0.000000000000       2
   -0.225000000000    0.272727272727    0.000000000000       2
   -0.200000000000    0.272727272727    0.000000000000       2
   -0.175000000000    0.272727272727    0.000000000000       2
   -0.150000000000    0.272727272727    0.000000000000       2
   -0.125000000000    0.272727272727    0.000000000000       2
   -0.100000000000    0.272727272727    0.000000000000       2
   -0.075000000000    0.272727272727    0.000000000000       2
   -0.050000000000    0.272727272727    0.000000000000       2
   -0.025000000000    0.272727272727    0.000000000000       2
    0.000000000000    0.303030303030    0.000000000000       2
    0.025000000000    0.303030303030    0.000000000000       2
    0.050000000000    0.303030303030    0.000000000000       2
    0.075000000000    0.303030303030    0.000000000000       2
    0.100000000000    0.303030303030    0.000000000000       2
    0.125000000000    0.303030303030    0.000000000000       2
    0.150000000000    0.303030303030    0.000000000000       2
    0.175000000000    0.303030303030    0.000000000000       2
    0.200000000000    0.303030303030    0.000000000000       2
    0.225000000000    0.303030303030    0.000000000000       2
    0.250000000000    0.303030303030    0.000000000000       2
    0.275000000000    0.303030303030    0.000000000000       2
    0.300000000000    0.303030303030    0.000000000000       2
    0.325000000000    0.303030303030    0.000000000000       2
    0.350000000000    0.303030303030    0.000000000000       2
    0.375000000000    0.303030303030    0.000000000000       2
    0.400000000000    0.303030303030    0.000000000000       2
    0.425000000000    0.303030303030    0.000000000000       2
    0.450000000000    0.303030303030    0.000000000000       2
    0.475000000000    0.303030303030    0.000000000000       2
    0.500000000000    0.303030303030    0.000000000000       2
   -0.475000000000    0.303030303030    0.000000000000       2
   -0.450000000000    0.303030303030    0.000000000000       2
   -0.425000000000    0.303030303030    0.000000000000       2
   -0.400000000000    0.303030303030    0.000000000000       2
   -0.375000000000    0.303030303030    0.000000000000       2
   -0.350000000000    0.303030303030    0.000000000000       2
   -0.325000000000    0.303030303030    0.000000000000       2
   -0.300000000000    0.303030303030    0.000000000000       2
   -0.275000000000    0.303030303030    0.000000000000       2
   -0.250000000000    0.303030303030    0.000000000000       2
   -0.225000000000    0.303030303030    0.000000000000       2
   -0.200000000000    0.303030303030    0.000000000000       2
   -0.175000000000    0.303030303030    0.000000000000       2
   -0.150000000000    0.303030303030    0.000000000000       2
   -0.125000000000    0.303030303030    0.000000000000       2
   -0.100000000000    0.303030303030    0.000000000000       2
   -0.075000000000    0.303030303030    0.000000000000       2
   -0.050000000000    0.303030303030    0.000000000000       2
   -0.025000000000    0.303030303030    0.000000000000       2
    0.000000000000    0.333333333333    0.000000000000       2
    0.025000000000    0.333333333333    0.000000000000       2
    0.050000000000    0.333333333333    0.000000000000       2
    0.075000000000    0.333333333333    0.000000000000       2
    0.100000000000    0.333333333333    0.000000000000       2
    0.125000000000    0.333333333333    0.000000000000       2
    0.150000000000    0.333333333333    0.000000000000       2
    0.175000000000    0.333333333333    0.000000000000       2
    0.200000000000    0.333333333333    0.000000000000       2
    0.225000000000    0.333333333333    0.000000000000       2
    0.250000000000    0.333333333333    0.000000000000       2
    0.275000000000    0.333333333333    0.000000000000       2
    0.300000000000    0.333333333333    0.000000000000       2
    0.325000000000    0.333333333333    0.000000000000       2
    0.350000000000    0.333333333333    0.000000000000       2
    0.375000000000    0.333333333333    0.000000000000       2
    0.400000000000    0.333333333333    0.000000000000       2
    0.425000000000    0.333333333333    0.000000000000       2
    0.450000000000    0.333333333333    0.000000000000       2
    0.475000000000    0.333333333333    0.000000000000       2
    0.500000000000    0.333333333333    0.000000000000       2
   -0.475000000000    0.333333333333    0.000000000000       2
   -0.450000000000    0.333333333333    0.000000000000       2
   -0.425000000000    0.333333333333    0.000000000000       2
   -0.400000000000    0.333333333333    0.000000000000       2
   -0.375000000000    0.333333333333    0.000000000000       2
   -0.350000000000    0.333333333333    0.000000000000       2
   -0.325000000000    0.333333333333    0.000000000000       2
   -0.300000000000    0.333333333333    0.000000000000       2
   -0.275000000000    0.333333333333    0.000000000000       2
   -0.250000000000    0.333333333333    0.000000000000       2
   -0.225000000000    0.333333333333    0.000000000000       2
   -0.200000000000    0.333333333333    0.000000000000       2
   -0.175000000000    0.333333333333    0.000000000000       2
   -0.150000000000    0.333333333333    0.000000000000       2
   -0.125000000000    0.333333333333    0.000000000000       2
   -0.100000000000    0.333333333333    0.000000000000       2
   -0.075000000000    0.333333333333    0.000000000000       2
   -0.050000000000    0.333333333333    0.000000000000       2
   -0.025000000000    0.333333333333    0.000000000000       2
    0.000000000000    0.363636363636    0.000000000000       2
    0.025000000000    0.363636363636    0.000000000000       2
    0.050000000000    0.363636363636    0.000000000000       2
    0.075000000000    0.363636363636    0.000000000000       2
    0.100000000000    0.363636363636    0.000000000000       2
    0.125000000000    0.363636363636    0.000000000000       2
    0.150000000000    0.363636363636    0.000000000000       2
    0.175000000000    0.363636363636    0.000000000000       2
    0.200000000000    0.363636363636    0.000000000000       2
    0.225000000000    0.363636363636    0.000000000000       2
    0.250000000000    0.363636363636    0.000000000000       2
    0.275000000000    0.363636363636    0.000000000000       2
    0.300000000000    0.363636363636    0.000000000000       2