 Mn4 F14                                
   1.00000000000000     
     4.9641749007893630    0.0000000000000000    0.0000000000000000
    -2.1014508295071037    9.2925037657740095    0.0000000000000000
     0.0000000000000000    0.0000000000000000   18.6902838538800005
   Mn   F 
     4    14
Direct
  0.2820958924710334  0.5750125288095677  0.5211093949318719
  0.7178899116154852  0.9249684416418459  0.5211262956888979
  0.2820917209942202  0.0750164694771334  0.4788903037591604
  0.7178709581007796  0.4249842721367558  0.4788888463922180
  0.0206114662881809  0.3931657476959323  0.5355807976657943
  0.4999743867087141  0.7499683711276796  0.4877296073392352
  0.4107939518189188  0.9885641060644854  0.5619817923689977
  0.9794663543228250  0.1068714005040960  0.5355661698486139
  0.1909848395554970  0.1488807974872971  0.4003834383736717
  0.1910253604059680  0.6488585225957221  0.5996098300701694
  0.4108005725176088  0.4885394696206701  0.4380147289560174
  0.5891290834839354  0.5114656432550551  0.5619748335086315
  0.8089900575878197  0.3511318376315788  0.4003782927005765
  0.8090258888518622  0.8511167758055649  0.5996206246602559
  0.0206325595198857  0.8931632082086075  0.4644221224907683
  0.5891471384136787  0.0114446361579886  0.4380239423592205
  0.4999788275251728  0.2499787938757728  0.5122695039885897
  0.9794910298184152  0.6068689779042465  0.4644294748973097
 
  0.00000000E+00  0.00000000E+00  0.00000000E+00
  0.00000000E+00  0.00000000E+00  0.00000000E+00
  0.00000000E+00  0.00000000E+00  0.00000000E+00
  0.00000000E+00  0.00000000E+00  0.00000000E+00
  0.00000000E+00  0.00000000E+00  0.00000000E+00
  0.00000000E+00  0.00000000E+00  0.00000000E+00
  0.00000000E+00  0.00000000E+00  0.00000000E+00
  0.00000000E+00  0.00000000E+00  0.00000000E+00
  0.00000000E+00  0.00000000E+00  0.00000000E+00
  0.00000000E+00  0.00000000E+00  0.00000000E+00
  0.00000000E+00  0.00000000E+00  0.00000000E+00
  0.00000000E+00  0.00000000E+00  0.00000000E+00
  0.00000000E+00  0.00000000E+00  0.00000000E+00
  0.00000000E+00  0.00000000E+00  0.00000000E+00
  0.00000000E+00  0.00000000E+00  0.00000000E+00
  0.00000000E+00  0.00000000E+00  0.00000000E+00
  0.00000000E+00  0.00000000E+00  0.00000000E+00
  0.00000000E+00  0.00000000E+00  0.00000000E+00
