CONTCAR\(3)                             
   1.00000000000000     
    13.8964004516999999    0.0000000000000000    0.0000000000000000
     0.0991868080000000   15.6682861384999992    0.0000000000000000
     0.0000000000000000    0.0000000000000000   19.4270992279000012
   Ta   Ni   Se   O    H 
    16     8    40     1     1
Direct
  0.0621515522626197  0.1125378613465529  0.4821726062805709
  0.0600937301432438  0.3951866591794513  0.4829595605778607
  0.1853995798569699  0.8966086338180332  0.5208492954514199
  0.1865047529225521  0.6148578866086112  0.5211393442692156
  0.3123485239815906  0.1126334288023685  0.4815414016305937
  0.3056909681865179  0.3890186012361596  0.4773173624289910
  0.4363323435058533  0.8979214857834279  0.5222291673880051
  0.4372867201579353  0.6252372646984341  0.5238196561738135
  0.5631390828451117  0.1125231509831224  0.4816275538903625
  0.5678504839789156  0.3896356423914540  0.4770406376011991
  0.6874793087156661  0.8967654367866160  0.5210402011542499
  0.6876955617907257  0.6151258157626387  0.5207953022903808
  0.8133264944256666  0.1126658876508415  0.4823039275982381
  0.8136474810898449  0.3953429392852783  0.4828977985194385
  0.9365245944772482  0.8956939503660237  0.5211703972593398
  0.9371838961106462  0.6139818927505232  0.5204883361600352
  0.1856469838325054  0.2533009871041543  0.4680212171452567
  0.0621146948584581  0.7546932296103179  0.5346951945431329
  0.4377822487911658  0.2533022368122744  0.4690313598205549
  0.3108565837856077  0.7570148881932539  0.5342982661773021
  0.6889936635710754  0.2534865204118262  0.4682858125113327
  0.5628340212532876  0.7572191642664805  0.5344512537985509
  0.9377214238343470  0.2541624490691277  0.4686630091483011
  0.8115739313287662  0.7550312736506939  0.5343248482400966
  0.1855685552487358  0.1426117537567535  0.3874703428056634
  0.1822968109022725  0.3628667051382308  0.3851480744674021
  0.0627953056157580  0.8651676021064816  0.6155859642325012
  0.0609777438102270  0.6434778360674827  0.6153923660114131
  0.0620006482517041  0.9541896620413794  0.4304976773865405
  0.0622976483267621  0.5540622480262343  0.4310866619476172
  0.1865070946232592  0.0548625432233081  0.5723987324934683
  0.1877678330975030  0.4542770168063655  0.5706007532896962
  0.0618609659864333  0.2536361873485333  0.5525061096054458
  0.1863394715846312  0.7550475207734806  0.4504319257537901
  0.4364865732654053  0.1431303875956473  0.3877386445062783
  0.4369720095272029  0.3618005187383488  0.3859827752377001
  0.3119314452388835  0.8670170775991153  0.6155741298907955
  0.3102679307114826  0.6468172086701571  0.6166286523543008
  0.3124465245055603  0.9549649394604671  0.4308969310708122
  0.3149228598111833  0.5526565219168731  0.4356987541987465
  0.4365932397326802  0.0559504501224239  0.5726331584382294
  0.4366598808280244  0.4610251569066008  0.5578567075600063
  0.3113936008786595  0.2550510954355474  0.5525009558534393
  0.4369582856680694  0.7583498936785560  0.4494648294945023
  0.6872104966385990  0.1429579409994091  0.3875996021467927
  0.6921447039691273  0.3628458513501940  0.3852011961093211
  0.5634476538369597  0.8671075143271736  0.6156395673428676
  0.5628990710829882  0.6469864471663485  0.6166442620743950
  0.5626650322547988  0.9551820733796035  0.4310620190263137
  0.5593669384688837  0.5533523495890407  0.4350428655547205
  0.6869008753333219  0.0551488613672504  0.5726101663779559
  0.6858007968301578  0.4545271390114110  0.5704813288751680
  0.5630508903979106  0.2553982221477398  0.5526392959198674
  0.6871894885155854  0.7555886402972405  0.4503266218939359
  0.9363898928649235  0.1438892404575967  0.3876555045781771
  0.9372277371969489  0.3648410525020651  0.3877558838675910
  0.8129403823316679  0.8653045343060839  0.6156184277872114
  0.8119175200024458  0.6438820639628204  0.6151670626372265
  0.8130705496508313  0.9544963600953480  0.4306043636601302
  0.8117500053604019  0.5543338078517905  0.4309756462977390
  0.9366807234345202  0.0540468770809142  0.5726986940899508
  0.9368534212932147  0.4548604846626176  0.5730043179621447
  0.8129283386999333  0.2539644353807304  0.5524370073808527
  0.9370514257982734  0.7545838494012216  0.4508314316112134
  0.4386268717687756  0.4320768337340724  0.6502002614448372
  0.4647944939489719  0.3737766969496050  0.6518859947050188
 
  0.00000000E+00  0.00000000E+00  0.00000000E+00
  0.00000000E+00  0.00000000E+00  0.00000000E+00
  0.00000000E+00  0.00000000E+00  0.00000000E+00
  0.00000000E+00  0.00000000E+00  0.00000000E+00
  0.00000000E+00  0.00000000E+00  0.00000000E+00
  0.00000000E+00  0.00000000E+00  0.00000000E+00
  0.00000000E+00  0.00000000E+00  0.00000000E+00
  0.00000000E+00  0.00000000E+00  0.00000000E+00
  0.00000000E+00  0.00000000E+00  0.00000000E+00
  0.00000000E+00  0.00000000E+00  0.00000000E+00
  0.00000000E+00  0.00000000E+00  0.00000000E+00
  0.00000000E+00  0.00000000E+00  0.00000000E+00
  0.00000000E+00  0.00000000E+00  0.00000000E+00
  0.00000000E+00  0.00000000E+00  0.00000000E+00
  0.00000000E+00  0.00000000E+00  0.00000000E+00
  0.00000000E+00  0.00000000E+00  0.00000000E+00
  0.00000000E+00  0.00000000E+00  0.00000000E+00
  0.00000000E+00  0.00000000E+00  0.00000000E+00
  0.00000000E+00  0.00000000E+00  0.00000000E+00
  0.00000000E+00  0.00000000E+00  0.00000000E+00
  0.00000000E+00  0.00000000E+00  0.00000000E+00
  0.00000000E+00  0.00000000E+00  0.00000000E+00
  0.00000000E+00  0.00000000E+00  0.00000000E+00
  0.00000000E+00  0.00000000E+00  0.00000000E+00
  0.00000000E+00  0.00000000E+00  0.00000000E+00
  0.00000000E+00  0.00000000E+00  0.00000000E+00
  0.00000000E+00  0.00000000E+00  0.00000000E+00
  0.00000000E+00  0.00000000E+00  0.00000000E+00
  0.00000000E+00  0.00000000E+00  0.00000000E+00
  0.00000000E+00  0.00000000E+00  0.00000000E+00
  0.00000000E+00  0.00000000E+00  0.00000000E+00
  0.00000000E+00  0.00000000E+00  0.00000000E+00
  0.00000000E+00  0.00000000E+00  0.00000000E+00
  0.00000000E+00  0.00000000E+00  0.00000000E+00
  0.00000000E+00  0.00000000E+00  0.00000000E+00
  0.00000000E+00  0.00000000E+00  0.00000000E+00
  0.00000000E+00  0.00000000E+00  0.00000000E+00
  0.00000000E+00  0.00000000E+00  0.00000000E+00
  0.00000000E+00  0.00000000E+00  0.00000000E+00
  0.00000000E+00  0.00000000E+00  0.00000000E+00
  0.00000000E+00  0.00000000E+00  0.00000000E+00
  0.00000000E+00  0.00000000E+00  0.00000000E+00
  0.00000000E+00  0.00000000E+00  0.00000000E+00
  0.00000000E+00  0.00000000E+00  0.00000000E+00
  0.00000000E+00  0.00000000E+00  0.00000000E+00
  0.00000000E+00  0.00000000E+00  0.00000000E+00
  0.00000000E+00  0.00000000E+00  0.00000000E+00
  0.00000000E+00  0.00000000E+00  0.00000000E+00
  0.00000000E+00  0.00000000E+00  0.00000000E+00
  0.00000000E+00  0.00000000E+00  0.00000000E+00
  0.00000000E+00  0.00000000E+00  0.00000000E+00
  0.00000000E+00  0.00000000E+00  0.00000000E+00
  0.00000000E+00  0.00000000E+00  0.00000000E+00
  0.00000000E+00  0.00000000E+00  0.00000000E+00
  0.00000000E+00  0.00000000E+00  0.00000000E+00
  0.00000000E+00  0.00000000E+00  0.00000000E+00
  0.00000000E+00  0.00000000E+00  0.00000000E+00
  0.00000000E+00  0.00000000E+00  0.00000000E+00
  0.00000000E+00  0.00000000E+00  0.00000000E+00
  0.00000000E+00  0.00000000E+00  0.00000000E+00
  0.00000000E+00  0.00000000E+00  0.00000000E+00
  0.00000000E+00  0.00000000E+00  0.00000000E+00
  0.00000000E+00  0.00000000E+00  0.00000000E+00
  0.00000000E+00  0.00000000E+00  0.00000000E+00
  0.00000000E+00  0.00000000E+00  0.00000000E+00
  0.00000000E+00  0.00000000E+00  0.00000000E+00
