CONTCAR\(8)                             
   1.00000000000000     
    12.8318004608000003    0.0000000000000000    0.0000000000000000
     0.0000000000000000   12.8378000259000000    0.0000000000000000
     0.0000000000000000    0.0000000000000000   24.0013999939000016
   Nd   Te   Se   O    H 
    18    36    18     2     1
Selective dynamics
Direct
  0.1688142032670683  0.1684325343969277  0.5756292824499383   F   F   F
  0.0021652090963116  0.0016499034176292  0.4213408139104189   F   F   F
  0.5038823802553409  0.1623970874400058  0.5734497586995531   F   F   F
  0.3355160859598953  0.0011724530134956  0.4214478123406025   F   F   F
  0.8363769780073937  0.1680186978354286  0.5753439832014067   F   F   F
  0.6689652363718892  0.0009029367903324  0.4209251447126263   F   F   F
  0.1680241126429038  0.5004506241573807  0.5752643630719092   F   F   F
  0.0017268596956512  0.3346714074609167  0.4213378299252000   F   F   F
  0.5037284668628104  0.5070225443740028  0.5734495536389730   F   F   F
  0.3357193111002417  0.3348384969735605  0.4221447476470530   F   F   F
  0.8357119792349224  0.5016758390137639  0.5753141274202349   F   F   F
  0.6682237291626194  0.3346728653331752  0.4215945487767598   F   F   F
  0.1657071740359726  0.8348045391454377  0.5755377941191071   F   F   F
  0.0018582560746552  0.6681905064302356  0.4213591009484929   F   F   F
  0.5006780925294265  0.8348867727390754  0.5762104278311782   F   F   F
  0.3352115251165912  0.6679051693015765  0.4213629878875906   F   F   F
  0.8347109511191775  0.8347745272923106  0.5752910382524377   F   F   F
  0.6688942705541834  0.6684758582014609  0.4208848117666903   F   F   F
  0.1690691062038283  0.0018574646945524  0.3123707841928365   F   F   F
  0.0042631448579797  0.1695024751250713  0.6853870080660656   F   F   F
  0.0022961240808712  0.1685426463025550  0.3122840298674348   F   F   F
  0.1723737896312301  0.0029138144627439  0.6841721883153511   F   F   F
  0.5015007847171944  0.0010456884976762  0.3120338031065941   F   F   F
  0.3462760998478416  0.1715862760175639  0.6901777023781506   F   F   F
  0.3354838368230659  0.1680855878108289  0.3125405727918178   F   F   F
  0.5047961388215896  0.0026565948995554  0.6868020100304690   F   F   F
  0.8354900561465470  0.0015757465437218  0.3118478830684595   F   F   F
  0.6649781837786151  0.1725514205470802  0.6821967385700489   F   F   F
  0.6682882683999622  0.1676802399614061  0.3118069840332964   F   F   F
  0.8383301351224830  0.0017005152081282  0.6852932498531956   F   F   F
  0.1686568400958421  0.3351074809274124  0.3124691998474347   F   F   F
  0.0024463343529177  0.5020118416969481  0.6852847943674902   F   F   F
  0.0016130324891819  0.5009229459806619  0.3122298973605950   F   F   F
  0.1667667377281177  0.3334546789696731  0.6847193313034623   F   F   F
  0.5019805886014410  0.3349544870108119  0.3128481302506216   F   F   F
  0.3424081653232705  0.5001227121150933  0.6882643646762148   F   F   F
  0.3352419916555647  0.5015433380614454  0.3124232776763236   F   F   F
  0.4901841812268444  0.3365870806969156  0.7327060987982676   F   F   F
  0.8350370460355592  0.3342326051251092  0.3121782410450606   F   F   F
  0.6632779578360939  0.4945488241164071  0.6847314694081561   F   F   F
  0.6691446102433360  0.5016525880169169  0.3121841008738429   F   F   F
  0.8282303832684050  0.3356569080103213  0.6852563723376051   F   F   F
  0.1682673695964070  0.6677943037716148  0.3122555984672530   F   F   F
  0.9966057225667768  0.8358182987394258  0.6848585881698668   F   F   F
  0.0021192483699508  0.8349846911183008  0.3119754335227256   F   F   F
  0.1737440415585283  0.6647512611161233  0.6840282341361359   F   F   F
  0.5021646921981358  0.6683089923169661  0.3119472713969458   F   F   F
  0.3304318128822672  0.8360200890773157  0.6848649138510012   F   F   F
  0.3349712040053561  0.8341406286214763  0.3121493910322997   F   F   F
  0.5057579799444554  0.6692363693117329  0.6862552026429327   F   F   F
  0.8355827918464414  0.6682079905409424  0.3119290556632777   F   F   F
  0.6668149612983854  0.8332693015413071  0.6848241001621815   F   F   F
  0.6684988492731563  0.8347769380099450  0.3117180478088386   F   F   F
  0.8380219048507129  0.6665881794866593  0.6853683157812043   F   F   F
  0.1690856594922536  0.1687443546380152  0.4511456808166656   F   F   F
  0.0020722521693131  0.0022772635970441  0.5464591825576051   F   F   F
  0.5023524151651912  0.1668333176532428  0.4499836232475900   F   F   F
  0.3354094088509783  0.0020596132008635  0.5472991355753152   F   F   F
  0.8348175396061208  0.1682205902325720  0.4507671406331966   F   F   F
  0.6688334941278455  0.0002096223383106  0.5461633773693890   F   F   F
  0.1688956714468262  0.5006633420130200  0.4510481143687599   F   F   F
  0.0012150060438145  0.3348349782373461  0.5467086369766463   F   F   F
  0.5022385226329646  0.5027154547840951  0.4500286679399821   F   F   F
  0.3408478934748089  0.3347322607798162  0.5487379884115171   F   F   F
  0.8349838704664378  0.5010876163386797  0.4508464894100186   F   F   F
  0.6642945683005621  0.3353108191740617  0.5472781245873932   F   F   F
  0.1686261468413264  0.8349481312128049  0.4508299369261692   F   F   F
  0.0017460113084695  0.6675307233640737  0.5464928464040071   F   F   F
  0.5015948403985604  0.8345668276742870  0.4511898221419273   F   F   F
  0.3351456420269514  0.6674475109902076  0.5470854414158808   F   F   F
  0.8358057878992327  0.8346371031719144  0.4503707060913413   F   F   F
  0.6691074983569223  0.6687029268554099  0.5464158153628489   F   F   F
  0.3150531310705986  0.3879311609950165  0.8158742999822195   T   T   T
  0.4221330352784349  0.3516723520296168  0.8124624749028939   T   T   T
  0.3255327042770376  0.4616206649524769  0.8247973238810540   T   T   T
 
  0.00000000E+00  0.00000000E+00  0.00000000E+00
  0.00000000E+00  0.00000000E+00  0.00000000E+00
  0.00000000E+00  0.00000000E+00  0.00000000E+00
  0.00000000E+00  0.00000000E+00  0.00000000E+00
  0.00000000E+00  0.00000000E+00  0.00000000E+00
  0.00000000E+00  0.00000000E+00  0.00000000E+00
  0.00000000E+00  0.00000000E+00  0.00000000E+00
  0.00000000E+00  0.00000000E+00  0.00000000E+00
  0.00000000E+00  0.00000000E+00  0.00000000E+00
  0.00000000E+00  0.00000000E+00  0.00000000E+00
  0.00000000E+00  0.00000000E+00  0.00000000E+00
  0.00000000E+00  0.00000000E+00  0.00000000E+00
  0.00000000E+00  0.00000000E+00  0.00000000E+00
  0.00000000E+00  0.00000000E+00  0.00000000E+00
  0.00000000E+00  0.00000000E+00  0.00000000E+00
  0.00000000E+00  0.00000000E+00  0.00000000E+00
  0.00000000E+00  0.00000000E+00  0.00000000E+00
  0.00000000E+00  0.00000000E+00  0.00000000E+00
  0.00000000E+00  0.00000000E+00  0.00000000E+00
  0.00000000E+00  0.00000000E+00  0.00000000E+00
  0.00000000E+00  0.00000000E+00  0.00000000E+00
  0.00000000E+00  0.00000000E+00  0.00000000E+00
  0.00000000E+00  0.00000000E+00  0.00000000E+00
  0.00000000E+00  0.00000000E+00  0.00000000E+00
  0.00000000E+00  0.00000000E+00  0.00000000E+00
  0.00000000E+00  0.00000000E+00  0.00000000E+00
  0.00000000E+00  0.00000000E+00  0.00000000E+00
  0.00000000E+00  0.00000000E+00  0.00000000E+00
  0.00000000E+00  0.00000000E+00  0.00000000E+00
  0.00000000E+00  0.00000000E+00  0.00000000E+00
  0.00000000E+00  0.00000000E+00  0.00000000E+00
  0.00000000E+00  0.00000000E+00  0.00000000E+00
  0.00000000E+00  0.00000000E+00  0.00000000E+00
  0.00000000E+00  0.00000000E+00  0.00000000E+00
  0.00000000E+00  0.00000000E+00  0.00000000E+00
  0.00000000E+00  0.00000000E+00  0.00000000E+00
  0.00000000E+00  0.00000000E+00  0.00000000E+00
  0.00000000E+00  0.00000000E+00  0.00000000E+00
  0.00000000E+00  0.00000000E+00  0.00000000E+00
  0.00000000E+00  0.00000000E+00  0.00000000E+00
  0.00000000E+00  0.00000000E+00  0.00000000E+00
  0.00000000E+00  0.00000000E+00  0.00000000E+00
  0.00000000E+00  0.00000000E+00  0.00000000E+00
  0.00000000E+00  0.00000000E+00  0.00000000E+00
  0.00000000E+00  0.00000000E+00  0.00000000E+00
  0.00000000E+00  0.00000000E+00  0.00000000E+00
  0.00000000E+00  0.00000000E+00  0.00000000E+00
  0.00000000E+00  0.00000000E+00  0.00000000E+00
  0.00000000E+00  0.00000000E+00  0.00000000E+00
  0.00000000E+00  0.00000000E+00  0.00000000E+00
  0.00000000E+00  0.00000000E+00  0.00000000E+00
  0.00000000E+00  0.00000000E+00  0.00000000E+00
  0.00000000E+00  0.00000000E+00  0.00000000E+00
  0.00000000E+00  0.00000000E+00  0.00000000E+00
  0.00000000E+00  0.00000000E+00  0.00000000E+00
  0.00000000E+00  0.00000000E+00  0.00000000E+00
  0.00000000E+00  0.00000000E+00  0.00000000E+00
  0.00000000E+00  0.00000000E+00  0.00000000E+00
  0.00000000E+00  0.00000000E+00  0.00000000E+00
  0.00000000E+00  0.00000000E+00  0.00000000E+00
  0.00000000E+00  0.00000000E+00  0.00000000E+00
  0.00000000E+00  0.00000000E+00  0.00000000E+00
  0.00000000E+00  0.00000000E+00  0.00000000E+00
  0.00000000E+00  0.00000000E+00  0.00000000E+00
  0.00000000E+00  0.00000000E+00  0.00000000E+00
  0.00000000E+00  0.00000000E+00  0.00000000E+00
  0.00000000E+00  0.00000000E+00  0.00000000E+00
  0.00000000E+00  0.00000000E+00  0.00000000E+00
  0.00000000E+00  0.00000000E+00  0.00000000E+00
  0.00000000E+00  0.00000000E+00  0.00000000E+00
  0.00000000E+00  0.00000000E+00  0.00000000E+00
  0.00000000E+00  0.00000000E+00  0.00000000E+00
  0.00000000E+00  0.00000000E+00  0.00000000E+00
  0.00000000E+00  0.00000000E+00  0.00000000E+00
  0.00000000E+00  0.00000000E+00  0.00000000E+00
