CONTCAR\(2)                             
   1.00000000000000     
    13.7474002837999993    0.0000000000000000    0.0000000000000000
     6.8496988029999999   13.0331533396000001    0.0000000000000000
     0.0000000000000000    0.0000000000000000   18.5631008147999985
   Li   Cu   C    O 
     9    18    18    54
Direct
  0.2139232326852607  0.0540886385045596  0.4893845566545210
  0.5472632136852624  0.0540886385045596  0.4893845566545210
  0.8805932756852641  0.0540886385045596  0.4893845566545210
  0.2139232206852597  0.3874286435045562  0.4893845566545210
  0.5472632366852608  0.3874286435045562  0.4893845566545210
  0.8805932636852631  0.3874286435045562  0.4893845566545210
  0.2139231876852605  0.7207586645045581  0.4893845566545210
  0.5472632046852652  0.7207586645045581  0.4893845566545210
  0.8805932306852640  0.7207586645045581  0.4893845566545210
  0.1141391992655514  0.2727934564583663  0.5757661934389020
  0.3162130421914426  0.1653411898123309  0.4056726557408510
  0.4474691572655516  0.2727934564583663  0.5757661934389020
  0.6495431031914407  0.1653411898123309  0.4056726557408510
  0.7808091732655456  0.2727934564583663  0.5757661934389020
  0.9828730601914444  0.1653411898123309  0.4056726557408510
  0.1141392022655481  0.6061234774583681  0.5757661934389020
  0.3162130531914400  0.4986711928123313  0.4056726557408510
  0.4474691932655475  0.6061234774583681  0.5757661934389020
  0.6495430801914424  0.4986711928123313  0.4056726557408510
  0.7808092102655451  0.6061234774583681  0.5757661934389020
  0.9828730371914389  0.4986711928123313  0.4056726557408510
  0.1141392222655497  0.9394634864583651  0.5757661934389020
  0.3162130571914403  0.8320111658123324  0.4056726557408510
  0.4474691792655463  0.9394634864583651  0.5757661934389020
  0.6495431531914448  0.8320111658123324  0.4056726557408510
  0.7808091262655452  0.9394634864583651  0.5757661934389020
  0.9828731101914414  0.8320111658123324  0.4056726557408510
  0.3298191892038815  0.1555132567101438  0.5667789175797182
  0.1005603761147995  0.2824708732883749  0.4146089816248235
  0.6631491812038846  0.1555132567101438  0.5667789175797182
  0.4339003921148006  0.2824708732883749  0.4146089816248235
  0.9964891972038785  0.1555132567101438  0.5667789175797182
  0.7672304181147993  0.2824708732883749  0.4146089816248235
  0.3298192102038797  0.4888432407101462  0.5667789175797182
  0.1005603871148040  0.6158008752883717  0.4146089816248235
  0.6631491672038834  0.4888432407101462  0.5667789175797182
  0.4339003681147986  0.6158008752883717  0.4146089816248235
  0.9964891832038845  0.4888432407101462  0.5667789175797182
  0.7672303951148010  0.6158008752883717  0.4146089816248235
  0.3298191772038805  0.8221732617101480  0.5667789175797182
  0.1005603911148043  0.9491308232883711  0.4146089816248235
  0.6631492042038829  0.8221732617101480  0.5667789175797182
  0.4339004421147976  0.9491308232883711  0.4146089816248235
  0.9964892202038840  0.8221732617101480  0.5667789175797182
  0.7672303991148013  0.9491308232883711  0.4146089816248235
  0.2428704200720873  0.1423527005004246  0.5673276472654578
  0.3188870066435854  0.2477571881137521  0.5701406165085672
  0.0917266156689536  0.0766657143559755  0.5620379951849515
  0.0051934693829310  0.0279248023554572  0.4180361183653929
  0.1116830598869853  0.1900137110239726  0.4125018925474393
  0.1874344098845242  0.2956884988766504  0.4139445030893540
  0.5762004460720860  0.1423527005004246  0.5673276472654578
  0.6522169986435813  0.2477571881137521  0.5701406165085672
  0.4250665806689540  0.0766657143559755  0.5620379951849515
  0.3385234643829307  0.0279248023554572  0.4180361183653929
  0.4450130518869884  0.1900137110239726  0.4125018925474393
  0.5207644368845195  0.2956884988766504  0.4139445030893540
  0.9095304040720862  0.1423527005004246  0.5673276472654578
  0.9855570146435824  0.2477571881137521  0.5701406165085672
  0.7583966416689520  0.0766657143559755  0.5620379951849515
  0.6718634103829331  0.0279248023554572  0.4180361183653929
  0.7783530678869823  0.1900137110239726  0.4125018925474393
  0.8540943938845231  0.2956884988766504  0.4139445030893540
  0.2428704400720889  0.4756826855004235  0.5673276472654578
  0.3188870086435855  0.5810872091137540  0.5701406165085672
  0.0917266426689523  0.4099957213559691  0.5620379951849515
  0.0051934833829321  0.3612548053554576  0.4180361183653929
  0.1116830708869827  0.5233437140239730  0.4125018925474393
  0.1874344138845245  0.6290284718766515  0.4139445030893540
  0.5762004320720848  0.4756826855004235  0.5673276472654578
  0.6522169666435857  0.5810872091137540  0.5701406165085672
  0.4250665896689512  0.4099957213559691  0.5620379951849515
  0.3385234753829351  0.3612548053554576  0.4180361183653929
  0.4450130278869864  0.5233437140239730  0.4125018925474393
  0.5207644408845198  0.6290284718766515  0.4139445030893540
  0.9095303900720850  0.4756826855004235  0.5673276472654578
  0.9855570516435819  0.5810872091137540  0.5701406165085672
  0.7583966156689570  0.4099957213559691  0.5620379951849515
  0.6718634563829298  0.3612548053554576  0.4180361183653929
  0.7783530438869875  0.5233437140239730  0.4125018925474393
  0.8540943288845213  0.6290284718766515  0.4139445030893540
  0.2428704610720871  0.8090226945004204  0.5673276472654578
  0.3188870826435846  0.9144171571137534  0.5701406165085672
  0.0917266096689531  0.7433357673559726  0.5620379951849515
  0.0051934693829310  0.6945948143554546  0.4180361183653929
  0.1116830548869885  0.8566737720239743  0.4125018925474393
  0.1874344148845211  0.9623585658766487  0.4139445030893540
  0.5762004180720908  0.8090226945004204  0.5673276472654578
  0.6522170396435811  0.9144171571137534  0.5701406165085672
  0.4250666256689541  0.7433357673559726  0.5620379951849515
  0.3385234953829297  0.6945948143554546  0.4180361183653929
  0.4450130468869844  0.8566737720239743  0.4125018925474393
  0.5207643718845176  0.9623585658766487  0.4139445030893540
  0.9095303750720873  0.8090226945004204  0.5673276472654578
  0.9855569866435872  0.9144171571137534  0.5701406165085672
  0.7583965836689543  0.7433357673559726  0.5620379951849515
  0.6718634423829357  0.6945948143554546  0.4180361183653929
  0.7783529938869833  0.8566737720239743  0.4125018925474393
  0.8540943288845213  0.9623585658766487  0.4139445030893540
 
  0.00000000E+00  0.00000000E+00  0.00000000E+00
  0.00000000E+00  0.00000000E+00  0.00000000E+00
  0.00000000E+00  0.00000000E+00  0.00000000E+00
  0.00000000E+00  0.00000000E+00  0.00000000E+00
  0.00000000E+00  0.00000000E+00  0.00000000E+00
  0.00000000E+00  0.00000000E+00  0.00000000E+00
  0.00000000E+00  0.00000000E+00  0.00000000E+00
  0.00000000E+00  0.00000000E+00  0.00000000E+00
  0.00000000E+00  0.00000000E+00  0.00000000E+00
  0.00000000E+00  0.00000000E+00  0.00000000E+00
  0.00000000E+00  0.00000000E+00  0.00000000E+00
  0.00000000E+00  0.00000000E+00  0.00000000E+00
  0.00000000E+00  0.00000000E+00  0.00000000E+00
  0.00000000E+00  0.00000000E+00  0.00000000E+00
  0.00000000E+00  0.00000000E+00  0.00000000E+00
  0.00000000E+00  0.00000000E+00  0.00000000E+00
  0.00000000E+00  0.00000000E+00  0.00000000E+00
  0.00000000E+00  0.00000000E+00  0.00000000E+00
  0.00000000E+00  0.00000000E+00  0.00000000E+00
  0.00000000E+00  0.00000000E+00  0.00000000E+00
  0.00000000E+00  0.00000000E+00  0.00000000E+00
  0.00000000E+00  0.00000000E+00  0.00000000E+00
  0.00000000E+00  0.00000000E+00  0.00000000E+00
  0.00000000E+00  0.00000000E+00  0.00000000E+00
  0.00000000E+00  0.00000000E+00  0.00000000E+00
  0.00000000E+00  0.00000000E+00  0.00000000E+00
  0.00000000E+00  0.00000000E+00  0.00000000E+00
  0.00000000E+00  0.00000000E+00  0.00000000E+00
  0.00000000E+00  0.00000000E+00  0.00000000E+00
  0.00000000E+00  0.00000000E+00  0.00000000E+00
  0.00000000E+00  0.00000000E+00  0.00000000E+00
  0.00000000E+00  0.00000000E+00  0.00000000E+00
  0.00000000E+00  0.00000000E+00  0.00000000E+00
  0.00000000E+00  0.00000000E+00  0.00000000E+00
  0.00000000E+00  0.00000000E+00  0.00000000E+00
  0.00000000E+00  0.00000000E+00  0.00000000E+00
  0.00000000E+00  0.00000000E+00  0.00000000E+00
  0.00000000E+00  0.00000000E+00  0.00000000E+00
  0.00000000E+00  0.00000000E+00  0.00000000E+00
  0.00000000E+00  0.00000000E+00  0.00000000E+00
  0.00000000E+00  0.00000000E+00  0.00000000E+00
  0.00000000E+00  0.00000000E+00  0.00000000E+00
  0.00000000E+00  0.00000000E+00  0.00000000E+00
  0.00000000E+00  0.00000000E+00  0.00000000E+00
  0.00000000E+00  0.00000000E+00  0.00000000E+00
  0.00000000E+00  0.00000000E+00  0.00000000E+00
  0.00000000E+00  0.00000000E+00  0.00000000E+00
  0.00000000E+00  0.00000000E+00  0.00000000E+00
  0.00000000E+00  0.00000000E+00  0.00000000E+00
  0.00000000E+00  0.00000000E+00  0.00000000E+00
  0.00000000E+00  0.00000000E+00  0.00000000E+00
  0.00000000E+00  0.00000000E+00  0.00000000E+00
  0.00000000E+00  0.00000000E+00  0.00000000E+00
  0.00000000E+00  0.00000000E+00  0.00000000E+00
  0.00000000E+00  0.00000000E+00  0.00000000E+00
  0.00000000E+00  0.00000000E+00  0.00000000E+00
  0.00000000E+00  0.00000000E+00  0.00000000E+00
  0.00000000E+00  0.00000000E+00  0.00000000E+00
  0.00000000E+00  0.00000000E+00  0.00000000E+00
  0.00000000E+00  0.00000000E+00  0.00000000E+00
  0.00000000E+00  0.00000000E+00  0.00000000E+00
  0.00000000E+00  0.00000000E+00  0.00000000E+00
  0.00000000E+00  0.00000000E+00  0.00000000E+00
  0.00000000E+00  0.00000000E+00  0.00000000E+00
  0.00000000E+00  0.00000000E+00  0.00000000E+00
  0.00000000E+00  0.00000000E+00  0.00000000E+00
  0.00000000E+00  0.00000000E+00  0.00000000E+00
  0.00000000E+00  0.00000000E+00  0.00000000E+00
  0.00000000E+00  0.00000000E+00  0.00000000E+00
  0.00000000E+00  0.00000000E+00  0.00000000E+00
  0.00000000E+00  0.00000000E+00  0.00000000E+00
  0.00000000E+00  0.00000000E+00  0.00000000E+00
  0.00000000E+00  0.00000000E+00  0.00000000E+00
  0.00000000E+00  0.00000000E+00  0.00000000E+00
  0.00000000E+00  0.00000000E+00  0.00000000E+00
  0.00000000E+00  0.00000000E+00  0.00000000E+00
  0.00000000E+00  0.00000000E+00  0.00000000E+00
  0.00000000E+00  0.00000000E+00  0.00000000E+00
  0.00000000E+00  0.00000000E+00  0.00000000E+00
  0.00000000E+00  0.00000000E+00  0.00000000E+00
  0.00000000E+00  0.00000000E+00  0.00000000E+00
  0.00000000E+00  0.00000000E+00  0.00000000E+00
  0.00000000E+00  0.00000000E+00  0.00000000E+00
  0.00000000E+00  0.00000000E+00  0.00000000E+00
  0.00000000E+00  0.00000000E+00  0.00000000E+00
  0.00000000E+00  0.00000000E+00  0.00000000E+00
  0.00000000E+00  0.00000000E+00  0.00000000E+00
  0.00000000E+00  0.00000000E+00  0.00000000E+00
  0.00000000E+00  0.00000000E+00  0.00000000E+00
  0.00000000E+00  0.00000000E+00  0.00000000E+00
  0.00000000E+00  0.00000000E+00  0.00000000E+00
  0.00000000E+00  0.00000000E+00  0.00000000E+00
  0.00000000E+00  0.00000000E+00  0.00000000E+00
  0.00000000E+00  0.00000000E+00  0.00000000E+00
  0.00000000E+00  0.00000000E+00  0.00000000E+00
  0.00000000E+00  0.00000000E+00  0.00000000E+00
  0.00000000E+00  0.00000000E+00  0.00000000E+00
  0.00000000E+00  0.00000000E+00  0.00000000E+00
  0.00000000E+00  0.00000000E+00  0.00000000E+00
