CONTCAR\(2)                             
   1.00000000000000     
    18.0454998015999983    0.0000000000000000    0.0000000000000000
    -9.0227856342999999   15.5459183949999993    0.0000000000000000
     0.0000000000000000    0.0000000000000000   17.8997001647999987
   Ti   Cl   O 
    18    54     1
Direct
  0.3054890105301253  0.2729444163653713  0.5037353611140311
  0.0715102088467154  0.1418027481331213  0.4987675351030963
  0.6325810404698787  0.2634468575835104  0.4999949454847299
  0.4073562560078947  0.1421240572313187  0.5018790894357400
  0.9642162099983695  0.2637573049616886  0.5008077857212592
  0.7405401916592194  0.1431738833803063  0.4998973234123231
  0.2999322342231334  0.5990021908227013  0.4989786678389406
  0.0711479390574228  0.4769828007009325  0.5010239129341890
  0.6356365017008894  0.5985504528746955  0.5018802206505740
  0.4030580043566512  0.4678430558079549  0.5035610447810337
  0.9672631769313818  0.5975857982121494  0.5001005169579937
  0.7398892833052225  0.4772396133023786  0.4999875711499837
  0.2980942752057275  0.9300957344424462  0.5004392801203710
  0.0738683411341783  0.8120441716807942  0.5001484097700691
  0.6317681772788709  0.9287037338048809  0.4999214377308101
  0.4081552566694822  0.8108103555104974  0.4999965098232965
  0.9676859147265008  0.9300648266691908  0.5000495408474588
  0.7384245655525695  0.8104881677267278  0.5005117915531501
  0.0712634681460156  0.0370902829268602  0.5820348074541802
  0.3011966761151037  0.0372311769509401  0.4190534866784549
  0.1867940538089117  0.1558665780579080  0.4242652706029108
  0.0702718589851397  0.2556927827257475  0.4238689151545107
  0.3037253312543717  0.1539090533282719  0.5770335115588892
  0.1873484490507915  0.2549650936867978  0.5777519161441299
  0.4048648620558334  0.0362289124928820  0.5829758219350972
  0.6336496318318454  0.0361246820067061  0.4188092020237404
  0.5186873698706514  0.1519907321743465  0.4218749072290175
  0.4040807888130244  0.2557417403815157  0.4253734205941860
  0.6345590623094047  0.1514698780195947  0.5766881389097496
  0.5207509809803246  0.2554609246972625  0.5781323635219913
  0.7384762800420390  0.0363523012752207  0.5812008510824858
  0.9674663127939425  0.0364022564038888  0.4175583651704577
  0.8527158496638551  0.1515154390265142  0.4220047532549168
  0.7375952850756815  0.2545214236269512  0.4224703747089845
  0.9691027830652710  0.1525984566604653  0.5776489653663887
  0.8522687779830660  0.2548396417329732  0.5790736098437840
  0.0707742015466343  0.3703709166212731  0.5822351020736025
  0.3017236834570587  0.3703447419014639  0.4171400618447413
  0.1849269927074983  0.4852313546409524  0.4238263497873033
  0.0715530469100659  0.5892567624493831  0.4225418146447094
  0.3028291367451303  0.4857718689420651  0.5776408686090535
  0.1869256460801304  0.5880649796058267  0.5781309895319677
  0.4018709571943979  0.3704439885414363  0.5838787516751385
  0.6348898691999874  0.3703295480344864  0.4180032985107193
  0.5187609611324339  0.4850215150332367  0.4252598924284575
  0.4012751711607299  0.5849716452610386  0.4243745382427100
  0.6358076678310314  0.4852494631277401  0.5779887160062562
  0.5202177689123378  0.5867541585253323  0.5769877745973979
  0.7390622567868346  0.3703262549788946  0.5807828266086873
  0.9660776965302431  0.3704565187953239  0.4191033995328858
  0.8534469512270191  0.4862253471706382  0.4222765840532426
  0.7372424181363426  0.5887077791912649  0.4220036803402050
  0.9677620110977149  0.4858984353764007  0.5790040682045543
  0.8533503563358296  0.5892519019883169  0.5770563695347284
  0.0723730750928609  0.7044063902544280  0.5814953787638159
  0.3012060711530470  0.7042983974964818  0.4177362977514507
  0.1860467371046038  0.8184870114417236  0.4221857326256892
  0.0724850111820103  0.9233866875114836  0.4219884449326841
  0.3010799838841313  0.8181622270061909  0.5765963650743750
  0.1865914925076759  0.9229833426671371  0.5787167124564343
  0.4047005965228007  0.7038930948514629  0.5820807491632872
  0.6344232997789673  0.7034127642670427  0.4190448158374835
  0.5192847885080996  0.8171814883264833  0.4217616911128280
  0.4048579007002580  0.9223965119998571  0.4236612843810275
  0.6338722131889630  0.8177698854655977  0.5785031809431993
  0.5199848048709701  0.9223497424688311  0.5783039192038751
  0.7388809473646090  0.7045163882527377  0.5831470122580172
  0.9677013458062158  0.7046101682413202  0.4191267333216044
  0.8527757529532537  0.8183767075393146  0.4236770178277978
  0.7378663305287241  0.9220597952916000  0.4223339282984525
  0.9681758176749936  0.8185720158273450  0.5782716215144981
  0.8532727001878020  0.9225193350054004  0.5767303478071977
  0.4392408864990770  0.3706194105150054  0.6621549988370758
 
  0.00000000E+00  0.00000000E+00  0.00000000E+00
  0.00000000E+00  0.00000000E+00  0.00000000E+00
  0.00000000E+00  0.00000000E+00  0.00000000E+00
  0.00000000E+00  0.00000000E+00  0.00000000E+00
  0.00000000E+00  0.00000000E+00  0.00000000E+00
  0.00000000E+00  0.00000000E+00  0.00000000E+00
  0.00000000E+00  0.00000000E+00  0.00000000E+00
  0.00000000E+00  0.00000000E+00  0.00000000E+00
  0.00000000E+00  0.00000000E+00  0.00000000E+00
  0.00000000E+00  0.00000000E+00  0.00000000E+00
  0.00000000E+00  0.00000000E+00  0.00000000E+00
  0.00000000E+00  0.00000000E+00  0.00000000E+00
  0.00000000E+00  0.00000000E+00  0.00000000E+00
  0.00000000E+00  0.00000000E+00  0.00000000E+00
  0.00000000E+00  0.00000000E+00  0.00000000E+00
  0.00000000E+00  0.00000000E+00  0.00000000E+00
  0.00000000E+00  0.00000000E+00  0.00000000E+00
  0.00000000E+00  0.00000000E+00  0.00000000E+00
  0.00000000E+00  0.00000000E+00  0.00000000E+00
  0.00000000E+00  0.00000000E+00  0.00000000E+00
  0.00000000E+00  0.00000000E+00  0.00000000E+00
  0.00000000E+00  0.00000000E+00  0.00000000E+00
  0.00000000E+00  0.00000000E+00  0.00000000E+00
  0.00000000E+00  0.00000000E+00  0.00000000E+00
  0.00000000E+00  0.00000000E+00  0.00000000E+00
  0.00000000E+00  0.00000000E+00  0.00000000E+00
  0.00000000E+00  0.00000000E+00  0.00000000E+00
  0.00000000E+00  0.00000000E+00  0.00000000E+00
  0.00000000E+00  0.00000000E+00  0.00000000E+00
  0.00000000E+00  0.00000000E+00  0.00000000E+00
  0.00000000E+00  0.00000000E+00  0.00000000E+00
  0.00000000E+00  0.00000000E+00  0.00000000E+00
  0.00000000E+00  0.00000000E+00  0.00000000E+00
  0.00000000E+00  0.00000000E+00  0.00000000E+00
  0.00000000E+00  0.00000000E+00  0.00000000E+00
  0.00000000E+00  0.00000000E+00  0.00000000E+00
  0.00000000E+00  0.00000000E+00  0.00000000E+00
  0.00000000E+00  0.00000000E+00  0.00000000E+00
  0.00000000E+00  0.00000000E+00  0.00000000E+00
  0.00000000E+00  0.00000000E+00  0.00000000E+00
  0.00000000E+00  0.00000000E+00  0.00000000E+00
  0.00000000E+00  0.00000000E+00  0.00000000E+00
  0.00000000E+00  0.00000000E+00  0.00000000E+00
  0.00000000E+00  0.00000000E+00  0.00000000E+00
  0.00000000E+00  0.00000000E+00  0.00000000E+00
  0.00000000E+00  0.00000000E+00  0.00000000E+00
  0.00000000E+00  0.00000000E+00  0.00000000E+00
  0.00000000E+00  0.00000000E+00  0.00000000E+00
  0.00000000E+00  0.00000000E+00  0.00000000E+00
  0.00000000E+00  0.00000000E+00  0.00000000E+00
  0.00000000E+00  0.00000000E+00  0.00000000E+00
  0.00000000E+00  0.00000000E+00  0.00000000E+00
  0.00000000E+00  0.00000000E+00  0.00000000E+00
  0.00000000E+00  0.00000000E+00  0.00000000E+00
  0.00000000E+00  0.00000000E+00  0.00000000E+00
  0.00000000E+00  0.00000000E+00  0.00000000E+00
  0.00000000E+00  0.00000000E+00  0.00000000E+00
  0.00000000E+00  0.00000000E+00  0.00000000E+00
  0.00000000E+00  0.00000000E+00  0.00000000E+00
  0.00000000E+00  0.00000000E+00  0.00000000E+00
  0.00000000E+00  0.00000000E+00  0.00000000E+00
  0.00000000E+00  0.00000000E+00  0.00000000E+00
  0.00000000E+00  0.00000000E+00  0.00000000E+00
  0.00000000E+00  0.00000000E+00  0.00000000E+00
  0.00000000E+00  0.00000000E+00  0.00000000E+00
  0.00000000E+00  0.00000000E+00  0.00000000E+00
  0.00000000E+00  0.00000000E+00  0.00000000E+00
  0.00000000E+00  0.00000000E+00  0.00000000E+00
  0.00000000E+00  0.00000000E+00  0.00000000E+00
  0.00000000E+00  0.00000000E+00  0.00000000E+00
  0.00000000E+00  0.00000000E+00  0.00000000E+00
  0.00000000E+00  0.00000000E+00  0.00000000E+00
  0.00000000E+00  0.00000000E+00  0.00000000E+00
