CONTCAR\(7)                             
   1.00000000000000     
    10.9294004440000005    0.0000000000000000    0.0000000000000000
    -5.4647012217000004    9.4654836332999999    0.0000000000000000
     0.0000000000000000    0.0000000000000000   27.0860996245999992
   Mn   Ga   S    O 
    18    18    45     1
Direct
  0.1120138578953955  0.2196229031844029  0.4453425564950927
  0.2247526073182313  0.1121977022114918  0.5550440293198020
  0.4472999299097216  0.2186931330311415  0.4449779911566850
  0.5495108979758614  0.0908785287836278  0.5607575343080181
  0.7763383607540687  0.2185942623235294  0.4450953730305189
  0.8872100927009072  0.1086108079836462  0.5558753317188955
  0.1120996774074079  0.5526876406726197  0.4456820709834554
  0.2329338246043407  0.4497997793991593  0.5600589463861271
  0.4446867721717841  0.5523734926505718  0.4450020088162770
  0.5538993279408071  0.4407992381090650  0.5547211291537512
  0.7794781932035365  0.5539169431856918  0.4449701693773510
  0.8905358689449450  0.4398891226369522  0.5547995733269555
  0.1104527070485281  0.8850327665433075  0.4450725721062683
  0.2285966664946766  0.7758745516502723  0.5562289454221918
  0.4470693019080612  0.8895600969261892  0.4446039081323441
  0.5526111239134929  0.7713986173660267  0.5564601552076626
  0.7792024405606138  0.8850738708690157  0.4448060294268578
  0.8872805520146352  0.7761931693852511  0.5545009733704664
  0.1105938233985052  0.2238998060992010  0.6838230254074725
  0.2246851211706021  0.1081333425781903  0.3152396432956523
  0.4475203116358687  0.2242587245443841  0.6837545980564307
  0.5575755113994035  0.1083196335057118  0.3132455495003672
  0.7772780748714737  0.2174626030320602  0.6852546210297978
  0.8905202390364773  0.1081491610429729  0.3151827627329890
  0.1143497068082744  0.5539325669707273  0.6852013294171622
  0.2242927396404036  0.4415777038791460  0.3149410362474001
  0.4732816277268429  0.6025132879402254  0.6874628514191825
  0.5574359261116176  0.4411542927290316  0.3148424716924809
  0.7772158373117320  0.5535489681125891  0.6839525558416794
  0.8908686027204575  0.4413058402053829  0.3151013107230708
  0.1095965797332582  0.8856298832330718  0.6832089223042318
  0.2244801956517180  0.7750075499475966  0.3150830201483201
  0.4593405463191863  0.8700174983906193  0.6914529176842427
  0.5573423790801781  0.7750439801609053  0.3149290434989958
  0.7377675156681602  0.8634961475272493  0.6874502097627847
  0.8909149201964757  0.7747819818979392  0.3139363545836613
  0.0003270964013729  0.9969340044047776  0.4989168226415112
  0.1109714785431063  0.2201026710490257  0.6006589598921936
  0.2237532893686655  0.1087409725678530  0.3971671876621118
  0.1128103076563100  0.2187249427007049  0.2768554520354540
  0.2224070227292096  0.1101520505312008  0.7194344064910532
  0.3380280095996877 -0.0007116893992101  0.4991446315979647
  0.4465217638869000  0.2189279256719379  0.6007428527268760
  0.5569776398121001  0.1091458749810882  0.3946677021233362
  0.4455042393479192  0.2197467491771399  0.2757251853474603
  0.5548953909957882  0.1104207804844059  0.7204191868538067
  0.6658533081763680 -0.0008391111911706  0.4988212103609578
  0.7773844546868202  0.2204793159542546  0.6019047818452228
  0.8898606658862137  0.1087183179420396  0.3971025405686612
  0.7811451741445720  0.2200508842961097  0.2758919381597238
  0.8885018696940706  0.1061925178043392  0.7191824045829980
  0.0009593512438896  0.3301415883171104  0.4990483866470955
  0.1097334619188593  0.5533511680892711  0.6018654468323410
  0.2226363492416088  0.4416094444722850  0.3967991964417353
  0.1129593222545825  0.5528698818300204  0.2765817842475313
  0.2288418622819536  0.4462455045657275  0.7191201177066163
  0.3326943356501446  0.3309416304687991  0.4983524797569419
  0.4508346471461092  0.5514589146605859  0.6016705583080699
  0.5560760717208219  0.4415157280704388  0.3966299457721656
  0.4465964415141467  0.5528727072389021  0.2764884761240513
  0.5561319568847013  0.4453672130302270  0.7195705365380227
  0.6669762365550577  0.3308244686858350  0.4986148064506756
  0.7790605177859985  0.5521782183443248  0.6007075115903210
  0.8902851522756912  0.4414812073280616  0.3969824242660718
  0.7792962984039922  0.5515403231365836  0.2761522594235920
  0.8896644491833924  0.4423408491026306  0.7203914867286195
  0.0015582927288424  0.6648951792032781  0.4991596143690776
  0.1125020892989884  0.8868606715211612  0.6003839583433468
  0.2233794262319110  0.7747013462968050  0.3969769990782754
  0.1142865266176567  0.8866328566560218  0.2762438507404151
  0.2212339065273114  0.7762860724890872  0.7207483561491597
  0.3334174492208675  0.6632064102079959  0.4989735525699853
  0.4423172231287544  0.8761692097543278  0.6057029607218831
  0.5558158087466640  0.7748576385790428  0.3968005250045151
  0.4456432283862226  0.8848258799667023  0.2758131004096381
  0.5629522578138402  0.7990844265284930  0.7562040568044962
  0.6677009077011528  0.6643629679587716  0.4983552883537318
  0.7770411470575662  0.8868303279302497  0.6017434758004987
  0.8897997481183301  0.7747256478955847  0.3953366289738371
  0.7791536560609086  0.8866058625670670  0.2762140305024174
  0.8878429687474070  0.7759590668778396  0.7193457898233521
  0.5731059483758852  0.8499520765432751  0.8080664395476080
 
  0.00000000E+00  0.00000000E+00  0.00000000E+00
  0.00000000E+00  0.00000000E+00  0.00000000E+00
  0.00000000E+00  0.00000000E+00  0.00000000E+00
  0.00000000E+00  0.00000000E+00  0.00000000E+00
  0.00000000E+00  0.00000000E+00  0.00000000E+00
  0.00000000E+00  0.00000000E+00  0.00000000E+00
  0.00000000E+00  0.00000000E+00  0.00000000E+00
  0.00000000E+00  0.00000000E+00  0.00000000E+00
  0.00000000E+00  0.00000000E+00  0.00000000E+00
  0.00000000E+00  0.00000000E+00  0.00000000E+00
  0.00000000E+00  0.00000000E+00  0.00000000E+00
  0.00000000E+00  0.00000000E+00  0.00000000E+00
  0.00000000E+00  0.00000000E+00  0.00000000E+00
  0.00000000E+00  0.00000000E+00  0.00000000E+00
  0.00000000E+00  0.00000000E+00  0.00000000E+00
  0.00000000E+00  0.00000000E+00  0.00000000E+00
  0.00000000E+00  0.00000000E+00  0.00000000E+00
  0.00000000E+00  0.00000000E+00  0.00000000E+00
  0.00000000E+00  0.00000000E+00  0.00000000E+00
  0.00000000E+00  0.00000000E+00  0.00000000E+00
  0.00000000E+00  0.00000000E+00  0.00000000E+00
  0.00000000E+00  0.00000000E+00  0.00000000E+00
  0.00000000E+00  0.00000000E+00  0.00000000E+00
  0.00000000E+00  0.00000000E+00  0.00000000E+00
  0.00000000E+00  0.00000000E+00  0.00000000E+00
  0.00000000E+00  0.00000000E+00  0.00000000E+00
  0.00000000E+00  0.00000000E+00  0.00000000E+00
  0.00000000E+00  0.00000000E+00  0.00000000E+00
  0.00000000E+00  0.00000000E+00  0.00000000E+00
  0.00000000E+00  0.00000000E+00  0.00000000E+00
  0.00000000E+00  0.00000000E+00  0.00000000E+00
  0.00000000E+00  0.00000000E+00  0.00000000E+00
  0.00000000E+00  0.00000000E+00  0.00000000E+00
  0.00000000E+00  0.00000000E+00  0.00000000E+00
  0.00000000E+00  0.00000000E+00  0.00000000E+00
  0.00000000E+00  0.00000000E+00  0.00000000E+00
  0.00000000E+00  0.00000000E+00  0.00000000E+00
  0.00000000E+00  0.00000000E+00  0.00000000E+00
  0.00000000E+00  0.00000000E+00  0.00000000E+00
  0.00000000E+00  0.00000000E+00  0.00000000E+00
  0.00000000E+00  0.00000000E+00  0.00000000E+00
  0.00000000E+00  0.00000000E+00  0.00000000E+00
  0.00000000E+00  0.00000000E+00  0.00000000E+00
  0.00000000E+00  0.00000000E+00  0.00000000E+00
  0.00000000E+00  0.00000000E+00  0.00000000E+00
  0.00000000E+00  0.00000000E+00  0.00000000E+00
  0.00000000E+00  0.00000000E+00  0.00000000E+00
  0.00000000E+00  0.00000000E+00  0.00000000E+00
  0.00000000E+00  0.00000000E+00  0.00000000E+00
  0.00000000E+00  0.00000000E+00  0.00000000E+00
  0.00000000E+00  0.00000000E+00  0.00000000E+00
  0.00000000E+00  0.00000000E+00  0.00000000E+00
  0.00000000E+00  0.00000000E+00  0.00000000E+00
  0.00000000E+00  0.00000000E+00  0.00000000E+00
  0.00000000E+00  0.00000000E+00  0.00000000E+00
  0.00000000E+00  0.00000000E+00  0.00000000E+00
  0.00000000E+00  0.00000000E+00  0.00000000E+00
  0.00000000E+00  0.00000000E+00  0.00000000E+00
  0.00000000E+00  0.00000000E+00  0.00000000E+00
  0.00000000E+00  0.00000000E+00  0.00000000E+00
  0.00000000E+00  0.00000000E+00  0.00000000E+00
  0.00000000E+00  0.00000000E+00  0.00000000E+00
  0.00000000E+00  0.00000000E+00  0.00000000E+00
  0.00000000E+00  0.00000000E+00  0.00000000E+00
  0.00000000E+00  0.00000000E+00  0.00000000E+00
  0.00000000E+00  0.00000000E+00  0.00000000E+00
  0.00000000E+00  0.00000000E+00  0.00000000E+00
  0.00000000E+00  0.00000000E+00  0.00000000E+00
  0.00000000E+00  0.00000000E+00  0.00000000E+00
  0.00000000E+00  0.00000000E+00  0.00000000E+00
  0.00000000E+00  0.00000000E+00  0.00000000E+00
  0.00000000E+00  0.00000000E+00  0.00000000E+00
  0.00000000E+00  0.00000000E+00  0.00000000E+00
  0.00000000E+00  0.00000000E+00  0.00000000E+00
  0.00000000E+00  0.00000000E+00  0.00000000E+00
  0.00000000E+00  0.00000000E+00  0.00000000E+00
  0.00000000E+00  0.00000000E+00  0.00000000E+00
  0.00000000E+00  0.00000000E+00  0.00000000E+00
  0.00000000E+00  0.00000000E+00  0.00000000E+00
  0.00000000E+00  0.00000000E+00  0.00000000E+00
  0.00000000E+00  0.00000000E+00  0.00000000E+00
  0.00000000E+00  0.00000000E+00  0.00000000E+00
