CONTCAR\(2)                             
   1.00000000000000     
    11.8118000031000001    0.0000000000000000    0.0000000000000000
     0.0000000000000000   12.8071002959999998    0.0000000000000000
     0.0000000000000000    0.0000000000000000   20.7511997223000009
   Cu   Sb   Se   O 
    12    12    24     1
Selective dynamics
Direct
  0.1607114089918866  0.3664110288912994  0.4399441862146176   F   F   F
  0.1645616568860504  0.1274806939244613  0.5538075339374515   F   F   F
  0.5000305519701413  0.3684537278102837  0.4478002554293283   F   F   F
  0.5000016747792770  0.1267258316265725  0.5583552436857531   F   F   F
  0.8393834055525033  0.3663782005169480  0.4399726691334251   F   F   F
  0.8355400433857838  0.1274796997112801  0.5538396686353195   F   F   F
  0.1668531120983943  0.8706284722962607  0.4414008007590979   F   F   F
  0.1674581828967874  0.6164566368469835  0.5580359064823170   F   F   F
  0.4999872980555295  0.8741856208872179  0.4413057652458008   F   F   F
  0.4999558137515407  0.6230312932120654  0.5620897588427027   F   F   F
  0.8331568889594010  0.8706880403150166  0.4414083769583996   F   F   F
  0.8325184301087489  0.6164407545877282  0.5580426809832915   F   F   F
  0.0000351812594914  0.3619350895716948  0.6220330769007703   F   F   F
  0.0000038284174906  0.1187533875538307  0.3651805138637698   F   F   F
  0.3554559139125786  0.3822679725756686  0.6516251338149246   F   F   F
  0.3346833747885611  0.1235770025645309  0.3675736763448398   F   F   F
  0.6445436424137796  0.3822266514747028  0.6516215993990926   F   F   F
  0.6651832724835955  0.1235442641244617  0.3676018785109747   F   F   F
  0.0000116027062660  0.8721415214852470  0.6287929535999837   F   F   F
  0.9999874139792979  0.6205117642630000  0.3687416769632677   F   F   F
  0.3330414449870673  0.8748633712185949  0.6297176245137663   F   F   F
  0.3361949856229032  0.6189287522965117  0.3703659138543287   F   F   F
  0.6669783045538722  0.8748758761567785  0.6297200416724706   F   F   F
  0.6637821199176130  0.6189326765492282  0.3703805607747555   F   F   F
  0.1720379037178006  0.3134197271710377  0.5493088804365058   F   F   F
  0.0000266710017058  0.3155745789302671  0.3771154551524489   F   F   F
  0.0000380319007078  0.0675982802895660  0.6100183804190138   F   F   F
  0.1667551506384797  0.0581817395126905  0.4467607044377644   F   F   F
  0.4999974894430892  0.3144161913424242  0.5582845388314439   F   F   F
  0.3348044269029700  0.3186376286717447  0.3875965596854911   F   F   F
  0.3308629847346722  0.0704013118522937  0.6104537735687714   F   F   F
  0.5000014681011535  0.0615125590778121  0.4493263028260657   F   F   F
  0.8280198966956291  0.3134210960603028  0.5493317790800063   F   F   F
  0.6652612616367293  0.3186408511125194  0.3875933084551093   F   F   F
  0.6691491088528352  0.0704126719979428  0.6104250850908031   F   F   F
  0.8331859028073794  0.0582457499777931  0.4467827968638787   F   F   F
  0.1672418344590554  0.8066610358390989  0.5494365064589246   F   F   F
  0.9999880465402029  0.8167366232952276  0.3851906343697280   F   F   F
  0.9999927930721739  0.5632034444518155  0.6116310440429231   F   F   F
  0.1658044534150420  0.5554047073087602  0.4489091727447629   F   F   F
  0.5000274087611558  0.8119965396950093  0.5499668095489625   F   F   F
  0.3339780172261868  0.8156124875526132  0.3858877248597139   F   F   F
  0.3325960604870701  0.5755659966403215  0.6174051135269636   F   F   F
  0.4999438826069706  0.5576926815422993  0.4536307363021663   F   F   F
  0.8327700295379827  0.8066618913620616  0.5494427508493658   F   F   F
  0.6660359901678703  0.8156057313502956  0.3858998167051695   F   F   F
  0.6673746241960927  0.5755201412018636  0.6173757200223591   F   F   F
  0.8341867904952949  0.5554016834980260  0.4489158340442572   F   F   F
  0.4999704271232729  0.4071661328058340  0.7000403533843598   T   T   T
 
  0.00000000E+00  0.00000000E+00  0.00000000E+00
  0.00000000E+00  0.00000000E+00  0.00000000E+00
  0.00000000E+00  0.00000000E+00  0.00000000E+00
  0.00000000E+00  0.00000000E+00  0.00000000E+00
  0.00000000E+00  0.00000000E+00  0.00000000E+00
  0.00000000E+00  0.00000000E+00  0.00000000E+00
  0.00000000E+00  0.00000000E+00  0.00000000E+00
  0.00000000E+00  0.00000000E+00  0.00000000E+00
  0.00000000E+00  0.00000000E+00  0.00000000E+00
  0.00000000E+00  0.00000000E+00  0.00000000E+00
  0.00000000E+00  0.00000000E+00  0.00000000E+00
  0.00000000E+00  0.00000000E+00  0.00000000E+00
  0.00000000E+00  0.00000000E+00  0.00000000E+00
  0.00000000E+00  0.00000000E+00  0.00000000E+00
  0.00000000E+00  0.00000000E+00  0.00000000E+00
  0.00000000E+00  0.00000000E+00  0.00000000E+00
  0.00000000E+00  0.00000000E+00  0.00000000E+00
  0.00000000E+00  0.00000000E+00  0.00000000E+00
  0.00000000E+00  0.00000000E+00  0.00000000E+00
  0.00000000E+00  0.00000000E+00  0.00000000E+00
  0.00000000E+00  0.00000000E+00  0.00000000E+00
  0.00000000E+00  0.00000000E+00  0.00000000E+00
  0.00000000E+00  0.00000000E+00  0.00000000E+00
  0.00000000E+00  0.00000000E+00  0.00000000E+00
  0.00000000E+00  0.00000000E+00  0.00000000E+00
  0.00000000E+00  0.00000000E+00  0.00000000E+00
  0.00000000E+00  0.00000000E+00  0.00000000E+00
  0.00000000E+00  0.00000000E+00  0.00000000E+00
  0.00000000E+00  0.00000000E+00  0.00000000E+00
  0.00000000E+00  0.00000000E+00  0.00000000E+00
  0.00000000E+00  0.00000000E+00  0.00000000E+00
  0.00000000E+00  0.00000000E+00  0.00000000E+00
  0.00000000E+00  0.00000000E+00  0.00000000E+00
  0.00000000E+00  0.00000000E+00  0.00000000E+00
  0.00000000E+00  0.00000000E+00  0.00000000E+00
  0.00000000E+00  0.00000000E+00  0.00000000E+00
  0.00000000E+00  0.00000000E+00  0.00000000E+00
  0.00000000E+00  0.00000000E+00  0.00000000E+00
  0.00000000E+00  0.00000000E+00  0.00000000E+00
  0.00000000E+00  0.00000000E+00  0.00000000E+00
  0.00000000E+00  0.00000000E+00  0.00000000E+00
  0.00000000E+00  0.00000000E+00  0.00000000E+00
  0.00000000E+00  0.00000000E+00  0.00000000E+00
  0.00000000E+00  0.00000000E+00  0.00000000E+00
  0.00000000E+00  0.00000000E+00  0.00000000E+00
  0.00000000E+00  0.00000000E+00  0.00000000E+00
  0.00000000E+00  0.00000000E+00  0.00000000E+00
  0.00000000E+00  0.00000000E+00  0.00000000E+00
  0.00000000E+00  0.00000000E+00  0.00000000E+00
