 Cu2 F4                                 
   1.00000000000000     
     3.5495128557309510    0.0000000000000000    0.0000000000000000
     0.0000000000000000    5.1816903672075183    0.0000000000000000
     0.0000000000000000    0.0000000000000000   16.5245386317319998
   Cu   F 
     2     4
Direct
  0.5000000341070855  0.4999999931465013  0.4999999921403981
  0.0000000450556695  0.0000000136628605  0.5000000050104868
  0.1155454926056106  0.3120717648738214  0.4422989788107539
  0.6155446420445875  0.1879280042199618  0.5577003487346812
  0.3844553319265932  0.8120719615792706  0.4422996358626534
  0.8844544542604569  0.6879282625175809  0.5577010394410288
 
  0.00000000E+00  0.00000000E+00  0.00000000E+00
  0.00000000E+00  0.00000000E+00  0.00000000E+00
  0.00000000E+00  0.00000000E+00  0.00000000E+00
  0.00000000E+00  0.00000000E+00  0.00000000E+00
  0.00000000E+00  0.00000000E+00  0.00000000E+00
  0.00000000E+00  0.00000000E+00  0.00000000E+00
