CONTCAR\(14)                            
   1.00000000000000     
    12.0853004455999997    0.0000000000000000    0.0000000000000000
     0.0000000000000000   13.7131004332999993    0.0000000000000000
     0.0000000000000000    0.0000000000000000   20.3784999846999995
   Zr   Te
     6    30
Direct
  0.0000000000000000  0.5000000000000000  0.4505779880964195
  0.1666699940000029 -0.0000000000000000  0.5494220589035809
  0.3333300059999971  0.5000000000000000  0.4505779880964195
  0.5000000000000000 -0.0000000000000000  0.5494220589035809
  0.6666700339999991  0.5000000000000000  0.4505779880964195
  0.8333299660000009 -0.0000000000000000  0.5494220589035809
  0.1666699940000029  0.5000000000000000  0.5607160535921960
  0.0000000000000000 -0.0000000000000000  0.4392839464078040
  0.1666699940000029  0.6012014509185927  0.3680089670361711
 -0.0000000000000000  0.8987985490814073  0.6319910329638289
 -0.0000000000000000  0.1012014939185927  0.6319910329638289
  0.1666699940000029  0.3987985140814079  0.3680089670361711
  0.0000000000000000  0.3164807173697349  0.5289531937778151
  0.1666699940000029  0.1835192646302636  0.4710468062221848
  0.1666699940000029  0.8164807523697342  0.4710468062221848
  0.0000000000000000  0.6835192476302658  0.5289531937778151
  0.5000000000000000  0.5000000000000000  0.5607160535921960
  0.3333300059999971 -0.0000000000000000  0.4392839464078040
  0.5000000000000000  0.6012014509185927  0.3680089670361711
  0.3333300059999971  0.8987985490814073  0.6319910329638289
  0.3333300059999971  0.1012014939185927  0.6319910329638289
  0.5000000000000000  0.3987985140814079  0.3680089670361711
  0.3333300059999971  0.3164807173697349  0.5289531937778151
  0.5000000000000000  0.1835192646302636  0.4710468062221848
  0.5000000000000000  0.8164807523697342  0.4710468062221848
  0.3333300059999971  0.6835192476302658  0.5289531937778151
  0.8333299660000009  0.5000000000000000  0.5607160535921960
  0.6666700339999991 -0.0000000000000000  0.4392839464078040
  0.8333299660000009  0.6012014509185927  0.3680089670361711
  0.6666700339999991  0.8987985490814073  0.6319910329638289
  0.6666700339999991  0.1012014939185927  0.6319910329638289
  0.8333299660000009  0.3987985140814079  0.3680089670361711
  0.6666700339999991  0.3164807173697349  0.5289531937778151
  0.8333299660000009  0.1835192646302636  0.4710468062221848
  0.8333299660000009  0.8164807523697342  0.4710468062221848
  0.6666700339999991  0.6835192476302658  0.5289531937778151
 
  0.00000000E+00  0.00000000E+00  0.00000000E+00
  0.00000000E+00  0.00000000E+00  0.00000000E+00
  0.00000000E+00  0.00000000E+00  0.00000000E+00
  0.00000000E+00  0.00000000E+00  0.00000000E+00
  0.00000000E+00  0.00000000E+00  0.00000000E+00
  0.00000000E+00  0.00000000E+00  0.00000000E+00
  0.00000000E+00  0.00000000E+00  0.00000000E+00
  0.00000000E+00  0.00000000E+00  0.00000000E+00
  0.00000000E+00  0.00000000E+00  0.00000000E+00
  0.00000000E+00  0.00000000E+00  0.00000000E+00
  0.00000000E+00  0.00000000E+00  0.00000000E+00
  0.00000000E+00  0.00000000E+00  0.00000000E+00
  0.00000000E+00  0.00000000E+00  0.00000000E+00
  0.00000000E+00  0.00000000E+00  0.00000000E+00
  0.00000000E+00  0.00000000E+00  0.00000000E+00
  0.00000000E+00  0.00000000E+00  0.00000000E+00
  0.00000000E+00  0.00000000E+00  0.00000000E+00
  0.00000000E+00  0.00000000E+00  0.00000000E+00
  0.00000000E+00  0.00000000E+00  0.00000000E+00
  0.00000000E+00  0.00000000E+00  0.00000000E+00
  0.00000000E+00  0.00000000E+00  0.00000000E+00
  0.00000000E+00  0.00000000E+00  0.00000000E+00
  0.00000000E+00  0.00000000E+00  0.00000000E+00
  0.00000000E+00  0.00000000E+00  0.00000000E+00
  0.00000000E+00  0.00000000E+00  0.00000000E+00
  0.00000000E+00  0.00000000E+00  0.00000000E+00
  0.00000000E+00  0.00000000E+00  0.00000000E+00
  0.00000000E+00  0.00000000E+00  0.00000000E+00
  0.00000000E+00  0.00000000E+00  0.00000000E+00
  0.00000000E+00  0.00000000E+00  0.00000000E+00
  0.00000000E+00  0.00000000E+00  0.00000000E+00
  0.00000000E+00  0.00000000E+00  0.00000000E+00
  0.00000000E+00  0.00000000E+00  0.00000000E+00
  0.00000000E+00  0.00000000E+00  0.00000000E+00
  0.00000000E+00  0.00000000E+00  0.00000000E+00
  0.00000000E+00  0.00000000E+00  0.00000000E+00
