G   59   19    1    0.005     # Parameters to Generate KPOINTS (Don't Edit This Line)
     300
Reciprocal lattice
    0.000000000000    0.000000000000    0.000000000000       1
    0.016949152542    0.000000000000    0.000000000000       2
    0.033898305085    0.000000000000    0.000000000000       2
    0.050847457627    0.000000000000    0.000000000000       2
    0.067796610169    0.000000000000    0.000000000000       2
    0.084745762712    0.000000000000    0.000000000000       2
    0.101694915254    0.000000000000    0.000000000000       2
    0.118644067797    0.000000000000    0.000000000000       2
    0.135593220339    0.000000000000    0.000000000000       2
    0.152542372881    0.000000000000    0.000000000000       2
    0.169491525424    0.000000000000    0.000000000000       2
    0.186440677966    0.000000000000    0.000000000000       2
    0.203389830508    0.000000000000    0.000000000000       2
    0.220338983051    0.000000000000    0.000000000000       2
    0.237288135593    0.000000000000    0.000000000000       2
    0.254237288136    0.000000000000    0.000000000000       2
    0.271186440678    0.000000000000    0.000000000000       2
    0.288135593220    0.000000000000    0.000000000000       2
    0.305084745763    0.000000000000    0.000000000000       2
    0.322033898305    0.000000000000    0.000000000000       2
    0.338983050847    0.000000000000    0.000000000000       2
    0.355932203390    0.000000000000    0.000000000000       2
    0.372881355932    0.000000000000    0.000000000000       2
    0.389830508475    0.000000000000    0.000000000000       2
    0.406779661017    0.000000000000    0.000000000000       2
    0.423728813559    0.000000000000    0.000000000000       2
    0.440677966102    0.000000000000    0.000000000000       2
    0.457627118644    0.000000000000    0.000000000000       2
    0.474576271186    0.000000000000    0.000000000000       2
    0.491525423729    0.000000000000    0.000000000000       2
    0.000000000000    0.052631578947    0.000000000000       2
    0.016949152542    0.052631578947    0.000000000000       4
    0.033898305085    0.052631578947    0.000000000000       4
    0.050847457627    0.052631578947    0.000000000000       4
    0.067796610169    0.052631578947    0.000000000000       4
    0.084745762712    0.052631578947    0.000000000000       4
    0.101694915254    0.052631578947    0.000000000000       4
    0.118644067797    0.052631578947    0.000000000000       4
    0.135593220339    0.052631578947    0.000000000000       4
    0.152542372881    0.052631578947    0.000000000000       4
    0.169491525424    0.052631578947    0.000000000000       4
    0.186440677966    0.052631578947    0.000000000000       4
    0.203389830508    0.052631578947    0.000000000000       4
    0.220338983051    0.052631578947    0.000000000000       4
    0.237288135593    0.052631578947    0.000000000000       4
    0.254237288136    0.052631578947    0.000000000000       4
    0.271186440678    0.052631578947    0.000000000000       4
    0.288135593220    0.052631578947    0.000000000000       4
    0.305084745763    0.052631578947    0.000000000000       4
    0.322033898305    0.052631578947    0.000000000000       4
    0.338983050847    0.052631578947    0.000000000000       4
    0.355932203390    0.052631578947    0.000000000000       4
    0.372881355932    0.052631578947    0.000000000000       4
    0.389830508475    0.052631578947    0.000000000000       4
    0.406779661017    0.052631578947    0.000000000000       4
    0.423728813559    0.052631578947    0.000000000000       4
    0.440677966102    0.052631578947    0.000000000000       4
    0.457627118644    0.052631578947    0.000000000000       4
    0.474576271186    0.052631578947    0.000000000000       4
    0.491525423729    0.052631578947    0.000000000000       4
    0.000000000000    0.105263157895    0.000000000000       2
    0.016949152542    0.105263157895    0.000000000000       4
    0.033898305085    0.105263157895    0.000000000000       4
    0.050847457627    0.105263157895    0.000000000000       4
    0.067796610169    0.105263157895    0.000000000000       4
    0.084745762712    0.105263157895    0.000000000000       4
    0.101694915254    0.105263157895    0.000000000000       4
    0.118644067797    0.105263157895    0.000000000000       4
    0.135593220339    0.105263157895    0.000000000000       4
    0.152542372881    0.105263157895    0.000000000000       4
    0.169491525424    0.105263157895    0.000000000000       4
    0.186440677966    0.105263157895    0.000000000000       4
    0.203389830508    0.105263157895    0.000000000000       4
    0.220338983051    0.105263157895    0.000000000000       4
    0.237288135593    0.105263157895    0.000000000000       4
    0.254237288136    0.105263157895    0.000000000000       4
    0.271186440678    0.105263157895    0.000000000000       4
    0.288135593220    0.105263157895    0.000000000000       4
    0.305084745763    0.105263157895    0.000000000000       4
    0.322033898305    0.105263157895    0.000000000000       4
    0.338983050847    0.105263157895    0.000000000000       4
    0.355932203390    0.105263157895    0.000000000000       4
    0.372881355932    0.105263157895    0.000000000000       4
    0.389830508475    0.105263157895    0.000000000000       4
    0.406779661017    0.105263157895    0.000000000000       4
    0.423728813559    0.105263157895    0.000000000000       4
    0.440677966102    0.105263157895    0.000000000000       4
    0.457627118644    0.105263157895    0.000000000000       4
    0.474576271186    0.105263157895    0.000000000000       4
    0.491525423729    0.105263157895    0.000000000000       4
    0.000000000000    0.157894736842    0.000000000000       2
    0.016949152542    0.157894736842    0.000000000000       4
    0.033898305085    0.157894736842    0.000000000000       4
    0.050847457627    0.157894736842    0.000000000000       4
    0.067796610169    0.157894736842    0.000000000000       4
    0.084745762712    0.157894736842    0.000000000000       4
    0.101694915254    0.157894736842    0.000000000000       4
    0.118644067797    0.157894736842    0.000000000000       4
    0.135593220339    0.157894736842    0.000000000000       4
    0.152542372881    0.157894736842    0.000000000000       4
    0.169491525424    0.157894736842    0.000000000000       4
    0.186440677966    0.157894736842    0.000000000000       4
    0.203389830508    0.157894736842    0.000000000000       4
    0.220338983051    0.157894736842    0.000000000000       4
    0.237288135593    0.157894736842    0.000000000000       4
    0.254237288136    0.157894736842    0.000000000000       4
    0.271186440678    0.157894736842    0.000000000000       4
    0.288135593220    0.157894736842    0.000000000000       4
    0.305084745763    0.157894736842    0.000000000000       4
    0.322033898305    0.157894736842    0.000000000000       4
    0.338983050847    0.157894736842    0.000000000000       4
    0.355932203390    0.157894736842    0.000000000000       4
    0.372881355932    0.157894736842    0.000000000000       4
    0.389830508475    0.157894736842    0.000000000000       4
    0.406779661017    0.157894736842    0.000000000000       4
    0.423728813559    0.157894736842    0.000000000000       4
    0.440677966102    0.157894736842    0.000000000000       4
    0.457627118644    0.157894736842    0.000000000000       4
    0.474576271186    0.157894736842    0.000000000000       4
    0.491525423729    0.157894736842    0.000000000000       4
    0.000000000000    0.210526315789    0.000000000000       2
    0.016949152542    0.210526315789    0.000000000000       4
    0.033898305085    0.210526315789    0.000000000000       4
    0.050847457627    0.210526315789    0.000000000000       4
    0.067796610169    0.210526315789    0.000000000000       4
    0.084745762712    0.210526315789    0.000000000000       4
    0.101694915254    0.210526315789    0.000000000000       4
    0.118644067797    0.210526315789    0.000000000000       4
    0.135593220339    0.210526315789    0.000000000000       4
    0.152542372881    0.210526315789    0.000000000000       4
    0.169491525424    0.210526315789    0.000000000000       4
    0.186440677966    0.210526315789    0.000000000000       4
    0.203389830508    0.210526315789    0.000000000000       4
    0.220338983051    0.210526315789    0.000000000000       4
    0.237288135593    0.210526315789    0.000000000000       4
    0.254237288136    0.210526315789    0.000000000000       4
    0.271186440678    0.210526315789    0.000000000000       4
    0.288135593220    0.210526315789    0.000000000000       4
    0.305084745763    0.210526315789    0.000000000000       4
    0.322033898305    0.210526315789    0.000000000000       4
    0.338983050847    0.210526315789    0.000000000000       4
    0.355932203390    0.210526315789    0.000000000000       4
    0.372881355932    0.210526315789    0.000000000000       4
    0.389830508475    0.210526315789    0.000000000000       4
    0.406779661017    0.210526315789    0.000000000000       4
    0.423728813559    0.210526315789    0.000000000000       4
    0.440677966102    0.210526315789    0.000000000000       4
    0.457627118644    0.210526315789    0.000000000000       4
    0.474576271186    0.210526315789    0.000000000000       4
    0.491525423729    0.210526315789    0.000000000000       4
    0.000000000000    0.263157894737    0.000000000000       2
    0.016949152542    0.263157894737    0.000000000000       4
    0.033898305085    0.263157894737    0.000000000000       4
    0.050847457627    0.263157894737    0.000000000000       4
    0.067796610169    0.263157894737    0.000000000000       4
    0.084745762712    0.263157894737    0.000000000000       4
    0.101694915254    0.263157894737    0.000000000000       4
    0.118644067797    0.263157894737    0.000000000000       4
    0.135593220339    0.263157894737    0.000000000000       4
    0.152542372881    0.263157894737    0.000000000000       4
    0.169491525424    0.263157894737    0.000000000000       4
    0.186440677966    0.263157894737    0.000000000000       4
    0.203389830508    0.263157894737    0.000000000000       4
    0.220338983051    0.263157894737    0.000000000000       4
    0.237288135593    0.263157894737    0.000000000000       4
    0.254237288136    0.263157894737    0.000000000000       4
    0.271186440678    0.263157894737    0.000000000000       4
    0.288135593220    0.263157894737    0.000000000000       4
    0.305084745763    0.263157894737    0.000000000000       4
    0.322033898305    0.263157894737    0.000000000000       4
    0.338983050847    0.263157894737    0.000000000000       4
    0.355932203390    0.263157894737    0.000000000000       4
    0.372881355932    0.263157894737    0.000000000000       4
    0.389830508475    0.263157894737    0.000000000000       4
    0.406779661017    0.263157894737    0.000000000000       4
    0.423728813559    0.263157894737    0.000000000000       4
    0.440677966102    0.263157894737    0.000000000000       4
    0.457627118644    0.263157894737    0.000000000000       4
    0.474576271186    0.263157894737    0.000000000000       4
    0.491525423729    0.263157894737    0.000000000000       4
    0.000000000000    0.315789473684    0.000000000000       2
    0.016949152542    0.315789473684    0.000000000000       4
    0.033898305085    0.315789473684    0.000000000000       4
    0.050847457627    0.315789473684    0.000000000000       4
    0.067796610169    0.315789473684    0.000000000000       4
    0.084745762712    0.315789473684    0.000000000000       4
    0.101694915254    0.315789473684    0.000000000000       4
    0.118644067797    0.315789473684    0.000000000000       4
    0.135593220339    0.315789473684    0.000000000000       4
    0.152542372881    0.315789473684    0.000000000000       4
    0.169491525424    0.315789473684    0.000000000000       4
    0.186440677966    0.315789473684    0.000000000000       4
    0.203389830508    0.315789473684    0.000000000000       4
    0.220338983051    0.315789473684    0.000000000000       4
    0.237288135593    0.315789473684    0.000000000000       4
    0.254237288136    0.315789473684    0.000000000000       4
    0.271186440678    0.315789473684    0.000000000000       4
    0.288135593220    0.315789473684    0.000000000000       4
    0.305084745763    0.315789473684    0.000000000000       4
    0.322033898305    0.315789473684    0.000000000000       4
    0.338983050847    0.315789473684    0.000000000000       4
    0.355932203390    0.315789473684    0.000000000000       4
    0.372881355932    0.315789473684    0.000000000000       4
    0.389830508475    0.315789473684    0.000000000000       4
    0.406779661017    0.315789473684    0.000000000000       4
    0.423728813559    0.315789473684    0.000000000000       4
    0.440677966102    0.315789473684    0.000000000000       4
    0.457627118644    0.315789473684    0.000000000000       4
    0.474576271186    0.315789473684    0.000000000000       4
    0.491525423729    0.315789473684    0.000000000000       4
    0.000000000000    0.368421052632    0.000000000000       2
    0.016949152542    0.368421052632    0.000000000000       4
    0.033898305085    0.368421052632    0.000000000000       4
    0.050847457627    0.368421052632    0.000000000000       4
    0.067796610169    0.368421052632    0.000000000000       4
    0.084745762712    0.368421052632    0.000000000000       4
    0.101694915254    0.368421052632    0.000000000000       4
    0.118644067797    0.368421052632    0.000000000000       4
    0.135593220339    0.368421052632    0.000000000000       4
    0.152542372881    0.368421052632    0.000000000000       4
    0.169491525424    0.368421052632    0.000000000000       4
    0.186440677966    0.368421052632    0.000000000000       4
    0.203389830508    0.368421052632    0.000000000000       4
    0.220338983051    0.368421052632    0.000000000000       4
    0.237288135593    0.368421052632    0.000000000000       4
    0.254237288136    0.368421052632    0.000000000000       4
    0.271186440678    0.368421052632    0.000000000000       4
    0.288135593220    0.368421052632    0.000000000000       4
    0.305084745763    0.368421052632    0.000000000000       4
    0.322033898305    0.368421052632    0.000000000000       4
    0.338983050847    0.368421052632    0.000000000000       4
    0.355932203390    0.368421052632    0.000000000000       4
    0.372881355932    0.368421052632    0.000000000000       4
    0.389830508475    0.368421052632    0.000000000000       4
    0.406779661017    0.368421052632    0.000000000000       4
    0.423728813559    0.368421052632    0.000000000000       4
    0.440677966102    0.368421052632    0.000000000000       4
    0.457627118644    0.368421052632    0.000000000000       4
    0.474576271186    0.368421052632    0.000000000000       4
    0.491525423729    0.368421052632    0.000000000000       4
    0.000000000000    0.421052631579    0.000000000000       2
    0.016949152542    0.421052631579    0.000000000000       4
    0.033898305085    0.421052631579    0.000000000000       4
    0.050847457627    0.421052631579    0.000000000000       4
    0.067796610169    0.421052631579    0.000000000000       4
    0.084745762712    0.421052631579    0.000000000000       4
    0.101694915254    0.421052631579    0.000000000000       4
    0.118644067797    0.421052631579    0.000000000000       4
    0.135593220339    0.421052631579    0.000000000000       4
    0.152542372881    0.421052631579    0.000000000000       4
    0.169491525424    0.421052631579    0.000000000000       4
    0.186440677966    0.421052631579    0.000000000000       4
    0.203389830508    0.421052631579    0.000000000000       4
    0.220338983051    0.421052631579    0.000000000000       4
    0.237288135593    0.421052631579    0.000000000000       4
    0.254237288136    0.421052631579    0.000000000000       4
    0.271186440678    0.421052631579    0.000000000000       4
    0.288135593220    0.421052631579    0.000000000000       4
    0.305084745763    0.421052631579    0.000000000000       4
    0.322033898305    0.421052631579    0.000000000000       4
    0.338983050847    0.421052631579    0.000000000000       4
    0.355932203390    0.421052631579    0.000000000000       4
    0.372881355932    0.421052631579    0.000000000000       4
    0.389830508475    0.421052631579    0.000000000000       4
    0.406779661017    0.421052631579    0.000000000000       4
    0.423728813559    0.421052631579    0.000000000000       4
    0.440677966102    0.421052631579    0.000000000000       4
    0.457627118644    0.421052631579    0.000000000000       4
    0.474576271186    0.421052631579    0.000000000000       4
    0.491525423729    0.421052631579    0.000000000000       4
    0.000000000000    0.473684210526    0.000000000000       2
    0.016949152542    0.473684210526    0.000000000000       4
    0.033898305085    0.473684210526    0.000000000000       4
    0.050847457627    0.473684210526    0.000000000000       4
    0.067796610169    0.473684210526    0.000000000000       4
    0.084745762712    0.473684210526    0.000000000000       4
    0.101694915254    0.473684210526    0.000000000000       4
    0.118644067797    0.473684210526    0.000000000000       4
    0.135593220339    0.473684210526    0.000000000000       4
    0.152542372881    0.473684210526    0.000000000000       4
    0.169491525424    0.473684210526    0.000000000000       4
    0.186440677966    0.473684210526    0.000000000000       4
    0.203389830508    0.473684210526    0.000000000000       4
    0.220338983051    0.473684210526    0.000000000000       4
    0.237288135593    0.473684210526    0.000000000000       4
    0.254237288136    0.473684210526    0.000000000000       4
    0.271186440678    0.473684210526    0.000000000000       4
    0.288135593220    0.473684210526    0.000000000000       4
    0.305084745763    0.473684210526    0.000000000000       4
    0.322033898305    0.473684210526    0.000000000000       4
    0.338983050847    0.473684210526    0.000000000000       4
    0.355932203390    0.473684210526    0.000000000000       4
    0.372881355932    0.473684210526    0.000000000000       4
    0.389830508475    0.473684210526    0.000000000000       4
    0.406779661017    0.473684210526    0.000000000000       4
    0.423728813559    0.473684210526    0.000000000000       4
    0.440677966102    0.473684210526    0.000000000000       4
    0.457627118644    0.473684210526    0.000000000000       4
    0.474576271186    0.473684210526    0.000000000000       4
    0.491525423729    0.473684210526    0.000000000000       4
