CONTCAR\(5)                             
   1.00000000000000     
    12.0246000290000001    0.0000000000000000    0.0000000000000000
     0.0000000000000000   16.5337009429999995    0.0000000000000000
     0.0000000000000000    0.0000000000000000   21.2348003387000013
   La   C    Br   O 
    24    12    30     1
Direct
  0.1665833142044130  0.1034149577865612  0.5001206779806214
  0.3334202891178200  0.0000224310654418  0.6397364461072025
  0.1681978407789073  0.3977844063915032  0.4996840499015088
  0.0005720836952097  0.4999811586892503  0.3610924714746381
  0.5000695679827942  0.1034374584647487  0.5000808552018005
  0.6667857769601192  0.0000205038687434  0.6396474363104955
  0.4984904934790452  0.3977835683227383  0.4996916702957440
  0.3334627169278980  0.4999743748905994  0.3594361048027316
  0.8333086785571074  0.1034829228389692  0.5000704072372051
  0.9996556860907523  0.0000175180926603  0.6396728366273552
  0.8333189928316325  0.3970922772764969  0.5003834107853387
  0.6662788407638515  0.4999919385500402  0.3611018684071883
  0.1681939606973661  0.6022360541021549  0.4996697864774202
  0.3331783661238059  0.5000877948856730  0.6735767610283366
  0.1665838568892842  0.8966042365385584  0.5001263357918508
  0.0001092728664713 -0.0000021202198897  0.3605237972247162
  0.4984848719641949  0.6022464752861063  0.4996679299226993
  0.6613857076851407  0.5000359425736994  0.6406168101546325
  0.5000699074307411  0.8965827265387436  0.5000918688668398
  0.3334073915280921  0.9999983604651825  0.3605452487198768
  0.8333212909100483  0.6029274247095129  0.5003702683504954
  0.0050095502493702  0.5000227960024592  0.6405830725564170
  0.8333033478437381  0.8965394350325943  0.5000743125552194
  0.6665698148836808  0.0000001357396240  0.3605019664502914
  0.9999407879794047  0.0000066401443896  0.4668287466408055
  0.9998827717025965  0.0000101177963388  0.5333270243849280
  0.3333378497000884  0.0000065078162906  0.4668406942683465
  0.3333475994491581  0.0000120167293950  0.5333351901056145
  0.6667076433679771  0.0000084827629231  0.4668019510470457
  0.6667235174072872  0.0000138672704585  0.5333087158812300
  0.9995036432425297  0.5000000580677829  0.4674108465956733
  0.0004061849708533  0.5000139233464809  0.5337112929869734
  0.3333562411424600  0.5000000149035011  0.4669816987825762
  0.3333057176504369  0.5000397666365181  0.5325857472659813
  0.6671965291861487  0.5000073960521189  0.4674250155271994
  0.6662344933415728  0.5000203448233319  0.5337302477151846
  0.1666972145618165  0.1358888914879960  0.3532872158050896
  0.1662516842434650  0.3644124981513837  0.3522981844186772
  0.1665689448362691  0.1352230325345778  0.6465120388388198
  0.1611504545692110  0.3608654640376875  0.6428612768895726
  0.9997355315086974  0.2495197906385574  0.4996643085873028
  0.5000351446242172  0.1359412452308823  0.3532653868151177
  0.5006442259701969  0.3643549367371245  0.3523765220474242
  0.5000524296495292  0.1354008740812893  0.6464425132205950
  0.5052662200813998  0.3608636501497470  0.6427904039620895
  0.3333136012509189  0.2492310999815774  0.4992392758953722
  0.8333378572765702  0.1358565357535374  0.3532513100813557
  0.8334162293927344  0.3644723473410038  0.3535620396548890
  0.8332631220094695  0.1360908891560148  0.6466293397713193
  0.8332369416490290  0.3673438988781864  0.6469927538650858
  0.6668802302991511  0.2495201843293940  0.4995939273326128
  0.1662791962646524  0.6355446905963139  0.3522807870355734
  0.1666984291542241  0.8641075355684782  0.3532926524399611
  0.1610959115833584  0.6391995233282194  0.6428130824621845
  0.1665872267922957  0.8648537394266443  0.6465200284912235
  0.9997314974770052  0.7505008238613488  0.4996320363652270
  0.5005997115023632  0.6356157998034353  0.3523165805936792
  0.5000371212142445  0.8640577159778136  0.3532723977827875
  0.5052970687579852  0.6392327463230141  0.6427552757755403
  0.5000534004038891  0.8646372233207059  0.6464514287131243
  0.3333122126730840  0.7507856157052742  0.4992355153382610
  0.8334292853260491  0.6355038355999569  0.3535264318231204
  0.8333349490114171  0.8641399199456120  0.3532551504142282
  0.8332374129081846  0.6327124633107187  0.6469897180633263
  0.8332552610324029  0.8639372129281151  0.6466305981134113
  0.6668775785412125  0.7504984271211139  0.4995877584140206
  0.3342398288329461  0.5002953404525489  0.7626503605568091
 
  0.00000000E+00  0.00000000E+00  0.00000000E+00
  0.00000000E+00  0.00000000E+00  0.00000000E+00
  0.00000000E+00  0.00000000E+00  0.00000000E+00
  0.00000000E+00  0.00000000E+00  0.00000000E+00
  0.00000000E+00  0.00000000E+00  0.00000000E+00
  0.00000000E+00  0.00000000E+00  0.00000000E+00
  0.00000000E+00  0.00000000E+00  0.00000000E+00
  0.00000000E+00  0.00000000E+00  0.00000000E+00
  0.00000000E+00  0.00000000E+00  0.00000000E+00
  0.00000000E+00  0.00000000E+00  0.00000000E+00
  0.00000000E+00  0.00000000E+00  0.00000000E+00
  0.00000000E+00  0.00000000E+00  0.00000000E+00
  0.00000000E+00  0.00000000E+00  0.00000000E+00
  0.00000000E+00  0.00000000E+00  0.00000000E+00
  0.00000000E+00  0.00000000E+00  0.00000000E+00
  0.00000000E+00  0.00000000E+00  0.00000000E+00
  0.00000000E+00  0.00000000E+00  0.00000000E+00
  0.00000000E+00  0.00000000E+00  0.00000000E+00
  0.00000000E+00  0.00000000E+00  0.00000000E+00
  0.00000000E+00  0.00000000E+00  0.00000000E+00
  0.00000000E+00  0.00000000E+00  0.00000000E+00
  0.00000000E+00  0.00000000E+00  0.00000000E+00
  0.00000000E+00  0.00000000E+00  0.00000000E+00
  0.00000000E+00  0.00000000E+00  0.00000000E+00
  0.00000000E+00  0.00000000E+00  0.00000000E+00
  0.00000000E+00  0.00000000E+00  0.00000000E+00
  0.00000000E+00  0.00000000E+00  0.00000000E+00
  0.00000000E+00  0.00000000E+00  0.00000000E+00
  0.00000000E+00  0.00000000E+00  0.00000000E+00
  0.00000000E+00  0.00000000E+00  0.00000000E+00
  0.00000000E+00  0.00000000E+00  0.00000000E+00
  0.00000000E+00  0.00000000E+00  0.00000000E+00
  0.00000000E+00  0.00000000E+00  0.00000000E+00
  0.00000000E+00  0.00000000E+00  0.00000000E+00
  0.00000000E+00  0.00000000E+00  0.00000000E+00
  0.00000000E+00  0.00000000E+00  0.00000000E+00
  0.00000000E+00  0.00000000E+00  0.00000000E+00
  0.00000000E+00  0.00000000E+00  0.00000000E+00
  0.00000000E+00  0.00000000E+00  0.00000000E+00
  0.00000000E+00  0.00000000E+00  0.00000000E+00
  0.00000000E+00  0.00000000E+00  0.00000000E+00
  0.00000000E+00  0.00000000E+00  0.00000000E+00
  0.00000000E+00  0.00000000E+00  0.00000000E+00
  0.00000000E+00  0.00000000E+00  0.00000000E+00
  0.00000000E+00  0.00000000E+00  0.00000000E+00
  0.00000000E+00  0.00000000E+00  0.00000000E+00
  0.00000000E+00  0.00000000E+00  0.00000000E+00
  0.00000000E+00  0.00000000E+00  0.00000000E+00
  0.00000000E+00  0.00000000E+00  0.00000000E+00
  0.00000000E+00  0.00000000E+00  0.00000000E+00
  0.00000000E+00  0.00000000E+00  0.00000000E+00
  0.00000000E+00  0.00000000E+00  0.00000000E+00
  0.00000000E+00  0.00000000E+00  0.00000000E+00
  0.00000000E+00  0.00000000E+00  0.00000000E+00
  0.00000000E+00  0.00000000E+00  0.00000000E+00
  0.00000000E+00  0.00000000E+00  0.00000000E+00
  0.00000000E+00  0.00000000E+00  0.00000000E+00
  0.00000000E+00  0.00000000E+00  0.00000000E+00
  0.00000000E+00  0.00000000E+00  0.00000000E+00
  0.00000000E+00  0.00000000E+00  0.00000000E+00
  0.00000000E+00  0.00000000E+00  0.00000000E+00
  0.00000000E+00  0.00000000E+00  0.00000000E+00
  0.00000000E+00  0.00000000E+00  0.00000000E+00
  0.00000000E+00  0.00000000E+00  0.00000000E+00
  0.00000000E+00  0.00000000E+00  0.00000000E+00
  0.00000000E+00  0.00000000E+00  0.00000000E+00
  0.00000000E+00  0.00000000E+00  0.00000000E+00
