SYSTEM =Ru_double_gra
PREC=Normal
ENCUT = 400
ISTART = 0
ICHARG = 1
EDIFF = 1E-05
LREAL = Auto
EDIFFG = -2E-02
NSW =1
IBRION =5
NFREE = 2
ISIF = 2
NBANDS=600
ISMEAR = 0
MAGMOM = 18*2 18*0.1 36*0 18*0 1*-2
SIGMA =0.2
GGA = PE
ALGO=Normal
ISPIN = 2
#NCORE=4
NELM=300
LWAVE=.FALSE.
LCHARG=.FALSE.
#NPAR=4
IVDW=11
AMIX=0.2
BMIX=0.0001
