CONTCAR\(4)                             
   1.00000000000000     
    13.7187995910999998    0.0000000000000000    0.0000000000000000
    -4.5729412920000003   17.9978325079000001    0.0000000000000000
     0.0000000000000000    0.0000000000000000   21.4340000153000005
   Ag   Te   Mo   O    H 
     6    36    36     1     1
Selective dynamics
Direct
  0.0018917235566960  0.9996666043454354  0.5020026506487696   F   F   F
  0.3339564662226877  0.9996183110667900  0.5017890466726556   F   F   F
  0.6656015347886637  0.9995432683341150  0.4978176251149975   F   F   F
  0.9997819875469318  0.4995494184595515  0.4985926831593304   F   F   F
  0.3343802595131038  0.4997478075881361  0.4957348871612695   F   F   F
  0.6655861130539833  0.4997215064021887  0.4954281844499988   F   F   F
  0.2579916348694837  0.2736103388404558  0.6487482525124051   F   F   F
  0.1382601106805055  0.4146786394108304  0.5632782567197552   F   F   F
  0.1945683588080058  0.0846480458871923  0.4354034338429145   F   F   F
  0.0359238329930349  0.1079071540242538  0.5971332124435023   F   F   F
  0.2966174405723052  0.3908139564412636  0.4014646491848382   F   F   F
  0.0749973052356339  0.2261174331487155  0.3501065129684378   F   F   F
  0.5908848187148976  0.2732013892192739  0.6485996071821631   F   F   F
  0.4717832298245455  0.4147282587312731  0.5626640317492786   F   F   F
  0.5277172400965782  0.0842177663530279  0.4351075459625307   F   F   F
  0.3690808909433514  0.1078037723940852  0.5969896952901337   F   F   F
  0.6302463534305645  0.3905942138630110  0.4012833349472871   F   F   F
  0.4082708294883233  0.2254130572431308  0.3499907238857674   F   F   F
  0.9241570567629580  0.2731406333988176  0.6490117241824009   F   F   F
  0.8045177716296266  0.4144707600591602  0.5631139392810525   F   F   F
  0.8616886869605196  0.0843175569535646  0.4357968142359141   F   F   F
  0.7020379811071393  0.1073840378865967  0.5961193514425744   F   F   F
  0.9636098457202849  0.3915798931967345  0.4024892905025794   F   F   F
  0.7419752542971167  0.2256278305299730  0.3499263742414840   F   F   F
  0.2596195564526766  0.7711567727212483  0.6486572995089617   F   F   F
  0.1381174271877228  0.9137878364455929  0.5662244924668656   F   F   F
  0.1944931836528809  0.5861922057700468  0.4332089562323631   F   F   F
  0.0359949692996224  0.6072908477192343  0.5949474096678031   F   F   F
  0.2976668561111140  0.8938503486280354  0.4040798982189031   F   F   F
  0.0767503519538195  0.7299720048879408  0.3497489404751946   F   F   F
  0.5869276702747683  0.7610056303029964  0.6530332995948172   F   F   F
  0.4761445812331857  0.9121519476505426  0.5650429588661439   F   F   F
  0.5281868395340368  0.5852725215249635  0.4312308916101415   F   F   F
  0.3691226491384612  0.6056570460177326  0.5934372471358884   F   F   F
  0.6311810794666499  0.8919261193748866  0.3995708728893064   F   F   F
  0.4077118272255689  0.7282989073424488  0.3483288526367474   F   F   F
  0.9211571484613685  0.7708848777238018  0.6486604773077858   F   F   F
  0.7991284166481947  0.9120457886750017  0.5648666221504399   F   F   F
  0.8630876090321706  0.5861483689891926  0.4332644580970992   F   F   F
  0.7010694881388844  0.6054842436478438  0.5933146358532397   F   F   F
  0.9648222416052619  0.8938624822892507  0.4041811280843106   F   F   F
  0.7444333908975622  0.7278091346913058  0.3483812274467795   F   F   F
  0.1056898996803000  0.3176251856805123  0.4561850577810986   F   F   F
  0.2270791301098214  0.1816674926254791  0.5428240746563233   F   F   F
  0.0566952443465212  0.1706100318012602  0.4730058756335254   F   F   F
  0.2762429048827713  0.3287746368752522  0.5258859807833858   F   F   F
  0.0867170843073097  0.2606785193077314  0.5705740818831799   F   F   F
  0.2459690748449077  0.2385145222731921  0.4284269552028874   F   F   F
  0.4389817238158500  0.3173516371094678  0.4557936611497766   F   F   F
  0.5603252076328147  0.1814134495065005  0.5426036000184027   F   F   F
  0.3898413757967916  0.1703167031826922  0.4728572323866302   F   F   F
  0.6094683610244971  0.3285058456406915  0.5257261396186550   F   F   F
  0.4201113745880107  0.2605960943003183  0.5702346302111820   F   F   F
  0.5793580532122249  0.2382788345966205  0.4282754863963660   F   F   F
  0.7724079348917670  0.3173644985529336  0.4560503669153775   F   F   F
  0.8936875095896681  0.1814879575080255  0.5429038011211915   F   F   F
  0.7233324020557461  0.1702684836496999  0.4727746885968926   F   F   F
  0.9426374592190001  0.3285952416787836  0.5262394785845501   F   F   F
  0.7532658643907197  0.2603690959249434  0.5704004868727921   F   F   F
  0.9127555058557633  0.2385486593093873  0.4285975463695877   F   F   F
  0.1064322514835325  0.8191458921762305  0.4574482167166423   F   F   F
  0.2279701010744617  0.6816284803564514  0.5416657416724107   F   F   F
  0.0574063120435255  0.6720070571271322  0.4718576080521188   F   F   F
  0.2779479523224779  0.8290998450860343  0.5270502398876360   F   F   F
  0.0867586478643929  0.7602430540674803  0.5708140677991764   F   F   F
  0.2466892926089344  0.7404531417702600  0.4279786641597880   F   F   F
  0.4384943190610642  0.8179816744121027  0.4550594429505210   F   F   F
  0.5600694845517324  0.6802447400279092  0.5394563043907823   F   F   F
  0.3899917252335143  0.6712222061296842  0.4702626059729766   F   F   F
  0.6096070634524864  0.8282933353250641  0.5208349264868062   F   F   F
  0.4223022882943042  0.7581509337379728  0.5703488331046600   F   F   F
  0.5797804998126139  0.7391925462627569  0.4255019082293288   F   F   F
  0.7736140197945645  0.8177407523460687  0.4550878252357151   F   F   F
  0.8931816133253818  0.6814801646003730  0.5416588215571423   F   F   F
  0.7240259466690446  0.6709957479504993  0.4702973217725841   F   F   F
  0.9415298740847931  0.8289385536453793  0.5270925847083845   F   F   F
  0.7497673653735930  0.7580198523977018  0.5703843806167157   F   F   F
  0.9137656044683311  0.7403213694245778  0.4280047399126516   F   F   F
  0.5542962230082793  0.6631381772660703  0.7036029942619493   T   T   T
  0.5595019320976036  0.6773987411871332  0.7469622255942422   T   T   T
 
  0.00000000E+00  0.00000000E+00  0.00000000E+00
  0.00000000E+00  0.00000000E+00  0.00000000E+00
  0.00000000E+00  0.00000000E+00  0.00000000E+00
  0.00000000E+00  0.00000000E+00  0.00000000E+00
  0.00000000E+00  0.00000000E+00  0.00000000E+00
  0.00000000E+00  0.00000000E+00  0.00000000E+00
  0.00000000E+00  0.00000000E+00  0.00000000E+00
  0.00000000E+00  0.00000000E+00  0.00000000E+00
  0.00000000E+00  0.00000000E+00  0.00000000E+00
  0.00000000E+00  0.00000000E+00  0.00000000E+00
  0.00000000E+00  0.00000000E+00  0.00000000E+00
  0.00000000E+00  0.00000000E+00  0.00000000E+00
  0.00000000E+00  0.00000000E+00  0.00000000E+00
  0.00000000E+00  0.00000000E+00  0.00000000E+00
  0.00000000E+00  0.00000000E+00  0.00000000E+00
  0.00000000E+00  0.00000000E+00  0.00000000E+00
  0.00000000E+00  0.00000000E+00  0.00000000E+00
  0.00000000E+00  0.00000000E+00  0.00000000E+00
  0.00000000E+00  0.00000000E+00  0.00000000E+00
  0.00000000E+00  0.00000000E+00  0.00000000E+00
  0.00000000E+00  0.00000000E+00  0.00000000E+00
  0.00000000E+00  0.00000000E+00  0.00000000E+00
  0.00000000E+00  0.00000000E+00  0.00000000E+00
  0.00000000E+00  0.00000000E+00  0.00000000E+00
  0.00000000E+00  0.00000000E+00  0.00000000E+00
  0.00000000E+00  0.00000000E+00  0.00000000E+00
  0.00000000E+00  0.00000000E+00  0.00000000E+00
  0.00000000E+00  0.00000000E+00  0.00000000E+00
  0.00000000E+00  0.00000000E+00  0.00000000E+00
  0.00000000E+00  0.00000000E+00  0.00000000E+00
  0.00000000E+00  0.00000000E+00  0.00000000E+00
  0.00000000E+00  0.00000000E+00  0.00000000E+00
  0.00000000E+00  0.00000000E+00  0.00000000E+00
  0.00000000E+00  0.00000000E+00  0.00000000E+00
  0.00000000E+00  0.00000000E+00  0.00000000E+00
  0.00000000E+00  0.00000000E+00  0.00000000E+00
  0.00000000E+00  0.00000000E+00  0.00000000E+00
  0.00000000E+00  0.00000000E+00  0.00000000E+00
  0.00000000E+00  0.00000000E+00  0.00000000E+00
  0.00000000E+00  0.00000000E+00  0.00000000E+00
  0.00000000E+00  0.00000000E+00  0.00000000E+00
  0.00000000E+00  0.00000000E+00  0.00000000E+00
  0.00000000E+00  0.00000000E+00  0.00000000E+00
  0.00000000E+00  0.00000000E+00  0.00000000E+00
  0.00000000E+00  0.00000000E+00  0.00000000E+00
  0.00000000E+00  0.00000000E+00  0.00000000E+00
  0.00000000E+00  0.00000000E+00  0.00000000E+00
  0.00000000E+00  0.00000000E+00  0.00000000E+00
  0.00000000E+00  0.00000000E+00  0.00000000E+00
  0.00000000E+00  0.00000000E+00  0.00000000E+00
  0.00000000E+00  0.00000000E+00  0.00000000E+00
  0.00000000E+00  0.00000000E+00  0.00000000E+00
  0.00000000E+00  0.00000000E+00  0.00000000E+00
  0.00000000E+00  0.00000000E+00  0.00000000E+00
  0.00000000E+00  0.00000000E+00  0.00000000E+00
  0.00000000E+00  0.00000000E+00  0.00000000E+00
  0.00000000E+00  0.00000000E+00  0.00000000E+00
  0.00000000E+00  0.00000000E+00  0.00000000E+00
  0.00000000E+00  0.00000000E+00  0.00000000E+00
  0.00000000E+00  0.00000000E+00  0.00000000E+00
  0.00000000E+00  0.00000000E+00  0.00000000E+00
  0.00000000E+00  0.00000000E+00  0.00000000E+00
  0.00000000E+00  0.00000000E+00  0.00000000E+00
  0.00000000E+00  0.00000000E+00  0.00000000E+00
  0.00000000E+00  0.00000000E+00  0.00000000E+00
  0.00000000E+00  0.00000000E+00  0.00000000E+00
  0.00000000E+00  0.00000000E+00  0.00000000E+00
  0.00000000E+00  0.00000000E+00  0.00000000E+00
  0.00000000E+00  0.00000000E+00  0.00000000E+00
  0.00000000E+00  0.00000000E+00  0.00000000E+00
  0.00000000E+00  0.00000000E+00  0.00000000E+00
  0.00000000E+00  0.00000000E+00  0.00000000E+00
  0.00000000E+00  0.00000000E+00  0.00000000E+00
  0.00000000E+00  0.00000000E+00  0.00000000E+00
  0.00000000E+00  0.00000000E+00  0.00000000E+00
  0.00000000E+00  0.00000000E+00  0.00000000E+00
  0.00000000E+00  0.00000000E+00  0.00000000E+00
  0.00000000E+00  0.00000000E+00  0.00000000E+00
  0.00000000E+00  0.00000000E+00  0.00000000E+00
  0.00000000E+00  0.00000000E+00  0.00000000E+00
