Sr4 Co2 Cl4 O4                          
   1.00000000000000     
     3.9781921958584134   -0.0000000000000000    0.0000000000000000
     0.0000000000000000    4.0617653917895353    0.0000000000000000
     0.0000000000000000    0.0000000000000000   15.2586077764711714
   Sr   Co   Cl   O 
     4     2     4     4
Direct
  0.0000000000000000  0.5000000000000000  0.8920126094825792
  0.5000000000000000 -0.0000000000000000  0.6079873905174208
  0.5000000000000000 -0.0000000000000000  0.3920126404825781
 -0.0000000000000000  0.5000000000000000  0.1079873745174266
  0.5000000000000000  0.0000000000000000 -0.0000000000000000
 -0.0000000000000000  0.5000000000000000  0.5000000000000000
  0.5000000000000000  0.0000000000000000  0.8189511881711730
 -0.0000000000000000  0.5000000000000000  0.6810488118288270
  0.0000000000000000  0.5000000000000000  0.3189511261711749
  0.5000000000000000  0.0000000000000000  0.1810488738288251
  0.5000000000000000  0.5000000000000000 -0.0000000000000000
 -0.0000000000000000 -0.0000000000000000 -0.0000000000000000
 -0.0000000000000000 -0.0000000000000000  0.5000000000000000
  0.5000000000000000  0.5000000000000000  0.5000000000000000
 
  0.00000000E+00  0.00000000E+00  0.00000000E+00
  0.00000000E+00  0.00000000E+00  0.00000000E+00
  0.00000000E+00  0.00000000E+00  0.00000000E+00
  0.00000000E+00  0.00000000E+00  0.00000000E+00
  0.00000000E+00  0.00000000E+00  0.00000000E+00
  0.00000000E+00  0.00000000E+00  0.00000000E+00
  0.00000000E+00  0.00000000E+00  0.00000000E+00
  0.00000000E+00  0.00000000E+00  0.00000000E+00
  0.00000000E+00  0.00000000E+00  0.00000000E+00
  0.00000000E+00  0.00000000E+00  0.00000000E+00
  0.00000000E+00  0.00000000E+00  0.00000000E+00
  0.00000000E+00  0.00000000E+00  0.00000000E+00
  0.00000000E+00  0.00000000E+00  0.00000000E+00
  0.00000000E+00  0.00000000E+00  0.00000000E+00
