CONTCAR\(12)                            
   1.00000000000000     
    14.1683998108000004    0.0000000000000000    0.0000000000000000
     0.0000000000000000   20.5298995972000000    0.0000000000000000
     0.0000000000000000    0.0000000000000000   19.1021003723000007
   Nb   Te   O 
    32    48     1
Direct
  0.0622950293215742  0.1360694343736016  0.5480956037174389
  0.1872561178108801  0.0747284157220060  0.4516478365440853
  0.0623577455482974  0.2934544792340818  0.4957704313527098
  0.1870587355606136  0.4162291037776188  0.4980056519223067
  0.3095226326479622  0.1376491279533897  0.5469764094827499
  0.4382446536004210  0.0753212003393132  0.4505218118753152
  0.3124883726706298  0.2935537774296322  0.4959255494967507
  0.4374275410830197  0.4167999176852844  0.4986411486515390
  0.5623832656309850  0.1374220282374536  0.5460320718387019
  0.6867541797310612  0.0751850773649028  0.4503754504782707
  0.5625787655808467  0.2936791638575457  0.4960103863371217
  0.6876116222276581  0.4168312415958177  0.4986463965625431
  0.8153944171801897  0.1374851160420824  0.5467891841686005
  0.9376051899250221  0.0746444200037325  0.4514465858770029
  0.8123703264237598  0.2936236519836411  0.4957780323995357
  0.9380356092089570  0.4163337238194896  0.4980065229959664
  0.0626877072156129  0.6334175391416447  0.5504719457030059
  0.1861064085897770  0.5738079342481877  0.4513657543738565
  0.0627086906874770  0.7927130143894228  0.5048644917242729
  0.1881673067343004  0.9161165939818620  0.5064999742825526
  0.3080482080351764  0.6320215449672377  0.5502342250307393
  0.4375812297637547  0.5750678118295279  0.4524770694952812
  0.3112233477387169  0.7921556745541565  0.5060800448434224
  0.4366429366542437  0.9200369633098044  0.5056761905088353
  0.5627438818739996  0.6325350617242471  0.5531368010790683
  0.6874922593949062  0.5749086887610670  0.4524975624293410
  0.5626982292933782  0.7923668990620982  0.5118155881561862
  0.6881616874436035  0.9200825237465301  0.5057300908314685
  0.8170102525937649  0.6320117799616780  0.5501171194461312
  0.9390382616030423  0.5738282701447198  0.4512863369217956
  0.8136148959145973  0.7921970503815192  0.5058475494930008
  0.9369569169051090  0.9160737400933477  0.5062983141422120
  0.1875633075756470  0.3271428257220832  0.3892754116586269
  0.0623766842631339  0.1724613556390828  0.4082476061888397
  0.1865769821631254  0.2330571613501011  0.5981985238310834
  0.0625859819706224  0.4788523065891234  0.3969387890339232
  0.0625240296108300  0.3820597105697637  0.6046646111469813
  0.1873258004917769  0.0386452971066873  0.5916007342288786
  0.4374971866648825  0.3277463813724903  0.3896934643424523
  0.3120482460719951  0.1725094132815111  0.4072898650251732
  0.4371160823333108  0.2326776738755032  0.5976145093970786
  0.3127939152847616  0.4799348601103680  0.3980969705144484
  0.3122863953835676  0.3823104597591958  0.6045957614102259
  0.4357553171172711  0.0424333489538092  0.5915684974295133
  0.6872823808341685  0.3279273513544025  0.3896049267458386
  0.5625544309868968  0.1729053830557923  0.4062330002244052
  0.6879155630317557  0.2325593819874100  0.5973935748337456
  0.5624795411241632  0.4803875278957083  0.3988451187132279
  0.5625887353286511  0.3825080112105299  0.6048863808809497
  0.6890176968635270  0.0423174512614738  0.5913691680201020
  0.9373482952825317  0.3272953041424627  0.3892491060030451
  0.8128713804782881  0.1724683473273314  0.4071574374712179
  0.9379898821678535  0.2332715304487974  0.5978777595739488
  0.8124069620543329  0.4799886366631202  0.3980540094847528
  0.8128626408209152  0.3823471923724369  0.6045927686938292
  0.9375026504124828  0.0384636940032062  0.5913115706841499
  0.1884999297342002  0.8264292773450365  0.3985774513877210
  0.0626155296953416  0.6739367834240696  0.4123693068289835
  0.1865180776762975  0.7287660792583431  0.6052789504402036
  0.0625322462686012  0.9767987663985657  0.4042873595360906
  0.0624629320799592  0.8830598674160769  0.6128825015656592
  0.1857674403794460  0.5332151247903660  0.5901223393817898
  0.4393727741408009  0.8258357191876941  0.4019640172824089
  0.3117730320997652  0.6734802665334528  0.4124851395590346
  0.4314882221671992  0.7230007304092118  0.6059132663320578
  0.3123564040728805  0.9770872916762572  0.4044055743258075
  0.3143043211765080  0.8828487734614672  0.6131702069414281
  0.4360929374012413  0.5343957255360087  0.5905442263411583
  0.6855305771220884  0.8262308638802507  0.4018362085733982
  0.5626492305437411  0.6752817507088853  0.4156422027317019
  0.6938570783931038  0.7230923252041438  0.6058535420073727
  0.5623091808098967  0.9769553351417622  0.4029932728413284
  0.5623599759393288  0.9145661740579499  0.6192065828872609
  0.6891883858189943  0.5342957068157952  0.5906518823109748
  0.9367808445519237  0.8262252803846029  0.3985196687564793
  0.8133026845201473  0.6733406309475038  0.4122540159355798
  0.9387069605559243  0.7287269810746929  0.6048484213178472
  0.8125375551492083  0.9769836835610576  0.4041827433489238
  0.8107462955903298  0.8828459908605439  0.6130145499956813
  0.9393761431255853  0.5333638727601886  0.5901227807015892
  0.5627457710777607  0.8178152703969521  0.6145965229711852
 
  0.00000000E+00  0.00000000E+00  0.00000000E+00
  0.00000000E+00  0.00000000E+00  0.00000000E+00
  0.00000000E+00  0.00000000E+00  0.00000000E+00
  0.00000000E+00  0.00000000E+00  0.00000000E+00
  0.00000000E+00  0.00000000E+00  0.00000000E+00
  0.00000000E+00  0.00000000E+00  0.00000000E+00
  0.00000000E+00  0.00000000E+00  0.00000000E+00
  0.00000000E+00  0.00000000E+00  0.00000000E+00
  0.00000000E+00  0.00000000E+00  0.00000000E+00
  0.00000000E+00  0.00000000E+00  0.00000000E+00
  0.00000000E+00  0.00000000E+00  0.00000000E+00
  0.00000000E+00  0.00000000E+00  0.00000000E+00
  0.00000000E+00  0.00000000E+00  0.00000000E+00
  0.00000000E+00  0.00000000E+00  0.00000000E+00
  0.00000000E+00  0.00000000E+00  0.00000000E+00
  0.00000000E+00  0.00000000E+00  0.00000000E+00
  0.00000000E+00  0.00000000E+00  0.00000000E+00
  0.00000000E+00  0.00000000E+00  0.00000000E+00
  0.00000000E+00  0.00000000E+00  0.00000000E+00
  0.00000000E+00  0.00000000E+00  0.00000000E+00
  0.00000000E+00  0.00000000E+00  0.00000000E+00
  0.00000000E+00  0.00000000E+00  0.00000000E+00
  0.00000000E+00  0.00000000E+00  0.00000000E+00
  0.00000000E+00  0.00000000E+00  0.00000000E+00
  0.00000000E+00  0.00000000E+00  0.00000000E+00
  0.00000000E+00  0.00000000E+00  0.00000000E+00
  0.00000000E+00  0.00000000E+00  0.00000000E+00
  0.00000000E+00  0.00000000E+00  0.00000000E+00
  0.00000000E+00  0.00000000E+00  0.00000000E+00
  0.00000000E+00  0.00000000E+00  0.00000000E+00
  0.00000000E+00  0.00000000E+00  0.00000000E+00
  0.00000000E+00  0.00000000E+00  0.00000000E+00
  0.00000000E+00  0.00000000E+00  0.00000000E+00
  0.00000000E+00  0.00000000E+00  0.00000000E+00
  0.00000000E+00  0.00000000E+00  0.00000000E+00
  0.00000000E+00  0.00000000E+00  0.00000000E+00
  0.00000000E+00  0.00000000E+00  0.00000000E+00
  0.00000000E+00  0.00000000E+00  0.00000000E+00
  0.00000000E+00  0.00000000E+00  0.00000000E+00
  0.00000000E+00  0.00000000E+00  0.00000000E+00
  0.00000000E+00  0.00000000E+00  0.00000000E+00
  0.00000000E+00  0.00000000E+00  0.00000000E+00
  0.00000000E+00  0.00000000E+00  0.00000000E+00
  0.00000000E+00  0.00000000E+00  0.00000000E+00
  0.00000000E+00  0.00000000E+00  0.00000000E+00
  0.00000000E+00  0.00000000E+00  0.00000000E+00
  0.00000000E+00  0.00000000E+00  0.00000000E+00
  0.00000000E+00  0.00000000E+00  0.00000000E+00
  0.00000000E+00  0.00000000E+00  0.00000000E+00
  0.00000000E+00  0.00000000E+00  0.00000000E+00
  0.00000000E+00  0.00000000E+00  0.00000000E+00
  0.00000000E+00  0.00000000E+00  0.00000000E+00
  0.00000000E+00  0.00000000E+00  0.00000000E+00
  0.00000000E+00  0.00000000E+00  0.00000000E+00
  0.00000000E+00  0.00000000E+00  0.00000000E+00
  0.00000000E+00  0.00000000E+00  0.00000000E+00
  0.00000000E+00  0.00000000E+00  0.00000000E+00
  0.00000000E+00  0.00000000E+00  0.00000000E+00
  0.00000000E+00  0.00000000E+00  0.00000000E+00
  0.00000000E+00  0.00000000E+00  0.00000000E+00
  0.00000000E+00  0.00000000E+00  0.00000000E+00
  0.00000000E+00  0.00000000E+00  0.00000000E+00
  0.00000000E+00  0.00000000E+00  0.00000000E+00
  0.00000000E+00  0.00000000E+00  0.00000000E+00
  0.00000000E+00  0.00000000E+00  0.00000000E+00
  0.00000000E+00  0.00000000E+00  0.00000000E+00
  0.00000000E+00  0.00000000E+00  0.00000000E+00
  0.00000000E+00  0.00000000E+00  0.00000000E+00
  0.00000000E+00  0.00000000E+00  0.00000000E+00
  0.00000000E+00  0.00000000E+00  0.00000000E+00
  0.00000000E+00  0.00000000E+00  0.00000000E+00
  0.00000000E+00  0.00000000E+00  0.00000000E+00
  0.00000000E+00  0.00000000E+00  0.00000000E+00
  0.00000000E+00  0.00000000E+00  0.00000000E+00
  0.00000000E+00  0.00000000E+00  0.00000000E+00
  0.00000000E+00  0.00000000E+00  0.00000000E+00
  0.00000000E+00  0.00000000E+00  0.00000000E+00
  0.00000000E+00  0.00000000E+00  0.00000000E+00
  0.00000000E+00  0.00000000E+00  0.00000000E+00
  0.00000000E+00  0.00000000E+00  0.00000000E+00
  0.00000000E+00  0.00000000E+00  0.00000000E+00
