 Bi3 Se4                                
   1.00000000000000     
     4.3021116303725764    0.0000000000000000    0.0000000000000000
     2.1510558151862882    3.7257824093384428    0.0000000000000000
     0.0000000000000000    0.0000000000000000   25.2429972670300060
   Bi   Se
     3     4
Direct
  0.0000000413830534  0.9999999578313918  0.5000352069377740
  0.3333332909041360  0.3333334573533051  0.3540661736506934
  0.6666668159475790  0.6666663792247078  0.6459607658996163
  0.9999997356780455  0.0000002821459546  0.2977574795409694
  0.0000001041661548  0.9999999939227564  0.7022223244437384
  0.3333334113038191  0.3333333690646327  0.5659901718803013
  0.6666666006172122  0.6666665604572515  0.4339678776469142
 
  0.00000000E+00  0.00000000E+00  0.00000000E+00
  0.00000000E+00  0.00000000E+00  0.00000000E+00
  0.00000000E+00  0.00000000E+00  0.00000000E+00
  0.00000000E+00  0.00000000E+00  0.00000000E+00
  0.00000000E+00  0.00000000E+00  0.00000000E+00
  0.00000000E+00  0.00000000E+00  0.00000000E+00
  0.00000000E+00  0.00000000E+00  0.00000000E+00
