CONTCAR\(5)                             
   1.00000000000000     
    12.4780998230000009    0.0000000000000000    0.0000000000000000
     0.0000000000000000   15.4434003830000002    0.0000000000000000
     0.0000000000000000    0.0000000000000000   19.6900997161999989
   Nb   Co   Te   O    H 
    16    16    32     1     1
Direct
  0.2383893164467921  0.1272492941709302  0.4938707795190638
  0.2563674762474122  0.3260543609005424  0.5046543581839771
  0.4883486263012529  0.0758340842623753  0.5066833995459277
  0.0068109539810735  0.3768138098132638  0.4927481564633140
  0.7386769985008428  0.1271360907487704  0.4938674988877452
  0.7546467781215824  0.3278287731501024  0.5060267198989692
  0.9884644453379323  0.0755663628052758  0.5067582090453726
  0.5066520007668771  0.3771872217873806  0.4922056124329188
  0.2394151785050411  0.6259497563411642  0.4927760164046333
  0.2552972825276782  0.8256846879879731  0.5062270666866979
  0.4939171253317127  0.5764490668703459  0.5021303959617214
  0.0052748574461035  0.8767573298398617  0.4933070376105491
  0.7385793840507162  0.6278610738094557  0.4867544707439322
  0.7543475074975134  0.8247809940083215  0.5054813242926599
  0.9898840189348945  0.5755952058917870  0.5039226574011906
  0.5060284400810033  0.8765702701610678  0.4947980236613319
  0.4249884919925506  0.2291246991908622  0.4583980798306513
  0.1737762485941658  0.4734276018958923  0.5393445054139008
  0.3199525072784226  0.4786302759407945  0.4566733086412924
  0.0703557367142196  0.2241318505429746  0.5411456078457775
  0.9251207746352961  0.2289308889979651  0.4586719181673473
  0.6733337886318296  0.4810041668826912  0.5439743492162989
  0.8195542699506433  0.4785230476809659  0.4590948430351602
  0.5700764335691275  0.2245512408645851  0.5409318695529564
  0.4250444993645601  0.7301733202403184  0.4595088597699117
  0.1745209915160117  0.9729044595585705  0.5414383394439852
  0.3200230511695565  0.9791601701746586  0.4594722148526031
  0.0702395688825348  0.7235413217110747  0.5400983823932677
  0.9250836767197796  0.7284494182833470  0.4571313073391607
  0.6744505766907949  0.9739228753508584  0.5413194258568552
  0.8195201214928503  0.9790007226679975  0.4590117783726200
  0.5702523907349288  0.7199855866001741  0.5435531480324087
  0.1254301642306288  0.4929742016340199  0.4098664786006907
  0.3706350371648597  0.3542711499768529  0.3795963266735640
  0.1219935680331048  0.3480477535845168  0.6178996402526451
  0.3749207458883816  0.2100703416114911  0.5871881903702700
  0.3746791142812711  0.1044927301826846  0.3814766724013481
  0.1244020646765804  0.0977258672845238  0.6187950465933483
  0.1197263229902319  0.2430299229161932  0.4116153396152313
  0.3709638366137682  0.4628765553368623  0.5839286971953044
  0.6281227311616107  0.4897215067565028  0.4098021505860245
  0.8701872501368939  0.3543262188037630  0.3810717364820704
  0.6189963474923488  0.3501962993141845  0.6177547412465145
  0.8745779540486254  0.2102688907570283  0.5868270167033174
  0.8749355208960097  0.1046388933348368  0.3815371784398849
  0.6245198425350864  0.0982649959465576  0.6188578354817267
  0.6204031090452560  0.2424837497497236  0.4121475046765326
  0.8700740891549756  0.4596165308740154  0.5864333761057239
  0.1246938233551873  0.9937053453240665  0.4128441447472042
  0.3690678513941847  0.8556097412395474  0.3818582091455198
  0.1185156396001261  0.8467868114413548  0.6185504898854717
  0.3748415705564483  0.7081512434550774  0.5867686945915764
  0.3786516550536732  0.6053223921447000  0.3804207798467019
  0.1240926151560160  0.5971335364058916  0.6172438839968848
  0.1198138626931708  0.7427381520413121  0.4114426058335923
  0.3692897856941713  0.9589568602397449  0.5881242474859505
  0.6244955648841852  0.9931724277113929  0.4128891619399511
  0.8692224954026671  0.8555206211872814  0.3808080919191354
  0.6200657939999630  0.8476082174014437  0.6188244330827857
  0.8726805183792621  0.7068220075631828  0.5846467848932804
  0.8747738479690526  0.6039465927489829  0.3786420665555923
  0.6357897552624223  0.6029306166497648  0.6237254077707064
  0.6174466492917716  0.7449576042739565  0.4106152048863905
  0.8693697015973854  0.9583300248335931  0.5875105583863984
  0.5045071557739291  0.5670462864180905  0.6853112102083259
  0.5291904995710013  0.5749761797244943  0.7320762738960482
 
  0.00000000E+00  0.00000000E+00  0.00000000E+00
  0.00000000E+00  0.00000000E+00  0.00000000E+00
  0.00000000E+00  0.00000000E+00  0.00000000E+00
  0.00000000E+00  0.00000000E+00  0.00000000E+00
  0.00000000E+00  0.00000000E+00  0.00000000E+00
  0.00000000E+00  0.00000000E+00  0.00000000E+00
  0.00000000E+00  0.00000000E+00  0.00000000E+00
  0.00000000E+00  0.00000000E+00  0.00000000E+00
  0.00000000E+00  0.00000000E+00  0.00000000E+00
  0.00000000E+00  0.00000000E+00  0.00000000E+00
  0.00000000E+00  0.00000000E+00  0.00000000E+00
  0.00000000E+00  0.00000000E+00  0.00000000E+00
  0.00000000E+00  0.00000000E+00  0.00000000E+00
  0.00000000E+00  0.00000000E+00  0.00000000E+00
  0.00000000E+00  0.00000000E+00  0.00000000E+00
  0.00000000E+00  0.00000000E+00  0.00000000E+00
  0.00000000E+00  0.00000000E+00  0.00000000E+00
  0.00000000E+00  0.00000000E+00  0.00000000E+00
  0.00000000E+00  0.00000000E+00  0.00000000E+00
  0.00000000E+00  0.00000000E+00  0.00000000E+00
  0.00000000E+00  0.00000000E+00  0.00000000E+00
  0.00000000E+00  0.00000000E+00  0.00000000E+00
  0.00000000E+00  0.00000000E+00  0.00000000E+00
  0.00000000E+00  0.00000000E+00  0.00000000E+00
  0.00000000E+00  0.00000000E+00  0.00000000E+00
  0.00000000E+00  0.00000000E+00  0.00000000E+00
  0.00000000E+00  0.00000000E+00  0.00000000E+00
  0.00000000E+00  0.00000000E+00  0.00000000E+00
  0.00000000E+00  0.00000000E+00  0.00000000E+00
  0.00000000E+00  0.00000000E+00  0.00000000E+00
  0.00000000E+00  0.00000000E+00  0.00000000E+00
  0.00000000E+00  0.00000000E+00  0.00000000E+00
  0.00000000E+00  0.00000000E+00  0.00000000E+00
  0.00000000E+00  0.00000000E+00  0.00000000E+00
  0.00000000E+00  0.00000000E+00  0.00000000E+00
  0.00000000E+00  0.00000000E+00  0.00000000E+00
  0.00000000E+00  0.00000000E+00  0.00000000E+00
  0.00000000E+00  0.00000000E+00  0.00000000E+00
  0.00000000E+00  0.00000000E+00  0.00000000E+00
  0.00000000E+00  0.00000000E+00  0.00000000E+00
  0.00000000E+00  0.00000000E+00  0.00000000E+00
  0.00000000E+00  0.00000000E+00  0.00000000E+00
  0.00000000E+00  0.00000000E+00  0.00000000E+00
  0.00000000E+00  0.00000000E+00  0.00000000E+00
  0.00000000E+00  0.00000000E+00  0.00000000E+00
  0.00000000E+00  0.00000000E+00  0.00000000E+00
  0.00000000E+00  0.00000000E+00  0.00000000E+00
  0.00000000E+00  0.00000000E+00  0.00000000E+00
  0.00000000E+00  0.00000000E+00  0.00000000E+00
  0.00000000E+00  0.00000000E+00  0.00000000E+00
  0.00000000E+00  0.00000000E+00  0.00000000E+00
  0.00000000E+00  0.00000000E+00  0.00000000E+00
  0.00000000E+00  0.00000000E+00  0.00000000E+00
  0.00000000E+00  0.00000000E+00  0.00000000E+00
  0.00000000E+00  0.00000000E+00  0.00000000E+00
  0.00000000E+00  0.00000000E+00  0.00000000E+00
  0.00000000E+00  0.00000000E+00  0.00000000E+00
  0.00000000E+00  0.00000000E+00  0.00000000E+00
  0.00000000E+00  0.00000000E+00  0.00000000E+00
  0.00000000E+00  0.00000000E+00  0.00000000E+00
  0.00000000E+00  0.00000000E+00  0.00000000E+00
  0.00000000E+00  0.00000000E+00  0.00000000E+00
  0.00000000E+00  0.00000000E+00  0.00000000E+00
  0.00000000E+00  0.00000000E+00  0.00000000E+00
  0.00000000E+00  0.00000000E+00  0.00000000E+00
  0.00000000E+00  0.00000000E+00  0.00000000E+00
