 Ag2 Ir2 F14                            
   1.00000000000000     
     5.4261421194206712    0.0000000000000000    0.0000000000000000
     0.0000000000000000    6.0545659360298449    0.0000000000000000
     0.0000000000000000    0.0000000000000000   21.5910112505159937
   Ag   Ir   F 
     2     2    14
Direct
  0.9999996731751071  0.7833746643047034  0.5001621964695756
  1.0000003401703197  0.2833782404852354  0.4998058279271806
  0.4999997915006349  0.1583006226000447  0.3760899138624898
  0.5000002428054948  0.6583148283007579  0.6238793247466379
  0.5000003942332233  0.9094161582656161  0.5713182045662775
  0.2537468918251695  0.7795094413722619  0.6742640924497164
  0.7450143775106620  0.5343413632149983  0.5692731678179991
  0.5000001382178082  0.3969749495196897  0.6708030481494711
  0.7462447018796518  0.2794830489953533  0.3257089495286981
  0.9999993623654353  0.5349926642253363  0.4350364284548048
  0.4999994080345188  0.4094048465940031  0.4286488688821848
  0.5000001920860940  0.8969594377100226  0.3291730635803885
  0.2537551592739755  0.2794829892127084  0.3257088406187857
  0.2549947992188201  0.0343289972143725  0.4306959902568442
  1.0000005616318681  1.0349818331918954  0.5649277574236772
  0.7450044075316397  0.0343291267127391  0.4306961097394484
  0.7462548726624212  0.7795088144720753  0.6742638058739556
  0.2549846858771481  0.5343419736081990  0.5692734623742256
 
  0.00000000E+00  0.00000000E+00  0.00000000E+00
  0.00000000E+00  0.00000000E+00  0.00000000E+00
  0.00000000E+00  0.00000000E+00  0.00000000E+00
  0.00000000E+00  0.00000000E+00  0.00000000E+00
  0.00000000E+00  0.00000000E+00  0.00000000E+00
  0.00000000E+00  0.00000000E+00  0.00000000E+00
  0.00000000E+00  0.00000000E+00  0.00000000E+00
  0.00000000E+00  0.00000000E+00  0.00000000E+00
  0.00000000E+00  0.00000000E+00  0.00000000E+00
  0.00000000E+00  0.00000000E+00  0.00000000E+00
  0.00000000E+00  0.00000000E+00  0.00000000E+00
  0.00000000E+00  0.00000000E+00  0.00000000E+00
  0.00000000E+00  0.00000000E+00  0.00000000E+00
  0.00000000E+00  0.00000000E+00  0.00000000E+00
  0.00000000E+00  0.00000000E+00  0.00000000E+00
  0.00000000E+00  0.00000000E+00  0.00000000E+00
  0.00000000E+00  0.00000000E+00  0.00000000E+00
  0.00000000E+00  0.00000000E+00  0.00000000E+00
