CONTCAR\(3)                             
   1.00000000000000     
    13.7056999207000008    0.0000000000000000    0.0000000000000000
     4.1214080124999999   12.9276297616000004    0.0000000000000000
     0.0000000000000000    0.0000000000000000   18.6212005615000002
   Bi   Rh   S    O    H 
    16    24    16     2     1
Direct
  0.1960331434354217  0.1954144983057162  0.5841259958428608
  0.4410948597066522  0.4468333623174061  0.6034316388585665
  0.0799465662685321  0.0814188759930730  0.4081550192349965
  0.3324311664214790  0.3363544839276074  0.4129388586177569
  0.6923692370444314  0.2004165818571551  0.5847977105583340
  0.9453468396545048  0.4462693303433980  0.5946773460951817
  0.5789024931506503  0.0798965953435413  0.4095899669080438
  0.8343711503671756  0.3347978396853577  0.4112979604933926
  0.2064780281888829  0.6899172935015656  0.5957955768012724
  0.4426504171077639  0.9458470595556960  0.5953083659368588
  0.0829518797793796  0.5818209620450929  0.4093842103478806
  0.3339172034605937  0.8334597631977658  0.4091404841650856
  0.6950302938058286  0.6988186413601198  0.5843838942830786
  0.9456117242844115  0.9454561104532289  0.5934514764672727
  0.5792188062627304  0.5793948352717919  0.4105715235202041
  0.8324550076944846  0.8367552426891365  0.4094945760220554
  0.0124480332994636  0.2598861770100171  0.4957382912885393
  0.4103363795700190  0.1087305840422133  0.5021624507074378
  0.1090804783880017  0.4122112706877985  0.5017493091305241
  0.2583987767563443  0.0121681587213232  0.4946265361642475
  0.3222681065826265  0.3216131776365998  0.5596492124782060
  0.2105571956636254  0.2120192038863919  0.4402137646463871
  0.5105117056691739  0.2584172707444594  0.4937051318650205
  0.9106993188965617  0.1102532163596450  0.5000778375521762
  0.6089306649205781  0.4107427308647331  0.5051684270269590
  0.7565486889207378  0.0147538039610993  0.4966651373983524
  0.8217915877358379  0.3212222777806488  0.5571366705489496
  0.7098168162151026  0.2138054301205798  0.4406343079501198
  0.0079598299161034  0.7632221093030083  0.4895229429870440
  0.4139629681477857  0.6065790183006143  0.5079063968507782
  0.1075373229932381  0.9135099551611958  0.5005449968238551
  0.2586168368018633  0.5134097787961522  0.5006301831020679
  0.3206947569144489  0.8203770384035707  0.5553535218312859
  0.2115736669768680  0.7123418219803739  0.4468479231572218
  0.5106171876366901  0.7596168585062983  0.4929906220359257
  0.9124061815404119  0.6097354055854751  0.5010488383832410
  0.6078981640031316  0.9114031265959852  0.5042222321764669
  0.7585646674811244  0.5135300702233465  0.4964420777663676
  0.8216487373993928  0.8211792846101744  0.5557653374304792
  0.7110540920732262  0.7127656599705077  0.4404530261215882
  0.4599970068843575  0.1895315036506631  0.5985027259478031
  0.1876074486782358  0.4562224635420264  0.6003876648580615
  0.0696520276907577  0.3374652838786858  0.3983418367433273
  0.3361930941155009  0.0706089584869360  0.3986878543499017
  0.9580144829618433  0.1893640210822909  0.5980541486304389
  0.6925595182996318  0.4584588936568608  0.6005709952329354
  0.5688063537773331  0.3402306057159166  0.4004905714180751
  0.8332518150604216  0.0712486101721552  0.3984724198535332
  0.4614365817215074  0.6957120472886942  0.5993929665390709
  0.1895560814527215  0.9569204326918310  0.5979179030408943
  0.0758778110464249  0.8356204231639381  0.3966821544653740
  0.3372567265465349  0.5712647540741855  0.4046438055441968
  0.9627114553926148  0.6934877538990207  0.5955987103704246
  0.6915121536847835  0.9574784829856924  0.5998360652505639
  0.5709552422795170  0.8387181441297855  0.3984658216428443
  0.8358848343510914  0.5709733570602751  0.3991793254534812
  0.3323127894762123  0.5896669146478217  0.6778455599606659
  0.2826120226069548  0.5675543068719762  0.7432014227853614
  0.3125120588382728  0.6030677089013707  0.7788385143369112
 
  0.00000000E+00  0.00000000E+00  0.00000000E+00
  0.00000000E+00  0.00000000E+00  0.00000000E+00
  0.00000000E+00  0.00000000E+00  0.00000000E+00
  0.00000000E+00  0.00000000E+00  0.00000000E+00
  0.00000000E+00  0.00000000E+00  0.00000000E+00
  0.00000000E+00  0.00000000E+00  0.00000000E+00
  0.00000000E+00  0.00000000E+00  0.00000000E+00
  0.00000000E+00  0.00000000E+00  0.00000000E+00
  0.00000000E+00  0.00000000E+00  0.00000000E+00
  0.00000000E+00  0.00000000E+00  0.00000000E+00
  0.00000000E+00  0.00000000E+00  0.00000000E+00
  0.00000000E+00  0.00000000E+00  0.00000000E+00
  0.00000000E+00  0.00000000E+00  0.00000000E+00
  0.00000000E+00  0.00000000E+00  0.00000000E+00
  0.00000000E+00  0.00000000E+00  0.00000000E+00
  0.00000000E+00  0.00000000E+00  0.00000000E+00
  0.00000000E+00  0.00000000E+00  0.00000000E+00
  0.00000000E+00  0.00000000E+00  0.00000000E+00
  0.00000000E+00  0.00000000E+00  0.00000000E+00
  0.00000000E+00  0.00000000E+00  0.00000000E+00
  0.00000000E+00  0.00000000E+00  0.00000000E+00
  0.00000000E+00  0.00000000E+00  0.00000000E+00
  0.00000000E+00  0.00000000E+00  0.00000000E+00
  0.00000000E+00  0.00000000E+00  0.00000000E+00
  0.00000000E+00  0.00000000E+00  0.00000000E+00
  0.00000000E+00  0.00000000E+00  0.00000000E+00
  0.00000000E+00  0.00000000E+00  0.00000000E+00
  0.00000000E+00  0.00000000E+00  0.00000000E+00
  0.00000000E+00  0.00000000E+00  0.00000000E+00
  0.00000000E+00  0.00000000E+00  0.00000000E+00
  0.00000000E+00  0.00000000E+00  0.00000000E+00
  0.00000000E+00  0.00000000E+00  0.00000000E+00
  0.00000000E+00  0.00000000E+00  0.00000000E+00
  0.00000000E+00  0.00000000E+00  0.00000000E+00
  0.00000000E+00  0.00000000E+00  0.00000000E+00
  0.00000000E+00  0.00000000E+00  0.00000000E+00
  0.00000000E+00  0.00000000E+00  0.00000000E+00
  0.00000000E+00  0.00000000E+00  0.00000000E+00
  0.00000000E+00  0.00000000E+00  0.00000000E+00
  0.00000000E+00  0.00000000E+00  0.00000000E+00
  0.00000000E+00  0.00000000E+00  0.00000000E+00
  0.00000000E+00  0.00000000E+00  0.00000000E+00
  0.00000000E+00  0.00000000E+00  0.00000000E+00
  0.00000000E+00  0.00000000E+00  0.00000000E+00
  0.00000000E+00  0.00000000E+00  0.00000000E+00
  0.00000000E+00  0.00000000E+00  0.00000000E+00
  0.00000000E+00  0.00000000E+00  0.00000000E+00
  0.00000000E+00  0.00000000E+00  0.00000000E+00
  0.00000000E+00  0.00000000E+00  0.00000000E+00
  0.00000000E+00  0.00000000E+00  0.00000000E+00
  0.00000000E+00  0.00000000E+00  0.00000000E+00
  0.00000000E+00  0.00000000E+00  0.00000000E+00
  0.00000000E+00  0.00000000E+00  0.00000000E+00
  0.00000000E+00  0.00000000E+00  0.00000000E+00
  0.00000000E+00  0.00000000E+00  0.00000000E+00
  0.00000000E+00  0.00000000E+00  0.00000000E+00
  0.00000000E+00  0.00000000E+00  0.00000000E+00
  0.00000000E+00  0.00000000E+00  0.00000000E+00
  0.00000000E+00  0.00000000E+00  0.00000000E+00
