 Ta4 Co4 Te8                            
   1.00000000000000     
     6.2343983915343815    0.0000000000000000    0.0000000000000000
     0.0000000000000000    7.7130228288520435    0.0000000000000000
     0.0000000000000000    0.0000000000000000   19.6598131244519969
   Ta   Co   Te
     4     4     8
Direct
  0.9791908697274464  0.1072244855837069  0.5062193287404143
  0.4793075588778928  0.2141695755677859  0.4937896288338296
  0.0206902161443432  0.7141462194715276  0.4937899813329549
  0.5207986280209155  0.6071940850081553  0.5062171129789819
  0.8500059297195494  0.4200993914417302  0.4604072857112488
  0.1500181179316837  0.4012240471289484  0.5395703959617147
  0.6500250753797900  0.9200928841479891  0.4603983430102220
  0.3499821820067793  0.9012123579657093  0.5395555540309032
  0.2567859698351954  0.9514252062968920  0.4112574841696962
  0.2432012131628975  0.4514189914251345  0.4112610524131967
  0.7570127569263048  0.3700111137346747  0.5887931116005389
  0.7430061122400700  0.8700168250952064  0.5887960261446826
  0.2476023460769252  0.6482524525008850  0.6188207394325800
  0.7478273782993019  0.6730841252053015  0.3811516618221406
  0.7521648018719774  0.1730830882507993  0.3811519487586614
  0.2523808437789282  0.1482851511755486  0.6188203450582330
 
  0.00000000E+00  0.00000000E+00  0.00000000E+00
  0.00000000E+00  0.00000000E+00  0.00000000E+00
  0.00000000E+00  0.00000000E+00  0.00000000E+00
  0.00000000E+00  0.00000000E+00  0.00000000E+00
  0.00000000E+00  0.00000000E+00  0.00000000E+00
  0.00000000E+00  0.00000000E+00  0.00000000E+00
  0.00000000E+00  0.00000000E+00  0.00000000E+00
  0.00000000E+00  0.00000000E+00  0.00000000E+00
  0.00000000E+00  0.00000000E+00  0.00000000E+00
  0.00000000E+00  0.00000000E+00  0.00000000E+00
  0.00000000E+00  0.00000000E+00  0.00000000E+00
  0.00000000E+00  0.00000000E+00  0.00000000E+00
  0.00000000E+00  0.00000000E+00  0.00000000E+00
  0.00000000E+00  0.00000000E+00  0.00000000E+00
  0.00000000E+00  0.00000000E+00  0.00000000E+00
  0.00000000E+00  0.00000000E+00  0.00000000E+00
