CONTCAR\(10)                            
   1.00000000000000     
    15.1086997986000000    0.0000000000000000    0.0000000000000000
     3.7771669926999998   12.0335217063000002    0.0000000000000000
     0.0000000000000000    0.0000000000000000   20.2071990966999984
   Au   Se   O    H 
    32    32     2     1
Selective dynamics
Direct
  0.2494215502280142  0.9988860816791671  0.6213910959003286   F   F   F
  0.9990425721473954  0.9987975879711541  0.3787202647336869   F   F   F
  0.0873432163973220  0.1480628525532239  0.5007418481747763   F   F   F
  0.1611274610727875  0.8503425627061034  0.5013357208450699   F   F   F
  0.4992197593697014  0.9986092422824555  0.6212267667374149   F   F   F
  0.2489598445056203  0.9984669212053774  0.3780864248765710   F   F   F
  0.3373872665969770  0.1476880314182054  0.4990166608837825   F   F   F
  0.4114026248909326  0.8492480682772836  0.4975449611860796   F   F   F
  0.7489410575057960  0.9993829913418395  0.6217025342268698   F   F   F
  0.4990717514504937  0.9986060921663338  0.3778263892238201   F   F   F
  0.5871876332654509  0.1480971601426972  0.5005751886217311   F   F   F
  0.6613105803951171  0.8502114513686791  0.5002783591136790   F   F   F
  0.9988382464693544  0.9998137546174704  0.6220925809825815   F   F   F
  0.7490141725083603  0.9987727454345645  0.3784671566470124   F   F   F
  0.8371408723552847  0.1483497518845596  0.4997507048709195   F   F   F
  0.9113979447682681  0.8505935435742700  0.4999817977352379   F   F   F
  0.2489007046179239  0.5001198973426497  0.6202290016204515   F   F   F
  0.9991418020741705  0.4984164625490450  0.3780543237101313   F   F   F
  0.0870772055065672  0.6481439227260637  0.4990130251077503   F   F   F
  0.1616481497183386  0.3504773127206349  0.4998592568160731   F   F   F
  0.4986427330654450  0.5001328777978955  0.6204809431797429   F   F   F
  0.2491447869148260  0.4985915821129652  0.3769369960581770   F   F   F
  0.3366846041168898  0.6487997376824453  0.4970497920657806   F   F   F
  0.4111055887259667  0.3505807605261637  0.4982370659948003   F   F   F
  0.7485602076253741  0.5000297682327854  0.6212977596062856   F   F   F
  0.4991983149957662  0.4985176653489347  0.3770925574176758   F   F   F
  0.5873329378385108  0.6479350877679195  0.4992142665438948   F   F   F
  0.6611718710029280  0.3505500396151646  0.4999008763287804   F   F   F
  0.9988523013819091  0.4997116460512459  0.6212627065075722   F   F   F
  0.7491818387623681  0.4983680189019424  0.3780253189747853   F   F   F
  0.8372220025139683  0.6482194179121592  0.4993874951546431   F   F   F
  0.9112280150644025  0.3504811437349460  0.5001120531510850   F   F   F
  0.0898312358433984  0.1383957615123350  0.6217634835989116   F   F   F
  0.1583201176172722  0.8606411345315621  0.6225754847239955   F   F   F
  0.0896380339474376  0.1376545625491303  0.3799033169076367   F   F   F
  0.1582699584517542  0.8597143393437676  0.3804466532222506   F   F   F
  0.3398278520283853  0.1376696825316657  0.6199228615528796   F   F   F
  0.4087456799139630  0.8599826063839586  0.6183945415344994   F   F   F
  0.3394972120319935  0.1374234142913338  0.3779626426727702   F   F   F
  0.4085002999294076  0.8597168062677270  0.3762646047223086   F   F   F
  0.5893050417022252  0.1380459869447677  0.6215886216730979   F   F   F
  0.6587051969648599  0.8600534253000518  0.6213141884095776   F   F   F
  0.5894839268318464  0.1376415910910751  0.3797119519477903   F   F   F
  0.6585152357972675  0.8597126322209405  0.3792987251456523   F   F   F
  0.8393075202074982  0.1386341500295742  0.6207291914562560   F   F   F
  0.9084045506862068  0.8607477027359494  0.6209976668471171   F   F   F
  0.8395916823398863  0.1377872375140612  0.3787196576334679   F   F   F
  0.9084733116220605  0.8599246871078563  0.3789232812667152   F   F   F
  0.0892696884387334  0.6387439709185969  0.6200059178421427   F   F   F
  0.1584591415218668  0.3609376708826701  0.6209287919151834   F   F   F
  0.0895917910666952  0.6374007526762853  0.3780290410213496   F   F   F
  0.1586785672319238  0.3596953631132251  0.3788585849347044   F   F   F
  0.3394813095007194  0.6390195620070429  0.6178917091203004   F   F   F
  0.4082093805051912  0.3610180806485772  0.6191255706135479   F   F   F
  0.3397079286460993  0.6375234879829108  0.3760257121265198   F   F   F
  0.4086139544155003  0.3595564599184300  0.3771664126228629   F   F   F
  0.5890582117332812  0.6391372168321325  0.6202341078752482   F   F   F
  0.6579193742616170  0.3612565138295309  0.6209425644028954   F   F   F
  0.5897691693240645  0.6373751885411139  0.3781449796802576   F   F   F
  0.6585190097179776  0.3595122407998943  0.3788884626796616   F   F   F
  0.8392466116754562  0.6387116411629137  0.6203926923591254   F   F   F
  0.9081327394854384  0.3609497825883423  0.6211318710289362   F   F   F
  0.8396490564526147  0.6374350970618323  0.3784060032058605   F   F   F
  0.9086331089623130  0.3594946043538627  0.3790768877699691   F   F   F
  0.3982453207943024  0.7085536821212699  0.7695457609614635   T   T   T
  0.4304654349509818  0.7964790461661195  0.7573553468713712   T   T   T
  0.3300841285476039  0.7412894763930706  0.7720686079515100   T   T   T
 
  0.00000000E+00  0.00000000E+00  0.00000000E+00
  0.00000000E+00  0.00000000E+00  0.00000000E+00
  0.00000000E+00  0.00000000E+00  0.00000000E+00
  0.00000000E+00  0.00000000E+00  0.00000000E+00
  0.00000000E+00  0.00000000E+00  0.00000000E+00
  0.00000000E+00  0.00000000E+00  0.00000000E+00
  0.00000000E+00  0.00000000E+00  0.00000000E+00
  0.00000000E+00  0.00000000E+00  0.00000000E+00
  0.00000000E+00  0.00000000E+00  0.00000000E+00
  0.00000000E+00  0.00000000E+00  0.00000000E+00
  0.00000000E+00  0.00000000E+00  0.00000000E+00
  0.00000000E+00  0.00000000E+00  0.00000000E+00
  0.00000000E+00  0.00000000E+00  0.00000000E+00
  0.00000000E+00  0.00000000E+00  0.00000000E+00
  0.00000000E+00  0.00000000E+00  0.00000000E+00
  0.00000000E+00  0.00000000E+00  0.00000000E+00
  0.00000000E+00  0.00000000E+00  0.00000000E+00
  0.00000000E+00  0.00000000E+00  0.00000000E+00
  0.00000000E+00  0.00000000E+00  0.00000000E+00
  0.00000000E+00  0.00000000E+00  0.00000000E+00
  0.00000000E+00  0.00000000E+00  0.00000000E+00
  0.00000000E+00  0.00000000E+00  0.00000000E+00
  0.00000000E+00  0.00000000E+00  0.00000000E+00
  0.00000000E+00  0.00000000E+00  0.00000000E+00
  0.00000000E+00  0.00000000E+00  0.00000000E+00
  0.00000000E+00  0.00000000E+00  0.00000000E+00
  0.00000000E+00  0.00000000E+00  0.00000000E+00
  0.00000000E+00  0.00000000E+00  0.00000000E+00
  0.00000000E+00  0.00000000E+00  0.00000000E+00
  0.00000000E+00  0.00000000E+00  0.00000000E+00
  0.00000000E+00  0.00000000E+00  0.00000000E+00
  0.00000000E+00  0.00000000E+00  0.00000000E+00
  0.00000000E+00  0.00000000E+00  0.00000000E+00
  0.00000000E+00  0.00000000E+00  0.00000000E+00
  0.00000000E+00  0.00000000E+00  0.00000000E+00
  0.00000000E+00  0.00000000E+00  0.00000000E+00
  0.00000000E+00  0.00000000E+00  0.00000000E+00
  0.00000000E+00  0.00000000E+00  0.00000000E+00
  0.00000000E+00  0.00000000E+00  0.00000000E+00
  0.00000000E+00  0.00000000E+00  0.00000000E+00
  0.00000000E+00  0.00000000E+00  0.00000000E+00
  0.00000000E+00  0.00000000E+00  0.00000000E+00
  0.00000000E+00  0.00000000E+00  0.00000000E+00
  0.00000000E+00  0.00000000E+00  0.00000000E+00
  0.00000000E+00  0.00000000E+00  0.00000000E+00
  0.00000000E+00  0.00000000E+00  0.00000000E+00
  0.00000000E+00  0.00000000E+00  0.00000000E+00
  0.00000000E+00  0.00000000E+00  0.00000000E+00
  0.00000000E+00  0.00000000E+00  0.00000000E+00
  0.00000000E+00  0.00000000E+00  0.00000000E+00
  0.00000000E+00  0.00000000E+00  0.00000000E+00
  0.00000000E+00  0.00000000E+00  0.00000000E+00
  0.00000000E+00  0.00000000E+00  0.00000000E+00
  0.00000000E+00  0.00000000E+00  0.00000000E+00
  0.00000000E+00  0.00000000E+00  0.00000000E+00
  0.00000000E+00  0.00000000E+00  0.00000000E+00
  0.00000000E+00  0.00000000E+00  0.00000000E+00
  0.00000000E+00  0.00000000E+00  0.00000000E+00
  0.00000000E+00  0.00000000E+00  0.00000000E+00
  0.00000000E+00  0.00000000E+00  0.00000000E+00
  0.00000000E+00  0.00000000E+00  0.00000000E+00
  0.00000000E+00  0.00000000E+00  0.00000000E+00
  0.00000000E+00  0.00000000E+00  0.00000000E+00
  0.00000000E+00  0.00000000E+00  0.00000000E+00
  0.00000000E+00  0.00000000E+00  0.00000000E+00
  0.00000000E+00  0.00000000E+00  0.00000000E+00
  0.00000000E+00  0.00000000E+00  0.00000000E+00
