CONTCAR\(7)                             
   1.00000000000000     
    11.9904003143000004    0.0000000000000000    0.0000000000000000
     0.0000000000000000   11.9904003143000004    0.0000000000000000
     0.0000000000000000    0.0000000000000000   19.0006008147999985
   Tl   Cu   F    O 
    18     9    36     1
Direct
  0.1635645840849458  0.1655830461427676  0.6177984782125442
  0.1691664615732808  0.1669108915196356  0.3786057669408228
  0.5000865559750991  0.1608257944223010  0.6301998401771226
  0.5000460077089862  0.1668601794252852  0.3848131848739474
  0.8372831356651568  0.1663628079665907  0.6182474338215632
  0.8310643574462598  0.1686451767516065  0.3784416863292123
  0.1668823743842333  0.5003578457244285  0.6246325565346764
  0.1680504877942603  0.4988478806371337  0.3785997569513276
  0.5000164558523172  0.5074876701027113  0.6402456970432163
  0.5000765851266874  0.4996822084908931  0.3848346168663646
  0.8331058738494458  0.5003706931552696  0.6245994986887240
  0.8333351229449709  0.5017905662085569  0.3784228743489444
  0.1699196289551681  0.8333496718193327  0.6209074328662821
  0.1666851435995710  0.8346268024801344  0.3778232155396046
  0.4999601644935880  0.8092960033904537  0.6433069155759038
  0.4999456611138269  0.8336706209372700  0.3848612512946746
  0.8300547245220308  0.8334031809939242  0.6209342081581987
  0.8317231492315867  0.8357562266836476  0.3783229625944559
 -0.0000478467514884  0.0001237502464441  0.4983551110349262
  0.3335556400180626  0.9997014190680423  0.5011713644131752
  0.6665496432484036  0.9999771969124411  0.5012965582280052
 -0.0000029197030388  0.3347684594831626  0.4990258845425546
  0.3338730177900900  0.3348941193605489  0.5019174488357007
  0.6662981926717110  0.3350216652922973  0.5018752131837834
  0.0000477642507726  0.6671876052854598  0.4973761962273666
  0.3329333759039910  0.6674047861314756  0.4974653930841457
  0.6669893149201608  0.6673821997777415  0.4975751737034080
 -0.0000308919968532  0.0020675624336737  0.3917633645035575
 -0.0000223968138732 -0.0007040775109599  0.6051392376704899
 -0.0000119143446508  0.1677286219655026  0.5004960678050167
  0.1659275586458813  0.0014085021325628  0.4985371704137048
  0.3325073962309352  0.0032911669986586  0.3943182470057692
  0.3255355404686003 -0.0005984157248507  0.6066799693320047
  0.3318152284763372  0.1675142471067360  0.5028278562656366
  0.5000472995593086  0.0030390292657043  0.5000331360681448
  0.6675211612748568  0.0035357718356387  0.3944554337467063
  0.6745682131628905 -0.0002980907113054  0.6067304132223656
  0.6682094407225843  0.1677052411438867  0.5028279257644402
  0.8340655175451477  0.0012073613097657  0.4985686725349464
  0.0000107552645475  0.3324937807410880  0.3923062624630927
 -0.0000643433025392  0.3370229828458224  0.6061325817322477
 -0.0000322327090554  0.5006958529925738  0.4967227644641794
  0.1665319309620161  0.3340166641726335  0.5002043995600618
  0.3313705987291812  0.3318469939355015  0.3948109462069821
  0.3314598246163596  0.3373192972605865  0.6079877843470948
  0.3317864240519774  0.5009410443166502  0.4972263796117843
  0.5000536371208011  0.3324856220806845  0.4995452210259908
  0.6687324430207783  0.3321942907497504  0.3948276506138343
  0.6687492799442930  0.3373279185118266  0.6080013734751409
  0.6681400061470871  0.5009837315245109  0.4974820342913513
  0.8335471176046730  0.3338928730579303  0.5002311126278790
 -0.0000139932092520  0.6674344676278271  0.3903999374813893
 -0.0000477752480689  0.6668581961245027  0.6037244837310114
  0.0000075987226093  0.8337305875458488  0.4966012701527817
  0.1657165207601749  0.6669615459617503  0.4955746463254847
  0.3325877461603035  0.6668454377297180  0.3912048298750506
  0.3288446238321030  0.6689274161190980  0.6014776026371708
  0.3295209877788614  0.8339001639718707  0.4958631724151371
  0.4999687563342995  0.6684664692372477  0.4974389159919508
  0.6673382005073766  0.6667261057185291  0.3912334983888718
  0.6711751003597216  0.6689574234762408  0.6015672789545358
  0.6705451717172561  0.8339850100195737  0.4958608711166087
  0.8342876014314521  0.6668609691322671  0.4955467226119856
  0.4998988398017426  0.6396593424913681  0.7198551604949802
 
  0.00000000E+00  0.00000000E+00  0.00000000E+00
  0.00000000E+00  0.00000000E+00  0.00000000E+00
  0.00000000E+00  0.00000000E+00  0.00000000E+00
  0.00000000E+00  0.00000000E+00  0.00000000E+00
  0.00000000E+00  0.00000000E+00  0.00000000E+00
  0.00000000E+00  0.00000000E+00  0.00000000E+00
  0.00000000E+00  0.00000000E+00  0.00000000E+00
  0.00000000E+00  0.00000000E+00  0.00000000E+00
  0.00000000E+00  0.00000000E+00  0.00000000E+00
  0.00000000E+00  0.00000000E+00  0.00000000E+00
  0.00000000E+00  0.00000000E+00  0.00000000E+00
  0.00000000E+00  0.00000000E+00  0.00000000E+00
  0.00000000E+00  0.00000000E+00  0.00000000E+00
  0.00000000E+00  0.00000000E+00  0.00000000E+00
  0.00000000E+00  0.00000000E+00  0.00000000E+00
  0.00000000E+00  0.00000000E+00  0.00000000E+00
  0.00000000E+00  0.00000000E+00  0.00000000E+00
  0.00000000E+00  0.00000000E+00  0.00000000E+00
  0.00000000E+00  0.00000000E+00  0.00000000E+00
  0.00000000E+00  0.00000000E+00  0.00000000E+00
  0.00000000E+00  0.00000000E+00  0.00000000E+00
  0.00000000E+00  0.00000000E+00  0.00000000E+00
  0.00000000E+00  0.00000000E+00  0.00000000E+00
  0.00000000E+00  0.00000000E+00  0.00000000E+00
  0.00000000E+00  0.00000000E+00  0.00000000E+00
  0.00000000E+00  0.00000000E+00  0.00000000E+00
  0.00000000E+00  0.00000000E+00  0.00000000E+00
  0.00000000E+00  0.00000000E+00  0.00000000E+00
  0.00000000E+00  0.00000000E+00  0.00000000E+00
  0.00000000E+00  0.00000000E+00  0.00000000E+00
  0.00000000E+00  0.00000000E+00  0.00000000E+00
  0.00000000E+00  0.00000000E+00  0.00000000E+00
  0.00000000E+00  0.00000000E+00  0.00000000E+00
  0.00000000E+00  0.00000000E+00  0.00000000E+00
  0.00000000E+00  0.00000000E+00  0.00000000E+00
  0.00000000E+00  0.00000000E+00  0.00000000E+00
  0.00000000E+00  0.00000000E+00  0.00000000E+00
  0.00000000E+00  0.00000000E+00  0.00000000E+00
  0.00000000E+00  0.00000000E+00  0.00000000E+00
  0.00000000E+00  0.00000000E+00  0.00000000E+00
  0.00000000E+00  0.00000000E+00  0.00000000E+00
  0.00000000E+00  0.00000000E+00  0.00000000E+00
  0.00000000E+00  0.00000000E+00  0.00000000E+00
  0.00000000E+00  0.00000000E+00  0.00000000E+00
  0.00000000E+00  0.00000000E+00  0.00000000E+00
  0.00000000E+00  0.00000000E+00  0.00000000E+00
  0.00000000E+00  0.00000000E+00  0.00000000E+00
  0.00000000E+00  0.00000000E+00  0.00000000E+00
  0.00000000E+00  0.00000000E+00  0.00000000E+00
  0.00000000E+00  0.00000000E+00  0.00000000E+00
  0.00000000E+00  0.00000000E+00  0.00000000E+00
  0.00000000E+00  0.00000000E+00  0.00000000E+00
  0.00000000E+00  0.00000000E+00  0.00000000E+00
  0.00000000E+00  0.00000000E+00  0.00000000E+00
  0.00000000E+00  0.00000000E+00  0.00000000E+00
  0.00000000E+00  0.00000000E+00  0.00000000E+00
  0.00000000E+00  0.00000000E+00  0.00000000E+00
  0.00000000E+00  0.00000000E+00  0.00000000E+00
  0.00000000E+00  0.00000000E+00  0.00000000E+00
  0.00000000E+00  0.00000000E+00  0.00000000E+00
  0.00000000E+00  0.00000000E+00  0.00000000E+00
  0.00000000E+00  0.00000000E+00  0.00000000E+00
  0.00000000E+00  0.00000000E+00  0.00000000E+00
  0.00000000E+00  0.00000000E+00  0.00000000E+00
