 Bi4 Rh6 S4                             
   1.00000000000000     
     6.8528643183766658    0.0000000000000000    0.0000000000000000
     2.0606994209359386    6.4638149653699628    0.0000000000000000
     0.0000000000000000    0.0000000000000000   18.6211724500379994
   Bi   Rh   S 
     4     6     4
Direct
  0.3868177185453806  0.3901198633984023  0.5866909828391823
  0.8896841764295713  0.8905973595153980  0.5925700202207351
  0.1635941259966291  0.1627251509868622  0.4074116794062599
  0.6664202098750615  0.6631497195704928  0.4133175839273273
  0.0266676774380405  0.5266782308427302  0.5000182770302721
  0.8309480330626150  0.2220618917179769  0.4991381951650795
  0.2224013477758622  0.8312972073084087  0.5008359085864444
  0.5266976016386915  0.0266526016929906  0.5000190707475574
  0.6377420861327209  0.6355138484419864  0.5580413916918586
  0.4154938959171575  0.4177074711193227  0.4419493735587103
  0.9149432016404161  0.3779504500278092  0.5998515274282096
  0.3817318314630943  0.9143326069452551  0.6004780487658024
  0.1383474453741182  0.6753443679448486  0.4001519697471118
  0.6715656487106200  0.1389242304874947  0.3995259708854496
 
  0.00000000E+00  0.00000000E+00  0.00000000E+00
  0.00000000E+00  0.00000000E+00  0.00000000E+00
  0.00000000E+00  0.00000000E+00  0.00000000E+00
  0.00000000E+00  0.00000000E+00  0.00000000E+00
  0.00000000E+00  0.00000000E+00  0.00000000E+00
  0.00000000E+00  0.00000000E+00  0.00000000E+00
  0.00000000E+00  0.00000000E+00  0.00000000E+00
  0.00000000E+00  0.00000000E+00  0.00000000E+00
  0.00000000E+00  0.00000000E+00  0.00000000E+00
  0.00000000E+00  0.00000000E+00  0.00000000E+00
  0.00000000E+00  0.00000000E+00  0.00000000E+00
  0.00000000E+00  0.00000000E+00  0.00000000E+00
  0.00000000E+00  0.00000000E+00  0.00000000E+00
  0.00000000E+00  0.00000000E+00  0.00000000E+00
