Repeated-UnitCell:     2    2    1      
   1.00000000000000     
     8.5985548451469835    0.0000000000000000    0.0000000000000000
    -4.2992794115064230    7.4465770489346665    0.0000000000000000
     0.0000000000000000    0.0000000000000000   22.5038430292079994
   La   P    I 
     8     4     8
Direct
  0.1666667699435251  0.3333335540481315  0.5715442895858914
  0.6666667699435251  0.3333335540481315  0.5715442895858914
  0.1666667699435251  0.8333335540481315  0.5715442895858914
  0.6666667699435251  0.8333335540481315  0.5715442895858914
  0.3333331488715459  0.1666666071258049  0.4284556929446267
  0.8333331488715459  0.1666666071258049  0.4284556929446267
  0.3333331488715459  0.6666666071258049  0.4284556929446267
  0.8333331488715459  0.6666666071258049  0.4284556929446267
  0.9999999760453377  0.9999999622575402  0.5000000219336940
  0.4999999760453377  0.9999999622575402  0.5000000219336940
  0.9999999760453377  0.4999999622575402  0.5000000219336940
  0.4999999760453377  0.4999999622575402  0.5000000219336940
  0.3333335328878917  0.1666664978210122  0.6665817882305335
  0.8333335328878917  0.1666664978210122  0.6665817882305335
  0.3333335328878917  0.6666664978210122  0.6665817882305335
  0.8333335328878917  0.6666664978210122  0.6665817882305335
  0.1666665722516996  0.3333333787475041  0.3334182073052402
  0.6666665722516996  0.3333333787475041  0.3334182073052402
  0.1666665722516996  0.8333333787475041  0.3334182073052402
  0.6666665722516996  0.8333333787475041  0.3334182073052402
 
  0.00000000E+00  0.00000000E+00  0.00000000E+00
  0.00000000E+00  0.00000000E+00  0.00000000E+00
  0.00000000E+00  0.00000000E+00  0.00000000E+00
  0.00000000E+00  0.00000000E+00  0.00000000E+00
  0.00000000E+00  0.00000000E+00  0.00000000E+00
  0.00000000E+00  0.00000000E+00  0.00000000E+00
  0.00000000E+00  0.00000000E+00  0.00000000E+00
  0.00000000E+00  0.00000000E+00  0.00000000E+00
  0.00000000E+00  0.00000000E+00  0.00000000E+00
  0.00000000E+00  0.00000000E+00  0.00000000E+00
  0.00000000E+00  0.00000000E+00  0.00000000E+00
  0.00000000E+00  0.00000000E+00  0.00000000E+00
  0.00000000E+00  0.00000000E+00  0.00000000E+00
  0.00000000E+00  0.00000000E+00  0.00000000E+00
  0.00000000E+00  0.00000000E+00  0.00000000E+00
  0.00000000E+00  0.00000000E+00  0.00000000E+00
  0.00000000E+00  0.00000000E+00  0.00000000E+00
  0.00000000E+00  0.00000000E+00  0.00000000E+00
  0.00000000E+00  0.00000000E+00  0.00000000E+00
  0.00000000E+00  0.00000000E+00  0.00000000E+00
