 Cu2 O4 F2                              
   1.00000000000000     
     3.1843835158876841    0.0000000000000000    0.0000000000000000
     0.0000000000000000    4.1007595237063610    0.0000000000000000
     0.0000000000000000    0.0000000000000000   21.0970603331400000
   Cu   O    F 
     2     4     2
Direct
  0.0000000140500217  0.6664320424142486  0.4177141343114548
  0.5000000083720232  0.1664598388154888  0.5822825855231372
  0.0000000031778571  0.9879693022150492  0.5319118869498392
  0.5000000306635688  0.4879830717676956  0.4680968387352603
  0.5000000363967028  0.5314494195267044  0.5300592552274581
  0.0000000096756058  0.0314298742511872  0.4699525142262579
  0.0000000574297674  0.3596495875915424  0.3579325452532424
  0.4999998402344551  0.8595668634180911  0.6420502397733437
 
  0.00000000E+00  0.00000000E+00  0.00000000E+00
  0.00000000E+00  0.00000000E+00  0.00000000E+00
  0.00000000E+00  0.00000000E+00  0.00000000E+00
  0.00000000E+00  0.00000000E+00  0.00000000E+00
  0.00000000E+00  0.00000000E+00  0.00000000E+00
  0.00000000E+00  0.00000000E+00  0.00000000E+00
  0.00000000E+00  0.00000000E+00  0.00000000E+00
  0.00000000E+00  0.00000000E+00  0.00000000E+00
