CONTCAR\(5)                             
   1.00000000000000     
    12.8708000183000006    0.0000000000000000    0.0000000000000000
     0.0000000000000000   12.8761997223000009    0.0000000000000000
     0.0000000000000000    0.0000000000000000   24.0524005890000012
   Pr   Te   Se
    18    36    18
Direct
  0.1666699949999995  0.0000000000000000  0.5775555853857099
  0.0000000000000000  0.1666700000000034  0.4224444146142901
  0.5000000000000000  0.0000000000000000  0.5775555853857099
  0.3333300239999986  0.1666700000000034  0.4224444146142901
  0.8333299499999995  0.0000000000000000  0.5775555853857099
  0.6666700500000005  0.1666700000000034  0.4224444146142901
  0.1666699949999995  0.3333299999999966  0.5775555853857099
  0.0000000000000000  0.5000000000000000  0.4224444146142901
  0.5000000000000000  0.3333299999999966  0.5775555853857099
  0.3333300239999986  0.5000000000000000  0.4224444146142901
  0.8333299499999995  0.3333299999999966  0.5775555853857099
  0.6666700500000005  0.5000000000000000  0.4224444146142901
  0.1666699949999995  0.6666700000000034  0.5775555853857099
  0.0000000000000000  0.8333299999999966  0.4224444146142901
  0.5000000000000000  0.6666700000000034  0.5775555853857099
  0.3333300239999986  0.8333299999999966  0.4224444146142901
  0.8333299499999995  0.6666700000000034  0.5775555853857099
  0.6666700500000005  0.8333299999999966  0.4224444146142901
  0.1666699949999995  0.1666700000000034  0.6878910770822628
  0.0000000000000000  0.0000000000000000  0.3121089029177355
  0.1666699949999995  0.1666700000000034  0.3120493408208063
  0.0000000000000000  0.0000000000000000  0.6879506591791937
  0.5000000000000000  0.1666700000000034  0.6878910770822628
  0.3333300239999986  0.0000000000000000  0.3121089029177355
  0.5000000000000000  0.1666700000000034  0.3120493408208063
  0.3333300239999986  0.0000000000000000  0.6879506591791937
  0.8333299499999995  0.1666700000000034  0.6878910770822628
  0.6666700500000005  0.0000000000000000  0.3121089029177355
  0.8333299499999995  0.1666700000000034  0.3120493408208063
  0.6666700500000005  0.0000000000000000  0.6879506591791937
  0.1666699949999995  0.5000000000000000  0.6878910770822628
  0.0000000000000000  0.3333299999999966  0.3121089029177355
  0.1666699949999995  0.5000000000000000  0.3120493408208063
  0.0000000000000000  0.3333299999999966  0.6879506591791937
  0.5000000000000000  0.5000000000000000  0.6878910770822628
  0.3333300239999986  0.3333299999999966  0.3121089029177355
  0.5000000000000000  0.5000000000000000  0.3120493408208063
  0.3333300239999986  0.3333299999999966  0.6879506591791937
  0.8333299499999995  0.5000000000000000  0.6878910770822628
  0.6666700500000005  0.3333299999999966  0.3121089029177355
  0.8333299499999995  0.5000000000000000  0.3120493408208063
  0.6666700500000005  0.3333299999999966  0.6879506591791937
  0.1666699949999995  0.8333299999999966  0.6878910770822628
  0.0000000000000000  0.6666700000000034  0.3121089029177355
  0.1666699949999995  0.8333299999999966  0.3120493408208063
  0.0000000000000000  0.6666700000000034  0.6879506591791937
  0.5000000000000000  0.8333299999999966  0.6878910770822628
  0.3333300239999986  0.6666700000000034  0.3121089029177355
  0.5000000000000000  0.8333299999999966  0.3120493408208063
  0.3333300239999986  0.6666700000000034  0.6879506591791937
  0.8333299499999995  0.8333299999999966  0.6878910770822628
  0.6666700500000005  0.6666700000000034  0.3121089029177355
  0.8333299499999995  0.8333299999999966  0.3120493408208063
  0.6666700500000005  0.6666700000000034  0.6879506591791937
  0.1666699949999995  0.0000000000000000  0.4515320668751883
  0.0000000000000000  0.1666700000000034  0.5484678931248155
  0.5000000000000000  0.0000000000000000  0.4515320668751883
  0.3333300239999986  0.1666700000000034  0.5484678931248155
  0.8333299499999995  0.0000000000000000  0.4515320668751883
  0.6666700500000005  0.1666700000000034  0.5484678931248155
  0.1666699949999995  0.3333299999999966  0.4515320668751883
  0.0000000000000000  0.5000000000000000  0.5484678931248155
  0.5000000000000000  0.3333299999999966  0.4515320668751883
  0.3333300239999986  0.5000000000000000  0.5484678931248155
  0.8333299499999995  0.3333299999999966  0.4515320668751883
  0.6666700500000005  0.5000000000000000  0.5484678931248155
  0.1666699949999995  0.6666700000000034  0.4515320668751883
  0.0000000000000000  0.8333299999999966  0.5484678931248155
  0.5000000000000000  0.6666700000000034  0.4515320668751883
  0.3333300239999986  0.8333299999999966  0.5484678931248155
  0.8333299499999995  0.6666700000000034  0.4515320668751883
  0.6666700500000005  0.8333299999999966  0.5484678931248155
 
  0.00000000E+00  0.00000000E+00  0.00000000E+00
  0.00000000E+00  0.00000000E+00  0.00000000E+00
  0.00000000E+00  0.00000000E+00  0.00000000E+00
  0.00000000E+00  0.00000000E+00  0.00000000E+00
  0.00000000E+00  0.00000000E+00  0.00000000E+00
  0.00000000E+00  0.00000000E+00  0.00000000E+00
  0.00000000E+00  0.00000000E+00  0.00000000E+00
  0.00000000E+00  0.00000000E+00  0.00000000E+00
  0.00000000E+00  0.00000000E+00  0.00000000E+00
  0.00000000E+00  0.00000000E+00  0.00000000E+00
  0.00000000E+00  0.00000000E+00  0.00000000E+00
  0.00000000E+00  0.00000000E+00  0.00000000E+00
  0.00000000E+00  0.00000000E+00  0.00000000E+00
  0.00000000E+00  0.00000000E+00  0.00000000E+00
  0.00000000E+00  0.00000000E+00  0.00000000E+00
  0.00000000E+00  0.00000000E+00  0.00000000E+00
  0.00000000E+00  0.00000000E+00  0.00000000E+00
  0.00000000E+00  0.00000000E+00  0.00000000E+00
  0.00000000E+00  0.00000000E+00  0.00000000E+00
  0.00000000E+00  0.00000000E+00  0.00000000E+00
  0.00000000E+00  0.00000000E+00  0.00000000E+00
  0.00000000E+00  0.00000000E+00  0.00000000E+00
  0.00000000E+00  0.00000000E+00  0.00000000E+00
  0.00000000E+00  0.00000000E+00  0.00000000E+00
  0.00000000E+00  0.00000000E+00  0.00000000E+00
  0.00000000E+00  0.00000000E+00  0.00000000E+00
  0.00000000E+00  0.00000000E+00  0.00000000E+00
  0.00000000E+00  0.00000000E+00  0.00000000E+00
  0.00000000E+00  0.00000000E+00  0.00000000E+00
  0.00000000E+00  0.00000000E+00  0.00000000E+00
  0.00000000E+00  0.00000000E+00  0.00000000E+00
  0.00000000E+00  0.00000000E+00  0.00000000E+00
  0.00000000E+00  0.00000000E+00  0.00000000E+00
  0.00000000E+00  0.00000000E+00  0.00000000E+00
  0.00000000E+00  0.00000000E+00  0.00000000E+00
  0.00000000E+00  0.00000000E+00  0.00000000E+00
  0.00000000E+00  0.00000000E+00  0.00000000E+00
  0.00000000E+00  0.00000000E+00  0.00000000E+00
  0.00000000E+00  0.00000000E+00  0.00000000E+00
  0.00000000E+00  0.00000000E+00  0.00000000E+00
  0.00000000E+00  0.00000000E+00  0.00000000E+00
  0.00000000E+00  0.00000000E+00  0.00000000E+00
  0.00000000E+00  0.00000000E+00  0.00000000E+00
  0.00000000E+00  0.00000000E+00  0.00000000E+00
  0.00000000E+00  0.00000000E+00  0.00000000E+00
  0.00000000E+00  0.00000000E+00  0.00000000E+00
  0.00000000E+00  0.00000000E+00  0.00000000E+00
  0.00000000E+00  0.00000000E+00  0.00000000E+00
  0.00000000E+00  0.00000000E+00  0.00000000E+00
  0.00000000E+00  0.00000000E+00  0.00000000E+00
  0.00000000E+00  0.00000000E+00  0.00000000E+00
  0.00000000E+00  0.00000000E+00  0.00000000E+00
  0.00000000E+00  0.00000000E+00  0.00000000E+00
  0.00000000E+00  0.00000000E+00  0.00000000E+00
  0.00000000E+00  0.00000000E+00  0.00000000E+00
  0.00000000E+00  0.00000000E+00  0.00000000E+00
  0.00000000E+00  0.00000000E+00  0.00000000E+00
  0.00000000E+00  0.00000000E+00  0.00000000E+00
  0.00000000E+00  0.00000000E+00  0.00000000E+00
  0.00000000E+00  0.00000000E+00  0.00000000E+00
  0.00000000E+00  0.00000000E+00  0.00000000E+00
  0.00000000E+00  0.00000000E+00  0.00000000E+00
  0.00000000E+00  0.00000000E+00  0.00000000E+00
  0.00000000E+00  0.00000000E+00  0.00000000E+00
  0.00000000E+00  0.00000000E+00  0.00000000E+00
  0.00000000E+00  0.00000000E+00  0.00000000E+00
  0.00000000E+00  0.00000000E+00  0.00000000E+00
  0.00000000E+00  0.00000000E+00  0.00000000E+00
  0.00000000E+00  0.00000000E+00  0.00000000E+00
  0.00000000E+00  0.00000000E+00  0.00000000E+00
  0.00000000E+00  0.00000000E+00  0.00000000E+00
  0.00000000E+00  0.00000000E+00  0.00000000E+00
