CONTCAR\(8)                             
   1.00000000000000     
    18.0916004181000005    0.0000000000000000    0.0000000000000000
     1.9381108455000000   16.0410405593999990    0.0000000000000000
     0.0000000000000000    0.0000000000000000   22.7443008422999995
   Sc   C    I    O 
    24     8    44     1
Direct
  0.3764633597500298  0.5321737210661095  0.5519158517753140
  0.2097940503730532  0.6839676197276743  0.4462854614601102
  0.4637996464208599  0.3381809804997292  0.4938907740535669
  0.1199758381660245  0.8765672089696402  0.5042502746815718
  0.3459398265795686  0.3357473011803453  0.5975479101111315
  0.2386706189590287  0.8807283135452708  0.4011555529632267
  0.2153778852042622  0.4207544263572477  0.5183391578646270
  0.3695729775081947  0.7982105526763187  0.4812274153721088
  0.3332337527660064  0.4278400253794920  0.4156216001744266
  0.2510923991630118  0.7887630222079461  0.5831949689831866
  0.3087945135094652  0.2292202212499485  0.4629564163753859
  0.2742999305674751  0.9873103560798904  0.5363961590174254
  0.8746430015034314  0.5333994934825123  0.5519422299459420
  0.7079111809473112  0.6869184551713597  0.4406164730690479
  0.9639945287810696  0.3387211890804489  0.4930815008431548
  0.6299737353092688  0.8715209169171956  0.5106345785056716
  0.8459574997487063  0.3361319880651005  0.5966018583106100
  0.7370877037870809  0.8834356762463121  0.3952017509130244
  0.7159319360051656  0.4228727178366106  0.5175498173798274
  0.8612704102482854  0.7942435089006150  0.4852572466472645
  0.8333539521996315  0.4287150150237229  0.4144283930256064
  0.7580557835930579  0.7642333615279522  0.6492604177168697
  0.8089128592393211  0.2296451875089292  0.4614803877376726
  0.7769892102981218  0.9849308383858735  0.5351825271205310
  0.2373553586172212  0.7943682832846644  0.4813570700429374
  0.3478373150647954  0.4219744299059112  0.5171484494542884
  0.2529635121853346  0.8727442303615006  0.5027310044607800
  0.3307358518616821  0.3439683315928015  0.4960868223765984
  0.7362500105144912  0.7975097616901702  0.4737122414909858
  0.8481713081177998  0.4223262331654206  0.5160298232937600
  0.7536701156527820  0.8738216539853448  0.4963587494769662
  0.8310669986821170  0.3444815059820256  0.4945856394174615
  0.3816860401465737  0.4770403364404971  0.6704665184816566
  0.2058244659986742  0.7385919785640288  0.3275326246985758
  0.0336800323870623  0.4883305958390690  0.5346629848430936
  0.0541427245967044  0.7243169248109658  0.4630885019492513
  0.2170525958931745  0.6024160169584549  0.5672047651941574
  0.3696694571278050  0.6137486687398759  0.4313729447567474
  0.2710440980410612  0.0602638886189555  0.4157286285534988
  0.3097504225928245  0.1579561514841334  0.5835578860701848
  0.4620509503534043  0.1721141193100417  0.4448916681430237
  0.1201924792711006  0.0431712661462848  0.5536642530435716
  0.1458602548708079  0.2801598720487965  0.4762927147240013
  0.4355156105005678  0.9394239626481792  0.5243737673876079
  0.3881848779935400  0.8452025901303123  0.3618240080853996
  0.1966228055710529  0.3738508633215354  0.6377063636852338
  0.0886324815129664  0.9478421888098003  0.3890891830182621
  0.4955092297929301  0.2659710486200429  0.6084445781112111
  0.4026303742339245  0.7095843143159325  0.5941535078480065
  0.1821106744362699  0.5073144792940509  0.4045518877854303
  0.1040043846012779  0.8121928767711490  0.6230343747675271
  0.4800851198713497  0.4020268022151963  0.3747079323745195
  0.2888624112290496  0.9216099628752745  0.6562523804784246
  0.2930063683396151  0.2943571685653933  0.3433256619748608
  0.8789231290845525  0.4768565939923498  0.6693888716788130
  0.7013151334236745  0.7424851271144052  0.3221491667672612
  0.5332605472550123  0.4885255864190281  0.5349990975799190
  0.5513099508037594  0.7283230233444277  0.4646016771511968
  0.7159162976292440  0.6008288297717497  0.5615634956586167
  0.8680204468336816  0.6142156501824930  0.4293899503317630
  0.7736464589619960  0.0608013957737349  0.4147740738909367
  0.8121415952829624  0.1585530308896568  0.5810043461978739
  0.9629177664073443  0.1728530679464081  0.4434322724062414
  0.6247859447969757  0.0405685879942298  0.5564843822116790
  0.6454407475407924  0.2812226382719437  0.4753088333219206
  0.9394249942689424  0.9328250071671865  0.5226708847372912
  0.8894874173934543  0.8411296320059657  0.3640967116612581
  0.6965856241796359  0.3722156878506260  0.6361047206732228
  0.5866609522409130  0.9500087155647096  0.3948559850392467
  0.9957285858956058  0.2667662436567619  0.6077127629062401
  0.9059857322467874  0.7055872325168936  0.5936048725578736
  0.6816765977836871  0.5068114629544870  0.4020748987126419
  0.5998733670347640  0.8122910577340721  0.6257124994127348
  0.9809680863119867  0.4028958615059964  0.3741226118529454
  0.7981578408677577  0.9349480554072315  0.6587347052806115
  0.7936517741242997  0.2956525249433044  0.3417590255569873
  0.7661860049468179  0.7082119944103799  0.7126184183774011
 
  0.00000000E+00  0.00000000E+00  0.00000000E+00
  0.00000000E+00  0.00000000E+00  0.00000000E+00
  0.00000000E+00  0.00000000E+00  0.00000000E+00
  0.00000000E+00  0.00000000E+00  0.00000000E+00
  0.00000000E+00  0.00000000E+00  0.00000000E+00
  0.00000000E+00  0.00000000E+00  0.00000000E+00
  0.00000000E+00  0.00000000E+00  0.00000000E+00
  0.00000000E+00  0.00000000E+00  0.00000000E+00
  0.00000000E+00  0.00000000E+00  0.00000000E+00
  0.00000000E+00  0.00000000E+00  0.00000000E+00
  0.00000000E+00  0.00000000E+00  0.00000000E+00
  0.00000000E+00  0.00000000E+00  0.00000000E+00
  0.00000000E+00  0.00000000E+00  0.00000000E+00
  0.00000000E+00  0.00000000E+00  0.00000000E+00
  0.00000000E+00  0.00000000E+00  0.00000000E+00
  0.00000000E+00  0.00000000E+00  0.00000000E+00
  0.00000000E+00  0.00000000E+00  0.00000000E+00
  0.00000000E+00  0.00000000E+00  0.00000000E+00
  0.00000000E+00  0.00000000E+00  0.00000000E+00
  0.00000000E+00  0.00000000E+00  0.00000000E+00
  0.00000000E+00  0.00000000E+00  0.00000000E+00
  0.00000000E+00  0.00000000E+00  0.00000000E+00
  0.00000000E+00  0.00000000E+00  0.00000000E+00
  0.00000000E+00  0.00000000E+00  0.00000000E+00
  0.00000000E+00  0.00000000E+00  0.00000000E+00
  0.00000000E+00  0.00000000E+00  0.00000000E+00
  0.00000000E+00  0.00000000E+00  0.00000000E+00
  0.00000000E+00  0.00000000E+00  0.00000000E+00
  0.00000000E+00  0.00000000E+00  0.00000000E+00
  0.00000000E+00  0.00000000E+00  0.00000000E+00
  0.00000000E+00  0.00000000E+00  0.00000000E+00
  0.00000000E+00  0.00000000E+00  0.00000000E+00
  0.00000000E+00  0.00000000E+00  0.00000000E+00
  0.00000000E+00  0.00000000E+00  0.00000000E+00
  0.00000000E+00  0.00000000E+00  0.00000000E+00
  0.00000000E+00  0.00000000E+00  0.00000000E+00
  0.00000000E+00  0.00000000E+00  0.00000000E+00
  0.00000000E+00  0.00000000E+00  0.00000000E+00
  0.00000000E+00  0.00000000E+00  0.00000000E+00
  0.00000000E+00  0.00000000E+00  0.00000000E+00
  0.00000000E+00  0.00000000E+00  0.00000000E+00
  0.00000000E+00  0.00000000E+00  0.00000000E+00
  0.00000000E+00  0.00000000E+00  0.00000000E+00
  0.00000000E+00  0.00000000E+00  0.00000000E+00
  0.00000000E+00  0.00000000E+00  0.00000000E+00
  0.00000000E+00  0.00000000E+00  0.00000000E+00
  0.00000000E+00  0.00000000E+00  0.00000000E+00
  0.00000000E+00  0.00000000E+00  0.00000000E+00
  0.00000000E+00  0.00000000E+00  0.00000000E+00
  0.00000000E+00  0.00000000E+00  0.00000000E+00
  0.00000000E+00  0.00000000E+00  0.00000000E+00
  0.00000000E+00  0.00000000E+00  0.00000000E+00
  0.00000000E+00  0.00000000E+00  0.00000000E+00
  0.00000000E+00  0.00000000E+00  0.00000000E+00
  0.00000000E+00  0.00000000E+00  0.00000000E+00
  0.00000000E+00  0.00000000E+00  0.00000000E+00
  0.00000000E+00  0.00000000E+00  0.00000000E+00
  0.00000000E+00  0.00000000E+00  0.00000000E+00
  0.00000000E+00  0.00000000E+00  0.00000000E+00
  0.00000000E+00  0.00000000E+00  0.00000000E+00
  0.00000000E+00  0.00000000E+00  0.00000000E+00
  0.00000000E+00  0.00000000E+00  0.00000000E+00
  0.00000000E+00  0.00000000E+00  0.00000000E+00
  0.00000000E+00  0.00000000E+00  0.00000000E+00
  0.00000000E+00  0.00000000E+00  0.00000000E+00
  0.00000000E+00  0.00000000E+00  0.00000000E+00
  0.00000000E+00  0.00000000E+00  0.00000000E+00
  0.00000000E+00  0.00000000E+00  0.00000000E+00
  0.00000000E+00  0.00000000E+00  0.00000000E+00
  0.00000000E+00  0.00000000E+00  0.00000000E+00
  0.00000000E+00  0.00000000E+00  0.00000000E+00
  0.00000000E+00  0.00000000E+00  0.00000000E+00
  0.00000000E+00  0.00000000E+00  0.00000000E+00
  0.00000000E+00  0.00000000E+00  0.00000000E+00
  0.00000000E+00  0.00000000E+00  0.00000000E+00
  0.00000000E+00  0.00000000E+00  0.00000000E+00
  0.00000000E+00  0.00000000E+00  0.00000000E+00
