 Nb3 Te6                                
   1.00000000000000     
     3.4307036118412642    0.0000000000000000    0.0000000000000000
     1.7153518059206321    9.6352103732102208    0.0000000000000000
     0.0000000000000000    0.0000000000000000   19.1306883248000013
   Nb   Te
     3     6
Direct
  0.0000019381791034  0.9999967609959413  0.5000008584190709
  0.3566820259859398  0.2865612066763461  0.4955284671071851
  0.6433178823502814  0.7134412769154679  0.5044720933695928
  0.4451980228764612  0.1097862715473141  0.6053969230755882
  0.5548029057996615  0.8902114627795754  0.3946033323477778
  0.7748415927097128  0.4500966528586048  0.5824184944287936
  0.2251531068791834  0.5499090236176443  0.4175777605917546
  0.1045871447152322  0.7907695812443620  0.6094029662031062
  0.8954153805044172  0.2092277633647370  0.3905991044571309
 
  0.00000000E+00  0.00000000E+00  0.00000000E+00
  0.00000000E+00  0.00000000E+00  0.00000000E+00
  0.00000000E+00  0.00000000E+00  0.00000000E+00
  0.00000000E+00  0.00000000E+00  0.00000000E+00
  0.00000000E+00  0.00000000E+00  0.00000000E+00
  0.00000000E+00  0.00000000E+00  0.00000000E+00
  0.00000000E+00  0.00000000E+00  0.00000000E+00
  0.00000000E+00  0.00000000E+00  0.00000000E+00
  0.00000000E+00  0.00000000E+00  0.00000000E+00
