G   59   21    1    0.005     # Parameters to Generate KPOINTS (Don't Edit This Line)
     620
Reciprocal lattice
    0.000000000000    0.000000000000    0.000000000000       1
    0.016949152542    0.000000000000    0.000000000000       2
    0.033898305085    0.000000000000    0.000000000000       2
    0.050847457627    0.000000000000    0.000000000000       2
    0.067796610169    0.000000000000    0.000000000000       2
    0.084745762712    0.000000000000    0.000000000000       2
    0.101694915254    0.000000000000    0.000000000000       2
    0.118644067797    0.000000000000    0.000000000000       2
    0.135593220339    0.000000000000    0.000000000000       2
    0.152542372881    0.000000000000    0.000000000000       2
    0.169491525424    0.000000000000    0.000000000000       2
    0.186440677966    0.000000000000    0.000000000000       2
    0.203389830508    0.000000000000    0.000000000000       2
    0.220338983051    0.000000000000    0.000000000000       2
    0.237288135593    0.000000000000    0.000000000000       2
    0.254237288136    0.000000000000    0.000000000000       2
    0.271186440678    0.000000000000    0.000000000000       2
    0.288135593220    0.000000000000    0.000000000000       2
    0.305084745763    0.000000000000    0.000000000000       2
    0.322033898305    0.000000000000    0.000000000000       2
    0.338983050847    0.000000000000    0.000000000000       2
    0.355932203390    0.000000000000    0.000000000000       2
    0.372881355932    0.000000000000    0.000000000000       2
    0.389830508475    0.000000000000    0.000000000000       2
    0.406779661017    0.000000000000    0.000000000000       2
    0.423728813559    0.000000000000    0.000000000000       2
    0.440677966102    0.000000000000    0.000000000000       2
    0.457627118644    0.000000000000    0.000000000000       2
    0.474576271186    0.000000000000    0.000000000000       2
    0.491525423729    0.000000000000    0.000000000000       2
    0.000000000000    0.047619047619    0.000000000000       2
    0.016949152542    0.047619047619    0.000000000000       2
    0.033898305085    0.047619047619    0.000000000000       2
    0.050847457627    0.047619047619    0.000000000000       2
    0.067796610169    0.047619047619    0.000000000000       2
    0.084745762712    0.047619047619    0.000000000000       2
    0.101694915254    0.047619047619    0.000000000000       2
    0.118644067797    0.047619047619    0.000000000000       2
    0.135593220339    0.047619047619    0.000000000000       2
    0.152542372881    0.047619047619    0.000000000000       2
    0.169491525424    0.047619047619    0.000000000000       2
    0.186440677966    0.047619047619    0.000000000000       2
    0.203389830508    0.047619047619    0.000000000000       2
    0.220338983051    0.047619047619    0.000000000000       2
    0.237288135593    0.047619047619    0.000000000000       2
    0.254237288136    0.047619047619    0.000000000000       2
    0.271186440678    0.047619047619    0.000000000000       2
    0.288135593220    0.047619047619    0.000000000000       2
    0.305084745763    0.047619047619    0.000000000000       2
    0.322033898305    0.047619047619    0.000000000000       2
    0.338983050847    0.047619047619    0.000000000000       2
    0.355932203390    0.047619047619    0.000000000000       2
    0.372881355932    0.047619047619    0.000000000000       2
    0.389830508475    0.047619047619    0.000000000000       2
    0.406779661017    0.047619047619    0.000000000000       2
    0.423728813559    0.047619047619    0.000000000000       2
    0.440677966102    0.047619047619    0.000000000000       2
    0.457627118644    0.047619047619    0.000000000000       2
    0.474576271186    0.047619047619    0.000000000000       2
    0.491525423729    0.047619047619    0.000000000000       2
   -0.491525423729    0.047619047619    0.000000000000       2
   -0.474576271186    0.047619047619    0.000000000000       2
   -0.457627118644    0.047619047619    0.000000000000       2
   -0.440677966102    0.047619047619    0.000000000000       2
   -0.423728813559    0.047619047619    0.000000000000       2
   -0.406779661017    0.047619047619    0.000000000000       2
   -0.389830508475    0.047619047619    0.000000000000       2
   -0.372881355932    0.047619047619    0.000000000000       2
   -0.355932203390    0.047619047619    0.000000000000       2
   -0.338983050847    0.047619047619    0.000000000000       2
   -0.322033898305    0.047619047619    0.000000000000       2
   -0.305084745763    0.047619047619    0.000000000000       2
   -0.288135593220    0.047619047619    0.000000000000       2
   -0.271186440678    0.047619047619    0.000000000000       2
   -0.254237288136    0.047619047619    0.000000000000       2
   -0.237288135593    0.047619047619    0.000000000000       2
   -0.220338983051    0.047619047619    0.000000000000       2
   -0.203389830508    0.047619047619    0.000000000000       2
   -0.186440677966    0.047619047619    0.000000000000       2
   -0.169491525424    0.047619047619    0.000000000000       2
   -0.152542372881    0.047619047619    0.000000000000       2
   -0.135593220339    0.047619047619    0.000000000000       2
   -0.118644067797    0.047619047619    0.000000000000       2
   -0.101694915254    0.047619047619    0.000000000000       2
   -0.084745762712    0.047619047619    0.000000000000       2
   -0.067796610169    0.047619047619    0.000000000000       2
   -0.050847457627    0.047619047619    0.000000000000       2
   -0.033898305085    0.047619047619    0.000000000000       2
   -0.016949152542    0.047619047619    0.000000000000       2
    0.000000000000    0.095238095238    0.000000000000       2
    0.016949152542    0.095238095238    0.000000000000       2
    0.033898305085    0.095238095238    0.000000000000       2
    0.050847457627    0.095238095238    0.000000000000       2
    0.067796610169    0.095238095238    0.000000000000       2
    0.084745762712    0.095238095238    0.000000000000       2
    0.101694915254    0.095238095238    0.000000000000       2
    0.118644067797    0.095238095238    0.000000000000       2
    0.135593220339    0.095238095238    0.000000000000       2
    0.152542372881    0.095238095238    0.000000000000       2
    0.169491525424    0.095238095238    0.000000000000       2
    0.186440677966    0.095238095238    0.000000000000       2
    0.203389830508    0.095238095238    0.000000000000       2
    0.220338983051    0.095238095238    0.000000000000       2
    0.237288135593    0.095238095238    0.000000000000       2
    0.254237288136    0.095238095238    0.000000000000       2
    0.271186440678    0.095238095238    0.000000000000       2
    0.288135593220    0.095238095238    0.000000000000       2
    0.305084745763    0.095238095238    0.000000000000       2
    0.322033898305    0.095238095238    0.000000000000       2
    0.338983050847    0.095238095238    0.000000000000       2
    0.355932203390    0.095238095238    0.000000000000       2
    0.372881355932    0.095238095238    0.000000000000       2
    0.389830508475    0.095238095238    0.000000000000       2
    0.406779661017    0.095238095238    0.000000000000       2
    0.423728813559    0.095238095238    0.000000000000       2
    0.440677966102    0.095238095238    0.000000000000       2
    0.457627118644    0.095238095238    0.000000000000       2
    0.474576271186    0.095238095238    0.000000000000       2
    0.491525423729    0.095238095238    0.000000000000       2
   -0.491525423729    0.095238095238    0.000000000000       2
   -0.474576271186    0.095238095238    0.000000000000       2
   -0.457627118644    0.095238095238    0.000000000000       2
   -0.440677966102    0.095238095238    0.000000000000       2
   -0.423728813559    0.095238095238    0.000000000000       2
   -0.406779661017    0.095238095238    0.000000000000       2
   -0.389830508475    0.095238095238    0.000000000000       2
   -0.372881355932    0.095238095238    0.000000000000       2
   -0.355932203390    0.095238095238    0.000000000000       2
   -0.338983050847    0.095238095238    0.000000000000       2
   -0.322033898305    0.095238095238    0.000000000000       2
   -0.305084745763    0.095238095238    0.000000000000       2
   -0.288135593220    0.095238095238    0.000000000000       2
   -0.271186440678    0.095238095238    0.000000000000       2
   -0.254237288136    0.095238095238    0.000000000000       2
   -0.237288135593    0.095238095238    0.000000000000       2
   -0.220338983051    0.095238095238    0.000000000000       2
   -0.203389830508    0.095238095238    0.000000000000       2
   -0.186440677966    0.095238095238    0.000000000000       2
   -0.169491525424    0.095238095238    0.000000000000       2
   -0.152542372881    0.095238095238    0.000000000000       2
   -0.135593220339    0.095238095238    0.000000000000       2
   -0.118644067797    0.095238095238    0.000000000000       2
   -0.101694915254    0.095238095238    0.000000000000       2
   -0.084745762712    0.095238095238    0.000000000000       2
   -0.067796610169    0.095238095238    0.000000000000       2
   -0.050847457627    0.095238095238    0.000000000000       2
   -0.033898305085    0.095238095238    0.000000000000       2
   -0.016949152542    0.095238095238    0.000000000000       2
    0.000000000000    0.142857142857    0.000000000000       2
    0.016949152542    0.142857142857    0.000000000000       2
    0.033898305085    0.142857142857    0.000000000000       2
    0.050847457627    0.142857142857    0.000000000000       2
    0.067796610169    0.142857142857    0.000000000000       2
    0.084745762712    0.142857142857    0.000000000000       2
    0.101694915254    0.142857142857    0.000000000000       2
    0.118644067797    0.142857142857    0.000000000000       2
    0.135593220339    0.142857142857    0.000000000000       2
    0.152542372881    0.142857142857    0.000000000000       2
    0.169491525424    0.142857142857    0.000000000000       2
    0.186440677966    0.142857142857    0.000000000000       2
    0.203389830508    0.142857142857    0.000000000000       2
    0.220338983051    0.142857142857    0.000000000000       2
    0.237288135593    0.142857142857    0.000000000000       2
    0.254237288136    0.142857142857    0.000000000000       2
    0.271186440678    0.142857142857    0.000000000000       2
    0.288135593220    0.142857142857    0.000000000000       2
    0.305084745763    0.142857142857    0.000000000000       2
    0.322033898305    0.142857142857    0.000000000000       2
    0.338983050847    0.142857142857    0.000000000000       2
    0.355932203390    0.142857142857    0.000000000000       2
    0.372881355932    0.142857142857    0.000000000000       2
    0.389830508475    0.142857142857    0.000000000000       2
    0.406779661017    0.142857142857    0.000000000000       2
    0.423728813559    0.142857142857    0.000000000000       2
    0.440677966102    0.142857142857    0.000000000000       2
    0.457627118644    0.142857142857    0.000000000000       2
    0.474576271186    0.142857142857    0.000000000000       2
    0.491525423729    0.142857142857    0.000000000000       2
   -0.491525423729    0.142857142857    0.000000000000       2
   -0.474576271186    0.142857142857    0.000000000000       2
   -0.457627118644    0.142857142857    0.000000000000       2
   -0.440677966102    0.142857142857    0.000000000000       2
   -0.423728813559    0.142857142857    0.000000000000       2
   -0.406779661017    0.142857142857    0.000000000000       2
   -0.389830508475    0.142857142857    0.000000000000       2
   -0.372881355932    0.142857142857    0.000000000000       2
   -0.355932203390    0.142857142857    0.000000000000       2
   -0.338983050847    0.142857142857    0.000000000000       2
   -0.322033898305    0.142857142857    0.000000000000       2
   -0.305084745763    0.142857142857    0.000000000000       2
   -0.288135593220    0.142857142857    0.000000000000       2
   -0.271186440678    0.142857142857    0.000000000000       2
   -0.254237288136    0.142857142857    0.000000000000       2
   -0.237288135593    0.142857142857    0.000000000000       2
   -0.220338983051    0.142857142857    0.000000000000       2
   -0.203389830508    0.142857142857    0.000000000000       2
   -0.186440677966    0.142857142857    0.000000000000       2
   -0.169491525424    0.142857142857    0.000000000000       2
   -0.152542372881    0.142857142857    0.000000000000       2
   -0.135593220339    0.142857142857    0.000000000000       2
   -0.118644067797    0.142857142857    0.000000000000       2
   -0.101694915254    0.142857142857    0.000000000000       2
   -0.084745762712    0.142857142857    0.000000000000       2
   -0.067796610169    0.142857142857    0.000000000000       2
   -0.050847457627    0.142857142857    0.000000000000       2
   -0.033898305085    0.142857142857    0.000000000000       2
   -0.016949152542    0.142857142857    0.000000000000       2
    0.000000000000    0.190476190476    0.000000000000       2
    0.016949152542    0.190476190476    0.000000000000       2
    0.033898305085    0.190476190476    0.000000000000       2
    0.050847457627    0.190476190476    0.000000000000       2
    0.067796610169    0.190476190476    0.000000000000       2
    0.084745762712    0.190476190476    0.000000000000       2
    0.101694915254    0.190476190476    0.000000000000       2
    0.118644067797    0.190476190476    0.000000000000       2
    0.135593220339    0.190476190476    0.000000000000       2
    0.152542372881    0.190476190476    0.000000000000       2
    0.169491525424    0.190476190476    0.000000000000       2
    0.186440677966    0.190476190476    0.000000000000       2
    0.203389830508    0.190476190476    0.000000000000       2
    0.220338983051    0.190476190476    0.000000000000       2
    0.237288135593    0.190476190476    0.000000000000       2
    0.254237288136    0.190476190476    0.000000000000       2
    0.271186440678    0.190476190476    0.000000000000       2
    0.288135593220    0.190476190476    0.000000000000       2
    0.305084745763    0.190476190476    0.000000000000       2
    0.322033898305    0.190476190476    0.000000000000       2
    0.338983050847    0.190476190476    0.000000000000       2
    0.355932203390    0.190476190476    0.000000000000       2
    0.372881355932    0.190476190476    0.000000000000       2
    0.389830508475    0.190476190476    0.000000000000       2
    0.406779661017    0.190476190476    0.000000000000       2
    0.423728813559    0.190476190476    0.000000000000       2
    0.440677966102    0.190476190476    0.000000000000       2
    0.457627118644    0.190476190476    0.000000000000       2
    0.474576271186    0.190476190476    0.000000000000       2
    0.491525423729    0.190476190476    0.000000000000       2
   -0.491525423729    0.190476190476    0.000000000000       2
   -0.474576271186    0.190476190476    0.000000000000       2
   -0.457627118644    0.190476190476    0.000000000000       2
   -0.440677966102    0.190476190476    0.000000000000       2
   -0.423728813559    0.190476190476    0.000000000000       2
   -0.406779661017    0.190476190476    0.000000000000       2
   -0.389830508475    0.190476190476    0.000000000000       2
   -0.372881355932    0.190476190476    0.000000000000       2
   -0.355932203390    0.190476190476    0.000000000000       2
   -0.338983050847    0.190476190476    0.000000000000       2
   -0.322033898305    0.190476190476    0.000000000000       2
   -0.305084745763    0.190476190476    0.000000000000       2
   -0.288135593220    0.190476190476    0.000000000000       2
   -0.271186440678    0.190476190476    0.000000000000       2
   -0.254237288136    0.190476190476    0.000000000000       2
   -0.237288135593    0.190476190476    0.000000000000       2
   -0.220338983051    0.190476190476    0.000000000000       2
   -0.203389830508    0.190476190476    0.000000000000       2
   -0.186440677966    0.190476190476    0.000000000000       2
   -0.169491525424    0.190476190476    0.000000000000       2
   -0.152542372881    0.190476190476    0.000000000000       2
   -0.135593220339    0.190476190476    0.000000000000       2
   -0.118644067797    0.190476190476    0.000000000000       2
   -0.101694915254    0.190476190476    0.000000000000       2
   -0.084745762712    0.190476190476    0.000000000000       2
   -0.067796610169    0.190476190476    0.000000000000       2
   -0.050847457627    0.190476190476    0.000000000000       2
   -0.033898305085    0.190476190476    0.000000000000       2
   -0.016949152542    0.190476190476    0.000000000000       2
    0.000000000000    0.238095238095    0.000000000000       2
    0.016949152542    0.238095238095    0.000000000000       2
    0.033898305085    0.238095238095    0.000000000000       2
    0.050847457627    0.238095238095    0.000000000000       2
    0.067796610169    0.238095238095    0.000000000000       2
    0.084745762712    0.238095238095    0.000000000000       2
    0.101694915254    0.238095238095    0.000000000000       2
    0.118644067797    0.238095238095    0.000000000000       2
    0.135593220339    0.238095238095    0.000000000000       2
    0.152542372881    0.238095238095    0.000000000000       2
    0.169491525424    0.238095238095    0.000000000000       2
    0.186440677966    0.238095238095    0.000000000000       2
    0.203389830508    0.238095238095    0.000000000000       2
    0.220338983051    0.238095238095    0.000000000000       2
    0.237288135593    0.238095238095    0.000000000000       2
    0.254237288136    0.238095238095    0.000000000000       2
    0.271186440678    0.238095238095    0.000000000000       2
    0.288135593220    0.238095238095    0.000000000000       2
    0.305084745763    0.238095238095    0.000000000000       2
    0.322033898305    0.238095238095    0.000000000000       2
    0.338983050847    0.238095238095    0.000000000000       2
    0.355932203390    0.238095238095    0.000000000000       2
    0.372881355932    0.238095238095    0.000000000000       2
    0.389830508475    0.238095238095    0.000000000000       2
    0.406779661017    0.238095238095    0.000000000000       2
    0.423728813559    0.238095238095    0.000000000000       2
    0.440677966102    0.238095238095    0.000000000000       2
    0.457627118644    0.238095238095    0.000000000000       2
    0.474576271186    0.238095238095    0.000000000000       2
    0.491525423729    0.238095238095    0.000000000000       2
   -0.491525423729    0.238095238095    0.000000000000       2
   -0.474576271186    0.238095238095    0.000000000000       2
   -0.457627118644    0.238095238095    0.000000000000       2
   -0.440677966102    0.238095238095    0.000000000000       2
   -0.423728813559    0.238095238095    0.000000000000       2
   -0.406779661017    0.238095238095    0.000000000000       2
   -0.389830508475    0.238095238095    0.000000000000       2
   -0.372881355932    0.238095238095    0.000000000000       2
   -0.355932203390    0.238095238095    0.000000000000       2
   -0.338983050847    0.238095238095    0.000000000000       2
   -0.322033898305    0.238095238095    0.000000000000       2
   -0.305084745763    0.238095238095    0.000000000000       2
   -0.288135593220    0.238095238095    0.000000000000       2
   -0.271186440678    0.238095238095    0.000000000000       2
   -0.254237288136    0.238095238095    0.000000000000       2
   -0.237288135593    0.238095238095    0.000000000000       2
   -0.220338983051    0.238095238095    0.000000000000       2
   -0.203389830508    0.238095238095    0.000000000000       2
   -0.186440677966    0.238095238095    0.000000000000       2
   -0.169491525424    0.238095238095    0.000000000000       2
   -0.152542372881    0.238095238095    0.000000000000       2
   -0.135593220339    0.238095238095    0.000000000000       2
   -0.118644067797    0.238095238095    0.000000000000       2
   -0.101694915254    0.238095238095    0.000000000000       2
   -0.084745762712    0.238095238095    0.000000000000       2
   -0.067796610169    0.238095238095    0.000000000000       2
   -0.050847457627    0.238095238095    0.000000000000       2
   -0.033898305085    0.238095238095    0.000000000000       2
   -0.016949152542    0.238095238095    0.000000000000       2
    0.000000000000    0.285714285714    0.000000000000       2
    0.016949152542    0.285714285714    0.000000000000       2
    0.033898305085    0.285714285714    0.000000000000       2
    0.050847457627    0.285714285714    0.000000000000       2
    0.067796610169    0.285714285714    0.000000000000       2
    0.084745762712    0.285714285714    0.000000000000       2
    0.101694915254    0.285714285714    0.000000000000       2
    0.118644067797    0.285714285714    0.000000000000       2
    0.135593220339    0.285714285714    0.000000000000       2
    0.152542372881    0.285714285714    0.000000000000       2
    0.169491525424    0.285714285714    0.000000000000       2
    0.186440677966    0.285714285714    0.000000000000       2
    0.203389830508    0.285714285714    0.000000000000       2
    0.220338983051    0.285714285714    0.000000000000       2
    0.237288135593    0.285714285714    0.000000000000       2
    0.254237288136    0.285714285714    0.000000000000       2
    0.271186440678    0.285714285714    0.000000000000       2
    0.288135593220    0.285714285714    0.000000000000       2
    0.305084745763    0.285714285714    0.000000000000       2
    0.322033898305    0.285714285714    0.000000000000       2
    0.338983050847    0.285714285714    0.000000000000       2
    0.355932203390    0.285714285714    0.000000000000       2
    0.372881355932    0.285714285714    0.000000000000       2
    0.389830508475    0.285714285714    0.000000000000       2
    0.406779661017    0.285714285714    0.000000000000       2
    0.423728813559    0.285714285714    0.000000000000       2
    0.440677966102    0.285714285714    0.000000000000       2
    0.457627118644    0.285714285714    0.000000000000       2
    0.474576271186    0.285714285714    0.000000000000       2
    0.491525423729    0.285714285714    0.000000000000       2
   -0.491525423729    0.285714285714    0.000000000000       2
   -0.474576271186    0.285714285714    0.000000000000       2
   -0.457627118644    0.285714285714    0.000000000000       2
   -0.440677966102    0.285714285714    0.000000000000       2
   -0.423728813559    0.285714285714    0.000000000000       2
   -0.406779661017    0.285714285714    0.000000000000       2
   -0.389830508475    0.285714285714    0.000000000000       2
   -0.372881355932    0.285714285714    0.000000000000       2
   -0.355932203390    0.285714285714    0.000000000000       2
   -0.338983050847    0.285714285714    0.000000000000       2
   -0.322033898305    0.285714285714    0.000000000000       2
   -0.305084745763    0.285714285714    0.000000000000       2
   -0.288135593220    0.285714285714    0.000000000000       2
   -0.271186440678    0.285714285714    0.000000000000       2
   -0.254237288136    0.285714285714    0.000000000000       2
   -0.237288135593    0.285714285714    0.000000000000       2
   -0.220338983051    0.285714285714    0.000000000000       2
   -0.203389830508    0.285714285714    0.000000000000       2
   -0.186440677966    0.285714285714    0.000000000000       2
   -0.169491525424    0.285714285714    0.000000000000       2
   -0.152542372881    0.285714285714    0.000000000000       2
   -0.135593220339    0.285714285714    0.000000000000       2
   -0.118644067797    0.285714285714    0.000000000000       2
   -0.101694915254    0.285714285714    0.000000000000       2
   -0.084745762712    0.285714285714    0.000000000000       2
   -0.067796610169    0.285714285714    0.000000000000       2
   -0.050847457627    0.285714285714    0.000000000000       2
   -0.033898305085    0.285714285714    0.000000000000       2
   -0.016949152542    0.285714285714    0.000000000000       2
    0.000000000000    0.333333333333    0.000000000000       2
    0.016949152542    0.333333333333    0.000000000000       2
    0.033898305085    0.333333333333    0.000000000000       2
    0.050847457627    0.333333333333    0.000000000000       2
    0.067796610169    0.333333333333    0.000000000000       2
    0.084745762712    0.333333333333    0.000000000000       2
    0.101694915254    0.333333333333    0.000000000000       2
    0.118644067797    0.333333333333    0.000000000000       2
    0.135593220339    0.333333333333    0.000000000000       2
    0.152542372881    0.333333333333    0.000000000000       2
    0.169491525424    0.333333333333    0.000000000000       2
    0.186440677966    0.333333333333    0.000000000000       2
    0.203389830508    0.333333333333    0.000000000000       2
    0.220338983051    0.333333333333    0.000000000000       2
    0.237288135593    0.333333333333    0.000000000000       2
    0.254237288136    0.333333333333    0.000000000000       2
    0.271186440678    0.333333333333    0.000000000000       2
    0.288135593220    0.333333333333    0.000000000000       2
    0.305084745763    0.333333333333    0.000000000000       2
    0.322033898305    0.333333333333    0.000000000000       2
    0.338983050847    0.333333333333    0.000000000000       2
    0.355932203390    0.333333333333    0.000000000000       2
    0.372881355932    0.333333333333    0.000000000000       2
    0.389830508475    0.333333333333    0.000000000000       2
    0.406779661017    0.333333333333    0.000000000000       2
    0.423728813559    0.333333333333    0.000000000000       2
    0.440677966102    0.333333333333    0.000000000000       2
    0.457627118644    0.333333333333    0.000000000000       2
    0.474576271186    0.333333333333    0.000000000000       2
    0.491525423729    0.333333333333    0.000000000000       2
   -0.491525423729    0.333333333333    0.000000000000       2
   -0.474576271186    0.333333333333    0.000000000000       2
   -0.457627118644    0.333333333333    0.000000000000       2
   -0.440677966102    0.333333333333    0.000000000000       2
   -0.423728813559    0.333333333333    0.000000000000       2
   -0.406779661017    0.333333333333    0.000000000000       2
   -0.389830508475    0.333333333333    0.000000000000       2
   -0.372881355932    0.333333333333    0.000000000000       2
   -0.355932203390    0.333333333333    0.000000000000       2
   -0.338983050847    0.333333333333    0.000000000000       2
   -0.322033898305    0.333333333333    0.000000000000       2
   -0.305084745763    0.333333333333    0.000000000000       2
   -0.288135593220    0.333333333333    0.000000000000       2
   -0.271186440678    0.333333333333    0.000000000000       2
   -0.254237288136    0.333333333333    0.000000000000       2
   -0.237288135593    0.333333333333    0.000000000000       2
   -0.220338983051    0.333333333333    0.000000000000       2
   -0.203389830508    0.333333333333    0.000000000000       2
   -0.186440677966    0.333333333333    0.000000000000       2
   -0.169491525424    0.333333333333    0.000000000000       2
   -0.152542372881    0.333333333333    0.000000000000       2
   -0.135593220339    0.333333333333    0.000000000000       2
   -0.118644067797    0.333333333333    0.000000000000       2
   -0.101694915254    0.333333333333    0.000000000000       2
   -0.084745762712    0.333333333333    0.000000000000       2
   -0.067796610169    0.333333333333    0.000000000000       2
   -0.050847457627    0.333333333333    0.000000000000       2
   -0.033898305085    0.333333333333    0.000000000000       2
   -0.016949152542    0.333333333333    0.000000000000       2
    0.000000000000    0.380952380952    0.000000000000       2
    0.016949152542    0.380952380952    0.000000000000       2
    0.033898305085    0.380952380952    0.000000000000       2
    0.050847457627    0.380952380952    0.000000000000       2
    0.067796610169    0.380952380952    0.000000000000       2
    0.084745762712    0.380952380952    0.000000000000       2
    0.101694915254    0.380952380952    0.000000000000       2
    0.118644067797    0.380952380952    0.000000000000       2
    0.135593220339    0.380952380952    0.000000000000       2
    0.152542372881    0.380952380952    0.000000000000       2
    0.169491525424    0.380952380952    0.000000000000       2
    0.186440677966    0.380952380952    0.000000000000       2
    0.203389830508    0.380952380952    0.000000000000       2
    0.220338983051    0.380952380952    0.000000000000       2
    0.237288135593    0.380952380952    0.000000000000       2
    0.254237288136    0.380952380952    0.000000000000       2
    0.271186440678    0.380952380952    0.000000000000       2
    0.288135593220    0.380952380952    0.000000000000       2
    0.305084745763    0.380952380952    0.000000000000       2
    0.322033898305    0.380952380952    0.000000000000       2
    0.338983050847    0.380952380952    0.000000000000       2
    0.355932203390    0.380952380952    0.000000000000       2
    0.372881355932    0.380952380952    0.000000000000       2
    0.389830508475    0.380952380952    0.000000000000       2
    0.406779661017    0.380952380952    0.000000000000       2
    0.423728813559    0.380952380952    0.000000000000       2
    0.440677966102    0.380952380952    0.000000000000       2
    0.457627118644    0.380952380952    0.000000000000       2
    0.474576271186    0.380952380952    0.000000000000       2
    0.491525423729    0.380952380952    0.000000000000       2
   -0.491525423729    0.380952380952    0.000000000000       2