CONTCAR\(5)                             
   1.00000000000000     
    13.1028995514000002    0.0000000000000000    0.0000000000000000
     0.0000000000000000   13.0989999771000001    0.0000000000000000
     0.0000000000000000    0.0000000000000000   24.4346008300999991
   Nd   Te
    18    54
Direct
  0.1406118289467538 -0.0000000000000000  0.5875925518786966
  0.3072718239467501  0.1666700039999967  0.4124074481213034
  0.4739418259467537 -0.0000000000000000  0.5875925518786966
  0.6406117919467542  0.1666700039999967  0.4124074481213034
  0.8072718599467530 -0.0000000000000000  0.5875925518786966
  0.9739418259467536  0.1666700039999967  0.4124074481213034
  0.1406118289467538  0.3333299960000033  0.5875925518786966
  0.3072718239467501  0.5000000000000000  0.4124074481213034
  0.4739418259467537  0.3333299960000033  0.5875925518786966
  0.6406117919467542  0.5000000000000000  0.4124074481213034
  0.8072718599467530  0.3333299960000033  0.5875925518786966
  0.9739418259467536  0.5000000000000000  0.4124074481213034
  0.1406118289467538  0.6666700399999996  0.5875925518786966
  0.3072718239467501  0.8333299960000033  0.4124074481213034
  0.4739418259467537  0.6666700399999996  0.5875925518786966
  0.6406117919467542  0.8333299960000033  0.4124074481213034
  0.8072718599467530  0.6666700399999996  0.5875925518786966
  0.9739418259467536  0.8333299960000033  0.4124074481213034
  0.1405258854094143  0.1666700039999967  0.3076559671517099
  0.3071958884094144 -0.0000000000000000  0.6923439938482904
  0.3072986462788391  0.1666700039999967  0.5477620877222469
  0.1406286432788390 -0.0000000000000000  0.4522379122777531
  0.3072036633649879  0.0000000000000000  0.3076542560690447
  0.1405336603649878  0.1666700039999967  0.6923457049309556
  0.4738558834094178  0.1666700039999967  0.3076559671517099
  0.6405258854094142 -0.0000000000000000  0.6923439938482904
  0.6406286072788431  0.1666700039999967  0.5477620877222469
  0.4739686122788397 -0.0000000000000000  0.4522379122777531
  0.6405336603649877 -0.0000000000000000  0.3076542560690447
  0.4738636583649913  0.1666700039999967  0.6923457049309556
  0.8071959244094173  0.1666700039999967  0.3076559671517099
  0.9738559194094136 -0.0000000000000000  0.6923439938482904
  0.9739686122788397  0.1666700039999967  0.5477620877222469
  0.8072986462788391 -0.0000000000000000  0.4522379122777531
  0.9738636943649871  0.0000000000000000  0.3076542560690447
  0.8072036993649908  0.1666700039999967  0.6923457049309556
  0.1405258854094143  0.5000000000000000  0.3076559671517099
  0.3071958884094144  0.3333299960000033  0.6923439938482904
  0.3072986462788391  0.5000000000000000  0.5477620877222469
  0.1406286432788390  0.3333299960000033  0.4522379122777531
  0.3072036633649879  0.3333299960000033  0.3076542560690447
  0.1405336603649878  0.5000000000000000  0.6923457049309556
  0.4738558834094178  0.5000000000000000  0.3076559671517099
  0.6405258854094142  0.3333299960000033  0.6923439938482904
  0.6406286072788431  0.5000000000000000  0.5477620877222469
  0.4739686122788397  0.3333299960000033  0.4522379122777531
  0.6405336603649877  0.3333299960000033  0.3076542560690447
  0.4738636583649913  0.5000000000000000  0.6923457049309556
  0.8071959244094173  0.5000000000000000  0.3076559671517099
  0.9738559194094136  0.3333299960000033  0.6923439938482904
  0.9739686122788397  0.5000000000000000  0.5477620877222469
  0.8072986462788391  0.3333299960000033  0.4522379122777531
  0.9738636943649871  0.3333299960000033  0.3076542560690447
  0.8072036993649908  0.5000000000000000  0.6923457049309556
  0.1405258854094143  0.8333299960000033  0.3076559671517099
  0.3071958884094144  0.6666700399999996  0.6923439938482904
  0.3072986462788391  0.8333299960000033  0.5477620877222469
  0.1406286432788390  0.6666700399999996  0.4522379122777531
  0.3072036633649879  0.6666700399999996  0.3076542560690447
  0.1405336603649878  0.8333299960000033  0.6923457049309556
  0.4738558834094178  0.8333299960000033  0.3076559671517099
  0.6405258854094142  0.6666700399999996  0.6923439938482904
  0.6406286072788431  0.8333299960000033  0.5477620877222469
  0.4739686122788397  0.6666700399999996  0.4522379122777531
  0.6405336603649877  0.6666700399999996  0.3076542560690447
  0.4738636583649913  0.8333299960000033  0.6923457049309556
  0.8071959244094173  0.8333299960000033  0.3076559671517099
  0.9738559194094136  0.6666700399999996  0.6923439938482904
  0.9739686122788397  0.8333299960000033  0.5477620877222469
  0.8072986462788391  0.6666700399999996  0.4522379122777531
  0.9738636943649871  0.6666700399999996  0.3076542560690447
  0.8072036993649908  0.8333299960000033  0.6923457049309556
 
  0.00000000E+00  0.00000000E+00  0.00000000E+00
  0.00000000E+00  0.00000000E+00  0.00000000E+00
  0.00000000E+00  0.00000000E+00  0.00000000E+00
  0.00000000E+00  0.00000000E+00  0.00000000E+00
  0.00000000E+00  0.00000000E+00  0.00000000E+00
  0.00000000E+00  0.00000000E+00  0.00000000E+00
  0.00000000E+00  0.00000000E+00  0.00000000E+00
  0.00000000E+00  0.00000000E+00  0.00000000E+00
  0.00000000E+00  0.00000000E+00  0.00000000E+00
  0.00000000E+00  0.00000000E+00  0.00000000E+00
  0.00000000E+00  0.00000000E+00  0.00000000E+00
  0.00000000E+00  0.00000000E+00  0.00000000E+00
  0.00000000E+00  0.00000000E+00  0.00000000E+00
  0.00000000E+00  0.00000000E+00  0.00000000E+00
  0.00000000E+00  0.00000000E+00  0.00000000E+00
  0.00000000E+00  0.00000000E+00  0.00000000E+00
  0.00000000E+00  0.00000000E+00  0.00000000E+00
  0.00000000E+00  0.00000000E+00  0.00000000E+00
  0.00000000E+00  0.00000000E+00  0.00000000E+00
  0.00000000E+00  0.00000000E+00  0.00000000E+00
  0.00000000E+00  0.00000000E+00  0.00000000E+00
  0.00000000E+00  0.00000000E+00  0.00000000E+00
  0.00000000E+00  0.00000000E+00  0.00000000E+00
  0.00000000E+00  0.00000000E+00  0.00000000E+00
  0.00000000E+00  0.00000000E+00  0.00000000E+00
  0.00000000E+00  0.00000000E+00  0.00000000E+00
  0.00000000E+00  0.00000000E+00  0.00000000E+00
  0.00000000E+00  0.00000000E+00  0.00000000E+00
  0.00000000E+00  0.00000000E+00  0.00000000E+00
  0.00000000E+00  0.00000000E+00  0.00000000E+00
  0.00000000E+00  0.00000000E+00  0.00000000E+00
  0.00000000E+00  0.00000000E+00  0.00000000E+00
  0.00000000E+00  0.00000000E+00  0.00000000E+00
  0.00000000E+00  0.00000000E+00  0.00000000E+00
  0.00000000E+00  0.00000000E+00  0.00000000E+00
  0.00000000E+00  0.00000000E+00  0.00000000E+00
  0.00000000E+00  0.00000000E+00  0.00000000E+00
  0.00000000E+00  0.00000000E+00  0.00000000E+00
  0.00000000E+00  0.00000000E+00  0.00000000E+00
  0.00000000E+00  0.00000000E+00  0.00000000E+00
  0.00000000E+00  0.00000000E+00  0.00000000E+00
  0.00000000E+00  0.00000000E+00  0.00000000E+00
  0.00000000E+00  0.00000000E+00  0.00000000E+00
  0.00000000E+00  0.00000000E+00  0.00000000E+00
  0.00000000E+00  0.00000000E+00  0.00000000E+00
  0.00000000E+00  0.00000000E+00  0.00000000E+00
  0.00000000E+00  0.00000000E+00  0.00000000E+00
  0.00000000E+00  0.00000000E+00  0.00000000E+00
  0.00000000E+00  0.00000000E+00  0.00000000E+00
  0.00000000E+00  0.00000000E+00  0.00000000E+00
  0.00000000E+00  0.00000000E+00  0.00000000E+00
  0.00000000E+00  0.00000000E+00  0.00000000E+00
  0.00000000E+00  0.00000000E+00  0.00000000E+00
  0.00000000E+00  0.00000000E+00  0.00000000E+00
  0.00000000E+00  0.00000000E+00  0.00000000E+00
  0.00000000E+00  0.00000000E+00  0.00000000E+00
  0.00000000E+00  0.00000000E+00  0.00000000E+00
  0.00000000E+00  0.00000000E+00  0.00000000E+00
  0.00000000E+00  0.00000000E+00  0.00000000E+00
  0.00000000E+00  0.00000000E+00  0.00000000E+00
  0.00000000E+00  0.00000000E+00  0.00000000E+00
  0.00000000E+00  0.00000000E+00  0.00000000E+00
  0.00000000E+00  0.00000000E+00  0.00000000E+00
  0.00000000E+00  0.00000000E+00  0.00000000E+00
  0.00000000E+00  0.00000000E+00  0.00000000E+00
  0.00000000E+00  0.00000000E+00  0.00000000E+00
  0.00000000E+00  0.00000000E+00  0.00000000E+00
  0.00000000E+00  0.00000000E+00  0.00000000E+00
  0.00000000E+00  0.00000000E+00  0.00000000E+00
  0.00000000E+00  0.00000000E+00  0.00000000E+00
  0.00000000E+00  0.00000000E+00  0.00000000E+00
  0.00000000E+00  0.00000000E+00  0.00000000E+00
