 Cu8 H8 C4 O20                          
   1.00000000000000     
    10.1940345950900184    0.0000000000000000    0.0000000000000000
     0.0000000000000000   11.6066220032732392    0.0000000000000000
     0.0000000000000000    0.0000000000000000   16.7477922459139990
   Cu   H    C    O 
     8     8     4    20
Direct
  0.7474461850516647  0.2823183019917792  0.4939043992837924
  0.2720169660585938  0.7826358919947722  0.5067398616544239
  0.7721036884141625  0.7176869077540076  0.5060215579861520
  0.2469783238530425  0.2171937940011546  0.4927594927319632
  0.4808977815097606  0.3809208742727535  0.5036951270198387
  0.5389762021378104  0.8809997343296558  0.4950770469217005
  0.0401424634827947  0.6182206855330605  0.4970777775208717
  0.9845873125820503  0.1186716820255427  0.5038874602100449
  0.2620816078334869  0.4074795077208080  0.4472555989122569
  0.7590528461781432  0.9088421100287860  0.5504764418623722
  0.2592046342657284  0.5928431539340835  0.5535953642442593
  0.7627152636342913  0.0911253987121015  0.4489822236978327
  0.6750867027349514  0.4699060806496149  0.5518079459833629
  0.3439789679274696  0.9693072630469715  0.4476700537453340
  0.8448477519004527  0.5284986772875655  0.4507896301325403
  0.1776516523814919  0.0333841418866783  0.5563679788072591
  0.5152622897626600  0.1237989656914493  0.4770046075316543
  0.5043566843775480  0.6239357986535694  0.5213617445310916
  0.0051790874213822  0.8765328583644347  0.5211896302386734
  0.0166466872653643  0.3751110364416732  0.4780986427553273
  0.3918946492779938  0.1085127320084283  0.4876264803436072
  0.6274951736487679  0.6086520706063894  0.5099716892261696
  0.1285441100598632  0.8924668423181004  0.5111672242651366
  0.8937822300961642  0.3901306931268493  0.4907828910738274
  0.5640867289516365  0.2278152440377994  0.4742844668401318
  0.4559081751690499  0.7280131721609919  0.5250506745795533
  0.9566018335570305  0.7724739856865170  0.5239128041069208
  0.0647031530723226  0.2713858032897463  0.4707853325830911
  0.5953143377323187  0.0383407105632259  0.4696128739810135
  0.4242364443690718  0.5385280198941587  0.5287026010545333
  0.9249856921172110  0.9620300750494337  0.5279152734169585
  0.0967701838349910  0.4608811957472412  0.4723925730343765
  0.3292926569897716  0.3461404050967687  0.4440056276089095
  0.6918632195304255  0.8474780887963718  0.5539249737347021
  0.1918332595608803  0.6540837099564172  0.5565916964723669
  0.8295639051714048  0.1528526018927039  0.4474404709050219
  0.6465226404282802  0.3890419490410935  0.5553241872915464
  0.3724869190109672  0.8883673766230586  0.4443804716293869
  0.8734264635092543  0.6093547088745908  0.4467431938727415
  0.1482871251397313  0.1140377509096453  0.5591482411386792
 
  0.00000000E+00  0.00000000E+00  0.00000000E+00
  0.00000000E+00  0.00000000E+00  0.00000000E+00
  0.00000000E+00  0.00000000E+00  0.00000000E+00
  0.00000000E+00  0.00000000E+00  0.00000000E+00
  0.00000000E+00  0.00000000E+00  0.00000000E+00
  0.00000000E+00  0.00000000E+00  0.00000000E+00
  0.00000000E+00  0.00000000E+00  0.00000000E+00
  0.00000000E+00  0.00000000E+00  0.00000000E+00
  0.00000000E+00  0.00000000E+00  0.00000000E+00
  0.00000000E+00  0.00000000E+00  0.00000000E+00
  0.00000000E+00  0.00000000E+00  0.00000000E+00
  0.00000000E+00  0.00000000E+00  0.00000000E+00
  0.00000000E+00  0.00000000E+00  0.00000000E+00
  0.00000000E+00  0.00000000E+00  0.00000000E+00
  0.00000000E+00  0.00000000E+00  0.00000000E+00
  0.00000000E+00  0.00000000E+00  0.00000000E+00
  0.00000000E+00  0.00000000E+00  0.00000000E+00
  0.00000000E+00  0.00000000E+00  0.00000000E+00
  0.00000000E+00  0.00000000E+00  0.00000000E+00
  0.00000000E+00  0.00000000E+00  0.00000000E+00
  0.00000000E+00  0.00000000E+00  0.00000000E+00
  0.00000000E+00  0.00000000E+00  0.00000000E+00
  0.00000000E+00  0.00000000E+00  0.00000000E+00
  0.00000000E+00  0.00000000E+00  0.00000000E+00
  0.00000000E+00  0.00000000E+00  0.00000000E+00
  0.00000000E+00  0.00000000E+00  0.00000000E+00
  0.00000000E+00  0.00000000E+00  0.00000000E+00
  0.00000000E+00  0.00000000E+00  0.00000000E+00
  0.00000000E+00  0.00000000E+00  0.00000000E+00
  0.00000000E+00  0.00000000E+00  0.00000000E+00
  0.00000000E+00  0.00000000E+00  0.00000000E+00
  0.00000000E+00  0.00000000E+00  0.00000000E+00
  0.00000000E+00  0.00000000E+00  0.00000000E+00
  0.00000000E+00  0.00000000E+00  0.00000000E+00
  0.00000000E+00  0.00000000E+00  0.00000000E+00
  0.00000000E+00  0.00000000E+00  0.00000000E+00
  0.00000000E+00  0.00000000E+00  0.00000000E+00
  0.00000000E+00  0.00000000E+00  0.00000000E+00
  0.00000000E+00  0.00000000E+00  0.00000000E+00
  0.00000000E+00  0.00000000E+00  0.00000000E+00
