CONTCAR\(31)                            
   1.00000000000000     
    11.7456998825000003    0.0000000000000000    0.0000000000000000
     0.0000000000000000   17.6870002747000008    0.0000000000000000
     0.0000000000000000    0.0000000000000000   19.5771007537999999
   Ti   Ge   Te
     6     6    36
Direct
  0.0862999950226598  0.4797145459257228  0.5108819001175433
  0.2525015467714680  0.9534404306296046  0.4891470976081402
  0.4196400030226602  0.4797145459257228  0.5108819001175433
  0.5858315777714708  0.9534404306296046  0.4891470976081402
  0.7529699940226596  0.4797145459257228  0.5108819001175433
  0.9191715557714687  0.9534404306296046  0.4891470976081402
  0.2523494350804712  0.8034337384808202  0.4793614221236523
  0.0856257261470154  0.6297232063793665  0.5205958107609151
  0.5856894330804707  0.8034337384808202  0.4793614221236523
  0.4189557471470172  0.6297232063793665  0.5205958107609151
  0.9190194240804701  0.8034337384808202  0.4793614221236523
  0.7522857381470168  0.6297232063793665  0.5205958107609151
  0.0859430422522941  0.9251909487682296  0.3825171174209025
  0.2534556798673088  0.2573685674048259  0.5710198989549311
  0.2527830279082693  0.0642267439949831  0.3838034370883375
  0.0856683990595393  0.8972280427047363  0.5858037343046097
  0.2529918420958716  0.5080469907339412  0.6174727707978577
  0.0868793938721704  0.3689012264570214  0.6162173957757172
  0.0861738178351945  0.1758385409859019  0.4290426748003712
  0.2523755267371032  0.7067362810540025  0.5898204378708634
  0.0857144323874565  0.7264120285278792  0.4101388904382506
  0.2531015606893561  0.3815434946756189  0.4549665885341880
  0.0858531071957894  0.0515681438892637  0.5450052470620834
  0.2525434470780356  0.5359170593880777  0.4142055983416453
  0.4192730332522935  0.9251909487682296  0.3825171174209025
  0.5867857108673044  0.2573685674048259  0.5710198989549311
  0.5861129989082745  0.0642267439949831  0.3838034370883375
  0.4190083970595387  0.8972280427047363  0.5858037343046099
  0.5863318800958673  0.5080469907339412  0.6174727707978577
  0.4202194218721725  0.3689012264570214  0.6162173957757172
  0.4195138258351877  0.1758385409859019  0.4290426748003712
  0.5857055177371026  0.7067362810540025  0.5898204378708634
  0.4190544403874570  0.7264120285278792  0.4101388904382506
  0.5864415386893610  0.3815434946756189  0.4549665885341880
  0.4191831181957834  0.0515681438892637  0.5450052470620834
  0.5858734580780367  0.5359170593880777  0.4142055983416453
  0.7526130112522914  0.9251909487682296  0.3825171174209025
  0.9201256888673094  0.2573685674048259  0.5710198989549311
  0.9194530169082686  0.0642267439949831  0.3838034370883375
  0.7523384280595417  0.8972280427047363  0.5858037343046097
  0.9196618710958667  0.5080469907339412  0.6174727707978577
  0.7535493728721758  0.3689012264570214  0.6162173957757172
  0.7528437768351910  0.1758385409859019  0.4290426748003712
  0.9190355087371019  0.7067362810540025  0.5898204378708634
  0.7523844713874598  0.7264120285278792  0.4101388904382506
  0.9197716106893564  0.3815434946756189  0.4549665885341880
  0.7525231371957881  0.0515681438892637  0.5450052470620834
  0.9192133950780348  0.5359170593880777  0.4142055983416453
 
  0.00000000E+00  0.00000000E+00  0.00000000E+00
  0.00000000E+00  0.00000000E+00  0.00000000E+00
  0.00000000E+00  0.00000000E+00  0.00000000E+00
  0.00000000E+00  0.00000000E+00  0.00000000E+00
  0.00000000E+00  0.00000000E+00  0.00000000E+00
  0.00000000E+00  0.00000000E+00  0.00000000E+00
  0.00000000E+00  0.00000000E+00  0.00000000E+00
  0.00000000E+00  0.00000000E+00  0.00000000E+00
  0.00000000E+00  0.00000000E+00  0.00000000E+00
  0.00000000E+00  0.00000000E+00  0.00000000E+00
  0.00000000E+00  0.00000000E+00  0.00000000E+00
  0.00000000E+00  0.00000000E+00  0.00000000E+00
  0.00000000E+00  0.00000000E+00  0.00000000E+00
  0.00000000E+00  0.00000000E+00  0.00000000E+00
  0.00000000E+00  0.00000000E+00  0.00000000E+00
  0.00000000E+00  0.00000000E+00  0.00000000E+00
  0.00000000E+00  0.00000000E+00  0.00000000E+00
  0.00000000E+00  0.00000000E+00  0.00000000E+00
  0.00000000E+00  0.00000000E+00  0.00000000E+00
  0.00000000E+00  0.00000000E+00  0.00000000E+00
  0.00000000E+00  0.00000000E+00  0.00000000E+00
  0.00000000E+00  0.00000000E+00  0.00000000E+00
  0.00000000E+00  0.00000000E+00  0.00000000E+00
  0.00000000E+00  0.00000000E+00  0.00000000E+00
  0.00000000E+00  0.00000000E+00  0.00000000E+00
  0.00000000E+00  0.00000000E+00  0.00000000E+00
  0.00000000E+00  0.00000000E+00  0.00000000E+00
  0.00000000E+00  0.00000000E+00  0.00000000E+00
  0.00000000E+00  0.00000000E+00  0.00000000E+00
  0.00000000E+00  0.00000000E+00  0.00000000E+00
  0.00000000E+00  0.00000000E+00  0.00000000E+00
  0.00000000E+00  0.00000000E+00  0.00000000E+00
  0.00000000E+00  0.00000000E+00  0.00000000E+00
  0.00000000E+00  0.00000000E+00  0.00000000E+00
  0.00000000E+00  0.00000000E+00  0.00000000E+00
  0.00000000E+00  0.00000000E+00  0.00000000E+00
  0.00000000E+00  0.00000000E+00  0.00000000E+00
  0.00000000E+00  0.00000000E+00  0.00000000E+00
  0.00000000E+00  0.00000000E+00  0.00000000E+00
  0.00000000E+00  0.00000000E+00  0.00000000E+00
  0.00000000E+00  0.00000000E+00  0.00000000E+00
  0.00000000E+00  0.00000000E+00  0.00000000E+00
  0.00000000E+00  0.00000000E+00  0.00000000E+00
  0.00000000E+00  0.00000000E+00  0.00000000E+00
  0.00000000E+00  0.00000000E+00  0.00000000E+00
  0.00000000E+00  0.00000000E+00  0.00000000E+00
  0.00000000E+00  0.00000000E+00  0.00000000E+00
  0.00000000E+00  0.00000000E+00  0.00000000E+00
