CONTCAR\(8)                             
   1.00000000000000     
    13.5726995467999991    0.0000000000000000    0.0000000000000000
     0.0000000000000000   13.5726995467999991    0.0000000000000000
     0.0000000000000000    0.0000000000000000   18.0848999022999983
   Pt   Pb   O 
     8    32     1
Direct
  0.0000503877171809  0.9999462208825349  0.5024240544957834
  0.2475745220617185  0.2478901245180225  0.5004402130439587
  0.4998507828829872  0.0001001727846770  0.4984607790130440
  0.7522498550278769  0.2473051645001689  0.5004570481330290
  0.9995831592246844  0.5000390224817934  0.4986663153457798
  0.2478726237933984  0.7520813235542505  0.5003548273243439
  0.5000088261681697  0.5000212999679619  0.4927245892386694
  0.7523672451184282  0.7523339267853615  0.5002745923692800
  0.3341682726092117  0.4128621850829219  0.4196869352829040
  0.0847217401443885  0.3355491606592125  0.4186700357674837
  0.0825721722303996  0.1660884424294480  0.5831593475208550
  0.4187568464284013  0.3450229883061553  0.5907309823963374
  0.1653701393781475  0.4155603023025236  0.5803464970932026
  0.3347269808199513  0.0866904722797415  0.5797743588574633
  0.1643825003089106  0.0828468705076375  0.4189362828590646
  0.4115643325363152  0.1646444861837040  0.4163365070035709
  0.8354154796007336  0.4114717439499884  0.4162740836496113
  0.5872251846397134  0.3340145590341450  0.4196570031904514
  0.5845812569340154  0.1653089834028023  0.5804730435943597
  0.9135184973044517  0.3346935379268814  0.5796683807750114
  0.6549615939614384  0.4184787865014528  0.5910494961653470
  0.8342088397711791  0.0827058291881571  0.5834128587562759
  0.6644495032977460  0.0848101878244520  0.4186336474790693
  0.9171406453326654  0.1643624134298136  0.4190635476591424
  0.3354028682688579  0.9151427239377199  0.4186148484482430
  0.0827930872623739  0.8354011300581732  0.4188878508312186
  0.0862713089755118  0.6654986575593682  0.5796525893986768
  0.4154082776257582  0.8347596940363502  0.5803797480047024
  0.1662786145472239  0.9173818759444359  0.5829198846249781
  0.3450615907911470  0.5811915368986789  0.5908255196215322
  0.1646559415410920  0.5871116597817618  0.4167053292903589
  0.4128285105550162  0.6659970517998062  0.4196377719121500
  0.8356292211808167  0.9171546626669382  0.4190923165207110
  0.5879522651667415  0.8356899230432333  0.4159451950663708
  0.5813550654561226  0.6548921872154807  0.5910574788812184
  0.9172256874975986  0.8342354905919009  0.5833263173839214
  0.6653564805565679  0.9137945274117243  0.5794129312296690
  0.8345764306104257  0.5846882577419024  0.5805099135931329
  0.6660529229039582  0.5872514977865677  0.4196514156896072
  0.9151222230997007  0.6644143380983536  0.4186423909148118
  0.5011878426689904  0.5006462929437987  0.6383730425746421
 
  0.00000000E+00  0.00000000E+00  0.00000000E+00
  0.00000000E+00  0.00000000E+00  0.00000000E+00
  0.00000000E+00  0.00000000E+00  0.00000000E+00
  0.00000000E+00  0.00000000E+00  0.00000000E+00
  0.00000000E+00  0.00000000E+00  0.00000000E+00
  0.00000000E+00  0.00000000E+00  0.00000000E+00
  0.00000000E+00  0.00000000E+00  0.00000000E+00
  0.00000000E+00  0.00000000E+00  0.00000000E+00
  0.00000000E+00  0.00000000E+00  0.00000000E+00
  0.00000000E+00  0.00000000E+00  0.00000000E+00
  0.00000000E+00  0.00000000E+00  0.00000000E+00
  0.00000000E+00  0.00000000E+00  0.00000000E+00
  0.00000000E+00  0.00000000E+00  0.00000000E+00
  0.00000000E+00  0.00000000E+00  0.00000000E+00
  0.00000000E+00  0.00000000E+00  0.00000000E+00
  0.00000000E+00  0.00000000E+00  0.00000000E+00
  0.00000000E+00  0.00000000E+00  0.00000000E+00
  0.00000000E+00  0.00000000E+00  0.00000000E+00
  0.00000000E+00  0.00000000E+00  0.00000000E+00
  0.00000000E+00  0.00000000E+00  0.00000000E+00
  0.00000000E+00  0.00000000E+00  0.00000000E+00
  0.00000000E+00  0.00000000E+00  0.00000000E+00
  0.00000000E+00  0.00000000E+00  0.00000000E+00
  0.00000000E+00  0.00000000E+00  0.00000000E+00
  0.00000000E+00  0.00000000E+00  0.00000000E+00
  0.00000000E+00  0.00000000E+00  0.00000000E+00
  0.00000000E+00  0.00000000E+00  0.00000000E+00
  0.00000000E+00  0.00000000E+00  0.00000000E+00
  0.00000000E+00  0.00000000E+00  0.00000000E+00
  0.00000000E+00  0.00000000E+00  0.00000000E+00
  0.00000000E+00  0.00000000E+00  0.00000000E+00
  0.00000000E+00  0.00000000E+00  0.00000000E+00
  0.00000000E+00  0.00000000E+00  0.00000000E+00
  0.00000000E+00  0.00000000E+00  0.00000000E+00
  0.00000000E+00  0.00000000E+00  0.00000000E+00
  0.00000000E+00  0.00000000E+00  0.00000000E+00
  0.00000000E+00  0.00000000E+00  0.00000000E+00
  0.00000000E+00  0.00000000E+00  0.00000000E+00
  0.00000000E+00  0.00000000E+00  0.00000000E+00
  0.00000000E+00  0.00000000E+00  0.00000000E+00
  0.00000000E+00  0.00000000E+00  0.00000000E+00
