CONTCAR\(5)                             
   1.00000000000000     
    11.6526002884000004    0.0000000000000000    0.0000000000000000
     0.0000000000000000   17.2355995178000008    0.0000000000000000
     0.0000000000000000    0.0000000000000000   19.4160995483000001
   Te   Pd   Pb   O 
    16    24    16     1
Direct
  0.2489176495918574  0.1449986653819074  0.6127425623387359
  0.0000254072711187  0.3948982179717361  0.3861112861221574
  0.2492663304660441  0.3561934627530648  0.6123070551754251
 -0.0000105622683220  0.1064909361753636  0.3870475079364805
  0.7510722953238689  0.1450172867327745  0.6127387830376758
  0.5000236193044342  0.3951750901373415  0.3879816955648382
  0.7507759538509018  0.3562022275808719  0.6122897504927821
  0.4999996554869360  0.1056652664228209  0.3878209209128785
  0.2345248122300454  0.6429825000231058  0.6092693424253143
  0.0000108598769479  0.8945418856115408  0.3860410147620898
  0.2542074328816392  0.8567268229365066  0.6100475427710349
  0.0000500223106016  0.6079719041423558  0.3795399941927298
  0.7655402224859928  0.6429403428735020  0.6093418102073526
  0.5000047028112746  0.8915394603201411  0.3839653723003978
  0.7457604075390626  0.8567705058465250  0.6100481486685778
  0.5002264286862550  0.6070453027213039  0.3906774117669062
  0.1249515219428129  0.1263170552501172  0.4995399060356645
 -0.0000230345736553  0.2509338462989337  0.4327040757618791
  0.1247427557887893  0.3756914403780345  0.4989768931028183
  0.3750445460614749  0.1258663448209366  0.5003997404856467
  0.3746806859879237  0.3728774750323766  0.5004153019345778
  0.2488318092928118  0.0013313737354354  0.5664944307889350
  0.6249354039990942  0.1258745430684324  0.5004197001866924
  0.4999922855267340  0.2502573099219293  0.4325300490199516
  0.6253408718600966  0.3728867596379571  0.5004052342224519
  0.8750373743185075  0.1263179474802078  0.4995355240170821
  0.8752649777847934  0.3756900141194275  0.4989743874364262
  0.7511442752041234  0.0013362208989092  0.5664994398898423
  0.1238180599847406  0.6224751751249115  0.4928676918426361
  0.0000219080523402  0.7503784768135597  0.4316148027976546
  0.1243492223555536  0.8759505170919538  0.4993479592538568
  0.3745566687149474  0.6255984474103555  0.5026587434677549
  0.3751110349948621  0.8793745733414352  0.4967704864998471
  0.2507161330502763  0.4991514519697490  0.5646553771449796
  0.6255088848693270  0.6257155893446615  0.5027674833746409
  0.4999535192152658  0.7505789463737205  0.4378329511824048
  0.6248236630488845  0.8793763520524004  0.4967859306867752
  0.8762671473483937  0.6224966647450660  0.4928901689777025
  0.8755064155720760  0.8759416387393331  0.4993087330811210
  0.7493212897236119  0.4991723460303917  0.5646252052254662
  0.2502540984748926  0.0002976437574033  0.4156201042396129
  0.0000036684555132  0.2513840996226060  0.5839705023591076
  0.2508785345830462  0.2510948786566045  0.4283999324389177
 -0.0000480876043671  0.0008958291011447  0.5712532198657462
  0.7497272086805148  0.0002999307670085  0.4156116099819013
  0.4999936888916944  0.2501892767882790  0.5841338376139923
  0.7491247767681521  0.2510925075083704  0.4283956894573364
  0.4999355395047116  0.9998563085578548  0.5718440732247454
  0.2522493923291745  0.4987201454369972  0.4150355247147155
 -0.0001303835112162  0.7519729614407693  0.5833659002099673
  0.2517655509405206  0.7506994353715103  0.4323486054482627
 -0.0000065073216420  0.5008180383760711  0.5709627354181324
  0.7478456127296965  0.4987498619769950  0.4150086825017715
  0.4999578612815662  0.7193200360827785  0.6134660742846023
  0.7482462078740152  0.7507423471714654  0.4323421497519220
  0.5000084490652232  0.5156952471011571  0.5959064424423445
  0.5000318128860720  0.6094910789718864  0.6693847269547303
 
  0.00000000E+00  0.00000000E+00  0.00000000E+00
  0.00000000E+00  0.00000000E+00  0.00000000E+00
  0.00000000E+00  0.00000000E+00  0.00000000E+00
  0.00000000E+00  0.00000000E+00  0.00000000E+00
  0.00000000E+00  0.00000000E+00  0.00000000E+00
  0.00000000E+00  0.00000000E+00  0.00000000E+00
  0.00000000E+00  0.00000000E+00  0.00000000E+00
  0.00000000E+00  0.00000000E+00  0.00000000E+00
  0.00000000E+00  0.00000000E+00  0.00000000E+00
  0.00000000E+00  0.00000000E+00  0.00000000E+00
  0.00000000E+00  0.00000000E+00  0.00000000E+00
  0.00000000E+00  0.00000000E+00  0.00000000E+00
  0.00000000E+00  0.00000000E+00  0.00000000E+00
  0.00000000E+00  0.00000000E+00  0.00000000E+00
  0.00000000E+00  0.00000000E+00  0.00000000E+00
  0.00000000E+00  0.00000000E+00  0.00000000E+00
  0.00000000E+00  0.00000000E+00  0.00000000E+00
  0.00000000E+00  0.00000000E+00  0.00000000E+00
  0.00000000E+00  0.00000000E+00  0.00000000E+00
  0.00000000E+00  0.00000000E+00  0.00000000E+00
  0.00000000E+00  0.00000000E+00  0.00000000E+00
  0.00000000E+00  0.00000000E+00  0.00000000E+00
  0.00000000E+00  0.00000000E+00  0.00000000E+00
  0.00000000E+00  0.00000000E+00  0.00000000E+00
  0.00000000E+00  0.00000000E+00  0.00000000E+00
  0.00000000E+00  0.00000000E+00  0.00000000E+00
  0.00000000E+00  0.00000000E+00  0.00000000E+00
  0.00000000E+00  0.00000000E+00  0.00000000E+00
  0.00000000E+00  0.00000000E+00  0.00000000E+00
  0.00000000E+00  0.00000000E+00  0.00000000E+00
  0.00000000E+00  0.00000000E+00  0.00000000E+00
  0.00000000E+00  0.00000000E+00  0.00000000E+00
  0.00000000E+00  0.00000000E+00  0.00000000E+00
  0.00000000E+00  0.00000000E+00  0.00000000E+00
  0.00000000E+00  0.00000000E+00  0.00000000E+00
  0.00000000E+00  0.00000000E+00  0.00000000E+00
  0.00000000E+00  0.00000000E+00  0.00000000E+00
  0.00000000E+00  0.00000000E+00  0.00000000E+00
  0.00000000E+00  0.00000000E+00  0.00000000E+00
  0.00000000E+00  0.00000000E+00  0.00000000E+00
  0.00000000E+00  0.00000000E+00  0.00000000E+00
  0.00000000E+00  0.00000000E+00  0.00000000E+00
  0.00000000E+00  0.00000000E+00  0.00000000E+00
  0.00000000E+00  0.00000000E+00  0.00000000E+00
  0.00000000E+00  0.00000000E+00  0.00000000E+00
  0.00000000E+00  0.00000000E+00  0.00000000E+00
  0.00000000E+00  0.00000000E+00  0.00000000E+00
  0.00000000E+00  0.00000000E+00  0.00000000E+00
  0.00000000E+00  0.00000000E+00  0.00000000E+00
  0.00000000E+00  0.00000000E+00  0.00000000E+00
  0.00000000E+00  0.00000000E+00  0.00000000E+00
  0.00000000E+00  0.00000000E+00  0.00000000E+00
  0.00000000E+00  0.00000000E+00  0.00000000E+00
  0.00000000E+00  0.00000000E+00  0.00000000E+00
  0.00000000E+00  0.00000000E+00  0.00000000E+00
  0.00000000E+00  0.00000000E+00  0.00000000E+00
  0.00000000E+00  0.00000000E+00  0.00000000E+00
