CONTCAR                                 
   1.00000000000000     
    11.4835996627999997    0.0000000000000000    0.0000000000000000
    -5.7417826159000001    9.9450989742000004    0.0000000000000000
     0.0000000000000000    0.0000000000000000   19.4676990508999985
   V    C    O    H 
    32    16    32     1
Direct
  0.1675054760955277  0.0825745427303701  0.5611717231699629
  0.0824784155193043  0.1674930491850972  0.4385583358880254
  0.4150657452045650  0.0826004631053081  0.5611772853264370
  0.3332578630893650  0.1665286283953407  0.4383892341947231
  0.6655722278874521  0.0837409724787719  0.5612196383907175
  0.5850015068228558  0.1674803836969758  0.4385594340021299
  0.9181663429844704  0.0837562900142714  0.5612166017265068
  0.8322998975276121  0.1646308090703030  0.4383358006417097
  0.1661067137262009  0.3316631574833409  0.5612501981616518
  0.0860319757697781  0.4180768043567724  0.4384114114698860
  0.4171688608107971  0.3344098634469432  0.5599783331222170
  0.3345353216288416  0.4168019026466752  0.4389115245443591
  0.6655130594912535  0.3316480779527993  0.5612591135076883
  0.5822120949349667  0.4167763185462618  0.4389228698286232
  0.9167077378671777  0.3334599812240526  0.5617057592590271
  0.8319763339120030  0.4180794724827805  0.4384314388542592
  0.1662825493224176  0.5845606156058736  0.5612430300951488
  0.0824572728437403  0.6649429970889642  0.4385895073533206
  0.4041126154245731  0.5771142467374375  0.5603333967367732
  0.3346066793000020  0.6679289943864859  0.4388604340105502
  0.6729731087203632  0.5770948236790687  0.5603740367875787
  0.5833254671224211  0.6666328815308020  0.4405901563274313
  0.9183004115438820  0.5845693913632672  0.5612468726388684
  0.8333079860670836  0.6679242756177644  0.4388803807252799
  0.1674372591456716  0.8349078139304638  0.5611799122592060
  0.0835935264376886  0.9167997780334716  0.4383778677078141
  0.4172870052853526  0.8330756183925203  0.5599185362323738
  0.3331566231756966  0.9168141357092026  0.4383847324852965
  0.6728778863612419  0.8457907425915678  0.5601342303470176
  0.5822855337057931  0.9155307608839678  0.4388189041807351
  0.9157226898166329  0.8330641228479294  0.5599327409817647
  0.8332221024224040  0.9155620739013344  0.4388342588579732
  0.0002422285739101  0.0002158799153520  0.4997877087181593
  0.2500151765024796  0.0000643696653526  0.4997201852648914
  0.4999427602149638  0.0002130802339195  0.4997888770094008
  0.7508328253298870  0.0016902185000518  0.4994319140982952
  0.0000342834676914  0.2500820520555962  0.4998820829608022
  0.2498554490637446  0.2498185213078870  0.4998244262636646
  0.4999308793622603  0.2498146082809001  0.4998333203583201
  0.7500167005400940  0.2500795284947088  0.4998870137597251
  0.0000034537106828  0.5000383397758554  0.4998965177324237
  0.2485040474771125  0.4993105988962725  0.4995317884232122
  0.5003772975170691  0.5007761678678335  0.5012794893458690
  0.7507674296278068  0.4993264965669155  0.4995538935693560
  0.0002476126752455  0.7501310808421664  0.4998219072174948
  0.2498500991278689  0.7501216946870670  0.4998141297555208
  0.5003308785263769  0.7497256516860205  0.5011851567397230
  0.7493569646501541  0.7497246326161076  0.5012041059492276
  0.0831603024054957  0.1668409914774216  0.6142866950306072
  0.1667428682955006  0.0833571603080117  0.3858258576985705
  0.3333701905464039  0.1667646002392758  0.6139785577730876
  0.4165789785366769  0.0833630359345463  0.3858285336831742
  0.5836677690143901  0.1668497238355755  0.6142979380416307
  0.6662671774331912  0.0835093786101098  0.3855117701211768
  0.8334234708518480  0.1668688446313880  0.6138316804207022
  0.9172158616402797  0.0835347753765419  0.3855072805863600
  0.0831934945032700  0.4166393880862813  0.6138591780523512
  0.1666030665141207  0.3328931888178417  0.3855393721119427
  0.3330704854402811  0.4166987279966108  0.6149300910548732
  0.4171315575933789  0.3342745947702355  0.3856202545120198
  0.5835808823844104  0.4167070852955845  0.6149431374608341
  0.6662199858284694  0.3328848643990980  0.3855527210215897
  0.8334155885717394  0.4166472220315711  0.6138650834568935
  0.9166996200043727  0.3334649498629361  0.3869000335174988
  0.0831813579781624  0.6663868012082048  0.6143210845296565
  0.1666215510659796  0.5838301935213437  0.3855196496311706
  0.3331154462669517  0.6665367132847351  0.6149274957124433
  0.4173881364903167  0.5837326274428989  0.3864414515904144
  0.5834188027028659  0.6669875686118516  0.6185734685365887
  0.6663245911005902  0.5837020207741688  0.3864445767684614
  0.8333866061935709  0.6665502122718436  0.6149352907078907
  0.9171847726339166  0.5838412781440283  0.3855350400989295
  0.0832502563297481  0.9166625487634477  0.6139555491154383
  0.1667136358088044  0.8334622088392720  0.3858202207142511
  0.3333973206119580  0.9166613377586046  0.6139557001858122
  0.4170676819091881  0.8329748256040546  0.3855912396245174
  0.5836316589770973  0.9170166962199602  0.6149033568004683
  0.6662790828033067  0.8326149496560120  0.3863972487251957
  0.8333613510746503  0.9170158999538174  0.6148965208943054
  0.9158346837402433  0.8329468798487838  0.3855938022311136
  0.5837247904143794  0.6681411579156986  0.6686887656088132
 
  0.00000000E+00  0.00000000E+00  0.00000000E+00
  0.00000000E+00  0.00000000E+00  0.00000000E+00
  0.00000000E+00  0.00000000E+00  0.00000000E+00
  0.00000000E+00  0.00000000E+00  0.00000000E+00
  0.00000000E+00  0.00000000E+00  0.00000000E+00
  0.00000000E+00  0.00000000E+00  0.00000000E+00
  0.00000000E+00  0.00000000E+00  0.00000000E+00
  0.00000000E+00  0.00000000E+00  0.00000000E+00
  0.00000000E+00  0.00000000E+00  0.00000000E+00
  0.00000000E+00  0.00000000E+00  0.00000000E+00
  0.00000000E+00  0.00000000E+00  0.00000000E+00
  0.00000000E+00  0.00000000E+00  0.00000000E+00
  0.00000000E+00  0.00000000E+00  0.00000000E+00
  0.00000000E+00  0.00000000E+00  0.00000000E+00
  0.00000000E+00  0.00000000E+00  0.00000000E+00
  0.00000000E+00  0.00000000E+00  0.00000000E+00
  0.00000000E+00  0.00000000E+00  0.00000000E+00
  0.00000000E+00  0.00000000E+00  0.00000000E+00
  0.00000000E+00  0.00000000E+00  0.00000000E+00
  0.00000000E+00  0.00000000E+00  0.00000000E+00
  0.00000000E+00  0.00000000E+00  0.00000000E+00
  0.00000000E+00  0.00000000E+00  0.00000000E+00
  0.00000000E+00  0.00000000E+00  0.00000000E+00
  0.00000000E+00  0.00000000E+00  0.00000000E+00
  0.00000000E+00  0.00000000E+00  0.00000000E+00
  0.00000000E+00  0.00000000E+00  0.00000000E+00
  0.00000000E+00  0.00000000E+00  0.00000000E+00
  0.00000000E+00  0.00000000E+00  0.00000000E+00
  0.00000000E+00  0.00000000E+00  0.00000000E+00
  0.00000000E+00  0.00000000E+00  0.00000000E+00
  0.00000000E+00  0.00000000E+00  0.00000000E+00
  0.00000000E+00  0.00000000E+00  0.00000000E+00
  0.00000000E+00  0.00000000E+00  0.00000000E+00
  0.00000000E+00  0.00000000E+00  0.00000000E+00
  0.00000000E+00  0.00000000E+00  0.00000000E+00
  0.00000000E+00  0.00000000E+00  0.00000000E+00
  0.00000000E+00  0.00000000E+00  0.00000000E+00
  0.00000000E+00  0.00000000E+00  0.00000000E+00
  0.00000000E+00  0.00000000E+00  0.00000000E+00
  0.00000000E+00  0.00000000E+00  0.00000000E+00
  0.00000000E+00  0.00000000E+00  0.00000000E+00
  0.00000000E+00  0.00000000E+00  0.00000000E+00
  0.00000000E+00  0.00000000E+00  0.00000000E+00
  0.00000000E+00  0.00000000E+00  0.00000000E+00
  0.00000000E+00  0.00000000E+00  0.00000000E+00
  0.00000000E+00  0.00000000E+00  0.00000000E+00
  0.00000000E+00  0.00000000E+00  0.00000000E+00
  0.00000000E+00  0.00000000E+00  0.00000000E+00
  0.00000000E+00  0.00000000E+00  0.00000000E+00
  0.00000000E+00  0.00000000E+00  0.00000000E+00
  0.00000000E+00  0.00000000E+00  0.00000000E+00
  0.00000000E+00  0.00000000E+00  0.00000000E+00
  0.00000000E+00  0.00000000E+00  0.00000000E+00
  0.00000000E+00  0.00000000E+00  0.00000000E+00
  0.00000000E+00  0.00000000E+00  0.00000000E+00
  0.00000000E+00  0.00000000E+00  0.00000000E+00
  0.00000000E+00  0.00000000E+00  0.00000000E+00
  0.00000000E+00  0.00000000E+00  0.00000000E+00
  0.00000000E+00  0.00000000E+00  0.00000000E+00
  0.00000000E+00  0.00000000E+00  0.00000000E+00
  0.00000000E+00  0.00000000E+00  0.00000000E+00
  0.00000000E+00  0.00000000E+00  0.00000000E+00
  0.00000000E+00  0.00000000E+00  0.00000000E+00
  0.00000000E+00  0.00000000E+00  0.00000000E+00
  0.00000000E+00  0.00000000E+00  0.00000000E+00
  0.00000000E+00  0.00000000E+00  0.00000000E+00
  0.00000000E+00  0.00000000E+00  0.00000000E+00
  0.00000000E+00  0.00000000E+00  0.00000000E+00
  0.00000000E+00  0.00000000E+00  0.00000000E+00
  0.00000000E+00  0.00000000E+00  0.00000000E+00
  0.00000000E+00  0.00000000E+00  0.00000000E+00
  0.00000000E+00  0.00000000E+00  0.00000000E+00
  0.00000000E+00  0.00000000E+00  0.00000000E+00
  0.00000000E+00  0.00000000E+00  0.00000000E+00
  0.00000000E+00  0.00000000E+00  0.00000000E+00
  0.00000000E+00  0.00000000E+00  0.00000000E+00
  0.00000000E+00  0.00000000E+00  0.00000000E+00
  0.00000000E+00  0.00000000E+00  0.00000000E+00
  0.00000000E+00  0.00000000E+00  0.00000000E+00
  0.00000000E+00  0.00000000E+00  0.00000000E+00
  0.00000000E+00  0.00000000E+00  0.00000000E+00
