 La4 Br10                               
   1.00000000000000     
     4.1806906693020407    0.0000000000000000    0.0000000000000000
     0.0000000000000000   15.8684293937515868    0.0000000000000000
     0.0000000000000000    0.0000000000000000   20.3181618855599950
   La   Br
     4    10
Direct
  0.7500015227893277  0.8430212371848826  0.4781370887148110
  0.2499995529291090  0.1189780765570387  0.5218235504603039
  0.7499997343962759  0.3455989731468642  0.4714910006633746
  0.2499990244427255  0.6163890480383624  0.5285432645615633
  0.7499999765898154  0.6061514788390300  0.6305806583999702
  0.2499997618401430  0.3560352880454673  0.3694452876743505
  0.7500000065062076  0.9967309014000916  0.5778435315170305
  0.2500001149178150  0.9652402546832382  0.4220677717035121
  0.2499999653185869  0.4221330337438127  0.5628988839379009
  0.7500000833060076  0.5398200304931833  0.4372091268244733
  0.2500000533402111  0.7364220662088127  0.4065407662295917
  0.7500002594799728  0.2255776484746278  0.5934632953325740
  0.2500002091941856  0.7994062809311736  0.5799637428429003
  0.7499997349496199  0.1626956822534160  0.4199920311376439
 
  0.00000000E+00  0.00000000E+00  0.00000000E+00
  0.00000000E+00  0.00000000E+00  0.00000000E+00
  0.00000000E+00  0.00000000E+00  0.00000000E+00
  0.00000000E+00  0.00000000E+00  0.00000000E+00
  0.00000000E+00  0.00000000E+00  0.00000000E+00
  0.00000000E+00  0.00000000E+00  0.00000000E+00
  0.00000000E+00  0.00000000E+00  0.00000000E+00
  0.00000000E+00  0.00000000E+00  0.00000000E+00
  0.00000000E+00  0.00000000E+00  0.00000000E+00
  0.00000000E+00  0.00000000E+00  0.00000000E+00
  0.00000000E+00  0.00000000E+00  0.00000000E+00
  0.00000000E+00  0.00000000E+00  0.00000000E+00
  0.00000000E+00  0.00000000E+00  0.00000000E+00
  0.00000000E+00  0.00000000E+00  0.00000000E+00
