CONTCAR\(5)                             
   1.00000000000000     
    14.7170000075999994    0.0000000000000000    0.0000000000000000
    -7.3585000037999997   12.7452958741000000    0.0000000000000000
     0.0000000000000000    0.0000000000000000   17.8581008911000012
   Co   Br   O    H 
    16    32     1     1
Direct
 -0.0081327835358439 -0.0052550625936579  0.4985274120045722
  0.2447442637239608 -0.0051536532632158  0.5002457274388279
  0.4927235585526433 -0.0048112534306190  0.5006194903421362
  0.7449090044467517 -0.0053185819656143  0.4992146590869481
 -0.0061026519376674  0.2464522929335084  0.4975517392724582
  0.2474453874108755  0.2495375609229967  0.4985492074287207
  0.4941481715846429  0.2451064377934685  0.5008027013823543
  0.7462945929973751  0.2477438288980964  0.4994223316724361
 -0.0078096623200767  0.4941436397327220  0.4986313577891399
  0.2474296283604326  0.4966198474671156  0.4979911618616914
  0.4809331124804616  0.4903626354469473  0.4945573833012643
  0.7457116406149427  0.4911226459068533  0.5021604927119770
 -0.0030404942331609  0.7475067417825915  0.5015963118021372
  0.2445180983383140  0.7493232227859098  0.5000439024742001
  0.4937342375446440  0.7472993305770924  0.4990742313338755
  0.7460047439961637  0.7548761015549206  0.4980141488551660
  0.0775276948549772  0.1623277977628819  0.4178332340233890
  0.1608915136907154  0.0802096873907189  0.5788319065452182
  0.3282848480623962  0.1627626749651787  0.4186838229190230
  0.4103200933690151  0.0791953754720402  0.5823716192034196
  0.5776588240185084  0.1630979704461573  0.4194550246820052
  0.6615846376248125  0.0791027322896992  0.5798267226404237
  0.8270197452123764  0.1625699952118944  0.4174726191419250
  0.9109600006770171  0.0794114370152298  0.5800378960491829
  0.0771024564136740  0.4133048363966438  0.4172601032913055
  0.1620280243939367  0.3302713639953432  0.5789070019319279
  0.3239713126406925  0.4113047702740132  0.4114853197972601
  0.4107056273446998  0.3306292846667490  0.5812666816977893
  0.5772287721269092  0.4132773521087816  0.4209926191679796
  0.6611111190834810  0.3274359075802616  0.5835377611497240
  0.8264250363748002  0.4127848323477492  0.4164421544035775
  0.9116206143457967  0.3291319056761012  0.5810134673363370
  0.0763954758925224  0.6631124603814710  0.4189297081962587
  0.1612873183997532  0.5792134701534888  0.5784641732234248
  0.3273841713520939  0.6643034328427597  0.4179775630314773
  0.4107436430296104  0.5791265819497801  0.5803127991651855
  0.5763807383625770  0.6624388521161706  0.4186317780068595
  0.6622362568344866  0.5784486115155254  0.5733078342402861
  0.8255992288608122  0.6616023693986987  0.4239326518260159
  0.9118473883140202  0.5785728705764914  0.5831833525375103
  0.0767326889626606  0.9117055434331821  0.4187899933203643
  0.1608758645391406  0.8299040170831787  0.5836479313815676
  0.3271982495408650  0.9133549614856507  0.4175852856080584
  0.4103612365516380  0.8293873622877125  0.5819372284655229
  0.5771327931985926  0.9129799754998434  0.4182148007008697
  0.6603498395032542  0.8296615823086130  0.5820683953629697
  0.8274100954232151  0.9135226012657270  0.4144751662063458
  0.9101783910131458  0.8301173458974208  0.5823012591862270
  0.6137999743711157  0.5773363803568177  0.6785672356410440
  0.6812350415922095  0.6152869592989298  0.7049821611616404
 
  0.00000000E+00  0.00000000E+00  0.00000000E+00
  0.00000000E+00  0.00000000E+00  0.00000000E+00
  0.00000000E+00  0.00000000E+00  0.00000000E+00
  0.00000000E+00  0.00000000E+00  0.00000000E+00
  0.00000000E+00  0.00000000E+00  0.00000000E+00
  0.00000000E+00  0.00000000E+00  0.00000000E+00
  0.00000000E+00  0.00000000E+00  0.00000000E+00
  0.00000000E+00  0.00000000E+00  0.00000000E+00
  0.00000000E+00  0.00000000E+00  0.00000000E+00
  0.00000000E+00  0.00000000E+00  0.00000000E+00
  0.00000000E+00  0.00000000E+00  0.00000000E+00
  0.00000000E+00  0.00000000E+00  0.00000000E+00
  0.00000000E+00  0.00000000E+00  0.00000000E+00
  0.00000000E+00  0.00000000E+00  0.00000000E+00
  0.00000000E+00  0.00000000E+00  0.00000000E+00
  0.00000000E+00  0.00000000E+00  0.00000000E+00
  0.00000000E+00  0.00000000E+00  0.00000000E+00
  0.00000000E+00  0.00000000E+00  0.00000000E+00
  0.00000000E+00  0.00000000E+00  0.00000000E+00
  0.00000000E+00  0.00000000E+00  0.00000000E+00
  0.00000000E+00  0.00000000E+00  0.00000000E+00
  0.00000000E+00  0.00000000E+00  0.00000000E+00
  0.00000000E+00  0.00000000E+00  0.00000000E+00
  0.00000000E+00  0.00000000E+00  0.00000000E+00
  0.00000000E+00  0.00000000E+00  0.00000000E+00
  0.00000000E+00  0.00000000E+00  0.00000000E+00
  0.00000000E+00  0.00000000E+00  0.00000000E+00
  0.00000000E+00  0.00000000E+00  0.00000000E+00
  0.00000000E+00  0.00000000E+00  0.00000000E+00
  0.00000000E+00  0.00000000E+00  0.00000000E+00
  0.00000000E+00  0.00000000E+00  0.00000000E+00
  0.00000000E+00  0.00000000E+00  0.00000000E+00
  0.00000000E+00  0.00000000E+00  0.00000000E+00
  0.00000000E+00  0.00000000E+00  0.00000000E+00
  0.00000000E+00  0.00000000E+00  0.00000000E+00
  0.00000000E+00  0.00000000E+00  0.00000000E+00
  0.00000000E+00  0.00000000E+00  0.00000000E+00
  0.00000000E+00  0.00000000E+00  0.00000000E+00
  0.00000000E+00  0.00000000E+00  0.00000000E+00
  0.00000000E+00  0.00000000E+00  0.00000000E+00
  0.00000000E+00  0.00000000E+00  0.00000000E+00
  0.00000000E+00  0.00000000E+00  0.00000000E+00
  0.00000000E+00  0.00000000E+00  0.00000000E+00
  0.00000000E+00  0.00000000E+00  0.00000000E+00
  0.00000000E+00  0.00000000E+00  0.00000000E+00
  0.00000000E+00  0.00000000E+00  0.00000000E+00
  0.00000000E+00  0.00000000E+00  0.00000000E+00
  0.00000000E+00  0.00000000E+00  0.00000000E+00
  0.00000000E+00  0.00000000E+00  0.00000000E+00
  0.00000000E+00  0.00000000E+00  0.00000000E+00
