CONTCAR                                 
   1.00000000000000     
    12.0352001190000006    0.0000000000000000    0.0000000000000000
     0.0000000000000000   12.2138004302999992    0.0000000000000000
     0.0000000000000000    0.0000000000000000   16.9626007080000001
   Cu   Se   O 
     8     8    25
Direct
  0.0858091778390454  0.9074398836661661  0.4939863170483050
  0.3368039625466204  0.5794625041509903  0.5414157411819330
  0.4134500430089361  0.1028819168062474  0.5205444415693338
  0.1620382935161283  0.4229693546224990  0.4381134005098916
  0.5819517844709560  0.9129058330300363  0.5196476894511686
  0.8391131522027565  0.5904102938335219  0.5351348639022909
  0.9177846004480528  0.0986461421724355  0.5008859624410524
  0.6601747977688370  0.4155452188335428  0.5105758055205963
  0.1936997052791975  0.1420254967870344  0.4522602115469309
  0.4037642666735489  0.3722646326914257  0.4593597604093042
  0.3069934947642862  0.8520148270484263  0.5458444027096931
  0.0657235556707458  0.6485570011840152  0.4969482450996401
  0.6826729377782421  0.1625964658125507  0.4908732781121298
  0.9484369654945074  0.3543932164756862  0.5142959325706148
  0.8149720112533544  0.8539975521469847  0.5392882872919058
  0.5617632838098626  0.6589880255725459  0.5106065168543147
  0.4871395434418105  0.5862780163337397  0.5793938076784511
  0.2388408195424421  0.9051949869060852  0.4642166960655884
  0.0012309013294780  0.4356106445793732  0.4393308301084971
  0.2587279259113291  0.1172621193620872  0.5414130565389196
  0.1866892974970054  0.5636609867214071  0.4998033518489812
  0.4265930700690393  0.9398875177814785  0.5413881698208495
  0.3113067236580441  0.4169806203128104  0.3911885739723184
  0.0686796676305562  0.0631188247860490  0.4666088634501048
  0.1368592775142522  0.2682495622420610  0.4673850410430587
  0.4133432700939843  0.2350534734596686  0.4512354378268789
  0.3607264609181993  0.7333585289344653  0.5067235473598554
  0.1079496799623902  0.7661235633518602  0.5458056805765525
  0.9896882826818556  0.5871172070116154  0.5713770634705670
  0.7243370375279512  0.9060850979986034  0.4700083206757787
  0.5279667221003636  0.4303608947168392  0.4391297307497798
  0.7771638554832140  0.1038801252660150  0.5548101262976605
  0.6832848113621820  0.5729967336460754  0.5147722821055479
  0.9318088496302646  0.9386441885472350  0.5148187042577088
  0.8231037394041333  0.4313695572141242  0.5345725805620388
  0.5686790824441812  0.0708709376370714  0.5097022530284220
  0.6323469326747478  0.2705449280721494  0.5445287364985004
  0.8904786986871575  0.2463694286887928  0.4629306242204616
  0.8592157569930073  0.7359698309996675  0.4934327083006667
  0.6076637794989782  0.7700432900629265  0.5650936808867402
  0.3532439454183477  0.4126204855336582  0.5476694944369512
 
  0.00000000E+00  0.00000000E+00  0.00000000E+00
  0.00000000E+00  0.00000000E+00  0.00000000E+00
  0.00000000E+00  0.00000000E+00  0.00000000E+00
  0.00000000E+00  0.00000000E+00  0.00000000E+00
  0.00000000E+00  0.00000000E+00  0.00000000E+00
  0.00000000E+00  0.00000000E+00  0.00000000E+00
  0.00000000E+00  0.00000000E+00  0.00000000E+00
  0.00000000E+00  0.00000000E+00  0.00000000E+00
  0.00000000E+00  0.00000000E+00  0.00000000E+00
  0.00000000E+00  0.00000000E+00  0.00000000E+00
  0.00000000E+00  0.00000000E+00  0.00000000E+00
  0.00000000E+00  0.00000000E+00  0.00000000E+00
  0.00000000E+00  0.00000000E+00  0.00000000E+00
  0.00000000E+00  0.00000000E+00  0.00000000E+00
  0.00000000E+00  0.00000000E+00  0.00000000E+00
  0.00000000E+00  0.00000000E+00  0.00000000E+00
  0.00000000E+00  0.00000000E+00  0.00000000E+00
  0.00000000E+00  0.00000000E+00  0.00000000E+00
  0.00000000E+00  0.00000000E+00  0.00000000E+00
  0.00000000E+00  0.00000000E+00  0.00000000E+00
  0.00000000E+00  0.00000000E+00  0.00000000E+00
  0.00000000E+00  0.00000000E+00  0.00000000E+00
  0.00000000E+00  0.00000000E+00  0.00000000E+00
  0.00000000E+00  0.00000000E+00  0.00000000E+00
  0.00000000E+00  0.00000000E+00  0.00000000E+00
  0.00000000E+00  0.00000000E+00  0.00000000E+00
  0.00000000E+00  0.00000000E+00  0.00000000E+00
  0.00000000E+00  0.00000000E+00  0.00000000E+00
  0.00000000E+00  0.00000000E+00  0.00000000E+00
  0.00000000E+00  0.00000000E+00  0.00000000E+00
  0.00000000E+00  0.00000000E+00  0.00000000E+00
  0.00000000E+00  0.00000000E+00  0.00000000E+00
  0.00000000E+00  0.00000000E+00  0.00000000E+00
  0.00000000E+00  0.00000000E+00  0.00000000E+00
  0.00000000E+00  0.00000000E+00  0.00000000E+00
  0.00000000E+00  0.00000000E+00  0.00000000E+00
  0.00000000E+00  0.00000000E+00  0.00000000E+00
  0.00000000E+00  0.00000000E+00  0.00000000E+00
  0.00000000E+00  0.00000000E+00  0.00000000E+00
  0.00000000E+00  0.00000000E+00  0.00000000E+00
  0.00000000E+00  0.00000000E+00  0.00000000E+00
