Tl4 Cu2 F8                              
   1.00000000000000     
     4.1478739438392660    0.0000000000000000   -0.0000000000000000
     0.0000000000000000    4.1478739438392660    0.0000000000000000
    -0.0000000000000000   -0.0000000000000000   13.7228936058107269
   Tl   Cu   F 
     4     2     8
Direct
  0.5000000000000000  0.5000000000000000  0.1470860015217455
  0.0000000000000000 -0.0000000000000000  0.3529139984782546
 -0.0000000000000000  0.0000000000000000  0.6470859665217462
  0.5000000000000000  0.5000000000000000  0.8529139984782544
  0.0000000000000000 -0.0000000000000000  0.0000000000000000
  0.5000000000000000  0.5000000000000000  0.5000000000000000
  0.5000000000000000  0.5000000000000000  0.3562547973867721
 -0.0000000000000000  0.0000000000000000  0.1437451936132235
 -0.0000000000000000  0.5000000000000000  0.0000000000000000
  0.5000000000000000 -0.0000000000000000  0.0000000000000000
  0.0000000000000000 -0.0000000000000000  0.8562547973867720
  0.5000000000000000  0.5000000000000000  0.6437451676132286
  0.5000000000000000 -0.0000000000000000  0.5000000000000000
 -0.0000000000000000  0.5000000000000000  0.5000000000000000
 
  0.00000000E+00  0.00000000E+00  0.00000000E+00
  0.00000000E+00  0.00000000E+00  0.00000000E+00
  0.00000000E+00  0.00000000E+00  0.00000000E+00
  0.00000000E+00  0.00000000E+00  0.00000000E+00
  0.00000000E+00  0.00000000E+00  0.00000000E+00
  0.00000000E+00  0.00000000E+00  0.00000000E+00
  0.00000000E+00  0.00000000E+00  0.00000000E+00
  0.00000000E+00  0.00000000E+00  0.00000000E+00
  0.00000000E+00  0.00000000E+00  0.00000000E+00
  0.00000000E+00  0.00000000E+00  0.00000000E+00
  0.00000000E+00  0.00000000E+00  0.00000000E+00
  0.00000000E+00  0.00000000E+00  0.00000000E+00
  0.00000000E+00  0.00000000E+00  0.00000000E+00
  0.00000000E+00  0.00000000E+00  0.00000000E+00
