CONTCAR                                 
   1.00000000000000     
    10.9576997757000001    0.0000000000000000    0.0000000000000000
     0.0000000000000000   18.6480007171999986    0.0000000000000000
     0.0000000000000000    0.0000000000000000   19.2721004485999998
   Ta   Te   Pd   O    H 
    12    30    18     2     1
Selective dynamics
Direct
  0.0015380800342868  0.9154072005308294  0.4977729076722497   F   F   F
  0.1685308099457714  0.4155046492450865  0.5006515455581706   F   F   F
  0.0016811621431927  0.1674845891173504  0.4976142895257851   F   F   F
  0.1685522319959532  0.6678161551215354  0.5010903495046151   F   F   F
  0.3357196754144951  0.9154579851665758  0.4982437118696978   F   F   F
  0.5019549874775606  0.4154365324050175  0.5007284362657529   F   F   F
  0.3352715425771109  0.1675190225738845  0.4977391479708189   F   F   F
  0.5020993776383094  0.6678265731251258  0.5010492651712113   F   F   F
  0.6673881505616848  0.9155457881156650  0.4974935161123497   F   F   F
  0.8349865075764171  0.4154314228146276  0.5005870694695744   F   F   F
  0.6682633925117827  0.1674332309160889  0.4976576964258328   F   F   F
  0.8340714330034515  0.6677117823045293  0.5004201558788850   F   F   F
  0.0014235487953016  0.7188653880979103  0.6044696213006233   F   F   F
  0.1685334570700618  0.8647306621905884  0.3941943564256647   F   F   F
  0.1684084889527426  0.2186454495466279  0.3940171306976339   F   F   F
  0.0019354403435798  0.3643849214957555  0.6043132974967378   F   F   F
  0.0014999175525858  0.6455580186207683  0.3886836609363726   F   F   F
  0.1678903535568494  0.1455121154761514  0.6098605416609146   F   F   F
  0.1685982282333143  0.5414774045039792  0.5828686173560627   F   F   F
  0.0017989284982249  0.0414405435831924  0.4154067657836080   F   F   F
  0.0014069954270894  0.4375232842677050  0.3884657577730266   F   F   F
  0.1682197380483927  0.9377473113716448  0.6100323110163473   F   F   F
  0.3351691346527161  0.7188893074686220  0.6048656538892985   F   F   F
  0.5009739309799599  0.8645556387336057  0.3936516488623951   F   F   F
  0.5015881934833928  0.2185647290924351  0.3939084997612952   F   F   F
  0.3353955597023344  0.3643422548425690  0.6044033529526089   F   F   F
  0.3345688249091765  0.6456421908895251  0.3888192419402117   F   F   F
  0.5012521120469984  0.1453092909994638  0.6099102243285301   F   F   F
  0.5019098239915678  0.5415658340814460  0.5828835610154641   F   F   F
  0.3350320732317584  0.0415795562065995  0.4157042895965262   F   F   F
  0.3347412376244066  0.4374846005824935  0.3884275664734886   F   F   F
  0.5034326070551103  0.9371880163069832  0.6105251578868476   F   F   F
  0.6683840125665483  0.7189139642809153  0.6048250951120835   F   F   F
  0.8349235189462760  0.8641691164635930  0.3939901106661239   F   F   F
  0.8349035484707983  0.2185421714020208  0.3939326764088946   F   F   F
  0.6688200336543630  0.3644284636451687  0.6044641233051919   F   F   F
  0.6675422838647620  0.6455350350525606  0.3882992157842438   F   F   F
  0.8345517088633159  0.1453879039458812  0.6097986894419591   F   F   F
  0.8347909801329365  0.5416729787143311  0.5824174169417304   F   F   F
  0.6682946636804843  0.0415880486754432  0.4153773765353321   F   F   F
  0.6680388165305970  0.4372855432977545  0.3882422908609797   F   F   F
  0.8333851311166427  0.9369637675509281  0.6094500655910622   F   F   F
  0.0018644312179390  0.3099187885519683  0.4509617847851430   F   F   F
  0.0024798611455452  0.7730452323897268  0.4511200972170215   F   F   F
  0.1686902683331439  0.2730013776747953  0.5472402460812731   F   F   F
  0.1685429156311002  0.8102522496645008  0.5475951478511476   F   F   F
  0.0019778526179834  0.5415034591394701  0.4816814571522414   F   F   F
  0.1682035934059414  0.0415488312941505  0.5167399622628537   F   F   F
  0.3355855772648511  0.3099472523320088  0.4511830952268099   F   F   F
  0.3351493623943824  0.7732330053177137  0.4514114234680804   F   F   F
  0.5022953363527662  0.2730109835967554  0.5474076083550727   F   F   F
  0.5020571058622423  0.8099851214481220  0.5475208582032991   F   F   F
  0.3352470813523070  0.5414083468171285  0.4816710413809702   F   F   F
  0.5019126866312931  0.0412092425270814  0.5167992282494396   F   F   F
  0.6685033550221746  0.3099032971385398  0.4510486891070897   F   F   F
  0.6675489216388684  0.7732169553860402  0.4507524075096754   F   F   F
  0.8354262512191184  0.2729661536323675  0.5471949394661735   F   F   F
  0.8347715604979484  0.8096112323835243  0.5467898344251765   F   F   F
  0.6679835009090240  0.5411746430918711  0.4813146518645652   F   F   F
  0.8351799284903265  0.0414295122112804  0.5166569869847280   F   F   F
  0.6419589156104664  0.8325639204348150  0.7080842178121074   T   T   T
  0.7116449264146212  0.8364570447007154  0.7680066991079570   T   T   T
  0.7850665311255867  0.8633552514444531  0.7525347620619650   T   T   T
 
  0.00000000E+00  0.00000000E+00  0.00000000E+00
  0.00000000E+00  0.00000000E+00  0.00000000E+00
  0.00000000E+00  0.00000000E+00  0.00000000E+00
  0.00000000E+00  0.00000000E+00  0.00000000E+00
  0.00000000E+00  0.00000000E+00  0.00000000E+00
  0.00000000E+00  0.00000000E+00  0.00000000E+00
  0.00000000E+00  0.00000000E+00  0.00000000E+00
  0.00000000E+00  0.00000000E+00  0.00000000E+00
  0.00000000E+00  0.00000000E+00  0.00000000E+00
  0.00000000E+00  0.00000000E+00  0.00000000E+00
  0.00000000E+00  0.00000000E+00  0.00000000E+00
  0.00000000E+00  0.00000000E+00  0.00000000E+00
  0.00000000E+00  0.00000000E+00  0.00000000E+00
  0.00000000E+00  0.00000000E+00  0.00000000E+00
  0.00000000E+00  0.00000000E+00  0.00000000E+00
  0.00000000E+00  0.00000000E+00  0.00000000E+00
  0.00000000E+00  0.00000000E+00  0.00000000E+00
  0.00000000E+00  0.00000000E+00  0.00000000E+00
  0.00000000E+00  0.00000000E+00  0.00000000E+00
  0.00000000E+00  0.00000000E+00  0.00000000E+00
  0.00000000E+00  0.00000000E+00  0.00000000E+00
  0.00000000E+00  0.00000000E+00  0.00000000E+00
  0.00000000E+00  0.00000000E+00  0.00000000E+00
  0.00000000E+00  0.00000000E+00  0.00000000E+00
  0.00000000E+00  0.00000000E+00  0.00000000E+00
  0.00000000E+00  0.00000000E+00  0.00000000E+00
  0.00000000E+00  0.00000000E+00  0.00000000E+00
  0.00000000E+00  0.00000000E+00  0.00000000E+00
  0.00000000E+00  0.00000000E+00  0.00000000E+00
  0.00000000E+00  0.00000000E+00  0.00000000E+00
  0.00000000E+00  0.00000000E+00  0.00000000E+00
  0.00000000E+00  0.00000000E+00  0.00000000E+00
  0.00000000E+00  0.00000000E+00  0.00000000E+00
  0.00000000E+00  0.00000000E+00  0.00000000E+00
  0.00000000E+00  0.00000000E+00  0.00000000E+00
  0.00000000E+00  0.00000000E+00  0.00000000E+00
  0.00000000E+00  0.00000000E+00  0.00000000E+00
  0.00000000E+00  0.00000000E+00  0.00000000E+00
  0.00000000E+00  0.00000000E+00  0.00000000E+00
  0.00000000E+00  0.00000000E+00  0.00000000E+00
  0.00000000E+00  0.00000000E+00  0.00000000E+00
  0.00000000E+00  0.00000000E+00  0.00000000E+00
  0.00000000E+00  0.00000000E+00  0.00000000E+00
  0.00000000E+00  0.00000000E+00  0.00000000E+00
  0.00000000E+00  0.00000000E+00  0.00000000E+00
  0.00000000E+00  0.00000000E+00  0.00000000E+00
  0.00000000E+00  0.00000000E+00  0.00000000E+00
  0.00000000E+00  0.00000000E+00  0.00000000E+00
  0.00000000E+00  0.00000000E+00  0.00000000E+00
  0.00000000E+00  0.00000000E+00  0.00000000E+00
  0.00000000E+00  0.00000000E+00  0.00000000E+00
  0.00000000E+00  0.00000000E+00  0.00000000E+00
  0.00000000E+00  0.00000000E+00  0.00000000E+00
  0.00000000E+00  0.00000000E+00  0.00000000E+00
  0.00000000E+00  0.00000000E+00  0.00000000E+00
  0.00000000E+00  0.00000000E+00  0.00000000E+00
  0.00000000E+00  0.00000000E+00  0.00000000E+00
  0.00000000E+00  0.00000000E+00  0.00000000E+00
  0.00000000E+00  0.00000000E+00  0.00000000E+00
  0.00000000E+00  0.00000000E+00  0.00000000E+00
  0.00000000E+00  0.00000000E+00  0.00000000E+00
  0.00000000E+00  0.00000000E+00  0.00000000E+00
  0.00000000E+00  0.00000000E+00  0.00000000E+00
