CONTCAR                                 
   1.00000000000000     
    13.4069995879999997    0.0000000000000000    0.0000000000000000
     0.0000000000000000   14.7997999190999998    0.0000000000000000
     0.0000000000000000    0.0000000000000000   22.4342994689999990
   Ta   S    O    H 
    24    72     2     1
Direct
  0.1853667323520137  0.0825908713448461  0.4386023121717516
  0.0608121439635388  0.9094314228700907  0.5584079554898644
  0.1863448723139783  0.7517152879470705  0.4245668929785495
  0.0602287234803918  0.2405724080688245  0.5727524665844121
  0.1895582609933869  0.4997509357946656  0.5872533746543045
  0.0619702070669310  0.4906451544276684  0.4196818852601021
  0.4362179709424768  0.0826890164389442  0.4387123647927570
  0.3107333768981141  0.9098128937259304  0.5575168476712075
  0.4349478927955540  0.7517944392177386  0.4243543331784501
  0.3102588917775274  0.2399911943669292  0.5732999056854412
  0.4331528168737850  0.5001634268241725  0.5862485397308147
  0.3106206694614406  0.4909476608520915  0.4198365841906023
  0.6860810153498250  0.0819291538266313  0.4389748302133601
  0.5606969351818921  0.9092360429092019  0.5583265698365898
  0.6854387788502839  0.7498893089526181  0.4255890253525660
  0.5611403962717072  0.2405230206048075  0.5728863633676475
  0.6863614182856971  0.4995773824148195  0.5825396927455582
  0.5596057911540692  0.4906104698034541  0.4192664136042447
  0.9353113455368373  0.0819160576796677  0.4390200205878479
  0.8106018160948709  0.9093040037217175  0.5587983450057498
  0.9359943335336733  0.7498526022461713  0.4257644335398122
  0.8104674148939225  0.2406983924239674  0.5732122774275472
  0.9339672258439229  0.4992927622264772  0.5825915845603705
  0.8107026585282885  0.4903598169028172  0.4187335615625319
  0.1852218840325255  0.9174965519939071  0.4749935407668734
  0.0608403997171953  0.0750261455301928  0.5216471860654173
  0.1860675836233465  0.9738004948817458  0.6305904827984522
  0.0602504716220463  0.0174087587154727  0.3662136338429740
  0.1864821833451142  0.8273024739726412  0.6214752746754393
  0.0601525099448222  0.1633724420894165  0.3745574506859941
  0.1851852380460677  0.1504443947922044  0.6289910613825582
  0.0596959129775960  0.8387077630688422  0.3682209634604148
  0.1845582445790095  0.3367330873377568  0.6266469544010026
  0.0611958330830212  0.6495553065002507  0.3738033900210156
  0.1855690328000351  0.2399727097230159  0.4884030750369026
  0.0614544821678748  0.7515670483525101  0.5096463211421718
  0.1859776076906613  0.4756924363330314  0.3358727555508700
  0.0584522950697238  0.5139980335133838  0.6672979289982114
  0.1861226000732895  0.5758087919268724  0.4800884994454176
  0.0624737573176094  0.4141259777677602  0.5243059957300990
  0.1861472699081829  0.3677657371236899  0.3963351638197506
  0.0611045097993038  0.6208687766811912  0.6066197225378912
  0.4362279927017005  0.9176141584645826  0.4750197121263978
  0.3106916426509075  0.0753011953672607  0.5213633553020774
  0.4354309513741687  0.9728987250835771  0.6308430273175747
  0.3108689051684889  0.0185499109136851  0.3658418584014536
  0.4349229462601509  0.8270993860339300  0.6215232653402409
  0.3108697340836326  0.1643308651735006  0.3747926237491171
  0.4359952130091732  0.1508486221206232  0.6290954259070077
  0.3106016380449363  0.8396764187392703  0.3666771155353002
  0.4365484376531737  0.3378801687731580  0.6265770419262662
  0.3105594528690169  0.6500273244480310  0.3732296513218245
  0.4358570145847852  0.2400932113942917  0.4886520954971926
  0.3108157991570780  0.7550009253495819  0.5066480110002862
  0.4352255085886726  0.4753129001586374  0.3357644387144351
  0.3095463585217813  0.5001641186266058  0.6747707020019753
  0.4356741526265628  0.5759095931354311  0.4797084921556493
  0.3105391682761965  0.4122363418512097  0.5245566605232015
  0.4351068512460918  0.3676851526150404  0.3964911667132581
  0.3116418166121562  0.6203595269538296  0.6023485500773971
  0.6859737421972570  0.9164165438836206  0.4757328955222030
  0.5607909915961157  0.0749429104089970  0.5217441021502774
  0.6853389987740949  0.9736764619875731  0.6313555093572849
  0.5611224047802955  0.0176265585956708  0.3661474836070777
  0.6853783085121020  0.8279989434790568  0.6229182381091234
  0.5612641712382553  0.1635070780659669  0.3745334097711747
  0.6857289325858003  0.1516091788685245  0.6294174283852622
  0.5617261209522499  0.8388989423760875  0.3681045429561244
  0.6857907232179283  0.3398367551565449  0.6268297944121711
  0.5603095024727390  0.6497116816903180  0.3735083278081903
  0.6859110983764489  0.2399390893486683  0.4884512627161676
  0.5598723037734685  0.7516260262149803  0.5093592936128239
  0.6853561970483516  0.4755401613729470  0.3354511692156545
  0.5616543791347146  0.5160027561316066  0.6672418048487433
  0.6857564891377100  0.5769592879033377  0.4784737425976113
  0.5592176274715824  0.4139533938720050  0.5236988554706828
  0.6851940417535872  0.3679044393962699  0.3960545309473832
  0.5607962373153049  0.6219870410336418  0.6058599321982062
  0.9355165818995755  0.9164374167043687  0.4758878737011595
  0.8106286094766190  0.0748139874775681  0.5219980684678683
  0.9359627289675494  0.9742065211134096  0.6311663994535855
  0.8107723985615157  0.0167427998403244  0.3663580800710586
  0.9360595141554368  0.8282257647887091  0.6228912363477028
  0.8107715153223822  0.1627555287674592  0.3743764989556349
  0.9355252684593046  0.1518076408056765  0.6293496675150947
  0.8107620173198954  0.8380790679525078  0.3688852014918012
  0.9348944881366362  0.3395925147615904  0.6267913470857304
  0.8108296067195688  0.6496565871391695  0.3734145579340222
  0.9353430802008953  0.2399718421840498  0.4884885066937834
  0.8106437239274960  0.7512811889521647  0.5101072829369504
  0.9364034878104599  0.4754552131000466  0.3357421589899655
  0.8101928357535194  0.5154882785817836  0.6664603783644194
  0.9355612198837656  0.5769998757757435  0.4786696176959820
  0.8105164432665916  0.4128284079667152  0.5223474577849346
  0.9363688716487175  0.3679152483545179  0.3964308414373875
  0.8106024045062304  0.6230203231030492  0.6061028806624427
  0.2992171347292054  0.4003699233442765  0.7210131253889923
  0.3863962949905390  0.3999189992171617  0.7601111610105676
  0.4272525592558454  0.3544874261864298  0.7391058861605450
 
  0.00000000E+00  0.00000000E+00  0.00000000E+00
  0.00000000E+00  0.00000000E+00  0.00000000E+00
  0.00000000E+00  0.00000000E+00  0.00000000E+00
  0.00000000E+00  0.00000000E+00  0.00000000E+00
  0.00000000E+00  0.00000000E+00  0.00000000E+00
  0.00000000E+00  0.00000000E+00  0.00000000E+00
  0.00000000E+00  0.00000000E+00  0.00000000E+00
  0.00000000E+00  0.00000000E+00  0.00000000E+00
  0.00000000E+00  0.00000000E+00  0.00000000E+00
  0.00000000E+00  0.00000000E+00  0.00000000E+00
  0.00000000E+00  0.00000000E+00  0.00000000E+00
  0.00000000E+00  0.00000000E+00  0.00000000E+00
  0.00000000E+00  0.00000000E+00  0.00000000E+00
  0.00000000E+00  0.00000000E+00  0.00000000E+00
  0.00000000E+00  0.00000000E+00  0.00000000E+00
  0.00000000E+00  0.00000000E+00  0.00000000E+00
  0.00000000E+00  0.00000000E+00  0.00000000E+00
  0.00000000E+00  0.00000000E+00  0.00000000E+00
  0.00000000E+00  0.00000000E+00  0.00000000E+00
  0.00000000E+00  0.00000000E+00  0.00000000E+00
  0.00000000E+00  0.00000000E+00  0.00000000E+00
  0.00000000E+00  0.00000000E+00  0.00000000E+00
  0.00000000E+00  0.00000000E+00  0.00000000E+00
  0.00000000E+00  0.00000000E+00  0.00000000E+00
  0.00000000E+00  0.00000000E+00  0.00000000E+00
  0.00000000E+00  0.00000000E+00  0.00000000E+00
  0.00000000E+00  0.00000000E+00  0.00000000E+00
  0.00000000E+00  0.00000000E+00  0.00000000E+00
  0.00000000E+00  0.00000000E+00  0.00000000E+00
  0.00000000E+00  0.00000000E+00  0.00000000E+00
  0.00000000E+00  0.00000000E+00  0.00000000E+00
  0.00000000E+00  0.00000000E+00  0.00000000E+00
  0.00000000E+00  0.00000000E+00  0.00000000E+00
  0.00000000E+00  0.00000000E+00  0.00000000E+00
  0.00000000E+00  0.00000000E+00  0.00000000E+00
  0.00000000E+00  0.00000000E+00  0.00000000E+00
  0.00000000E+00  0.00000000E+00  0.00000000E+00
  0.00000000E+00  0.00000000E+00  0.00000000E+00
  0.00000000E+00  0.00000000E+00  0.00000000E+00
  0.00000000E+00  0.00000000E+00  0.00000000E+00
  0.00000000E+00  0.00000000E+00  0.00000000E+00
  0.00000000E+00  0.00000000E+00  0.00000000E+00
  0.00000000E+00  0.00000000E+00  0.00000000E+00
  0.00000000E+00  0.00000000E+00  0.00000000E+00
  0.00000000E+00  0.00000000E+00  0.00000000E+00
  0.00000000E+00  0.00000000E+00  0.00000000E+00
  0.00000000E+00  0.00000000E+00  0.00000000E+00
  0.00000000E+00  0.00000000E+00  0.00000000E+00
  0.00000000E+00  0.00000000E+00  0.00000000E+00
  0.00000000E+00  0.00000000E+00  0.00000000E+00
  0.00000000E+00  0.00000000E+00  0.00000000E+00
  0.00000000E+00  0.00000000E+00  0.00000000E+00
  0.00000000E+00  0.00000000E+00  0.00000000E+00
  0.00000000E+00  0.00000000E+00  0.00000000E+00
  0.00000000E+00  0.00000000E+00  0.00000000E+00
  0.00000000E+00  0.00000000E+00  0.00000000E+00
  0.00000000E+00  0.00000000E+00  0.00000000E+00
  0.00000000E+00  0.00000000E+00  0.00000000E+00
  0.00000000E+00  0.00000000E+00  0.00000000E+00
  0.00000000E+00  0.00000000E+00  0.00000000E+00
  0.00000000E+00  0.00000000E+00  0.00000000E+00
  0.00000000E+00  0.00000000E+00  0.00000000E+00
  0.00000000E+00  0.00000000E+00  0.00000000E+00
  0.00000000E+00  0.00000000E+00  0.00000000E+00
  0.00000000E+00  0.00000000E+00  0.00000000E+00
  0.00000000E+00  0.00000000E+00  0.00000000E+00
  0.00000000E+00  0.00000000E+00  0.00000000E+00
  0.00000000E+00  0.00000000E+00  0.00000000E+00
  0.00000000E+00  0.00000000E+00  0.00000000E+00
  0.00000000E+00  0.00000000E+00  0.00000000E+00
  0.00000000E+00  0.00000000E+00  0.00000000E+00
  0.00000000E+00  0.00000000E+00  0.00000000E+00
  0.00000000E+00  0.00000000E+00  0.00000000E+00
  0.00000000E+00  0.00000000E+00  0.00000000E+00
  0.00000000E+00  0.00000000E+00  0.00000000E+00
  0.00000000E+00  0.00000000E+00  0.00000000E+00
  0.00000000E+00  0.00000000E+00  0.00000000E+00
  0.00000000E+00  0.00000000E+00  0.00000000E+00
  0.00000000E+00  0.00000000E+00  0.00000000E+00
  0.00000000E+00  0.00000000E+00  0.00000000E+00
  0.00000000E+00  0.00000000E+00  0.00000000E+00
  0.00000000E+00  0.00000000E+00  0.00000000E+00
  0.00000000E+00  0.00000000E+00  0.00000000E+00
  0.00000000E+00  0.00000000E+00  0.00000000E+00
  0.00000000E+00  0.00000000E+00  0.00000000E+00
  0.00000000E+00  0.00000000E+00  0.00000000E+00
  0.00000000E+00  0.00000000E+00  0.00000000E+00
  0.00000000E+00  0.00000000E+00  0.00000000E+00
  0.00000000E+00  0.00000000E+00  0.00000000E+00
  0.00000000E+00  0.00000000E+00  0.00000000E+00
  0.00000000E+00  0.00000000E+00  0.00000000E+00
  0.00000000E+00  0.00000000E+00  0.00000000E+00
  0.00000000E+00  0.00000000E+00  0.00000000E+00
  0.00000000E+00  0.00000000E+00  0.00000000E+00
  0.00000000E+00  0.00000000E+00  0.00000000E+00
  0.00000000E+00  0.00000000E+00  0.00000000E+00
  0.00000000E+00  0.00000000E+00  0.00000000E+00
  0.00000000E+00  0.00000000E+00  0.00000000E+00
  0.00000000E+00  0.00000000E+00  0.00000000E+00
