Lu4 Te12                                
   1.00000000000000     
     4.3236032315047570    0.0000000000000000    0.0000000000000000
     0.0000000000000000   25.4768680220772978    0.0000000000000000
     0.0000000000000000   -0.0000000000000000    4.3264010847897962
   Lu   Te
     4    12
Direct
  0.0000000000000000  0.8284478291601755  0.7500000000000000
  0.5000000000000000  0.6715521338398179  0.2500000000000000
  0.5000000000000000  0.3284478291601753  0.7500000000000000
 -0.0000000000000000  0.1715521528398231  0.2500000000000000
  0.5000000000000000  0.5750215775416856  0.7500000000000000
  0.0000000000000000  0.9249784604583176  0.2500000000000000
  0.5000000000000000  0.9248747732598750  0.7500000000000000
  0.0000000000000000  0.5751252267401250  0.2500000000000000
  0.0000000000000000  0.7064769984588365  0.7500000000000000
  0.5000000000000000  0.7935230385411630  0.2500000000000000
 -0.0000000000000000  0.0750215635416845  0.7500000000000000
  0.5000000000000000  0.4249784604583176  0.2500000000000000
 -0.0000000000000000  0.4248747732598750  0.7500000000000000
  0.5000000000000000  0.0751252227401317  0.2500000000000000
  0.5000000000000000  0.2064769804588421  0.7500000000000000
  0.0000000000000000  0.2935230385411630  0.2500000000000000
 
  0.00000000E+00  0.00000000E+00  0.00000000E+00
  0.00000000E+00  0.00000000E+00  0.00000000E+00
  0.00000000E+00  0.00000000E+00  0.00000000E+00
  0.00000000E+00  0.00000000E+00  0.00000000E+00
  0.00000000E+00  0.00000000E+00  0.00000000E+00
  0.00000000E+00  0.00000000E+00  0.00000000E+00
  0.00000000E+00  0.00000000E+00  0.00000000E+00
  0.00000000E+00  0.00000000E+00  0.00000000E+00
  0.00000000E+00  0.00000000E+00  0.00000000E+00
  0.00000000E+00  0.00000000E+00  0.00000000E+00
  0.00000000E+00  0.00000000E+00  0.00000000E+00
  0.00000000E+00  0.00000000E+00  0.00000000E+00
  0.00000000E+00  0.00000000E+00  0.00000000E+00
  0.00000000E+00  0.00000000E+00  0.00000000E+00
  0.00000000E+00  0.00000000E+00  0.00000000E+00
  0.00000000E+00  0.00000000E+00  0.00000000E+00
