CONTCAR\(4)                             
   1.00000000000000     
    14.3999004363999994    0.0000000000000000    0.0000000000000000
    -3.5999958350000001   11.0732005957999995    0.0000000000000000
     0.0000000000000000    0.0000000000000000   23.2912006377999994
   K    V    O 
     8    32    81
Direct
  0.1103480155174160  0.4705109625158790  0.4947510199874102
  0.4044362379193198  0.5432023314881059  0.4949830958486348
  0.5879472615262179  0.3621436681680940  0.4977730921019105
  0.8633858807655805  0.5342901687722521  0.4917066192719423
  0.1591105648093842  0.0797840865959744  0.5012319962654426
  0.3117490331935900  0.8145420701618772  0.5318316585655475
  0.6409928796054659  0.0603968138138682  0.4969368962682482
  0.8633017356848929  0.8710880294243456  0.4892933983237502
  0.0505060816999914  0.1956077334602887  0.3543872798989505
  0.0553057592324787  0.2546490355239912  0.6258281056307694
  0.2268038595904975  0.3879006087886770  0.3583151004274433
  0.2366993741029953  0.4717809511423003  0.6435315104165287
  0.3022803596749259  0.1884045935707337  0.3528805162875289
  0.3114811712329709  0.2570950588574986  0.6405580887660923
  0.4760236243559178  0.3979332028485668  0.3476078824673297
  0.4939148296478610  0.4714230178197129  0.6454453586444097
  0.5493012115581650  0.1879383370389101  0.3483725245582056
  0.5516240483767935  0.2369813209672404  0.6552892050157059
  0.7245721486499757  0.3970663056440111  0.3433747171711902
  0.7278729244769481  0.4554627137903571  0.6491995981831573
  0.7968038646698927  0.1928596351804737  0.3466090754386826
  0.7981876382534983  0.2470139211445340  0.6378391979580242
  0.9704946950288664  0.3874829057943571  0.3522752335382819
  0.9770963898316299  0.4614397034687050  0.6403290528624395
  0.0449914662919496  0.6827521357762245  0.3534417702964874
  0.0641489039332541  0.7478657145920684  0.6634677304403022
  0.2240951730566382  0.8930747177803798  0.3600171621532909
  0.2331410298715662  0.9711031520285843  0.6710830577398919
  0.2971432812359616  0.6836869522560343  0.3668842834774121
  0.2818943261616039  0.7228114589015426  0.7124145056588691
  0.4758812542144435  0.8926943009514215  0.3636073921274986
  0.4483591717371949  0.9432084499270176  0.6627771377624272
  0.5549694782219430  0.6901961230123265  0.3565558493647516
  0.5683433507995326  0.7762528253843980  0.6254147848869301
  0.7284576207664997  0.9006966307048008  0.3505677437750347
  0.7562725306753749  0.9662260822155468  0.6148501051541800
  0.8018822353007690  0.6916603438819892  0.3469993625465558
  0.8178550291305889  0.7423274443642881  0.6370018629569929
  0.9839433765662641  0.9027341982954420  0.3467172967923869
  0.9922840820111027  0.9564765721177408  0.6447133812440394
  0.0182620525404657  0.0472778039038090  0.3178698598295981
  0.0544453001542822  0.2355470107648674  0.5571224011649639
  0.0428456296560064  0.1714321207472321  0.4223031564427140
  0.0235831300789110  0.1126456003075895  0.6622965225507678
  0.0954329124614058  0.3704999176535997  0.3411145671897127
  0.0959018833098558  0.4251445493197684  0.6446089614987560
  0.1831352599757700  0.2171484297798901  0.3358749936467387
  0.2368500034659711  0.3974295819539869  0.4276518438558456
  0.1930545784184909  0.3004894444949512  0.6417041447141687
  0.2556396081343171  0.5441207992179299  0.5822695363311882
  0.2643096804538165  0.0367823745667166  0.3263356791465108
  0.3149005198178995  0.2213420905486239  0.5739102728997904
  0.3042641583514634  0.1776253540086549  0.4216149685617648
  0.2518871153580713  0.1293104821203640  0.6822488289971076
  0.3433984965204343  0.3642932214919530  0.3311093770092495
  0.3553869062027926  0.4350397618651201  0.6537256925931894
  0.4329940276824381  0.2207125000807026  0.3295356553734999
  0.4796434949009625  0.4115584164907253  0.4167762290960624
  0.4377310829903945  0.2839607142576877  0.6670293013675064
  0.5056958989891170  0.4704814181846581  0.5761506596571341
  0.5078054996639689  0.0351951342366065  0.3265419979747727
  0.5489943056843070  0.2127478798681735  0.5869420357449414
  0.5545491100236066  0.1838816274259888  0.4177334560829266
  0.5241925770410772  0.0979572214480022  0.6883832547303148
  0.5916140809365207  0.3658335728930490  0.3261366714808061
  0.5970900444798517  0.4199850159474852  0.6727931441455706
  0.6789771136940058  0.2211610291442265  0.3235054983840811
  0.7289503362279373  0.4122298052258683  0.4124992159829641
  0.6889241177477686  0.2818199467109912  0.6695868563895840
  0.7224660005598802  0.4648970361881970  0.5801134206519860
  0.7601266490868983  0.0420428661594428  0.3164478377508636
  0.7777535769748775  0.2461241504743272  0.5699110673636545
  0.7847022062355702  0.1787412674571342  0.4149137669619278
  0.7682706446537219  0.0956034129110719  0.6612721532194182
  0.8416725687037202  0.3648747147626368  0.3249231274949217
  0.8463977592935552  0.4226478367046491  0.6631540157848348
  0.9305968706303361  0.2156871026813850  0.3319045746497671
  0.9622198539339207  0.4043460668826955  0.4207310838996001
  0.9352416978877098  0.2835380575565725  0.6444309121631445
  0.9766593597069250  0.5013384903319871  0.5736893771132832
  0.0116395713824381  0.5395949621595121  0.3220480772852851
  0.0917483256024761  0.7418512505218696  0.5969617425860393
  0.0281896721652150  0.6644719632263010  0.4219395744952143
  0.0191969385759166  0.5920944995619196  0.6848564107362254
  0.0962539888646506  0.8575884215498660  0.3303147240191925
  0.0961233753946856  0.9277020414307090  0.6821232560285572
  0.1813153987301581  0.7151923384118530  0.3458980127339157
  0.2185255228283927  0.9128797112251744  0.4285337211074094
  0.1829598695119456  0.7911391840379971  0.7043437759544079
  0.2426054531140310  0.9590100560757018  0.6024904400995523
  0.2649400410635002  0.5425901498653696  0.3330736308435416
  0.3530104518687951  0.7778193757547386  0.6540470064639622
  0.2872604429286892  0.6622132329430317  0.4363337803961381
  0.2431987074720732  0.5604690265476975  0.7053716698258653
  0.3411555849911171  0.8578473140387797  0.3476564409363559
  0.3461394179908779  0.9714074828626343  0.7012621751526278
  0.4317576314187087  0.7169827915067171  0.3511297540862372
  0.4858095594625352  0.9172323097684305  0.4319265332781365
  0.5310875696394814  0.8573341461190744  0.6805909369426371
  0.4494151326503389  0.9706964524225735  0.5950255085671361
  0.5137617312823745  0.5479614534393752  0.3202600959070046
  0.4951882037336662  0.7289912287104846  0.5713108706329898
  0.5642286458728430  0.6663491053165195  0.4240705108354395
  0.5347321515244098  0.6207058008757645  0.6648315168473151
  0.5916933811535975  0.8634757490261026  0.3389001683152328
  0.6357799922553737  0.9309315190284727  0.5908399323452830
  0.6859269287055569  0.7275099436564129  0.3295428765746925
  0.7351107447129928  0.9217111215757512  0.4191985288826839
  0.7013428391691491  0.7842155651356124  0.6286605433003553
  0.8161013266363699  0.0166644184288228  0.5565073637917471
  0.7632539826017239  0.5463668112932658  0.3142331482556466
  0.8360335695495283  0.7093374688966200  0.5711467273163362
  0.7987524151890065  0.6726142269499150  0.4158848386370620
  0.7670391291387662  0.6061916644372470  0.6763399547455998
  0.8473626046840649  0.8683186247708196  0.3332642500289505
  0.8561423962669846  0.9157309642248288  0.6542684889803265
  0.9346614579967907  0.7250323068495398  0.3278994345637999
 -0.0033132796076698  0.9197215913040726  0.4153108458298225
  0.9436219996937119  0.7750704140336719  0.6671735372254174
  0.0122885450204627  0.9533894311705521  0.5764881564555963
  0.3417403837552774  0.7616341189063417  0.7711108088200097
 
  0.00000000E+00  0.00000000E+00  0.00000000E+00
  0.00000000E+00  0.00000000E+00  0.00000000E+00
  0.00000000E+00  0.00000000E+00  0.00000000E+00
  0.00000000E+00  0.00000000E+00  0.00000000E+00
  0.00000000E+00  0.00000000E+00  0.00000000E+00
  0.00000000E+00  0.00000000E+00  0.00000000E+00
  0.00000000E+00  0.00000000E+00  0.00000000E+00
  0.00000000E+00  0.00000000E+00  0.00000000E+00
  0.00000000E+00  0.00000000E+00  0.00000000E+00
  0.00000000E+00  0.00000000E+00  0.00000000E+00
  0.00000000E+00  0.00000000E+00  0.00000000E+00
  0.00000000E+00  0.00000000E+00  0.00000000E+00
  0.00000000E+00  0.00000000E+00  0.00000000E+00
  0.00000000E+00  0.00000000E+00  0.00000000E+00
  0.00000000E+00  0.00000000E+00  0.00000000E+00
  0.00000000E+00  0.00000000E+00  0.00000000E+00
  0.00000000E+00  0.00000000E+00  0.00000000E+00
  0.00000000E+00  0.00000000E+00  0.00000000E+00
  0.00000000E+00  0.00000000E+00  0.00000000E+00
  0.00000000E+00  0.00000000E+00  0.00000000E+00
  0.00000000E+00  0.00000000E+00  0.00000000E+00
  0.00000000E+00  0.00000000E+00  0.00000000E+00
  0.00000000E+00  0.00000000E+00  0.00000000E+00
  0.00000000E+00  0.00000000E+00  0.00000000E+00
  0.00000000E+00  0.00000000E+00  0.00000000E+00
  0.00000000E+00  0.00000000E+00  0.00000000E+00
  0.00000000E+00  0.00000000E+00  0.00000000E+00
  0.00000000E+00  0.00000000E+00  0.00000000E+00
  0.00000000E+00  0.00000000E+00  0.00000000E+00
  0.00000000E+00  0.00000000E+00  0.00000000E+00
  0.00000000E+00  0.00000000E+00  0.00000000E+00
  0.00000000E+00  0.00000000E+00  0.00000000E+00
  0.00000000E+00  0.00000000E+00  0.00000000E+00
  0.00000000E+00  0.00000000E+00  0.00000000E+00
  0.00000000E+00  0.00000000E+00  0.00000000E+00
  0.00000000E+00  0.00000000E+00  0.00000000E+00
  0.00000000E+00  0.00000000E+00  0.00000000E+00
  0.00000000E+00  0.00000000E+00  0.00000000E+00
  0.00000000E+00  0.00000000E+00  0.00000000E+00
  0.00000000E+00  0.00000000E+00  0.00000000E+00
  0.00000000E+00  0.00000000E+00  0.00000000E+00
  0.00000000E+00  0.00000000E+00  0.00000000E+00
  0.00000000E+00  0.00000000E+00  0.00000000E+00
  0.00000000E+00  0.00000000E+00  0.00000000E+00
  0.00000000E+00  0.00000000E+00  0.00000000E+00
  0.00000000E+00  0.00000000E+00  0.00000000E+00
  0.00000000E+00  0.00000000E+00  0.00000000E+00
  0.00000000E+00  0.00000000E+00  0.00000000E+00
  0.00000000E+00  0.00000000E+00  0.00000000E+00
  0.00000000E+00  0.00000000E+00  0.00000000E+00
  0.00000000E+00  0.00000000E+00  0.00000000E+00
  0.00000000E+00  0.00000000E+00  0.00000000E+00
  0.00000000E+00  0.00000000E+00  0.00000000E+00
  0.00000000E+00  0.00000000E+00  0.00000000E+00
  0.00000000E+00  0.00000000E+00  0.00000000E+00
  0.00000000E+00  0.00000000E+00  0.00000000E+00
  0.00000000E+00  0.00000000E+00  0.00000000E+00
  0.00000000E+00  0.00000000E+00  0.00000000E+00
  0.00000000E+00  0.00000000E+00  0.00000000E+00
  0.00000000E+00  0.00000000E+00  0.00000000E+00
  0.00000000E+00  0.00000000E+00  0.00000000E+00
  0.00000000E+00  0.00000000E+00  0.00000000E+00
  0.00000000E+00  0.00000000E+00  0.00000000E+00
  0.00000000E+00  0.00000000E+00  0.00000000E+00
  0.00000000E+00  0.00000000E+00  0.00000000E+00
  0.00000000E+00  0.00000000E+00  0.00000000E+00
  0.00000000E+00  0.00000000E+00  0.00000000E+00
  0.00000000E+00  0.00000000E+00  0.00000000E+00
  0.00000000E+00  0.00000000E+00  0.00000000E+00
  0.00000000E+00  0.00000000E+00  0.00000000E+00
  0.00000000E+00  0.00000000E+00  0.00000000E+00
  0.00000000E+00  0.00000000E+00  0.00000000E+00
  0.00000000E+00  0.00000000E+00  0.00000000E+00
  0.00000000E+00  0.00000000E+00  0.00000000E+00
  0.00000000E+00  0.00000000E+00  0.00000000E+00
  0.00000000E+00  0.00000000E+00  0.00000000E+00
  0.00000000E+00  0.00000000E+00  0.00000000E+00
  0.00000000E+00  0.00000000E+00  0.00000000E+00
  0.00000000E+00  0.00000000E+00  0.00000000E+00
  0.00000000E+00  0.00000000E+00  0.00000000E+00
  0.00000000E+00  0.00000000E+00  0.00000000E+00
  0.00000000E+00  0.00000000E+00  0.00000000E+00
  0.00000000E+00  0.00000000E+00  0.00000000E+00
  0.00000000E+00  0.00000000E+00  0.00000000E+00
  0.00000000E+00  0.00000000E+00  0.00000000E+00
  0.00000000E+00  0.00000000E+00  0.00000000E+00
  0.00000000E+00  0.00000000E+00  0.00000000E+00
  0.00000000E+00  0.00000000E+00  0.00000000E+00
  0.00000000E+00  0.00000000E+00  0.00000000E+00
  0.00000000E+00  0.00000000E+00  0.00000000E+00
  0.00000000E+00  0.00000000E+00  0.00000000E+00
  0.00000000E+00  0.00000000E+00  0.00000000E+00
  0.00000000E+00  0.00000000E+00  0.00000000E+00
  0.00000000E+00  0.00000000E+00  0.00000000E+00
  0.00000000E+00  0.00000000E+00  0.00000000E+00
  0.00000000E+00  0.00000000E+00  0.00000000E+00
  0.00000000E+00  0.00000000E+00  0.00000000E+00
  0.00000000E+00  0.00000000E+00  0.00000000E+00
  0.00000000E+00  0.00000000E+00  0.00000000E+00
  0.00000000E+00  0.00000000E+00  0.00000000E+00
  0.00000000E+00  0.00000000E+00  0.00000000E+00
  0.00000000E+00  0.00000000E+00  0.00000000E+00
  0.00000000E+00  0.00000000E+00  0.00000000E+00
  0.00000000E+00  0.00000000E+00  0.00000000E+00
  0.00000000E+00  0.00000000E+00  0.00000000E+00
  0.00000000E+00  0.00000000E+00  0.00000000E+00
  0.00000000E+00  0.00000000E+00  0.00000000E+00
  0.00000000E+00  0.00000000E+00  0.00000000E+00
  0.00000000E+00  0.00000000E+00  0.00000000E+00
  0.00000000E+00  0.00000000E+00  0.00000000E+00
  0.00000000E+00  0.00000000E+00  0.00000000E+00
  0.00000000E+00  0.00000000E+00  0.00000000E+00
  0.00000000E+00  0.00000000E+00  0.00000000E+00
  0.00000000E+00  0.00000000E+00  0.00000000E+00
  0.00000000E+00  0.00000000E+00  0.00000000E+00
  0.00000000E+00  0.00000000E+00  0.00000000E+00
  0.00000000E+00  0.00000000E+00  0.00000000E+00
  0.00000000E+00  0.00000000E+00  0.00000000E+00
  0.00000000E+00  0.00000000E+00  0.00000000E+00
  0.00000000E+00  0.00000000E+00  0.00000000E+00
  0.00000000E+00  0.00000000E+00  0.00000000E+00
