CONTCAR\(2)                             
   1.00000000000000     
     6.8951001167000001    0.0000000000000000    0.0000000000000000
     3.4475500584000001    5.9713318626999996    0.0000000000000000
     0.0000000000000000    0.0000000000000000   18.3700008391999994
   Nb   Se   O    H 
     4     8     3     3
Direct
  0.1666862465370637  0.1659545673005567  0.4973248524184570
  0.6778135061805083  0.1426296380383888  0.4973146845554507
  0.1426618851725238  0.6776152323748815  0.4961621903179853
  0.6778962322307168  0.6774706716124049  0.4965976179704523
  0.3353116389465233  0.3359577301870275  0.5794169491093463
  0.3346681930861799  0.3329736905843650  0.4067418395040664
  0.8302784634600681  0.3350861807102749  0.5874967531445744
  0.8286990658897214  0.3346274721369352  0.4150924456808222
  0.3347483643096614  0.8292448348711757  0.5868183903358198
  0.3347976942868425  0.8295743795285071  0.4146587599993043
  0.8333376258019111  0.8311388747126742  0.5951452458372669
  0.8324060849621943  0.8338059925554469  0.3980471908418346
  0.3407026087999939  0.3309793072829327  0.6796745765822616
  0.8249387227837439  0.3560185497736483  0.3141889532396834
  0.3225251553871980  0.8643337733195067  0.3139550127784075
  0.1832285228246798  0.3944652324874594  0.6941080161056001
  0.9635346075215785  0.2235078378960301  0.2975146813502922
  0.4567350388188922  0.7315463656277971  0.2950620342283548
 
  0.00000000E+00  0.00000000E+00  0.00000000E+00
  0.00000000E+00  0.00000000E+00  0.00000000E+00
  0.00000000E+00  0.00000000E+00  0.00000000E+00
  0.00000000E+00  0.00000000E+00  0.00000000E+00
  0.00000000E+00  0.00000000E+00  0.00000000E+00
  0.00000000E+00  0.00000000E+00  0.00000000E+00
  0.00000000E+00  0.00000000E+00  0.00000000E+00
  0.00000000E+00  0.00000000E+00  0.00000000E+00
  0.00000000E+00  0.00000000E+00  0.00000000E+00
  0.00000000E+00  0.00000000E+00  0.00000000E+00
  0.00000000E+00  0.00000000E+00  0.00000000E+00
  0.00000000E+00  0.00000000E+00  0.00000000E+00
  0.00000000E+00  0.00000000E+00  0.00000000E+00
  0.00000000E+00  0.00000000E+00  0.00000000E+00
  0.00000000E+00  0.00000000E+00  0.00000000E+00
  0.00000000E+00  0.00000000E+00  0.00000000E+00
  0.00000000E+00  0.00000000E+00  0.00000000E+00
  0.00000000E+00  0.00000000E+00  0.00000000E+00
