CONTCAR                                 
   1.00000000000000     
    11.1955995559999995    0.0000000000000000    0.0000000000000000
    -5.5977997779999997    9.6956736260999996    0.0000000000000000
     0.0000000000000000    0.0000000000000000   18.4459991455000001
   Ti   Te   O    H 
     9    18     1     1
Direct
  0.0042016942770967  0.0018767429456516  0.5025305253680215
  0.3360983000798698  0.0024753451094656  0.5025289434776739
  0.6813689504852755  0.0248339788856165  0.5021134591467932
  0.0019523850900050  0.3350665774227782  0.5033740490786036
  0.3360242500286245  0.3330897907221659  0.5026200050668527
  0.6707605275847034  0.3353553288312070  0.5033689292509418
  0.0018924530786586  0.6660795756067712  0.5033657649032501
  0.3133241296234838  0.6561275870167057  0.5020737470300949
  0.6815563733156017  0.6559832842290773  0.5021968036277783
  0.2252456392533994  0.1123575523327589  0.5987976891863827
  0.1143045372490860  0.2236374896394664  0.4076317388488605
  0.5578316905648253  0.1140528313292132  0.5992665117368565
  0.4472324558941599  0.2233751166688432  0.4074442045065553
  0.8942902094480536  0.1138443692837658  0.5991922506695126
  0.7838906566748589  0.2306920387003775  0.4043887737204026
  0.2235596147130834  0.4428910970707309  0.5992187461135419
  0.1062310080907377  0.5526074935603614  0.4044695404341097
  0.5579260935902809  0.4435892926074992  0.5993483604338338
  0.4486729854469592  0.5588966710987809  0.4120282389909516
  0.8915045670170858  0.4453523456839696  0.5990470481687550
  0.7839667692180922  0.5526439866122891  0.4042061209839877
  0.2235477691801249  0.7801875845353996  0.5992389470646975
  0.1143054000470334  0.8899524528739899  0.4076687361578671
  0.5586222731079743  0.7783603201952052  0.5767556323305274
  0.4488302517348274  0.8888769486630120  0.4121759301521623
  0.8947177940118690  0.7800895371426171  0.5992325094844901
  0.7781551583154526  0.8887963232775132  0.4121417372889548
  0.5615619567806125  0.7750057896909234  0.6856770771885538
  0.4684743500981804  0.7495230662638573  0.7018778925890126
 
  0.00000000E+00  0.00000000E+00  0.00000000E+00
  0.00000000E+00  0.00000000E+00  0.00000000E+00
  0.00000000E+00  0.00000000E+00  0.00000000E+00
  0.00000000E+00  0.00000000E+00  0.00000000E+00
  0.00000000E+00  0.00000000E+00  0.00000000E+00
  0.00000000E+00  0.00000000E+00  0.00000000E+00
  0.00000000E+00  0.00000000E+00  0.00000000E+00
  0.00000000E+00  0.00000000E+00  0.00000000E+00
  0.00000000E+00  0.00000000E+00  0.00000000E+00
  0.00000000E+00  0.00000000E+00  0.00000000E+00
  0.00000000E+00  0.00000000E+00  0.00000000E+00
  0.00000000E+00  0.00000000E+00  0.00000000E+00
  0.00000000E+00  0.00000000E+00  0.00000000E+00
  0.00000000E+00  0.00000000E+00  0.00000000E+00
  0.00000000E+00  0.00000000E+00  0.00000000E+00
  0.00000000E+00  0.00000000E+00  0.00000000E+00
  0.00000000E+00  0.00000000E+00  0.00000000E+00
  0.00000000E+00  0.00000000E+00  0.00000000E+00
  0.00000000E+00  0.00000000E+00  0.00000000E+00
  0.00000000E+00  0.00000000E+00  0.00000000E+00
  0.00000000E+00  0.00000000E+00  0.00000000E+00
  0.00000000E+00  0.00000000E+00  0.00000000E+00
  0.00000000E+00  0.00000000E+00  0.00000000E+00
  0.00000000E+00  0.00000000E+00  0.00000000E+00
  0.00000000E+00  0.00000000E+00  0.00000000E+00
  0.00000000E+00  0.00000000E+00  0.00000000E+00
  0.00000000E+00  0.00000000E+00  0.00000000E+00
  0.00000000E+00  0.00000000E+00  0.00000000E+00
  0.00000000E+00  0.00000000E+00  0.00000000E+00
