CONTCAR\(4)                             
   1.00000000000000     
    13.8203001021999992    0.0000000000000000    0.0000000000000000
     1.7075399424000000   15.0073707208999991    0.0000000000000000
     0.0000000000000000    0.0000000000000000   18.4675998688000007
   Nb   Ir   Se   O 
    18     2    40     1
Selective dynamics
Direct
  0.0833087354573223  0.1792155091328382  0.5042305591342000   F   F   F
  0.0085149220709155  0.9802647302672582  0.4980655841746398   F   F   F
  0.3869746114730432  0.8026871981247581  0.4992986044488887   F   F   F
  0.2902339241854719  0.6245303241744935  0.5008532631633997   F   F   F
  0.2467488140306600  0.9844835502113796  0.4998124212027903   F   F   F
  0.1916474867672591  0.4345534778126705  0.5019550537333473   F   F   F
  0.1476291370919327  0.8047163694231116  0.4995901726747078   F   F   F
  0.0523396557529523  0.6237189262052922  0.5004525360236869   F   F   F
  0.4444839375303005  0.3837500525336281  0.5008479791046625   F   F   F
  0.5863153129383889  0.1847388567780541  0.5044256751774370   F   F   F
  0.5038574055176497  0.9778775898522838  0.4949319932147844   F   F   F
  0.9143860059104085  0.8028097475321161  0.4995620823761016   F   F   F
  0.8026753985532409  0.6242992659926969  0.5024666089152987   F   F   F
  0.7564957569380013  0.9830363365864230  0.4973972094285273   F   F   F
  0.6908350648244266  0.4253674057983048  0.5099142846761922   F   F   F
  0.6557739625148358  0.8048504351417236  0.4997376230974169   F   F   F
  0.5434198620152557  0.6252565086444548  0.5021916711013148   F   F   F
  0.9476416707110147  0.3827885086133307  0.5008082656909991   F   F   F
  0.3705172335801237  0.2101759545272799  0.4990478409889079   F   F   F
  0.8691752129424017  0.2112734896283328  0.5005236575318506   F   F   F
  0.4696940852129146  0.2664532153863064  0.5994691805952286   F   F   F
  0.0898822347480319  0.3325367933773506  0.4204398540600636   F   F   F
  0.3689666967885543  0.0709885227475837  0.5749195464938808   F   F   F
  0.4870425919473931  0.1288053291979594  0.4071547574427186   F   F   F
  0.2659773833406334  0.8674255849868757  0.5979124852873596   F   F   F
  0.2198047582429581  0.2715134298032851  0.5663093298857476   F   F   F
  0.3790500723843522  0.9342463803462948  0.4032537903247544   F   F   F
  0.3296325761166798  0.3375886985315972  0.4108688051674179   F   F   F
  0.1649395276510077  0.6767549261674048  0.5987166529932324   F   F   F
  0.1160126467512654  0.0585084318704645  0.5952742022894952   F   F   F
  0.2412701969501470  0.1397814868773040  0.4258419525736912   F   F   F
  0.2804255008308800  0.7406887909084645  0.4015155797734380   F   F   F
  0.0627832236769947  0.4774021238548656  0.5903997442591944   F   F   F
  0.0190109877748412  0.8666387371611251  0.5991305573459584   F   F   F
  0.1810731041843994  0.5489406009715481  0.4043474265457547   F   F   F
  0.1352884192012169  0.9336152387627763  0.4002189266941087   F   F   F
  0.4119295668256058  0.6738062447816731  0.5964795416750022   F   F   F
  0.0351051311316297  0.7399781035573199  0.4005963012975826   F   F   F
  0.3173159396894931  0.4761613863913396  0.5887947564558402   F   F   F
  0.4318168952525596  0.5365899819221838  0.4237585033681910   F   F   F
  0.9729265135733769  0.2657116897686365  0.5997446881268047   F   F   F
  0.5858455928979751  0.3374921004835940  0.4188918352197817   F   F   F
  0.8682277923825623  0.0717064014528788  0.5766013492620274   F   F   F
  0.9815191827352265  0.1277499333281611  0.4075986149334057   F   F   F
  0.7723798773493442  0.8658579359337466  0.5939546077469799   F   F   F
  0.7224492852647586  0.2676501298036769  0.5755256873606953   F   F   F
  0.8865577259222732  0.9329871121018130  0.4028067933991863   F   F   F
  0.8296583600089704  0.3378658587083621  0.4123295563377383   F   F   F
  0.6670171176458837  0.6731985619188450  0.5951373447876307   F   F   F
  0.6150531850375245  0.0568809565510335  0.5894346233838093   F   F   F
  0.7420893290748865  0.1413916146270111  0.4255668404848549   F   F   F
  0.7873157987671533  0.7411349811018155  0.4059378654164831   F   F   F
  0.5589181949791708  0.4760787223958189  0.5929753981287789   F   F   F
  0.5157767622721749  0.8627862658048713  0.5917552147676801   F   F   F
  0.6814338647832372  0.5441029905821608  0.4143633826045487   F   F   F
  0.6372452872519148  0.9353330611957063  0.4014880021728757   F   F   F
  0.9197176691622246  0.6742084511443096  0.5970869250436834   F   F   F
  0.5307300386072811  0.7430736560468389  0.4075711725695754   F   F   F
  0.8223765326417549  0.4745632502776402  0.5895971455591962   F   F   F
  0.9334138840904416  0.5350095004340929  0.4224759785663892   F   F   F
  0.2338022080446933  0.2648288937548103  0.6560799734175697   T   T   T
 
  0.00000000E+00  0.00000000E+00  0.00000000E+00
  0.00000000E+00  0.00000000E+00  0.00000000E+00
  0.00000000E+00  0.00000000E+00  0.00000000E+00
  0.00000000E+00  0.00000000E+00  0.00000000E+00
  0.00000000E+00  0.00000000E+00  0.00000000E+00
  0.00000000E+00  0.00000000E+00  0.00000000E+00
  0.00000000E+00  0.00000000E+00  0.00000000E+00
  0.00000000E+00  0.00000000E+00  0.00000000E+00
  0.00000000E+00  0.00000000E+00  0.00000000E+00
  0.00000000E+00  0.00000000E+00  0.00000000E+00
  0.00000000E+00  0.00000000E+00  0.00000000E+00
  0.00000000E+00  0.00000000E+00  0.00000000E+00
  0.00000000E+00  0.00000000E+00  0.00000000E+00
  0.00000000E+00  0.00000000E+00  0.00000000E+00
  0.00000000E+00  0.00000000E+00  0.00000000E+00
  0.00000000E+00  0.00000000E+00  0.00000000E+00
  0.00000000E+00  0.00000000E+00  0.00000000E+00
  0.00000000E+00  0.00000000E+00  0.00000000E+00
  0.00000000E+00  0.00000000E+00  0.00000000E+00
  0.00000000E+00  0.00000000E+00  0.00000000E+00
  0.00000000E+00  0.00000000E+00  0.00000000E+00
  0.00000000E+00  0.00000000E+00  0.00000000E+00
  0.00000000E+00  0.00000000E+00  0.00000000E+00
  0.00000000E+00  0.00000000E+00  0.00000000E+00
  0.00000000E+00  0.00000000E+00  0.00000000E+00
  0.00000000E+00  0.00000000E+00  0.00000000E+00
  0.00000000E+00  0.00000000E+00  0.00000000E+00
  0.00000000E+00  0.00000000E+00  0.00000000E+00
  0.00000000E+00  0.00000000E+00  0.00000000E+00
  0.00000000E+00  0.00000000E+00  0.00000000E+00
  0.00000000E+00  0.00000000E+00  0.00000000E+00
  0.00000000E+00  0.00000000E+00  0.00000000E+00
  0.00000000E+00  0.00000000E+00  0.00000000E+00
  0.00000000E+00  0.00000000E+00  0.00000000E+00
  0.00000000E+00  0.00000000E+00  0.00000000E+00
  0.00000000E+00  0.00000000E+00  0.00000000E+00
  0.00000000E+00  0.00000000E+00  0.00000000E+00
  0.00000000E+00  0.00000000E+00  0.00000000E+00
  0.00000000E+00  0.00000000E+00  0.00000000E+00
  0.00000000E+00  0.00000000E+00  0.00000000E+00
  0.00000000E+00  0.00000000E+00  0.00000000E+00
  0.00000000E+00  0.00000000E+00  0.00000000E+00
  0.00000000E+00  0.00000000E+00  0.00000000E+00
  0.00000000E+00  0.00000000E+00  0.00000000E+00
  0.00000000E+00  0.00000000E+00  0.00000000E+00
  0.00000000E+00  0.00000000E+00  0.00000000E+00
  0.00000000E+00  0.00000000E+00  0.00000000E+00
  0.00000000E+00  0.00000000E+00  0.00000000E+00
  0.00000000E+00  0.00000000E+00  0.00000000E+00
  0.00000000E+00  0.00000000E+00  0.00000000E+00
  0.00000000E+00  0.00000000E+00  0.00000000E+00
  0.00000000E+00  0.00000000E+00  0.00000000E+00
  0.00000000E+00  0.00000000E+00  0.00000000E+00
  0.00000000E+00  0.00000000E+00  0.00000000E+00
  0.00000000E+00  0.00000000E+00  0.00000000E+00
  0.00000000E+00  0.00000000E+00  0.00000000E+00
  0.00000000E+00  0.00000000E+00  0.00000000E+00
  0.00000000E+00  0.00000000E+00  0.00000000E+00
  0.00000000E+00  0.00000000E+00  0.00000000E+00
  0.00000000E+00  0.00000000E+00  0.00000000E+00
  0.00000000E+00  0.00000000E+00  0.00000000E+00
