CONTCAR                                 
   1.00000000000000     
    11.9881000519000001    0.0000000000000000    0.0000000000000000
    -5.9940500259000000   10.3819991880000000    0.0000000000000000
     0.0000000000000000    0.0000000000000000   19.4675998688000007
   Ti   C    O    H 
    32    16    32     1
Selective dynamics
Direct
  0.1668714762328349  0.0831033075340741  0.5676669082601506   F   F   F
  0.0836144662683296  0.1663553582788495  0.4337910360959256   F   F   F
  0.4161591394610511  0.0830969274691782  0.5676619824931990   F   F   F
  0.3331482929076941  0.1663668060615038  0.4334537863269219   F   F   F
  0.6662378826378230  0.0840391724676550  0.5680392973197570   F   F   F
  0.5826569214988098  0.1663510141799449  0.4337897400056718   F   F   F
  0.9177280599765041  0.0840485620470943  0.5680379052572917   F   F   F
  0.8336078873546882  0.1673080392277058  0.4337051227792372   F   F   F
  0.1659248550874324  0.3322438262577094  0.5680312101431397   F   F   F
  0.0826551953086962  0.4163539251796919  0.4336964392664697   F   F   F
  0.4169227159784015  0.3339489799863884  0.5674733462460324   F   F   F
  0.3328382522367761  0.4161166952357789  0.4322612438162636   F   F   F
  0.6662407528805758  0.3322328905436862  0.5680464542660317   F   F   F
  0.5832098099717129  0.4161238139927121  0.4322901840465292   F   F   F
  0.9166275576311378  0.3333361681326110  0.5682477264424435   F   F   F
  0.8336112277954939  0.4163480715901215  0.4337147648145034   F   F   F
  0.1659288312174994  0.5837260509959705  0.5680318125738850   F   F   F
  0.0836166871416921  0.6673070396756273  0.4337914275866623   F   F   F
  0.4094760650844123  0.5797629640240416  0.5637368710843518   F   F   F
  0.3328392560474995  0.6667606317151638  0.4322582239146229   F   F   F
  0.6702029633273128  0.5797498685311382  0.5637925155528691   F   F   F
  0.5833005563353666  0.6666689056582129  0.4336875498155237   F   F   F
  0.9177312236056281  0.5837206388895098  0.5680441697592826   F   F   F
  0.8338480103196346  0.6667618881043254  0.4322898971939821   F   F   F
  0.1668687623357172  0.8338046904721352  0.5676683314769733   F   F   F
  0.0836070684012284  0.9168231259465998  0.4334624003283807   F   F   F
  0.4169277064865469  0.8330245553917379  0.5674671271036402   F   F   F
  0.3331477679101482  0.9168263092892488  0.4334513457036877   F   F   F
  0.6701961069179418  0.8404893193271334  0.5637559220964405   F   F   F
  0.5832095509886912  0.9171268592860358  0.4322691570503139   F   F   F
  0.9160159102527388  0.8330367270362444  0.5674798492478175   F   F   F
  0.8338516820578832  0.9171280671260220  0.4322724275268968   F   F   F
  0.0000487803033948  0.0000984491850176  0.5003903012137840   F   F   F
  0.2499660023346166  0.0000010016967309  0.5005399479752271   F   F   F
  0.4999786363893151  0.0000966521628030  0.5003834657553483   F   F   F
  0.7499698123000016  0.0000092262513718  0.5005675113078283   F   F   F
  0.0000062309076867  0.2499671089715321  0.5009259229140213   F   F   F
  0.2498748331733367  0.2499259291853235  0.5003838836514589   F   F   F
  0.4999813898504613  0.2499155523976526  0.5003904056121300   F   F   F
  0.7498884275540618  0.2499619655534744  0.5009344776042752   F   F   F
  0.0000049382440892  0.5000725680982185  0.5009281937401298   F   F   F
  0.2499510860832146  0.4999945689835741  0.5005523169815049   F   F   F
  0.5004594442285821  0.5009828748988241  0.5005760194397340   F   F   F
  0.7499631716331621  0.5000064273335241  0.5005860152893220   F   F   F
  0.0000550775837738  0.7499893874675081  0.5003928650576768   F   F   F
  0.2498753288426130  0.7499893910870767  0.5003807635926734   F   F   F
  0.5004563996073585  0.7495147861852374  0.5005598061859544   F   F   F
  0.7489859392649549  0.7495134258565486  0.5005882468498868   F   F   F
  0.0834573271889383  0.1665223742159299  0.6158858727160492   F   F   F
  0.1666747588168178  0.0832929094775352  0.3855865165905286   F   F   F
  0.3333553435676961  0.1667822688237237  0.6153125461895996   F   F   F
  0.4165593322752414  0.0833028450032742  0.3855821795894556   F   F   F
  0.5829943438971057  0.1665105366133588  0.6158980001249148   F   F   F
  0.6671562314419504  0.0835934131791873  0.3857021095264486   F   F   F
  0.8332508020251268  0.1665692129924849  0.6157246144338586   F   F   F
  0.9163646704667343  0.0835866400385754  0.3857064498886658   F   F   F
  0.0834029203021345  0.4167198963089405  0.6157175184697437   F   F   F
  0.1663733449645193  0.3335937057039544  0.3857006109396579   F   F   F
  0.3337818351459205  0.4173373555569242  0.6152956179143700   F   F   F
  0.4169159149957409  0.3339024770761867  0.3854470388329005   F   F   F
  0.5834654066440947  0.4173179439472676  0.6153095746790385   F   F   F
  0.6671514358794681  0.3336043849955814  0.3857102314698011   F   F   F
  0.8332526414400903  0.4167159787218679  0.6157312862349755   F   F   F
  0.9166252642596433  0.3333376016870204  0.3856196632665529   F   F   F
  0.0834606919384129  0.6669702815964627  0.6158936872067144   F   F   F
  0.1663719749312449  0.5828147498722416  0.3856978633056158   F   F   F
  0.3337895783526079  0.6664910632754157  0.6152926550267637   F   F   F
  0.4162778393708493  0.5831562441074638  0.3850829013355437   F   F   F
  0.5831904963440167  0.6666799055674915  0.6233543438262856   F   F   F
  0.6668274572115820  0.5831530107350673  0.3850981052587841   F   F   F
  0.8326489599149909  0.6664971421512789  0.6153088528335005   F   F   F
  0.9163617291197355  0.5828219978268763  0.3857111010129373   F   F   F
  0.0831873374330669  0.9166133283785953  0.6153161490750136   F   F   F
  0.1666671845371397  0.8334135277730539  0.3855849248775129   F   F   F
  0.3333559563197284  0.9166108474868579  0.6153108204501763   F   F   F
  0.4169150031421154  0.8330541974467991  0.3854373475421582   F   F   F
  0.5834730283499354  0.9161813782546631  0.6152994717043754   F   F   F
  0.6668211886200410  0.8336969474770726  0.3850893030923146   F   F   F
  0.8326366775315321  0.9161933545175813  0.6153027037839678   F   F   F
  0.9160684215387462  0.8330554662472949  0.3854549820563946   F   F   F
  0.5827967280744915  0.6667165559757536  0.6726679309714306   T   T   T
 
  0.00000000E+00  0.00000000E+00  0.00000000E+00
  0.00000000E+00  0.00000000E+00  0.00000000E+00
  0.00000000E+00  0.00000000E+00  0.00000000E+00
  0.00000000E+00  0.00000000E+00  0.00000000E+00
  0.00000000E+00  0.00000000E+00  0.00000000E+00
  0.00000000E+00  0.00000000E+00  0.00000000E+00
  0.00000000E+00  0.00000000E+00  0.00000000E+00
  0.00000000E+00  0.00000000E+00  0.00000000E+00
  0.00000000E+00  0.00000000E+00  0.00000000E+00
  0.00000000E+00  0.00000000E+00  0.00000000E+00
  0.00000000E+00  0.00000000E+00  0.00000000E+00
  0.00000000E+00  0.00000000E+00  0.00000000E+00
  0.00000000E+00  0.00000000E+00  0.00000000E+00
  0.00000000E+00  0.00000000E+00  0.00000000E+00
  0.00000000E+00  0.00000000E+00  0.00000000E+00
  0.00000000E+00  0.00000000E+00  0.00000000E+00
  0.00000000E+00  0.00000000E+00  0.00000000E+00
  0.00000000E+00  0.00000000E+00  0.00000000E+00
  0.00000000E+00  0.00000000E+00  0.00000000E+00
  0.00000000E+00  0.00000000E+00  0.00000000E+00
  0.00000000E+00  0.00000000E+00  0.00000000E+00
  0.00000000E+00  0.00000000E+00  0.00000000E+00
  0.00000000E+00  0.00000000E+00  0.00000000E+00
  0.00000000E+00  0.00000000E+00  0.00000000E+00
  0.00000000E+00  0.00000000E+00  0.00000000E+00
  0.00000000E+00  0.00000000E+00  0.00000000E+00
  0.00000000E+00  0.00000000E+00  0.00000000E+00
  0.00000000E+00  0.00000000E+00  0.00000000E+00
  0.00000000E+00  0.00000000E+00  0.00000000E+00
  0.00000000E+00  0.00000000E+00  0.00000000E+00
  0.00000000E+00  0.00000000E+00  0.00000000E+00
  0.00000000E+00  0.00000000E+00  0.00000000E+00
  0.00000000E+00  0.00000000E+00  0.00000000E+00
  0.00000000E+00  0.00000000E+00  0.00000000E+00
  0.00000000E+00  0.00000000E+00  0.00000000E+00
  0.00000000E+00  0.00000000E+00  0.00000000E+00
  0.00000000E+00  0.00000000E+00  0.00000000E+00
  0.00000000E+00  0.00000000E+00  0.00000000E+00
  0.00000000E+00  0.00000000E+00  0.00000000E+00
  0.00000000E+00  0.00000000E+00  0.00000000E+00
  0.00000000E+00  0.00000000E+00  0.00000000E+00
  0.00000000E+00  0.00000000E+00  0.00000000E+00
  0.00000000E+00  0.00000000E+00  0.00000000E+00
  0.00000000E+00  0.00000000E+00  0.00000000E+00
  0.00000000E+00  0.00000000E+00  0.00000000E+00
  0.00000000E+00  0.00000000E+00  0.00000000E+00
  0.00000000E+00  0.00000000E+00  0.00000000E+00
  0.00000000E+00  0.00000000E+00  0.00000000E+00
  0.00000000E+00  0.00000000E+00  0.00000000E+00
  0.00000000E+00  0.00000000E+00  0.00000000E+00
  0.00000000E+00  0.00000000E+00  0.00000000E+00
  0.00000000E+00  0.00000000E+00  0.00000000E+00
  0.00000000E+00  0.00000000E+00  0.00000000E+00
  0.00000000E+00  0.00000000E+00  0.00000000E+00
  0.00000000E+00  0.00000000E+00  0.00000000E+00
  0.00000000E+00  0.00000000E+00  0.00000000E+00
  0.00000000E+00  0.00000000E+00  0.00000000E+00
  0.00000000E+00  0.00000000E+00  0.00000000E+00
  0.00000000E+00  0.00000000E+00  0.00000000E+00
  0.00000000E+00  0.00000000E+00  0.00000000E+00
  0.00000000E+00  0.00000000E+00  0.00000000E+00
  0.00000000E+00  0.00000000E+00  0.00000000E+00
  0.00000000E+00  0.00000000E+00  0.00000000E+00
  0.00000000E+00  0.00000000E+00  0.00000000E+00
  0.00000000E+00  0.00000000E+00  0.00000000E+00
  0.00000000E+00  0.00000000E+00  0.00000000E+00
  0.00000000E+00  0.00000000E+00  0.00000000E+00
  0.00000000E+00  0.00000000E+00  0.00000000E+00
  0.00000000E+00  0.00000000E+00  0.00000000E+00
  0.00000000E+00  0.00000000E+00  0.00000000E+00
  0.00000000E+00  0.00000000E+00  0.00000000E+00
  0.00000000E+00  0.00000000E+00  0.00000000E+00
  0.00000000E+00  0.00000000E+00  0.00000000E+00
  0.00000000E+00  0.00000000E+00  0.00000000E+00
  0.00000000E+00  0.00000000E+00  0.00000000E+00
  0.00000000E+00  0.00000000E+00  0.00000000E+00
  0.00000000E+00  0.00000000E+00  0.00000000E+00
  0.00000000E+00  0.00000000E+00  0.00000000E+00
  0.00000000E+00  0.00000000E+00  0.00000000E+00
  0.00000000E+00  0.00000000E+00  0.00000000E+00
  0.00000000E+00  0.00000000E+00  0.00000000E+00
