CONTCAR\(2)                             
   1.00000000000000     
    11.7923002242999999    0.0000000000000000    0.0000000000000000
     0.0000000000000000   21.3097991942999982    0.0000000000000000
     0.0000000000000000    0.0000000000000000   18.7763004303000010
   V    Ag   P    S    O 
     8     8    16    48     1
Direct
  0.1011064237411126  0.4664672973653178  0.4952983358485143
  0.3970275777724232  0.0332732863386214  0.5058352862463794
  0.6014684146959696  0.4659280437403972  0.4947082413718853
  0.8970329131073065  0.0327634713645338  0.5057750284904403
  0.1016422054195060  0.9657192147235001  0.4985282507339858
  0.3959307149639257  0.5340004293438647  0.5013467567336158
  0.6016308173177913  0.9661859523067765  0.4988616819882630
  0.8964514349255196  0.5331272203676539  0.5009777529626359
  0.3700813200873629  0.2247197140252509  0.4701697214798609
  0.1280310872017263  0.2752380494839198  0.5343121043315541
  0.8705378163583154  0.2244465843211177  0.4702979988321577
  0.6274087921763002  0.2750298764470159  0.5349940340873842
  0.3676174974040912  0.7245885758173046  0.4713726163438704
  0.1282486679009331  0.7760501521585415  0.5282333730755104
  0.8716626798071668  0.7251362313250644  0.4619460924841324
  0.6253740414392644  0.7765662788610836  0.5233980678077917
  0.1271114350819246  0.1176810865602602  0.5736476601264230
  0.3579885660046537  0.3712848882110572  0.5474743477689813
  0.3704698237844783  0.3809648115421199  0.4286765810137531
  0.1397074497935170  0.1289659499927097  0.4550902449312585
  0.6272765301187583  0.1178771799898669  0.5739732623949144
  0.8579583245439455  0.3706829963564288  0.5471662922066155
  0.8709525047466965  0.3806321205092392  0.4283462775410088
  0.6400238045517520  0.1291069424285362  0.4554121660413537
  0.1255746301171702  0.6192200926677902  0.5684181227719051
  0.3588276016349445  0.8699095987703643  0.5493644334922898
  0.3711958596876499  0.8815128552693654  0.4307778774247742
  0.1391868844322447  0.6292688201412939  0.4496983945001659
  0.6247900288895963  0.6172859274609174  0.5670104861936146
  0.8574521848752232  0.8690030612068532  0.5466930336586955
  0.8707761210966400  0.8822385673909231  0.4284877843538564
  0.6398560514876718  0.6293448559498410  0.4490878071697992
  0.4537628517828078  0.4527456255438592  0.5767163360739535
  0.2987825096735984  0.3097273697762613  0.3801597354269528
  0.4560573192983648  0.1065567838431218  0.5908622127886163
  0.3068522223639314  0.1162017100286671  0.4291874937413722
  0.0776557997535384  0.2092790880291724  0.4178950099455405
  0.1911527487743740  0.3844923582489680  0.5735110844949095
  0.0422168512500929  0.3919242899160473  0.4114405246446663
  0.2875773426941635  0.4683174997455761  0.4204316086598531
  0.0444435280656590  0.0478343176268740  0.4242443912761852
  0.2108480331844444  0.0307204935853776  0.5807020040479360
  0.1972658943249915  0.1889839485489504  0.6230325618594044
  0.4196319042532154  0.2912575665962544  0.5859342205001096
  0.9534004191140393  0.4521804148673459  0.5767951488921127
  0.7999825331168092  0.3093105900083697  0.3797301404428403
  0.9561169317472323  0.1056096291267532  0.5910928767821262
  0.8070156258285277  0.1161699019834528  0.4293056976287027
  0.5779595230022657  0.2095134886908647  0.4184440965684463
  0.6911814622422440  0.3841010019989558  0.5733894369231295
  0.5416398698601571  0.3913996645219260  0.4113173015243212
  0.7873127883653125  0.4676779407837046  0.4198004679048612
  0.5445237292371788  0.0480887085256203  0.4244006058897792
  0.7109152691540682  0.0306845728439922  0.5809877677907923
  0.6981408548141016  0.1889469073747348  0.6234000223950434
  0.9200389348220404  0.2908192809569991  0.5856876570301794
  0.4540817053449445  0.9512255718607370  0.5800997224192218
  0.3011106187681858  0.8103846525714226  0.3809157487103176
  0.4567761886875937  0.6092943077045829  0.5880094232259916
  0.3067887313985699  0.6166878267619721  0.4247424436511731
  0.0786815593331393  0.7094663544876688  0.4110599087636398
  0.1917477490211962  0.8827401157842693  0.5755086593284101
  0.0422873642601439  0.8931035186376516  0.4124242199181501
  0.2877596437475895  0.9684202704908810  0.4234347258301761
  0.0442692653334984  0.5476381973262485  0.4196077889489790
  0.2092858774505119  0.5324025893932832  0.5770192547760867
  0.1968866666363994  0.6901467636062543  0.6177312595122305
  0.4222210890621864  0.7901202025219136  0.5870228390121333
  0.9536393717836236  0.9496195230076939  0.5791433191151176
  0.7997345152942833  0.8124503304324536  0.3765584932307911
  0.9540955715893703  0.6075392329516476  0.5855444486760206
  0.8071177835854519  0.6166719386741761  0.4238782017139844
  0.5741087337507610  0.7087287449636465  0.4117045935762857
  0.6915207905773205  0.8820811278483249  0.5745956066446952
  0.5420289577658877  0.8929590670553158  0.4132782891896876
  0.7872511622173437  0.9690617665930618  0.4227195965013974
  0.5440244289956088  0.5473424981542897  0.4199909151117274
  0.7114369874278041  0.5316128270539684  0.5767504444712979
  0.6892683913057869  0.6981917656965131  0.6276271437372025
  0.9189870155668449  0.7871108643543064  0.5805547562841021
  0.6064447282071946  0.7094162034582953  0.6872698620118874
 
  0.00000000E+00  0.00000000E+00  0.00000000E+00
  0.00000000E+00  0.00000000E+00  0.00000000E+00
  0.00000000E+00  0.00000000E+00  0.00000000E+00
  0.00000000E+00  0.00000000E+00  0.00000000E+00
  0.00000000E+00  0.00000000E+00  0.00000000E+00
  0.00000000E+00  0.00000000E+00  0.00000000E+00
  0.00000000E+00  0.00000000E+00  0.00000000E+00
  0.00000000E+00  0.00000000E+00  0.00000000E+00
  0.00000000E+00  0.00000000E+00  0.00000000E+00
  0.00000000E+00  0.00000000E+00  0.00000000E+00
  0.00000000E+00  0.00000000E+00  0.00000000E+00
  0.00000000E+00  0.00000000E+00  0.00000000E+00
  0.00000000E+00  0.00000000E+00  0.00000000E+00
  0.00000000E+00  0.00000000E+00  0.00000000E+00
  0.00000000E+00  0.00000000E+00  0.00000000E+00
  0.00000000E+00  0.00000000E+00  0.00000000E+00
  0.00000000E+00  0.00000000E+00  0.00000000E+00
  0.00000000E+00  0.00000000E+00  0.00000000E+00
  0.00000000E+00  0.00000000E+00  0.00000000E+00
  0.00000000E+00  0.00000000E+00  0.00000000E+00
  0.00000000E+00  0.00000000E+00  0.00000000E+00
  0.00000000E+00  0.00000000E+00  0.00000000E+00
  0.00000000E+00  0.00000000E+00  0.00000000E+00
  0.00000000E+00  0.00000000E+00  0.00000000E+00
  0.00000000E+00  0.00000000E+00  0.00000000E+00
  0.00000000E+00  0.00000000E+00  0.00000000E+00
  0.00000000E+00  0.00000000E+00  0.00000000E+00
  0.00000000E+00  0.00000000E+00  0.00000000E+00
  0.00000000E+00  0.00000000E+00  0.00000000E+00
  0.00000000E+00  0.00000000E+00  0.00000000E+00
  0.00000000E+00  0.00000000E+00  0.00000000E+00
  0.00000000E+00  0.00000000E+00  0.00000000E+00
  0.00000000E+00  0.00000000E+00  0.00000000E+00
  0.00000000E+00  0.00000000E+00  0.00000000E+00
  0.00000000E+00  0.00000000E+00  0.00000000E+00
  0.00000000E+00  0.00000000E+00  0.00000000E+00
  0.00000000E+00  0.00000000E+00  0.00000000E+00
  0.00000000E+00  0.00000000E+00  0.00000000E+00
  0.00000000E+00  0.00000000E+00  0.00000000E+00
  0.00000000E+00  0.00000000E+00  0.00000000E+00
  0.00000000E+00  0.00000000E+00  0.00000000E+00
  0.00000000E+00  0.00000000E+00  0.00000000E+00
  0.00000000E+00  0.00000000E+00  0.00000000E+00
  0.00000000E+00  0.00000000E+00  0.00000000E+00
  0.00000000E+00  0.00000000E+00  0.00000000E+00
  0.00000000E+00  0.00000000E+00  0.00000000E+00
  0.00000000E+00  0.00000000E+00  0.00000000E+00
  0.00000000E+00  0.00000000E+00  0.00000000E+00
  0.00000000E+00  0.00000000E+00  0.00000000E+00
  0.00000000E+00  0.00000000E+00  0.00000000E+00
  0.00000000E+00  0.00000000E+00  0.00000000E+00
  0.00000000E+00  0.00000000E+00  0.00000000E+00
  0.00000000E+00  0.00000000E+00  0.00000000E+00
  0.00000000E+00  0.00000000E+00  0.00000000E+00
  0.00000000E+00  0.00000000E+00  0.00000000E+00
  0.00000000E+00  0.00000000E+00  0.00000000E+00
  0.00000000E+00  0.00000000E+00  0.00000000E+00
  0.00000000E+00  0.00000000E+00  0.00000000E+00
  0.00000000E+00  0.00000000E+00  0.00000000E+00
  0.00000000E+00  0.00000000E+00  0.00000000E+00
  0.00000000E+00  0.00000000E+00  0.00000000E+00
  0.00000000E+00  0.00000000E+00  0.00000000E+00
  0.00000000E+00  0.00000000E+00  0.00000000E+00
  0.00000000E+00  0.00000000E+00  0.00000000E+00
  0.00000000E+00  0.00000000E+00  0.00000000E+00
  0.00000000E+00  0.00000000E+00  0.00000000E+00
  0.00000000E+00  0.00000000E+00  0.00000000E+00
  0.00000000E+00  0.00000000E+00  0.00000000E+00
  0.00000000E+00  0.00000000E+00  0.00000000E+00
  0.00000000E+00  0.00000000E+00  0.00000000E+00
  0.00000000E+00  0.00000000E+00  0.00000000E+00
  0.00000000E+00  0.00000000E+00  0.00000000E+00
  0.00000000E+00  0.00000000E+00  0.00000000E+00
  0.00000000E+00  0.00000000E+00  0.00000000E+00
  0.00000000E+00  0.00000000E+00  0.00000000E+00
  0.00000000E+00  0.00000000E+00  0.00000000E+00
  0.00000000E+00  0.00000000E+00  0.00000000E+00
  0.00000000E+00  0.00000000E+00  0.00000000E+00
  0.00000000E+00  0.00000000E+00  0.00000000E+00
  0.00000000E+00  0.00000000E+00  0.00000000E+00
  0.00000000E+00  0.00000000E+00  0.00000000E+00
