CONTCAR\(8)                             
   1.00000000000000     
    10.2070999146000005    0.0000000000000000    0.0000000000000000
    -1.7011927660999999   18.1179073708000011    0.0000000000000000
     0.0000000000000000    0.0000000000000000   20.2910003661999987
   Ta   Co   Pd   Se   O 
    12     6     3    36     1
Direct
  0.0240456556385971  0.1514322601412701  0.4641999895169843
  0.3085746451842480  0.8493921935704423  0.5320255396354135
  0.0665547471775387  0.4081813804498722  0.4767926525250947
  0.2645331628437666  0.5946328202591358  0.5350882613313499
  0.3566620287892292  0.1409391603125035  0.4610934135806505
  0.6421829946937222  0.8496911283622657  0.5319474181468561
  0.3998832326095172  0.4083873865286434  0.4893422359022480
  0.6009595888434374  0.5945078373685097  0.5349786419227621
  0.6927867120197415  0.1513282151297551  0.4641151632823801
  0.9756977514807301  0.8496599775233520  0.5318687587745118
  0.7336887790511408  0.4082641549615442  0.4767932097395622
  0.9326624989583632  0.5935324892773346  0.5337856283636968
  0.2084496951676044  0.2842951525650027  0.4409364643865533
  0.1195393560818262  0.7174536604889892  0.5617038759884903
  0.5531006847196047  0.2846210014523481  0.4408549229527118
  0.4534870831835798  0.7172233007784220  0.5619758166806128
  0.8807186190102605  0.2854475604296373  0.4422162764719665
  0.7867715336331135  0.7172875193249529  0.5618176293863596
  0.1631409233603905  0.9977687839428099  0.4956854907708392
  0.5030016073307736  0.9976081694793476  0.4956814782963613
  0.8336000488679224  0.0006299913565408  0.4963153788831414
  0.1850674979040876  0.1146278624690029  0.5560182693299494
  0.1473442393614878  0.8788198628277522  0.4377882230297321
  0.0997957643114875  0.6089512846634266  0.6277396059982305
  0.2400575420334596  0.4004190803662847  0.3882143308709270
  0.2339842847659396  0.4535674380819247  0.5718119655989057
  0.0920197831449998  0.5529875916892547  0.4430809659917520
  0.0361969194439527  0.2412435670992236  0.3685813458822892
  0.2944779816731095  0.7658012360247234  0.6313007270196079
  0.1723693618526901  0.0709248764774765  0.3927000667587350
  0.1551002789081462  0.9274824393234335  0.5996974777988825
  0.0465167777162032  0.2787325551952782  0.5264698042196371
  0.2874668476681783  0.7189907139722642  0.4771944290482136
  0.5193725483802627  0.1145506225594517  0.5558983904261074
  0.4803209256144410  0.8785507230708753  0.4379117709074146
  0.4347493787056410  0.6082099294176776  0.6278342463857063
  0.5600447639272078  0.4006038675584569  0.3879738343523708
  0.5837378991592006  0.4531793576952385  0.5716292989784028
  0.4246658039977885  0.5495862040233935  0.4462326661271977
  0.3728111100650583  0.2377657129151347  0.3701694095402718
  0.6282695683444016  0.7660333846030020  0.6312752167836629
  0.5173343159599567  0.0707771001058407  0.3926897984833339
  0.4884250502895209  0.9272586809158131  0.5997158727785236
  0.3781892072161578  0.2688741250729567  0.5114354195479796
  0.6200679226920801  0.7190732410166568  0.4772943179482493
  0.8526264842520047  0.1178252113895054  0.5570551746447692
  0.8143568716263907  0.8812551546806449  0.4382881987346535
  0.7694889416358965  0.6086470394807726  0.6276987972653894
  0.8997527026472891  0.3988959608240132  0.3833082351915456
  0.9082280836033545  0.4487066897192937  0.5682253372209460
  0.7587847640312351  0.5531478364090122  0.4430248184231456
  0.7106230315361924  0.2413624631788179  0.3685289021640320
  0.9612800330446741  0.7661971115264256  0.6312605902848423
  0.8458879914006651  0.0756197605103772  0.3941082932919175
  0.8221680143601627  0.9281807672470924  0.5993817017706625
  0.7126908375024469  0.2786333504029624  0.5263301858132162
  0.9529967825563220  0.7190282843307647  0.4772832530347951
  0.3865481280227999  0.3329035064530909  0.5770312478153882
 
  0.00000000E+00  0.00000000E+00  0.00000000E+00
  0.00000000E+00  0.00000000E+00  0.00000000E+00
  0.00000000E+00  0.00000000E+00  0.00000000E+00
  0.00000000E+00  0.00000000E+00  0.00000000E+00
  0.00000000E+00  0.00000000E+00  0.00000000E+00
  0.00000000E+00  0.00000000E+00  0.00000000E+00
  0.00000000E+00  0.00000000E+00  0.00000000E+00
  0.00000000E+00  0.00000000E+00  0.00000000E+00
  0.00000000E+00  0.00000000E+00  0.00000000E+00
  0.00000000E+00  0.00000000E+00  0.00000000E+00
  0.00000000E+00  0.00000000E+00  0.00000000E+00
  0.00000000E+00  0.00000000E+00  0.00000000E+00
  0.00000000E+00  0.00000000E+00  0.00000000E+00
  0.00000000E+00  0.00000000E+00  0.00000000E+00
  0.00000000E+00  0.00000000E+00  0.00000000E+00
  0.00000000E+00  0.00000000E+00  0.00000000E+00
  0.00000000E+00  0.00000000E+00  0.00000000E+00
  0.00000000E+00  0.00000000E+00  0.00000000E+00
  0.00000000E+00  0.00000000E+00  0.00000000E+00
  0.00000000E+00  0.00000000E+00  0.00000000E+00
  0.00000000E+00  0.00000000E+00  0.00000000E+00
  0.00000000E+00  0.00000000E+00  0.00000000E+00
  0.00000000E+00  0.00000000E+00  0.00000000E+00
  0.00000000E+00  0.00000000E+00  0.00000000E+00
  0.00000000E+00  0.00000000E+00  0.00000000E+00
  0.00000000E+00  0.00000000E+00  0.00000000E+00
  0.00000000E+00  0.00000000E+00  0.00000000E+00
  0.00000000E+00  0.00000000E+00  0.00000000E+00
  0.00000000E+00  0.00000000E+00  0.00000000E+00
  0.00000000E+00  0.00000000E+00  0.00000000E+00
  0.00000000E+00  0.00000000E+00  0.00000000E+00
  0.00000000E+00  0.00000000E+00  0.00000000E+00
  0.00000000E+00  0.00000000E+00  0.00000000E+00
  0.00000000E+00  0.00000000E+00  0.00000000E+00
  0.00000000E+00  0.00000000E+00  0.00000000E+00
  0.00000000E+00  0.00000000E+00  0.00000000E+00
  0.00000000E+00  0.00000000E+00  0.00000000E+00
  0.00000000E+00  0.00000000E+00  0.00000000E+00
  0.00000000E+00  0.00000000E+00  0.00000000E+00
  0.00000000E+00  0.00000000E+00  0.00000000E+00
  0.00000000E+00  0.00000000E+00  0.00000000E+00
  0.00000000E+00  0.00000000E+00  0.00000000E+00
  0.00000000E+00  0.00000000E+00  0.00000000E+00
  0.00000000E+00  0.00000000E+00  0.00000000E+00
  0.00000000E+00  0.00000000E+00  0.00000000E+00
  0.00000000E+00  0.00000000E+00  0.00000000E+00
  0.00000000E+00  0.00000000E+00  0.00000000E+00
  0.00000000E+00  0.00000000E+00  0.00000000E+00
  0.00000000E+00  0.00000000E+00  0.00000000E+00
  0.00000000E+00  0.00000000E+00  0.00000000E+00
  0.00000000E+00  0.00000000E+00  0.00000000E+00
  0.00000000E+00  0.00000000E+00  0.00000000E+00
  0.00000000E+00  0.00000000E+00  0.00000000E+00
  0.00000000E+00  0.00000000E+00  0.00000000E+00
  0.00000000E+00  0.00000000E+00  0.00000000E+00
  0.00000000E+00  0.00000000E+00  0.00000000E+00
  0.00000000E+00  0.00000000E+00  0.00000000E+00
  0.00000000E+00  0.00000000E+00  0.00000000E+00
