Repeated-UnitCell:     2    1    1      
   1.00000000000000     
    12.0180108946770137    0.0000000000000000    0.0000000000000000
     2.7721802978325516    8.6914963577712658    0.0000000000000000
     0.0000000000000000    0.0000000000000000   18.4081236356679980
   Nb   Ir   Se
     8     2    20
Direct
  0.3278297065058154  0.8067186875851711  0.4998944219766269
  0.8278297065058154  0.8067186875851711  0.4998944219766269
  0.3717215502618179  0.4096618115376787  0.5011621418895293
  0.8717215502618179  0.4096618115376787  0.5011621418895293
  0.0453892554831284  0.0020017406288230  0.4988736646477284
  0.5453892554831284  0.0020017406288230  0.4988736646477284
  0.0890187520477642  0.6051426348981672  0.5000240415031832
  0.5890187520477642  0.6051426348981672  0.5000240415031832
  0.2086096206246302  0.2056931160049921  0.5000281428623814
  0.7086096206246302  0.2056931160049921  0.5000281428623814
  0.1900327302737542  0.0101501233242364  0.5947455460567083
  0.6900327302737542  0.0101501233242364  0.5947455460567083
  0.0405785837795687  0.2163617433952907  0.4138401134137099
  0.5405785837795687  0.2163617433952907  0.4138401134137099
  0.2656159001738579  0.6115461657754881  0.5893219466083333
  0.7656159001738578  0.6115461657754881  0.5893219466083333
  0.1513632382632303  0.8002676142218462  0.4106354791074616
  0.6513632382632303  0.8002676142218462  0.4106354791074616
  0.3765799902826280  0.1952089724783796  0.5862017516855651
  0.8765799902826280  0.1952089724783796  0.5862017516855651
  0.2271913863050572  0.4013609845812469  0.4053622592454345
  0.7271913863050572  0.4013609845812469  0.4053622592454345
  0.4829248876949875  0.8106837434365277  0.5932845545424394
  0.9829248876949875  0.8106837434365277  0.5932845545424394
  0.3510845141916525  0.0151114322376155  0.4165917928896467
  0.8510845141916525  0.0151114322376155  0.4165917928896467
  0.0661353947830673  0.3964960975528867  0.5833778440772498
  0.5661353947830673  0.3964960975528867  0.5833778440772498
  0.4340624893290401  0.6010101323416571  0.4066562994939881
  0.9340624893290401  0.6010101323416571  0.4066562994939881
 
  0.00000000E+00  0.00000000E+00  0.00000000E+00
  0.00000000E+00  0.00000000E+00  0.00000000E+00
  0.00000000E+00  0.00000000E+00  0.00000000E+00
  0.00000000E+00  0.00000000E+00  0.00000000E+00
  0.00000000E+00  0.00000000E+00  0.00000000E+00
  0.00000000E+00  0.00000000E+00  0.00000000E+00
  0.00000000E+00  0.00000000E+00  0.00000000E+00
  0.00000000E+00  0.00000000E+00  0.00000000E+00
  0.00000000E+00  0.00000000E+00  0.00000000E+00
  0.00000000E+00  0.00000000E+00  0.00000000E+00
  0.00000000E+00  0.00000000E+00  0.00000000E+00
  0.00000000E+00  0.00000000E+00  0.00000000E+00
  0.00000000E+00  0.00000000E+00  0.00000000E+00
  0.00000000E+00  0.00000000E+00  0.00000000E+00
  0.00000000E+00  0.00000000E+00  0.00000000E+00
  0.00000000E+00  0.00000000E+00  0.00000000E+00
  0.00000000E+00  0.00000000E+00  0.00000000E+00
  0.00000000E+00  0.00000000E+00  0.00000000E+00
  0.00000000E+00  0.00000000E+00  0.00000000E+00
  0.00000000E+00  0.00000000E+00  0.00000000E+00
  0.00000000E+00  0.00000000E+00  0.00000000E+00
  0.00000000E+00  0.00000000E+00  0.00000000E+00
  0.00000000E+00  0.00000000E+00  0.00000000E+00
  0.00000000E+00  0.00000000E+00  0.00000000E+00
  0.00000000E+00  0.00000000E+00  0.00000000E+00
  0.00000000E+00  0.00000000E+00  0.00000000E+00
  0.00000000E+00  0.00000000E+00  0.00000000E+00
  0.00000000E+00  0.00000000E+00  0.00000000E+00
  0.00000000E+00  0.00000000E+00  0.00000000E+00
  0.00000000E+00  0.00000000E+00  0.00000000E+00
