CONTCAR\(4)                             
   1.00000000000000     
    11.2482995986999992    0.0000000000000000    0.0000000000000000
     0.0000000000000000   13.7291002274000000    0.0000000000000000
     0.0000000000000000    0.0000000000000000   19.4125995636000006
   Zr   I 
    12    24
Direct
  0.0000000000000000  0.2461011514404277  0.5026194526471315
  0.1666699980000033  0.0574688455595691  0.4973805473528685
  0.3333300130000012  0.2461011514404277  0.5026194526471315
  0.5000000000000000  0.0574688455595691  0.4973805473528685
  0.6666700299999988  0.2461011514404277  0.5026194526471315
  0.8333300130000012  0.0574688455595691  0.4973805473528685
  0.0000000000000000  0.7461011864404341  0.5026194526471315
  0.1666699980000033  0.5574688325595716  0.4973805473528685
  0.3333300130000012  0.7461011864404341  0.5026194526471315
  0.5000000000000000  0.5574688325595716  0.4973805473528685
  0.6666700299999988  0.7461011864404341  0.5026194526471315
  0.8333300130000012  0.5574688325595716  0.4973805473528685
  0.0000000000000000  0.4413068717671678  0.5847291901248042
  0.0000000000000000  0.1113751919539610  0.3869375291500106
  0.1666699980000033  0.3622731152328313  0.4152707608751953
  0.1666699980000033  0.1921948000460389  0.6130624948499914
  0.3333300130000012  0.4413068717671678  0.5847291901248042
  0.3333300130000012  0.1113751919539610  0.3869375291500106
  0.5000000000000000  0.3622731152328313  0.4152707608751953
  0.5000000000000000  0.1921948000460389  0.6130624948499914
  0.6666700299999988  0.4413068717671678  0.5847291901248042
  0.6666700299999988  0.1113751919539610  0.3869375291500106
  0.8333300130000012  0.3622731152328313  0.4152707608751953
  0.8333300130000012  0.1921948000460389  0.6130624948499914
  0.0000000000000000  0.9413069057671635  0.5847291901248042
  0.0000000000000000  0.6113752179539631  0.3869375291500106
  0.1666699980000033  0.8622731842328335  0.4152707608751953
  0.1666699980000033  0.6921947660460432  0.6130624948499914
  0.3333300130000012  0.9413069057671635  0.5847291901248042
  0.3333300130000012  0.6113752179539631  0.3869375291500106
  0.5000000000000000  0.8622731842328335  0.4152707608751953
  0.5000000000000000  0.6921947660460432  0.6130624948499914
  0.6666700299999988  0.9413069057671635  0.5847291901248042
  0.6666700299999988  0.6113752179539631  0.3869375291500106
  0.8333300130000012  0.8622731842328335  0.4152707608751953
  0.8333300130000012  0.6921947660460432  0.6130624948499914
 
  0.00000000E+00  0.00000000E+00  0.00000000E+00
  0.00000000E+00  0.00000000E+00  0.00000000E+00
  0.00000000E+00  0.00000000E+00  0.00000000E+00
  0.00000000E+00  0.00000000E+00  0.00000000E+00
  0.00000000E+00  0.00000000E+00  0.00000000E+00
  0.00000000E+00  0.00000000E+00  0.00000000E+00
  0.00000000E+00  0.00000000E+00  0.00000000E+00
  0.00000000E+00  0.00000000E+00  0.00000000E+00
  0.00000000E+00  0.00000000E+00  0.00000000E+00
  0.00000000E+00  0.00000000E+00  0.00000000E+00
  0.00000000E+00  0.00000000E+00  0.00000000E+00
  0.00000000E+00  0.00000000E+00  0.00000000E+00
  0.00000000E+00  0.00000000E+00  0.00000000E+00
  0.00000000E+00  0.00000000E+00  0.00000000E+00
  0.00000000E+00  0.00000000E+00  0.00000000E+00
  0.00000000E+00  0.00000000E+00  0.00000000E+00
  0.00000000E+00  0.00000000E+00  0.00000000E+00
  0.00000000E+00  0.00000000E+00  0.00000000E+00
  0.00000000E+00  0.00000000E+00  0.00000000E+00
  0.00000000E+00  0.00000000E+00  0.00000000E+00
  0.00000000E+00  0.00000000E+00  0.00000000E+00
  0.00000000E+00  0.00000000E+00  0.00000000E+00
  0.00000000E+00  0.00000000E+00  0.00000000E+00
  0.00000000E+00  0.00000000E+00  0.00000000E+00
  0.00000000E+00  0.00000000E+00  0.00000000E+00
  0.00000000E+00  0.00000000E+00  0.00000000E+00
  0.00000000E+00  0.00000000E+00  0.00000000E+00
  0.00000000E+00  0.00000000E+00  0.00000000E+00
  0.00000000E+00  0.00000000E+00  0.00000000E+00
  0.00000000E+00  0.00000000E+00  0.00000000E+00
  0.00000000E+00  0.00000000E+00  0.00000000E+00
  0.00000000E+00  0.00000000E+00  0.00000000E+00
  0.00000000E+00  0.00000000E+00  0.00000000E+00
  0.00000000E+00  0.00000000E+00  0.00000000E+00
  0.00000000E+00  0.00000000E+00  0.00000000E+00
  0.00000000E+00  0.00000000E+00  0.00000000E+00
