 Os1 Cl2 O1                             
   1.00000000000000     
     3.5726827821274383    0.0000000000000000    0.0000000000000000
     0.0000000000000000    3.7156830452502754    0.0000000000000000
     0.0000000000000000    0.0000000000000000   18.2016103362560031
   Os   Cl   O 
     1     2     1
Direct
  0.0000000023713044 -0.0000000097154075  0.5000000000613295
  0.5000000078119903  0.9999841312757922  0.5879647511359826
  0.4999999846594757  0.0000158674491668  0.4120352490874021
  0.0000000051572296  0.5000000109904484  0.4999999997152856
 
  0.00000000E+00  0.00000000E+00  0.00000000E+00
  0.00000000E+00  0.00000000E+00  0.00000000E+00
  0.00000000E+00  0.00000000E+00  0.00000000E+00
  0.00000000E+00  0.00000000E+00  0.00000000E+00
