CONTCAR\(4)                             
   1.00000000000000     
    13.8964004516999999    0.0000000000000000    0.0000000000000000
     0.0991868080000000   15.6682861384999992    0.0000000000000000
     0.0000000000000000    0.0000000000000000   19.4270992279000012
   Ta   Ni   Se   O    H 
    16     8    40     2     1
Selective dynamics
Direct
  0.0620797467667273  0.1113965569889999  0.4843219040324129   F   F   F
  0.0606317159529226  0.3938071514657793  0.4860265508031958   F   F   F
  0.1848271542040862  0.8952244101075664  0.5230203384142769   F   F   F
  0.1861941424148341  0.6137131447555930  0.5237772958935381   F   F   F
  0.3122737777242079  0.1112406303167432  0.4839971837209376   F   F   F
  0.3069619162132469  0.3876039599288816  0.4817915275245426   F   F   F
  0.4357165055247023  0.8964665560924630  0.5240463909061077   F   F   F
  0.4369811307427298  0.6235682496226858  0.5257117851885624   F   F   F
  0.5631241345049958  0.1108200648611231  0.4830777492123346   F   F   F
  0.5660801995139622  0.3885394691416906  0.4809497435945786   F   F   F
  0.6867559114700725  0.8953463522561194  0.5229573284609401   F   F   F
  0.6870504712544658  0.6138559594609774  0.5231946243200127   F   F   F
  0.8130090458778128  0.1114400516462410  0.4837229766191768   F   F   F
  0.8127757506325892  0.3937115637732305  0.4853279430830568   F   F   F
  0.9356978928237893  0.8942646066659492  0.5232630390784507   F   F   F
  0.9367095025504568  0.6125912871283177  0.5231294441913050   F   F   F
  0.1864327068399021  0.2513891113712390  0.4709648358890774   F   F   F
  0.0614587319047573  0.7534714057060725  0.5367294612477380   F   F   F
  0.4370720942346580  0.2518579770210536  0.4717921472330673   F   F   F
  0.3098035633967200  0.7556670712230016  0.5362913059290833   F   F   F
  0.6886788808497357  0.2520146162346890  0.4698009427553700   F   F   F
  0.5623292775672084  0.7557508482228315  0.5362832474029346   F   F   F
  0.9372487803258664  0.2527892781899794  0.4709914101992041   F   F   F
  0.8106354593839953  0.7535490390880852  0.5367331303176286   F   F   F
  0.1854413235592602  0.1414481927195297  0.3897817371445811   F   F   F
  0.1835343726067791  0.3619061504468704  0.3889640937362273   F   F   F
  0.0621477446341601  0.8639705755637479  0.6176852226907741   F   F   F
  0.0607013878220499  0.6425877448219666  0.6178951868093137   F   F   F
  0.0614568128463446  0.9529204049626188  0.4327301160648531   F   F   F
  0.0621103002408816  0.5526813697762378  0.4338290984370801   F   F   F
  0.1858867595513871  0.0532735804580327  0.5746036370027241   F   F   F
  0.1871586359227564  0.4532952795525702  0.5737849360921459   F   F   F
  0.0617267418405447  0.2520540528172930  0.5550353708978619   F   F   F
  0.1856072722695075  0.7535314516299607  0.4525334745463638   F   F   F
  0.4357062265334264  0.1421679592029221  0.3898709664608333   F   F   F
  0.4365449740278677  0.3606786159002056  0.3890454755159922   F   F   F
  0.3116834111682607  0.8655081455876541  0.6176834467444721   F   F   F
  0.3104054190284558  0.6460409898584913  0.6189698514025466   F   F   F
  0.3119138817939557  0.9535283028476798  0.4329030114445089   F   F   F
  0.3142235155292639  0.5510952497792800  0.4383411525706009   F   F   F
  0.4365352986495665  0.0541428862267068  0.5745048653416021   F   F   F
  0.4365656424826838  0.4610685177669964  0.5607111626725398   F   F   F
  0.3115200048845850  0.2527021130942586  0.5558039197022353   F   F   F
  0.4362497015845790  0.7568972498612325  0.4514552752054470   F   F   F
  0.6868243470922835  0.1417417875064757  0.3888854539085997   F   F   F
  0.6905686254759544  0.3628601383727670  0.3881440898027577   F   F   F
  0.5630577696596148  0.8656441664252412  0.6176126908469683   F   F   F
  0.5626017891147939  0.6459382353272218  0.6188822915553587   F   F   F
  0.5624003168632683  0.9533704761388506  0.4326295217809388   F   F   F
  0.5600644804304906  0.5521385639624441  0.4371284658299999   F   F   F
  0.6864386669108598  0.0537374623387450  0.5742005811265187   F   F   F
  0.6857391605218197  0.4532434440749924  0.5736198150122576   F   F   F
  0.5641887957422966  0.2523595916935761  0.5541627660672148   F   F   F
  0.6866929356844906  0.7538857716144491  0.4524306407915262   F   F   F
  0.9363353033613961  0.1427757903235403  0.3895555650808902   F   F   F
  0.9374744199390150  0.3640824935641263  0.3906142816634386   F   F   F
  0.8124087929039732  0.8639399505699501  0.6177777308391512   F   F   F
  0.8116216665537408  0.6425307665972042  0.6177046291845869   F   F   F
  0.8125814075134770  0.9529282979001295  0.4324687024367293   F   F   F
  0.8116693402239719  0.5527009612294762  0.4336323744741151   F   F   F
  0.9358833005465002  0.0527048244853603  0.5743558767554973   F   F   F
  0.9362979303043417  0.4533620123194311  0.5755406768109523   F   F   F
  0.8123135260355596  0.2522240737390433  0.5545563322269587   F   F   F
  0.9360869310895836  0.7531115764134526  0.4530830183901102   F   F   F
  0.4430813110448355  0.4443913846196423  0.6604991778465035   T   T   T
  0.4612574488966814  0.3576646546269728  0.6795896657428315   T   T   T
  0.5321642094402748  0.3554462740132748  0.6789583899951031   T   T   T
 
  0.00000000E+00  0.00000000E+00  0.00000000E+00
  0.00000000E+00  0.00000000E+00  0.00000000E+00
  0.00000000E+00  0.00000000E+00  0.00000000E+00
  0.00000000E+00  0.00000000E+00  0.00000000E+00
  0.00000000E+00  0.00000000E+00  0.00000000E+00
  0.00000000E+00  0.00000000E+00  0.00000000E+00
  0.00000000E+00  0.00000000E+00  0.00000000E+00
  0.00000000E+00  0.00000000E+00  0.00000000E+00
  0.00000000E+00  0.00000000E+00  0.00000000E+00
  0.00000000E+00  0.00000000E+00  0.00000000E+00
  0.00000000E+00  0.00000000E+00  0.00000000E+00
  0.00000000E+00  0.00000000E+00  0.00000000E+00
  0.00000000E+00  0.00000000E+00  0.00000000E+00
  0.00000000E+00  0.00000000E+00  0.00000000E+00
  0.00000000E+00  0.00000000E+00  0.00000000E+00
  0.00000000E+00  0.00000000E+00  0.00000000E+00
  0.00000000E+00  0.00000000E+00  0.00000000E+00
  0.00000000E+00  0.00000000E+00  0.00000000E+00
  0.00000000E+00  0.00000000E+00  0.00000000E+00
  0.00000000E+00  0.00000000E+00  0.00000000E+00
  0.00000000E+00  0.00000000E+00  0.00000000E+00
  0.00000000E+00  0.00000000E+00  0.00000000E+00
  0.00000000E+00  0.00000000E+00  0.00000000E+00
  0.00000000E+00  0.00000000E+00  0.00000000E+00
  0.00000000E+00  0.00000000E+00  0.00000000E+00
  0.00000000E+00  0.00000000E+00  0.00000000E+00
  0.00000000E+00  0.00000000E+00  0.00000000E+00
  0.00000000E+00  0.00000000E+00  0.00000000E+00
  0.00000000E+00  0.00000000E+00  0.00000000E+00
  0.00000000E+00  0.00000000E+00  0.00000000E+00
  0.00000000E+00  0.00000000E+00  0.00000000E+00
  0.00000000E+00  0.00000000E+00  0.00000000E+00
  0.00000000E+00  0.00000000E+00  0.00000000E+00
  0.00000000E+00  0.00000000E+00  0.00000000E+00
  0.00000000E+00  0.00000000E+00  0.00000000E+00
  0.00000000E+00  0.00000000E+00  0.00000000E+00
  0.00000000E+00  0.00000000E+00  0.00000000E+00
  0.00000000E+00  0.00000000E+00  0.00000000E+00
  0.00000000E+00  0.00000000E+00  0.00000000E+00
  0.00000000E+00  0.00000000E+00  0.00000000E+00
  0.00000000E+00  0.00000000E+00  0.00000000E+00
  0.00000000E+00  0.00000000E+00  0.00000000E+00
  0.00000000E+00  0.00000000E+00  0.00000000E+00
  0.00000000E+00  0.00000000E+00  0.00000000E+00
  0.00000000E+00  0.00000000E+00  0.00000000E+00
  0.00000000E+00  0.00000000E+00  0.00000000E+00
  0.00000000E+00  0.00000000E+00  0.00000000E+00
  0.00000000E+00  0.00000000E+00  0.00000000E+00
  0.00000000E+00  0.00000000E+00  0.00000000E+00
  0.00000000E+00  0.00000000E+00  0.00000000E+00
  0.00000000E+00  0.00000000E+00  0.00000000E+00
  0.00000000E+00  0.00000000E+00  0.00000000E+00
  0.00000000E+00  0.00000000E+00  0.00000000E+00
  0.00000000E+00  0.00000000E+00  0.00000000E+00
  0.00000000E+00  0.00000000E+00  0.00000000E+00
  0.00000000E+00  0.00000000E+00  0.00000000E+00
  0.00000000E+00  0.00000000E+00  0.00000000E+00
  0.00000000E+00  0.00000000E+00  0.00000000E+00
  0.00000000E+00  0.00000000E+00  0.00000000E+00
  0.00000000E+00  0.00000000E+00  0.00000000E+00
  0.00000000E+00  0.00000000E+00  0.00000000E+00
  0.00000000E+00  0.00000000E+00  0.00000000E+00
  0.00000000E+00  0.00000000E+00  0.00000000E+00
  0.00000000E+00  0.00000000E+00  0.00000000E+00
  0.00000000E+00  0.00000000E+00  0.00000000E+00
  0.00000000E+00  0.00000000E+00  0.00000000E+00
  0.00000000E+00  0.00000000E+00  0.00000000E+00
