Nb12 Si4 Te24                           
   1.00000000000000     
     6.4353752876764103   -0.0000000000000000    0.0000000000000000
    -0.0000000000000000   11.6423575118820253    0.0000000000000000
     0.0000000000000000    0.0000000000000000   14.2567481401403278
   Nb   Si   Te
    12     4    24
Direct
  0.1686486748401173  0.8358278571063030  0.2500000000000000
  0.6686486378401180  0.6641721428936970  0.2500000000000000
  0.3313513251598826  0.3358278771063046  0.7499999839999987
  0.8313513251598825  0.1641721128937018  0.7499999839999987
  0.6969092870458332  0.9684067410500862  0.2500000000000000
  0.1969092690458317  0.5315932999499137  0.2500000000000000
  0.8030907499541663  0.4684066590500865  0.7499999839999987
  0.3030907309541684  0.0315933259499087  0.7499999839999987
  0.9685123259339776  0.3121399600377764  0.2500000000000000
  0.4685122889339781  0.1878600609622218  0.2500000000000000
  0.5314877110660219  0.8121399190377768  0.7499999839999987
  0.0314876910660202  0.6878600399622233  0.7499999839999987
  0.0757074327647554  0.0748991634360033  0.2500000000000000
  0.5757074467647565  0.4251008255639922  0.2500000000000000
  0.4242925532352433  0.5748991744360078  0.7499999839999987
  0.9242925902352430  0.9251008665639920  0.7499999839999987
  0.8482894319286126  0.8182044406958553  0.3831418064429250
  0.3482894319286128  0.6817955593041447  0.1168582175570699
  0.6517106050713869  0.3182044406958555  0.6168582575570732
  0.1517105680713872  0.1817955593041446  0.8831417744429294
  0.1517105680713872  0.1817955593041446  0.6168582575570732
  0.6517106050713869  0.3182044406958555  0.8831417744429294
  0.3482894319286128  0.6817955593041447  0.3831418064429250
  0.8482894319286126  0.8182044406958553  0.1168582175570699
  0.7964726064455377  0.1570275514703052  0.3822194488679289
  0.2964725684455418  0.3429724275296966  0.1177805511320712
  0.7035274315544583  0.6570275724703033  0.6177805831320737
  0.2035274315544583  0.8429724275296967  0.8822194488679289
  0.2035274315544583  0.8429724275296967  0.6177805831320737
  0.7035274315544583  0.6570275724703033  0.8822194488679289
  0.2964725684455418  0.3429724275296966  0.3822194488679289
  0.7964726064455377  0.1570275514703052  0.1177805511320712
  0.3559183354558490  0.9975776792550037  0.3785673143311623
  0.8559182614558499  0.5024223617449961  0.1214327096688324
  0.1440816825441525  0.4975776382550038  0.6214327176688331
  0.6440817015441506  0.0024223627449998  0.8785673143311624
  0.6440817015441506  0.0024223627449998  0.6214327176688331
  0.1440816825441525  0.4975776382550038  0.8785673143311624
  0.8559182614558499  0.5024223617449961  0.3785673143311623
  0.3559183354558490  0.9975776792550037  0.1214327096688324
 
  0.00000000E+00  0.00000000E+00  0.00000000E+00
  0.00000000E+00  0.00000000E+00  0.00000000E+00
  0.00000000E+00  0.00000000E+00  0.00000000E+00
  0.00000000E+00  0.00000000E+00  0.00000000E+00
  0.00000000E+00  0.00000000E+00  0.00000000E+00
  0.00000000E+00  0.00000000E+00  0.00000000E+00
  0.00000000E+00  0.00000000E+00  0.00000000E+00
  0.00000000E+00  0.00000000E+00  0.00000000E+00
  0.00000000E+00  0.00000000E+00  0.00000000E+00
  0.00000000E+00  0.00000000E+00  0.00000000E+00
  0.00000000E+00  0.00000000E+00  0.00000000E+00
  0.00000000E+00  0.00000000E+00  0.00000000E+00
  0.00000000E+00  0.00000000E+00  0.00000000E+00
  0.00000000E+00  0.00000000E+00  0.00000000E+00
  0.00000000E+00  0.00000000E+00  0.00000000E+00
  0.00000000E+00  0.00000000E+00  0.00000000E+00
  0.00000000E+00  0.00000000E+00  0.00000000E+00
  0.00000000E+00  0.00000000E+00  0.00000000E+00
  0.00000000E+00  0.00000000E+00  0.00000000E+00
  0.00000000E+00  0.00000000E+00  0.00000000E+00
  0.00000000E+00  0.00000000E+00  0.00000000E+00
  0.00000000E+00  0.00000000E+00  0.00000000E+00
  0.00000000E+00  0.00000000E+00  0.00000000E+00
  0.00000000E+00  0.00000000E+00  0.00000000E+00
  0.00000000E+00  0.00000000E+00  0.00000000E+00
  0.00000000E+00  0.00000000E+00  0.00000000E+00
  0.00000000E+00  0.00000000E+00  0.00000000E+00
  0.00000000E+00  0.00000000E+00  0.00000000E+00
  0.00000000E+00  0.00000000E+00  0.00000000E+00
  0.00000000E+00  0.00000000E+00  0.00000000E+00
  0.00000000E+00  0.00000000E+00  0.00000000E+00
  0.00000000E+00  0.00000000E+00  0.00000000E+00
  0.00000000E+00  0.00000000E+00  0.00000000E+00
  0.00000000E+00  0.00000000E+00  0.00000000E+00
  0.00000000E+00  0.00000000E+00  0.00000000E+00
  0.00000000E+00  0.00000000E+00  0.00000000E+00
  0.00000000E+00  0.00000000E+00  0.00000000E+00
  0.00000000E+00  0.00000000E+00  0.00000000E+00
  0.00000000E+00  0.00000000E+00  0.00000000E+00
  0.00000000E+00  0.00000000E+00  0.00000000E+00
