KPT-Resolved Value to Generate K-Mesh: 0.020
0
Gamma
  18  18   1
0.0  0.0  0.0
