 CONTCAR                                
   1.00000000000000     
    12.1569004059000001    0.0000000000000000    0.0000000000000000
    -6.0784502029000000   10.5281845827999998    0.0000000000000000
     0.0000000000000000    0.0000000000000000   17.2780447103650587
   Ti   C 
    32    16
Direct
  0.1666700010000000  0.0833299990000000  0.5658738632052334
  0.0833299969999999  0.1666699969999996  0.4341261367947666
  0.4166700010000000  0.0833299990000000  0.5658738632052334
  0.3333299780000019  0.1666699969999996  0.4341261367947666
  0.6666700010000000  0.0833299990000000  0.5658738632052334
  0.5833299780000019  0.1666699969999996  0.4341261367947666
  0.9166700399999996  0.0833299990000000  0.5658738632052334
  0.8333300170000015  0.1666699969999996  0.4341261367947666
  0.1666700039999967  0.3333300070000007  0.5658738632052334
  0.0833299969999999  0.4166700150000011  0.4341261367947666
  0.4166700239999983  0.3333300070000007  0.5658738632052334
  0.3333299869999991  0.4166700150000011  0.4341261367947666
  0.6666700239999983  0.3333300070000007  0.5658738632052334
  0.5833300070000007  0.4166700150000011  0.4341261367947666
  0.9166700629999980  0.3333300070000007  0.5658738632052334
  0.8333299669999974  0.4166700150000011  0.4341261367947666
  0.1666700079999970  0.5833300139999977  0.5658738632052334
  0.0833299909999994  0.6666700230000018  0.4341261367947666
  0.4166700279999986  0.5833300139999977  0.5658738632052334
  0.3333299909999994  0.6666700230000018  0.4341261367947666
  0.6666700469999967  0.5833300139999977  0.5658738632052334
  0.5833299909999994  0.6666700230000018  0.4341261367947666
  0.9166700860000034  0.5833300139999977  0.5658738632052334
  0.8333299909999994  0.6666700230000018  0.4341261367947666
  0.1666699889999990  0.8333299760000017  0.5658738632052334
  0.0833299749999981  0.9166700299999988  0.4341261367947666
  0.4166700090000006  0.8333299760000017  0.5658738632052334
  0.3333299749999981  0.9166700299999988  0.4341261367947666
  0.6666700090000006  0.8333299760000017  0.5658738632052334
  0.5833299749999981  0.9166700299999988  0.4341261367947666
  0.9166700480000003  0.8333299760000017  0.5658738632052334
  0.8333299749999981  0.9166700299999988  0.4341261367947666
  0.0000000000000000  0.0000000000000000  0.5000000000000000
  0.2500000000000000  0.0000000000000000  0.5000000000000000
  0.5000000000000000  0.0000000000000000  0.5000000000000000
  0.7500000389999997  0.0000000000000000  0.5000000000000000
  0.0000000040000003  0.2500000069999970  0.5000000000000000
  0.2500000040000003  0.2500000069999970  0.5000000000000000
  0.5000000229999984  0.2500000069999970  0.5000000000000000
  0.7500000619999980  0.2500000069999970  0.5000000000000000
  0.0000000069999970  0.5000000149999977  0.5000000000000000
  0.2500000069999970  0.5000000149999977  0.5000000000000000
  0.5000000069999970  0.5000000149999977  0.5000000000000000
  0.7500000470000003  0.5000000149999977  0.5000000000000000
  0.9999999910000028  0.7500000220000018  0.5000000000000000
  0.2499999910000028  0.7500000220000018  0.5000000000000000
  0.4999999910000028  0.7500000220000018  0.5000000000000000
  0.7500000309999990  0.7500000220000018  0.5000000000000000
 
  0.00000000E+00  0.00000000E+00  0.00000000E+00
  0.00000000E+00  0.00000000E+00  0.00000000E+00
  0.00000000E+00  0.00000000E+00  0.00000000E+00
  0.00000000E+00  0.00000000E+00  0.00000000E+00
  0.00000000E+00  0.00000000E+00  0.00000000E+00
  0.00000000E+00  0.00000000E+00  0.00000000E+00
  0.00000000E+00  0.00000000E+00  0.00000000E+00
  0.00000000E+00  0.00000000E+00  0.00000000E+00
  0.00000000E+00  0.00000000E+00  0.00000000E+00
  0.00000000E+00  0.00000000E+00  0.00000000E+00
  0.00000000E+00  0.00000000E+00  0.00000000E+00
  0.00000000E+00  0.00000000E+00  0.00000000E+00
  0.00000000E+00  0.00000000E+00  0.00000000E+00
  0.00000000E+00  0.00000000E+00  0.00000000E+00
  0.00000000E+00  0.00000000E+00  0.00000000E+00
  0.00000000E+00  0.00000000E+00  0.00000000E+00
  0.00000000E+00  0.00000000E+00  0.00000000E+00
  0.00000000E+00  0.00000000E+00  0.00000000E+00
  0.00000000E+00  0.00000000E+00  0.00000000E+00
  0.00000000E+00  0.00000000E+00  0.00000000E+00
  0.00000000E+00  0.00000000E+00  0.00000000E+00
  0.00000000E+00  0.00000000E+00  0.00000000E+00
  0.00000000E+00  0.00000000E+00  0.00000000E+00
  0.00000000E+00  0.00000000E+00  0.00000000E+00
  0.00000000E+00  0.00000000E+00  0.00000000E+00
  0.00000000E+00  0.00000000E+00  0.00000000E+00
  0.00000000E+00  0.00000000E+00  0.00000000E+00
  0.00000000E+00  0.00000000E+00  0.00000000E+00
  0.00000000E+00  0.00000000E+00  0.00000000E+00
  0.00000000E+00  0.00000000E+00  0.00000000E+00
  0.00000000E+00  0.00000000E+00  0.00000000E+00
  0.00000000E+00  0.00000000E+00  0.00000000E+00
  0.00000000E+00  0.00000000E+00  0.00000000E+00
  0.00000000E+00  0.00000000E+00  0.00000000E+00
  0.00000000E+00  0.00000000E+00  0.00000000E+00
  0.00000000E+00  0.00000000E+00  0.00000000E+00
  0.00000000E+00  0.00000000E+00  0.00000000E+00
  0.00000000E+00  0.00000000E+00  0.00000000E+00
  0.00000000E+00  0.00000000E+00  0.00000000E+00
  0.00000000E+00  0.00000000E+00  0.00000000E+00
  0.00000000E+00  0.00000000E+00  0.00000000E+00
  0.00000000E+00  0.00000000E+00  0.00000000E+00
  0.00000000E+00  0.00000000E+00  0.00000000E+00
  0.00000000E+00  0.00000000E+00  0.00000000E+00
  0.00000000E+00  0.00000000E+00  0.00000000E+00
  0.00000000E+00  0.00000000E+00  0.00000000E+00
  0.00000000E+00  0.00000000E+00  0.00000000E+00
  0.00000000E+00  0.00000000E+00  0.00000000E+00
