 K4 P4 Pd2                              
   1.00000000000000     
     5.6562854485264751    0.0000000000000000    0.0000000000000000
     0.0000000000000000    6.3307384119146120    0.0000000000000000
     0.0000000000000000    0.0000000000000000   20.9256238910720000
   K    P    Pd
     4     4     2
Direct
  0.2499999560332711  0.9999999846609811  0.3579224312612865
  0.2499999797816841  0.4999999268941053  0.4502838729897789
  0.7500000443823538  0.9999999761291676  0.6420775692711729
  0.7500000200009822  0.4999999282905776  0.5497161275961915
  0.2499999697838007  0.8276673538347481  0.5791963536418194
  0.7500000389224653  0.8276673664839009  0.4208036352727191
  0.7500000316699342  0.1723319769603435  0.4208036183163983
  0.2499999596532092  0.1723319699924915  0.5791963909709210
  0.9999999984035952  0.9999997614397387  0.5000000003521734
  0.5000000013686972  0.9999997553139224  0.5000000003275389
 
  0.00000000E+00  0.00000000E+00  0.00000000E+00
  0.00000000E+00  0.00000000E+00  0.00000000E+00
  0.00000000E+00  0.00000000E+00  0.00000000E+00
  0.00000000E+00  0.00000000E+00  0.00000000E+00
  0.00000000E+00  0.00000000E+00  0.00000000E+00
  0.00000000E+00  0.00000000E+00  0.00000000E+00
  0.00000000E+00  0.00000000E+00  0.00000000E+00
  0.00000000E+00  0.00000000E+00  0.00000000E+00
  0.00000000E+00  0.00000000E+00  0.00000000E+00
  0.00000000E+00  0.00000000E+00  0.00000000E+00
