G   35   32    1    0.005     # Parameters to Generate KPOINTS (Don't Edit This Line)
     306
Reciprocal lattice
    0.000000000000    0.000000000000    0.000000000000       1
    0.028571428571    0.000000000000    0.000000000000       2
    0.057142857143    0.000000000000    0.000000000000       2
    0.085714285714    0.000000000000    0.000000000000       2
    0.114285714286    0.000000000000    0.000000000000       2
    0.142857142857    0.000000000000    0.000000000000       2
    0.171428571429    0.000000000000    0.000000000000       2
    0.200000000000    0.000000000000    0.000000000000       2
    0.228571428571    0.000000000000    0.000000000000       2
    0.257142857143    0.000000000000    0.000000000000       2
    0.285714285714    0.000000000000    0.000000000000       2
    0.314285714286    0.000000000000    0.000000000000       2
    0.342857142857    0.000000000000    0.000000000000       2
    0.371428571429    0.000000000000    0.000000000000       2
    0.400000000000    0.000000000000    0.000000000000       2
    0.428571428571    0.000000000000    0.000000000000       2
    0.457142857143    0.000000000000    0.000000000000       2
    0.485714285714    0.000000000000    0.000000000000       2
    0.000000000000    0.031250000000    0.000000000000       2
    0.028571428571    0.031250000000    0.000000000000       4
    0.057142857143    0.031250000000    0.000000000000       4
    0.085714285714    0.031250000000    0.000000000000       4
    0.114285714286    0.031250000000    0.000000000000       4
    0.142857142857    0.031250000000    0.000000000000       4
    0.171428571429    0.031250000000    0.000000000000       4
    0.200000000000    0.031250000000    0.000000000000       4
    0.228571428571    0.031250000000    0.000000000000       4
    0.257142857143    0.031250000000    0.000000000000       4
    0.285714285714    0.031250000000    0.000000000000       4
    0.314285714286    0.031250000000    0.000000000000       4
    0.342857142857    0.031250000000    0.000000000000       4
    0.371428571429    0.031250000000    0.000000000000       4
    0.400000000000    0.031250000000    0.000000000000       4
    0.428571428571    0.031250000000    0.000000000000       4
    0.457142857143    0.031250000000    0.000000000000       4
    0.485714285714    0.031250000000    0.000000000000       4
    0.000000000000    0.062500000000    0.000000000000       2
    0.028571428571    0.062500000000    0.000000000000       4
    0.057142857143    0.062500000000    0.000000000000       4
    0.085714285714    0.062500000000    0.000000000000       4
    0.114285714286    0.062500000000    0.000000000000       4
    0.142857142857    0.062500000000    0.000000000000       4
    0.171428571429    0.062500000000    0.000000000000       4
    0.200000000000    0.062500000000    0.000000000000       4
    0.228571428571    0.062500000000    0.000000000000       4
    0.257142857143    0.062500000000    0.000000000000       4
    0.285714285714    0.062500000000    0.000000000000       4
    0.314285714286    0.062500000000    0.000000000000       4
    0.342857142857    0.062500000000    0.000000000000       4
    0.371428571429    0.062500000000    0.000000000000       4
    0.400000000000    0.062500000000    0.000000000000       4
    0.428571428571    0.062500000000    0.000000000000       4
    0.457142857143    0.062500000000    0.000000000000       4
    0.485714285714    0.062500000000    0.000000000000       4
    0.000000000000    0.093750000000    0.000000000000       2
    0.028571428571    0.093750000000    0.000000000000       4
    0.057142857143    0.093750000000    0.000000000000       4
    0.085714285714    0.093750000000    0.000000000000       4
    0.114285714286    0.093750000000    0.000000000000       4
    0.142857142857    0.093750000000    0.000000000000       4
    0.171428571429    0.093750000000    0.000000000000       4
    0.200000000000    0.093750000000    0.000000000000       4
    0.228571428571    0.093750000000    0.000000000000       4
    0.257142857143    0.093750000000    0.000000000000       4
    0.285714285714    0.093750000000    0.000000000000       4
    0.314285714286    0.093750000000    0.000000000000       4
    0.342857142857    0.093750000000    0.000000000000       4
    0.371428571429    0.093750000000    0.000000000000       4
    0.400000000000    0.093750000000    0.000000000000       4
    0.428571428571    0.093750000000    0.000000000000       4
    0.457142857143    0.093750000000    0.000000000000       4
    0.485714285714    0.093750000000    0.000000000000       4
    0.000000000000    0.125000000000    0.000000000000       2
    0.028571428571    0.125000000000    0.000000000000       4
    0.057142857143    0.125000000000    0.000000000000       4
    0.085714285714    0.125000000000    0.000000000000       4
    0.114285714286    0.125000000000    0.000000000000       4
    0.142857142857    0.125000000000    0.000000000000       4
    0.171428571429    0.125000000000    0.000000000000       4
    0.200000000000    0.125000000000    0.000000000000       4
    0.228571428571    0.125000000000    0.000000000000       4
    0.257142857143    0.125000000000    0.000000000000       4
    0.285714285714    0.125000000000    0.000000000000       4
    0.314285714286    0.125000000000    0.000000000000       4
    0.342857142857    0.125000000000    0.000000000000       4
    0.371428571429    0.125000000000    0.000000000000       4
    0.400000000000    0.125000000000    0.000000000000       4
    0.428571428571    0.125000000000    0.000000000000       4
    0.457142857143    0.125000000000    0.000000000000       4
    0.485714285714    0.125000000000    0.000000000000       4
    0.000000000000    0.156250000000    0.000000000000       2
    0.028571428571    0.156250000000    0.000000000000       4
    0.057142857143    0.156250000000    0.000000000000       4
    0.085714285714    0.156250000000    0.000000000000       4
    0.114285714286    0.156250000000    0.000000000000       4
    0.142857142857    0.156250000000    0.000000000000       4
    0.171428571429    0.156250000000    0.000000000000       4
    0.200000000000    0.156250000000    0.000000000000       4
    0.228571428571    0.156250000000    0.000000000000       4
    0.257142857143    0.156250000000    0.000000000000       4
    0.285714285714    0.156250000000    0.000000000000       4
    0.314285714286    0.156250000000    0.000000000000       4
    0.342857142857    0.156250000000    0.000000000000       4
    0.371428571429    0.156250000000    0.000000000000       4
    0.400000000000    0.156250000000    0.000000000000       4
    0.428571428571    0.156250000000    0.000000000000       4
    0.457142857143    0.156250000000    0.000000000000       4
    0.485714285714    0.156250000000    0.000000000000       4
    0.000000000000    0.187500000000    0.000000000000       2
    0.028571428571    0.187500000000    0.000000000000       4
    0.057142857143    0.187500000000    0.000000000000       4
    0.085714285714    0.187500000000    0.000000000000       4
    0.114285714286    0.187500000000    0.000000000000       4
    0.142857142857    0.187500000000    0.000000000000       4
    0.171428571429    0.187500000000    0.000000000000       4
    0.200000000000    0.187500000000    0.000000000000       4
    0.228571428571    0.187500000000    0.000000000000       4
    0.257142857143    0.187500000000    0.000000000000       4
    0.285714285714    0.187500000000    0.000000000000       4
    0.314285714286    0.187500000000    0.000000000000       4
    0.342857142857    0.187500000000    0.000000000000       4
    0.371428571429    0.187500000000    0.000000000000       4
    0.400000000000    0.187500000000    0.000000000000       4
    0.428571428571    0.187500000000    0.000000000000       4
    0.457142857143    0.187500000000    0.000000000000       4
    0.485714285714    0.187500000000    0.000000000000       4
    0.000000000000    0.218750000000    0.000000000000       2
    0.028571428571    0.218750000000    0.000000000000       4
    0.057142857143    0.218750000000    0.000000000000       4
    0.085714285714    0.218750000000    0.000000000000       4
    0.114285714286    0.218750000000    0.000000000000       4
    0.142857142857    0.218750000000    0.000000000000       4
    0.171428571429    0.218750000000    0.000000000000       4
    0.200000000000    0.218750000000    0.000000000000       4
    0.228571428571    0.218750000000    0.000000000000       4
    0.257142857143    0.218750000000    0.000000000000       4
    0.285714285714    0.218750000000    0.000000000000       4
    0.314285714286    0.218750000000    0.000000000000       4
    0.342857142857    0.218750000000    0.000000000000       4
    0.371428571429    0.218750000000    0.000000000000       4
    0.400000000000    0.218750000000    0.000000000000       4
    0.428571428571    0.218750000000    0.000000000000       4
    0.457142857143    0.218750000000    0.000000000000       4
    0.485714285714    0.218750000000    0.000000000000       4
    0.000000000000    0.250000000000    0.000000000000       2
    0.028571428571    0.250000000000    0.000000000000       4
    0.057142857143    0.250000000000    0.000000000000       4
    0.085714285714    0.250000000000    0.000000000000       4
    0.114285714286    0.250000000000    0.000000000000       4
    0.142857142857    0.250000000000    0.000000000000       4
    0.171428571429    0.250000000000    0.000000000000       4
    0.200000000000    0.250000000000    0.000000000000       4
    0.228571428571    0.250000000000    0.000000000000       4
    0.257142857143    0.250000000000    0.000000000000       4
    0.285714285714    0.250000000000    0.000000000000       4
    0.314285714286    0.250000000000    0.000000000000       4
    0.342857142857    0.250000000000    0.000000000000       4
    0.371428571429    0.250000000000    0.000000000000       4
    0.400000000000    0.250000000000    0.000000000000       4
    0.428571428571    0.250000000000    0.000000000000       4
    0.457142857143    0.250000000000    0.000000000000       4
    0.485714285714    0.250000000000    0.000000000000       4
    0.000000000000    0.281250000000    0.000000000000       2
    0.028571428571    0.281250000000    0.000000000000       4
    0.057142857143    0.281250000000    0.000000000000       4
    0.085714285714    0.281250000000    0.000000000000       4
    0.114285714286    0.281250000000    0.000000000000       4
    0.142857142857    0.281250000000    0.000000000000       4
    0.171428571429    0.281250000000    0.000000000000       4
    0.200000000000    0.281250000000    0.000000000000       4
    0.228571428571    0.281250000000    0.000000000000       4
    0.257142857143    0.281250000000    0.000000000000       4
    0.285714285714    0.281250000000    0.000000000000       4
    0.314285714286    0.281250000000    0.000000000000       4
    0.342857142857    0.281250000000    0.000000000000       4
    0.371428571429    0.281250000000    0.000000000000       4
    0.400000000000    0.281250000000    0.000000000000       4
    0.428571428571    0.281250000000    0.000000000000       4
    0.457142857143    0.281250000000    0.000000000000       4
    0.485714285714    0.281250000000    0.000000000000       4
    0.000000000000    0.312500000000    0.000000000000       2
    0.028571428571    0.312500000000    0.000000000000       4
    0.057142857143    0.312500000000    0.000000000000       4
    0.085714285714    0.312500000000    0.000000000000       4
    0.114285714286    0.312500000000    0.000000000000       4
    0.142857142857    0.312500000000    0.000000000000       4
    0.171428571429    0.312500000000    0.000000000000       4
    0.200000000000    0.312500000000    0.000000000000       4
    0.228571428571    0.312500000000    0.000000000000       4
    0.257142857143    0.312500000000    0.000000000000       4
    0.285714285714    0.312500000000    0.000000000000       4
    0.314285714286    0.312500000000    0.000000000000       4
    0.342857142857    0.312500000000    0.000000000000       4
    0.371428571429    0.312500000000    0.000000000000       4
    0.400000000000    0.312500000000    0.000000000000       4
    0.428571428571    0.312500000000    0.000000000000       4
    0.457142857143    0.312500000000    0.000000000000       4
    0.485714285714    0.312500000000    0.000000000000       4
    0.000000000000    0.343750000000    0.000000000000       2
    0.028571428571    0.343750000000    0.000000000000       4
    0.057142857143    0.343750000000    0.000000000000       4
    0.085714285714    0.343750000000    0.000000000000       4
    0.114285714286    0.343750000000    0.000000000000       4
    0.142857142857    0.343750000000    0.000000000000       4
    0.171428571429    0.343750000000    0.000000000000       4
    0.200000000000    0.343750000000    0.000000000000       4
    0.228571428571    0.343750000000    0.000000000000       4
    0.257142857143    0.343750000000    0.000000000000       4
    0.285714285714    0.343750000000    0.000000000000       4
    0.314285714286    0.343750000000    0.000000000000       4
    0.342857142857    0.343750000000    0.000000000000       4
    0.371428571429    0.343750000000    0.000000000000       4
    0.400000000000    0.343750000000    0.000000000000       4
    0.428571428571    0.343750000000    0.000000000000       4
    0.457142857143    0.343750000000    0.000000000000       4
    0.485714285714    0.343750000000    0.000000000000       4
    0.000000000000    0.375000000000    0.000000000000       2
    0.028571428571    0.375000000000    0.000000000000       4
    0.057142857143    0.375000000000    0.000000000000       4
    0.085714285714    0.375000000000    0.000000000000       4
    0.114285714286    0.375000000000    0.000000000000       4
    0.142857142857    0.375000000000    0.000000000000       4
    0.171428571429    0.375000000000    0.000000000000       4
    0.200000000000    0.375000000000    0.000000000000       4
    0.228571428571    0.375000000000    0.000000000000       4
    0.257142857143    0.375000000000    0.000000000000       4
    0.285714285714    0.375000000000    0.000000000000       4
    0.314285714286    0.375000000000    0.000000000000       4
    0.342857142857    0.375000000000    0.000000000000       4
    0.371428571429    0.375000000000    0.000000000000       4
    0.400000000000    0.375000000000    0.000000000000       4
    0.428571428571    0.375000000000    0.000000000000       4
    0.457142857143    0.375000000000    0.000000000000       4
    0.485714285714    0.375000000000    0.000000000000       4
    0.000000000000    0.406250000000    0.000000000000       2
    0.028571428571    0.406250000000    0.000000000000       4
    0.057142857143    0.406250000000    0.000000000000       4
    0.085714285714    0.406250000000    0.000000000000       4
    0.114285714286    0.406250000000    0.000000000000       4
    0.142857142857    0.406250000000    0.000000000000       4
    0.171428571429    0.406250000000    0.000000000000       4
    0.200000000000    0.406250000000    0.000000000000       4
    0.228571428571    0.406250000000    0.000000000000       4
    0.257142857143    0.406250000000    0.000000000000       4
    0.285714285714    0.406250000000    0.000000000000       4
    0.314285714286    0.406250000000    0.000000000000       4
    0.342857142857    0.406250000000    0.000000000000       4
    0.371428571429    0.406250000000    0.000000000000       4
    0.400000000000    0.406250000000    0.000000000000       4
    0.428571428571    0.406250000000    0.000000000000       4
    0.457142857143    0.406250000000    0.000000000000       4
    0.485714285714    0.406250000000    0.000000000000       4
    0.000000000000    0.437500000000    0.000000000000       2
    0.028571428571    0.437500000000    0.000000000000       4
    0.057142857143    0.437500000000    0.000000000000       4
    0.085714285714    0.437500000000    0.000000000000       4
    0.114285714286    0.437500000000    0.000000000000       4
    0.142857142857    0.437500000000    0.000000000000       4
    0.171428571429    0.437500000000    0.000000000000       4
    0.200000000000    0.437500000000    0.000000000000       4
    0.228571428571    0.437500000000    0.000000000000       4
    0.257142857143    0.437500000000    0.000000000000       4
    0.285714285714    0.437500000000    0.000000000000       4
    0.314285714286    0.437500000000    0.000000000000       4
    0.342857142857    0.437500000000    0.000000000000       4
    0.371428571429    0.437500000000    0.000000000000       4
    0.400000000000    0.437500000000    0.000000000000       4
    0.428571428571    0.437500000000    0.000000000000       4
    0.457142857143    0.437500000000    0.000000000000       4
    0.485714285714    0.437500000000    0.000000000000       4
    0.000000000000    0.468750000000    0.000000000000       2
    0.028571428571    0.468750000000    0.000000000000       4
    0.057142857143    0.468750000000    0.000000000000       4
    0.085714285714    0.468750000000    0.000000000000       4
    0.114285714286    0.468750000000    0.000000000000       4
    0.142857142857    0.468750000000    0.000000000000       4
    0.171428571429    0.468750000000    0.000000000000       4
    0.200000000000    0.468750000000    0.000000000000       4
    0.228571428571    0.468750000000    0.000000000000       4
    0.257142857143    0.468750000000    0.000000000000       4
    0.285714285714    0.468750000000    0.000000000000       4
    0.314285714286    0.468750000000    0.000000000000       4
    0.342857142857    0.468750000000    0.000000000000       4
    0.371428571429    0.468750000000    0.000000000000       4
    0.400000000000    0.468750000000    0.000000000000       4
    0.428571428571    0.468750000000    0.000000000000       4
    0.457142857143    0.468750000000    0.000000000000       4
    0.485714285714    0.468750000000    0.000000000000       4
    0.000000000000    0.500000000000    0.000000000000       1
    0.028571428571    0.500000000000    0.000000000000       2
    0.057142857143    0.500000000000    0.000000000000       2
    0.085714285714    0.500000000000    0.000000000000       2
    0.114285714286    0.500000000000    0.000000000000       2
    0.142857142857    0.500000000000    0.000000000000       2
    0.171428571429    0.500000000000    0.000000000000       2
    0.200000000000    0.500000000000    0.000000000000       2
    0.228571428571    0.500000000000    0.000000000000       2
    0.257142857143    0.500000000000    0.000000000000       2
    0.285714285714    0.500000000000    0.000000000000       2
    0.314285714286    0.500000000000    0.000000000000       2
    0.342857142857    0.500000000000    0.000000000000       2
    0.371428571429    0.500000000000    0.000000000000       2
    0.400000000000    0.500000000000    0.000000000000       2
    0.428571428571    0.500000000000    0.000000000000       2
    0.457142857143    0.500000000000    0.000000000000       2
    0.485714285714    0.500000000000    0.000000000000       2
