CONTCAR\(4)                             
   1.00000000000000     
    14.7170000075999994    0.0000000000000000    0.0000000000000000
    -7.3585000037999997   12.7452958741000000    0.0000000000000000
     0.0000000000000000    0.0000000000000000   17.8581008911000012
   Co   Br   O 
    16    32     1
Direct
  0.9955088180533493  0.0045550468621264  0.4978620915797152
  0.2521693675970117 -0.0026527861074794  0.5023978198997447
  0.4949170342086258 -0.0028158823499468  0.5025553050097094
  0.7597306885382316  0.0052793180209706  0.4976436111626338
  0.9948252376756026  0.2403840525242525  0.4974694380799251
  0.2519346258570448  0.2510399331058534  0.5009887621065723
  0.4995048738500489  0.2488268597541947  0.5004553556613984
  0.7487980205509346  0.2511995911794424  0.5013872578739441
  0.0028921525348688  0.5050955261963026  0.5024638989283319
  0.2518685735340344  0.5049276957371196  0.5021975623337552
  0.4994931667350904  0.5006177585022406  0.5006356796579966
  0.7510569351685188  0.5004351355748493  0.5004303297326351
  0.0025782205986689  0.7476993002162855  0.5024566562815364
  0.2501470689149991  0.7493346312277417  0.5023106443684948
  0.4951360431205954  0.7480740210985906  0.5022425452413062
  0.7490925426918675  0.7482167614922860  0.5009581119319320
  0.0859137121892546  0.1675356885150558  0.4169984220579884
  0.1703370580153232  0.0926873627242296  0.5763187441078632
  0.3303951354411713  0.1719540148498453  0.4248448068047618
  0.4169265118587999  0.0840145020922626  0.5844618562082434
  0.5917860645465524  0.1720652615896633  0.4249774948377754
  0.6724658917186822  0.0931260549772333  0.5762390225031392
  0.8337577582515240  0.1662158788474701  0.4152508870118575
  0.9166837853519166  0.0834380898208898  0.5858703485811209
  0.0829773783786514  0.4162180693934003  0.4227721994469292
  0.1700406632937417  0.3275022923140759  0.5759938674182720
  0.3302081313871040  0.4083402522280246  0.4247716120475878
  0.4133983311361117  0.3317685445959326  0.5801475074982176
  0.5832795174569735  0.4166824237897595  0.4199747824543418
  0.6663723498064967  0.3336018649713463  0.5818731211705690
  0.8279425021179442  0.4082022444548690  0.4249229831238515
  0.9069462426476849  0.3275851225809693  0.5761725695227660
  0.0824511288052040  0.6662069815495069  0.4188325665826202
  0.1661244840979591  0.5822891330296139  0.5848620869199114
  0.3338213980612609  0.6662472355402576  0.4185103353408683
  0.4169057384448931  0.5830410752611289  0.5840179672068608
  0.5916548630846338  0.6698249400897370  0.4247426138873623
  0.6683419924670866  0.5868543671548092  0.5801357264184285
  0.8280202243628300  0.6696305967984100  0.4248278125222835
  0.9157615888531849  0.5828894302102376  0.5843074437791321
  0.0831886506074009  0.9167551808000903  0.4228183587929583
  0.1662946765353647  0.8335842335590335  0.5845469816802872
  0.3338655270512358  0.9175853212692101  0.4189523186858528
  0.4174864161677064  0.8336523315055667  0.5847491829274583
  0.5838779690807492  0.9170594339662176  0.4228579821032865
  0.6725571643642869  0.8300221005939156  0.5760488962593209
  0.8325260697100795  0.9140644221365612  0.4170555694680941
  0.9073122312307956  0.8297061912823760  0.5762846277944979
  0.5843750168478893  0.4155914224735292  0.6456438319858721
 
  0.00000000E+00  0.00000000E+00  0.00000000E+00
  0.00000000E+00  0.00000000E+00  0.00000000E+00
  0.00000000E+00  0.00000000E+00  0.00000000E+00
  0.00000000E+00  0.00000000E+00  0.00000000E+00
  0.00000000E+00  0.00000000E+00  0.00000000E+00
  0.00000000E+00  0.00000000E+00  0.00000000E+00
  0.00000000E+00  0.00000000E+00  0.00000000E+00
  0.00000000E+00  0.00000000E+00  0.00000000E+00
  0.00000000E+00  0.00000000E+00  0.00000000E+00
  0.00000000E+00  0.00000000E+00  0.00000000E+00
  0.00000000E+00  0.00000000E+00  0.00000000E+00
  0.00000000E+00  0.00000000E+00  0.00000000E+00
  0.00000000E+00  0.00000000E+00  0.00000000E+00
  0.00000000E+00  0.00000000E+00  0.00000000E+00
  0.00000000E+00  0.00000000E+00  0.00000000E+00
  0.00000000E+00  0.00000000E+00  0.00000000E+00
  0.00000000E+00  0.00000000E+00  0.00000000E+00
  0.00000000E+00  0.00000000E+00  0.00000000E+00
  0.00000000E+00  0.00000000E+00  0.00000000E+00
  0.00000000E+00  0.00000000E+00  0.00000000E+00
  0.00000000E+00  0.00000000E+00  0.00000000E+00
  0.00000000E+00  0.00000000E+00  0.00000000E+00
  0.00000000E+00  0.00000000E+00  0.00000000E+00
  0.00000000E+00  0.00000000E+00  0.00000000E+00
  0.00000000E+00  0.00000000E+00  0.00000000E+00
  0.00000000E+00  0.00000000E+00  0.00000000E+00
  0.00000000E+00  0.00000000E+00  0.00000000E+00
  0.00000000E+00  0.00000000E+00  0.00000000E+00
  0.00000000E+00  0.00000000E+00  0.00000000E+00
  0.00000000E+00  0.00000000E+00  0.00000000E+00
  0.00000000E+00  0.00000000E+00  0.00000000E+00
  0.00000000E+00  0.00000000E+00  0.00000000E+00
  0.00000000E+00  0.00000000E+00  0.00000000E+00
  0.00000000E+00  0.00000000E+00  0.00000000E+00
  0.00000000E+00  0.00000000E+00  0.00000000E+00
  0.00000000E+00  0.00000000E+00  0.00000000E+00
  0.00000000E+00  0.00000000E+00  0.00000000E+00
  0.00000000E+00  0.00000000E+00  0.00000000E+00
  0.00000000E+00  0.00000000E+00  0.00000000E+00
  0.00000000E+00  0.00000000E+00  0.00000000E+00
  0.00000000E+00  0.00000000E+00  0.00000000E+00
  0.00000000E+00  0.00000000E+00  0.00000000E+00
  0.00000000E+00  0.00000000E+00  0.00000000E+00
  0.00000000E+00  0.00000000E+00  0.00000000E+00
  0.00000000E+00  0.00000000E+00  0.00000000E+00
  0.00000000E+00  0.00000000E+00  0.00000000E+00
  0.00000000E+00  0.00000000E+00  0.00000000E+00
  0.00000000E+00  0.00000000E+00  0.00000000E+00
  0.00000000E+00  0.00000000E+00  0.00000000E+00
