 Sc5 Cl8                                
   1.00000000000000     
     3.5343807221571764    0.0000000000000000    0.0000000000000000
     0.0000000000000000   13.3227436781476118    0.0000000000000000
     0.0000000000000000    0.0000000000000000   20.2078215463039967
   Sc   Cl
     5     8
Direct
  0.0000403617259295  0.0000113139219522  0.4999976746623389
  0.5000512414845275  0.3343816573402165  0.5091967323583262
  0.5000617545492005  0.6656317104493610  0.4908067998552426
  0.0000527467432434  0.5096587571379629  0.5752355912515128
  0.0000606778961938  0.4902791526963384  0.4247685479237404
  0.5000509831308193  0.3895608154011327  0.6290862528696906
  0.5000634076561568  0.6104514979157756  0.3709320321853369
  0.5000409595403781  0.0179962440788159  0.4133012584246103
  0.5000411912742422  0.9820067204766687  0.5866912802664288
  0.5000540213580464  0.6419471299271891  0.6149252916483618
  0.5000589386763252  0.3580593888361960  0.3850614894232010
  0.0000599634852421  0.8067699686309737  0.4820606239415639
  0.0000483457893736  0.1932140573576646  0.5179364251896388
 
  0.00000000E+00  0.00000000E+00  0.00000000E+00
  0.00000000E+00  0.00000000E+00  0.00000000E+00
  0.00000000E+00  0.00000000E+00  0.00000000E+00
  0.00000000E+00  0.00000000E+00  0.00000000E+00
  0.00000000E+00  0.00000000E+00  0.00000000E+00
  0.00000000E+00  0.00000000E+00  0.00000000E+00
  0.00000000E+00  0.00000000E+00  0.00000000E+00
  0.00000000E+00  0.00000000E+00  0.00000000E+00
  0.00000000E+00  0.00000000E+00  0.00000000E+00
  0.00000000E+00  0.00000000E+00  0.00000000E+00
  0.00000000E+00  0.00000000E+00  0.00000000E+00
  0.00000000E+00  0.00000000E+00  0.00000000E+00
  0.00000000E+00  0.00000000E+00  0.00000000E+00
