G   57   15    1    0.005     # Parameters to Generate KPOINTS (Don't Edit This Line)
     428
Reciprocal lattice
    0.000000000000    0.000000000000    0.000000000000       1
    0.017543859649    0.000000000000    0.000000000000       2
    0.035087719298    0.000000000000    0.000000000000       2
    0.052631578947    0.000000000000    0.000000000000       2
    0.070175438596    0.000000000000    0.000000000000       2
    0.087719298246    0.000000000000    0.000000000000       2
    0.105263157895    0.000000000000    0.000000000000       2
    0.122807017544    0.000000000000    0.000000000000       2
    0.140350877193    0.000000000000    0.000000000000       2
    0.157894736842    0.000000000000    0.000000000000       2
    0.175438596491    0.000000000000    0.000000000000       2
    0.192982456140    0.000000000000    0.000000000000       2
    0.210526315789    0.000000000000    0.000000000000       2
    0.228070175439    0.000000000000    0.000000000000       2
    0.245614035088    0.000000000000    0.000000000000       2
    0.263157894737    0.000000000000    0.000000000000       2
    0.280701754386    0.000000000000    0.000000000000       2
    0.298245614035    0.000000000000    0.000000000000       2
    0.315789473684    0.000000000000    0.000000000000       2
    0.333333333333    0.000000000000    0.000000000000       2
    0.350877192982    0.000000000000    0.000000000000       2
    0.368421052632    0.000000000000    0.000000000000       2
    0.385964912281    0.000000000000    0.000000000000       2
    0.403508771930    0.000000000000    0.000000000000       2
    0.421052631579    0.000000000000    0.000000000000       2
    0.438596491228    0.000000000000    0.000000000000       2
    0.456140350877    0.000000000000    0.000000000000       2
    0.473684210526    0.000000000000    0.000000000000       2
    0.491228070175    0.000000000000    0.000000000000       2
    0.000000000000    0.066666666667    0.000000000000       2
    0.017543859649    0.066666666667    0.000000000000       2
    0.035087719298    0.066666666667    0.000000000000       2
    0.052631578947    0.066666666667    0.000000000000       2
    0.070175438596    0.066666666667    0.000000000000       2
    0.087719298246    0.066666666667    0.000000000000       2
    0.105263157895    0.066666666667    0.000000000000       2
    0.122807017544    0.066666666667    0.000000000000       2
    0.140350877193    0.066666666667    0.000000000000       2
    0.157894736842    0.066666666667    0.000000000000       2
    0.175438596491    0.066666666667    0.000000000000       2
    0.192982456140    0.066666666667    0.000000000000       2
    0.210526315789    0.066666666667    0.000000000000       2
    0.228070175439    0.066666666667    0.000000000000       2
    0.245614035088    0.066666666667    0.000000000000       2
    0.263157894737    0.066666666667    0.000000000000       2
    0.280701754386    0.066666666667    0.000000000000       2
    0.298245614035    0.066666666667    0.000000000000       2
    0.315789473684    0.066666666667    0.000000000000       2
    0.333333333333    0.066666666667    0.000000000000       2
    0.350877192982    0.066666666667    0.000000000000       2
    0.368421052632    0.066666666667    0.000000000000       2
    0.385964912281    0.066666666667    0.000000000000       2
    0.403508771930    0.066666666667    0.000000000000       2
    0.421052631579    0.066666666667    0.000000000000       2
    0.438596491228    0.066666666667    0.000000000000       2
    0.456140350877    0.066666666667    0.000000000000       2
    0.473684210526    0.066666666667    0.000000000000       2
    0.491228070175    0.066666666667    0.000000000000       2
   -0.491228070175    0.066666666667    0.000000000000       2
   -0.473684210526    0.066666666667    0.000000000000       2
   -0.456140350877    0.066666666667    0.000000000000       2
   -0.438596491228    0.066666666667    0.000000000000       2
   -0.421052631579    0.066666666667    0.000000000000       2
   -0.403508771930    0.066666666667    0.000000000000       2
   -0.385964912281    0.066666666667    0.000000000000       2
   -0.368421052632    0.066666666667    0.000000000000       2
   -0.350877192982    0.066666666667    0.000000000000       2
   -0.333333333333    0.066666666667    0.000000000000       2
   -0.315789473684    0.066666666667    0.000000000000       2
   -0.298245614035    0.066666666667    0.000000000000       2
   -0.280701754386    0.066666666667    0.000000000000       2
   -0.263157894737    0.066666666667    0.000000000000       2
   -0.245614035088    0.066666666667    0.000000000000       2
   -0.228070175439    0.066666666667    0.000000000000       2
   -0.210526315789    0.066666666667    0.000000000000       2
   -0.192982456140    0.066666666667    0.000000000000       2
   -0.175438596491    0.066666666667    0.000000000000       2
   -0.157894736842    0.066666666667    0.000000000000       2
   -0.140350877193    0.066666666667    0.000000000000       2
   -0.122807017544    0.066666666667    0.000000000000       2
   -0.105263157895    0.066666666667    0.000000000000       2
   -0.087719298246    0.066666666667    0.000000000000       2
   -0.070175438596    0.066666666667    0.000000000000       2
   -0.052631578947    0.066666666667    0.000000000000       2
   -0.035087719298    0.066666666667    0.000000000000       2
   -0.017543859649    0.066666666667    0.000000000000       2
    0.000000000000    0.133333333333    0.000000000000       2
    0.017543859649    0.133333333333    0.000000000000       2
    0.035087719298    0.133333333333    0.000000000000       2
    0.052631578947    0.133333333333    0.000000000000       2
    0.070175438596    0.133333333333    0.000000000000       2
    0.087719298246    0.133333333333    0.000000000000       2
    0.105263157895    0.133333333333    0.000000000000       2
    0.122807017544    0.133333333333    0.000000000000       2
    0.140350877193    0.133333333333    0.000000000000       2
    0.157894736842    0.133333333333    0.000000000000       2
    0.175438596491    0.133333333333    0.000000000000       2
    0.192982456140    0.133333333333    0.000000000000       2
    0.210526315789    0.133333333333    0.000000000000       2
    0.228070175439    0.133333333333    0.000000000000       2
    0.245614035088    0.133333333333    0.000000000000       2
    0.263157894737    0.133333333333    0.000000000000       2
    0.280701754386    0.133333333333    0.000000000000       2
    0.298245614035    0.133333333333    0.000000000000       2
    0.315789473684    0.133333333333    0.000000000000       2
    0.333333333333    0.133333333333    0.000000000000       2
    0.350877192982    0.133333333333    0.000000000000       2
    0.368421052632    0.133333333333    0.000000000000       2
    0.385964912281    0.133333333333    0.000000000000       2
    0.403508771930    0.133333333333    0.000000000000       2
    0.421052631579    0.133333333333    0.000000000000       2
    0.438596491228    0.133333333333    0.000000000000       2
    0.456140350877    0.133333333333    0.000000000000       2
    0.473684210526    0.133333333333    0.000000000000       2
    0.491228070175    0.133333333333    0.000000000000       2
   -0.491228070175    0.133333333333    0.000000000000       2
   -0.473684210526    0.133333333333    0.000000000000       2
   -0.456140350877    0.133333333333    0.000000000000       2
   -0.438596491228    0.133333333333    0.000000000000       2
   -0.421052631579    0.133333333333    0.000000000000       2
   -0.403508771930    0.133333333333    0.000000000000       2
   -0.385964912281    0.133333333333    0.000000000000       2
   -0.368421052632    0.133333333333    0.000000000000       2
   -0.350877192982    0.133333333333    0.000000000000       2
   -0.333333333333    0.133333333333    0.000000000000       2
   -0.315789473684    0.133333333333    0.000000000000       2
   -0.298245614035    0.133333333333    0.000000000000       2
   -0.280701754386    0.133333333333    0.000000000000       2
   -0.263157894737    0.133333333333    0.000000000000       2
   -0.245614035088    0.133333333333    0.000000000000       2
   -0.228070175439    0.133333333333    0.000000000000       2
   -0.210526315789    0.133333333333    0.000000000000       2
   -0.192982456140    0.133333333333    0.000000000000       2
   -0.175438596491    0.133333333333    0.000000000000       2
   -0.157894736842    0.133333333333    0.000000000000       2
   -0.140350877193    0.133333333333    0.000000000000       2
   -0.122807017544    0.133333333333    0.000000000000       2
   -0.105263157895    0.133333333333    0.000000000000       2
   -0.087719298246    0.133333333333    0.000000000000       2
   -0.070175438596    0.133333333333    0.000000000000       2
   -0.052631578947    0.133333333333    0.000000000000       2
   -0.035087719298    0.133333333333    0.000000000000       2
   -0.017543859649    0.133333333333    0.000000000000       2
    0.000000000000    0.200000000000    0.000000000000       2
    0.017543859649    0.200000000000    0.000000000000       2
    0.035087719298    0.200000000000    0.000000000000       2
    0.052631578947    0.200000000000    0.000000000000       2
    0.070175438596    0.200000000000    0.000000000000       2
    0.087719298246    0.200000000000    0.000000000000       2
    0.105263157895    0.200000000000    0.000000000000       2
    0.122807017544    0.200000000000    0.000000000000       2
    0.140350877193    0.200000000000    0.000000000000       2
    0.157894736842    0.200000000000    0.000000000000       2
    0.175438596491    0.200000000000    0.000000000000       2
    0.192982456140    0.200000000000    0.000000000000       2
    0.210526315789    0.200000000000    0.000000000000       2
    0.228070175439    0.200000000000    0.000000000000       2
    0.245614035088    0.200000000000    0.000000000000       2
    0.263157894737    0.200000000000    0.000000000000       2
    0.280701754386    0.200000000000    0.000000000000       2
    0.298245614035    0.200000000000    0.000000000000       2
    0.315789473684    0.200000000000    0.000000000000       2
    0.333333333333    0.200000000000    0.000000000000       2
    0.350877192982    0.200000000000    0.000000000000       2
    0.368421052632    0.200000000000    0.000000000000       2
    0.385964912281    0.200000000000    0.000000000000       2
    0.403508771930    0.200000000000    0.000000000000       2
    0.421052631579    0.200000000000    0.000000000000       2
    0.438596491228    0.200000000000    0.000000000000       2
    0.456140350877    0.200000000000    0.000000000000       2
    0.473684210526    0.200000000000    0.000000000000       2
    0.491228070175    0.200000000000    0.000000000000       2
   -0.491228070175    0.200000000000    0.000000000000       2
   -0.473684210526    0.200000000000    0.000000000000       2
   -0.456140350877    0.200000000000    0.000000000000       2
   -0.438596491228    0.200000000000    0.000000000000       2
   -0.421052631579    0.200000000000    0.000000000000       2
   -0.403508771930    0.200000000000    0.000000000000       2
   -0.385964912281    0.200000000000    0.000000000000       2
   -0.368421052632    0.200000000000    0.000000000000       2
   -0.350877192982    0.200000000000    0.000000000000       2
   -0.333333333333    0.200000000000    0.000000000000       2
   -0.315789473684    0.200000000000    0.000000000000       2
   -0.298245614035    0.200000000000    0.000000000000       2
   -0.280701754386    0.200000000000    0.000000000000       2
   -0.263157894737    0.200000000000    0.000000000000       2
   -0.245614035088    0.200000000000    0.000000000000       2
   -0.228070175439    0.200000000000    0.000000000000       2
   -0.210526315789    0.200000000000    0.000000000000       2
   -0.192982456140    0.200000000000    0.000000000000       2
   -0.175438596491    0.200000000000    0.000000000000       2
   -0.157894736842    0.200000000000    0.000000000000       2
   -0.140350877193    0.200000000000    0.000000000000       2
   -0.122807017544    0.200000000000    0.000000000000       2
   -0.105263157895    0.200000000000    0.000000000000       2
   -0.087719298246    0.200000000000    0.000000000000       2
   -0.070175438596    0.200000000000    0.000000000000       2
   -0.052631578947    0.200000000000    0.000000000000       2
   -0.035087719298    0.200000000000    0.000000000000       2
   -0.017543859649    0.200000000000    0.000000000000       2
    0.000000000000    0.266666666667    0.000000000000       2
    0.017543859649    0.266666666667    0.000000000000       2
    0.035087719298    0.266666666667    0.000000000000       2
    0.052631578947    0.266666666667    0.000000000000       2
    0.070175438596    0.266666666667    0.000000000000       2
    0.087719298246    0.266666666667    0.000000000000       2
    0.105263157895    0.266666666667    0.000000000000       2
    0.122807017544    0.266666666667    0.000000000000       2
    0.140350877193    0.266666666667    0.000000000000       2
    0.157894736842    0.266666666667    0.000000000000       2
    0.175438596491    0.266666666667    0.000000000000       2
    0.192982456140    0.266666666667    0.000000000000       2
    0.210526315789    0.266666666667    0.000000000000       2
    0.228070175439    0.266666666667    0.000000000000       2
    0.245614035088    0.266666666667    0.000000000000       2
    0.263157894737    0.266666666667    0.000000000000       2
    0.280701754386    0.266666666667    0.000000000000       2
    0.298245614035    0.266666666667    0.000000000000       2
    0.315789473684    0.266666666667    0.000000000000       2
    0.333333333333    0.266666666667    0.000000000000       2
    0.350877192982    0.266666666667    0.000000000000       2
    0.368421052632    0.266666666667    0.000000000000       2
    0.385964912281    0.266666666667    0.000000000000       2
    0.403508771930    0.266666666667    0.000000000000       2
    0.421052631579    0.266666666667    0.000000000000       2
    0.438596491228    0.266666666667    0.000000000000       2
    0.456140350877    0.266666666667    0.000000000000       2
    0.473684210526    0.266666666667    0.000000000000       2
    0.491228070175    0.266666666667    0.000000000000       2
   -0.491228070175    0.266666666667    0.000000000000       2
   -0.473684210526    0.266666666667    0.000000000000       2
   -0.456140350877    0.266666666667    0.000000000000       2
   -0.438596491228    0.266666666667    0.000000000000       2
   -0.421052631579    0.266666666667    0.000000000000       2
   -0.403508771930    0.266666666667    0.000000000000       2
   -0.385964912281    0.266666666667    0.000000000000       2
   -0.368421052632    0.266666666667    0.000000000000       2
   -0.350877192982    0.266666666667    0.000000000000       2
   -0.333333333333    0.266666666667    0.000000000000       2
   -0.315789473684    0.266666666667    0.000000000000       2
   -0.298245614035    0.266666666667    0.000000000000       2
   -0.280701754386    0.266666666667    0.000000000000       2
   -0.263157894737    0.266666666667    0.000000000000       2
   -0.245614035088    0.266666666667    0.000000000000       2
   -0.228070175439    0.266666666667    0.000000000000       2
   -0.210526315789    0.266666666667    0.000000000000       2
   -0.192982456140    0.266666666667    0.000000000000       2
   -0.175438596491    0.266666666667    0.000000000000       2
   -0.157894736842    0.266666666667    0.000000000000       2
   -0.140350877193    0.266666666667    0.000000000000       2
   -0.122807017544    0.266666666667    0.000000000000       2
   -0.105263157895    0.266666666667    0.000000000000       2
   -0.087719298246    0.266666666667    0.000000000000       2
   -0.070175438596    0.266666666667    0.000000000000       2
   -0.052631578947    0.266666666667    0.000000000000       2
   -0.035087719298    0.266666666667    0.000000000000       2
   -0.017543859649    0.266666666667    0.000000000000       2
    0.000000000000    0.333333333333    0.000000000000       2
    0.017543859649    0.333333333333    0.000000000000       2
    0.035087719298    0.333333333333    0.000000000000       2
    0.052631578947    0.333333333333    0.000000000000       2
    0.070175438596    0.333333333333    0.000000000000       2
    0.087719298246    0.333333333333    0.000000000000       2
    0.105263157895    0.333333333333    0.000000000000       2
    0.122807017544    0.333333333333    0.000000000000       2
    0.140350877193    0.333333333333    0.000000000000       2
    0.157894736842    0.333333333333    0.000000000000       2
    0.175438596491    0.333333333333    0.000000000000       2
    0.192982456140    0.333333333333    0.000000000000       2
    0.210526315789    0.333333333333    0.000000000000       2
    0.228070175439    0.333333333333    0.000000000000       2
    0.245614035088    0.333333333333    0.000000000000       2
    0.263157894737    0.333333333333    0.000000000000       2
    0.280701754386    0.333333333333    0.000000000000       2
    0.298245614035    0.333333333333    0.000000000000       2
    0.315789473684    0.333333333333    0.000000000000       2
    0.333333333333    0.333333333333    0.000000000000       2
    0.350877192982    0.333333333333    0.000000000000       2
    0.368421052632    0.333333333333    0.000000000000       2
    0.385964912281    0.333333333333    0.000000000000       2
    0.403508771930    0.333333333333    0.000000000000       2
    0.421052631579    0.333333333333    0.000000000000       2
    0.438596491228    0.333333333333    0.000000000000       2
    0.456140350877    0.333333333333    0.000000000000       2
    0.473684210526    0.333333333333    0.000000000000       2
    0.491228070175    0.333333333333    0.000000000000       2
   -0.491228070175    0.333333333333    0.000000000000       2
   -0.473684210526    0.333333333333    0.000000000000       2
   -0.456140350877    0.333333333333    0.000000000000       2
   -0.438596491228    0.333333333333    0.000000000000       2
   -0.421052631579    0.333333333333    0.000000000000       2
   -0.403508771930    0.333333333333    0.000000000000       2
   -0.385964912281    0.333333333333    0.000000000000       2
   -0.368421052632    0.333333333333    0.000000000000       2
   -0.350877192982    0.333333333333    0.000000000000       2
   -0.333333333333    0.333333333333    0.000000000000       2
   -0.315789473684    0.333333333333    0.000000000000       2
   -0.298245614035    0.333333333333    0.000000000000       2
   -0.280701754386    0.333333333333    0.000000000000       2
   -0.263157894737    0.333333333333    0.000000000000       2
   -0.245614035088    0.333333333333    0.000000000000       2
   -0.228070175439    0.333333333333    0.000000000000       2
   -0.210526315789    0.333333333333    0.000000000000       2
   -0.192982456140    0.333333333333    0.000000000000       2
   -0.175438596491    0.333333333333    0.000000000000       2
   -0.157894736842    0.333333333333    0.000000000000       2
   -0.140350877193    0.333333333333    0.000000000000       2
   -0.122807017544    0.333333333333    0.000000000000       2
   -0.105263157895    0.333333333333    0.000000000000       2
   -0.087719298246    0.333333333333    0.000000000000       2
   -0.070175438596    0.333333333333    0.000000000000       2
   -0.052631578947    0.333333333333    0.000000000000       2
   -0.035087719298    0.333333333333    0.000000000000       2
   -0.017543859649    0.333333333333    0.000000000000       2
    0.000000000000    0.400000000000    0.000000000000       2
    0.017543859649    0.400000000000    0.000000000000       2
    0.035087719298    0.400000000000    0.000000000000       2
    0.052631578947    0.400000000000    0.000000000000       2
    0.070175438596    0.400000000000    0.000000000000       2
    0.087719298246    0.400000000000    0.000000000000       2
    0.105263157895    0.400000000000    0.000000000000       2
    0.122807017544    0.400000000000    0.000000000000       2
    0.140350877193    0.400000000000    0.000000000000       2
    0.157894736842    0.400000000000    0.000000000000       2
    0.175438596491    0.400000000000    0.000000000000       2
    0.192982456140    0.400000000000    0.000000000000       2
    0.210526315789    0.400000000000    0.000000000000       2
    0.228070175439    0.400000000000    0.000000000000       2
    0.245614035088    0.400000000000    0.000000000000       2
    0.263157894737    0.400000000000    0.000000000000       2
    0.280701754386    0.400000000000    0.000000000000       2
    0.298245614035    0.400000000000    0.000000000000       2
    0.315789473684    0.400000000000    0.000000000000       2
    0.333333333333    0.400000000000    0.000000000000       2
    0.350877192982    0.400000000000    0.000000000000       2
    0.368421052632    0.400000000000    0.000000000000       2
    0.385964912281    0.400000000000    0.000000000000       2
    0.403508771930    0.400000000000    0.000000000000       2
    0.421052631579    0.400000000000    0.000000000000       2
    0.438596491228    0.400000000000    0.000000000000       2
    0.456140350877    0.400000000000    0.000000000000       2
    0.473684210526    0.400000000000    0.000000000000       2
    0.491228070175    0.400000000000    0.000000000000       2
   -0.491228070175    0.400000000000    0.000000000000       2
   -0.473684210526    0.400000000000    0.000000000000       2
   -0.456140350877    0.400000000000    0.000000000000       2
   -0.438596491228    0.400000000000    0.000000000000       2
   -0.421052631579    0.400000000000    0.000000000000       2
   -0.403508771930    0.400000000000    0.000000000000       2
   -0.385964912281    0.400000000000    0.000000000000       2
   -0.368421052632    0.400000000000    0.000000000000       2
   -0.350877192982    0.400000000000    0.000000000000       2
   -0.333333333333    0.400000000000    0.000000000000       2
   -0.315789473684    0.400000000000    0.000000000000       2
   -0.298245614035    0.400000000000    0.000000000000       2
   -0.280701754386    0.400000000000    0.000000000000       2
   -0.263157894737    0.400000000000    0.000000000000       2
   -0.245614035088    0.400000000000    0.000000000000       2
   -0.228070175439    0.400000000000    0.000000000000       2
   -0.210526315789    0.400000000000    0.000000000000       2
   -0.192982456140    0.400000000000    0.000000000000       2
   -0.175438596491    0.400000000000    0.000000000000       2
   -0.157894736842    0.400000000000    0.000000000000       2
   -0.140350877193    0.400000000000    0.000000000000       2
   -0.122807017544    0.400000000000    0.000000000000       2
   -0.105263157895    0.400000000000    0.000000000000       2
   -0.087719298246    0.400000000000    0.000000000000       2
   -0.070175438596    0.400000000000    0.000000000000       2
   -0.052631578947    0.400000000000    0.000000000000       2
   -0.035087719298    0.400000000000    0.000000000000       2
   -0.017543859649    0.400000000000    0.000000000000       2
    0.000000000000    0.466666666667    0.000000000000       2
    0.017543859649    0.466666666667    0.000000000000       2
    0.035087719298    0.466666666667    0.000000000000       2
    0.052631578947    0.466666666667    0.000000000000       2
    0.070175438596    0.466666666667    0.000000000000       2
    0.087719298246    0.466666666667    0.000000000000       2
    0.105263157895    0.466666666667    0.000000000000       2
    0.122807017544    0.466666666667    0.000000000000       2
    0.140350877193    0.466666666667    0.000000000000       2
    0.157894736842    0.466666666667    0.000000000000       2
    0.175438596491    0.466666666667    0.000000000000       2
    0.192982456140    0.466666666667    0.000000000000       2
    0.210526315789    0.466666666667    0.000000000000       2
    0.228070175439    0.466666666667    0.000000000000       2
    0.245614035088    0.466666666667    0.000000000000       2
    0.263157894737    0.466666666667    0.000000000000       2
    0.280701754386    0.466666666667    0.000000000000       2
    0.298245614035    0.466666666667    0.000000000000       2
    0.315789473684    0.466666666667    0.000000000000       2
    0.333333333333    0.466666666667    0.000000000000       2
    0.350877192982    0.466666666667    0.000000000000       2
    0.368421052632    0.466666666667    0.000000000000       2
    0.385964912281    0.466666666667    0.000000000000       2
    0.403508771930    0.466666666667    0.000000000000       2
    0.421052631579    0.466666666667    0.000000000000       2
    0.438596491228    0.466666666667    0.000000000000       2
    0.456140350877    0.466666666667    0.000000000000       2
    0.473684210526    0.466666666667    0.000000000000       2
    0.491228070175    0.466666666667    0.000000000000       2
   -0.491228070175    0.466666666667    0.000000000000       2
   -0.473684210526    0.466666666667    0.000000000000       2
   -0.456140350877    0.466666666667    0.000000000000       2
   -0.438596491228    0.466666666667    0.000000000000       2
   -0.421052631579    0.466666666667    0.000000000000       2
   -0.403508771930    0.466666666667    0.000000000000       2
   -0.385964912281    0.466666666667    0.000000000000       2
   -0.368421052632    0.466666666667    0.000000000000       2
   -0.350877192982    0.466666666667    0.000000000000       2
   -0.333333333333    0.466666666667    0.000000000000       2
   -0.315789473684    0.466666666667    0.000000000000       2
   -0.298245614035    0.466666666667    0.000000000000       2
   -0.280701754386    0.466666666667    0.000000000000       2
   -0.263157894737    0.466666666667    0.000000000000       2
   -0.245614035088    0.466666666667    0.000000000000       2
   -0.228070175439    0.466666666667    0.000000000000       2
   -0.210526315789    0.466666666667    0.000000000000       2
   -0.192982456140    0.466666666667    0.000000000000       2
   -0.175438596491    0.466666666667    0.000000000000       2
   -0.157894736842    0.466666666667    0.000000000000       2
   -0.140350877193    0.466666666667    0.000000000000       2
   -0.122807017544    0.466666666667    0.000000000000       2
   -0.105263157895    0.466666666667    0.000000000000       2
   -0.087719298246    0.466666666667    0.000000000000       2
   -0.070175438596    0.466666666667    0.000000000000       2
   -0.052631578947    0.466666666667    0.000000000000       2
   -0.035087719298    0.466666666667    0.000000000000       2
   -0.017543859649    0.466666666667    0.000000000000       2
