 Ho2 Te6                                
   1.00000000000000     
     4.3061535780195639    0.0000000000000000    0.0000000000000000
     0.0000000000000000    4.3061563432754708    0.0000000000000000
     0.0000000000000000    0.0000000000000000   24.0865583349039944
   Ho   Te
     2     6
Direct
  0.5000006839947062  0.9999997564511531  0.5849493332178852
  0.9999994147326348  0.5000000975382122  0.4150506961316651
  0.9999999528832220  0.0000000420963957  0.3114212967080547
  0.4999999070191095  0.5000001023095848  0.6885786716803040
  0.0000000014978383  0.0000000059962488  0.6885786775320000
  0.4999999585111468  0.5000000063914811  0.3114212911278429
  0.4999999719227119  0.0000000302570058  0.4534732865388591
  0.0000001094386235  0.4999999589599184  0.5465267470633890
 
  0.00000000E+00  0.00000000E+00  0.00000000E+00
  0.00000000E+00  0.00000000E+00  0.00000000E+00
  0.00000000E+00  0.00000000E+00  0.00000000E+00
  0.00000000E+00  0.00000000E+00  0.00000000E+00
  0.00000000E+00  0.00000000E+00  0.00000000E+00
  0.00000000E+00  0.00000000E+00  0.00000000E+00
  0.00000000E+00  0.00000000E+00  0.00000000E+00
  0.00000000E+00  0.00000000E+00  0.00000000E+00
