 Li2 Co2 As2                            
   1.00000000000000     
     3.6579622158108207    0.0000000000000000    0.0000000000000000
     0.0000000000000000    3.6579622883223832    0.0000000000000000
     0.0000000000000000    0.0000000000000000   19.0231607823100006
   Li   Co   As
     2     2     2
Direct
  0.4999999866130310 -0.0000000087837032  0.6052164621013333
 -0.0000000045650667  0.5000000122791097  0.3947835470595624
  0.4999999927606222  0.5000000032380185  0.5000000002916938
  0.0000000096556570 -0.0000000108216191  0.4999999985211229
  0.0000000150708560  0.5000000068195317  0.5769364465933031
  0.5000000004649003 -0.0000000027313377  0.4230635454329846
 
  0.00000000E+00  0.00000000E+00  0.00000000E+00
  0.00000000E+00  0.00000000E+00  0.00000000E+00
  0.00000000E+00  0.00000000E+00  0.00000000E+00
  0.00000000E+00  0.00000000E+00  0.00000000E+00
  0.00000000E+00  0.00000000E+00  0.00000000E+00
  0.00000000E+00  0.00000000E+00  0.00000000E+00
