CONTCAR\(27)                            
   1.00000000000000     
    11.4961004256999999    0.0000000000000000    0.0000000000000000
     0.0000000000000000   11.5296001433999997    0.0000000000000000
     0.0000000000000000    0.0000000000000000   20.4391994476000001
   Sr   Co   Cl   O 
    18     9    18    18
Direct
  0.1666699920000028  0.1666699929999993  0.4127400010000031
  0.1666699920000028  0.1666599939999998  0.5872599989999969
  0.5000000000000000  0.1666699929999993  0.4127400010000031
  0.5000000000000000  0.1666599939999998  0.5872599989999969
  0.8333299459999992  0.1666699929999993  0.4127400010000031
  0.8333299459999992  0.1666599939999998  0.5872599989999969
  0.1666699920000028  0.5000100090000004  0.4127400010000031
  0.1666699920000028  0.4999899909999996  0.5872599989999969
  0.5000000000000000  0.5000100090000004  0.4127400010000031
  0.5000000000000000  0.4999899909999996  0.5872599989999969
  0.8333299459999992  0.5000100090000004  0.4127400010000031
  0.8333299459999992  0.4999899909999996  0.5872599989999969
  0.1666699920000028  0.8333400060000002  0.4127400010000031
  0.1666699920000028  0.8333299969999999  0.5872599989999969
  0.5000000000000000  0.8333400060000002  0.4127400010000031
  0.5000000000000000  0.8333299969999999  0.5872599989999969
  0.8333299459999992  0.8333400060000002  0.4127400010000031
  0.8333299459999992  0.8333299969999999  0.5872599989999969
  0.0000000000000000  0.0000000000000000  0.5000000000000000
  0.3333300079999972  0.0000000000000000  0.5000000000000000
  0.6666700130000009  0.0000000000000000  0.5000000000000000
  0.0000000000000000  0.3333299969999999  0.5000000000000000
  0.3333300079999972  0.3333299969999999  0.5000000000000000
  0.6666700130000009  0.3333299969999999  0.5000000000000000
  0.0000000000000000  0.6666700440000000  0.5000000000000000
  0.3333300079999972  0.6666700440000000  0.5000000000000000
  0.6666700130000009  0.6666700440000000  0.5000000000000000
  0.0000000000000000  0.0000100000000032  0.3458200039999966
  0.0000000000000000  0.3333199890000031  0.6541799960000034
  0.3333300079999972  0.0000100000000032  0.3458200039999966
  0.3333300079999972  0.3333199890000031  0.6541799960000034
  0.6666700130000009  0.0000100000000032  0.3458200039999966
  0.6666700130000009  0.3333199890000031  0.6541799960000034
  0.0000000000000000  0.3333399850000021  0.3458200039999966
  0.0000000000000000  0.6666599939999998  0.6541799960000034
  0.3333300079999972  0.3333399850000021  0.3458200039999966
  0.3333300079999972  0.6666599939999998  0.6541799960000034
  0.6666700130000009  0.3333399850000021  0.3458200039999966
  0.6666700130000009  0.6666599939999998  0.6541799960000034
  0.0000000000000000  0.6666799699999970  0.3458200039999966
  0.0000000000000000  0.9999899909999996  0.6541799960000034
  0.3333300079999972  0.6666799699999970  0.3458200039999966
  0.3333300079999972  0.9999899909999996  0.6541799960000034
  0.6666700130000009  0.6666799699999970  0.3458200039999966
  0.6666700130000009  0.9999899909999996  0.6541799960000034
  0.1666699920000028  0.0000000000000000  0.5000000000000000
  0.0000000000000000  0.1666699929999993  0.5000000000000000
  0.5000000000000000  0.0000000000000000  0.5000000000000000
  0.3333300079999972  0.1666699929999993  0.5000000000000000
  0.8333299459999992  0.0000000000000000  0.5000000000000000
  0.6666700130000009  0.1666699929999993  0.5000000000000000
  0.1666699920000028  0.3333299969999999  0.5000000000000000
  0.0000000000000000  0.5000000000000000  0.5000000000000000
  0.5000000000000000  0.3333299969999999  0.5000000000000000
  0.3333300079999972  0.5000000000000000  0.5000000000000000
  0.8333299459999992  0.3333299969999999  0.5000000000000000
  0.6666700130000009  0.5000000000000000  0.5000000000000000
  0.1666699920000028  0.6666700440000000  0.5000000000000000
  0.0000000000000000  0.8333299969999999  0.5000000000000000
  0.5000000000000000  0.6666700440000000  0.5000000000000000
  0.3333300079999972  0.8333299969999999  0.5000000000000000
  0.8333299459999992  0.6666700440000000  0.5000000000000000
  0.6666700130000009  0.8333299969999999  0.5000000000000000
 
  0.00000000E+00  0.00000000E+00  0.00000000E+00
  0.00000000E+00  0.00000000E+00  0.00000000E+00
  0.00000000E+00  0.00000000E+00  0.00000000E+00
  0.00000000E+00  0.00000000E+00  0.00000000E+00
  0.00000000E+00  0.00000000E+00  0.00000000E+00
  0.00000000E+00  0.00000000E+00  0.00000000E+00
  0.00000000E+00  0.00000000E+00  0.00000000E+00
  0.00000000E+00  0.00000000E+00  0.00000000E+00
  0.00000000E+00  0.00000000E+00  0.00000000E+00
  0.00000000E+00  0.00000000E+00  0.00000000E+00
  0.00000000E+00  0.00000000E+00  0.00000000E+00
  0.00000000E+00  0.00000000E+00  0.00000000E+00
  0.00000000E+00  0.00000000E+00  0.00000000E+00
  0.00000000E+00  0.00000000E+00  0.00000000E+00
  0.00000000E+00  0.00000000E+00  0.00000000E+00
  0.00000000E+00  0.00000000E+00  0.00000000E+00
  0.00000000E+00  0.00000000E+00  0.00000000E+00
  0.00000000E+00  0.00000000E+00  0.00000000E+00
  0.00000000E+00  0.00000000E+00  0.00000000E+00
  0.00000000E+00  0.00000000E+00  0.00000000E+00
  0.00000000E+00  0.00000000E+00  0.00000000E+00
  0.00000000E+00  0.00000000E+00  0.00000000E+00
  0.00000000E+00  0.00000000E+00  0.00000000E+00
  0.00000000E+00  0.00000000E+00  0.00000000E+00
  0.00000000E+00  0.00000000E+00  0.00000000E+00
  0.00000000E+00  0.00000000E+00  0.00000000E+00
  0.00000000E+00  0.00000000E+00  0.00000000E+00
  0.00000000E+00  0.00000000E+00  0.00000000E+00
  0.00000000E+00  0.00000000E+00  0.00000000E+00
  0.00000000E+00  0.00000000E+00  0.00000000E+00
  0.00000000E+00  0.00000000E+00  0.00000000E+00
  0.00000000E+00  0.00000000E+00  0.00000000E+00
  0.00000000E+00  0.00000000E+00  0.00000000E+00
  0.00000000E+00  0.00000000E+00  0.00000000E+00
  0.00000000E+00  0.00000000E+00  0.00000000E+00
  0.00000000E+00  0.00000000E+00  0.00000000E+00
  0.00000000E+00  0.00000000E+00  0.00000000E+00
  0.00000000E+00  0.00000000E+00  0.00000000E+00
  0.00000000E+00  0.00000000E+00  0.00000000E+00
  0.00000000E+00  0.00000000E+00  0.00000000E+00
  0.00000000E+00  0.00000000E+00  0.00000000E+00
  0.00000000E+00  0.00000000E+00  0.00000000E+00
  0.00000000E+00  0.00000000E+00  0.00000000E+00
  0.00000000E+00  0.00000000E+00  0.00000000E+00
  0.00000000E+00  0.00000000E+00  0.00000000E+00
  0.00000000E+00  0.00000000E+00  0.00000000E+00
  0.00000000E+00  0.00000000E+00  0.00000000E+00
  0.00000000E+00  0.00000000E+00  0.00000000E+00
  0.00000000E+00  0.00000000E+00  0.00000000E+00
  0.00000000E+00  0.00000000E+00  0.00000000E+00
  0.00000000E+00  0.00000000E+00  0.00000000E+00
  0.00000000E+00  0.00000000E+00  0.00000000E+00
  0.00000000E+00  0.00000000E+00  0.00000000E+00
  0.00000000E+00  0.00000000E+00  0.00000000E+00
  0.00000000E+00  0.00000000E+00  0.00000000E+00
  0.00000000E+00  0.00000000E+00  0.00000000E+00
  0.00000000E+00  0.00000000E+00  0.00000000E+00
  0.00000000E+00  0.00000000E+00  0.00000000E+00
  0.00000000E+00  0.00000000E+00  0.00000000E+00
  0.00000000E+00  0.00000000E+00  0.00000000E+00
  0.00000000E+00  0.00000000E+00  0.00000000E+00
  0.00000000E+00  0.00000000E+00  0.00000000E+00
  0.00000000E+00  0.00000000E+00  0.00000000E+00
