 Bi6 Te6                                
   1.00000000000000     
     4.4597622230180143    0.0000000000000000    0.0000000000000000
    -2.2298816091449112    3.8621126060081479    0.0000000000000000
     0.0000000000000000    0.0000000000000000   36.9293088183119949
   Bi   Te
     6     6
Direct
  0.3333499301537795  0.6666461619894969  0.6409108906879738
  0.6666880766792718  0.3333810275908917  0.3590874783146450
  0.9998627734165529  0.9999072692277374  0.2490844595317599
  0.9999899282076108  0.9999238384183431  0.7509150282321292
  0.6667429911459105  0.3334676744696212  0.5228305227687586
  0.3334335614989308  0.6667708813423374  0.4771737110231877
  0.3333093980297426  0.6666056190527589  0.7970492221434713
  0.6665790409415433  0.3332600587295000  0.2029506240712659
  0.0000351027227214  0.0000550342612297  0.4061577741379362
  0.0000152667395564 -0.0000035603006535  0.5938409339651239
  0.6666671079323840  0.3333200561255241  0.6954942663078998
  0.3333268225319887  0.6666659390932131  0.3045050888158484
 
  0.00000000E+00  0.00000000E+00  0.00000000E+00
  0.00000000E+00  0.00000000E+00  0.00000000E+00
  0.00000000E+00  0.00000000E+00  0.00000000E+00
  0.00000000E+00  0.00000000E+00  0.00000000E+00
  0.00000000E+00  0.00000000E+00  0.00000000E+00
  0.00000000E+00  0.00000000E+00  0.00000000E+00
  0.00000000E+00  0.00000000E+00  0.00000000E+00
  0.00000000E+00  0.00000000E+00  0.00000000E+00
  0.00000000E+00  0.00000000E+00  0.00000000E+00
  0.00000000E+00  0.00000000E+00  0.00000000E+00
  0.00000000E+00  0.00000000E+00  0.00000000E+00
  0.00000000E+00  0.00000000E+00  0.00000000E+00
