CONTCAR\(3)                             
   1.00000000000000     
    11.2482995986999992    0.0000000000000000    0.0000000000000000
     0.0000000000000000   13.7291002274000000    0.0000000000000000
     0.0000000000000000    0.0000000000000000   19.4125995636000006
   Zr   I    O    H 
    12    24     1     1
Direct
 -0.0001187793870570  0.2458886719714777  0.4999340367193396
  0.1682735625520956  0.0562839267552399  0.4947375997414593
  0.3333599868723101  0.2464399278717435  0.4997860575217168
  0.4984281355115047  0.0564776284384794  0.4947688833100010
  0.6667283591083799  0.2461018573848060  0.5000497825067495
  0.8332194966448662  0.0566206843491892  0.4947985378521325
 -0.0006068502581854  0.7459883349453539  0.4994747845866170
  0.1662621655773845  0.5570355774894344  0.4941904314739713
  0.3331992914242038  0.7472140233778564  0.4996288877255638
  0.5001957426578433  0.5570454333050857  0.4941595446351550
  0.6675315268434419  0.7460325712620078  0.4994982837251280
  0.8334947295916615  0.5565206992972748  0.4941523450265941
  0.0000918494501922  0.4408811401351929  0.5818059878215323
  0.0001591137367626  0.1106363751689334  0.3847847916399772
  0.1664028153497155  0.3618125700254782  0.4122402317987022
  0.1668313921389886  0.1917158068372399  0.6098555357482911
  0.3331391706684698  0.4415874803018986  0.5818012588052925
  0.3333187655026725  0.1119164717316930  0.3841588410434543
  0.5003279685824865  0.3619257369248856  0.4122424922286728
  0.4996192852045381  0.1918031244886318  0.6100438025339614
  0.6665774315495041  0.4411029749862877  0.5817940264210215
  0.6665380213041251  0.1114231955607275  0.3846898122927908
  0.8334335262051445  0.3617756599341931  0.4123168818723416
  0.8333509867448606  0.1915934285337628  0.6101441625913143
  0.0003375724457153  0.9406198977227157  0.5820236975602723
 -0.0002903517992641  0.6111837039455853  0.3839213036505313
  0.1663144678537456  0.8623723208069584  0.4118192090840275
  0.1682225322392852  0.6935440386066705  0.6082977127199513
  0.3331906978518412  0.9408502139828537  0.5819098218827149
  0.3332096377103465  0.6115966527385598  0.3840691887779147
  0.5004418665651581  0.8625237368583993  0.4121347929660975
  0.4985794168719894  0.6936052105471727  0.6080943172802936
  0.6662742618449631  0.9407837543346664  0.5820402248645622
  0.6669702503967688  0.6112360515072701  0.3839063167475269
  0.8333533016287641  0.8631696769099283  0.4118702806711265
  0.8334917267070381  0.6912883596268504  0.6095954515984071
  0.3353188849505007  0.7889558756256053  0.6960033859517342
  0.3356383701572644  0.7975870987099004  0.7459372336230489
 
  0.00000000E+00  0.00000000E+00  0.00000000E+00
  0.00000000E+00  0.00000000E+00  0.00000000E+00
  0.00000000E+00  0.00000000E+00  0.00000000E+00
  0.00000000E+00  0.00000000E+00  0.00000000E+00
  0.00000000E+00  0.00000000E+00  0.00000000E+00
  0.00000000E+00  0.00000000E+00  0.00000000E+00
  0.00000000E+00  0.00000000E+00  0.00000000E+00
  0.00000000E+00  0.00000000E+00  0.00000000E+00
  0.00000000E+00  0.00000000E+00  0.00000000E+00
  0.00000000E+00  0.00000000E+00  0.00000000E+00
  0.00000000E+00  0.00000000E+00  0.00000000E+00
  0.00000000E+00  0.00000000E+00  0.00000000E+00
  0.00000000E+00  0.00000000E+00  0.00000000E+00
  0.00000000E+00  0.00000000E+00  0.00000000E+00
  0.00000000E+00  0.00000000E+00  0.00000000E+00
  0.00000000E+00  0.00000000E+00  0.00000000E+00
  0.00000000E+00  0.00000000E+00  0.00000000E+00
  0.00000000E+00  0.00000000E+00  0.00000000E+00
  0.00000000E+00  0.00000000E+00  0.00000000E+00
  0.00000000E+00  0.00000000E+00  0.00000000E+00
  0.00000000E+00  0.00000000E+00  0.00000000E+00
  0.00000000E+00  0.00000000E+00  0.00000000E+00
  0.00000000E+00  0.00000000E+00  0.00000000E+00
  0.00000000E+00  0.00000000E+00  0.00000000E+00
  0.00000000E+00  0.00000000E+00  0.00000000E+00
  0.00000000E+00  0.00000000E+00  0.00000000E+00
  0.00000000E+00  0.00000000E+00  0.00000000E+00
  0.00000000E+00  0.00000000E+00  0.00000000E+00
  0.00000000E+00  0.00000000E+00  0.00000000E+00
  0.00000000E+00  0.00000000E+00  0.00000000E+00
  0.00000000E+00  0.00000000E+00  0.00000000E+00
  0.00000000E+00  0.00000000E+00  0.00000000E+00
  0.00000000E+00  0.00000000E+00  0.00000000E+00
  0.00000000E+00  0.00000000E+00  0.00000000E+00
  0.00000000E+00  0.00000000E+00  0.00000000E+00
  0.00000000E+00  0.00000000E+00  0.00000000E+00
  0.00000000E+00  0.00000000E+00  0.00000000E+00
  0.00000000E+00  0.00000000E+00  0.00000000E+00
