G   45   42    1    0.005     # Parameters to Generate KPOINTS (Don't Edit This Line)
     946
Reciprocal lattice
    0.000000000000    0.000000000000    0.000000000000       1
    0.022222222222    0.000000000000    0.000000000000       2
    0.044444444444    0.000000000000    0.000000000000       2
    0.066666666667    0.000000000000    0.000000000000       2
    0.088888888889    0.000000000000    0.000000000000       2
    0.111111111111    0.000000000000    0.000000000000       2
    0.133333333333    0.000000000000    0.000000000000       2
    0.155555555556    0.000000000000    0.000000000000       2
    0.177777777778    0.000000000000    0.000000000000       2
    0.200000000000    0.000000000000    0.000000000000       2
    0.222222222222    0.000000000000    0.000000000000       2
    0.244444444444    0.000000000000    0.000000000000       2
    0.266666666667    0.000000000000    0.000000000000       2
    0.288888888889    0.000000000000    0.000000000000       2
    0.311111111111    0.000000000000    0.000000000000       2
    0.333333333333    0.000000000000    0.000000000000       2
    0.355555555556    0.000000000000    0.000000000000       2
    0.377777777778    0.000000000000    0.000000000000       2
    0.400000000000    0.000000000000    0.000000000000       2
    0.422222222222    0.000000000000    0.000000000000       2
    0.444444444444    0.000000000000    0.000000000000       2
    0.466666666667    0.000000000000    0.000000000000       2
    0.488888888889    0.000000000000    0.000000000000       2
    0.000000000000    0.023809523810    0.000000000000       2
    0.022222222222    0.023809523810    0.000000000000       2
    0.044444444444    0.023809523810    0.000000000000       2
    0.066666666667    0.023809523810    0.000000000000       2
    0.088888888889    0.023809523810    0.000000000000       2
    0.111111111111    0.023809523810    0.000000000000       2
    0.133333333333    0.023809523810    0.000000000000       2
    0.155555555556    0.023809523810    0.000000000000       2
    0.177777777778    0.023809523810    0.000000000000       2
    0.200000000000    0.023809523810    0.000000000000       2
    0.222222222222    0.023809523810    0.000000000000       2
    0.244444444444    0.023809523810    0.000000000000       2
    0.266666666667    0.023809523810    0.000000000000       2
    0.288888888889    0.023809523810    0.000000000000       2
    0.311111111111    0.023809523810    0.000000000000       2
    0.333333333333    0.023809523810    0.000000000000       2
    0.355555555556    0.023809523810    0.000000000000       2
    0.377777777778    0.023809523810    0.000000000000       2
    0.400000000000    0.023809523810    0.000000000000       2
    0.422222222222    0.023809523810    0.000000000000       2
    0.444444444444    0.023809523810    0.000000000000       2
    0.466666666667    0.023809523810    0.000000000000       2
    0.488888888889    0.023809523810    0.000000000000       2
   -0.488888888889    0.023809523810    0.000000000000       2
   -0.466666666667    0.023809523810    0.000000000000       2
   -0.444444444444    0.023809523810    0.000000000000       2
   -0.422222222222    0.023809523810    0.000000000000       2
   -0.400000000000    0.023809523810    0.000000000000       2
   -0.377777777778    0.023809523810    0.000000000000       2
   -0.355555555556    0.023809523810    0.000000000000       2
   -0.333333333333    0.023809523810    0.000000000000       2
   -0.311111111111    0.023809523810    0.000000000000       2
   -0.288888888889    0.023809523810    0.000000000000       2
   -0.266666666667    0.023809523810    0.000000000000       2
   -0.244444444444    0.023809523810    0.000000000000       2
   -0.222222222222    0.023809523810    0.000000000000       2
   -0.200000000000    0.023809523810    0.000000000000       2
   -0.177777777778    0.023809523810    0.000000000000       2
   -0.155555555556    0.023809523810    0.000000000000       2
   -0.133333333333    0.023809523810    0.000000000000       2
   -0.111111111111    0.023809523810    0.000000000000       2
   -0.088888888889    0.023809523810    0.000000000000       2
   -0.066666666667    0.023809523810    0.000000000000       2
   -0.044444444444    0.023809523810    0.000000000000       2
   -0.022222222222    0.023809523810    0.000000000000       2
    0.000000000000    0.047619047619    0.000000000000       2
    0.022222222222    0.047619047619    0.000000000000       2
    0.044444444444    0.047619047619    0.000000000000       2
    0.066666666667    0.047619047619    0.000000000000       2
    0.088888888889    0.047619047619    0.000000000000       2
    0.111111111111    0.047619047619    0.000000000000       2
    0.133333333333    0.047619047619    0.000000000000       2
    0.155555555556    0.047619047619    0.000000000000       2
    0.177777777778    0.047619047619    0.000000000000       2
    0.200000000000    0.047619047619    0.000000000000       2
    0.222222222222    0.047619047619    0.000000000000       2
    0.244444444444    0.047619047619    0.000000000000       2
    0.266666666667    0.047619047619    0.000000000000       2
    0.288888888889    0.047619047619    0.000000000000       2
    0.311111111111    0.047619047619    0.000000000000       2
    0.333333333333    0.047619047619    0.000000000000       2
    0.355555555556    0.047619047619    0.000000000000       2
    0.377777777778    0.047619047619    0.000000000000       2
    0.400000000000    0.047619047619    0.000000000000       2
    0.422222222222    0.047619047619    0.000000000000       2
    0.444444444444    0.047619047619    0.000000000000       2
    0.466666666667    0.047619047619    0.000000000000       2
    0.488888888889    0.047619047619    0.000000000000       2
   -0.488888888889    0.047619047619    0.000000000000       2
   -0.466666666667    0.047619047619    0.000000000000       2
   -0.444444444444    0.047619047619    0.000000000000       2
   -0.422222222222    0.047619047619    0.000000000000       2
   -0.400000000000    0.047619047619    0.000000000000       2
   -0.377777777778    0.047619047619    0.000000000000       2
   -0.355555555556    0.047619047619    0.000000000000       2
   -0.333333333333    0.047619047619    0.000000000000       2
   -0.311111111111    0.047619047619    0.000000000000       2
   -0.288888888889    0.047619047619    0.000000000000       2
   -0.266666666667    0.047619047619    0.000000000000       2
   -0.244444444444    0.047619047619    0.000000000000       2
   -0.222222222222    0.047619047619    0.000000000000       2
   -0.200000000000    0.047619047619    0.000000000000       2
   -0.177777777778    0.047619047619    0.000000000000       2
   -0.155555555556    0.047619047619    0.000000000000       2
   -0.133333333333    0.047619047619    0.000000000000       2
   -0.111111111111    0.047619047619    0.000000000000       2
   -0.088888888889    0.047619047619    0.000000000000       2
   -0.066666666667    0.047619047619    0.000000000000       2
   -0.044444444444    0.047619047619    0.000000000000       2
   -0.022222222222    0.047619047619    0.000000000000       2
    0.000000000000    0.071428571429    0.000000000000       2
    0.022222222222    0.071428571429    0.000000000000       2
    0.044444444444    0.071428571429    0.000000000000       2
    0.066666666667    0.071428571429    0.000000000000       2
    0.088888888889    0.071428571429    0.000000000000       2
    0.111111111111    0.071428571429    0.000000000000       2
    0.133333333333    0.071428571429    0.000000000000       2
    0.155555555556    0.071428571429    0.000000000000       2
    0.177777777778    0.071428571429    0.000000000000       2
    0.200000000000    0.071428571429    0.000000000000       2
    0.222222222222    0.071428571429    0.000000000000       2
    0.244444444444    0.071428571429    0.000000000000       2
    0.266666666667    0.071428571429    0.000000000000       2
    0.288888888889    0.071428571429    0.000000000000       2
    0.311111111111    0.071428571429    0.000000000000       2
    0.333333333333    0.071428571429    0.000000000000       2
    0.355555555556    0.071428571429    0.000000000000       2
    0.377777777778    0.071428571429    0.000000000000       2
    0.400000000000    0.071428571429    0.000000000000       2
    0.422222222222    0.071428571429    0.000000000000       2
    0.444444444444    0.071428571429    0.000000000000       2
    0.466666666667    0.071428571429    0.000000000000       2
    0.488888888889    0.071428571429    0.000000000000       2
   -0.488888888889    0.071428571429    0.000000000000       2
   -0.466666666667    0.071428571429    0.000000000000       2
   -0.444444444444    0.071428571429    0.000000000000       2
   -0.422222222222    0.071428571429    0.000000000000       2
   -0.400000000000    0.071428571429    0.000000000000       2
   -0.377777777778    0.071428571429    0.000000000000       2
   -0.355555555556    0.071428571429    0.000000000000       2
   -0.333333333333    0.071428571429    0.000000000000       2
   -0.311111111111    0.071428571429    0.000000000000       2
   -0.288888888889    0.071428571429    0.000000000000       2
   -0.266666666667    0.071428571429    0.000000000000       2
   -0.244444444444    0.071428571429    0.000000000000       2
   -0.222222222222    0.071428571429    0.000000000000       2
   -0.200000000000    0.071428571429    0.000000000000       2
   -0.177777777778    0.071428571429    0.000000000000       2
   -0.155555555556    0.071428571429    0.000000000000       2
   -0.133333333333    0.071428571429    0.000000000000       2
   -0.111111111111    0.071428571429    0.000000000000       2
   -0.088888888889    0.071428571429    0.000000000000       2
   -0.066666666667    0.071428571429    0.000000000000       2
   -0.044444444444    0.071428571429    0.000000000000       2
   -0.022222222222    0.071428571429    0.000000000000       2
    0.000000000000    0.095238095238    0.000000000000       2
    0.022222222222    0.095238095238    0.000000000000       2
    0.044444444444    0.095238095238    0.000000000000       2
    0.066666666667    0.095238095238    0.000000000000       2
    0.088888888889    0.095238095238    0.000000000000       2
    0.111111111111    0.095238095238    0.000000000000       2
    0.133333333333    0.095238095238    0.000000000000       2
    0.155555555556    0.095238095238    0.000000000000       2
    0.177777777778    0.095238095238    0.000000000000       2
    0.200000000000    0.095238095238    0.000000000000       2
    0.222222222222    0.095238095238    0.000000000000       2
    0.244444444444    0.095238095238    0.000000000000       2
    0.266666666667    0.095238095238    0.000000000000       2
    0.288888888889    0.095238095238    0.000000000000       2
    0.311111111111    0.095238095238    0.000000000000       2
    0.333333333333    0.095238095238    0.000000000000       2
    0.355555555556    0.095238095238    0.000000000000       2
    0.377777777778    0.095238095238    0.000000000000       2
    0.400000000000    0.095238095238    0.000000000000       2
    0.422222222222    0.095238095238    0.000000000000       2
    0.444444444444    0.095238095238    0.000000000000       2
    0.466666666667    0.095238095238    0.000000000000       2
    0.488888888889    0.095238095238    0.000000000000       2
   -0.488888888889    0.095238095238    0.000000000000       2
   -0.466666666667    0.095238095238    0.000000000000       2
   -0.444444444444    0.095238095238    0.000000000000       2
   -0.422222222222    0.095238095238    0.000000000000       2
   -0.400000000000    0.095238095238    0.000000000000       2
   -0.377777777778    0.095238095238    0.000000000000       2
   -0.355555555556    0.095238095238    0.000000000000       2
   -0.333333333333    0.095238095238    0.000000000000       2
   -0.311111111111    0.095238095238    0.000000000000       2
   -0.288888888889    0.095238095238    0.000000000000       2
   -0.266666666667    0.095238095238    0.000000000000       2
   -0.244444444444    0.095238095238    0.000000000000       2
   -0.222222222222    0.095238095238    0.000000000000       2
   -0.200000000000    0.095238095238    0.000000000000       2
   -0.177777777778    0.095238095238    0.000000000000       2
   -0.155555555556    0.095238095238    0.000000000000       2
   -0.133333333333    0.095238095238    0.000000000000       2
   -0.111111111111    0.095238095238    0.000000000000       2
   -0.088888888889    0.095238095238    0.000000000000       2
   -0.066666666667    0.095238095238    0.000000000000       2
   -0.044444444444    0.095238095238    0.000000000000       2
   -0.022222222222    0.095238095238    0.000000000000       2
    0.000000000000    0.119047619048    0.000000000000       2
    0.022222222222    0.119047619048    0.000000000000       2
    0.044444444444    0.119047619048    0.000000000000       2
    0.066666666667    0.119047619048    0.000000000000       2
    0.088888888889    0.119047619048    0.000000000000       2
    0.111111111111    0.119047619048    0.000000000000       2
    0.133333333333    0.119047619048    0.000000000000       2
    0.155555555556    0.119047619048    0.000000000000       2
    0.177777777778    0.119047619048    0.000000000000       2
    0.200000000000    0.119047619048    0.000000000000       2
    0.222222222222    0.119047619048    0.000000000000       2
    0.244444444444    0.119047619048    0.000000000000       2
    0.266666666667    0.119047619048    0.000000000000       2
    0.288888888889    0.119047619048    0.000000000000       2
    0.311111111111    0.119047619048    0.000000000000       2
    0.333333333333    0.119047619048    0.000000000000       2
    0.355555555556    0.119047619048    0.000000000000       2
    0.377777777778    0.119047619048    0.000000000000       2
    0.400000000000    0.119047619048    0.000000000000       2
    0.422222222222    0.119047619048    0.000000000000       2
    0.444444444444    0.119047619048    0.000000000000       2
    0.466666666667    0.119047619048    0.000000000000       2
    0.488888888889    0.119047619048    0.000000000000       2
   -0.488888888889    0.119047619048    0.000000000000       2
   -0.466666666667    0.119047619048    0.000000000000       2
   -0.444444444444    0.119047619048    0.000000000000       2
   -0.422222222222    0.119047619048    0.000000000000       2
   -0.400000000000    0.119047619048    0.000000000000       2
   -0.377777777778    0.119047619048    0.000000000000       2
   -0.355555555556    0.119047619048    0.000000000000       2
   -0.333333333333    0.119047619048    0.000000000000       2
   -0.311111111111    0.119047619048    0.000000000000       2
   -0.288888888889    0.119047619048    0.000000000000       2
   -0.266666666667    0.119047619048    0.000000000000       2
   -0.244444444444    0.119047619048    0.000000000000       2
   -0.222222222222    0.119047619048    0.000000000000       2
   -0.200000000000    0.119047619048    0.000000000000       2
   -0.177777777778    0.119047619048    0.000000000000       2
   -0.155555555556    0.119047619048    0.000000000000       2
   -0.133333333333    0.119047619048    0.000000000000       2
   -0.111111111111    0.119047619048    0.000000000000       2
   -0.088888888889    0.119047619048    0.000000000000       2
   -0.066666666667    0.119047619048    0.000000000000       2
   -0.044444444444    0.119047619048    0.000000000000       2
   -0.022222222222    0.119047619048    0.000000000000       2
    0.000000000000    0.142857142857    0.000000000000       2
    0.022222222222    0.142857142857    0.000000000000       2
    0.044444444444    0.142857142857    0.000000000000       2
    0.066666666667    0.142857142857    0.000000000000       2
    0.088888888889    0.142857142857    0.000000000000       2
    0.111111111111    0.142857142857    0.000000000000       2
    0.133333333333    0.142857142857    0.000000000000       2
    0.155555555556    0.142857142857    0.000000000000       2
    0.177777777778    0.142857142857    0.000000000000       2
    0.200000000000    0.142857142857    0.000000000000       2
    0.222222222222    0.142857142857    0.000000000000       2
    0.244444444444    0.142857142857    0.000000000000       2
    0.266666666667    0.142857142857    0.000000000000       2
    0.288888888889    0.142857142857    0.000000000000       2
    0.311111111111    0.142857142857    0.000000000000       2
    0.333333333333    0.142857142857    0.000000000000       2
    0.355555555556    0.142857142857    0.000000000000       2
    0.377777777778    0.142857142857    0.000000000000       2
    0.400000000000    0.142857142857    0.000000000000       2
    0.422222222222    0.142857142857    0.000000000000       2
    0.444444444444    0.142857142857    0.000000000000       2
    0.466666666667    0.142857142857    0.000000000000       2
    0.488888888889    0.142857142857    0.000000000000       2
   -0.488888888889    0.142857142857    0.000000000000       2
   -0.466666666667    0.142857142857    0.000000000000       2
   -0.444444444444    0.142857142857    0.000000000000       2
   -0.422222222222    0.142857142857    0.000000000000       2
   -0.400000000000    0.142857142857    0.000000000000       2
   -0.377777777778    0.142857142857    0.000000000000       2
   -0.355555555556    0.142857142857    0.000000000000       2
   -0.333333333333    0.142857142857    0.000000000000       2
   -0.311111111111    0.142857142857    0.000000000000       2
   -0.288888888889    0.142857142857    0.000000000000       2
   -0.266666666667    0.142857142857    0.000000000000       2
   -0.244444444444    0.142857142857    0.000000000000       2
   -0.222222222222    0.142857142857    0.000000000000       2
   -0.200000000000    0.142857142857    0.000000000000       2
   -0.177777777778    0.142857142857    0.000000000000       2
   -0.155555555556    0.142857142857    0.000000000000       2
   -0.133333333333    0.142857142857    0.000000000000       2
   -0.111111111111    0.142857142857    0.000000000000       2
   -0.088888888889    0.142857142857    0.000000000000       2
   -0.066666666667    0.142857142857    0.000000000000       2
   -0.044444444444    0.142857142857    0.000000000000       2
   -0.022222222222    0.142857142857    0.000000000000       2
    0.000000000000    0.166666666667    0.000000000000       2
    0.022222222222    0.166666666667    0.000000000000       2
    0.044444444444    0.166666666667    0.000000000000       2
    0.066666666667    0.166666666667    0.000000000000       2
    0.088888888889    0.166666666667    0.000000000000       2
    0.111111111111    0.166666666667    0.000000000000       2
    0.133333333333    0.166666666667    0.000000000000       2
    0.155555555556    0.166666666667    0.000000000000       2
    0.177777777778    0.166666666667    0.000000000000       2
    0.200000000000    0.166666666667    0.000000000000       2
    0.222222222222    0.166666666667    0.000000000000       2
    0.244444444444    0.166666666667    0.000000000000       2
    0.266666666667    0.166666666667    0.000000000000       2
    0.288888888889    0.166666666667    0.000000000000       2
    0.311111111111    0.166666666667    0.000000000000       2
    0.333333333333    0.166666666667    0.000000000000       2
    0.355555555556    0.166666666667    0.000000000000       2
    0.377777777778    0.166666666667    0.000000000000       2
    0.400000000000    0.166666666667    0.000000000000       2
    0.422222222222    0.166666666667    0.000000000000       2
    0.444444444444    0.166666666667    0.000000000000       2
    0.466666666667    0.166666666667    0.000000000000       2
    0.488888888889    0.166666666667    0.000000000000       2
   -0.488888888889    0.166666666667    0.000000000000       2
   -0.466666666667    0.166666666667    0.000000000000       2
   -0.444444444444    0.166666666667    0.000000000000       2
   -0.422222222222    0.166666666667    0.000000000000       2
   -0.400000000000    0.166666666667    0.000000000000       2
   -0.377777777778    0.166666666667    0.000000000000       2
   -0.355555555556    0.166666666667    0.000000000000       2
   -0.333333333333    0.166666666667    0.000000000000       2
   -0.311111111111    0.166666666667    0.000000000000       2
   -0.288888888889    0.166666666667    0.000000000000       2
   -0.266666666667    0.166666666667    0.000000000000       2
   -0.244444444444    0.166666666667    0.000000000000       2
   -0.222222222222    0.166666666667    0.000000000000       2
   -0.200000000000    0.166666666667    0.000000000000       2
   -0.177777777778    0.166666666667    0.000000000000       2
   -0.155555555556    0.166666666667    0.000000000000       2
   -0.133333333333    0.166666666667    0.000000000000       2
   -0.111111111111    0.166666666667    0.000000000000       2
   -0.088888888889    0.166666666667    0.000000000000       2
   -0.066666666667    0.166666666667    0.000000000000       2
   -0.044444444444    0.166666666667    0.000000000000       2
   -0.022222222222    0.166666666667    0.000000000000       2
    0.000000000000    0.190476190476    0.000000000000       2
    0.022222222222    0.190476190476    0.000000000000       2
    0.044444444444    0.190476190476    0.000000000000       2
    0.066666666667    0.190476190476    0.000000000000       2
    0.088888888889    0.190476190476    0.000000000000       2
    0.111111111111    0.190476190476    0.000000000000       2
    0.133333333333    0.190476190476    0.000000000000       2
    0.155555555556    0.190476190476    0.000000000000       2
    0.177777777778    0.190476190476    0.000000000000       2
    0.200000000000    0.190476190476    0.000000000000       2
    0.222222222222    0.190476190476    0.000000000000       2
    0.244444444444    0.190476190476    0.000000000000       2
    0.266666666667    0.190476190476    0.000000000000       2
    0.288888888889    0.190476190476    0.000000000000       2
    0.311111111111    0.190476190476    0.000000000000       2
    0.333333333333    0.190476190476    0.000000000000       2
    0.355555555556    0.190476190476    0.000000000000       2
    0.377777777778    0.190476190476    0.000000000000       2
    0.400000000000    0.190476190476    0.000000000000       2
    0.422222222222    0.190476190476    0.000000000000       2
    0.444444444444    0.190476190476    0.000000000000       2
    0.466666666667    0.190476190476    0.000000000000       2
    0.488888888889    0.190476190476    0.000000000000       2
   -0.488888888889    0.190476190476    0.000000000000       2
   -0.466666666667    0.190476190476    0.000000000000       2
   -0.444444444444    0.190476190476    0.000000000000       2
   -0.422222222222    0.190476190476    0.000000000000       2
   -0.400000000000    0.190476190476    0.000000000000       2
   -0.377777777778    0.190476190476    0.000000000000       2
   -0.355555555556    0.190476190476    0.000000000000       2
   -0.333333333333    0.190476190476    0.000000000000       2
   -0.311111111111    0.190476190476    0.000000000000       2
   -0.288888888889    0.190476190476    0.000000000000       2
   -0.266666666667    0.190476190476    0.000000000000       2
   -0.244444444444    0.190476190476    0.000000000000       2
   -0.222222222222    0.190476190476    0.000000000000       2
   -0.200000000000    0.190476190476    0.000000000000       2
   -0.177777777778    0.190476190476    0.000000000000       2
   -0.155555555556    0.190476190476    0.000000000000       2
   -0.133333333333    0.190476190476    0.000000000000       2
   -0.111111111111    0.190476190476    0.000000000000       2
   -0.088888888889    0.190476190476    0.000000000000       2
   -0.066666666667    0.190476190476    0.000000000000       2
   -0.044444444444    0.190476190476    0.000000000000       2
   -0.022222222222    0.190476190476    0.000000000000       2
    0.000000000000    0.214285714286    0.000000000000       2
    0.022222222222    0.214285714286    0.000000000000       2
    0.044444444444    0.214285714286    0.000000000000       2
    0.066666666667    0.214285714286    0.000000000000       2
    0.088888888889    0.214285714286    0.000000000000       2
    0.111111111111    0.214285714286    0.000000000000       2
    0.133333333333    0.214285714286    0.000000000000       2
    0.155555555556    0.214285714286    0.000000000000       2
    0.177777777778    0.214285714286    0.000000000000       2
    0.200000000000    0.214285714286    0.000000000000       2
    0.222222222222    0.214285714286    0.000000000000       2
    0.244444444444    0.214285714286    0.000000000000       2
    0.266666666667    0.214285714286    0.000000000000       2
    0.288888888889    0.214285714286    0.000000000000       2
    0.311111111111    0.214285714286    0.000000000000       2
    0.333333333333    0.214285714286    0.000000000000       2
    0.355555555556    0.214285714286    0.000000000000       2
    0.377777777778    0.214285714286    0.000000000000       2
    0.400000000000    0.214285714286    0.000000000000       2
    0.422222222222    0.214285714286    0.000000000000       2
    0.444444444444    0.214285714286    0.000000000000       2
    0.466666666667    0.214285714286    0.000000000000       2
    0.488888888889    0.214285714286    0.000000000000       2
   -0.488888888889    0.214285714286    0.000000000000       2
   -0.466666666667    0.214285714286    0.000000000000       2
   -0.444444444444    0.214285714286    0.000000000000       2
   -0.422222222222    0.214285714286    0.000000000000       2
   -0.400000000000    0.214285714286    0.000000000000       2
   -0.377777777778    0.214285714286    0.000000000000       2
   -0.355555555556    0.214285714286    0.000000000000       2
   -0.333333333333    0.214285714286    0.000000000000       2
   -0.311111111111    0.214285714286    0.000000000000       2
   -0.288888888889    0.214285714286    0.000000000000       2
   -0.266666666667    0.214285714286    0.000000000000       2
   -0.244444444444    0.214285714286    0.000000000000       2
   -0.222222222222    0.214285714286    0.000000000000       2
   -0.200000000000    0.214285714286    0.000000000000       2
   -0.177777777778    0.214285714286    0.000000000000       2
   -0.155555555556    0.214285714286    0.000000000000       2
   -0.133333333333    0.214285714286    0.000000000000       2
   -0.111111111111    0.214285714286    0.000000000000       2
   -0.088888888889    0.214285714286    0.000000000000       2
   -0.066666666667    0.214285714286    0.000000000000       2
   -0.044444444444    0.214285714286    0.000000000000       2
   -0.022222222222    0.214285714286    0.000000000000       2
    0.000000000000    0.238095238095    0.000000000000       2
    0.022222222222    0.238095238095    0.000000000000       2
    0.044444444444    0.238095238095    0.000000000000       2
    0.066666666667    0.238095238095    0.000000000000       2
    0.088888888889    0.238095238095    0.000000000000       2
    0.111111111111    0.238095238095    0.000000000000       2
    0.133333333333    0.238095238095    0.000000000000       2
    0.155555555556    0.238095238095    0.000000000000       2
    0.177777777778    0.238095238095    0.000000000000       2
    0.200000000000    0.238095238095    0.000000000000       2
    0.222222222222    0.238095238095    0.000000000000       2
    0.244444444444    0.238095238095    0.000000000000       2
    0.266666666667    0.238095238095    0.000000000000       2
    0.288888888889    0.238095238095    0.000000000000       2
    0.311111111111    0.238095238095    0.000000000000       2
    0.333333333333    0.238095238095    0.000000000000       2
    0.355555555556    0.238095238095    0.000000000000       2
    0.377777777778    0.238095238095    0.000000000000       2
    0.400000000000    0.238095238095    0.000000000000       2
    0.422222222222    0.238095238095    0.000000000000       2
    0.444444444444    0.238095238095    0.000000000000       2
    0.466666666667    0.238095238095    0.000000000000       2
    0.488888888889    0.238095238095    0.000000000000       2
   -0.488888888889    0.238095238095    0.000000000000       2
   -0.466666666667    0.238095238095    0.000000000000       2
   -0.444444444444    0.238095238095    0.000000000000       2
   -0.422222222222    0.238095238095    0.000000000000       2
   -0.400000000000    0.238095238095    0.000000000000       2
   -0.377777777778    0.238095238095    0.000000000000       2
   -0.355555555556    0.238095238095    0.000000000000       2
   -0.333333333333    0.238095238095    0.000000000000       2
   -0.311111111111    0.238095238095    0.000000000000       2
   -0.288888888889    0.238095238095    0.000000000000       2
   -0.266666666667    0.238095238095    0.000000000000       2
   -0.244444444444    0.238095238095    0.000000000000       2
   -0.222222222222    0.238095238095    0.000000000000       2
   -0.200000000000    0.238095238095    0.000000000000       2
   -0.177777777778    0.238095238095    0.000000000000       2
   -0.155555555556    0.238095238095    0.000000000000       2
   -0.133333333333    0.238095238095    0.000000000000       2
   -0.111111111111    0.238095238095    0.000000000000       2
   -0.088888888889    0.238095238095    0.000000000000       2
   -0.066666666667    0.238095238095    0.000000000000       2
   -0.044444444444    0.238095238095    0.000000000000       2
   -0.022222222222    0.238095238095    0.000000000000       2
    0.000000000000    0.261904761905    0.000000000000       2