CONTCAR\(7)                             
   1.00000000000000     
    11.3503999709999999    0.0000000000000000    0.0000000000000000
    -5.6751999854999999    9.8297347179999992    0.0000000000000000
     0.0000000000000000    0.0000000000000000   18.1851005553999983
   Zr   Se   O    H 
     9    18     2     1
Direct
 -0.0017837173431714  0.0019508810832990  0.4939670224034110
  0.3317966882987939  0.0021511072517548  0.4952565695122658
  0.6650817776379400  0.0027945035652055  0.4974570042383175
 -0.0021212919313798  0.3355801373163385  0.4974039699084211
  0.3315916827286493  0.3352190106908004  0.4952129908239200
  0.6650882679004555  0.3353611498496825  0.4974021498492557
 -0.0016588900391065  0.6687072440695285  0.4952731275900581
  0.3312272169685290  0.6691641223882279  0.5443313489223084
  0.6648927557702758  0.6684850073133173  0.4952239110721359
  0.2176448192093532  0.1124947183482032  0.5833188483354612
  0.1094865026197439  0.2261323320875064  0.4073811652991340
  0.5541164540138830  0.1153111395232941  0.5847384094911944
  0.4430627834941095  0.2246267424591515  0.4081112083557796
  0.8886936917279741  0.1116810341642468  0.5843780967935945
  0.7766405403073926  0.2234413031764513  0.4094521006364984
  0.2040901394505892  0.4092497140055802  0.5925855687166102
  0.1308087276841025  0.5677842556851531  0.4248679559994292
  0.5553371312879486  0.4454991293633371  0.5842526534107779
  0.4310736881437116  0.5692261343136118  0.4247172892886608
  0.8851098220535552  0.4465773199337055  0.5846809906394174
  0.7757562044661386  0.5573800557433564  0.4081000569840731
  0.1996349057859489  0.8009350297007037  0.5910148598404307
  0.1097356050379996  0.8908987668435495  0.4062537581224567
  0.5909351465324170  0.7960807409764364  0.5927456952895540
  0.4326414585670062  0.8696373867717316  0.4249766536316780
  0.8877899309719072  0.7825926932211982  0.5832102086601180
  0.7741583071653052  0.8907153430509139  0.4074884300761626
  0.3204657168424942  0.6788985283012704  0.6574636759025255
  0.3705237976165179  0.6276316657821092  0.7141689109658623
  0.4187804560309338  0.5882731630203742  0.6876551482404735
 
  0.00000000E+00  0.00000000E+00  0.00000000E+00
  0.00000000E+00  0.00000000E+00  0.00000000E+00
  0.00000000E+00  0.00000000E+00  0.00000000E+00
  0.00000000E+00  0.00000000E+00  0.00000000E+00
  0.00000000E+00  0.00000000E+00  0.00000000E+00
  0.00000000E+00  0.00000000E+00  0.00000000E+00
  0.00000000E+00  0.00000000E+00  0.00000000E+00
  0.00000000E+00  0.00000000E+00  0.00000000E+00
  0.00000000E+00  0.00000000E+00  0.00000000E+00
  0.00000000E+00  0.00000000E+00  0.00000000E+00
  0.00000000E+00  0.00000000E+00  0.00000000E+00
  0.00000000E+00  0.00000000E+00  0.00000000E+00
  0.00000000E+00  0.00000000E+00  0.00000000E+00
  0.00000000E+00  0.00000000E+00  0.00000000E+00
  0.00000000E+00  0.00000000E+00  0.00000000E+00
  0.00000000E+00  0.00000000E+00  0.00000000E+00
  0.00000000E+00  0.00000000E+00  0.00000000E+00
  0.00000000E+00  0.00000000E+00  0.00000000E+00
  0.00000000E+00  0.00000000E+00  0.00000000E+00
  0.00000000E+00  0.00000000E+00  0.00000000E+00
  0.00000000E+00  0.00000000E+00  0.00000000E+00
  0.00000000E+00  0.00000000E+00  0.00000000E+00
  0.00000000E+00  0.00000000E+00  0.00000000E+00
  0.00000000E+00  0.00000000E+00  0.00000000E+00
  0.00000000E+00  0.00000000E+00  0.00000000E+00
  0.00000000E+00  0.00000000E+00  0.00000000E+00
  0.00000000E+00  0.00000000E+00  0.00000000E+00
  0.00000000E+00  0.00000000E+00  0.00000000E+00
  0.00000000E+00  0.00000000E+00  0.00000000E+00
  0.00000000E+00  0.00000000E+00  0.00000000E+00
