 Sc7 C2 Cl10                            
   1.00000000000000     
     3.4853376353972858    0.0000000000000000    0.0000000000000000
     1.7426683232317881   13.6526249600356078    0.0000000000000000
     0.0000000000000000    0.0000000000000000   22.6815769818839996
   Sc   C    Cl
     7     2    10
Direct
  0.7729113407977196  0.4541585593858111  0.4492423567591941
  0.2270872957756524  0.5458441041408028  0.5507539297929371
  0.6602444283539869  0.6795440135617412  0.4580407834910460
  0.3397551567287463  0.3204583714388551  0.5419590095332307
  0.2101826124888053  0.5796231278141011  0.3557729328514831
  0.7898177157422773  0.4203762926584248  0.6442249578710980
  0.0000004472563211 -0.0000018987867759  0.5000013205099937
  0.2142101530394830  0.5715914318504306  0.4498474763127041
  0.7857899192832337  0.4284094597347465  0.5501520437306735
  0.5215824449945987  0.9568236726300544  0.5737169026303635
  0.4784192083982992  0.0431723227384375  0.4262868642407045
  0.6436125423333290  0.7127415848851876  0.3401961595415846
  0.3563868670746441  0.2872587907755852  0.6598020478600355
  0.0873399248321829  0.8253334149213279  0.4589653445535522
  0.2271030054551011  0.5457691142530710  0.6728209406704864
  0.7728935544436795  0.4542371776953003  0.3271792519286703
  0.3433294197680394  0.3133021032116247  0.4314508327090191
  0.6566715014960868  0.6866960052615972  0.5685504880239081
  0.9126624617378150  0.1746623518296775  0.5410363569893023
 
  0.00000000E+00  0.00000000E+00  0.00000000E+00
  0.00000000E+00  0.00000000E+00  0.00000000E+00
  0.00000000E+00  0.00000000E+00  0.00000000E+00
  0.00000000E+00  0.00000000E+00  0.00000000E+00
  0.00000000E+00  0.00000000E+00  0.00000000E+00
  0.00000000E+00  0.00000000E+00  0.00000000E+00
  0.00000000E+00  0.00000000E+00  0.00000000E+00
  0.00000000E+00  0.00000000E+00  0.00000000E+00
  0.00000000E+00  0.00000000E+00  0.00000000E+00
  0.00000000E+00  0.00000000E+00  0.00000000E+00
  0.00000000E+00  0.00000000E+00  0.00000000E+00
  0.00000000E+00  0.00000000E+00  0.00000000E+00
  0.00000000E+00  0.00000000E+00  0.00000000E+00
  0.00000000E+00  0.00000000E+00  0.00000000E+00
  0.00000000E+00  0.00000000E+00  0.00000000E+00
  0.00000000E+00  0.00000000E+00  0.00000000E+00
  0.00000000E+00  0.00000000E+00  0.00000000E+00
  0.00000000E+00  0.00000000E+00  0.00000000E+00
  0.00000000E+00  0.00000000E+00  0.00000000E+00
