Automatically generated mesh
      26
Reciprocal lattice
    0.00000000000000    0.12500000000000    0.00000000000000             2
    0.07692307692308    0.12500000000000    0.00000000000000             2
    0.15384615384615    0.12500000000000    0.00000000000000             2
    0.23076923076923    0.12500000000000    0.00000000000000             2
    0.30769230769231    0.12500000000000    0.00000000000000             2
    0.38461538461539    0.12500000000000    0.00000000000000             2
    0.46153846153846    0.12500000000000    0.00000000000000             2
   -0.46153846153846    0.12500000000000    0.00000000000000             2
   -0.38461538461539    0.12500000000000    0.00000000000000             2
   -0.30769230769231    0.12500000000000    0.00000000000000             2
   -0.23076923076923    0.12500000000000    0.00000000000000             2
   -0.15384615384615    0.12500000000000    0.00000000000000             2
   -0.07692307692308    0.12500000000000    0.00000000000000             2
    0.00000000000000    0.37500000000000    0.00000000000000             2
    0.07692307692308    0.37500000000000    0.00000000000000             2
    0.15384615384615    0.37500000000000    0.00000000000000             2
    0.23076923076923    0.37500000000000    0.00000000000000             2
    0.30769230769231    0.37500000000000    0.00000000000000             2
    0.38461538461539    0.37500000000000    0.00000000000000             2
    0.46153846153846    0.37500000000000    0.00000000000000             2
   -0.46153846153846    0.37500000000000    0.00000000000000             2
   -0.38461538461539    0.37500000000000    0.00000000000000             2
   -0.30769230769231    0.37500000000000    0.00000000000000             2
   -0.23076923076923    0.37500000000000    0.00000000000000             2
   -0.15384615384615    0.37500000000000    0.00000000000000             2
   -0.07692307692308    0.37500000000000    0.00000000000000             2
