CONTCAR\(10)                            
   1.00000000000000     
     9.7571001052999993    0.0000000000000000    0.0000000000000000
    -3.0063686365000000   15.8319856181999992    0.0000000000000000
     0.0000000000000000    0.0000000000000000   18.2793006897000012
   V    P    S    O 
     4     8    26     1
Direct
  0.6097060684883986  0.6015454991340935  0.4993614416520197
  0.6119612176614322  0.1042293872867799  0.5034222201437616
  0.3770201148750694  0.3936404259991966  0.5058883563022737
  0.3847152260433578  0.8960326880616409  0.4970805164195203
  0.8241877164944676  0.2602766958378356  0.4975688986755628
  0.6880469750103340  0.4319704262123528  0.5403101797939563
  0.1739733276037990  0.7402803190697064  0.5045083864112597
  0.1653915765546562  0.2374167472719868  0.4975734815017707
  0.3008266113952950  0.0651715631336076  0.5388118149868674
  0.6929751889491612  0.9353165824066941  0.4608854919512736
  0.2971113895547638  0.5638294585328184  0.4669999381703954
  0.8217494208457768  0.7595351524381830  0.5021944696577083
  0.1077672334612319  0.1069670958344231  0.5273365389527161
  0.8836239195545306  0.8888812219746400  0.4699451971701217
  0.0059661315004736  0.7657607257011420  0.5845549684115556
  0.3888896273338043  0.0400412821784331  0.4399577008365453
  0.5347599294990388  0.3516831681002859  0.5926066735564870
  0.2304699921242264  0.4515442189310207  0.4181787389478524
  0.1903914807654339  0.3161377422252807  0.5834244066966064
  0.6582449318171399  0.7308952734654904  0.5705272093761421
  0.4495940412783105  0.6430795023772824  0.4132538474505356
  0.5992241013739085  0.4574525909761077  0.4417420493258839
  0.6571760850089282  0.2331622705129192  0.4312629412117449
  0.8812861113794588  0.3900221594476436  0.5286880080343277
  0.9950437040194340  0.2491452108844142  0.4272140944139676
  0.6070599008748815  0.9601815723151027  0.5603316232146588
  0.7959662798863681  0.6754822773636829  0.4200189040144754
  0.3870801034157403  0.5373769201978310  0.5646644709526466
  0.1929414100646565  0.8207129691823084  0.4201420933048037
  0.7520979103676647  0.5444599271032359  0.5888723841196527
  0.5388994280511344  0.8560559599845904  0.4081690678267295
  0.2405112631184760  0.9525032142185248  0.5879836295754464
  0.3444781475697263  0.7680292982768262  0.5686227467981404
  0.7985356092529892  0.1796339989704281  0.5820944441503686
  0.7562443799330061  0.0484397515828606  0.4130198274596729
  0.4542032745468240  0.1455522208667030  0.5907137918553604
  0.1063649533639347  0.6101223087294971  0.4796301456812764
  0.3326647216839386  0.2661346018324400  0.4316512648487760
  0.9738903022782218  0.6937076623820007  0.6362481431471655
 
  0.00000000E+00  0.00000000E+00  0.00000000E+00
  0.00000000E+00  0.00000000E+00  0.00000000E+00
  0.00000000E+00  0.00000000E+00  0.00000000E+00
  0.00000000E+00  0.00000000E+00  0.00000000E+00
  0.00000000E+00  0.00000000E+00  0.00000000E+00
  0.00000000E+00  0.00000000E+00  0.00000000E+00
  0.00000000E+00  0.00000000E+00  0.00000000E+00
  0.00000000E+00  0.00000000E+00  0.00000000E+00
  0.00000000E+00  0.00000000E+00  0.00000000E+00
  0.00000000E+00  0.00000000E+00  0.00000000E+00
  0.00000000E+00  0.00000000E+00  0.00000000E+00
  0.00000000E+00  0.00000000E+00  0.00000000E+00
  0.00000000E+00  0.00000000E+00  0.00000000E+00
  0.00000000E+00  0.00000000E+00  0.00000000E+00
  0.00000000E+00  0.00000000E+00  0.00000000E+00
  0.00000000E+00  0.00000000E+00  0.00000000E+00
  0.00000000E+00  0.00000000E+00  0.00000000E+00
  0.00000000E+00  0.00000000E+00  0.00000000E+00
  0.00000000E+00  0.00000000E+00  0.00000000E+00
  0.00000000E+00  0.00000000E+00  0.00000000E+00
  0.00000000E+00  0.00000000E+00  0.00000000E+00
  0.00000000E+00  0.00000000E+00  0.00000000E+00
  0.00000000E+00  0.00000000E+00  0.00000000E+00
  0.00000000E+00  0.00000000E+00  0.00000000E+00
  0.00000000E+00  0.00000000E+00  0.00000000E+00
  0.00000000E+00  0.00000000E+00  0.00000000E+00
  0.00000000E+00  0.00000000E+00  0.00000000E+00
  0.00000000E+00  0.00000000E+00  0.00000000E+00
  0.00000000E+00  0.00000000E+00  0.00000000E+00
  0.00000000E+00  0.00000000E+00  0.00000000E+00
  0.00000000E+00  0.00000000E+00  0.00000000E+00
  0.00000000E+00  0.00000000E+00  0.00000000E+00
  0.00000000E+00  0.00000000E+00  0.00000000E+00
  0.00000000E+00  0.00000000E+00  0.00000000E+00
  0.00000000E+00  0.00000000E+00  0.00000000E+00
  0.00000000E+00  0.00000000E+00  0.00000000E+00
  0.00000000E+00  0.00000000E+00  0.00000000E+00
  0.00000000E+00  0.00000000E+00  0.00000000E+00
  0.00000000E+00  0.00000000E+00  0.00000000E+00
