 Y14 C6 I12 O2                          
   1.00000000000000     
     3.8275254141714155    0.0000000000000000    0.0000000000000000
     0.0000000000000000   22.3224512398695758    0.0000000000000000
     0.0000000000000000    0.0000000000000000   23.4783322398319960
   Y    C    I    O 
    14     6    12     2
Direct
  0.5000000615404474  0.9703033199763027  0.4330189177974191
  0.0000000103251736  0.6645844876945119  0.4005774930443664
  0.5000000236462512  0.7500073058159629  0.4913786085208400
  0.0000000560100801  0.6059183589711026  0.5299542351832613
  0.9999999689670673  0.1645797149160941  0.5994135068948765
  0.4999999966825683  0.2499926887633066  0.5086214057306648
  0.4999999469998571  0.4703003938250063  0.5669866479612153
  0.9999999179383678  0.8940857281047982  0.5299503716276064
  0.0000001210903022  0.1059142655834791  0.4700496350917760
  0.0000001217163188  0.8354202936048978  0.4005865064043164
  0.4999999933589265  0.5296996027114034  0.4330133522430515
  0.4999999937820618  0.0296966719904859  0.5669810952394272
  0.0000000039061234  0.3354155288374656  0.5994225164106197
  0.9999998762500297  0.3940816470867503  0.4700457884891733
  0.5000000380560365  0.1367075114275238  0.5376717810303333
  0.5000000098829744  0.6367076390731583  0.4623239761197908
  0.9999999746708994  0.9999999948658811  0.4999999939864139
  0.4999999349131272  0.8632924942934537  0.4623282203793266
  0.9999999974809342  0.5000000059735470  0.4999999931640389
  0.4999999443505487  0.3632923575733429  0.5376760133607590
  0.4999999954811329  0.2499973969381131  0.6812740662612100
  0.9999999515070428  0.2500006389123826  0.4066899561426709
  0.9999999728446767  0.0565244384770835  0.6749478288366859
  0.4999999696464883  0.9059658123469418  0.6324792638831838
  0.5000000328863337  0.4059672828476906  0.3675225706315288
  0.0000000360069450  0.9434755607572782  0.3250521698447244
  0.9999999794639010  0.4434771987239898  0.6749554011660095
  0.5000000108886624  0.0940341877579485  0.3675207375534910
  0.9999999670403312  0.5565228014239452  0.3250445902341639
  0.0000000490770518  0.7499993509750880  0.5933100308013906
  0.5000000100530855  0.5940327201671352  0.6324774174313390
  0.5000000434046825  0.7500026156949673  0.3187259378682157
  0.9999999706888190  0.7499984084892262  0.4444366791934229
  0.0000000194427514  0.2500015753997289  0.5555632914726800
 
  0.00000000E+00  0.00000000E+00  0.00000000E+00
  0.00000000E+00  0.00000000E+00  0.00000000E+00
  0.00000000E+00  0.00000000E+00  0.00000000E+00
  0.00000000E+00  0.00000000E+00  0.00000000E+00
  0.00000000E+00  0.00000000E+00  0.00000000E+00
  0.00000000E+00  0.00000000E+00  0.00000000E+00
  0.00000000E+00  0.00000000E+00  0.00000000E+00
  0.00000000E+00  0.00000000E+00  0.00000000E+00
  0.00000000E+00  0.00000000E+00  0.00000000E+00
  0.00000000E+00  0.00000000E+00  0.00000000E+00
  0.00000000E+00  0.00000000E+00  0.00000000E+00
  0.00000000E+00  0.00000000E+00  0.00000000E+00
  0.00000000E+00  0.00000000E+00  0.00000000E+00
  0.00000000E+00  0.00000000E+00  0.00000000E+00
  0.00000000E+00  0.00000000E+00  0.00000000E+00
  0.00000000E+00  0.00000000E+00  0.00000000E+00
  0.00000000E+00  0.00000000E+00  0.00000000E+00
  0.00000000E+00  0.00000000E+00  0.00000000E+00
  0.00000000E+00  0.00000000E+00  0.00000000E+00
  0.00000000E+00  0.00000000E+00  0.00000000E+00
  0.00000000E+00  0.00000000E+00  0.00000000E+00
  0.00000000E+00  0.00000000E+00  0.00000000E+00
  0.00000000E+00  0.00000000E+00  0.00000000E+00
  0.00000000E+00  0.00000000E+00  0.00000000E+00
  0.00000000E+00  0.00000000E+00  0.00000000E+00
  0.00000000E+00  0.00000000E+00  0.00000000E+00
  0.00000000E+00  0.00000000E+00  0.00000000E+00
  0.00000000E+00  0.00000000E+00  0.00000000E+00
  0.00000000E+00  0.00000000E+00  0.00000000E+00
  0.00000000E+00  0.00000000E+00  0.00000000E+00
  0.00000000E+00  0.00000000E+00  0.00000000E+00
  0.00000000E+00  0.00000000E+00  0.00000000E+00
  0.00000000E+00  0.00000000E+00  0.00000000E+00
  0.00000000E+00  0.00000000E+00  0.00000000E+00
