G   52    9    1    0.005     # Parameters to Generate KPOINTS (Don't Edit This Line)
     135
Reciprocal lattice
    0.000000000000    0.000000000000    0.000000000000       1
    0.019230769231    0.000000000000    0.000000000000       2
    0.038461538462    0.000000000000    0.000000000000       2
    0.057692307692    0.000000000000    0.000000000000       2
    0.076923076923    0.000000000000    0.000000000000       2
    0.096153846154    0.000000000000    0.000000000000       2
    0.115384615385    0.000000000000    0.000000000000       2
    0.134615384615    0.000000000000    0.000000000000       2
    0.153846153846    0.000000000000    0.000000000000       2
    0.173076923077    0.000000000000    0.000000000000       2
    0.192307692308    0.000000000000    0.000000000000       2
    0.211538461538    0.000000000000    0.000000000000       2
    0.230769230769    0.000000000000    0.000000000000       2
    0.250000000000    0.000000000000    0.000000000000       2
    0.269230769231    0.000000000000    0.000000000000       2
    0.288461538462    0.000000000000    0.000000000000       2
    0.307692307692    0.000000000000    0.000000000000       2
    0.326923076923    0.000000000000    0.000000000000       2
    0.346153846154    0.000000000000    0.000000000000       2
    0.365384615385    0.000000000000    0.000000000000       2
    0.384615384615    0.000000000000    0.000000000000       2
    0.403846153846    0.000000000000    0.000000000000       2
    0.423076923077    0.000000000000    0.000000000000       2
    0.442307692308    0.000000000000    0.000000000000       2
    0.461538461538    0.000000000000    0.000000000000       2
    0.480769230769    0.000000000000    0.000000000000       2
    0.500000000000    0.000000000000    0.000000000000       1
    0.000000000000    0.111111111111    0.000000000000       2
    0.019230769231    0.111111111111    0.000000000000       4
    0.038461538462    0.111111111111    0.000000000000       4
    0.057692307692    0.111111111111    0.000000000000       4
    0.076923076923    0.111111111111    0.000000000000       4
    0.096153846154    0.111111111111    0.000000000000       4
    0.115384615385    0.111111111111    0.000000000000       4
    0.134615384615    0.111111111111    0.000000000000       4
    0.153846153846    0.111111111111    0.000000000000       4
    0.173076923077    0.111111111111    0.000000000000       4
    0.192307692308    0.111111111111    0.000000000000       4
    0.211538461538    0.111111111111    0.000000000000       4
    0.230769230769    0.111111111111    0.000000000000       4
    0.250000000000    0.111111111111    0.000000000000       4
    0.269230769231    0.111111111111    0.000000000000       4
    0.288461538462    0.111111111111    0.000000000000       4
    0.307692307692    0.111111111111    0.000000000000       4
    0.326923076923    0.111111111111    0.000000000000       4
    0.346153846154    0.111111111111    0.000000000000       4
    0.365384615385    0.111111111111    0.000000000000       4
    0.384615384615    0.111111111111    0.000000000000       4
    0.403846153846    0.111111111111    0.000000000000       4
    0.423076923077    0.111111111111    0.000000000000       4
    0.442307692308    0.111111111111    0.000000000000       4
    0.461538461538    0.111111111111    0.000000000000       4
    0.480769230769    0.111111111111    0.000000000000       4
    0.500000000000    0.111111111111    0.000000000000       2
    0.000000000000    0.222222222222    0.000000000000       2
    0.019230769231    0.222222222222    0.000000000000       4
    0.038461538462    0.222222222222    0.000000000000       4
    0.057692307692    0.222222222222    0.000000000000       4
    0.076923076923    0.222222222222    0.000000000000       4
    0.096153846154    0.222222222222    0.000000000000       4
    0.115384615385    0.222222222222    0.000000000000       4
    0.134615384615    0.222222222222    0.000000000000       4
    0.153846153846    0.222222222222    0.000000000000       4
    0.173076923077    0.222222222222    0.000000000000       4
    0.192307692308    0.222222222222    0.000000000000       4
    0.211538461538    0.222222222222    0.000000000000       4
    0.230769230769    0.222222222222    0.000000000000       4
    0.250000000000    0.222222222222    0.000000000000       4
    0.269230769231    0.222222222222    0.000000000000       4
    0.288461538462    0.222222222222    0.000000000000       4
    0.307692307692    0.222222222222    0.000000000000       4
    0.326923076923    0.222222222222    0.000000000000       4
    0.346153846154    0.222222222222    0.000000000000       4
    0.365384615385    0.222222222222    0.000000000000       4
    0.384615384615    0.222222222222    0.000000000000       4
    0.403846153846    0.222222222222    0.000000000000       4
    0.423076923077    0.222222222222    0.000000000000       4
    0.442307692308    0.222222222222    0.000000000000       4
    0.461538461538    0.222222222222    0.000000000000       4
    0.480769230769    0.222222222222    0.000000000000       4
    0.500000000000    0.222222222222    0.000000000000       2
    0.000000000000    0.333333333333    0.000000000000       2
    0.019230769231    0.333333333333    0.000000000000       4
    0.038461538462    0.333333333333    0.000000000000       4
    0.057692307692    0.333333333333    0.000000000000       4
    0.076923076923    0.333333333333    0.000000000000       4
    0.096153846154    0.333333333333    0.000000000000       4
    0.115384615385    0.333333333333    0.000000000000       4
    0.134615384615    0.333333333333    0.000000000000       4
    0.153846153846    0.333333333333    0.000000000000       4
    0.173076923077    0.333333333333    0.000000000000       4
    0.192307692308    0.333333333333    0.000000000000       4
    0.211538461538    0.333333333333    0.000000000000       4
    0.230769230769    0.333333333333    0.000000000000       4
    0.250000000000    0.333333333333    0.000000000000       4
    0.269230769231    0.333333333333    0.000000000000       4
    0.288461538462    0.333333333333    0.000000000000       4
    0.307692307692    0.333333333333    0.000000000000       4
    0.326923076923    0.333333333333    0.000000000000       4
    0.346153846154    0.333333333333    0.000000000000       4
    0.365384615385    0.333333333333    0.000000000000       4
    0.384615384615    0.333333333333    0.000000000000       4
    0.403846153846    0.333333333333    0.000000000000       4
    0.423076923077    0.333333333333    0.000000000000       4
    0.442307692308    0.333333333333    0.000000000000       4
    0.461538461538    0.333333333333    0.000000000000       4
    0.480769230769    0.333333333333    0.000000000000       4
    0.500000000000    0.333333333333    0.000000000000       2
    0.000000000000    0.444444444444    0.000000000000       2
    0.019230769231    0.444444444444    0.000000000000       4
    0.038461538462    0.444444444444    0.000000000000       4
    0.057692307692    0.444444444444    0.000000000000       4
    0.076923076923    0.444444444444    0.000000000000       4
    0.096153846154    0.444444444444    0.000000000000       4
    0.115384615385    0.444444444444    0.000000000000       4
    0.134615384615    0.444444444444    0.000000000000       4
    0.153846153846    0.444444444444    0.000000000000       4
    0.173076923077    0.444444444444    0.000000000000       4
    0.192307692308    0.444444444444    0.000000000000       4
    0.211538461538    0.444444444444    0.000000000000       4
    0.230769230769    0.444444444444    0.000000000000       4
    0.250000000000    0.444444444444    0.000000000000       4
    0.269230769231    0.444444444444    0.000000000000       4
    0.288461538462    0.444444444444    0.000000000000       4
    0.307692307692    0.444444444444    0.000000000000       4
    0.326923076923    0.444444444444    0.000000000000       4
    0.346153846154    0.444444444444    0.000000000000       4
    0.365384615385    0.444444444444    0.000000000000       4
    0.384615384615    0.444444444444    0.000000000000       4
    0.403846153846    0.444444444444    0.000000000000       4
    0.423076923077    0.444444444444    0.000000000000       4
    0.442307692308    0.444444444444    0.000000000000       4
    0.461538461538    0.444444444444    0.000000000000       4
    0.480769230769    0.444444444444    0.000000000000       4
    0.500000000000    0.444444444444    0.000000000000       2
