CONTCAR\(14)                            
   1.00000000000000     
    12.6843996047999994    0.0000000000000000    0.0000000000000000
     0.0000000000000000   11.4939002990999999    0.0000000000000000
     0.0000000000000000    0.0000000000000000   18.8276996612999987
   Nb   Si   Te   O    H 
    12     4    24     1     1
Direct
  0.0757990021349073  0.0841796108910486  0.4977012751650776
  0.3271811133890097  0.9133775502769623  0.4981306606040050
  0.3425724643898818  0.2135423668526428  0.4980320161387439
  0.0921040973926495  0.7846404154903084  0.4982168267955274
  0.4785774102126439  0.5608471818035454  0.4983552325233020
  0.2286993706050708  0.4374720342196667  0.4983108086307766
  0.5762348968527746  0.0840531640460540  0.4980210686790514
  0.8266041079706241  0.9153401703560533  0.4978172721834468
  0.8420958866643886  0.2147672445742259  0.4978790891552549
  0.5903125731027217  0.7836080572815973  0.4988744445427997
  0.9788855163065051  0.5608258109487139  0.4979566108580187
  0.7272205421453251  0.4360221521425558  0.4992629936304240
  0.0325781658880828  0.3227183595240106  0.4978691699170810
  0.2818788397155458  0.6750966128256408  0.4983161739463995
  0.5311592937404797  0.3234054672236581  0.4980159893783096
  0.7838073960765470  0.6766312434234649  0.4905274924736958
  0.4178500051266951  0.0653767406946528  0.6010093105284113
  0.1679146445542798  0.9320369992467121  0.3951013073559295
  0.1675956194499975  0.9327913454710810  0.6005895257404816
  0.4177588164698705  0.0649034789451193  0.3949766724569557
  0.3927018291901803  0.4043631847108600  0.5984133291750453
  0.1431855134678557  0.5944731635557616  0.3984047146501055
  0.1420405126444990  0.5948029309833771  0.5978887160306670
  0.3927719533215921  0.4037247389463161  0.3983013561340130
  0.1717884013252444  0.2459945238142751  0.5950712982510353
  0.4211692888700185  0.7507009196900185  0.4008312545397175
  0.4193662894860140  0.7509082638822662  0.5964617599063189
  0.1717865369599707  0.2468654567804407  0.4007147100598658
  0.9180564197313430  0.0661100265029049  0.6005969877069930
  0.6667274662072202  0.9320187685183683  0.3955863427812858
  0.6683452934310736  0.9344287470248247  0.6005327854355684
  0.9173148479368294  0.0667003464308991  0.3946652494507461
  0.8938371222910462  0.4029563662873841  0.5979289716881837
  0.6414343160108729  0.5930684389336207  0.3957403172597083
  0.6434782716473180  0.5954360027130363  0.5938772332925453
  0.8925905151369307  0.4034588418850475  0.3985470775078426
  0.6713733715183139  0.2461853598703314  0.5954634921333337
  0.9221683964271179  0.7523584920752526  0.3993453493136059
  0.9197749478443953  0.7511753018828671  0.5940401788946446
  0.6707165747953212  0.2470933190221629  0.4005630829386391
  0.5872987819619624  0.5553682327528264  0.6939586951802070
  0.6332540116068799  0.5947523394994789  0.7281230939662180
 
  0.00000000E+00  0.00000000E+00  0.00000000E+00
  0.00000000E+00  0.00000000E+00  0.00000000E+00
  0.00000000E+00  0.00000000E+00  0.00000000E+00
  0.00000000E+00  0.00000000E+00  0.00000000E+00
  0.00000000E+00  0.00000000E+00  0.00000000E+00
  0.00000000E+00  0.00000000E+00  0.00000000E+00
  0.00000000E+00  0.00000000E+00  0.00000000E+00
  0.00000000E+00  0.00000000E+00  0.00000000E+00
  0.00000000E+00  0.00000000E+00  0.00000000E+00
  0.00000000E+00  0.00000000E+00  0.00000000E+00
  0.00000000E+00  0.00000000E+00  0.00000000E+00
  0.00000000E+00  0.00000000E+00  0.00000000E+00
  0.00000000E+00  0.00000000E+00  0.00000000E+00
  0.00000000E+00  0.00000000E+00  0.00000000E+00
  0.00000000E+00  0.00000000E+00  0.00000000E+00
  0.00000000E+00  0.00000000E+00  0.00000000E+00
  0.00000000E+00  0.00000000E+00  0.00000000E+00
  0.00000000E+00  0.00000000E+00  0.00000000E+00
  0.00000000E+00  0.00000000E+00  0.00000000E+00
  0.00000000E+00  0.00000000E+00  0.00000000E+00
  0.00000000E+00  0.00000000E+00  0.00000000E+00
  0.00000000E+00  0.00000000E+00  0.00000000E+00
  0.00000000E+00  0.00000000E+00  0.00000000E+00
  0.00000000E+00  0.00000000E+00  0.00000000E+00
  0.00000000E+00  0.00000000E+00  0.00000000E+00
  0.00000000E+00  0.00000000E+00  0.00000000E+00
  0.00000000E+00  0.00000000E+00  0.00000000E+00
  0.00000000E+00  0.00000000E+00  0.00000000E+00
  0.00000000E+00  0.00000000E+00  0.00000000E+00
  0.00000000E+00  0.00000000E+00  0.00000000E+00
  0.00000000E+00  0.00000000E+00  0.00000000E+00
  0.00000000E+00  0.00000000E+00  0.00000000E+00
  0.00000000E+00  0.00000000E+00  0.00000000E+00
  0.00000000E+00  0.00000000E+00  0.00000000E+00
  0.00000000E+00  0.00000000E+00  0.00000000E+00
  0.00000000E+00  0.00000000E+00  0.00000000E+00
  0.00000000E+00  0.00000000E+00  0.00000000E+00
  0.00000000E+00  0.00000000E+00  0.00000000E+00
  0.00000000E+00  0.00000000E+00  0.00000000E+00
  0.00000000E+00  0.00000000E+00  0.00000000E+00
  0.00000000E+00  0.00000000E+00  0.00000000E+00
  0.00000000E+00  0.00000000E+00  0.00000000E+00
