CONTCAR\(8)                             
   1.00000000000000     
    14.5763998031999993    0.0000000000000000    0.0000000000000000
     0.0000000000000000   14.5763998031999993    0.0000000000000000
     0.0000000000000000    0.0000000000000000   17.7768993377999998
   Fe   Se   O 
    32    32     1
Direct
 -0.0019109022608092 -0.0000000000000000  0.5003547913997126
  0.1245062647404409  0.1249584528799974  0.5011560676153931
  0.2517511760691149 -0.0000000000000000  0.4969073670825886
  0.3749999919999993  0.1234876420461294  0.4979819056498980
  0.4982488239308853 -0.0000000000000000  0.4969073670825886
  0.6254937102595606  0.1249584528799974  0.5011560676153931
  0.7519108862608079 -0.0000000000000000  0.5003547913997126
  0.8749999919999993  0.1230890977391908  0.5003547913997126
 -0.0000415471200026  0.2495062647404409  0.5011560676153931
  0.1238978823953476  0.3757902195198454  0.5032944001165892
  0.2507902275198460  0.2488978823953476  0.5032944001165892
  0.3749999919999993  0.3791690749126898  0.5120549114178687
  0.4992097724801539  0.2488978823953476  0.5032944001165892
  0.6261020926046540  0.3757902195198454  0.5032944001165892
  0.7500415311200013  0.2495062647404409  0.5011560676153931
  0.8749999919999993  0.3767511680691143  0.4969073670825886
 -0.0015123579538706  0.5000000000000000  0.4979819056498980
  0.1238978823953476  0.6242097474801555  0.5032944001165892
  0.2541690829126904  0.5000000000000000  0.5120549114178687
  0.3749999919999993  0.6208308920873108  0.5120549114178687
  0.4958309170873096  0.5000000000000000  0.5120549114178687
  0.6261020926046540  0.6242097474801555  0.5032944001165892
  0.7515123419538695  0.5000000000000000  0.4979819056498980
  0.8749999919999993  0.6232487989308867  0.4969073670825886
 -0.0000415471200026  0.7504937192595578  0.5011560676153931
  0.1245062647404409  0.8750415391200019  0.5011560676153931
  0.2507902275198461  0.7511021016046512  0.5032944001165892
  0.3749999919999993  0.8765123499538702  0.4979819056498980
  0.4992097724801539  0.7511021016046512  0.5032944001165892
  0.6254937102595606  0.8750415391200019  0.5011560676153931
  0.7500415311200013  0.7504937192595578  0.5011560676153931
  0.8749999919999993  0.8769108942608086  0.5003547913997126
  0.1235198425289121 -0.0000000000000000  0.4144033471128639
 -0.0005237076177661  0.1244762923822339  0.5853386534795211
  0.3749999919999993 -0.0000000000000000  0.4104956726233558
  0.2506963377168133  0.1229575446932327  0.5827507847728796
  0.6264801324710891 -0.0000000000000000  0.4144033471128639
  0.4993036622831869  0.1229575446932327  0.5827507847728796
  0.8749999919999993 -0.0000000000000000  0.4128471985484796
  0.7505236916177648  0.1244762923822339  0.5853386534795212
  0.1292195425098177  0.2542195425098176  0.4206559186186293
 -0.0020424553067673  0.3756963297168126  0.5827507847728796
  0.3749999919999993  0.2560086866746405  0.4211177169119545
  0.2389181028916575  0.3639180948916569  0.5905082354983231
  0.6207804324901840  0.2542195425098175  0.4206559186186293
  0.5110818971083426  0.3639180948916569  0.5905082354983231
  0.8749999919999993  0.2485198425289121  0.4144033471128639
  0.7520424393067662  0.3756963297168126  0.5827507847728796
  0.1310086866746406  0.5000000000000000  0.4211177169119545
 -0.0020424553067674  0.6243036372831885  0.5827507847728796
  0.3749999919999993  0.5000000000000000  0.4111145465071248
  0.2389181028916575  0.6360818721083442  0.5905082354983231
  0.6189912883253609  0.5000000000000000  0.4211177169119545
  0.5110818971083426  0.6360818721083442  0.5905082354983231
  0.8749999919999993  0.5000000000000000  0.4104956726233558
  0.7520424393067662  0.6243036372831885  0.5827507847728796
  0.1292195425098177  0.7457804414901812  0.4206559186186293
 -0.0005237076177661  0.8755236996177654  0.5853386534795211
  0.3749999919999993  0.7439912973253581  0.4211177169119545
  0.2506963377168132  0.8770424473067668  0.5827507847728796
  0.6207804324901840  0.7457804414901812  0.4206559186186293
  0.4993036622831869  0.8770424473067668  0.5827507847728796
  0.8749999919999993  0.7514801414710863  0.4144033471128639
  0.7505236916177648  0.8755236996177654  0.5853386534795212
  0.3749000210000020  0.5000100099999969  0.5646950979734293
 
  0.00000000E+00  0.00000000E+00  0.00000000E+00
  0.00000000E+00  0.00000000E+00  0.00000000E+00
  0.00000000E+00  0.00000000E+00  0.00000000E+00
  0.00000000E+00  0.00000000E+00  0.00000000E+00
  0.00000000E+00  0.00000000E+00  0.00000000E+00
  0.00000000E+00  0.00000000E+00  0.00000000E+00
  0.00000000E+00  0.00000000E+00  0.00000000E+00
  0.00000000E+00  0.00000000E+00  0.00000000E+00
  0.00000000E+00  0.00000000E+00  0.00000000E+00
  0.00000000E+00  0.00000000E+00  0.00000000E+00
  0.00000000E+00  0.00000000E+00  0.00000000E+00
  0.00000000E+00  0.00000000E+00  0.00000000E+00
  0.00000000E+00  0.00000000E+00  0.00000000E+00
  0.00000000E+00  0.00000000E+00  0.00000000E+00
  0.00000000E+00  0.00000000E+00  0.00000000E+00
  0.00000000E+00  0.00000000E+00  0.00000000E+00
  0.00000000E+00  0.00000000E+00  0.00000000E+00
  0.00000000E+00  0.00000000E+00  0.00000000E+00
  0.00000000E+00  0.00000000E+00  0.00000000E+00
  0.00000000E+00  0.00000000E+00  0.00000000E+00
  0.00000000E+00  0.00000000E+00  0.00000000E+00
  0.00000000E+00  0.00000000E+00  0.00000000E+00
  0.00000000E+00  0.00000000E+00  0.00000000E+00
  0.00000000E+00  0.00000000E+00  0.00000000E+00
  0.00000000E+00  0.00000000E+00  0.00000000E+00
  0.00000000E+00  0.00000000E+00  0.00000000E+00
  0.00000000E+00  0.00000000E+00  0.00000000E+00
  0.00000000E+00  0.00000000E+00  0.00000000E+00
  0.00000000E+00  0.00000000E+00  0.00000000E+00
  0.00000000E+00  0.00000000E+00  0.00000000E+00
  0.00000000E+00  0.00000000E+00  0.00000000E+00
  0.00000000E+00  0.00000000E+00  0.00000000E+00
  0.00000000E+00  0.00000000E+00  0.00000000E+00
  0.00000000E+00  0.00000000E+00  0.00000000E+00
  0.00000000E+00  0.00000000E+00  0.00000000E+00
  0.00000000E+00  0.00000000E+00  0.00000000E+00
  0.00000000E+00  0.00000000E+00  0.00000000E+00
  0.00000000E+00  0.00000000E+00  0.00000000E+00
  0.00000000E+00  0.00000000E+00  0.00000000E+00
  0.00000000E+00  0.00000000E+00  0.00000000E+00
  0.00000000E+00  0.00000000E+00  0.00000000E+00
  0.00000000E+00  0.00000000E+00  0.00000000E+00
  0.00000000E+00  0.00000000E+00  0.00000000E+00
  0.00000000E+00  0.00000000E+00  0.00000000E+00
  0.00000000E+00  0.00000000E+00  0.00000000E+00
  0.00000000E+00  0.00000000E+00  0.00000000E+00
  0.00000000E+00  0.00000000E+00  0.00000000E+00
  0.00000000E+00  0.00000000E+00  0.00000000E+00
  0.00000000E+00  0.00000000E+00  0.00000000E+00
  0.00000000E+00  0.00000000E+00  0.00000000E+00
  0.00000000E+00  0.00000000E+00  0.00000000E+00
  0.00000000E+00  0.00000000E+00  0.00000000E+00
  0.00000000E+00  0.00000000E+00  0.00000000E+00
  0.00000000E+00  0.00000000E+00  0.00000000E+00
  0.00000000E+00  0.00000000E+00  0.00000000E+00
  0.00000000E+00  0.00000000E+00  0.00000000E+00
  0.00000000E+00  0.00000000E+00  0.00000000E+00
  0.00000000E+00  0.00000000E+00  0.00000000E+00
  0.00000000E+00  0.00000000E+00  0.00000000E+00
  0.00000000E+00  0.00000000E+00  0.00000000E+00
  0.00000000E+00  0.00000000E+00  0.00000000E+00
  0.00000000E+00  0.00000000E+00  0.00000000E+00
  0.00000000E+00  0.00000000E+00  0.00000000E+00
  0.00000000E+00  0.00000000E+00  0.00000000E+00
  0.00000000E+00  0.00000000E+00  0.00000000E+00
