 Pr1 Re2 O8                             
   1.00000000000000     
     5.8738948071257671    0.0000000000000000    0.0000000000000000
    -2.9369539529669755    5.0866388520226815    0.0000000000000000
     0.0000000000000000    0.0000000000000000   22.3564735717189400
   Pr   Re   O 
     1     2     8
Direct
  0.0012284114561853  0.0005296807202432  0.4999941834687729
  0.3345014757230481  0.6671749406453191  0.4074113722413355
  0.6679325704271758  0.3338995196897450  0.5925836642990973
  0.0856186415917836  0.7278895926369123  0.4365171452706190
  0.6440649603294887  0.9159404585884294  0.4365446033709806
  0.3347196536216009  0.6674350260021079  0.3301921583451025
  0.7287350294818349  0.6436051733327903  0.5635131766433317
  0.2736820496884679  0.3574730554307030  0.4364623459637939
  0.6679227377750708  0.3337789310281104  0.6697989802377321
  0.3582734224168150  0.0850686648297636  0.5634698611198146
  0.9168023775667322  0.2731593746225034  0.5634555233079284
 
  0.00000000E+00  0.00000000E+00  0.00000000E+00
  0.00000000E+00  0.00000000E+00  0.00000000E+00
  0.00000000E+00  0.00000000E+00  0.00000000E+00
  0.00000000E+00  0.00000000E+00  0.00000000E+00
  0.00000000E+00  0.00000000E+00  0.00000000E+00
  0.00000000E+00  0.00000000E+00  0.00000000E+00
  0.00000000E+00  0.00000000E+00  0.00000000E+00
  0.00000000E+00  0.00000000E+00  0.00000000E+00
  0.00000000E+00  0.00000000E+00  0.00000000E+00
  0.00000000E+00  0.00000000E+00  0.00000000E+00
  0.00000000E+00  0.00000000E+00  0.00000000E+00
