CONTCAR\(5)                             
   1.00000000000000     
    10.2665004730000007    0.0000000000000000    0.0000000000000000
     0.0000000000000000   17.1711997986000000    0.0000000000000000
     0.0000000000000000    0.0000000000000000   18.9181995391999997
   K    Fe   S    O    H 
     8    16    24     2     1
Direct
  0.1245624716949230  0.2361145520081402  0.4105809566938503
  0.3743930861402699  0.2470954257623662  0.5891230024577025
  0.6242026021151307  0.2361741406099618  0.4106208441590301
  0.8744866705449126  0.2472426029206788  0.5891844561599654
  0.1254619564604061  0.7486174829342691  0.4109995019542265
  0.3747997468413600  0.7303915207337429  0.6157901648223176
  0.6229867609073046  0.7484409946093580  0.4110638853417406
  0.8736433759994584  0.7321290681781829  0.5994738592993976
 -0.0004072062476373  0.0637868089969397  0.5094777274165715
  0.2493829023191699  0.9157639008112753  0.5141107580274465
 -0.0004213788617471  0.9159377890504429  0.5134854821856975
  0.2495006732829093  0.0637733707716064  0.5098432373425129
  0.4994815634119503  0.0637548092036271  0.5096953089029379
  0.7495671126866000  0.9159763032681281  0.5135385974822468
  0.4998489776778958  0.9157180423715026  0.5139701515909826
  0.7493712571314153  0.0638115776574708  0.5095783860628653
 -0.0001873869701830  0.5662802726166792  0.4867065513116378
  0.2499519337788083  0.4186994803308743  0.4899458839773762
 -0.0000750237095514  0.4187094818657196  0.4896004068081334
  0.2498251074670567  0.5662635176330240  0.4873533116138027
  0.4998978615502537  0.5664006767389359  0.4872228583765911
  0.7497431724344756  0.4185866407986240  0.4896255629598474
  0.4997020872950775  0.4188670564659978  0.4898274956277804
  0.7500317937981830  0.5661274835664797  0.4868321656598910
  0.3740656150901605  0.8451726432263410  0.4519668971789368
  0.1246226049765534  0.1357928000512739  0.5710970029633723
  0.1241287718789868  0.8478246014406291  0.5780906710372060
  0.3742286004824459  0.9920485336717425  0.5764484948166401
  0.1255037223987511  0.9877579778861975  0.4470934208102307
  0.3740091134623701  0.1302605525174093  0.4432031074253860
  0.8740828171569579  0.8452557825285291  0.4506893317271086
  0.6248513696534109  0.1358249755170841  0.5711047854679834
  0.6256091307119929  0.8478032026007626  0.5779084132524281
  0.8740955703825052  0.9921304748201791  0.5760642302320292
  0.6246771432945059  0.9877644359597694  0.4470531936137940
  0.8740138341896321  0.1302049443928894  0.4430176268786553
  0.3753200763375957  0.3478186651542140  0.4271865465312500
  0.1242834391679193  0.6353072706334081  0.5500959050926355
  0.1242190462161465  0.3512827724632231  0.5559270611444593
  0.3752780933019965  0.4941161238276978  0.5533724895234065
  0.1250679480347987  0.4910734780615135  0.4236025294336727
  0.3747010651074704  0.6338822871187236  0.4232706773051527
  0.8753400856476884  0.3477131282829414  0.4269587608927286
  0.6253222510853228  0.6351102930959435  0.5503646220698138
  0.6241978870943740  0.3513246434025427  0.5559328898540925
  0.8753076764108562  0.4938302917652342  0.5528160219690463
  0.6242139624300518  0.4911451796805579  0.4235523838845331
  0.8747645206064907  0.6335943084728952  0.4221959894547921
  0.3533185580056578  0.6171129640747629  0.7138026801694333
  0.4096780955331137  0.6855150568496213  0.7446613017219933
  0.3887688105938018  0.5750693635998263  0.7430425753146258
 
  0.00000000E+00  0.00000000E+00  0.00000000E+00
  0.00000000E+00  0.00000000E+00  0.00000000E+00
  0.00000000E+00  0.00000000E+00  0.00000000E+00
  0.00000000E+00  0.00000000E+00  0.00000000E+00
  0.00000000E+00  0.00000000E+00  0.00000000E+00
  0.00000000E+00  0.00000000E+00  0.00000000E+00
  0.00000000E+00  0.00000000E+00  0.00000000E+00
  0.00000000E+00  0.00000000E+00  0.00000000E+00
  0.00000000E+00  0.00000000E+00  0.00000000E+00
  0.00000000E+00  0.00000000E+00  0.00000000E+00
  0.00000000E+00  0.00000000E+00  0.00000000E+00
  0.00000000E+00  0.00000000E+00  0.00000000E+00
  0.00000000E+00  0.00000000E+00  0.00000000E+00
  0.00000000E+00  0.00000000E+00  0.00000000E+00
  0.00000000E+00  0.00000000E+00  0.00000000E+00
  0.00000000E+00  0.00000000E+00  0.00000000E+00
  0.00000000E+00  0.00000000E+00  0.00000000E+00
  0.00000000E+00  0.00000000E+00  0.00000000E+00
  0.00000000E+00  0.00000000E+00  0.00000000E+00
  0.00000000E+00  0.00000000E+00  0.00000000E+00
  0.00000000E+00  0.00000000E+00  0.00000000E+00
  0.00000000E+00  0.00000000E+00  0.00000000E+00
  0.00000000E+00  0.00000000E+00  0.00000000E+00
  0.00000000E+00  0.00000000E+00  0.00000000E+00
  0.00000000E+00  0.00000000E+00  0.00000000E+00
  0.00000000E+00  0.00000000E+00  0.00000000E+00
  0.00000000E+00  0.00000000E+00  0.00000000E+00
  0.00000000E+00  0.00000000E+00  0.00000000E+00
  0.00000000E+00  0.00000000E+00  0.00000000E+00
  0.00000000E+00  0.00000000E+00  0.00000000E+00
  0.00000000E+00  0.00000000E+00  0.00000000E+00
  0.00000000E+00  0.00000000E+00  0.00000000E+00
  0.00000000E+00  0.00000000E+00  0.00000000E+00
  0.00000000E+00  0.00000000E+00  0.00000000E+00
  0.00000000E+00  0.00000000E+00  0.00000000E+00
  0.00000000E+00  0.00000000E+00  0.00000000E+00
  0.00000000E+00  0.00000000E+00  0.00000000E+00
  0.00000000E+00  0.00000000E+00  0.00000000E+00
  0.00000000E+00  0.00000000E+00  0.00000000E+00
  0.00000000E+00  0.00000000E+00  0.00000000E+00
  0.00000000E+00  0.00000000E+00  0.00000000E+00
  0.00000000E+00  0.00000000E+00  0.00000000E+00
  0.00000000E+00  0.00000000E+00  0.00000000E+00
  0.00000000E+00  0.00000000E+00  0.00000000E+00
  0.00000000E+00  0.00000000E+00  0.00000000E+00
  0.00000000E+00  0.00000000E+00  0.00000000E+00
  0.00000000E+00  0.00000000E+00  0.00000000E+00
  0.00000000E+00  0.00000000E+00  0.00000000E+00
  0.00000000E+00  0.00000000E+00  0.00000000E+00
  0.00000000E+00  0.00000000E+00  0.00000000E+00
  0.00000000E+00  0.00000000E+00  0.00000000E+00
