 Li2 H2 Pd1                             
   1.00000000000000     
     2.9510627599266996    0.0000000000000000    0.0000000000000000
     0.0000000000000000    2.9510631449651883    0.0000000000000000
     0.0000000000000000    0.0000000000000000   18.3845925971840032
   Li   H    Pd
     2     2     1
Direct
  0.0000000166417220 -0.0000000010333020  0.4156291929911146
 -0.0000000163206829  0.0000000007894853  0.5843707629582976
  0.5000000029292919  0.5000000053845324  0.5924756130128499
  0.4999999974138220  0.4999999945914537  0.4075244032915978
  0.4999999993358476  0.5000000002678301  0.5000000277461411
 
  0.00000000E+00  0.00000000E+00  0.00000000E+00
  0.00000000E+00  0.00000000E+00  0.00000000E+00
  0.00000000E+00  0.00000000E+00  0.00000000E+00
  0.00000000E+00  0.00000000E+00  0.00000000E+00
  0.00000000E+00  0.00000000E+00  0.00000000E+00
