 Li4 Fe2 P8 O26                         
   1.00000000000000     
     4.8454231576638236    0.0000000000000000    0.0000000000000000
    -1.0870973721022923    7.8422211826282471    0.0000000000000000
     0.0000000000000000    0.0000000000000000   27.1489465723740011
   Li   Fe   P    O 
     4     2     8    26
Direct
  0.8794740132625389  0.3409814894894776  0.4834389705395937
  0.6645500507561798  0.4211184201363292  0.2832282090662488
  0.3354589359039585  0.5788830883482603  0.7167728561397935
  0.1205204591916978  0.6590204617308785  0.5165621702592810
  0.6109176714116936  0.1112149702461138  0.3812922557509221
  0.3890886241215519  0.8887877645935431  0.6187059355404125
  0.0800483024473924  0.9301205696523815  0.4325499485814903
  0.8473725680902371  0.7010031303080403  0.6696411785933928
  0.7484620805690299  0.7383295608684337  0.3585352411546341
  0.5968505748823018  0.5226728427953597  0.5791711089096330
  0.4031407215003671  0.4773206596669352  0.4208322991848333
  0.2515173097992252  0.2616725957779319  0.6414603979126944
  0.1526300287795097  0.2989966527958044  0.3303592932642815
  0.9199580557809230  0.0698791208652187  0.5674517064193572
  0.9200825460083990  0.0838088452188031  0.4187828318068118
  0.8332886101828928  0.2439004099376136  0.3291732572195726
  0.0394716786583264  0.8026247182141937  0.3853397312157279
  0.9891537011533289  0.8344509850260909  0.4779575677215465
  0.7837712542980640  0.6110029270591406  0.3200765615176164
  0.7999803356378852  0.5657353941295600  0.6255456613913372
  0.6052641662912084  0.0001697868039666  0.5673773474906924
  0.7349526724039688  0.6247224224989852  0.7170399688933431
  0.6060018698211945  0.3474082197626871  0.4233004051342877
  0.7725532052902329  0.4991343176184482  0.5352959462642969
  0.5665188573354291  0.6586826967145708  0.4051037583664564
  0.6998735414290681  0.8554498507506085  0.6536671768479533
  0.6272058622371943  0.8973128742763298  0.3432795693392554
  0.3727814017598968  0.1026710649161100  0.6567228260689643
  0.3001372041370259  0.1445568470887394  0.3463328632353397
  0.4334895373551899  0.3413170710856477  0.5948969850050311
  0.2274360889795992  0.5008689764851412  0.4647010020880237
  0.3939894370696875  0.6525903588600874  0.5767026197618100
  0.2650540569981302  0.3752783784586370  0.2829583012360852
  0.3947305365543205 -0.0001755155419664  0.4326210818654346
  0.2000216860732071  0.4342732442006733  0.3744543662874708
  0.2162202551535373  0.3890003028765761  0.6799232576569749
  0.0108745453403950  0.1655477768960961  0.5220419372904488
  0.9605243577563801  0.1973697190222973  0.6146585673471028
  0.1667215000463236  0.7561068231925140  0.6708275376108291
  0.0799116955325219  0.9161901771737485  0.5812173000209983
 
  0.00000000E+00  0.00000000E+00  0.00000000E+00
  0.00000000E+00  0.00000000E+00  0.00000000E+00
  0.00000000E+00  0.00000000E+00  0.00000000E+00
  0.00000000E+00  0.00000000E+00  0.00000000E+00
  0.00000000E+00  0.00000000E+00  0.00000000E+00
  0.00000000E+00  0.00000000E+00  0.00000000E+00
  0.00000000E+00  0.00000000E+00  0.00000000E+00
  0.00000000E+00  0.00000000E+00  0.00000000E+00
  0.00000000E+00  0.00000000E+00  0.00000000E+00
  0.00000000E+00  0.00000000E+00  0.00000000E+00
  0.00000000E+00  0.00000000E+00  0.00000000E+00
  0.00000000E+00  0.00000000E+00  0.00000000E+00
  0.00000000E+00  0.00000000E+00  0.00000000E+00
  0.00000000E+00  0.00000000E+00  0.00000000E+00
  0.00000000E+00  0.00000000E+00  0.00000000E+00
  0.00000000E+00  0.00000000E+00  0.00000000E+00
  0.00000000E+00  0.00000000E+00  0.00000000E+00
  0.00000000E+00  0.00000000E+00  0.00000000E+00
  0.00000000E+00  0.00000000E+00  0.00000000E+00
  0.00000000E+00  0.00000000E+00  0.00000000E+00
  0.00000000E+00  0.00000000E+00  0.00000000E+00
  0.00000000E+00  0.00000000E+00  0.00000000E+00
  0.00000000E+00  0.00000000E+00  0.00000000E+00
  0.00000000E+00  0.00000000E+00  0.00000000E+00
  0.00000000E+00  0.00000000E+00  0.00000000E+00
  0.00000000E+00  0.00000000E+00  0.00000000E+00
  0.00000000E+00  0.00000000E+00  0.00000000E+00
  0.00000000E+00  0.00000000E+00  0.00000000E+00
  0.00000000E+00  0.00000000E+00  0.00000000E+00
  0.00000000E+00  0.00000000E+00  0.00000000E+00
  0.00000000E+00  0.00000000E+00  0.00000000E+00
  0.00000000E+00  0.00000000E+00  0.00000000E+00
  0.00000000E+00  0.00000000E+00  0.00000000E+00
  0.00000000E+00  0.00000000E+00  0.00000000E+00
  0.00000000E+00  0.00000000E+00  0.00000000E+00
  0.00000000E+00  0.00000000E+00  0.00000000E+00
  0.00000000E+00  0.00000000E+00  0.00000000E+00
  0.00000000E+00  0.00000000E+00  0.00000000E+00
  0.00000000E+00  0.00000000E+00  0.00000000E+00
  0.00000000E+00  0.00000000E+00  0.00000000E+00
