CONTCAR\(8)                             
   1.00000000000000     
    10.0141000748000000    0.0000000000000000    0.0000000000000000
    -5.0070500374000000    8.6724650608000005    0.0000000000000000
     0.0000000000000000    0.0000000000000000   20.7465000153000005
   Sc   N    Cl   O    H 
    18     9    18     1     1
Direct
  0.2222110826040926  0.1110416052098365  0.4422909285532700
  0.1114069825629627  0.2228459903861532  0.5572003975184184
  0.5554594162176749  0.1110597371088330  0.4422747612128380
  0.4447720181300953  0.2228346537279862  0.5571995146340460
  0.8889382101543302  0.1110461137111813  0.4422566241087619
  0.7777859052421706  0.2222229551210840  0.5570370746708099
  0.2223128813314461  0.4444864626657213  0.4421970436738711
  0.1114069965629638  0.5552310011768102  0.5572003975184184
  0.5555235847244229  0.4445092357193115  0.4422008226720492
  0.4444159116324855  0.5555479373162429  0.5576908778904480
  0.8889382531543302  0.4445520974431386  0.4422566241087619
  0.7771729320832566  0.5552270272474051  0.5572034096830382
  0.2222110926040934  0.7778395073942479  0.4422909285532700
  0.1111233160298083  0.8888967215149057  0.5571974511392594
  0.5555236007244242  0.7776744470051127  0.4422008226720492
  0.4447720111300982  0.8886074034021126  0.5571995146340460
  0.8889705450492299  0.7778202810246190  0.4422939836883841
  0.7771729000832610  0.8886159228358560  0.5572034096830382
  0.0000289982359641  0.9999652209685722  0.4994846100842179
  0.3332969594717110  0.9999834757358607  0.4994959946022252
  0.6667475051524920  0.0001382534601195  0.4993523197610781
  0.9998511271597730  0.3332555715798837  0.4993341208936935
  0.3332959000188158  0.3332485731597746  0.4993293456354671
  0.6667474931524910  0.3332692436923723  0.4993523197610781
  0.0000290012359608  0.6667338002673869  0.4994846100842179
  0.3332959040188161  0.6667173498590429  0.4993293456354671
  0.6667607715363896  0.6667153992681994  0.4993351729133750
  0.2222995743064602  0.1112846890973687  0.6381555910390709
  0.1111143714134024  0.2221243900738810  0.3608106757405573
  0.5556055930404099  0.1111328255202039  0.6381342010388402
  0.4444120954581730  0.2221655054152578  0.3608208358578010
  0.8888778425105182  0.1111645304091465  0.6381319329697184
  0.7777676664537341  0.2222138357268691  0.3608190755158485
  0.2218851214628325  0.4442725827314147  0.6372605483332905
  0.1111143854134036  0.5556599903395220  0.3608106757405573
  0.5557306892539008  0.4442478298394603  0.6372487426489244
  0.4444610746661761  0.5555705188330883  0.3607428331455740
  0.8888778855105182  0.4443733131013681  0.6381319329697184
  0.7778650365934295  0.5556604434716624  0.3607993997375646
  0.2222995843064610  0.7776849152090904  0.6381555910390709
  0.1111204905385929  0.8888953087692979  0.3608481421798617
  0.5557307052539021  0.7781429574144418  0.6372487426489244
  0.4444120884581759  0.8889166290429183  0.3608208358578010
  0.8887226297070299  0.7776963233535192  0.6381589432825789
  0.7778650045934340  0.8888746111217651  0.3607993997375646
  0.4443377331753610  0.5554988515876758  0.7500576087395769
  0.4430800088805331  0.5548749969402659  0.7972323077915420
 
  0.00000000E+00  0.00000000E+00  0.00000000E+00
  0.00000000E+00  0.00000000E+00  0.00000000E+00
  0.00000000E+00  0.00000000E+00  0.00000000E+00
  0.00000000E+00  0.00000000E+00  0.00000000E+00
  0.00000000E+00  0.00000000E+00  0.00000000E+00
  0.00000000E+00  0.00000000E+00  0.00000000E+00
  0.00000000E+00  0.00000000E+00  0.00000000E+00
  0.00000000E+00  0.00000000E+00  0.00000000E+00
  0.00000000E+00  0.00000000E+00  0.00000000E+00
  0.00000000E+00  0.00000000E+00  0.00000000E+00
  0.00000000E+00  0.00000000E+00  0.00000000E+00
  0.00000000E+00  0.00000000E+00  0.00000000E+00
  0.00000000E+00  0.00000000E+00  0.00000000E+00
  0.00000000E+00  0.00000000E+00  0.00000000E+00
  0.00000000E+00  0.00000000E+00  0.00000000E+00
  0.00000000E+00  0.00000000E+00  0.00000000E+00
  0.00000000E+00  0.00000000E+00  0.00000000E+00
  0.00000000E+00  0.00000000E+00  0.00000000E+00
  0.00000000E+00  0.00000000E+00  0.00000000E+00
  0.00000000E+00  0.00000000E+00  0.00000000E+00
  0.00000000E+00  0.00000000E+00  0.00000000E+00
  0.00000000E+00  0.00000000E+00  0.00000000E+00
  0.00000000E+00  0.00000000E+00  0.00000000E+00
  0.00000000E+00  0.00000000E+00  0.00000000E+00
  0.00000000E+00  0.00000000E+00  0.00000000E+00
  0.00000000E+00  0.00000000E+00  0.00000000E+00
  0.00000000E+00  0.00000000E+00  0.00000000E+00
  0.00000000E+00  0.00000000E+00  0.00000000E+00
  0.00000000E+00  0.00000000E+00  0.00000000E+00
  0.00000000E+00  0.00000000E+00  0.00000000E+00
  0.00000000E+00  0.00000000E+00  0.00000000E+00
  0.00000000E+00  0.00000000E+00  0.00000000E+00
  0.00000000E+00  0.00000000E+00  0.00000000E+00
  0.00000000E+00  0.00000000E+00  0.00000000E+00
  0.00000000E+00  0.00000000E+00  0.00000000E+00
  0.00000000E+00  0.00000000E+00  0.00000000E+00
  0.00000000E+00  0.00000000E+00  0.00000000E+00
  0.00000000E+00  0.00000000E+00  0.00000000E+00
  0.00000000E+00  0.00000000E+00  0.00000000E+00
  0.00000000E+00  0.00000000E+00  0.00000000E+00
  0.00000000E+00  0.00000000E+00  0.00000000E+00
  0.00000000E+00  0.00000000E+00  0.00000000E+00
  0.00000000E+00  0.00000000E+00  0.00000000E+00
  0.00000000E+00  0.00000000E+00  0.00000000E+00
  0.00000000E+00  0.00000000E+00  0.00000000E+00
  0.00000000E+00  0.00000000E+00  0.00000000E+00
  0.00000000E+00  0.00000000E+00  0.00000000E+00
