CONTCAR\(4)                             
   1.00000000000000     
    13.8635997771999993    0.0000000000000000    0.0000000000000000
     6.9317998885999996   12.0062295950000006    0.0000000000000000
     0.0000000000000000    0.0000000000000000   20.7936000824000011
   Sc   Cl
    32    32
Direct
  0.0000000000000000  0.0000000000000000  0.5604900000000015
  0.0833299960000033  0.0833299990000000  0.4395099999999985
  0.2500000000000000  0.0000000000000000  0.5604900000000015
  0.3333299960000033  0.0833299990000000  0.4395099999999985
  0.5000000000000000  0.0000000000000000  0.5604900000000015
  0.5833299960000033  0.0833299990000000  0.4395099999999985
  0.7499999659999972  0.0000000000000000  0.5604900000000015
  0.8333300299999991  0.0833299990000000  0.4395099999999985
  0.0000000020000002  0.2499999959999997  0.5604900000000015
  0.0833300099999974  0.3333300050000005  0.4395099999999985
  0.2499999850000023  0.2499999959999997  0.5604900000000015
  0.3333300099999974  0.3333300050000005  0.4395099999999985
  0.5000000189999980  0.2499999959999997  0.5604900000000015
  0.5833300099999974  0.3333300050000005  0.4395099999999985
  0.7499999850000023  0.2499999959999997  0.5604900000000015
  0.8333300449999967  0.3333300050000005  0.4395099999999985
  0.0000000040000003  0.4999999919999993  0.5604900000000015
  0.0833300150000014  0.5833299609999969  0.4395099999999985
  0.2500000040000003  0.4999999919999993  0.5604900000000015
  0.3333300150000014  0.5833299609999969  0.4395099999999985
  0.4999999699999975  0.4999999919999993  0.5604900000000015
  0.5833299809999986  0.5833299609999969  0.4395099999999985
  0.7500000040000003  0.4999999919999993  0.5604900000000015
  0.8333300150000014  0.5833299609999969  0.4395099999999985
  0.9999999890000026  0.7499999879999990  0.5604900000000015
  0.0833300339999994  0.8333299569999966  0.4395099999999985
  0.2499999540000033  0.7499999879999990  0.5604900000000015
  0.3333300339999994  0.8333299569999966  0.4395099999999985
  0.4999999890000026  0.7499999879999990  0.5604900000000015
  0.5833299999999966  0.8333299569999966  0.4395099999999985
  0.7499999540000033  0.7499999879999990  0.5604900000000015
  0.8333299649999972  0.8333299569999966  0.4395099999999985
  0.1666699940000029  0.1666699869999988  0.3606599940000024
  0.1666699940000029  0.1666699869999988  0.6393399829999993
  0.4166699940000029  0.1666699869999988  0.3606599940000024
  0.4166699940000029  0.1666699869999988  0.6393399829999993
  0.6666699940000029  0.1666699869999988  0.3606599940000024
  0.6666699940000029  0.1666699869999988  0.6393399829999993
  0.9166700279999986  0.1666699869999988  0.3606599940000024
  0.9166700279999986  0.1666699869999988  0.6393399829999993
  0.1666700130000009  0.4166699829999985  0.3606599940000024
  0.1666700130000009  0.4166699829999985  0.6393399829999993
  0.4166699789999981  0.4166699829999985  0.3606599940000024
  0.4166699789999981  0.4166699829999985  0.6393399829999993
  0.6666700130000009  0.4166699829999985  0.3606599940000024
  0.6666700130000009  0.4166699829999985  0.6393399829999993
  0.9166700469999967  0.4166699829999985  0.3606599940000024
  0.9166700469999967  0.4166699829999985  0.6393399829999993
  0.1666699780000016  0.6666700179999978  0.3606599940000024
  0.1666699780000016  0.6666700179999978  0.6393399829999993
  0.4166699780000016  0.6666700179999978  0.3606599940000024
  0.4166699780000016  0.6666700179999978  0.6393399829999993
  0.6666699439999988  0.6666700179999978  0.3606599940000024
  0.6666699439999988  0.6666700179999978  0.6393399829999993
  0.9166699780000016  0.6666700179999978  0.3606599940000024
  0.9166699780000016  0.6666700179999978  0.6393399829999993
  0.1666700319999990  0.9166700139999975  0.3606599940000024
  0.1666700319999990  0.9166700139999975  0.6393399829999993
  0.4166699969999996  0.9166700139999975  0.3606599940000024
  0.4166699969999996  0.9166700139999975  0.6393399829999993
  0.6666699629999968  0.9166700139999975  0.3606599940000024
  0.6666699629999968  0.9166700139999975  0.6393399829999993
  0.9166699969999996  0.9166700139999975  0.3606599940000024
  0.9166699969999996  0.9166700139999975  0.6393399829999993
 
  0.00000000E+00  0.00000000E+00  0.00000000E+00
  0.00000000E+00  0.00000000E+00  0.00000000E+00
  0.00000000E+00  0.00000000E+00  0.00000000E+00
  0.00000000E+00  0.00000000E+00  0.00000000E+00
  0.00000000E+00  0.00000000E+00  0.00000000E+00
  0.00000000E+00  0.00000000E+00  0.00000000E+00
  0.00000000E+00  0.00000000E+00  0.00000000E+00
  0.00000000E+00  0.00000000E+00  0.00000000E+00
  0.00000000E+00  0.00000000E+00  0.00000000E+00
  0.00000000E+00  0.00000000E+00  0.00000000E+00
  0.00000000E+00  0.00000000E+00  0.00000000E+00
  0.00000000E+00  0.00000000E+00  0.00000000E+00
  0.00000000E+00  0.00000000E+00  0.00000000E+00
  0.00000000E+00  0.00000000E+00  0.00000000E+00
  0.00000000E+00  0.00000000E+00  0.00000000E+00
  0.00000000E+00  0.00000000E+00  0.00000000E+00
  0.00000000E+00  0.00000000E+00  0.00000000E+00
  0.00000000E+00  0.00000000E+00  0.00000000E+00
  0.00000000E+00  0.00000000E+00  0.00000000E+00
  0.00000000E+00  0.00000000E+00  0.00000000E+00
  0.00000000E+00  0.00000000E+00  0.00000000E+00
  0.00000000E+00  0.00000000E+00  0.00000000E+00
  0.00000000E+00  0.00000000E+00  0.00000000E+00
  0.00000000E+00  0.00000000E+00  0.00000000E+00
  0.00000000E+00  0.00000000E+00  0.00000000E+00
  0.00000000E+00  0.00000000E+00  0.00000000E+00
  0.00000000E+00  0.00000000E+00  0.00000000E+00
  0.00000000E+00  0.00000000E+00  0.00000000E+00
  0.00000000E+00  0.00000000E+00  0.00000000E+00
  0.00000000E+00  0.00000000E+00  0.00000000E+00
  0.00000000E+00  0.00000000E+00  0.00000000E+00
  0.00000000E+00  0.00000000E+00  0.00000000E+00
  0.00000000E+00  0.00000000E+00  0.00000000E+00
  0.00000000E+00  0.00000000E+00  0.00000000E+00
  0.00000000E+00  0.00000000E+00  0.00000000E+00
  0.00000000E+00  0.00000000E+00  0.00000000E+00
  0.00000000E+00  0.00000000E+00  0.00000000E+00
  0.00000000E+00  0.00000000E+00  0.00000000E+00
  0.00000000E+00  0.00000000E+00  0.00000000E+00
  0.00000000E+00  0.00000000E+00  0.00000000E+00
  0.00000000E+00  0.00000000E+00  0.00000000E+00
  0.00000000E+00  0.00000000E+00  0.00000000E+00
  0.00000000E+00  0.00000000E+00  0.00000000E+00
  0.00000000E+00  0.00000000E+00  0.00000000E+00
  0.00000000E+00  0.00000000E+00  0.00000000E+00
  0.00000000E+00  0.00000000E+00  0.00000000E+00
  0.00000000E+00  0.00000000E+00  0.00000000E+00
  0.00000000E+00  0.00000000E+00  0.00000000E+00
  0.00000000E+00  0.00000000E+00  0.00000000E+00
  0.00000000E+00  0.00000000E+00  0.00000000E+00
  0.00000000E+00  0.00000000E+00  0.00000000E+00
  0.00000000E+00  0.00000000E+00  0.00000000E+00
  0.00000000E+00  0.00000000E+00  0.00000000E+00
  0.00000000E+00  0.00000000E+00  0.00000000E+00
  0.00000000E+00  0.00000000E+00  0.00000000E+00
  0.00000000E+00  0.00000000E+00  0.00000000E+00
  0.00000000E+00  0.00000000E+00  0.00000000E+00
  0.00000000E+00  0.00000000E+00  0.00000000E+00
  0.00000000E+00  0.00000000E+00  0.00000000E+00
  0.00000000E+00  0.00000000E+00  0.00000000E+00
  0.00000000E+00  0.00000000E+00  0.00000000E+00
  0.00000000E+00  0.00000000E+00  0.00000000E+00
  0.00000000E+00  0.00000000E+00  0.00000000E+00
  0.00000000E+00  0.00000000E+00  0.00000000E+00
