CONTCAR                                 
   1.00000000000000     
    11.0116996764999993    0.0000000000000000    0.0000000000000000
     0.0000000000000000   11.6578998566000003    0.0000000000000000
     0.0000000000000000    0.0000000000000000   18.4538002014000000
   Cu   H    Cl   O 
    16    16    16    16
Direct
  0.3152847792486637  0.1828083153366502  0.5576271939499093
  0.4347215544816724  0.4328079124681011  0.4423737984744994
  0.1847015484816728  0.3172021095319039  0.4423638244745055
  0.0652847842486676  0.0672116856633456  0.5576372199499076
  0.8152847792486637  0.1828083153366502  0.5576271939499093
  0.9347215544816723  0.4328079124681011  0.4423737984744994
  0.6847015484816725  0.3172021095319039  0.4423638244745055
  0.5652847792486637  0.0672116856633456  0.5576372199499076
  0.3152847792486637  0.6828083153366501  0.5576271939499093
  0.4347215544816724  0.9328079124681010  0.4423737984744994
  0.1847015484816728  0.8172021095319040  0.4423638244745055
  0.0652847842486676  0.5672116856633457  0.5576372199499076
  0.8152847792486637  0.6828083153366501  0.5576271939499093
  0.9347215544816723  0.9328079124681010  0.4423737984744994
  0.6847015484816725  0.8172021095319040  0.4423638244745055
  0.5652847792486637  0.5672116856633457  0.5576372199499076
  0.2148943509391314  0.1044676352078709  0.4476694702717852
  0.0351020862438298  0.3544657177440284  0.5523298095014129
  0.2851120642438312  0.3955243022559701  0.5523198865014125
  0.4648843479391316  0.1455223537921286  0.4476794952717869
  0.7148943509391313  0.1044676352078709  0.4476694702717852
  0.5351020832438260  0.3544657177440284  0.5523298095014129
  0.7851121292438259  0.3955243022559701  0.5523198865014125
  0.9648843479391315  0.1455223537921286  0.4476794952717869
  0.2148943509391314  0.6044676352078709  0.4476694702717852
  0.0351020862438298  0.8544657177440285  0.5523298095014129
  0.2851120642438312  0.8955243432559699  0.5523198865014125
  0.4648843479391316  0.6455223437921277  0.4476794952717869
  0.7148943509391313  0.6044676352078709  0.4476694702717852
  0.5351020832438260  0.8544657177440285  0.5523298095014129
  0.7851121292438259  0.8955243432559699  0.5523198865014125
  0.9648843479391315  0.6455223437921277  0.4476794952717869
  0.4837905607455357  0.2148201769516022  0.6281412177223380
  0.2662115085776448  0.4648163811507955  0.3718574081550591
  0.0162115065776446  0.2851836388492061  0.3718574081550591
  0.2337905607455357  0.0351798280483946  0.6281412177223380
  0.9837905607455359  0.2148201769516022  0.6281412177223380
  0.7662115525776483  0.4648163811507955  0.3718574081550591
  0.5162115085776446  0.2851836388492061  0.3718574081550591
  0.7337905607455359  0.0351798280483946  0.6281412177223380
  0.4837905607455357  0.7148201359516025  0.6281412177223380
  0.2662115085776448  0.9648163401507959  0.3718574081550591
  0.0162115065776446  0.7851836188492043  0.3718574081550591
  0.2337905607455357  0.5351798230483976  0.6281412177223380
  0.9837905607455359  0.7148201359516025  0.6281412177223380
  0.7662115525776483  0.9648163401507959  0.3718574081550591
  0.5162115085776446  0.7851836188492043  0.3718574081550591
  0.7337905607455359  0.5351798230483976  0.6281412177223380
  0.1842731718962043  0.1602798487218147  0.4839850325855660
  0.0657319928673180  0.4102813421740049  0.5160159673394357
  0.3157419958673178  0.3397186368259970  0.5160259933394410
  0.4342531668962082  0.0897101402781847  0.4839750585855649
  0.6842731718962041  0.1602798487218147  0.4839850325855660
  0.5657319928673179  0.4102813421740049  0.5160159673394357
  0.8157419958673178  0.3397186368259970  0.5160259933394410
  0.9342531668962080  0.0897101402781847  0.4839750585855649
  0.1842731718962043  0.6602798687218164  0.4839850325855660
  0.0657319928673180  0.9102813831740046  0.5160159673394357
  0.3157419958673178  0.8397186578259952  0.5160259933394410
  0.4342531668962082  0.5897101512781820  0.4839750585855649
  0.6842731718962041  0.6602798687218164  0.4839850325855660
  0.5657319928673179  0.9102813831740046  0.5160159673394357
  0.8157419958673178  0.8397186578259952  0.5160259933394410
  0.9342531668962080  0.5897101512781820  0.4839750585855649
 
  0.00000000E+00  0.00000000E+00  0.00000000E+00
  0.00000000E+00  0.00000000E+00  0.00000000E+00
  0.00000000E+00  0.00000000E+00  0.00000000E+00
  0.00000000E+00  0.00000000E+00  0.00000000E+00
  0.00000000E+00  0.00000000E+00  0.00000000E+00
  0.00000000E+00  0.00000000E+00  0.00000000E+00
  0.00000000E+00  0.00000000E+00  0.00000000E+00
  0.00000000E+00  0.00000000E+00  0.00000000E+00
  0.00000000E+00  0.00000000E+00  0.00000000E+00
  0.00000000E+00  0.00000000E+00  0.00000000E+00
  0.00000000E+00  0.00000000E+00  0.00000000E+00
  0.00000000E+00  0.00000000E+00  0.00000000E+00
  0.00000000E+00  0.00000000E+00  0.00000000E+00
  0.00000000E+00  0.00000000E+00  0.00000000E+00
  0.00000000E+00  0.00000000E+00  0.00000000E+00
  0.00000000E+00  0.00000000E+00  0.00000000E+00
  0.00000000E+00  0.00000000E+00  0.00000000E+00
  0.00000000E+00  0.00000000E+00  0.00000000E+00
  0.00000000E+00  0.00000000E+00  0.00000000E+00
  0.00000000E+00  0.00000000E+00  0.00000000E+00
  0.00000000E+00  0.00000000E+00  0.00000000E+00
  0.00000000E+00  0.00000000E+00  0.00000000E+00
  0.00000000E+00  0.00000000E+00  0.00000000E+00
  0.00000000E+00  0.00000000E+00  0.00000000E+00
  0.00000000E+00  0.00000000E+00  0.00000000E+00
  0.00000000E+00  0.00000000E+00  0.00000000E+00
  0.00000000E+00  0.00000000E+00  0.00000000E+00
  0.00000000E+00  0.00000000E+00  0.00000000E+00
  0.00000000E+00  0.00000000E+00  0.00000000E+00
  0.00000000E+00  0.00000000E+00  0.00000000E+00
  0.00000000E+00  0.00000000E+00  0.00000000E+00
  0.00000000E+00  0.00000000E+00  0.00000000E+00
  0.00000000E+00  0.00000000E+00  0.00000000E+00
  0.00000000E+00  0.00000000E+00  0.00000000E+00
  0.00000000E+00  0.00000000E+00  0.00000000E+00
  0.00000000E+00  0.00000000E+00  0.00000000E+00
  0.00000000E+00  0.00000000E+00  0.00000000E+00
  0.00000000E+00  0.00000000E+00  0.00000000E+00
  0.00000000E+00  0.00000000E+00  0.00000000E+00
  0.00000000E+00  0.00000000E+00  0.00000000E+00
  0.00000000E+00  0.00000000E+00  0.00000000E+00
  0.00000000E+00  0.00000000E+00  0.00000000E+00
  0.00000000E+00  0.00000000E+00  0.00000000E+00
  0.00000000E+00  0.00000000E+00  0.00000000E+00
  0.00000000E+00  0.00000000E+00  0.00000000E+00
  0.00000000E+00  0.00000000E+00  0.00000000E+00
  0.00000000E+00  0.00000000E+00  0.00000000E+00
  0.00000000E+00  0.00000000E+00  0.00000000E+00
  0.00000000E+00  0.00000000E+00  0.00000000E+00
  0.00000000E+00  0.00000000E+00  0.00000000E+00
  0.00000000E+00  0.00000000E+00  0.00000000E+00
  0.00000000E+00  0.00000000E+00  0.00000000E+00
  0.00000000E+00  0.00000000E+00  0.00000000E+00
  0.00000000E+00  0.00000000E+00  0.00000000E+00
  0.00000000E+00  0.00000000E+00  0.00000000E+00
  0.00000000E+00  0.00000000E+00  0.00000000E+00
  0.00000000E+00  0.00000000E+00  0.00000000E+00
  0.00000000E+00  0.00000000E+00  0.00000000E+00
  0.00000000E+00  0.00000000E+00  0.00000000E+00
  0.00000000E+00  0.00000000E+00  0.00000000E+00
  0.00000000E+00  0.00000000E+00  0.00000000E+00
  0.00000000E+00  0.00000000E+00  0.00000000E+00
  0.00000000E+00  0.00000000E+00  0.00000000E+00
  0.00000000E+00  0.00000000E+00  0.00000000E+00
