CONTCAR\(6)                             
   1.00000000000000     
    13.2834997176999998    0.0000000000000000    0.0000000000000000
     0.0000000000000000   13.2517004013000008    0.0000000000000000
     0.0000000000000000    0.0000000000000000   28.4766006470000015
   Bi   I 
    48    12
Direct
 -0.0000000000000000  0.9407027265469275  0.5987491389259757
 -0.0000000000000000  0.0592872694530760  0.4012608070740299
  0.1666699989999998  0.7947900964532633  0.3579079267725674
  0.1666699989999998  0.3387296110362379  0.4419193936527137
 -0.0000000000000000  0.1635829491995092  0.5697787816191812
 -0.0000000000000000  0.6131741968044431  0.4876870233356724
 -0.0000000000000000  0.8364270898004864  0.4302212183808190
 -0.0000000000000000  0.5219211614156454  0.3122580261263160
  0.1666699989999998  0.1142977163089595  0.4703336230425102
  0.1666699989999998  0.6612804279637577  0.5580705933472856
 -0.0000000000000000  0.3868358061955568  0.5123029636643270
  0.1666699989999998  0.8857022746910361  0.5296664109574927
  0.1666699989999998  0.2052099035467366  0.6420921062274318
  0.1666699989999998  0.4284788934014518  0.6161265740870177
  0.1666699989999998  0.5715210705985522  0.3838734589129816
 -0.0000000000000000  0.4780688705843540  0.6877519208736862
  0.3333300190000017  0.9407027265469275  0.5987491389259757
  0.3333300190000017  0.0592872694530760  0.4012608070740299
  0.5000000000000000  0.7947900964532633  0.3579079267725674
  0.5000000000000000  0.3387296110362379  0.4419193936527137
  0.3333300190000017  0.1635829491995092  0.5697787816191812
  0.3333300190000017  0.6131741968044431  0.4876870233356724
  0.3333300190000017  0.8364270898004864  0.4302212183808190
  0.3333300190000017  0.5219211614156454  0.3122580261263160
  0.5000000000000000  0.1142977163089595  0.4703336230425102
  0.5000000000000000  0.6612804279637577  0.5580705933472856
  0.3333300190000017  0.3868358061955568  0.5123029636643270
  0.5000000000000000  0.8857022746910361  0.5296664109574927
  0.5000000000000000  0.2052099035467366  0.6420921062274318
  0.5000000000000000  0.4284788934014518  0.6161265740870177
  0.5000000000000000  0.5715210705985522  0.3838734589129815
  0.3333300190000017  0.4780688705843540  0.6877519208736862
  0.6666700170000013  0.9407027265469275  0.5987491389259757
  0.6666700170000013  0.0592872694530760  0.4012608070740299
  0.8333299470000028  0.7947900964532633  0.3579079267725674
  0.8333299470000028  0.3387296110362379  0.4419193936527137
  0.6666700170000013  0.1635829491995092  0.5697787816191812
  0.6666700170000013  0.6131741968044431  0.4876870233356724
  0.6666700170000013  0.8364270898004864  0.4302212183808190
  0.6666700170000013  0.5219211614156454  0.3122580261263160
  0.8333299470000028  0.1142977163089595  0.4703336230425102
  0.8333299470000028  0.6612804279637577  0.5580705933472856
  0.6666700170000013  0.3868358061955568  0.5123029636643270
  0.8333299470000028  0.8857022746910361  0.5296664109574927
  0.8333299470000028  0.2052099035467366  0.6420921062274318
  0.8333299470000028  0.4284788934014518  0.6161265740870177
  0.8333299470000028  0.5715210705985522  0.3838734589129815
  0.6666700170000013  0.4780688705843540  0.6877519208736862
 -0.0000000000000000  0.2662953777221821  0.7337603957857678
 -0.0000000000000000  0.7336845982778166  0.2662396042142322
 -0.0000000000000000  0.2960018106698084  0.3427155733478861
 -0.0000000000000000  0.7039981533301884  0.6572944066521155
  0.3333300190000017  0.2662953777221821  0.7337603957857678
  0.3333300190000017  0.7336845982778166  0.2662396042142322
  0.3333300190000017  0.2960018106698084  0.3427155733478861
  0.3333300190000017  0.7039981533301884  0.6572944066521155
  0.6666700170000013  0.2662953777221821  0.7337603957857678
  0.6666700170000013  0.7336845982778166  0.2662396042142322
  0.6666700170000013  0.2960018106698084  0.3427155733478861
  0.6666700170000013  0.7039981533301884  0.6572944066521155
 
  0.00000000E+00  0.00000000E+00  0.00000000E+00
  0.00000000E+00  0.00000000E+00  0.00000000E+00
  0.00000000E+00  0.00000000E+00  0.00000000E+00
  0.00000000E+00  0.00000000E+00  0.00000000E+00
  0.00000000E+00  0.00000000E+00  0.00000000E+00
  0.00000000E+00  0.00000000E+00  0.00000000E+00
  0.00000000E+00  0.00000000E+00  0.00000000E+00
  0.00000000E+00  0.00000000E+00  0.00000000E+00
  0.00000000E+00  0.00000000E+00  0.00000000E+00
  0.00000000E+00  0.00000000E+00  0.00000000E+00
  0.00000000E+00  0.00000000E+00  0.00000000E+00
  0.00000000E+00  0.00000000E+00  0.00000000E+00
  0.00000000E+00  0.00000000E+00  0.00000000E+00
  0.00000000E+00  0.00000000E+00  0.00000000E+00
  0.00000000E+00  0.00000000E+00  0.00000000E+00
  0.00000000E+00  0.00000000E+00  0.00000000E+00
  0.00000000E+00  0.00000000E+00  0.00000000E+00
  0.00000000E+00  0.00000000E+00  0.00000000E+00
  0.00000000E+00  0.00000000E+00  0.00000000E+00
  0.00000000E+00  0.00000000E+00  0.00000000E+00
  0.00000000E+00  0.00000000E+00  0.00000000E+00
  0.00000000E+00  0.00000000E+00  0.00000000E+00
  0.00000000E+00  0.00000000E+00  0.00000000E+00
  0.00000000E+00  0.00000000E+00  0.00000000E+00
  0.00000000E+00  0.00000000E+00  0.00000000E+00
  0.00000000E+00  0.00000000E+00  0.00000000E+00
  0.00000000E+00  0.00000000E+00  0.00000000E+00
  0.00000000E+00  0.00000000E+00  0.00000000E+00
  0.00000000E+00  0.00000000E+00  0.00000000E+00
  0.00000000E+00  0.00000000E+00  0.00000000E+00
  0.00000000E+00  0.00000000E+00  0.00000000E+00
  0.00000000E+00  0.00000000E+00  0.00000000E+00
  0.00000000E+00  0.00000000E+00  0.00000000E+00
  0.00000000E+00  0.00000000E+00  0.00000000E+00
  0.00000000E+00  0.00000000E+00  0.00000000E+00
  0.00000000E+00  0.00000000E+00  0.00000000E+00
  0.00000000E+00  0.00000000E+00  0.00000000E+00
  0.00000000E+00  0.00000000E+00  0.00000000E+00
  0.00000000E+00  0.00000000E+00  0.00000000E+00
  0.00000000E+00  0.00000000E+00  0.00000000E+00
  0.00000000E+00  0.00000000E+00  0.00000000E+00
  0.00000000E+00  0.00000000E+00  0.00000000E+00
  0.00000000E+00  0.00000000E+00  0.00000000E+00
  0.00000000E+00  0.00000000E+00  0.00000000E+00
  0.00000000E+00  0.00000000E+00  0.00000000E+00
  0.00000000E+00  0.00000000E+00  0.00000000E+00
  0.00000000E+00  0.00000000E+00  0.00000000E+00
  0.00000000E+00  0.00000000E+00  0.00000000E+00
  0.00000000E+00  0.00000000E+00  0.00000000E+00
  0.00000000E+00  0.00000000E+00  0.00000000E+00
  0.00000000E+00  0.00000000E+00  0.00000000E+00
  0.00000000E+00  0.00000000E+00  0.00000000E+00
  0.00000000E+00  0.00000000E+00  0.00000000E+00
  0.00000000E+00  0.00000000E+00  0.00000000E+00
  0.00000000E+00  0.00000000E+00  0.00000000E+00
  0.00000000E+00  0.00000000E+00  0.00000000E+00
  0.00000000E+00  0.00000000E+00  0.00000000E+00
  0.00000000E+00  0.00000000E+00  0.00000000E+00
  0.00000000E+00  0.00000000E+00  0.00000000E+00
  0.00000000E+00  0.00000000E+00  0.00000000E+00
