CONTCAR\(2)                             
   1.00000000000000     
    15.6181001662999996    0.0000000000000000    0.0000000000000000
     0.0000000000000000   13.6417999267999992    0.0000000000000000
     0.0000000000000000    0.0000000000000000   21.1772994994999983
   Tb   Br   O 
    20    32     1
Direct
  0.1250404153872318  0.5099553030049506  0.4260623404569297
  0.1252500554740562  0.4929901240154940  0.5802779345832919
  0.9981123646703641  0.6995426216427258  0.5111163907387235
  0.0006968627229407  0.3043843882100921  0.4953045902193859
  0.1362950958628548  0.0042108141551824  0.5039961131889996
  0.3749540852987443  0.5108358681911737  0.4252917942977046
  0.3748631234195726  0.4952348173925254  0.5772375300136042
  0.2492595879515111  0.7009567292912086  0.5103818344272516
  0.2499036231912223  0.3064514985619666  0.4955929804213031
  0.3755677793275256  0.0058535138084546  0.5048986684578352
  0.6248795493003385  0.5099039915159231  0.4260665741679881
  0.6246140963039334  0.4929839725538482  0.5803175257576860
  0.5006779219173100  0.7009126649169937  0.5103135962273428
  0.5000204006708013  0.3064455779250177  0.4956172005970266
  0.6140172010474760  0.0040573710351072  0.5038724567041314
  0.8749720729518490  0.5101341337544596  0.4259086358986441
  0.8749168661650023  0.4922803249896717  0.5805643085391684
  0.7517706419831411  0.6994523579299416  0.5110703628006324
  0.7491879619506527  0.3044005033704348  0.4953372009742484
  0.8744799362491609  0.0017996933177262  0.5030769096107648
  0.1259305971427756  0.1711751010967728  0.4254904104745211
  0.1252034786841693  0.8332937721256211  0.5802162069551356
  0.9999879258129456  0.3810169551708572  0.3669882769627385
  0.9996658808527041  0.6221600054929931  0.6389842945150421
  0.0020662818872091  0.1015882367285226  0.5756793753305599
 -0.0000366099875126  0.3518138322034296  0.6283726101384414
 -0.0002551817553912  0.6514523315994454  0.3785406598989155
  0.0032212276144878  0.9035268743484228  0.4313387732457983
  0.3750239968684900  0.1725409542909757  0.4256858798660449
  0.3749974960622440  0.8371666959639905  0.5827914484092923
  0.2507357447071342  0.3827004660784329  0.3664008562912272
  0.2491823773242102  0.6242911564065728  0.6384357387479239
  0.2518388566365173  0.1121440325134578  0.5799600883962790
  0.2518924821226483  0.3577295122113938  0.6292839254211332
  0.2483290626836548  0.6512531842999278  0.3769408653921721
  0.2537316846883514  0.8953237337883871  0.4294364070353627
  0.6240662001357926  0.1712228029677014  0.4254874278915376
  0.6247482802823433  0.8332189844590735  0.5801794555922505
  0.4991376405940127  0.3826021328841175  0.3664145116446020
  0.5006880951706258  0.6242609598045080  0.6383840788858798
  0.4987782234664589  0.1124295622737153  0.5799199934831248
  0.4977828243277780  0.3578286941410375  0.6293286839603718
  0.5015670929919048  0.6511436129430926  0.3768662883024526
  0.4965399527925591  0.8951098364174735  0.4292184321045685
  0.8749591160271503  0.1703234924814678  0.4256902292973869
  0.8748377587831543  0.8339378414992483  0.5817442079794931
  0.7499221028162786  0.3810134987259326  0.3670020680003140
  0.7502255325069184  0.6222284202840220  0.6389489148914897
  0.7477598784860290  0.1018820966002449  0.5759507087836822
  0.7499624973875583  0.3518794594127519  0.6283924537131108
  0.7502403330320998  0.6512919081257776  0.3784956499251032
  0.7465819361017554  0.9030404437207668  0.4310738925987092
  0.3748976079072863  0.6228633063569982  0.5060124047827151
 
  0.00000000E+00  0.00000000E+00  0.00000000E+00
  0.00000000E+00  0.00000000E+00  0.00000000E+00
  0.00000000E+00  0.00000000E+00  0.00000000E+00
  0.00000000E+00  0.00000000E+00  0.00000000E+00
  0.00000000E+00  0.00000000E+00  0.00000000E+00
  0.00000000E+00  0.00000000E+00  0.00000000E+00
  0.00000000E+00  0.00000000E+00  0.00000000E+00
  0.00000000E+00  0.00000000E+00  0.00000000E+00
  0.00000000E+00  0.00000000E+00  0.00000000E+00
  0.00000000E+00  0.00000000E+00  0.00000000E+00
  0.00000000E+00  0.00000000E+00  0.00000000E+00
  0.00000000E+00  0.00000000E+00  0.00000000E+00
  0.00000000E+00  0.00000000E+00  0.00000000E+00
  0.00000000E+00  0.00000000E+00  0.00000000E+00
  0.00000000E+00  0.00000000E+00  0.00000000E+00
  0.00000000E+00  0.00000000E+00  0.00000000E+00
  0.00000000E+00  0.00000000E+00  0.00000000E+00
  0.00000000E+00  0.00000000E+00  0.00000000E+00
  0.00000000E+00  0.00000000E+00  0.00000000E+00
  0.00000000E+00  0.00000000E+00  0.00000000E+00
  0.00000000E+00  0.00000000E+00  0.00000000E+00
  0.00000000E+00  0.00000000E+00  0.00000000E+00
  0.00000000E+00  0.00000000E+00  0.00000000E+00
  0.00000000E+00  0.00000000E+00  0.00000000E+00
  0.00000000E+00  0.00000000E+00  0.00000000E+00
  0.00000000E+00  0.00000000E+00  0.00000000E+00
  0.00000000E+00  0.00000000E+00  0.00000000E+00
  0.00000000E+00  0.00000000E+00  0.00000000E+00
  0.00000000E+00  0.00000000E+00  0.00000000E+00
  0.00000000E+00  0.00000000E+00  0.00000000E+00
  0.00000000E+00  0.00000000E+00  0.00000000E+00
  0.00000000E+00  0.00000000E+00  0.00000000E+00
  0.00000000E+00  0.00000000E+00  0.00000000E+00
  0.00000000E+00  0.00000000E+00  0.00000000E+00
  0.00000000E+00  0.00000000E+00  0.00000000E+00
  0.00000000E+00  0.00000000E+00  0.00000000E+00
  0.00000000E+00  0.00000000E+00  0.00000000E+00
  0.00000000E+00  0.00000000E+00  0.00000000E+00
  0.00000000E+00  0.00000000E+00  0.00000000E+00
  0.00000000E+00  0.00000000E+00  0.00000000E+00
  0.00000000E+00  0.00000000E+00  0.00000000E+00
  0.00000000E+00  0.00000000E+00  0.00000000E+00
  0.00000000E+00  0.00000000E+00  0.00000000E+00
  0.00000000E+00  0.00000000E+00  0.00000000E+00
  0.00000000E+00  0.00000000E+00  0.00000000E+00
  0.00000000E+00  0.00000000E+00  0.00000000E+00
  0.00000000E+00  0.00000000E+00  0.00000000E+00
  0.00000000E+00  0.00000000E+00  0.00000000E+00
  0.00000000E+00  0.00000000E+00  0.00000000E+00
  0.00000000E+00  0.00000000E+00  0.00000000E+00
  0.00000000E+00  0.00000000E+00  0.00000000E+00
  0.00000000E+00  0.00000000E+00  0.00000000E+00
  0.00000000E+00  0.00000000E+00  0.00000000E+00
