 Ti2 Ge2 Te12                           
   1.00000000000000     
     3.9152313892631199    0.0000000000000000    0.0000000000000000
     0.0000000000000000   17.6870147675844578    0.0000000000000000
     0.0000000000000000    0.0000000000000000   19.5771448927919991
   Ti   Ge   Te
     2     2    12
Direct
  0.2582481889927857  0.4794763795971164  0.5104458489116446
  0.7577421429854485  0.9536855959101839  0.4895569862707492
  0.7586486831306166  0.8037680492551240  0.4789932875949366
  0.2589837338846889  0.6294125857387777  0.5210173023245481
  0.2572243806510590  0.9265061979802226  0.3827035866956687
  0.7582846321740970  0.2555922983915812  0.5678016472073399
  0.7575267425111316  0.0655826940728217  0.3851084939412815
  0.2580088988032335  0.8966514225697787  0.5855331267290814
  0.7580816159544195  0.5065865594203055  0.6173616021392723
  0.2581287379846471  0.3675270626191143  0.6149073010930320
  0.2576239465144972  0.1775368148749466  0.4321457504168537
  0.7592307323078501  0.7070620837960178  0.5898359309824828
  0.2590900528341041  0.7261198666184060  0.4101720096202623
  0.7580243555989091  0.3816725332660105  0.4539037760716658
  0.2576368659059018  0.0515297120486150  0.5460621774033283
  0.7583719390020272  0.5365741438409845  0.4144511725978577
 
  0.00000000E+00  0.00000000E+00  0.00000000E+00
  0.00000000E+00  0.00000000E+00  0.00000000E+00
  0.00000000E+00  0.00000000E+00  0.00000000E+00
  0.00000000E+00  0.00000000E+00  0.00000000E+00
  0.00000000E+00  0.00000000E+00  0.00000000E+00
  0.00000000E+00  0.00000000E+00  0.00000000E+00
  0.00000000E+00  0.00000000E+00  0.00000000E+00
  0.00000000E+00  0.00000000E+00  0.00000000E+00
  0.00000000E+00  0.00000000E+00  0.00000000E+00
  0.00000000E+00  0.00000000E+00  0.00000000E+00
  0.00000000E+00  0.00000000E+00  0.00000000E+00
  0.00000000E+00  0.00000000E+00  0.00000000E+00
  0.00000000E+00  0.00000000E+00  0.00000000E+00
  0.00000000E+00  0.00000000E+00  0.00000000E+00
  0.00000000E+00  0.00000000E+00  0.00000000E+00
  0.00000000E+00  0.00000000E+00  0.00000000E+00
