Ag2 Te12 Mo12                           
   1.00000000000000     
    18.4442886396773069    0.0000000000000000   -0.0181943522288377
     0.0000000000000000    4.6026948939298036    0.0000000000000000
    -5.0374078868579062    0.0000000000000000    7.8854121026154118
   Ag   Te   Mo
     2    12    12
Direct
 -0.0000000000000000  0.0000000000000000 -0.0000000000000000
  0.5000000000000000  0.5000000000000000 -0.0000000000000000
  0.8838269446161234  0.0000000000000000  0.4091050404125388
  0.9599661483533122  0.5000000000000000  0.1730530183220953
  0.0400338266466893  0.5000000000000000  0.8269469766779076
  0.6810021570464011  0.5000000000000000  0.2615576457267412
  0.3189978219536007  0.5000000000000000  0.7384424062732560
  0.1161730643838740  0.0000000000000000  0.5908949825874595
  0.3838269196161246  0.5000000000000000  0.4091050404125388
  0.4599662003533094  0.0000000000000000  0.1730530183220953
  0.5400338526466915  0.0000000000000000  0.8269469766779076
  0.1810021830463963  0.0000000000000000  0.2615576457267412
  0.8189978349535982  0.0000000000000000  0.7384424062732560
  0.6161730903838759  0.5000000000000000  0.5908949825874595
  0.2846460907410698  0.0000000000000000  0.8833860499440525
  0.7153539382589288 -0.0000000000000000  0.1166139520559478
  0.1531778000802760  0.0000000000000000  0.9268671141869017
  0.8468222229197222 -0.0000000000000000  0.0731328658131035
  0.8135216274444383  0.5000000000000000  0.1939931526435944
  0.1864783185555643  0.5000000000000000  0.8060068273564038
  0.7846460907410701  0.5000000000000000  0.8833860499440525
  0.2153539122589339  0.5000000000000000  0.1166139520559478
  0.6531777490802755  0.5000000000000000  0.9268671141869017
  0.3468221969197272  0.5000000000000000  0.0731328658131035
  0.3135216794444356 -0.0000000000000000  0.1939931526435944
  0.6864783955555600 -0.0000000000000000  0.8060068273564038
 
  0.00000000E+00  0.00000000E+00  0.00000000E+00
  0.00000000E+00  0.00000000E+00  0.00000000E+00
  0.00000000E+00  0.00000000E+00  0.00000000E+00
  0.00000000E+00  0.00000000E+00  0.00000000E+00
  0.00000000E+00  0.00000000E+00  0.00000000E+00
  0.00000000E+00  0.00000000E+00  0.00000000E+00
  0.00000000E+00  0.00000000E+00  0.00000000E+00
  0.00000000E+00  0.00000000E+00  0.00000000E+00
  0.00000000E+00  0.00000000E+00  0.00000000E+00
  0.00000000E+00  0.00000000E+00  0.00000000E+00
  0.00000000E+00  0.00000000E+00  0.00000000E+00
  0.00000000E+00  0.00000000E+00  0.00000000E+00
  0.00000000E+00  0.00000000E+00  0.00000000E+00
  0.00000000E+00  0.00000000E+00  0.00000000E+00
  0.00000000E+00  0.00000000E+00  0.00000000E+00
  0.00000000E+00  0.00000000E+00  0.00000000E+00
  0.00000000E+00  0.00000000E+00  0.00000000E+00
  0.00000000E+00  0.00000000E+00  0.00000000E+00
  0.00000000E+00  0.00000000E+00  0.00000000E+00
  0.00000000E+00  0.00000000E+00  0.00000000E+00
  0.00000000E+00  0.00000000E+00  0.00000000E+00
  0.00000000E+00  0.00000000E+00  0.00000000E+00
  0.00000000E+00  0.00000000E+00  0.00000000E+00
  0.00000000E+00  0.00000000E+00  0.00000000E+00
  0.00000000E+00  0.00000000E+00  0.00000000E+00
  0.00000000E+00  0.00000000E+00  0.00000000E+00
