K-Spacing Value to Generate K-Mesh: 0.030
0
Gamma
   2   7   4
0.0  0.0  0.0
