 Nb4 Fe4 Te8                            
   1.00000000000000     
     6.2567628678880496    0.0000000000000000    0.0000000000000000
     0.0000000000000000    7.8739899409359309    0.0000000000000000
     0.0000000000000000    0.0000000000000000   19.7180211960439991
   Nb   Fe   Te
     4     4     8
Direct
  0.5000000429251159  0.2968684011327554  0.5000007225858525
  0.0000032161264869  0.7968684477891941  0.5000000805380012
  0.0000031726383511  0.2031318871598273  0.5000000514327141
  0.5000001092029223  0.7031315952318522  0.5000007280883167
  0.1415548934033453  0.5000000407876612  0.5411393523348806
  0.6415502316852653  0.9999999483891102  0.4588619861765721
  0.8584453950147619  0.5000000508764018  0.4588611266163838
  0.3584529514787675  0.9999999766511536  0.5411380641437091
  0.7500015849634494  0.7499961765370529  0.3804206458063319
  0.2478031077392302  0.9999996339602930  0.4128110620673056
  0.7521831378793351  0.9999996465567236  0.5871900263039933
  0.2500023796268778  0.7500027944910386  0.6195784411399430
  0.7478194125323654  0.5000002222269728  0.5871894347582725
  0.2521763562562924  0.5000002648073618  0.4128091004732042
  0.2500023848566713  0.2499971200594899  0.6195784684942964
  0.7500016236707694  0.2500037933430903  0.3804207090402159
 
  0.00000000E+00  0.00000000E+00  0.00000000E+00
  0.00000000E+00  0.00000000E+00  0.00000000E+00
  0.00000000E+00  0.00000000E+00  0.00000000E+00
  0.00000000E+00  0.00000000E+00  0.00000000E+00
  0.00000000E+00  0.00000000E+00  0.00000000E+00
  0.00000000E+00  0.00000000E+00  0.00000000E+00
  0.00000000E+00  0.00000000E+00  0.00000000E+00
  0.00000000E+00  0.00000000E+00  0.00000000E+00
  0.00000000E+00  0.00000000E+00  0.00000000E+00
  0.00000000E+00  0.00000000E+00  0.00000000E+00
  0.00000000E+00  0.00000000E+00  0.00000000E+00
  0.00000000E+00  0.00000000E+00  0.00000000E+00
  0.00000000E+00  0.00000000E+00  0.00000000E+00
  0.00000000E+00  0.00000000E+00  0.00000000E+00
  0.00000000E+00  0.00000000E+00  0.00000000E+00
  0.00000000E+00  0.00000000E+00  0.00000000E+00
