CONTCAR\(4)                             
   1.00000000000000     
    11.1367998122999996    0.0000000000000000    0.0000000000000000
    -5.5683999061999998    9.6447515543000009    0.0000000000000000
     0.0000000000000000    0.0000000000000000   17.5949001311999993
   Ni   Te   O    H 
     9    18     2     1
Direct
  0.0005559035305112  0.0127929582073115  0.5036301330228139
  0.3327720001513127  0.0123193365008554  0.5018685661942932
  0.6658788078416111  0.0146409409716272  0.4979793839944200
  0.9822918555653718  0.3376214994843006  0.4904302661268053
  0.3324113336765545  0.3456257467822771  0.5072229975716961
  0.6662032608410750  0.3449640869426649  0.4997831067071204
  0.0002452221277572  0.6804638854613031  0.5030881447110401
  0.3316464818269441  0.6772032766143665  0.5077385615062219
  0.6675981037747603  0.6804223297583684  0.5049907060665022
  0.1128179868027961  0.2385700283864519  0.4247880828087127
  0.2219789213455377  0.1208772698779887  0.5838803022235379
  0.4416352223690810  0.2349083641578041  0.4225875326157505
  0.5565811738268457  0.1238489799366443  0.5809389626772402
  0.7534975326282624  0.2251738282016238  0.4093866320050232
  0.8876916729304758  0.1298652812412875  0.5778681157716252
  0.1118259183956583  0.5670618622625472  0.4242237516343115
  0.2241411971229724  0.4576614072440422  0.5880765630091822
  0.4429193188522281  0.5668320702805909  0.4272471361740807
  0.5604949287973437  0.4550034218392730  0.5821830839323865
  0.7789846771687459  0.5714479325081646  0.4231477640261761
  0.8899504683872684  0.4518453718476474  0.5786503888080440
  0.1094835221679957  0.9015618307966047  0.4227109457800927
  0.2209222614509319  0.7923779944654147  0.5838524581279001
  0.4393283456745843  0.8952195155463313  0.4235302384623758
  0.5611827050971255  0.7993990715939056  0.5819467971181622
  0.7790698421844986  0.9002861900298449  0.4239794177042353
  0.8899974339371000  0.7909177849252880  0.5845238438299424
  0.3779554527555259  0.5575556527570198  0.6751354609456206
  0.3566523316124549  0.4609503915863967  0.7367397935808094
  0.4260762831566713  0.4339120257920709  0.7237206088638861
 
  0.00000000E+00  0.00000000E+00  0.00000000E+00
  0.00000000E+00  0.00000000E+00  0.00000000E+00
  0.00000000E+00  0.00000000E+00  0.00000000E+00
  0.00000000E+00  0.00000000E+00  0.00000000E+00
  0.00000000E+00  0.00000000E+00  0.00000000E+00
  0.00000000E+00  0.00000000E+00  0.00000000E+00
  0.00000000E+00  0.00000000E+00  0.00000000E+00
  0.00000000E+00  0.00000000E+00  0.00000000E+00
  0.00000000E+00  0.00000000E+00  0.00000000E+00
  0.00000000E+00  0.00000000E+00  0.00000000E+00
  0.00000000E+00  0.00000000E+00  0.00000000E+00
  0.00000000E+00  0.00000000E+00  0.00000000E+00
  0.00000000E+00  0.00000000E+00  0.00000000E+00
  0.00000000E+00  0.00000000E+00  0.00000000E+00
  0.00000000E+00  0.00000000E+00  0.00000000E+00
  0.00000000E+00  0.00000000E+00  0.00000000E+00
  0.00000000E+00  0.00000000E+00  0.00000000E+00
  0.00000000E+00  0.00000000E+00  0.00000000E+00
  0.00000000E+00  0.00000000E+00  0.00000000E+00
  0.00000000E+00  0.00000000E+00  0.00000000E+00
  0.00000000E+00  0.00000000E+00  0.00000000E+00
  0.00000000E+00  0.00000000E+00  0.00000000E+00
  0.00000000E+00  0.00000000E+00  0.00000000E+00
  0.00000000E+00  0.00000000E+00  0.00000000E+00
  0.00000000E+00  0.00000000E+00  0.00000000E+00
  0.00000000E+00  0.00000000E+00  0.00000000E+00
  0.00000000E+00  0.00000000E+00  0.00000000E+00
  0.00000000E+00  0.00000000E+00  0.00000000E+00
  0.00000000E+00  0.00000000E+00  0.00000000E+00
  0.00000000E+00  0.00000000E+00  0.00000000E+00
