CONTCAR\(2)                             
   1.00000000000000     
    13.5958003997999999    0.0000000000000000    0.0000000000000000
     0.0000000000000000   14.8882999419999997    0.0000000000000000
     0.0000000000000000    0.0000000000000000   20.6940002440999997
   Ti   S    O    H 
    24    72     2     1
Selective dynamics
Direct
  0.0623821288450301  0.0434077612267316  0.5640412560580401   F   F   F
  0.1873476125951470  0.2103208095346929  0.4340476333046581   F   F   F
  0.3122735634035294  0.0435478066700057  0.5642119240166537   F   F   F
  0.4373227966622935  0.2103734012042935  0.4341144703516804   F   F   F
  0.5622845648402119  0.0435851913684999  0.5641194027578535   F   F   F
  0.6873887906346567  0.2104506776429247  0.4340658178417698   F   F   F
  0.8123326702731717  0.0434536671697501  0.5639969922300381   F   F   F
  0.9373239608430453  0.2102998958763251  0.4340363370788793   F   F   F
  0.0618931048215856  0.3769121586840356  0.5642294056410222   F   F   F
  0.1866479190065178  0.5433924321022943  0.4338109703313009   F   F   F
  0.3116963797936734  0.3769474819084735  0.5641953335889482   F   F   F
  0.4366348093141852  0.5433752032993553  0.4339842165765404   F   F   F
  0.5620442892520785  0.3770896979419476  0.5643000944617071   F   F   F
  0.6867562805347518  0.5435069182981351  0.4340208831263794   F   F   F
  0.8119171322939422  0.3770364190396975  0.5642484446781495   F   F   F
  0.9366722618603092  0.5433157085683931  0.4338635376232816   F   F   F
  0.0614810954269984  0.7103007558947994  0.5637902162032802   F   F   F
  0.1869333539248359  0.8768986233230152  0.4336576834469810   F   F   F
  0.3108884656294393  0.7104316961912289  0.5637531802111369   F   F   F
  0.4369062701096524  0.8766973231566340  0.4338766635938001   F   F   F
  0.5624836883489337  0.7100360425578529  0.5636540620801043   F   F   F
  0.6870730027605632  0.8769252820463862  0.4336728246167780   F   F   F
  0.8118370612555523  0.7102523444409883  0.5639582619692689   F   F   F
  0.9369496065899980  0.8767430434991752  0.4337624127187070   F   F   F
  0.0622742589030096  0.1417041116996529  0.3612547431555271   F   F   F
  0.1872024725622197  0.1112509452120207  0.6375945703710428   F   F   F
  0.1874247875747059  0.0436815217531361  0.4779000478043116   F   F   F
  0.0622055847897514  0.2101797052955021  0.5202650199483756   F   F   F
  0.1867621111405313  0.3077767855006996  0.6365782495792658   F   F   F
  0.0626787427935440  0.2788274259830317  0.3611675953301230   F   F   F
  0.3123449604344444  0.1416918209607871  0.3613407380883729   F   F   F
  0.4373395245559593  0.1136006872097610  0.6357101227297619   F   F   F
  0.4372367512268696  0.0433148813282074  0.4779354575269821   F   F   F
  0.3122051418652916  0.2103884089451498  0.5203263027126823   F   F   F
  0.4367531512783174  0.3101943314074163  0.6385284041751902   F   F   F
  0.3127170445361642  0.2788015110197364  0.3611777208613844   F   F   F
  0.5621964942145112  0.1418637841977670  0.3612780231942025   F   F   F
  0.6873406978784402  0.1118255412241069  0.6370500789051690   F   F   F
  0.6873322157626660  0.0437197000084097  0.4778396413011876   F   F   F
  0.5623487726323262  0.2104469568503760  0.5203277876916417   F   F   F
  0.6869540617206980  0.3081273188343516  0.6368147589936299   F   F   F
  0.5625912659386074  0.2789823033715990  0.3612266083430598   F   F   F
  0.8122475867278354  0.1419953440561130  0.3611458419042535   F   F   F
  0.9372549382114883  0.1121815049035817  0.6365357634772550   F   F   F
  0.9372875456330618  0.0434053104649266  0.4778054731381545   F   F   F
  0.8123638054907474  0.2103378878054940  0.5202846434359714   F   F   F
  0.9368911723138567  0.3086687981602196  0.6372457191888898   F   F   F
  0.8125941759185409  0.2791170553886957  0.3613901312916994   F   F   F
  0.0615541176522711  0.4748508447386328  0.3607900453417656   F   F   F
  0.1869984928203223  0.4448852548653832  0.6376898558612822   F   F   F
  0.1868665148898856  0.3770081263662917  0.4779842142510589   F   F   F
  0.0616463733191992  0.5434475558087470  0.5200591607986311   F   F   F
  0.1859996850201284  0.6409839395038333  0.6358598580980441   F   F   F
  0.0616672877959559  0.6119512079093070  0.3611629752908243   F   F   F
  0.3115411178355458  0.4747217793806939  0.3610664637815333   F   F   F
  0.4367276689050641  0.4473579591270465  0.6356114626595826   F   F   F
  0.4369632429813919  0.3767788886356556  0.4781178484408386   F   F   F
  0.3115942097271116  0.5436124254923342  0.5201172377849304   F   F   F
  0.4357381418124575  0.6437227823533007  0.6394808885369656   F   F   F
  0.3116171040093150  0.6118653232945590  0.3609941348901202   F   F   F
  0.5615884885573834  0.4748325115811767  0.3613065200235752   F   F   F
  0.6868288270770861  0.4452535423614847  0.6375029585902041   F   F   F
  0.6869550964388011  0.3770329385634241  0.4780415013983017   F   F   F
  0.5618690926830965  0.5436503837454012  0.5202901342643500   F   F   F
  0.6867263030686246  0.6414514039527077  0.6366666484798955   F   F   F
  0.5616662528233647  0.6119400009137124  0.3611569247114019   F   F   F
  0.8113213836117481  0.4750669936962453  0.3608896142846447   F   F   F
  0.9369320566418153  0.4458014327762427  0.6368847355962117   F   F   F
  0.9369191874800862  0.3768542868579061  0.4780124660029657   F   F   F
  0.8118522642302466  0.5435237045153514  0.5201533418326250   F   F   F
  0.9367607290732778  0.6419960547742889  0.6369356200230314   F   F   F
  0.8114833061470961  0.6121469319788062  0.3612772616725124   F   F   F
  0.0620330080677292  0.8083731974559640  0.3607869936951147   F   F   F
  0.1867214338629495  0.7779508852512151  0.6373452235009438   F   F   F
  0.1866279052488480  0.7103358317005188  0.4775382618912332   F   F   F
  0.0619733460729819  0.8767523582585923  0.5199752051591062   F   F   F
  0.1875282619553289  0.9741892145176507  0.6363248162212045   F   F   F
  0.0618583132709034  0.9455176101755498  0.3610084306051107   F   F   F
  0.3121068109926028  0.8081830735167657  0.3609154056087789   F   F   F
  0.4372661517102046  0.7809843664630733  0.6338588986557170   F   F   F
  0.4367432355320986  0.7095730470874031  0.4779488196185468   F   F   F
  0.3116980579728619  0.8768086269432018  0.5199594504788010   F   F   F
  0.4374524814810741  0.9765020392575892  0.6383874540148611   F   F   F
  0.3119460531556442  0.9453228577304387  0.3609494159031499   F   F   F
  0.5618701208134667  0.8083490434419005  0.3608594602537423   F   F   F
  0.6866664164002216  0.7785890112779654  0.6369018322076698   F   F   F
  0.6868347356087341  0.7104773786262513  0.4776842497244758   F   F   F
  0.5621384935132312  0.8768504689572865  0.5199646640348021   F   F   F
  0.6875911288525316  0.9747219000524439  0.6366894618633836   F   F   F
  0.5617948596679057  0.9454787933385020  0.3610786165568953   F   F   F
  0.8120153283893785  0.8083671230460325  0.3607155364835037   F   F   F
  0.9365520112893009  0.7791036367241162  0.6364374519788569   F   F   F
  0.9365461244551980  0.7101100765418522  0.4776229598762853   F   F   F
  0.8118995739777688  0.8768169986583274  0.5199923575649521   F   F   F
  0.9376514774512188  0.9750946830821903  0.6370871205871609   F   F   F
  0.8119868349268700  0.9455013264929448  0.3610137724497164   F   F   F
  0.3231488651865959  0.6567278740742282  0.7778260720038546   T   T   T
  0.3121728950068601  0.7463200115136885  0.7744780903130177   T   T   T
  0.3608013534125689  0.6401482903953736  0.7369575447052022   T   T   T
 
  0.00000000E+00  0.00000000E+00  0.00000000E+00
  0.00000000E+00  0.00000000E+00  0.00000000E+00
  0.00000000E+00  0.00000000E+00  0.00000000E+00
  0.00000000E+00  0.00000000E+00  0.00000000E+00
  0.00000000E+00  0.00000000E+00  0.00000000E+00
  0.00000000E+00  0.00000000E+00  0.00000000E+00
  0.00000000E+00  0.00000000E+00  0.00000000E+00
  0.00000000E+00  0.00000000E+00  0.00000000E+00
  0.00000000E+00  0.00000000E+00  0.00000000E+00
  0.00000000E+00  0.00000000E+00  0.00000000E+00
  0.00000000E+00  0.00000000E+00  0.00000000E+00
  0.00000000E+00  0.00000000E+00  0.00000000E+00
  0.00000000E+00  0.00000000E+00  0.00000000E+00
  0.00000000E+00  0.00000000E+00  0.00000000E+00
  0.00000000E+00  0.00000000E+00  0.00000000E+00
  0.00000000E+00  0.00000000E+00  0.00000000E+00
  0.00000000E+00  0.00000000E+00  0.00000000E+00
  0.00000000E+00  0.00000000E+00  0.00000000E+00
  0.00000000E+00  0.00000000E+00  0.00000000E+00
  0.00000000E+00  0.00000000E+00  0.00000000E+00
  0.00000000E+00  0.00000000E+00  0.00000000E+00
  0.00000000E+00  0.00000000E+00  0.00000000E+00
  0.00000000E+00  0.00000000E+00  0.00000000E+00
  0.00000000E+00  0.00000000E+00  0.00000000E+00
  0.00000000E+00  0.00000000E+00  0.00000000E+00
  0.00000000E+00  0.00000000E+00  0.00000000E+00
  0.00000000E+00  0.00000000E+00  0.00000000E+00
  0.00000000E+00  0.00000000E+00  0.00000000E+00
  0.00000000E+00  0.00000000E+00  0.00000000E+00
  0.00000000E+00  0.00000000E+00  0.00000000E+00
  0.00000000E+00  0.00000000E+00  0.00000000E+00
  0.00000000E+00  0.00000000E+00  0.00000000E+00
  0.00000000E+00  0.00000000E+00  0.00000000E+00
  0.00000000E+00  0.00000000E+00  0.00000000E+00
  0.00000000E+00  0.00000000E+00  0.00000000E+00
  0.00000000E+00  0.00000000E+00  0.00000000E+00
  0.00000000E+00  0.00000000E+00  0.00000000E+00
  0.00000000E+00  0.00000000E+00  0.00000000E+00
  0.00000000E+00  0.00000000E+00  0.00000000E+00
  0.00000000E+00  0.00000000E+00  0.00000000E+00
  0.00000000E+00  0.00000000E+00  0.00000000E+00
  0.00000000E+00  0.00000000E+00  0.00000000E+00
  0.00000000E+00  0.00000000E+00  0.00000000E+00
  0.00000000E+00  0.00000000E+00  0.00000000E+00
  0.00000000E+00  0.00000000E+00  0.00000000E+00
  0.00000000E+00  0.00000000E+00  0.00000000E+00
  0.00000000E+00  0.00000000E+00  0.00000000E+00
  0.00000000E+00  0.00000000E+00  0.00000000E+00
  0.00000000E+00  0.00000000E+00  0.00000000E+00
  0.00000000E+00  0.00000000E+00  0.00000000E+00
  0.00000000E+00  0.00000000E+00  0.00000000E+00
  0.00000000E+00  0.00000000E+00  0.00000000E+00
  0.00000000E+00  0.00000000E+00  0.00000000E+00
  0.00000000E+00  0.00000000E+00  0.00000000E+00
  0.00000000E+00  0.00000000E+00  0.00000000E+00
  0.00000000E+00  0.00000000E+00  0.00000000E+00
  0.00000000E+00  0.00000000E+00  0.00000000E+00
  0.00000000E+00  0.00000000E+00  0.00000000E+00
  0.00000000E+00  0.00000000E+00  0.00000000E+00
  0.00000000E+00  0.00000000E+00  0.00000000E+00
  0.00000000E+00  0.00000000E+00  0.00000000E+00
  0.00000000E+00  0.00000000E+00  0.00000000E+00
  0.00000000E+00  0.00000000E+00  0.00000000E+00
  0.00000000E+00  0.00000000E+00  0.00000000E+00
  0.00000000E+00  0.00000000E+00  0.00000000E+00
  0.00000000E+00  0.00000000E+00  0.00000000E+00
  0.00000000E+00  0.00000000E+00  0.00000000E+00
  0.00000000E+00  0.00000000E+00  0.00000000E+00
  0.00000000E+00  0.00000000E+00  0.00000000E+00
  0.00000000E+00  0.00000000E+00  0.00000000E+00
  0.00000000E+00  0.00000000E+00  0.00000000E+00
  0.00000000E+00  0.00000000E+00  0.00000000E+00
  0.00000000E+00  0.00000000E+00  0.00000000E+00
  0.00000000E+00  0.00000000E+00  0.00000000E+00
  0.00000000E+00  0.00000000E+00  0.00000000E+00
  0.00000000E+00  0.00000000E+00  0.00000000E+00
  0.00000000E+00  0.00000000E+00  0.00000000E+00
  0.00000000E+00  0.00000000E+00  0.00000000E+00
  0.00000000E+00  0.00000000E+00  0.00000000E+00
  0.00000000E+00  0.00000000E+00  0.00000000E+00
  0.00000000E+00  0.00000000E+00  0.00000000E+00
  0.00000000E+00  0.00000000E+00  0.00000000E+00
  0.00000000E+00  0.00000000E+00  0.00000000E+00
  0.00000000E+00  0.00000000E+00  0.00000000E+00
  0.00000000E+00  0.00000000E+00  0.00000000E+00
  0.00000000E+00  0.00000000E+00  0.00000000E+00
  0.00000000E+00  0.00000000E+00  0.00000000E+00
  0.00000000E+00  0.00000000E+00  0.00000000E+00
  0.00000000E+00  0.00000000E+00  0.00000000E+00
  0.00000000E+00  0.00000000E+00  0.00000000E+00
  0.00000000E+00  0.00000000E+00  0.00000000E+00
  0.00000000E+00  0.00000000E+00  0.00000000E+00
  0.00000000E+00  0.00000000E+00  0.00000000E+00
  0.00000000E+00  0.00000000E+00  0.00000000E+00
  0.00000000E+00  0.00000000E+00  0.00000000E+00
  0.00000000E+00  0.00000000E+00  0.00000000E+00
  0.00000000E+00  0.00000000E+00  0.00000000E+00
  0.00000000E+00  0.00000000E+00  0.00000000E+00
  0.00000000E+00  0.00000000E+00  0.00000000E+00
