CONTCAR                                 
   1.00000000000000     
    13.3121995926000007    0.0000000000000000    0.0000000000000000
    -6.6560997963000004   11.5287030274000006    0.0000000000000000
     0.0000000000000000    0.0000000000000000   18.1287994384999998
   Nb   S    H 
    16    32     1
Selective dynamics
Direct
  0.0025659755695955  0.9975446093873614  0.5008421718788370   F   F   F
  0.2497629674050614  0.9976436918607803  0.5005931578571250   F   F   F
  0.5047043375336102  0.9985317252744395  0.5005345759074658   F   F   F
  0.7485055312218449  0.9985469512576586  0.5007576395634672   F   F   F
  0.0015978907580774  0.2516400379870802  0.5008737919503687   F   F   F
  0.2513887027975201  0.2483271744700630  0.5002270546278424   F   F   F
  0.5046348732642301  0.2517847587045097  0.5002506760072691   F   F   F
  0.7516385350263590  0.2486250698365069  0.5004978070676955   F   F   F
  0.0016600898316668  0.4955011336278332  0.5006874357056930   F   F   F
  0.2397447948871090  0.4925844897682907  0.5002350763183401   F   F   F
  0.5073973670778074  0.4926608925913030  0.4997234221341458   F   F   F
  0.7483572756792256  0.4955157241450010  0.5003189764658913   F   F   F
  0.0024955363843517  0.7503777283638442  0.5006491417714827   F   F   F
  0.2514975991773767  0.7486603163284684  0.5003443442763427   F   F   F
  0.5075205475575686  0.7603615966701938  0.5001281812933769   F   F   F
  0.7517651982302809  0.7486983120962662  0.5001488231955378   F   F   F
  0.1681645500377869  0.0819410556127451  0.4139224759001792   F   F   F
  0.1688252345121342  0.0826442616633685  0.5872554977935280   F   F   F
  0.4181672371041074  0.0817574389210733  0.4155778104620751   F   F   F
  0.4186329789335304  0.0822145284520417  0.5852828970593293   F   F   F
  0.6690748385806913  0.0832504755670342  0.4134446437472619   F   F   F
  0.6689712398023886  0.0834688875069176  0.5878061873545519   F   F   F
  0.9184021883831264  0.0818524025553202  0.4160300915961699   F   F   F
  0.9181893345352918  0.0818413488410741  0.5857079731391295   F   F   F
  0.1668881177024559  0.3298310121896861  0.4135415236087780   F   F   F
  0.1672977599628780  0.3302644995820714  0.5877349456289664   F   F   F
  0.4169185562159825  0.3296516053309659  0.4131563152903510   F   F   F
  0.4176075659495950  0.3302934175332339  0.5872973380439248   F   F   F
  0.6690736957582928  0.3311633507194927  0.4132116688954710   F   F   F
  0.6688184282092280  0.3313234564246699  0.5875577945597286   F   F   F
  0.9170989504689047  0.3312348306362978  0.4135144426668447   F   F   F
  0.9166603583658173  0.3311831193576040  0.5878990464899232   F   F   F
  0.1671988906794866  0.5829245262082878  0.4135653823913756   F   F   F
  0.1673189446324059  0.5825894306434165  0.5877200331391279   F   F   F
  0.4180916603538805  0.5819377393973042  0.4228451136562938   F   F   F
  0.4184656599524814  0.5817346669897390  0.5795519951887727   F   F   F
  0.6704214073332722  0.5831178848333209  0.4131409404103863   F   F   F
  0.6697706889213535  0.5825425767547969  0.5872983192769254   F   F   F
  0.9184367544010072  0.5819248126739893  0.4157153651403718   F   F   F
  0.9178948324547918  0.5815477381117162  0.5853890759863276   F   F   F
  0.1683817023525549  0.8317475235440668  0.4138796054741078   F   F   F
  0.1685487797734169  0.8316163200107525  0.5872446570990562   F   F   F
  0.4171774551461027  0.8329366107719665  0.4134883952376995   F   F   F
  0.4176275962632232  0.8328945616320524  0.5876265896905437   F   F   F
  0.6702699119658178  0.8332178896747209  0.4134329211649899   F   F   F
  0.6698509801311019  0.8328036962971197  0.5876200495287804   F   F   F
  0.9182402285555398  0.8319511340304757  0.4139197105907471   F   F   F
  0.9173603252285858  0.8312837499509769  0.5872395446344569   F   F   F
  0.4188759519311063  0.5814888612121152  0.6537719283717863   T   T   T
 
  0.00000000E+00  0.00000000E+00  0.00000000E+00
  0.00000000E+00  0.00000000E+00  0.00000000E+00
  0.00000000E+00  0.00000000E+00  0.00000000E+00
  0.00000000E+00  0.00000000E+00  0.00000000E+00
  0.00000000E+00  0.00000000E+00  0.00000000E+00
  0.00000000E+00  0.00000000E+00  0.00000000E+00
  0.00000000E+00  0.00000000E+00  0.00000000E+00
  0.00000000E+00  0.00000000E+00  0.00000000E+00
  0.00000000E+00  0.00000000E+00  0.00000000E+00
  0.00000000E+00  0.00000000E+00  0.00000000E+00
  0.00000000E+00  0.00000000E+00  0.00000000E+00
  0.00000000E+00  0.00000000E+00  0.00000000E+00
  0.00000000E+00  0.00000000E+00  0.00000000E+00
  0.00000000E+00  0.00000000E+00  0.00000000E+00
  0.00000000E+00  0.00000000E+00  0.00000000E+00
  0.00000000E+00  0.00000000E+00  0.00000000E+00
  0.00000000E+00  0.00000000E+00  0.00000000E+00
  0.00000000E+00  0.00000000E+00  0.00000000E+00
  0.00000000E+00  0.00000000E+00  0.00000000E+00
  0.00000000E+00  0.00000000E+00  0.00000000E+00
  0.00000000E+00  0.00000000E+00  0.00000000E+00
  0.00000000E+00  0.00000000E+00  0.00000000E+00
  0.00000000E+00  0.00000000E+00  0.00000000E+00
  0.00000000E+00  0.00000000E+00  0.00000000E+00
  0.00000000E+00  0.00000000E+00  0.00000000E+00
  0.00000000E+00  0.00000000E+00  0.00000000E+00
  0.00000000E+00  0.00000000E+00  0.00000000E+00
  0.00000000E+00  0.00000000E+00  0.00000000E+00
  0.00000000E+00  0.00000000E+00  0.00000000E+00
  0.00000000E+00  0.00000000E+00  0.00000000E+00
  0.00000000E+00  0.00000000E+00  0.00000000E+00
  0.00000000E+00  0.00000000E+00  0.00000000E+00
  0.00000000E+00  0.00000000E+00  0.00000000E+00
  0.00000000E+00  0.00000000E+00  0.00000000E+00
  0.00000000E+00  0.00000000E+00  0.00000000E+00
  0.00000000E+00  0.00000000E+00  0.00000000E+00
  0.00000000E+00  0.00000000E+00  0.00000000E+00
  0.00000000E+00  0.00000000E+00  0.00000000E+00
  0.00000000E+00  0.00000000E+00  0.00000000E+00
  0.00000000E+00  0.00000000E+00  0.00000000E+00
  0.00000000E+00  0.00000000E+00  0.00000000E+00
  0.00000000E+00  0.00000000E+00  0.00000000E+00
  0.00000000E+00  0.00000000E+00  0.00000000E+00
  0.00000000E+00  0.00000000E+00  0.00000000E+00
  0.00000000E+00  0.00000000E+00  0.00000000E+00
  0.00000000E+00  0.00000000E+00  0.00000000E+00
  0.00000000E+00  0.00000000E+00  0.00000000E+00
  0.00000000E+00  0.00000000E+00  0.00000000E+00
  0.00000000E+00  0.00000000E+00  0.00000000E+00
