CONTCAR                                 
   1.00000000000000     
    13.2834997176999998    0.0000000000000000    0.0000000000000000
     0.0000000000000000   13.2517004013000008    0.0000000000000000
     0.0000000000000000    0.0000000000000000   28.4766006470000015
   Bi   I    O    H 
    48    12     1     1
Direct
  0.0000287389343757  0.9386725754074899  0.5990587412430112
  0.0000276077552042  0.0612872837990628  0.4008008558847506
  0.1674269791602876  0.7948846329265377  0.3585801702260620
  0.1648646155543541  0.3394180465714116  0.4435357649443992
  0.9998987184969965  0.1617329141176339  0.5695586484375549
  0.9999679983315009  0.6148861593602392  0.4872660081226394
  0.0000029644815818  0.8384995494519222  0.4299657294283544
  0.0000015406517445  0.5224929728507079  0.3129546183253978
  0.1659198936949522  0.1144521163347636  0.4705059590297307
  0.1664948396834945  0.6604913998363799  0.5578263932217324
  0.0002273759252384  0.3901944846123339  0.5157320926448959
  0.1667805177307994  0.8856296268568971  0.5298506004018265
  0.1670996175001509  0.2072911257162014  0.6403574022721013
  0.1700589135143001  0.4292888944342781  0.6146970998771979
  0.1669146013093581  0.5713820246977914  0.3843866273616308
  0.9998560821421228  0.4768835941910146  0.6839341788319101
  0.3335879318046705  0.9404871148145577  0.5989987323261208
  0.3329051760122957  0.0591797330317454  0.4013450026585574
  0.4999923453508290  0.7952660785366167  0.3584815728089531
  0.5000244803768332  0.3379838763415457  0.4419215454948751
  0.3343869557654405  0.1625056479522930  0.5687938506587327
  0.3339671490663282  0.6129651543248520  0.4879045888321374
  0.3335967224041790  0.8364828481757454  0.4309561006198496
  0.3334564112652085  0.5218360907545452  0.3124607981277696
  0.5000307520758211  0.1139984355273960  0.4704998987289221
  0.5000529217118208  0.6615749156034091  0.5585555741914537
  0.3330269518990793  0.3863573894290458  0.5125306766665433
  0.5000410299493554  0.8855612999640351  0.5295765174369492
  0.4999953970501026  0.2052482236532611  0.6415396792048460
  0.4995318804051587  0.4284414710005763  0.6158067738302940
  0.5000332130537140  0.5719856082667725  0.3840923807061165
  0.3449905040860796  0.4806506679654208  0.6933292142424765
  0.6664589630735918  0.9404852944331262  0.5990164287379938
  0.6671241009239073  0.0591617785351055  0.4013400045536115
  0.8326070466176821  0.7948964368687833  0.3585591540019021
  0.8351923070691222  0.3394001638134230  0.4435971833954618
  0.6656660010928279  0.1625182817529956  0.5688441802529145
  0.6660542088690841  0.6130030477549562  0.4878996485358833
  0.6664100690248743  0.8364970489816445  0.4309134532544618
  0.6666215350084312  0.5217904321369610  0.3124650715295751
  0.8340701195214684  0.1144396136050396  0.4705063185746589
  0.8335740579129508  0.6604542391023718  0.5578400472946000
  0.6670993697019807  0.3864152885832525  0.5125939159168522
  0.8332289405880198  0.8855999794479534  0.5298618547412560
  0.8329166820668780  0.2070698072066474  0.6405269712704090
  0.8288550894055675  0.4290254719972880  0.6148030727671753
  0.8331033125530868  0.5713914553529046  0.3843898970196373
  0.6554052187691228  0.4805029958548230  0.6927654006161617
  0.0000469894658806  0.2670914156440992  0.7319320861473301
  0.0000097685491888  0.7339648296069630  0.2669432220064619
  0.0001167510489146  0.2960899762255675  0.3423983378931785
 -0.0000102876827425  0.7049236772524349  0.6571106356384531
  0.3349719998857801  0.2651694943870272  0.7343361279278691
  0.3335685453537114  0.7334673671672466  0.2665703379698503
  0.3341467282697359  0.2960893304745151  0.3435806631284442
  0.3341156615846437  0.7034778215309814  0.6572696925506621
  0.6650293753506584  0.2653071122879525  0.7342800286290245
  0.6664444778194540  0.7334390554314728  0.2665712069116914
  0.6663892131021560  0.2960290686922517  0.3436089362665575
  0.6658078858029218  0.7035710742586639  0.6572862294870045
  0.4994714790731286  0.5090413867278536  0.7312365012898371
  0.4992535620346683  0.5136251923791770  0.7655599009032847
 
  0.00000000E+00  0.00000000E+00  0.00000000E+00
  0.00000000E+00  0.00000000E+00  0.00000000E+00
  0.00000000E+00  0.00000000E+00  0.00000000E+00
  0.00000000E+00  0.00000000E+00  0.00000000E+00
  0.00000000E+00  0.00000000E+00  0.00000000E+00
  0.00000000E+00  0.00000000E+00  0.00000000E+00
  0.00000000E+00  0.00000000E+00  0.00000000E+00
  0.00000000E+00  0.00000000E+00  0.00000000E+00
  0.00000000E+00  0.00000000E+00  0.00000000E+00
  0.00000000E+00  0.00000000E+00  0.00000000E+00
  0.00000000E+00  0.00000000E+00  0.00000000E+00
  0.00000000E+00  0.00000000E+00  0.00000000E+00
  0.00000000E+00  0.00000000E+00  0.00000000E+00
  0.00000000E+00  0.00000000E+00  0.00000000E+00
  0.00000000E+00  0.00000000E+00  0.00000000E+00
  0.00000000E+00  0.00000000E+00  0.00000000E+00
  0.00000000E+00  0.00000000E+00  0.00000000E+00
  0.00000000E+00  0.00000000E+00  0.00000000E+00
  0.00000000E+00  0.00000000E+00  0.00000000E+00
  0.00000000E+00  0.00000000E+00  0.00000000E+00
  0.00000000E+00  0.00000000E+00  0.00000000E+00
  0.00000000E+00  0.00000000E+00  0.00000000E+00
  0.00000000E+00  0.00000000E+00  0.00000000E+00
  0.00000000E+00  0.00000000E+00  0.00000000E+00
  0.00000000E+00  0.00000000E+00  0.00000000E+00
  0.00000000E+00  0.00000000E+00  0.00000000E+00
  0.00000000E+00  0.00000000E+00  0.00000000E+00
  0.00000000E+00  0.00000000E+00  0.00000000E+00
  0.00000000E+00  0.00000000E+00  0.00000000E+00
  0.00000000E+00  0.00000000E+00  0.00000000E+00
  0.00000000E+00  0.00000000E+00  0.00000000E+00
  0.00000000E+00  0.00000000E+00  0.00000000E+00
  0.00000000E+00  0.00000000E+00  0.00000000E+00
  0.00000000E+00  0.00000000E+00  0.00000000E+00
  0.00000000E+00  0.00000000E+00  0.00000000E+00
  0.00000000E+00  0.00000000E+00  0.00000000E+00
  0.00000000E+00  0.00000000E+00  0.00000000E+00
  0.00000000E+00  0.00000000E+00  0.00000000E+00
  0.00000000E+00  0.00000000E+00  0.00000000E+00
  0.00000000E+00  0.00000000E+00  0.00000000E+00
  0.00000000E+00  0.00000000E+00  0.00000000E+00
  0.00000000E+00  0.00000000E+00  0.00000000E+00
  0.00000000E+00  0.00000000E+00  0.00000000E+00
  0.00000000E+00  0.00000000E+00  0.00000000E+00
  0.00000000E+00  0.00000000E+00  0.00000000E+00
  0.00000000E+00  0.00000000E+00  0.00000000E+00
  0.00000000E+00  0.00000000E+00  0.00000000E+00
  0.00000000E+00  0.00000000E+00  0.00000000E+00
  0.00000000E+00  0.00000000E+00  0.00000000E+00
  0.00000000E+00  0.00000000E+00  0.00000000E+00
  0.00000000E+00  0.00000000E+00  0.00000000E+00
  0.00000000E+00  0.00000000E+00  0.00000000E+00
  0.00000000E+00  0.00000000E+00  0.00000000E+00
  0.00000000E+00  0.00000000E+00  0.00000000E+00
  0.00000000E+00  0.00000000E+00  0.00000000E+00
  0.00000000E+00  0.00000000E+00  0.00000000E+00
  0.00000000E+00  0.00000000E+00  0.00000000E+00
  0.00000000E+00  0.00000000E+00  0.00000000E+00
  0.00000000E+00  0.00000000E+00  0.00000000E+00
  0.00000000E+00  0.00000000E+00  0.00000000E+00
  0.00000000E+00  0.00000000E+00  0.00000000E+00
  0.00000000E+00  0.00000000E+00  0.00000000E+00
