 La4 C2 Br5                             
   1.00000000000000     
     4.0081981909547428    0.0000000000000000    0.0000000000000000
     0.0000000000000000    8.2668303863381478    0.0000000000000000
     0.0000000000000000    0.0000000000000000   21.2348222565480000
   La   C    Br
     4     2     5
Direct
  0.5000245891100263  0.2062922666168134  0.4999908789979628
  0.9997652078100359  0.0000573463646489  0.6393175857598763
  0.5000494755342260  0.7937359983871843  0.5000087177796644
  0.0003095604208809  0.9999766174708071  0.3606821508326306
  0.0000909593583884  0.9999956649335928  0.4667746757086135
  0.9999818169606556  0.0000334815451453  0.5332249806472689
  0.5002530685459661  0.2717687577868233  0.3531726376483491
  0.5003199213670442  0.7282003153945098  0.3531774526907157
  0.4997416560962833  0.2718290691435215  0.6468229390325249
  0.4998201336462031  0.7282672786837523  0.6468279989433441
  0.0000457424337057  0.5000070229164919  0.4999999819590428
 
  0.00000000E+00  0.00000000E+00  0.00000000E+00
  0.00000000E+00  0.00000000E+00  0.00000000E+00
  0.00000000E+00  0.00000000E+00  0.00000000E+00
  0.00000000E+00  0.00000000E+00  0.00000000E+00
  0.00000000E+00  0.00000000E+00  0.00000000E+00
  0.00000000E+00  0.00000000E+00  0.00000000E+00
  0.00000000E+00  0.00000000E+00  0.00000000E+00
  0.00000000E+00  0.00000000E+00  0.00000000E+00
  0.00000000E+00  0.00000000E+00  0.00000000E+00
  0.00000000E+00  0.00000000E+00  0.00000000E+00
  0.00000000E+00  0.00000000E+00  0.00000000E+00
