CONTCAR\(2)                             
   1.00000000000000     
    14.1827001571999993    0.0000000000000000    0.0000000000000000
     0.0000000000000000   18.7943000793000010    0.0000000000000000
     0.0000000000000000    0.0000000000000000   21.0296001433999997
   Ta   Pt   Se   O    H 
    16     8    56     1     1
Direct
  0.1881286217169063  0.4214725534680994  0.5647467344252988
  0.0608837285728896  0.5781556245401731  0.4398765732338248
  0.0625712465335369  0.9062786506816423  0.4927273636916496
  0.1875045076337898  0.0972566411812537  0.5110478869811104
  0.4388584469222039  0.4215219780124428  0.5644882854431259
  0.3137836546054444  0.5744548879833999  0.4403719040321334
  0.3125442595219283  0.9071018181881172  0.4928011930647713
  0.4383082626581114  0.0972808476776024  0.5108354017913044
  0.6886906699186213  0.4220926518668762  0.5645865590209667
  0.5657051705222287  0.5777479889031696  0.4396474671108308
  0.5625754613530560  0.9057350441006449  0.4936511403182777
  0.6881627128978209  0.0969867883367428  0.5101338713570840
  0.9382653202184912  0.4221209778327335  0.5647589661908867
  0.8133098284853162  0.5785842856656132  0.4387467152834432
  0.8126628620241405  0.9051530874264060  0.4921075156799617
  0.9374957977445959  0.0970872304843979  0.5102086424292480
  0.0626969769772856  0.2261617476550768  0.5362483366523989
  0.1855214790895587  0.7768401095773285  0.4669970397031022
  0.3130117501406602  0.2265124030281598  0.5364737635144081
  0.4403155853990839  0.7766669824345769  0.4683749067809657
  0.5633333730780521  0.2260964601355724  0.5359354045214744
  0.6884717721292049  0.7744675603375839  0.4669569718266473
  0.8130227285081020  0.2261078880499454  0.5356943585393310
  0.9372146822669691  0.7747967543792811  0.4666068950042117
  0.0617213658784550  0.6975103139474612  0.5159856645645249
  0.1875899155859670  0.3035698368313007  0.4870100047836274
  0.0626958301588090  0.4353220640415003  0.4700282680140404
  0.1872073724011827  0.5629367446216307  0.5335702806762654
  0.1880604783712414  0.5261977794431374  0.3597022172813595
  0.0636610589784041  0.4742358992099867  0.6445311004807266
  0.1873363617472847  0.9849356179680839  0.4315645515176172
  0.0621691572841527  0.0185593108151849  0.5717501377560055
  0.0630899506547991  0.3352285579909591  0.6159762280738335
  0.1881287138783279  0.6621615651284429  0.3863870268117324
  0.1877246237007455  0.1728957002496543  0.6092110203626930
  0.0626307880593799  0.8292848333352296  0.3944342321497274
  0.0628217149182433  0.1470369440332036  0.4336382923238844
  0.1870841982967804  0.8567016861886003  0.5696942705712544
  0.3124577904896384  0.7004098202576969  0.5058439274738546
  0.4385934825925020  0.3035173685516597  0.4869143566021137
  0.3134426580232557  0.4333978464418493  0.4697300930099360
  0.4396393351382741  0.5626799745922568  0.5327826756165663
  0.4386603787194190  0.5269218707714742  0.3586175815911687
  0.3136488551704772  0.4752678504217158  0.6432741873507268
  0.4381303660142848  0.9846269692720213  0.4319596188761849
  0.3129341213116987  0.0189114129706311  0.5721581552098414
  0.3134887270892008  0.3349849758022714  0.6157854348603777
  0.4385902986400225  0.6619239638064798  0.3864046244710195
  0.4384091879261476  0.1728287841998437  0.6090284818875418
  0.3134572721468842  0.8305907037319926  0.3948737236743938
  0.3127081335712987  0.1470735649381183  0.4341620361656098
  0.4374621454401506  0.8571977386558913  0.5707078481284356
  0.5643065387919748  0.6968237272693827  0.5166064488011841
  0.6882802105068393  0.3040089772026349  0.4868078513979555
  0.5642673750717080  0.4349510868848654  0.4697981316145530
  0.6888544839529871  0.5651709333811468  0.5338923667588702
  0.6886456107048389  0.5254882467830555  0.3594587133414961
  0.5636645076292623  0.4741837549137173  0.6443566409795309
  0.6871665136799407  0.9834644191037114  0.4312446340020415
  0.5634673688198291  0.0185002581001399  0.5718677094722580
  0.5638119366633845  0.3353988558376386  0.6158948656390351
  0.6885144110519974  0.6654001913024317  0.3876834149836483
  0.6882116544505550  0.1723795667116477  0.6084951421382669
  0.5622960273322093  0.8283199222586219  0.3954012810169445
  0.5629679271432551  0.1468040502708163  0.4333805967097462
  0.6880749757331373  0.8546998987115799  0.5693867789362841
  0.8130714071079410  0.6969018275611063  0.5161183108719740
  0.9379477061494654  0.3040025476400174  0.4869420636225854
  0.8135499623429752  0.4357631450848913  0.4701398809281443
  0.9376315123860692  0.5652166782283530  0.5340950401417714
  0.9384351568506659  0.5256170557257676  0.3595673072207788
  0.8135046349466322  0.4741306947624366  0.6444806124315647
  0.9373148531285764  0.9839166932882293  0.4308834593238302
  0.8128415873767523  0.0178487343053888  0.5710170057883133
  0.8133685262543651  0.3352931096580960  0.6157383365638935
  0.9378558227193992  0.6654337542839244  0.3875787623672551
  0.9373996148552450  0.1723633291987241  0.6086043040836060
  0.8126959418632751  0.8288644967678280  0.3941153542969573
  0.8127881764434761  0.1468586833726278  0.4328993009806297
  0.9376202467522248  0.8550757749255524  0.5690532489446056
  0.3140768701081882  0.6980820201254545  0.5924235952047070
  0.2751057140777391  0.6561470691751197  0.6033586325560663
 
  0.00000000E+00  0.00000000E+00  0.00000000E+00
  0.00000000E+00  0.00000000E+00  0.00000000E+00
  0.00000000E+00  0.00000000E+00  0.00000000E+00
  0.00000000E+00  0.00000000E+00  0.00000000E+00
  0.00000000E+00  0.00000000E+00  0.00000000E+00
  0.00000000E+00  0.00000000E+00  0.00000000E+00
  0.00000000E+00  0.00000000E+00  0.00000000E+00
  0.00000000E+00  0.00000000E+00  0.00000000E+00
  0.00000000E+00  0.00000000E+00  0.00000000E+00
  0.00000000E+00  0.00000000E+00  0.00000000E+00
  0.00000000E+00  0.00000000E+00  0.00000000E+00
  0.00000000E+00  0.00000000E+00  0.00000000E+00
  0.00000000E+00  0.00000000E+00  0.00000000E+00
  0.00000000E+00  0.00000000E+00  0.00000000E+00
  0.00000000E+00  0.00000000E+00  0.00000000E+00
  0.00000000E+00  0.00000000E+00  0.00000000E+00
  0.00000000E+00  0.00000000E+00  0.00000000E+00
  0.00000000E+00  0.00000000E+00  0.00000000E+00
  0.00000000E+00  0.00000000E+00  0.00000000E+00
  0.00000000E+00  0.00000000E+00  0.00000000E+00
  0.00000000E+00  0.00000000E+00  0.00000000E+00
  0.00000000E+00  0.00000000E+00  0.00000000E+00
  0.00000000E+00  0.00000000E+00  0.00000000E+00
  0.00000000E+00  0.00000000E+00  0.00000000E+00
  0.00000000E+00  0.00000000E+00  0.00000000E+00
  0.00000000E+00  0.00000000E+00  0.00000000E+00
  0.00000000E+00  0.00000000E+00  0.00000000E+00
  0.00000000E+00  0.00000000E+00  0.00000000E+00
  0.00000000E+00  0.00000000E+00  0.00000000E+00
  0.00000000E+00  0.00000000E+00  0.00000000E+00
  0.00000000E+00  0.00000000E+00  0.00000000E+00
  0.00000000E+00  0.00000000E+00  0.00000000E+00
  0.00000000E+00  0.00000000E+00  0.00000000E+00
  0.00000000E+00  0.00000000E+00  0.00000000E+00
  0.00000000E+00  0.00000000E+00  0.00000000E+00
  0.00000000E+00  0.00000000E+00  0.00000000E+00
  0.00000000E+00  0.00000000E+00  0.00000000E+00
  0.00000000E+00  0.00000000E+00  0.00000000E+00
  0.00000000E+00  0.00000000E+00  0.00000000E+00
  0.00000000E+00  0.00000000E+00  0.00000000E+00
  0.00000000E+00  0.00000000E+00  0.00000000E+00
  0.00000000E+00  0.00000000E+00  0.00000000E+00
  0.00000000E+00  0.00000000E+00  0.00000000E+00
  0.00000000E+00  0.00000000E+00  0.00000000E+00
  0.00000000E+00  0.00000000E+00  0.00000000E+00
  0.00000000E+00  0.00000000E+00  0.00000000E+00
  0.00000000E+00  0.00000000E+00  0.00000000E+00
  0.00000000E+00  0.00000000E+00  0.00000000E+00
  0.00000000E+00  0.00000000E+00  0.00000000E+00
  0.00000000E+00  0.00000000E+00  0.00000000E+00
  0.00000000E+00  0.00000000E+00  0.00000000E+00
  0.00000000E+00  0.00000000E+00  0.00000000E+00
  0.00000000E+00  0.00000000E+00  0.00000000E+00
  0.00000000E+00  0.00000000E+00  0.00000000E+00
  0.00000000E+00  0.00000000E+00  0.00000000E+00
  0.00000000E+00  0.00000000E+00  0.00000000E+00
  0.00000000E+00  0.00000000E+00  0.00000000E+00
  0.00000000E+00  0.00000000E+00  0.00000000E+00
  0.00000000E+00  0.00000000E+00  0.00000000E+00
  0.00000000E+00  0.00000000E+00  0.00000000E+00
  0.00000000E+00  0.00000000E+00  0.00000000E+00
  0.00000000E+00  0.00000000E+00  0.00000000E+00
  0.00000000E+00  0.00000000E+00  0.00000000E+00
  0.00000000E+00  0.00000000E+00  0.00000000E+00
  0.00000000E+00  0.00000000E+00  0.00000000E+00
  0.00000000E+00  0.00000000E+00  0.00000000E+00
  0.00000000E+00  0.00000000E+00  0.00000000E+00
  0.00000000E+00  0.00000000E+00  0.00000000E+00
  0.00000000E+00  0.00000000E+00  0.00000000E+00
  0.00000000E+00  0.00000000E+00  0.00000000E+00
  0.00000000E+00  0.00000000E+00  0.00000000E+00
  0.00000000E+00  0.00000000E+00  0.00000000E+00
  0.00000000E+00  0.00000000E+00  0.00000000E+00
  0.00000000E+00  0.00000000E+00  0.00000000E+00
  0.00000000E+00  0.00000000E+00  0.00000000E+00
  0.00000000E+00  0.00000000E+00  0.00000000E+00
  0.00000000E+00  0.00000000E+00  0.00000000E+00
  0.00000000E+00  0.00000000E+00  0.00000000E+00
  0.00000000E+00  0.00000000E+00  0.00000000E+00
  0.00000000E+00  0.00000000E+00  0.00000000E+00
  0.00000000E+00  0.00000000E+00  0.00000000E+00
  0.00000000E+00  0.00000000E+00  0.00000000E+00
