CONTCAR                                 
   1.00000000000000     
    11.9152002335000002    0.0000000000000000    0.0000000000000000
     0.0000000000000000   11.5832004547000000    0.0000000000000000
     0.0000000000000000    0.0000000000000000   16.4783992766999994
   Ag   F 
    12    24
Direct
  0.1666699949999995  0.2500000000000000  0.5000000000000000
  0.0000000000000000 -0.0000000000000000  0.5000000000000000
  0.5000000000000000  0.2500000000000000  0.5000000000000000
  0.3333300050000005 -0.0000000000000000  0.5000000000000000
  0.8333299849999989  0.2500000000000000  0.5000000000000000
  0.6666700150000011 -0.0000000000000000  0.5000000000000000
  0.1666699949999995  0.7500000409999998  0.5000000000000000
 -0.0000000000000000  0.5000000000000000  0.5000000000000000
  0.5000000000000000  0.7500000409999998  0.5000000000000000
  0.3333300050000005  0.5000000000000000  0.5000000000000000
  0.8333299849999989  0.7500000409999998  0.5000000000000000
  0.6666700150000011  0.5000000000000000  0.5000000000000000
  0.0392422473816317  0.3439019162495225  0.5588604569530656
  0.2059122393816345  0.4060880807504776  0.4411295590469325
  0.1274177556183652  0.0939119292495232  0.5588704119530615
  0.2940877406183639  0.1560980737504766  0.4411395720469332
  0.3725822743816301  0.3439019162495225  0.5588604569530656
  0.5392522493816351  0.4060880807504776  0.4411295590469325
  0.4607477506183650  0.0939119292495232  0.5588704119530615
  0.6274177656183660  0.1560980737504766  0.4411395720469332
  0.7059122993816324  0.3439019162495225  0.5588604569530656
  0.8725822343816340  0.4060880807504776  0.4411295590469325
  0.7940877406183638  0.0939119292495232  0.5588704119530615
  0.9607577556183650  0.1560980737504766  0.4411395720469332
  0.0392422473816317  0.8439019572495224  0.5588604569530656
  0.2059122393816345  0.9060881217504774  0.4411295590469325
  0.1274177556183652  0.5939119192495225  0.5588704119530615
  0.2940877406183639  0.6560980427504776  0.4411395720469332
  0.3725822743816301  0.8439019572495224  0.5588604569530656
  0.5392522493816351  0.9060881217504774  0.4411295590469325
  0.4607477506183650  0.5939119192495225  0.5588704119530615
  0.6274177656183660  0.6560980427504776  0.4411395720469332
  0.7059122993816324  0.8439019572495224  0.5588604569530656
  0.8725822343816340  0.9060881217504774  0.4411295590469325
  0.7940877406183638  0.5939119192495225  0.5588704119530615
  0.9607577556183650  0.6560980427504776  0.4411395720469332
 
  0.00000000E+00  0.00000000E+00  0.00000000E+00
  0.00000000E+00  0.00000000E+00  0.00000000E+00
  0.00000000E+00  0.00000000E+00  0.00000000E+00
  0.00000000E+00  0.00000000E+00  0.00000000E+00
  0.00000000E+00  0.00000000E+00  0.00000000E+00
  0.00000000E+00  0.00000000E+00  0.00000000E+00
  0.00000000E+00  0.00000000E+00  0.00000000E+00
  0.00000000E+00  0.00000000E+00  0.00000000E+00
  0.00000000E+00  0.00000000E+00  0.00000000E+00
  0.00000000E+00  0.00000000E+00  0.00000000E+00
  0.00000000E+00  0.00000000E+00  0.00000000E+00
  0.00000000E+00  0.00000000E+00  0.00000000E+00
  0.00000000E+00  0.00000000E+00  0.00000000E+00
  0.00000000E+00  0.00000000E+00  0.00000000E+00
  0.00000000E+00  0.00000000E+00  0.00000000E+00
  0.00000000E+00  0.00000000E+00  0.00000000E+00
  0.00000000E+00  0.00000000E+00  0.00000000E+00
  0.00000000E+00  0.00000000E+00  0.00000000E+00
  0.00000000E+00  0.00000000E+00  0.00000000E+00
  0.00000000E+00  0.00000000E+00  0.00000000E+00
  0.00000000E+00  0.00000000E+00  0.00000000E+00
  0.00000000E+00  0.00000000E+00  0.00000000E+00
  0.00000000E+00  0.00000000E+00  0.00000000E+00
  0.00000000E+00  0.00000000E+00  0.00000000E+00
  0.00000000E+00  0.00000000E+00  0.00000000E+00
  0.00000000E+00  0.00000000E+00  0.00000000E+00
  0.00000000E+00  0.00000000E+00  0.00000000E+00
  0.00000000E+00  0.00000000E+00  0.00000000E+00
  0.00000000E+00  0.00000000E+00  0.00000000E+00
  0.00000000E+00  0.00000000E+00  0.00000000E+00
  0.00000000E+00  0.00000000E+00  0.00000000E+00
  0.00000000E+00  0.00000000E+00  0.00000000E+00
  0.00000000E+00  0.00000000E+00  0.00000000E+00
  0.00000000E+00  0.00000000E+00  0.00000000E+00
  0.00000000E+00  0.00000000E+00  0.00000000E+00
  0.00000000E+00  0.00000000E+00  0.00000000E+00
