CONTCAR\(3)                             
   1.00000000000000     
    11.2035999297999993    0.0000000000000000    0.0000000000000000
     0.0000000000000000   12.2031002045000001    0.0000000000000000
     0.0000000000000000    0.0000000000000000   20.4333000182999989
   Cu   Sb   S    O    H 
    12    12    24     1     1
Direct
  0.0008792519902556  0.1264967359388223  0.5525905862705613
  0.9991793002467517  0.3794833040509786  0.4473449397570377
  0.3324562763640273  0.1264930096939167  0.5525859180037287
  0.3341556199095663  0.3794856199916836  0.4473457148802922
  0.6666737170256951  0.1279183571843916  0.5551695749563095
  0.6666682704098434  0.3794943673730700  0.4482752131934546
  0.0000470557139636  0.6330118805616110  0.5538651115616346
  0.0044738887768290  0.8814571590397691  0.4443543513168038
  0.3332882791275367  0.6330142325305488  0.5538711876586291
  0.3288650212743178  0.8814592142118585  0.4443577679662098
  0.6666675906601967  0.6309555711279842  0.5587957750130812
  0.6666717467734671  0.8813820991064532  0.4549864652894300
  0.1666670266936094  0.1314578456576641  0.3697220881017955
  0.1666668394162940  0.3796295114403492  0.6280899461181662
  0.5014410286002118  0.1271154928516296  0.3725052805667701
  0.4991327747157470  0.3783548860368882  0.6289718931376527
  0.8318966586745802  0.1271170786175446  0.3725062167250570
  0.8341691188503830  0.3783989924193847  0.6289797055785655
  0.1666680943561687  0.6276117485144681  0.3716971996307876
  0.1666641193499814  0.8850033048081727  0.6236959262912478
  0.5028902722094983  0.6311685833859286  0.3738847652818649
  0.5029457107701987  0.8748696670170943  0.6397360299493329
  0.8304450796997003  0.6311682107701344  0.3738839562498129
  0.8303816423014823  0.8748713045003171  0.6397314936328300
  0.1666672861671188  0.4352470805640678  0.3928425728336933
  0.1666696786075192  0.1876402365426273  0.6067508791738945
  0.9994733534780380  0.4442490248073412  0.5510144227505336
  0.0001740010763100  0.1923345282398969  0.4486836093127167
  0.5007162630925990  0.4379407289146329  0.3931479095320753
  0.4982973737461691  0.1860186131239843  0.6074471213389572
  0.3338548480884427  0.4442512458391974  0.5510090730311603
  0.3331624786901344  0.1923346477736416  0.4486837503567713
  0.8326192373259431  0.4379412187363840  0.3931465346793246
  0.8350367358808342  0.1860610925277086  0.6074554199240012
  0.6666655085779212  0.4425083518057562  0.5523771284239984
  0.6666689297976447  0.1919716123472455  0.4508167063490163
  0.1666701952778809  0.9375587732881314  0.3849143527629195
  0.1666655294247263  0.6885954018284508  0.6074504082426699
  0.9996947209250067  0.9399327945587714  0.5491972387136030
  0.0010689913294115  0.6938550275147932  0.4491114107003824
  0.5029899142485306  0.9356083572907181  0.3956374201940278
  0.4977282080920276  0.6836737264882586  0.6108222184013030
  0.3336527416858459  0.9399261074831102  0.5491926890215382
  0.3322687141146048  0.6938542382918058  0.4491135255966938
  0.8303491769058553  0.9356094509104906  0.3956381054309404
  0.8356164661093288  0.6836785142738293  0.6108192842051423
  0.6666678564110384  0.9403369173443039  0.5603336625354771
  0.6666688093850865  0.6933158315754326  0.4540641657924311
  0.6666772668684828  0.8351680767585279  0.6998745997469697
  0.6666817467831905  0.8785300903402273  0.7400889408186870
 
  0.00000000E+00  0.00000000E+00  0.00000000E+00
  0.00000000E+00  0.00000000E+00  0.00000000E+00
  0.00000000E+00  0.00000000E+00  0.00000000E+00
  0.00000000E+00  0.00000000E+00  0.00000000E+00
  0.00000000E+00  0.00000000E+00  0.00000000E+00
  0.00000000E+00  0.00000000E+00  0.00000000E+00
  0.00000000E+00  0.00000000E+00  0.00000000E+00
  0.00000000E+00  0.00000000E+00  0.00000000E+00
  0.00000000E+00  0.00000000E+00  0.00000000E+00
  0.00000000E+00  0.00000000E+00  0.00000000E+00
  0.00000000E+00  0.00000000E+00  0.00000000E+00
  0.00000000E+00  0.00000000E+00  0.00000000E+00
  0.00000000E+00  0.00000000E+00  0.00000000E+00
  0.00000000E+00  0.00000000E+00  0.00000000E+00
  0.00000000E+00  0.00000000E+00  0.00000000E+00
  0.00000000E+00  0.00000000E+00  0.00000000E+00
  0.00000000E+00  0.00000000E+00  0.00000000E+00
  0.00000000E+00  0.00000000E+00  0.00000000E+00
  0.00000000E+00  0.00000000E+00  0.00000000E+00
  0.00000000E+00  0.00000000E+00  0.00000000E+00
  0.00000000E+00  0.00000000E+00  0.00000000E+00
  0.00000000E+00  0.00000000E+00  0.00000000E+00
  0.00000000E+00  0.00000000E+00  0.00000000E+00
  0.00000000E+00  0.00000000E+00  0.00000000E+00
  0.00000000E+00  0.00000000E+00  0.00000000E+00
  0.00000000E+00  0.00000000E+00  0.00000000E+00
  0.00000000E+00  0.00000000E+00  0.00000000E+00
  0.00000000E+00  0.00000000E+00  0.00000000E+00
  0.00000000E+00  0.00000000E+00  0.00000000E+00
  0.00000000E+00  0.00000000E+00  0.00000000E+00
  0.00000000E+00  0.00000000E+00  0.00000000E+00
  0.00000000E+00  0.00000000E+00  0.00000000E+00
  0.00000000E+00  0.00000000E+00  0.00000000E+00
  0.00000000E+00  0.00000000E+00  0.00000000E+00
  0.00000000E+00  0.00000000E+00  0.00000000E+00
  0.00000000E+00  0.00000000E+00  0.00000000E+00
  0.00000000E+00  0.00000000E+00  0.00000000E+00
  0.00000000E+00  0.00000000E+00  0.00000000E+00
  0.00000000E+00  0.00000000E+00  0.00000000E+00
  0.00000000E+00  0.00000000E+00  0.00000000E+00
  0.00000000E+00  0.00000000E+00  0.00000000E+00
  0.00000000E+00  0.00000000E+00  0.00000000E+00
  0.00000000E+00  0.00000000E+00  0.00000000E+00
  0.00000000E+00  0.00000000E+00  0.00000000E+00
  0.00000000E+00  0.00000000E+00  0.00000000E+00
  0.00000000E+00  0.00000000E+00  0.00000000E+00
  0.00000000E+00  0.00000000E+00  0.00000000E+00
  0.00000000E+00  0.00000000E+00  0.00000000E+00
  0.00000000E+00  0.00000000E+00  0.00000000E+00
  0.00000000E+00  0.00000000E+00  0.00000000E+00
