 Gd4 Br6                                
   1.00000000000000     
     3.9163123047838058    0.0000000000000000    0.0000000000000000
     1.9581551696491779    9.8089199029207137    0.0000000000000000
     0.0000000000000000    0.0000000000000000   20.7149844759499970
   Gd   Br
     4     6
Direct
  0.2326142250314066  0.5348567398903593  0.4950166736964400
  0.8778590442542406  0.2448608962354447  0.4204395390181889
  0.8707531380106487  0.2580907606644966  0.5797559489545214
  0.5158491238464439  0.9681925165823663  0.5052788059616111
  0.2864664202580194  0.4274994740256818  0.3624903587361346
  0.4618036620666985  0.0757091311381897  0.6378660976184599
  0.4759693777036424  0.0496189118314386  0.3707584461295786
  0.2730397492752915  0.4532490952448635  0.6294424728808895
  0.1046737550212231  0.7898057798552885  0.5737435250336201
  0.6433735045323915  0.7133146945318689  0.4266303354708813
 
  0.00000000E+00  0.00000000E+00  0.00000000E+00
  0.00000000E+00  0.00000000E+00  0.00000000E+00
  0.00000000E+00  0.00000000E+00  0.00000000E+00
  0.00000000E+00  0.00000000E+00  0.00000000E+00
  0.00000000E+00  0.00000000E+00  0.00000000E+00
  0.00000000E+00  0.00000000E+00  0.00000000E+00
  0.00000000E+00  0.00000000E+00  0.00000000E+00
  0.00000000E+00  0.00000000E+00  0.00000000E+00
  0.00000000E+00  0.00000000E+00  0.00000000E+00
  0.00000000E+00  0.00000000E+00  0.00000000E+00
