CONTCAR\(10)                            
   1.00000000000000     
    12.7571001052999993    0.0000000000000000    0.0000000000000000
     0.0000000000000000   15.8464002608999994    0.0000000000000000
     0.0000000000000000    0.0000000000000000   20.2327003478999998
   Ti   Cl   O 
    32    32    33
Direct
  0.1179359902573149  0.9965566419946940  0.5427900466807449
  0.9991813936230403  0.1265310819295103  0.4655118365453740
  0.3700200420672821  0.0015561224998234  0.5405165370133300
  0.2583108620363838  0.1249436973836499  0.4637332025635144
  0.6259812944431065  0.0027032604182209  0.5384629854930795
  0.5157914526660538  0.1235785602777829  0.4609447942283497
  0.8823693443008801  0.0010176706234757  0.5432211477001382
  0.7328538115427334  0.1242244243422385  0.4609072435495158
  0.1103708643858095  0.2478267844231711  0.5410096806929272
  0.0004614279648675  0.3682914606316096  0.4621866630025269
  0.3673233550849206  0.2462883933556217  0.5371321768855525
  0.2517495576529113  0.3719279838990587  0.4613574884155512
  0.6267256956443670  0.2442508084388503  0.5368589554813815
  0.4988937693268432  0.3788516684597344  0.4626556338021136
  0.8914907504901344  0.2463995072206413  0.5409412198752571
  0.7487122328669167  0.3724433831024888  0.4622594762731752
  0.1280601659934256  0.5043945116722407  0.5376365227712823
  0.0104313204490176  0.6242595343833290  0.4588133104551600
  0.3890150815363056  0.5021774903960083  0.5404524948523504
  0.2344337464673944  0.6248997583405446  0.4590165378929008
  0.6112334684908305  0.5015689503807664  0.5405239295956926
  0.4993164392573316  0.6222117573503035  0.4647803999672604
  0.8695960805963436  0.5028348152542808  0.5381604841269411
  0.7624142858950435  0.6244628712558908  0.4610683012766956
  0.1239134349438086  0.7474694463476304  0.5340044613080888
  0.0075578566136094  0.8748940770736501  0.4571262983673902
  0.3875762917790555  0.7470531276418558  0.5446321354719674
  0.2390636489135426  0.8698240652843863  0.4570955021233768
  0.6093387895382576  0.7477455285145981  0.5439050776705657
  0.4985295354346414  0.8687926461239829  0.4608507454104517
  0.8729300082008700  0.7472696723091213  0.5380442730812226
  0.7581791683415698  0.8704316464283133  0.4599820820496893
  0.1274867552775322  0.1184999532989261  0.3763005575273592
  0.0001933236917626  0.0005804042084489  0.6334085206142976
  0.3778588045043942  0.1201274082379058  0.3754625331940523
  0.2507632802720677  0.9975713535988756  0.6300090344507271
  0.6247478586847847  0.1219185097245749  0.3675819892361158
  0.4994776699737753  0.9836735404365392  0.6274668849137837
  0.8728348677216381  0.1197266221998027  0.3770309201447488
  0.7499134903373929  0.9919414808815049  0.6285495417734681
  0.1248524414570965  0.3812240735927678  0.3726414928977118
  0.0003797944001758  0.2512242930550370  0.6339352146933683
  0.3745362969595504  0.3702615900508774  0.3723812622301755
  0.2480007843568741  0.2506701232444132  0.6264069111947906
  0.6251597776669537  0.3658693764031406  0.3732344970328324
  0.4982977317873357  0.2557606560390869  0.6255557404451515
  0.8738840965530563  0.3789794847068517  0.3729658306223074
  0.7520593625140923  0.2534796688394083  0.6252957312451055
  0.1242873830175897  0.6222911138177458  0.3665175831893368
  0.9993430995458953  0.4898470696663783  0.6261192608124549
  0.3733181177963223  0.6231264080226148  0.3749863525913470
  0.2513321197341400  0.4974540864816492  0.6261355106283970
  0.6279773303008533  0.6247981593004530  0.3751883690079787
  0.5001199729495560  0.4998762377270790  0.6328063900842513
  0.8777539321720534  0.6219941383855209  0.3713139331354664
  0.7488641697737886  0.4996040461306406  0.6264953970200283
  0.1250027318850568  0.8752956384435091  0.3664106491444287
  0.9992877112129679  0.7536518708279619  0.6256242443965270
  0.3747783433852723  0.8794963750671033  0.3720285768521194
  0.2495078532958322  0.7534209858735883  0.6249768666566805
  0.6254385529809118  0.8838642442636089  0.3731618510231372
  0.4995853631510701  0.7430870819860486  0.6306600278378652
  0.8746796933009791  0.8743201540854110  0.3700948438080960
  0.7489890035204019  0.7529343432318689  0.6258891926061185
  0.9988062184280725  0.9967752949829897  0.4715322108562578
  0.1293676159653713  0.1230752203479955  0.5276794717570463
  0.2480623188194279  0.9966554714884044  0.4771919371330087
  0.3793626402428300  0.1220686464190778  0.5341844796588880
  0.4964398455293930  0.9980406326297082  0.4793793431637105
  0.6245620546679427  0.1225130323309586  0.5420203591011158
  0.7526473409403072  0.9974823873489365  0.4782715150611485
  0.8730758814488030  0.1228002155659503  0.5301916993491431
  0.0005731919300540  0.2488376535455118  0.4606189484073090
  0.1274835686297754  0.3730939674106704  0.5234071677801676
  0.2448224826788780  0.2490264930411137  0.4692003841828167
  0.3728741144074422  0.3757439632574675  0.5260914090041710
  0.4960300080572871  0.2476865012398249  0.4772154415269410
  0.6261082321069175  0.3758040330548515  0.5245835473709630
  0.7536877201812013  0.2481340663168129  0.4733322305430548
  0.8730446918030162  0.3735161900939919  0.5235156710599264
  0.9981038369835262  0.4991464671268876  0.4777044962501367
  0.1234594835782225  0.6243295458990368  0.5373986714814439
  0.2513529753768443  0.4990124234794761  0.4739327822986652
  0.3685394568369975  0.6257327605308417  0.5262372767471966
  0.5006449546031051  0.4982733588054408  0.4619124849411544
  0.6319659134435542  0.6256233373695752  0.5254038750451798
  0.7477426499391527  0.4986016061304361  0.4723217165725128
  0.8827004947767533  0.6246367491229919  0.5330035310491537
  0.9952380464319868  0.7491142286242127  0.4705673515122215
  0.1253704624188615  0.8759071576618075  0.5312197787922014
  0.2500847528830946  0.7493446389180272  0.4698211003479683
  0.3736034668926032  0.8719766815838471  0.5219291608530117
  0.4982232065903288  0.7494500804351156  0.4653702971341550
  0.6268447785885594  0.8710398239787156  0.5205641180485754
  0.7493828362750699  0.7494874107523352  0.4708232349465092
  0.8785398073801302  0.8751731048735051  0.5264105960548298
  0.5019219591786578  0.7527251020466622  0.7072362343355990
 
  0.00000000E+00  0.00000000E+00  0.00000000E+00
  0.00000000E+00  0.00000000E+00  0.00000000E+00
  0.00000000E+00  0.00000000E+00  0.00000000E+00
  0.00000000E+00  0.00000000E+00  0.00000000E+00
  0.00000000E+00  0.00000000E+00  0.00000000E+00
  0.00000000E+00  0.00000000E+00  0.00000000E+00
  0.00000000E+00  0.00000000E+00  0.00000000E+00
  0.00000000E+00  0.00000000E+00  0.00000000E+00
  0.00000000E+00  0.00000000E+00  0.00000000E+00
  0.00000000E+00  0.00000000E+00  0.00000000E+00
  0.00000000E+00  0.00000000E+00  0.00000000E+00
  0.00000000E+00  0.00000000E+00  0.00000000E+00
  0.00000000E+00  0.00000000E+00  0.00000000E+00
  0.00000000E+00  0.00000000E+00  0.00000000E+00
  0.00000000E+00  0.00000000E+00  0.00000000E+00
  0.00000000E+00  0.00000000E+00  0.00000000E+00
  0.00000000E+00  0.00000000E+00  0.00000000E+00
  0.00000000E+00  0.00000000E+00  0.00000000E+00
  0.00000000E+00  0.00000000E+00  0.00000000E+00
  0.00000000E+00  0.00000000E+00  0.00000000E+00
  0.00000000E+00  0.00000000E+00  0.00000000E+00
  0.00000000E+00  0.00000000E+00  0.00000000E+00
  0.00000000E+00  0.00000000E+00  0.00000000E+00
  0.00000000E+00  0.00000000E+00  0.00000000E+00
  0.00000000E+00  0.00000000E+00  0.00000000E+00
  0.00000000E+00  0.00000000E+00  0.00000000E+00
  0.00000000E+00  0.00000000E+00  0.00000000E+00
  0.00000000E+00  0.00000000E+00  0.00000000E+00
  0.00000000E+00  0.00000000E+00  0.00000000E+00
  0.00000000E+00  0.00000000E+00  0.00000000E+00
  0.00000000E+00  0.00000000E+00  0.00000000E+00
  0.00000000E+00  0.00000000E+00  0.00000000E+00
  0.00000000E+00  0.00000000E+00  0.00000000E+00
  0.00000000E+00  0.00000000E+00  0.00000000E+00
  0.00000000E+00  0.00000000E+00  0.00000000E+00
  0.00000000E+00  0.00000000E+00  0.00000000E+00
  0.00000000E+00  0.00000000E+00  0.00000000E+00
  0.00000000E+00  0.00000000E+00  0.00000000E+00
  0.00000000E+00  0.00000000E+00  0.00000000E+00
  0.00000000E+00  0.00000000E+00  0.00000000E+00
  0.00000000E+00  0.00000000E+00  0.00000000E+00
  0.00000000E+00  0.00000000E+00  0.00000000E+00
  0.00000000E+00  0.00000000E+00  0.00000000E+00
  0.00000000E+00  0.00000000E+00  0.00000000E+00
  0.00000000E+00  0.00000000E+00  0.00000000E+00
  0.00000000E+00  0.00000000E+00  0.00000000E+00
  0.00000000E+00  0.00000000E+00  0.00000000E+00
  0.00000000E+00  0.00000000E+00  0.00000000E+00
  0.00000000E+00  0.00000000E+00  0.00000000E+00
  0.00000000E+00  0.00000000E+00  0.00000000E+00
  0.00000000E+00  0.00000000E+00  0.00000000E+00
  0.00000000E+00  0.00000000E+00  0.00000000E+00
  0.00000000E+00  0.00000000E+00  0.00000000E+00
  0.00000000E+00  0.00000000E+00  0.00000000E+00
  0.00000000E+00  0.00000000E+00  0.00000000E+00
  0.00000000E+00  0.00000000E+00  0.00000000E+00
  0.00000000E+00  0.00000000E+00  0.00000000E+00
  0.00000000E+00  0.00000000E+00  0.00000000E+00
  0.00000000E+00  0.00000000E+00  0.00000000E+00
  0.00000000E+00  0.00000000E+00  0.00000000E+00
  0.00000000E+00  0.00000000E+00  0.00000000E+00
  0.00000000E+00  0.00000000E+00  0.00000000E+00
  0.00000000E+00  0.00000000E+00  0.00000000E+00
  0.00000000E+00  0.00000000E+00  0.00000000E+00
  0.00000000E+00  0.00000000E+00  0.00000000E+00
  0.00000000E+00  0.00000000E+00  0.00000000E+00
  0.00000000E+00  0.00000000E+00  0.00000000E+00
  0.00000000E+00  0.00000000E+00  0.00000000E+00
  0.00000000E+00  0.00000000E+00  0.00000000E+00
  0.00000000E+00  0.00000000E+00  0.00000000E+00
  0.00000000E+00  0.00000000E+00  0.00000000E+00
  0.00000000E+00  0.00000000E+00  0.00000000E+00
  0.00000000E+00  0.00000000E+00  0.00000000E+00
  0.00000000E+00  0.00000000E+00  0.00000000E+00
  0.00000000E+00  0.00000000E+00  0.00000000E+00
  0.00000000E+00  0.00000000E+00  0.00000000E+00
  0.00000000E+00  0.00000000E+00  0.00000000E+00
  0.00000000E+00  0.00000000E+00  0.00000000E+00
  0.00000000E+00  0.00000000E+00  0.00000000E+00
  0.00000000E+00  0.00000000E+00  0.00000000E+00
  0.00000000E+00  0.00000000E+00  0.00000000E+00
  0.00000000E+00  0.00000000E+00  0.00000000E+00
  0.00000000E+00  0.00000000E+00  0.00000000E+00
  0.00000000E+00  0.00000000E+00  0.00000000E+00
  0.00000000E+00  0.00000000E+00  0.00000000E+00
  0.00000000E+00  0.00000000E+00  0.00000000E+00
  0.00000000E+00  0.00000000E+00  0.00000000E+00
  0.00000000E+00  0.00000000E+00  0.00000000E+00
  0.00000000E+00  0.00000000E+00  0.00000000E+00
  0.00000000E+00  0.00000000E+00  0.00000000E+00
  0.00000000E+00  0.00000000E+00  0.00000000E+00
  0.00000000E+00  0.00000000E+00  0.00000000E+00
  0.00000000E+00  0.00000000E+00  0.00000000E+00
  0.00000000E+00  0.00000000E+00  0.00000000E+00
  0.00000000E+00  0.00000000E+00  0.00000000E+00
  0.00000000E+00  0.00000000E+00  0.00000000E+00
  0.00000000E+00  0.00000000E+00  0.00000000E+00
