 Mn3 Cu1 O8                             
   1.00000000000000     
     5.6985221765879945    0.0000000000000000    0.0000000000000000
    -2.8368263357277161    4.9383993664040133    0.0000000000000000
     0.0000000000000000    0.0000000000000000   16.9331914547400046
   Mn   Cu   O 
     3     1     8
Direct
  0.0000008608086617  0.5000023303694618  0.4999998822046052
  0.4999973667852160  0.9999994590774364  0.4999998084261890
  0.0000018572767146  0.9999990582951668  0.4999997779754892
  0.4999999608896175  0.4999994511663672  0.4999997884807215
  0.1668112480804425  0.8332308259140433  0.5583039203716069
  0.6722805049327079  0.8442345668828821  0.5572733890242674
  0.1559125454531198  0.3278254350661669  0.5572558026514471
  0.8331887482205573  0.1667690810383888  0.4416958948297420
  0.6714624961832101  0.3286066618744599  0.5571121163390345
  0.3277193124025430  0.1557650354598010  0.4427270564296961
  0.8440877161019031  0.6721746622585769  0.4427444906947215
  0.3285373828653064  0.6713934325972417  0.4428880725724724
 
  0.00000000E+00  0.00000000E+00  0.00000000E+00
  0.00000000E+00  0.00000000E+00  0.00000000E+00
  0.00000000E+00  0.00000000E+00  0.00000000E+00
  0.00000000E+00  0.00000000E+00  0.00000000E+00
  0.00000000E+00  0.00000000E+00  0.00000000E+00
  0.00000000E+00  0.00000000E+00  0.00000000E+00
  0.00000000E+00  0.00000000E+00  0.00000000E+00
  0.00000000E+00  0.00000000E+00  0.00000000E+00
  0.00000000E+00  0.00000000E+00  0.00000000E+00
  0.00000000E+00  0.00000000E+00  0.00000000E+00
  0.00000000E+00  0.00000000E+00  0.00000000E+00
  0.00000000E+00  0.00000000E+00  0.00000000E+00
