CONTCAR\(3)                             
   1.00000000000000     
    13.5726995467999991    0.0000000000000000    0.0000000000000000
     0.0000000000000000   13.5726995467999991    0.0000000000000000
     0.0000000000000000    0.0000000000000000   18.0848999022999983
   Pt   Pb   O    H 
     8    32     2     1
Direct
  0.0026568378810555  0.9947940840180636  0.4993029890950922
  0.2501081930151440  0.2441430615291175  0.4959865766505200
  0.5014628251050384  0.9935063982127853  0.4968790898562196
  0.7518555983561992  0.2449589170522096  0.4971255693907786
 -0.0001574002879834  0.4933210636104456  0.4980027568825890
  0.2510108534398838  0.7443395628689490  0.4999254136270455
  0.5002561730512530  0.4944800784614253  0.4988830434596268
  0.7538141587664249  0.7482581476489469  0.4913764791259203
  0.3353206325379806  0.4097984697939522  0.4163531616538212
  0.0861970859771611  0.3311694525932999  0.4139616336682798
  0.0857506543146492  0.1619562321753912  0.5787311363504136
  0.4164683830084069  0.3277103538270641  0.5783558083548530
  0.1644537316287018  0.4087027976834596  0.5776988016744595
  0.3357543921280594  0.0799318060417731  0.5777063115540506
  0.1668729022672061  0.0782531992515654  0.4167216809421624
  0.4186204377264542  0.1613943187940209  0.4166492926953189
  0.8348642123520409  0.4105949250570664  0.4164464362086578
  0.5878601952628978  0.3307313968383410  0.4171940051017029
  0.5869090753740517  0.1585305889801369  0.5780995578357560
  0.9143234926562408  0.3305234170804296  0.5797373560076072
  0.6637628203740691  0.4090697193181130  0.5824692499245860
  0.8357447224773962  0.0800137279907644  0.5780822428803195
  0.6676175871647749  0.0785652206217026  0.4160952646348738
  0.9186389220553884  0.1612400200233635  0.4166868133975988
  0.3365399839045801  0.9093589021018554  0.4173026111054377
  0.0867841770602111  0.8293726337461524  0.4179684151170812
  0.0859276413360178  0.6591732804873054  0.5779946872140153
  0.4176219692945254  0.8286791589214966  0.5793699988109035
  0.1672429246697054  0.9098628778554948  0.5810857622000982
  0.3405490265781508  0.5733922285920265  0.5896104511003938
  0.1660281802977176  0.5797821162212656  0.4160088471624783
  0.4172385276043837  0.6605230965427542  0.4233934378779167
  0.8397700883878085  0.9130705904361602  0.4134200488647987
  0.5867770426644382  0.8303551922115416  0.4114338242899528
  0.5846357693448234  0.6546058144831374  0.5898894805698602
  0.9168474756423508  0.8283615372032807  0.5778689885100917
  0.6679206186496744  0.9079992987636476  0.5739282560652070
  0.8326194916602913  0.5813397122895581  0.5767564176905181
  0.6660069042342941  0.5804651232656081  0.4205931071459117
  0.9203341349573380  0.6600262523987547  0.4161406352940837
  0.4838099388637805  0.5440097726134221  0.6722441238550855
  0.4715588068304616  0.5786745513326604  0.7493549069120036
  0.4845704973869730  0.5171605930615240  0.7758252722419097
 
  0.00000000E+00  0.00000000E+00  0.00000000E+00
  0.00000000E+00  0.00000000E+00  0.00000000E+00
  0.00000000E+00  0.00000000E+00  0.00000000E+00
  0.00000000E+00  0.00000000E+00  0.00000000E+00
  0.00000000E+00  0.00000000E+00  0.00000000E+00
  0.00000000E+00  0.00000000E+00  0.00000000E+00
  0.00000000E+00  0.00000000E+00  0.00000000E+00
  0.00000000E+00  0.00000000E+00  0.00000000E+00
  0.00000000E+00  0.00000000E+00  0.00000000E+00
  0.00000000E+00  0.00000000E+00  0.00000000E+00
  0.00000000E+00  0.00000000E+00  0.00000000E+00
  0.00000000E+00  0.00000000E+00  0.00000000E+00
  0.00000000E+00  0.00000000E+00  0.00000000E+00
  0.00000000E+00  0.00000000E+00  0.00000000E+00
  0.00000000E+00  0.00000000E+00  0.00000000E+00
  0.00000000E+00  0.00000000E+00  0.00000000E+00
  0.00000000E+00  0.00000000E+00  0.00000000E+00
  0.00000000E+00  0.00000000E+00  0.00000000E+00
  0.00000000E+00  0.00000000E+00  0.00000000E+00
  0.00000000E+00  0.00000000E+00  0.00000000E+00
  0.00000000E+00  0.00000000E+00  0.00000000E+00
  0.00000000E+00  0.00000000E+00  0.00000000E+00
  0.00000000E+00  0.00000000E+00  0.00000000E+00
  0.00000000E+00  0.00000000E+00  0.00000000E+00
  0.00000000E+00  0.00000000E+00  0.00000000E+00
  0.00000000E+00  0.00000000E+00  0.00000000E+00
  0.00000000E+00  0.00000000E+00  0.00000000E+00
  0.00000000E+00  0.00000000E+00  0.00000000E+00
  0.00000000E+00  0.00000000E+00  0.00000000E+00
  0.00000000E+00  0.00000000E+00  0.00000000E+00
  0.00000000E+00  0.00000000E+00  0.00000000E+00
  0.00000000E+00  0.00000000E+00  0.00000000E+00
  0.00000000E+00  0.00000000E+00  0.00000000E+00
  0.00000000E+00  0.00000000E+00  0.00000000E+00
  0.00000000E+00  0.00000000E+00  0.00000000E+00
  0.00000000E+00  0.00000000E+00  0.00000000E+00
  0.00000000E+00  0.00000000E+00  0.00000000E+00
  0.00000000E+00  0.00000000E+00  0.00000000E+00
  0.00000000E+00  0.00000000E+00  0.00000000E+00
  0.00000000E+00  0.00000000E+00  0.00000000E+00
  0.00000000E+00  0.00000000E+00  0.00000000E+00
  0.00000000E+00  0.00000000E+00  0.00000000E+00
  0.00000000E+00  0.00000000E+00  0.00000000E+00
