CONTCAR\(6)                             
   1.00000000000000     
    15.1738004683999996    0.0000000000000000    0.0000000000000000
     7.5869002341999998   13.1408966776000007    0.0000000000000000
     0.0000000000000000    0.0000000000000000   21.6410999297999993
   Tb   Br   O 
    32    32     1
Direct
  0.0833866041516956  0.0831659577160883  0.4366023162146174
  0.1668924887861385  0.1665711617876676  0.5641467882285812
  0.3333402398333008  0.0832766940188935  0.4362578593624932
  0.4171150735077842  0.1661932136524182  0.5641196580006532
  0.5834241449556534  0.0831099445355030  0.4362157696415556
  0.6666585860105154  0.1662124964069433  0.5641303371948072
  0.8332847996780065  0.0832839416479467  0.4362664727613889
  0.9165284259341449  0.1665257582017875  0.5641857121101315
  0.0833908419591257  0.3333924490936007  0.4365781945869465
  0.1667910268675855  0.4167898768315403  0.5648547058590375
  0.3333999795270658  0.3330602687630911  0.4361629167119924
  0.4164581827130504  0.4170448441377897  0.5645896342511149
  0.5835147571790650  0.3330667090733303  0.4361686149908355
  0.6663915258996972  0.4168044161227048  0.5649457470332621
  0.8331673177558631  0.3333869462324053  0.4366005255089415
  0.9165731852034754  0.4168912226315959  0.5641465091165636
  0.0830608490781396  0.5833996998987483  0.4361629653805713
  0.1670465026071161  0.6664569211585365  0.5645903180266479
  0.3333355110958562  0.5833354945049882  0.4356545517888058
  0.4165003560111628  0.6664997938395730  0.5646298187556780
  0.5835899587066390  0.5833832205452540  0.4361658695249568
  0.6666839067147969  0.6671444817732066  0.5641414368045433
  0.8332777107184864  0.5833397076612413  0.4362578351812533
  0.9161939343685646  0.6671146918025515  0.5641197775172114
  0.0830673144688388  0.8335141449819534  0.4361691286213316
  0.1668059623166442  0.9163895180094238  0.5649473296020854
  0.3333834981546291  0.8335896020745184  0.4361663529580223
  0.4171453585057158  0.9166829635461349  0.5641414438811971
  0.5834243267127016  0.8334236549821261  0.4362260659762085
  0.6666722940935085  0.9166718116646674  0.5639601929268613
  0.8331105924800737  0.8334236081332821  0.4362158066618508
  0.9162133387948119  0.9166574695043506  0.5641305006457221
 -0.0000208913863766  0.0001387322808381  0.3473085350408440
  0.9997082283830004 -0.0000282951361281  0.6530105604658091
  0.2497326903240618  0.0002437916826328  0.3472574837580181
  0.2502586068628026  0.0000450149815414  0.6529814163516282
  0.4999674365178631 -0.0000024743975089  0.3471874059818915
  0.5003501274809697  0.9998369932632970  0.6530898091960979
  0.7500037247291828  0.0000029186044315  0.3471647202295294
  0.7498595644035985  0.9998586681406088  0.6530760826901324
 -0.0000229432032439  0.2499754575140536  0.3478470200160416
 -0.0000636324404339  0.2499352353864304  0.6529763807423227
  0.2498279621315152  0.2500216237140906  0.3473125860249330
  0.2503082523421667  0.2496905032694626  0.6529579842152536
  0.5000213858965519  0.2499587583115086  0.3472567435143566
  0.5000146319970364  0.2499914549574243  0.6527125566502077
  0.7501393128531154  0.2499780999361730  0.3473081141546442
  0.7499733179843575  0.2497073635950555  0.6530098017695970
  0.0000125222432753  0.4998535087402495  0.3473062738128742
  0.9996917523616845  0.5003077197881998  0.6529583423201142
  0.2498367010469794  0.4998358697833170  0.3471999357438602
  0.2509253181064946  0.5009232445294188  0.6513353936016785
  0.5003137332608933  0.4998107350755420  0.3472091713382539
  0.4981144189400314  0.5009249865032548  0.6513736929423071
  0.7502443722740589  0.4997326539170555  0.3472570398082856
  0.7500459337611132  0.5002573358289760  0.6529810035435576
 -0.0000403972244862  0.7500214555028087  0.3472570049584386
 -0.0000070899602193  0.7500132688076292  0.6527126555298219
  0.2498111906956308  0.7503135027626049  0.3472093187349891
  0.2509259668834563  0.7481145774054778  0.6513737639585352
  0.4999931341440914  0.7499932311833034  0.3472616424660789
  0.5000274056192704  0.7500261111703617  0.6527411955976716
  0.7499979901285505  0.7499669999095938  0.3471875994699249
  0.7498377564875535  0.7503495011956868  0.6530900198901843
  0.3338125435656343  0.5838893648587731  0.7369778736562774
 
  0.00000000E+00  0.00000000E+00  0.00000000E+00
  0.00000000E+00  0.00000000E+00  0.00000000E+00
  0.00000000E+00  0.00000000E+00  0.00000000E+00
  0.00000000E+00  0.00000000E+00  0.00000000E+00
  0.00000000E+00  0.00000000E+00  0.00000000E+00
  0.00000000E+00  0.00000000E+00  0.00000000E+00
  0.00000000E+00  0.00000000E+00  0.00000000E+00
  0.00000000E+00  0.00000000E+00  0.00000000E+00
  0.00000000E+00  0.00000000E+00  0.00000000E+00
  0.00000000E+00  0.00000000E+00  0.00000000E+00
  0.00000000E+00  0.00000000E+00  0.00000000E+00
  0.00000000E+00  0.00000000E+00  0.00000000E+00
  0.00000000E+00  0.00000000E+00  0.00000000E+00
  0.00000000E+00  0.00000000E+00  0.00000000E+00
  0.00000000E+00  0.00000000E+00  0.00000000E+00
  0.00000000E+00  0.00000000E+00  0.00000000E+00
  0.00000000E+00  0.00000000E+00  0.00000000E+00
  0.00000000E+00  0.00000000E+00  0.00000000E+00
  0.00000000E+00  0.00000000E+00  0.00000000E+00
  0.00000000E+00  0.00000000E+00  0.00000000E+00
  0.00000000E+00  0.00000000E+00  0.00000000E+00
  0.00000000E+00  0.00000000E+00  0.00000000E+00
  0.00000000E+00  0.00000000E+00  0.00000000E+00
  0.00000000E+00  0.00000000E+00  0.00000000E+00
  0.00000000E+00  0.00000000E+00  0.00000000E+00
  0.00000000E+00  0.00000000E+00  0.00000000E+00
  0.00000000E+00  0.00000000E+00  0.00000000E+00
  0.00000000E+00  0.00000000E+00  0.00000000E+00
  0.00000000E+00  0.00000000E+00  0.00000000E+00
  0.00000000E+00  0.00000000E+00  0.00000000E+00
  0.00000000E+00  0.00000000E+00  0.00000000E+00
  0.00000000E+00  0.00000000E+00  0.00000000E+00
  0.00000000E+00  0.00000000E+00  0.00000000E+00
  0.00000000E+00  0.00000000E+00  0.00000000E+00
  0.00000000E+00  0.00000000E+00  0.00000000E+00
  0.00000000E+00  0.00000000E+00  0.00000000E+00
  0.00000000E+00  0.00000000E+00  0.00000000E+00
  0.00000000E+00  0.00000000E+00  0.00000000E+00
  0.00000000E+00  0.00000000E+00  0.00000000E+00
  0.00000000E+00  0.00000000E+00  0.00000000E+00
  0.00000000E+00  0.00000000E+00  0.00000000E+00
  0.00000000E+00  0.00000000E+00  0.00000000E+00
  0.00000000E+00  0.00000000E+00  0.00000000E+00
  0.00000000E+00  0.00000000E+00  0.00000000E+00
  0.00000000E+00  0.00000000E+00  0.00000000E+00
  0.00000000E+00  0.00000000E+00  0.00000000E+00
  0.00000000E+00  0.00000000E+00  0.00000000E+00
  0.00000000E+00  0.00000000E+00  0.00000000E+00
  0.00000000E+00  0.00000000E+00  0.00000000E+00
  0.00000000E+00  0.00000000E+00  0.00000000E+00
  0.00000000E+00  0.00000000E+00  0.00000000E+00
  0.00000000E+00  0.00000000E+00  0.00000000E+00
  0.00000000E+00  0.00000000E+00  0.00000000E+00
  0.00000000E+00  0.00000000E+00  0.00000000E+00
  0.00000000E+00  0.00000000E+00  0.00000000E+00
  0.00000000E+00  0.00000000E+00  0.00000000E+00
  0.00000000E+00  0.00000000E+00  0.00000000E+00
  0.00000000E+00  0.00000000E+00  0.00000000E+00
  0.00000000E+00  0.00000000E+00  0.00000000E+00
  0.00000000E+00  0.00000000E+00  0.00000000E+00
  0.00000000E+00  0.00000000E+00  0.00000000E+00
  0.00000000E+00  0.00000000E+00  0.00000000E+00
  0.00000000E+00  0.00000000E+00  0.00000000E+00
  0.00000000E+00  0.00000000E+00  0.00000000E+00
  0.00000000E+00  0.00000000E+00  0.00000000E+00
