CONTCAR\(4)                             
   1.00000000000000     
    12.3274002075000002    0.0000000000000000    0.0000000000000000
     0.0000000000000000   15.7540998459000008    0.0000000000000000
     0.0000000000000000    0.0000000000000000   20.2700004577999984
   Pr   Br   O    H 
    12    30     2     1
Direct
  0.2547261108934468  0.6276102876580855  0.5076019198746119
  0.0883010808195765  0.3488215275942331  0.4730241752038254
  0.2452786497488691  0.1253902685594691  0.5348132422066575
  0.0885453664861018  0.8540574755434548  0.4690543022849632
  0.5885507377642022  0.6341135883531255  0.5111568283206119
  0.4256071662883703  0.3593499013863600  0.4589945765205048
  0.5877565470502466  0.1140982480875402  0.6007304450529140
  0.4237223966022601  0.8617897895381293  0.4806930081052181
  0.9225746055392086  0.6276339975000804  0.5072569880559387
  0.7506360896225238  0.3593872482054405  0.4588793681077963
  0.9297333203397921  0.1253868858320193  0.5351684802909095
  0.7535729304358597  0.8625249398458784  0.4803229866440052
  0.2650606280458577  0.8863462374344154  0.3748320337954303
  0.0882608111441099  0.1241791908069769  0.6398935788957596
  0.2508691737073026  0.4742675059482223  0.4078935678163850
  0.0886958182920773  0.5030137305200245  0.5654211589928613
  0.0877879361451498  0.0510925883274615  0.4415072768469209
  0.2455153739326552  0.9291397789351894  0.5660984713771249
  0.0886068481949925  0.7271664978303299  0.5841154155567778
  0.2577584715190634  0.2388120268046252  0.4040293127121887
  0.0891931430363206  0.6795924300501088  0.4061383605621838
  0.2710715710166357  0.3091001811349070  0.5711386432583656
  0.5879032799034877  0.8915562380503356  0.3801943127417809
  0.3719023387987889  0.0952707277462765  0.6565628429150803
  0.5881521846509159  0.4890372895801557  0.4073116682571855
  0.4242852443736426  0.5053696327142297  0.5614958889599861
  0.4471918887954331  0.0723825566183062  0.4727900470244563
  0.5886503484776826  0.9175420067699938  0.5854763811688836
  0.4157985367277567  0.7277078433621841  0.5895355961756094
  0.5881460394621132  0.2662018647925375  0.3785597112349763
  0.4225525094274619  0.6876506947489400  0.4117597836195199
  0.5881150338150167  0.3035751208521282  0.5584089672489614
  0.9126849250703462  0.8850553837209603  0.3743339666149469
  0.8031602339081276  0.0975962651412902  0.6551614271145945
  0.9254438991743352  0.4744663594969721  0.4077237647742547
  0.7525021675900565  0.5056858666784323  0.5614395909192352
  0.7326246384188745  0.0689632206541133  0.4699138626490461
  0.9319136200474367  0.9286721704430559  0.5660670158454126
  0.7617533288499551  0.7280405008662220  0.5890693976453477
  0.9186385566404308  0.2393174105522451  0.4038100700152089
  0.7539919862749654  0.6876237246190401  0.4117033129816671
  0.9058376579279726  0.3098077783803548  0.5707307013405710
  0.5878574596446333  0.1946746929735758  0.6873860515230266
  0.5113756551420204  0.2570141413545564  0.7114959246426149
  0.4431838922539635  0.2240637989879927  0.7110953721056673
 
  0.00000000E+00  0.00000000E+00  0.00000000E+00
  0.00000000E+00  0.00000000E+00  0.00000000E+00
  0.00000000E+00  0.00000000E+00  0.00000000E+00
  0.00000000E+00  0.00000000E+00  0.00000000E+00
  0.00000000E+00  0.00000000E+00  0.00000000E+00
  0.00000000E+00  0.00000000E+00  0.00000000E+00
  0.00000000E+00  0.00000000E+00  0.00000000E+00
  0.00000000E+00  0.00000000E+00  0.00000000E+00
  0.00000000E+00  0.00000000E+00  0.00000000E+00
  0.00000000E+00  0.00000000E+00  0.00000000E+00
  0.00000000E+00  0.00000000E+00  0.00000000E+00
  0.00000000E+00  0.00000000E+00  0.00000000E+00
  0.00000000E+00  0.00000000E+00  0.00000000E+00
  0.00000000E+00  0.00000000E+00  0.00000000E+00
  0.00000000E+00  0.00000000E+00  0.00000000E+00
  0.00000000E+00  0.00000000E+00  0.00000000E+00
  0.00000000E+00  0.00000000E+00  0.00000000E+00
  0.00000000E+00  0.00000000E+00  0.00000000E+00
  0.00000000E+00  0.00000000E+00  0.00000000E+00
  0.00000000E+00  0.00000000E+00  0.00000000E+00
  0.00000000E+00  0.00000000E+00  0.00000000E+00
  0.00000000E+00  0.00000000E+00  0.00000000E+00
  0.00000000E+00  0.00000000E+00  0.00000000E+00
  0.00000000E+00  0.00000000E+00  0.00000000E+00
  0.00000000E+00  0.00000000E+00  0.00000000E+00
  0.00000000E+00  0.00000000E+00  0.00000000E+00
  0.00000000E+00  0.00000000E+00  0.00000000E+00
  0.00000000E+00  0.00000000E+00  0.00000000E+00
  0.00000000E+00  0.00000000E+00  0.00000000E+00
  0.00000000E+00  0.00000000E+00  0.00000000E+00
  0.00000000E+00  0.00000000E+00  0.00000000E+00
  0.00000000E+00  0.00000000E+00  0.00000000E+00
  0.00000000E+00  0.00000000E+00  0.00000000E+00
  0.00000000E+00  0.00000000E+00  0.00000000E+00
  0.00000000E+00  0.00000000E+00  0.00000000E+00
  0.00000000E+00  0.00000000E+00  0.00000000E+00
  0.00000000E+00  0.00000000E+00  0.00000000E+00
  0.00000000E+00  0.00000000E+00  0.00000000E+00
  0.00000000E+00  0.00000000E+00  0.00000000E+00
  0.00000000E+00  0.00000000E+00  0.00000000E+00
  0.00000000E+00  0.00000000E+00  0.00000000E+00
  0.00000000E+00  0.00000000E+00  0.00000000E+00
  0.00000000E+00  0.00000000E+00  0.00000000E+00
  0.00000000E+00  0.00000000E+00  0.00000000E+00
  0.00000000E+00  0.00000000E+00  0.00000000E+00
