CONTCAR\(5)                             
   1.00000000000000     
    12.4510002136000004    0.0000000000000000    0.0000000000000000
     6.2255001068000002   10.7828824875000002    0.0000000000000000
     0.0000000000000000    0.0000000000000000   35.7985992432000018
   Ge   Te   As   O    H 
    36    63    18     1     1
Selective dynamics
Direct
  0.0057338852557507  0.0044774098907965  0.6489089940223494   F   F   F
  0.2255691386869785  0.2239683547804532  0.4510769638696033   F   F   F
  0.1152850658666864  0.1130646517871270  0.5495656912241884   F   F   F
  0.0024610937792460  0.0000296106611088  0.3527106061700849   F   F   F
  0.3314222058669571  0.0058799062321953  0.6499640043933681   F   F   F
  0.5591510689156181  0.2219098749241866  0.4520751072812814   F   F   F
  0.4484929515326570  0.1115935235245260  0.5499158583046153   F   F   F
  0.3365576294102368  0.0002235086741109  0.3525816989169996   F   F   F
  0.6684352366487047  0.0046184562256357  0.6490299431192028   F   F   F
  0.8921440521548831  0.2231436079617950  0.4511238220359459   F   F   F
  0.7831329101330624  0.1104162981411463  0.5501707895326646   F   F   F
  0.6692881100378756  0.0006895562932456  0.3526824797253312   F   F   F
  0.0077390054277302  0.3293736960398519  0.6497950778561972   F   F   F
  0.2234966809410537  0.5575049765203843  0.4521731295970071   F   F   F
  0.1134205374955428  0.4467544015696703  0.5500348440528740   F   F   F
  0.0025794778370454  0.3343682708182669  0.3525882396960967   F   F   F
  0.3387021076456733  0.3364048990144468  0.6483309283297487   F   F   F
  0.5585565029567334  0.5564024325340569  0.4518973451664721   F   F   F
  0.4482461138199767  0.4465535380891978  0.5491052168654207   F   F   F
  0.3358179018893281  0.3340918858248685  0.3530291645911845   F   F   F
  0.6698584828903691  0.3366573472259020  0.6480443700422782   F   F   F
  0.8914778515305741  0.5578151130885800  0.4517268870394204   F   F   F
  0.7832506396691059  0.4460383898188596  0.5497532112838570   F   F   F
  0.6681319490657742  0.3343122979809152  0.3533257667924374   F   F   F
  0.0060622691184733  0.6665674635869081  0.6491707116740315   F   F   F
  0.2252163180815145  0.8897914757018697  0.4511405805647541   F   F   F
  0.1127920751638740  0.7810215732951846  0.5501956140269399   F   F   F
  0.0025455016556677  0.6674486753692577  0.3525845561585186   F   F   F
  0.3388237497248952  0.6678435643224603  0.6481583335502066   F   F   F
  0.5596905590918198  0.8894892097490299  0.4516021268609123   F   F   F
  0.4478108295522603  0.7815847712505501  0.5497920904485909   F   F   F
  0.3364388782520820  0.6661364294613179  0.3531897742797980   F   F   F
  0.6699035150221704  0.6684331437629609  0.6485723105705929   F   F   F
  0.8918510094062455  0.8892973940720097  0.4518429383000822   F   F   F
  0.7797370008842321  0.7785293235698560  0.5518723566217432   F   F   F
  0.6692972621435658  0.6673206247199630  0.3527052911492206   F   F   F
  0.9972177877056083  0.9979607622018776  0.7912583229318173   F   F   F
  0.1093041976388491  0.1101464999675486  0.6935127939614247   F   F   F
  0.2170213532799323  0.2187851627025879  0.3043813216974129   F   F   F
  0.9954232545405830  0.9967660601245854  0.2097094855903450   F   F   F
  0.9946598812695413  0.9967348842098147  0.5002825461686058   F   F   F
  0.1053566869602776  0.1071764803956512  0.4022678431269497   F   F   F
  0.2179841502682720  0.2196719557329487  0.5981270373654581   F   F   F
  0.3302416398752470  0.9998054791509716  0.7916583256928789   F   F   F
  0.4413366067839775  0.1099611512184708  0.6966638449837106   F   F   F
  0.5504234258001333  0.2188534110026481  0.3044101168113187   F   F   F
  0.3282425550268542  0.9968661693897047  0.2097131298333608   F   F   F
  0.3280624987532974  0.9969318100344609  0.5000385527481157   F   F   F
  0.4385755633063226  0.1076908334665561  0.4019821361441203   F   F   F
  0.5508572835229160  0.2196587039405458  0.5984375438960541   F   F   F
  0.6634780787678736  0.9990444045352191  0.7912587253164460   F   F   F
  0.7752850904118205  0.1090316924673047  0.6961522253460757   F   F   F
  0.8832886619211635  0.2186827390827801  0.3045335308184036   F   F   F
  0.6619898287275703  0.9967880396865709  0.2095980150570185   F   F   F
  0.6612847999921954  0.9967382239027387  0.4999988265573663   F   F   F
  0.7720555207531703  0.1070686911030094  0.4022686737454748   F   F   F
  0.8833796096392490  0.2204856361800651  0.5979517256641458   F   F   F
  0.9988202172011000  0.3315006255193111  0.7915481172911782   F   F   F
  0.1086430965839682  0.4426258614481853  0.6966253397548527   F   F   F
  0.2170091941425483  0.5523133631660215  0.3043365989859623   F   F   F
  0.9949023070411371  0.3298991538296008  0.2097951110337846   F   F   F
  0.9951140014321780  0.3298856039399709  0.5000804999325013   F   F   F
  0.1050290945822709  0.4411124954878289  0.4021045875973925   F   F   F
  0.2176687332097131  0.5527785474217239  0.5984752267527469   F   F   F
  0.3353071041784403  0.3359332486448849  0.7937168043174410   F   F   F
  0.4411346119004236  0.4427087903467708  0.6964896603239410   F   F   F
  0.5503029467140195  0.5517993060099542  0.3044844521260899   F   F   F
  0.3285386782414008  0.3297475209051370  0.2096137145622663   F   F   F
  0.3276820696202165  0.3303345176490851  0.5003204573334017   F   F   F
  0.4381217875386625  0.4411009995445383  0.4022600321793988   F   F   F
  0.5510065209238206  0.5528268845921573  0.5982785680437530   F   F   F
  0.6686473196087448  0.3294175582685881  0.7921245597225592   F   F   F
  0.7738056706443004  0.4433255075651346  0.6963338189023602   F   F   F
  0.8835908555144698  0.5519447434589111  0.3044179141609860   F   F   F
  0.6620448314554750  0.3301244528768805  0.2095674458432057   F   F   F
  0.6617438658155450  0.3295905616257144  0.5003260949894468   F   F   F
  0.7718719814750230  0.4408302018282271  0.4023263047563646   F   F   F
  0.8838124348315972  0.5537231211614042  0.5978452534204735   F   F   F
  0.9978275355479056  0.6649594504702421  0.7910500742028930   F   F   F
  0.1074395839740347  0.7768617394654669  0.6962212810224813   F   F   F
  0.2170760255095203  0.8851857365802758  0.3044823326326451   F   F   F
  0.9956106540067111  0.6635938460675490  0.2095516136055409   F   F   F
  0.9942857631964728  0.6635898768794561  0.5001010200495912   F   F   F
  0.1050720857310594  0.7741509520755585  0.4022472183671226   F   F   F
  0.2186398072718205  0.8853061144989240  0.5979461003676221   F   F   F
  0.3298280454664706  0.6675389046594304  0.7923043207716063   F   F   F
  0.4423138500933916  0.7746122439452634  0.6965050251637166   F   F   F
  0.5506314416500615  0.8850878665854012  0.3044255871591801   F   F   F
  0.3288581233751415  0.6633517524049068  0.2096633344376215   F   F   F
  0.3275026729451866  0.6637520942284709  0.5004166870153739   F   F   F
  0.4386163682169411  0.7740470157368691  0.4023165565028322   F   F   F
  0.5516542268483846  0.8858701070551049  0.5978200400195135   F   F   F
  0.6647108511728632  0.6656943435828495  0.7911706979762343   F   F   F
  0.7742184845774887  0.7759386809005662  0.6963825435733568   F   F   F
  0.8837314238270721  0.8854515608813429  0.3043250052401234   F   F   F
  0.6618615845977516  0.6630005434200328  0.2096405062029305   F   F   F
  0.6616129566283249  0.6637359488304497  0.4998952227860300   F   F   F
  0.7721612641384681  0.7742078422323786  0.4020034386586318   F   F   F
  0.8839878852762482  0.8858860522668550  0.5982860125133129   F   F   F
  0.1129801803386172  0.1115941230682509  0.2528360152358431   F   F   F
  0.2273583879816599  0.2247411278663733  0.7510458978071100   F   F   F
  0.4472704964574916  0.1122279867484295  0.2527219391187643   F   F   F
  0.5597087376185215  0.2229831439099073  0.7491563549196982   F   F   F
  0.7804538199100435  0.1124169424851189  0.2527531150358797   F   F   F
  0.8867061815871224  0.2270357535266854  0.7508660860956340   F   F   F
  0.1137341794604936  0.4454113780773383  0.2526807767000747   F   F   F
  0.2259614773470915  0.5573168946264744  0.7489454473085218   F   F   F
  0.4474443912534554  0.4452663817946032  0.2527757192849123   F   F   F
  0.5619446624474591  0.5594138191991718  0.7482557052495551   F   F   F
  0.7800184445552674  0.4446829391662703  0.2527265919201298   F   F   F
  0.8948557959815560  0.5578019901768982  0.7477810797745832   F   F   F
  0.1143827785014082  0.7784343622506498  0.2528113072759197   F   F   F
  0.2289664571792400  0.8849611943098026  0.7508570737773397   F   F   F
  0.4467944723518897  0.7789666902684615  0.2526391964965313   F   F   F
  0.5600308755367465  0.8922432464033960  0.7480843759047673   F   F   F
  0.7805871762286145  0.7784847494692286  0.2522762431823793   F   F   F
  0.8942813331801389  0.8914395026759081  0.7472339787609172   F   F   F
  0.4367534136351381  0.4387609271245694  0.8201915629911198   T   T   T
  0.4334308012425794  0.4359382008161887  0.8470550634831921   T   T   T
 
  0.00000000E+00  0.00000000E+00  0.00000000E+00
  0.00000000E+00  0.00000000E+00  0.00000000E+00
  0.00000000E+00  0.00000000E+00  0.00000000E+00
  0.00000000E+00  0.00000000E+00  0.00000000E+00
  0.00000000E+00  0.00000000E+00  0.00000000E+00
  0.00000000E+00  0.00000000E+00  0.00000000E+00
  0.00000000E+00  0.00000000E+00  0.00000000E+00
  0.00000000E+00  0.00000000E+00  0.00000000E+00
  0.00000000E+00  0.00000000E+00  0.00000000E+00
  0.00000000E+00  0.00000000E+00  0.00000000E+00
  0.00000000E+00  0.00000000E+00  0.00000000E+00
  0.00000000E+00  0.00000000E+00  0.00000000E+00
  0.00000000E+00  0.00000000E+00  0.00000000E+00
  0.00000000E+00  0.00000000E+00  0.00000000E+00
  0.00000000E+00  0.00000000E+00  0.00000000E+00
  0.00000000E+00  0.00000000E+00  0.00000000E+00
  0.00000000E+00  0.00000000E+00  0.00000000E+00
  0.00000000E+00  0.00000000E+00  0.00000000E+00
  0.00000000E+00  0.00000000E+00  0.00000000E+00
  0.00000000E+00  0.00000000E+00  0.00000000E+00
  0.00000000E+00  0.00000000E+00  0.00000000E+00
  0.00000000E+00  0.00000000E+00  0.00000000E+00
  0.00000000E+00  0.00000000E+00  0.00000000E+00
  0.00000000E+00  0.00000000E+00  0.00000000E+00
  0.00000000E+00  0.00000000E+00  0.00000000E+00
  0.00000000E+00  0.00000000E+00  0.00000000E+00
  0.00000000E+00  0.00000000E+00  0.00000000E+00
  0.00000000E+00  0.00000000E+00  0.00000000E+00
  0.00000000E+00  0.00000000E+00  0.00000000E+00
  0.00000000E+00  0.00000000E+00  0.00000000E+00
  0.00000000E+00  0.00000000E+00  0.00000000E+00
  0.00000000E+00  0.00000000E+00  0.00000000E+00
  0.00000000E+00  0.00000000E+00  0.00000000E+00
  0.00000000E+00  0.00000000E+00  0.00000000E+00
  0.00000000E+00  0.00000000E+00  0.00000000E+00
  0.00000000E+00  0.00000000E+00  0.00000000E+00
  0.00000000E+00  0.00000000E+00  0.00000000E+00
  0.00000000E+00  0.00000000E+00  0.00000000E+00
  0.00000000E+00  0.00000000E+00  0.00000000E+00
  0.00000000E+00  0.00000000E+00  0.00000000E+00
  0.00000000E+00  0.00000000E+00  0.00000000E+00
  0.00000000E+00  0.00000000E+00  0.00000000E+00
  0.00000000E+00  0.00000000E+00  0.00000000E+00
  0.00000000E+00  0.00000000E+00  0.00000000E+00
  0.00000000E+00  0.00000000E+00  0.00000000E+00
  0.00000000E+00  0.00000000E+00  0.00000000E+00
  0.00000000E+00  0.00000000E+00  0.00000000E+00
  0.00000000E+00  0.00000000E+00  0.00000000E+00
  0.00000000E+00  0.00000000E+00  0.00000000E+00
  0.00000000E+00  0.00000000E+00  0.00000000E+00
  0.00000000E+00  0.00000000E+00  0.00000000E+00
  0.00000000E+00  0.00000000E+00  0.00000000E+00
  0.00000000E+00  0.00000000E+00  0.00000000E+00
  0.00000000E+00  0.00000000E+00  0.00000000E+00
  0.00000000E+00  0.00000000E+00  0.00000000E+00
  0.00000000E+00  0.00000000E+00  0.00000000E+00
  0.00000000E+00  0.00000000E+00  0.00000000E+00
  0.00000000E+00  0.00000000E+00  0.00000000E+00
  0.00000000E+00  0.00000000E+00  0.00000000E+00
  0.00000000E+00  0.00000000E+00  0.00000000E+00
  0.00000000E+00  0.00000000E+00  0.00000000E+00
  0.00000000E+00  0.00000000E+00  0.00000000E+00
  0.00000000E+00  0.00000000E+00  0.00000000E+00
  0.00000000E+00  0.00000000E+00  0.00000000E+00
  0.00000000E+00  0.00000000E+00  0.00000000E+00
  0.00000000E+00  0.00000000E+00  0.00000000E+00
  0.00000000E+00  0.00000000E+00  0.00000000E+00
  0.00000000E+00  0.00000000E+00  0.00000000E+00
  0.00000000E+00  0.00000000E+00  0.00000000E+00
  0.00000000E+00  0.00000000E+00  0.00000000E+00
  0.00000000E+00  0.00000000E+00  0.00000000E+00
  0.00000000E+00  0.00000000E+00  0.00000000E+00
  0.00000000E+00  0.00000000E+00  0.00000000E+00
  0.00000000E+00  0.00000000E+00  0.00000000E+00
  0.00000000E+00  0.00000000E+00  0.00000000E+00
  0.00000000E+00  0.00000000E+00  0.00000000E+00
  0.00000000E+00  0.00000000E+00  0.00000000E+00
  0.00000000E+00  0.00000000E+00  0.00000000E+00
  0.00000000E+00  0.00000000E+00  0.00000000E+00
  0.00000000E+00  0.00000000E+00  0.00000000E+00
  0.00000000E+00  0.00000000E+00  0.00000000E+00
  0.00000000E+00  0.00000000E+00  0.00000000E+00
  0.00000000E+00  0.00000000E+00  0.00000000E+00
  0.00000000E+00  0.00000000E+00  0.00000000E+00
  0.00000000E+00  0.00000000E+00  0.00000000E+00
  0.00000000E+00  0.00000000E+00  0.00000000E+00
  0.00000000E+00  0.00000000E+00  0.00000000E+00
  0.00000000E+00  0.00000000E+00  0.00000000E+00
  0.00000000E+00  0.00000000E+00  0.00000000E+00
  0.00000000E+00  0.00000000E+00  0.00000000E+00
  0.00000000E+00  0.00000000E+00  0.00000000E+00
  0.00000000E+00  0.00000000E+00  0.00000000E+00
  0.00000000E+00  0.00000000E+00  0.00000000E+00
  0.00000000E+00  0.00000000E+00  0.00000000E+00
  0.00000000E+00  0.00000000E+00  0.00000000E+00
  0.00000000E+00  0.00000000E+00  0.00000000E+00
  0.00000000E+00  0.00000000E+00  0.00000000E+00
  0.00000000E+00  0.00000000E+00  0.00000000E+00
  0.00000000E+00  0.00000000E+00  0.00000000E+00
  0.00000000E+00  0.00000000E+00  0.00000000E+00
  0.00000000E+00  0.00000000E+00  0.00000000E+00
  0.00000000E+00  0.00000000E+00  0.00000000E+00
  0.00000000E+00  0.00000000E+00  0.00000000E+00
  0.00000000E+00  0.00000000E+00  0.00000000E+00
  0.00000000E+00  0.00000000E+00  0.00000000E+00
  0.00000000E+00  0.00000000E+00  0.00000000E+00
  0.00000000E+00  0.00000000E+00  0.00000000E+00
  0.00000000E+00  0.00000000E+00  0.00000000E+00
  0.00000000E+00  0.00000000E+00  0.00000000E+00
  0.00000000E+00  0.00000000E+00  0.00000000E+00
  0.00000000E+00  0.00000000E+00  0.00000000E+00
  0.00000000E+00  0.00000000E+00  0.00000000E+00
  0.00000000E+00  0.00000000E+00  0.00000000E+00
  0.00000000E+00  0.00000000E+00  0.00000000E+00
  0.00000000E+00  0.00000000E+00  0.00000000E+00
  0.00000000E+00  0.00000000E+00  0.00000000E+00
  0.00000000E+00  0.00000000E+00  0.00000000E+00
  0.00000000E+00  0.00000000E+00  0.00000000E+00
  0.00000000E+00  0.00000000E+00  0.00000000E+00
