CONTCAR\(3)                             
   1.00000000000000     
    14.7170000075999994    0.0000000000000000    0.0000000000000000
    -7.3585000037999997   12.7452958741000000    0.0000000000000000
     0.0000000000000000    0.0000000000000000   17.8581008911000012
   Co   Br   O    H 
    16    32     1     1
Direct
  0.0000532202758284 -0.0001016793978744  0.5002415019491089
  0.2496985950632300 -0.0006195931983785  0.4999226716095169
  0.4998481777121959 -0.0001213563017012  0.5002223824055383
  0.7499680462079028 -0.0000067107586397  0.5001755853110333
  0.0000052340180210  0.2500392267726378  0.5001592874247659
  0.2450702343683652  0.2443967422241781  0.4989142073343200
  0.4994232338845161  0.2444633975880958  0.4989088984073785
  0.7500236696339903  0.2500034803369068  0.5001696013634762
  0.0000886993324233  0.5001552472034182  0.5002232821858614
  0.2450232405518019  0.5005294283226674  0.4989573522410173
  0.4997930050354960  0.5004564870378954  0.4944336399875025
  0.7554954112791424  0.5005470740616728  0.4989594678627216
  0.0005674086232877  0.7502698383403701  0.4999151404842683
  0.2497893635964467  0.7502090115915553  0.4998926695207210
  0.4994538606185500  0.7550297587861411  0.4989390722706494
  0.7555753214654832  0.7549296069263440  0.4989062759234863
  0.0835770052243739  0.1671727819027430  0.4179299967258902
  0.1658466379370910  0.0820927409404047  0.5822149355504183
  0.3328316956530396  0.1655269228149688  0.4168330411697411
  0.4163223809291229  0.0822448751435970  0.5821793853632709
  0.5835892023155471  0.1672209449267166  0.4179526472209323
  0.6665785655580900  0.0832843231873437  0.5812070649829174
  0.8333381139852122  0.1666533605178294  0.4185523725160887
  0.9167239246557656  0.0832795571006446  0.5812081599824164
  0.0835675270433639  0.4163698462230685  0.4178912440012617
  0.1673539204776410  0.3337580640708344  0.5820465799784145
  0.3427607007964801  0.4215178791451181  0.4212946922126616
  0.4135314550889360  0.3281242663789480  0.5697182444306556
  0.5785695097228303  0.4214416186364035  0.4215163261300253
  0.6662687855307886  0.3337795310490183  0.5819783337107316
  0.8327690807340644  0.4164089336540167  0.4179445958954916
  0.9167143799241003  0.3334172021083698  0.5812126752586777
  0.0832326418106010  0.6665171969301056  0.4186520442275855
  0.1658416083057335  0.5836886793227363  0.5821977393081798
  0.3325005646619187  0.6674113042565052  0.4164804099367471
  0.4141482639763807  0.5862075262887021  0.5691760642607051
  0.5785124886469082  0.6572538335181971  0.4212515966993612
  0.6720505810138857  0.5867593111344688  0.5695751282772007
  0.8345589875173487  0.6671996101182106  0.4167632026944285
  0.9177697414630104  0.5836950058783864  0.5821796951780182
  0.0832451670481237  0.9167655424933555  0.4186159353173579
  0.1666698147925333  0.8333305341204017  0.5815286984955886
  0.3335057652795472  0.9167856262535262  0.4186374349416879
  0.4162871381137214  0.8342027288367390  0.5822199803974796
  0.5836363009303784  0.9164567294176125  0.4178722147116005
  0.6663150949982267  0.8327028471820180  0.5820526963380903
  0.8328138644342631  0.9164175162489526  0.4179240706858777
  0.9179551088900542  0.8342001310468706  0.5822284810436882
  0.5014729274781847  0.4969642253936635  0.6519021990301729
  0.4996338933960414  0.4978478742242868  0.7066906660452881
 
  0.00000000E+00  0.00000000E+00  0.00000000E+00
  0.00000000E+00  0.00000000E+00  0.00000000E+00
  0.00000000E+00  0.00000000E+00  0.00000000E+00
  0.00000000E+00  0.00000000E+00  0.00000000E+00
  0.00000000E+00  0.00000000E+00  0.00000000E+00
  0.00000000E+00  0.00000000E+00  0.00000000E+00
  0.00000000E+00  0.00000000E+00  0.00000000E+00
  0.00000000E+00  0.00000000E+00  0.00000000E+00
  0.00000000E+00  0.00000000E+00  0.00000000E+00
  0.00000000E+00  0.00000000E+00  0.00000000E+00
  0.00000000E+00  0.00000000E+00  0.00000000E+00
  0.00000000E+00  0.00000000E+00  0.00000000E+00
  0.00000000E+00  0.00000000E+00  0.00000000E+00
  0.00000000E+00  0.00000000E+00  0.00000000E+00
  0.00000000E+00  0.00000000E+00  0.00000000E+00
  0.00000000E+00  0.00000000E+00  0.00000000E+00
  0.00000000E+00  0.00000000E+00  0.00000000E+00
  0.00000000E+00  0.00000000E+00  0.00000000E+00
  0.00000000E+00  0.00000000E+00  0.00000000E+00
  0.00000000E+00  0.00000000E+00  0.00000000E+00
  0.00000000E+00  0.00000000E+00  0.00000000E+00
  0.00000000E+00  0.00000000E+00  0.00000000E+00
  0.00000000E+00  0.00000000E+00  0.00000000E+00
  0.00000000E+00  0.00000000E+00  0.00000000E+00
  0.00000000E+00  0.00000000E+00  0.00000000E+00
  0.00000000E+00  0.00000000E+00  0.00000000E+00
  0.00000000E+00  0.00000000E+00  0.00000000E+00
  0.00000000E+00  0.00000000E+00  0.00000000E+00
  0.00000000E+00  0.00000000E+00  0.00000000E+00
  0.00000000E+00  0.00000000E+00  0.00000000E+00
  0.00000000E+00  0.00000000E+00  0.00000000E+00
  0.00000000E+00  0.00000000E+00  0.00000000E+00
  0.00000000E+00  0.00000000E+00  0.00000000E+00
  0.00000000E+00  0.00000000E+00  0.00000000E+00
  0.00000000E+00  0.00000000E+00  0.00000000E+00
  0.00000000E+00  0.00000000E+00  0.00000000E+00
  0.00000000E+00  0.00000000E+00  0.00000000E+00
  0.00000000E+00  0.00000000E+00  0.00000000E+00
  0.00000000E+00  0.00000000E+00  0.00000000E+00
  0.00000000E+00  0.00000000E+00  0.00000000E+00
  0.00000000E+00  0.00000000E+00  0.00000000E+00
  0.00000000E+00  0.00000000E+00  0.00000000E+00
  0.00000000E+00  0.00000000E+00  0.00000000E+00
  0.00000000E+00  0.00000000E+00  0.00000000E+00
  0.00000000E+00  0.00000000E+00  0.00000000E+00
  0.00000000E+00  0.00000000E+00  0.00000000E+00
  0.00000000E+00  0.00000000E+00  0.00000000E+00
  0.00000000E+00  0.00000000E+00  0.00000000E+00
  0.00000000E+00  0.00000000E+00  0.00000000E+00
  0.00000000E+00  0.00000000E+00  0.00000000E+00
