 Cu6 O2 F10                             
   1.00000000000000     
     4.2779257963515729    0.0000000000000000    0.0000000000000000
     0.1528164535394034    5.2018966553277775    0.0000000000000000
     0.0000000000000000    0.0000000000000000   21.7612954622959975
   Cu   O    F 
     6     2    10
Direct
  0.0224617383884294  0.7100163095791743  0.6354408309966288
  0.5286042735103464  0.1860897515618802  0.6337033390503706
  0.9775590192096217  0.2899770837651090  0.3645603269598041
  0.4714105893950560  0.8139084049714000  0.3662959746680059
  0.4999917533392235  0.4999976049133821  0.4999998283942517
  0.9999799713768169  0.0000008470214823  0.5000010071677323
  0.1661058491921921  0.0123305835546290  0.4033713701713140
  0.8338663687365084  0.9877327102438898  0.5966309237833229
  0.2159619932353394  0.4093235988057131  0.6711336814018694
  0.7840709819448080  0.5906323526220376  0.3288703714466834
  0.3420678157343389  0.9046861135577018  0.6723795955750305
  0.6580092413177994  0.0953442447374329  0.3276186165940302
  0.2893577867676171  0.5088979438541443  0.3966140483374474
  0.8176856523869986  0.3064695632107757  0.4641870554705960
  0.6724935266266741  0.7984844238817175  0.4653952176368819
  0.3274832958680562  0.2015148435546621  0.5346037823194436
  0.7106014052082017  0.4910727491336715  0.6033851299626676
  0.1822887377619935  0.6935208710312324  0.5358089000639055
 
  0.00000000E+00  0.00000000E+00  0.00000000E+00
  0.00000000E+00  0.00000000E+00  0.00000000E+00
  0.00000000E+00  0.00000000E+00  0.00000000E+00
  0.00000000E+00  0.00000000E+00  0.00000000E+00
  0.00000000E+00  0.00000000E+00  0.00000000E+00
  0.00000000E+00  0.00000000E+00  0.00000000E+00
  0.00000000E+00  0.00000000E+00  0.00000000E+00
  0.00000000E+00  0.00000000E+00  0.00000000E+00
  0.00000000E+00  0.00000000E+00  0.00000000E+00
  0.00000000E+00  0.00000000E+00  0.00000000E+00
  0.00000000E+00  0.00000000E+00  0.00000000E+00
  0.00000000E+00  0.00000000E+00  0.00000000E+00
  0.00000000E+00  0.00000000E+00  0.00000000E+00
  0.00000000E+00  0.00000000E+00  0.00000000E+00
  0.00000000E+00  0.00000000E+00  0.00000000E+00
  0.00000000E+00  0.00000000E+00  0.00000000E+00
  0.00000000E+00  0.00000000E+00  0.00000000E+00
  0.00000000E+00  0.00000000E+00  0.00000000E+00
