G   47   38    1    0.005     # Parameters to Generate KPOINTS (Don't Edit This Line)
     894
Reciprocal lattice
    0.000000000000    0.000000000000    0.000000000000       1
    0.021276595745    0.000000000000    0.000000000000       2
    0.042553191489    0.000000000000    0.000000000000       2
    0.063829787234    0.000000000000    0.000000000000       2
    0.085106382979    0.000000000000    0.000000000000       2
    0.106382978723    0.000000000000    0.000000000000       2
    0.127659574468    0.000000000000    0.000000000000       2
    0.148936170213    0.000000000000    0.000000000000       2
    0.170212765957    0.000000000000    0.000000000000       2
    0.191489361702    0.000000000000    0.000000000000       2
    0.212765957447    0.000000000000    0.000000000000       2
    0.234042553191    0.000000000000    0.000000000000       2
    0.255319148936    0.000000000000    0.000000000000       2
    0.276595744681    0.000000000000    0.000000000000       2
    0.297872340426    0.000000000000    0.000000000000       2
    0.319148936170    0.000000000000    0.000000000000       2
    0.340425531915    0.000000000000    0.000000000000       2
    0.361702127660    0.000000000000    0.000000000000       2
    0.382978723404    0.000000000000    0.000000000000       2
    0.404255319149    0.000000000000    0.000000000000       2
    0.425531914894    0.000000000000    0.000000000000       2
    0.446808510638    0.000000000000    0.000000000000       2
    0.468085106383    0.000000000000    0.000000000000       2
    0.489361702128    0.000000000000    0.000000000000       2
    0.000000000000    0.026315789474    0.000000000000       2
    0.021276595745    0.026315789474    0.000000000000       2
    0.042553191489    0.026315789474    0.000000000000       2
    0.063829787234    0.026315789474    0.000000000000       2
    0.085106382979    0.026315789474    0.000000000000       2
    0.106382978723    0.026315789474    0.000000000000       2
    0.127659574468    0.026315789474    0.000000000000       2
    0.148936170213    0.026315789474    0.000000000000       2
    0.170212765957    0.026315789474    0.000000000000       2
    0.191489361702    0.026315789474    0.000000000000       2
    0.212765957447    0.026315789474    0.000000000000       2
    0.234042553191    0.026315789474    0.000000000000       2
    0.255319148936    0.026315789474    0.000000000000       2
    0.276595744681    0.026315789474    0.000000000000       2
    0.297872340426    0.026315789474    0.000000000000       2
    0.319148936170    0.026315789474    0.000000000000       2
    0.340425531915    0.026315789474    0.000000000000       2
    0.361702127660    0.026315789474    0.000000000000       2
    0.382978723404    0.026315789474    0.000000000000       2
    0.404255319149    0.026315789474    0.000000000000       2
    0.425531914894    0.026315789474    0.000000000000       2
    0.446808510638    0.026315789474    0.000000000000       2
    0.468085106383    0.026315789474    0.000000000000       2
    0.489361702128    0.026315789474    0.000000000000       2
   -0.489361702128    0.026315789474    0.000000000000       2
   -0.468085106383    0.026315789474    0.000000000000       2
   -0.446808510638    0.026315789474    0.000000000000       2
   -0.425531914894    0.026315789474    0.000000000000       2
   -0.404255319149    0.026315789474    0.000000000000       2
   -0.382978723404    0.026315789474    0.000000000000       2
   -0.361702127660    0.026315789474    0.000000000000       2
   -0.340425531915    0.026315789474    0.000000000000       2
   -0.319148936170    0.026315789474    0.000000000000       2
   -0.297872340426    0.026315789474    0.000000000000       2
   -0.276595744681    0.026315789474    0.000000000000       2
   -0.255319148936    0.026315789474    0.000000000000       2
   -0.234042553191    0.026315789474    0.000000000000       2
   -0.212765957447    0.026315789474    0.000000000000       2
   -0.191489361702    0.026315789474    0.000000000000       2
   -0.170212765957    0.026315789474    0.000000000000       2
   -0.148936170213    0.026315789474    0.000000000000       2
   -0.127659574468    0.026315789474    0.000000000000       2
   -0.106382978723    0.026315789474    0.000000000000       2
   -0.085106382979    0.026315789474    0.000000000000       2
   -0.063829787234    0.026315789474    0.000000000000       2
   -0.042553191489    0.026315789474    0.000000000000       2
   -0.021276595745    0.026315789474    0.000000000000       2
    0.000000000000    0.052631578947    0.000000000000       2
    0.021276595745    0.052631578947    0.000000000000       2
    0.042553191489    0.052631578947    0.000000000000       2
    0.063829787234    0.052631578947    0.000000000000       2
    0.085106382979    0.052631578947    0.000000000000       2
    0.106382978723    0.052631578947    0.000000000000       2
    0.127659574468    0.052631578947    0.000000000000       2
    0.148936170213    0.052631578947    0.000000000000       2
    0.170212765957    0.052631578947    0.000000000000       2
    0.191489361702    0.052631578947    0.000000000000       2
    0.212765957447    0.052631578947    0.000000000000       2
    0.234042553191    0.052631578947    0.000000000000       2
    0.255319148936    0.052631578947    0.000000000000       2
    0.276595744681    0.052631578947    0.000000000000       2
    0.297872340426    0.052631578947    0.000000000000       2
    0.319148936170    0.052631578947    0.000000000000       2
    0.340425531915    0.052631578947    0.000000000000       2
    0.361702127660    0.052631578947    0.000000000000       2
    0.382978723404    0.052631578947    0.000000000000       2
    0.404255319149    0.052631578947    0.000000000000       2
    0.425531914894    0.052631578947    0.000000000000       2
    0.446808510638    0.052631578947    0.000000000000       2
    0.468085106383    0.052631578947    0.000000000000       2
    0.489361702128    0.052631578947    0.000000000000       2
   -0.489361702128    0.052631578947    0.000000000000       2
   -0.468085106383    0.052631578947    0.000000000000       2
   -0.446808510638    0.052631578947    0.000000000000       2
   -0.425531914894    0.052631578947    0.000000000000       2
   -0.404255319149    0.052631578947    0.000000000000       2
   -0.382978723404    0.052631578947    0.000000000000       2
   -0.361702127660    0.052631578947    0.000000000000       2
   -0.340425531915    0.052631578947    0.000000000000       2
   -0.319148936170    0.052631578947    0.000000000000       2
   -0.297872340426    0.052631578947    0.000000000000       2
   -0.276595744681    0.052631578947    0.000000000000       2
   -0.255319148936    0.052631578947    0.000000000000       2
   -0.234042553191    0.052631578947    0.000000000000       2
   -0.212765957447    0.052631578947    0.000000000000       2
   -0.191489361702    0.052631578947    0.000000000000       2
   -0.170212765957    0.052631578947    0.000000000000       2
   -0.148936170213    0.052631578947    0.000000000000       2
   -0.127659574468    0.052631578947    0.000000000000       2
   -0.106382978723    0.052631578947    0.000000000000       2
   -0.085106382979    0.052631578947    0.000000000000       2
   -0.063829787234    0.052631578947    0.000000000000       2
   -0.042553191489    0.052631578947    0.000000000000       2
   -0.021276595745    0.052631578947    0.000000000000       2
    0.000000000000    0.078947368421    0.000000000000       2
    0.021276595745    0.078947368421    0.000000000000       2
    0.042553191489    0.078947368421    0.000000000000       2
    0.063829787234    0.078947368421    0.000000000000       2
    0.085106382979    0.078947368421    0.000000000000       2
    0.106382978723    0.078947368421    0.000000000000       2
    0.127659574468    0.078947368421    0.000000000000       2
    0.148936170213    0.078947368421    0.000000000000       2
    0.170212765957    0.078947368421    0.000000000000       2
    0.191489361702    0.078947368421    0.000000000000       2
    0.212765957447    0.078947368421    0.000000000000       2
    0.234042553191    0.078947368421    0.000000000000       2
    0.255319148936    0.078947368421    0.000000000000       2
    0.276595744681    0.078947368421    0.000000000000       2
    0.297872340426    0.078947368421    0.000000000000       2
    0.319148936170    0.078947368421    0.000000000000       2
    0.340425531915    0.078947368421    0.000000000000       2
    0.361702127660    0.078947368421    0.000000000000       2
    0.382978723404    0.078947368421    0.000000000000       2
    0.404255319149    0.078947368421    0.000000000000       2
    0.425531914894    0.078947368421    0.000000000000       2
    0.446808510638    0.078947368421    0.000000000000       2
    0.468085106383    0.078947368421    0.000000000000       2
    0.489361702128    0.078947368421    0.000000000000       2
   -0.489361702128    0.078947368421    0.000000000000       2
   -0.468085106383    0.078947368421    0.000000000000       2
   -0.446808510638    0.078947368421    0.000000000000       2
   -0.425531914894    0.078947368421    0.000000000000       2
   -0.404255319149    0.078947368421    0.000000000000       2
   -0.382978723404    0.078947368421    0.000000000000       2
   -0.361702127660    0.078947368421    0.000000000000       2
   -0.340425531915    0.078947368421    0.000000000000       2
   -0.319148936170    0.078947368421    0.000000000000       2
   -0.297872340426    0.078947368421    0.000000000000       2
   -0.276595744681    0.078947368421    0.000000000000       2
   -0.255319148936    0.078947368421    0.000000000000       2
   -0.234042553191    0.078947368421    0.000000000000       2
   -0.212765957447    0.078947368421    0.000000000000       2
   -0.191489361702    0.078947368421    0.000000000000       2
   -0.170212765957    0.078947368421    0.000000000000       2
   -0.148936170213    0.078947368421    0.000000000000       2
   -0.127659574468    0.078947368421    0.000000000000       2
   -0.106382978723    0.078947368421    0.000000000000       2
   -0.085106382979    0.078947368421    0.000000000000       2
   -0.063829787234    0.078947368421    0.000000000000       2
   -0.042553191489    0.078947368421    0.000000000000       2
   -0.021276595745    0.078947368421    0.000000000000       2
    0.000000000000    0.105263157895    0.000000000000       2
    0.021276595745    0.105263157895    0.000000000000       2
    0.042553191489    0.105263157895    0.000000000000       2
    0.063829787234    0.105263157895    0.000000000000       2
    0.085106382979    0.105263157895    0.000000000000       2
    0.106382978723    0.105263157895    0.000000000000       2
    0.127659574468    0.105263157895    0.000000000000       2
    0.148936170213    0.105263157895    0.000000000000       2
    0.170212765957    0.105263157895    0.000000000000       2
    0.191489361702    0.105263157895    0.000000000000       2
    0.212765957447    0.105263157895    0.000000000000       2
    0.234042553191    0.105263157895    0.000000000000       2
    0.255319148936    0.105263157895    0.000000000000       2
    0.276595744681    0.105263157895    0.000000000000       2
    0.297872340426    0.105263157895    0.000000000000       2
    0.319148936170    0.105263157895    0.000000000000       2
    0.340425531915    0.105263157895    0.000000000000       2
    0.361702127660    0.105263157895    0.000000000000       2
    0.382978723404    0.105263157895    0.000000000000       2
    0.404255319149    0.105263157895    0.000000000000       2
    0.425531914894    0.105263157895    0.000000000000       2
    0.446808510638    0.105263157895    0.000000000000       2
    0.468085106383    0.105263157895    0.000000000000       2
    0.489361702128    0.105263157895    0.000000000000       2
   -0.489361702128    0.105263157895    0.000000000000       2
   -0.468085106383    0.105263157895    0.000000000000       2
   -0.446808510638    0.105263157895    0.000000000000       2
   -0.425531914894    0.105263157895    0.000000000000       2
   -0.404255319149    0.105263157895    0.000000000000       2
   -0.382978723404    0.105263157895    0.000000000000       2
   -0.361702127660    0.105263157895    0.000000000000       2
   -0.340425531915    0.105263157895    0.000000000000       2
   -0.319148936170    0.105263157895    0.000000000000       2
   -0.297872340426    0.105263157895    0.000000000000       2
   -0.276595744681    0.105263157895    0.000000000000       2
   -0.255319148936    0.105263157895    0.000000000000       2
   -0.234042553191    0.105263157895    0.000000000000       2
   -0.212765957447    0.105263157895    0.000000000000       2
   -0.191489361702    0.105263157895    0.000000000000       2
   -0.170212765957    0.105263157895    0.000000000000       2
   -0.148936170213    0.105263157895    0.000000000000       2
   -0.127659574468    0.105263157895    0.000000000000       2
   -0.106382978723    0.105263157895    0.000000000000       2
   -0.085106382979    0.105263157895    0.000000000000       2
   -0.063829787234    0.105263157895    0.000000000000       2
   -0.042553191489    0.105263157895    0.000000000000       2
   -0.021276595745    0.105263157895    0.000000000000       2
    0.000000000000    0.131578947368    0.000000000000       2
    0.021276595745    0.131578947368    0.000000000000       2
    0.042553191489    0.131578947368    0.000000000000       2
    0.063829787234    0.131578947368    0.000000000000       2
    0.085106382979    0.131578947368    0.000000000000       2
    0.106382978723    0.131578947368    0.000000000000       2
    0.127659574468    0.131578947368    0.000000000000       2
    0.148936170213    0.131578947368    0.000000000000       2
    0.170212765957    0.131578947368    0.000000000000       2
    0.191489361702    0.131578947368    0.000000000000       2
    0.212765957447    0.131578947368    0.000000000000       2
    0.234042553191    0.131578947368    0.000000000000       2
    0.255319148936    0.131578947368    0.000000000000       2
    0.276595744681    0.131578947368    0.000000000000       2
    0.297872340426    0.131578947368    0.000000000000       2
    0.319148936170    0.131578947368    0.000000000000       2
    0.340425531915    0.131578947368    0.000000000000       2
    0.361702127660    0.131578947368    0.000000000000       2
    0.382978723404    0.131578947368    0.000000000000       2
    0.404255319149    0.131578947368    0.000000000000       2
    0.425531914894    0.131578947368    0.000000000000       2
    0.446808510638    0.131578947368    0.000000000000       2
    0.468085106383    0.131578947368    0.000000000000       2
    0.489361702128    0.131578947368    0.000000000000       2
   -0.489361702128    0.131578947368    0.000000000000       2
   -0.468085106383    0.131578947368    0.000000000000       2
   -0.446808510638    0.131578947368    0.000000000000       2
   -0.425531914894    0.131578947368    0.000000000000       2
   -0.404255319149    0.131578947368    0.000000000000       2
   -0.382978723404    0.131578947368    0.000000000000       2
   -0.361702127660    0.131578947368    0.000000000000       2
   -0.340425531915    0.131578947368    0.000000000000       2
   -0.319148936170    0.131578947368    0.000000000000       2
   -0.297872340426    0.131578947368    0.000000000000       2
   -0.276595744681    0.131578947368    0.000000000000       2
   -0.255319148936    0.131578947368    0.000000000000       2
   -0.234042553191    0.131578947368    0.000000000000       2
   -0.212765957447    0.131578947368    0.000000000000       2
   -0.191489361702    0.131578947368    0.000000000000       2
   -0.170212765957    0.131578947368    0.000000000000       2
   -0.148936170213    0.131578947368    0.000000000000       2
   -0.127659574468    0.131578947368    0.000000000000       2
   -0.106382978723    0.131578947368    0.000000000000       2
   -0.085106382979    0.131578947368    0.000000000000       2
   -0.063829787234    0.131578947368    0.000000000000       2
   -0.042553191489    0.131578947368    0.000000000000       2
   -0.021276595745    0.131578947368    0.000000000000       2
    0.000000000000    0.157894736842    0.000000000000       2
    0.021276595745    0.157894736842    0.000000000000       2
    0.042553191489    0.157894736842    0.000000000000       2
    0.063829787234    0.157894736842    0.000000000000       2
    0.085106382979    0.157894736842    0.000000000000       2
    0.106382978723    0.157894736842    0.000000000000       2
    0.127659574468    0.157894736842    0.000000000000       2
    0.148936170213    0.157894736842    0.000000000000       2
    0.170212765957    0.157894736842    0.000000000000       2
    0.191489361702    0.157894736842    0.000000000000       2
    0.212765957447    0.157894736842    0.000000000000       2
    0.234042553191    0.157894736842    0.000000000000       2
    0.255319148936    0.157894736842    0.000000000000       2
    0.276595744681    0.157894736842    0.000000000000       2
    0.297872340426    0.157894736842    0.000000000000       2
    0.319148936170    0.157894736842    0.000000000000       2
    0.340425531915    0.157894736842    0.000000000000       2
    0.361702127660    0.157894736842    0.000000000000       2
    0.382978723404    0.157894736842    0.000000000000       2
    0.404255319149    0.157894736842    0.000000000000       2
    0.425531914894    0.157894736842    0.000000000000       2
    0.446808510638    0.157894736842    0.000000000000       2
    0.468085106383    0.157894736842    0.000000000000       2
    0.489361702128    0.157894736842    0.000000000000       2
   -0.489361702128    0.157894736842    0.000000000000       2
   -0.468085106383    0.157894736842    0.000000000000       2
   -0.446808510638    0.157894736842    0.000000000000       2
   -0.425531914894    0.157894736842    0.000000000000       2
   -0.404255319149    0.157894736842    0.000000000000       2
   -0.382978723404    0.157894736842    0.000000000000       2
   -0.361702127660    0.157894736842    0.000000000000       2
   -0.340425531915    0.157894736842    0.000000000000       2
   -0.319148936170    0.157894736842    0.000000000000       2
   -0.297872340426    0.157894736842    0.000000000000       2
   -0.276595744681    0.157894736842    0.000000000000       2
   -0.255319148936    0.157894736842    0.000000000000       2
   -0.234042553191    0.157894736842    0.000000000000       2
   -0.212765957447    0.157894736842    0.000000000000       2
   -0.191489361702    0.157894736842    0.000000000000       2
   -0.170212765957    0.157894736842    0.000000000000       2
   -0.148936170213    0.157894736842    0.000000000000       2
   -0.127659574468    0.157894736842    0.000000000000       2
   -0.106382978723    0.157894736842    0.000000000000       2
   -0.085106382979    0.157894736842    0.000000000000       2
   -0.063829787234    0.157894736842    0.000000000000       2
   -0.042553191489    0.157894736842    0.000000000000       2
   -0.021276595745    0.157894736842    0.000000000000       2
    0.000000000000    0.184210526316    0.000000000000       2
    0.021276595745    0.184210526316    0.000000000000       2
    0.042553191489    0.184210526316    0.000000000000       2
    0.063829787234    0.184210526316    0.000000000000       2
    0.085106382979    0.184210526316    0.000000000000       2
    0.106382978723    0.184210526316    0.000000000000       2
    0.127659574468    0.184210526316    0.000000000000       2
    0.148936170213    0.184210526316    0.000000000000       2
    0.170212765957    0.184210526316    0.000000000000       2
    0.191489361702    0.184210526316    0.000000000000       2
    0.212765957447    0.184210526316    0.000000000000       2
    0.234042553191    0.184210526316    0.000000000000       2
    0.255319148936    0.184210526316    0.000000000000       2
    0.276595744681    0.184210526316    0.000000000000       2
    0.297872340426    0.184210526316    0.000000000000       2
    0.319148936170    0.184210526316    0.000000000000       2
    0.340425531915    0.184210526316    0.000000000000       2
    0.361702127660    0.184210526316    0.000000000000       2
    0.382978723404    0.184210526316    0.000000000000       2
    0.404255319149    0.184210526316    0.000000000000       2
    0.425531914894    0.184210526316    0.000000000000       2
    0.446808510638    0.184210526316    0.000000000000       2
    0.468085106383    0.184210526316    0.000000000000       2
    0.489361702128    0.184210526316    0.000000000000       2
   -0.489361702128    0.184210526316    0.000000000000       2
   -0.468085106383    0.184210526316    0.000000000000       2
   -0.446808510638    0.184210526316    0.000000000000       2
   -0.425531914894    0.184210526316    0.000000000000       2
   -0.404255319149    0.184210526316    0.000000000000       2
   -0.382978723404    0.184210526316    0.000000000000       2
   -0.361702127660    0.184210526316    0.000000000000       2
   -0.340425531915    0.184210526316    0.000000000000       2
   -0.319148936170    0.184210526316    0.000000000000       2
   -0.297872340426    0.184210526316    0.000000000000       2
   -0.276595744681    0.184210526316    0.000000000000       2
   -0.255319148936    0.184210526316    0.000000000000       2
   -0.234042553191    0.184210526316    0.000000000000       2
   -0.212765957447    0.184210526316    0.000000000000       2
   -0.191489361702    0.184210526316    0.000000000000       2
   -0.170212765957    0.184210526316    0.000000000000       2
   -0.148936170213    0.184210526316    0.000000000000       2
   -0.127659574468    0.184210526316    0.000000000000       2
   -0.106382978723    0.184210526316    0.000000000000       2
   -0.085106382979    0.184210526316    0.000000000000       2
   -0.063829787234    0.184210526316    0.000000000000       2
   -0.042553191489    0.184210526316    0.000000000000       2
   -0.021276595745    0.184210526316    0.000000000000       2
    0.000000000000    0.210526315789    0.000000000000       2
    0.021276595745    0.210526315789    0.000000000000       2
    0.042553191489    0.210526315789    0.000000000000       2
    0.063829787234    0.210526315789    0.000000000000       2
    0.085106382979    0.210526315789    0.000000000000       2
    0.106382978723    0.210526315789    0.000000000000       2
    0.127659574468    0.210526315789    0.000000000000       2
    0.148936170213    0.210526315789    0.000000000000       2
    0.170212765957    0.210526315789    0.000000000000       2
    0.191489361702    0.210526315789    0.000000000000       2
    0.212765957447    0.210526315789    0.000000000000       2
    0.234042553191    0.210526315789    0.000000000000       2
    0.255319148936    0.210526315789    0.000000000000       2
    0.276595744681    0.210526315789    0.000000000000       2
    0.297872340426    0.210526315789    0.000000000000       2
    0.319148936170    0.210526315789    0.000000000000       2
    0.340425531915    0.210526315789    0.000000000000       2
    0.361702127660    0.210526315789    0.000000000000       2
    0.382978723404    0.210526315789    0.000000000000       2
    0.404255319149    0.210526315789    0.000000000000       2
    0.425531914894    0.210526315789    0.000000000000       2
    0.446808510638    0.210526315789    0.000000000000       2
    0.468085106383    0.210526315789    0.000000000000       2
    0.489361702128    0.210526315789    0.000000000000       2
   -0.489361702128    0.210526315789    0.000000000000       2
   -0.468085106383    0.210526315789    0.000000000000       2
   -0.446808510638    0.210526315789    0.000000000000       2
   -0.425531914894    0.210526315789    0.000000000000       2
   -0.404255319149    0.210526315789    0.000000000000       2
   -0.382978723404    0.210526315789    0.000000000000       2
   -0.361702127660    0.210526315789    0.000000000000       2
   -0.340425531915    0.210526315789    0.000000000000       2
   -0.319148936170    0.210526315789    0.000000000000       2
   -0.297872340426    0.210526315789    0.000000000000       2
   -0.276595744681    0.210526315789    0.000000000000       2
   -0.255319148936    0.210526315789    0.000000000000       2
   -0.234042553191    0.210526315789    0.000000000000       2
   -0.212765957447    0.210526315789    0.000000000000       2
   -0.191489361702    0.210526315789    0.000000000000       2
   -0.170212765957    0.210526315789    0.000000000000       2
   -0.148936170213    0.210526315789    0.000000000000       2
   -0.127659574468    0.210526315789    0.000000000000       2
   -0.106382978723    0.210526315789    0.000000000000       2
   -0.085106382979    0.210526315789    0.000000000000       2
   -0.063829787234    0.210526315789    0.000000000000       2
   -0.042553191489    0.210526315789    0.000000000000       2
   -0.021276595745    0.210526315789    0.000000000000       2
    0.000000000000    0.236842105263    0.000000000000       2
    0.021276595745    0.236842105263    0.000000000000       2
    0.042553191489    0.236842105263    0.000000000000       2
    0.063829787234    0.236842105263    0.000000000000       2
    0.085106382979    0.236842105263    0.000000000000       2
    0.106382978723    0.236842105263    0.000000000000       2
    0.127659574468    0.236842105263    0.000000000000       2
    0.148936170213    0.236842105263    0.000000000000       2
    0.170212765957    0.236842105263    0.000000000000       2
    0.191489361702    0.236842105263    0.000000000000       2
    0.212765957447    0.236842105263    0.000000000000       2
    0.234042553191    0.236842105263    0.000000000000       2
    0.255319148936    0.236842105263    0.000000000000       2
    0.276595744681    0.236842105263    0.000000000000       2
    0.297872340426    0.236842105263    0.000000000000       2
    0.319148936170    0.236842105263    0.000000000000       2
    0.340425531915    0.236842105263    0.000000000000       2
    0.361702127660    0.236842105263    0.000000000000       2
    0.382978723404    0.236842105263    0.000000000000       2
    0.404255319149    0.236842105263    0.000000000000       2
    0.425531914894    0.236842105263    0.000000000000       2
    0.446808510638    0.236842105263    0.000000000000       2
    0.468085106383    0.236842105263    0.000000000000       2
    0.489361702128    0.236842105263    0.000000000000       2
   -0.489361702128    0.236842105263    0.000000000000       2
   -0.468085106383    0.236842105263    0.000000000000       2
   -0.446808510638    0.236842105263    0.000000000000       2
   -0.425531914894    0.236842105263    0.000000000000       2
   -0.404255319149    0.236842105263    0.000000000000       2
   -0.382978723404    0.236842105263    0.000000000000       2
   -0.361702127660    0.236842105263    0.000000000000       2
   -0.340425531915    0.236842105263    0.000000000000       2
   -0.319148936170    0.236842105263    0.000000000000       2
   -0.297872340426    0.236842105263    0.000000000000       2
   -0.276595744681    0.236842105263    0.000000000000       2
   -0.255319148936    0.236842105263    0.000000000000       2
   -0.234042553191    0.236842105263    0.000000000000       2
   -0.212765957447    0.236842105263    0.000000000000       2
   -0.191489361702    0.236842105263    0.000000000000       2
   -0.170212765957    0.236842105263    0.000000000000       2
   -0.148936170213    0.236842105263    0.000000000000       2
   -0.127659574468    0.236842105263    0.000000000000       2
   -0.106382978723    0.236842105263    0.000000000000       2
   -0.085106382979    0.236842105263    0.000000000000       2
   -0.063829787234    0.236842105263    0.000000000000       2
   -0.042553191489    0.236842105263    0.000000000000       2
   -0.021276595745    0.236842105263    0.000000000000       2
    0.000000000000    0.263157894737    0.000000000000       2
    0.021276595745    0.263157894737    0.000000000000       2
    0.042553191489    0.263157894737    0.000000000000       2
    0.063829787234    0.263157894737    0.000000000000       2
    0.085106382979    0.263157894737    0.000000000000       2
    0.106382978723    0.263157894737    0.000000000000       2
    0.127659574468    0.263157894737    0.000000000000       2
    0.148936170213    0.263157894737    0.000000000000       2
    0.170212765957    0.263157894737    0.000000000000       2
    0.191489361702    0.263157894737    0.000000000000       2
    0.212765957447    0.263157894737    0.000000000000       2
    0.234042553191    0.263157894737    0.000000000000       2
    0.255319148936    0.263157894737    0.000000000000       2
    0.276595744681    0.263157894737    0.000000000000       2
    0.297872340426    0.263157894737    0.000000000000       2
    0.319148936170    0.263157894737    0.000000000000       2
    0.340425531915    0.263157894737    0.000000000000       2
    0.361702127660    0.263157894737    0.000000000000       2
    0.382978723404    0.263157894737    0.000000000000       2
    0.404255319149    0.263157894737    0.000000000000       2
    0.425531914894    0.263157894737    0.000000000000       2
    0.446808510638    0.263157894737    0.000000000000       2
    0.468085106383    0.263157894737    0.000000000000       2
    0.489361702128    0.263157894737    0.000000000000       2
   -0.489361702128    0.263157894737    0.000000000000       2
   -0.468085106383    0.263157894737    0.000000000000       2
   -0.446808510638    0.263157894737    0.000000000000       2