CONTCAR\(4)                             
   1.00000000000000     
    12.1478996276999993    0.0000000000000000    0.0000000000000000
     0.0000000000000000   12.1478996276999993    0.0000000000000000
     0.0000000000000000    0.0000000000000000   26.4330997467000017
   Sr   Sb   Se   F    O 
    18    18    36    18     1
Direct
  0.9997691900017429  0.1627441665978537  0.4444100022796462
  0.1663131179406605  0.9964179217276552  0.5569121940444290
  0.3334274629163119  0.1626498900594697  0.4447151339270903
  0.4997317628101001  0.9965659176659969  0.5572291868615622
  0.6665048631677024  0.1630352927273933  0.4449264335733645
  0.8327846789065845  0.9968132421833289  0.5569192385929256
  0.9997610208324303  0.4976651606510458  0.4445791551267391
  0.1645921856107648  0.3279383029202307  0.5548186215376774
  0.3334442394537689  0.4974274192214665  0.4456999409595497
  0.4995439902642360  0.3284582465738310  0.5557126390978482
  0.6662210407995346  0.4975432547370602  0.4456154128464007
  0.8337944900515524  0.3296015239686199  0.5555061407424162
  0.9997961704841245  0.8304229700858201  0.4456294609261917
  0.1655021489965094  0.6635584298960708  0.5566982771267632
  0.3340403827749725  0.8296584395671616  0.4462660498776927
  0.4992055415956500  0.6603459751013574  0.5598562828727154
  0.6655743267461744  0.8296456623626511  0.4464708018881325
  0.8330094257402365  0.6635590704559675  0.5569478010664142
  0.0034011604189530  0.1693954379729163  0.7028973203704751
  0.1641352696858789  0.9978332414062479  0.2981695988577613
  0.3311202443859784  0.1670651183953069  0.7040860452434998
  0.4973422862523975  0.9977649901013663  0.2981884427943484
  0.6730035647241905  0.1699969668977843  0.7037219310830451
  0.8305989707843224  0.9976288189319718  0.2982753319955549
  0.0064043391545141  0.5015787975532788  0.7031514265267376
  0.1641840699361339  0.3312967787358687  0.2981743255785219
  0.3411697688367070  0.4972884535382462  0.6986773634650163
  0.4975835882129473  0.3313500538719438  0.2981933722489529
  0.6646481549864802  0.4960282428866734  0.7019896507281516
  0.8304940031135501  0.3314124468383142  0.2982461824983744
  0.9992939965630185  0.8276965041652318  0.7042659312846951
  0.1641445958916066  0.6648863336053665  0.2984128625006193
  0.3290932523827834  0.8492425019525029  0.7060167196006759
  0.4972902752975088  0.6646798005049703  0.2983896338844687
  0.6777907941127097  0.8412014282262348  0.7055892815992735
  0.8304767156708266  0.6647948529303775  0.2984576578511806
  0.1669986249787456  0.9959572471732656  0.3943639230679636
  0.1519101014273190  0.0108701011442278  0.7219527291234655
  0.0166334745916643  0.1637633964199310  0.2811238172132420
  0.9996791515662338  0.1642051586700362  0.6066920240844809
  0.4998513878103381  0.9962141240902014  0.3944437642698730
  0.4829826577587468  0.0120720465025528  0.7238233973067310
  0.3501537613815273  0.1639172781820051  0.2805732916552728
  0.3325357059438687  0.1622872355491793  0.6077835242738772
  0.8324714147622458  0.9960105331318232  0.3944827090670344
  0.8277072076662151  0.0158172947989783  0.7210385759672135
  0.6834440571422533  0.1638063755086705  0.2807121434883229
  0.6674540297285319  0.1640690852749387  0.6076375438987327
  0.1669391606808404  0.3305016576294264  0.3942874688002291
  0.1563116632150425  0.3446794468193062  0.7209079078216902
  0.0167633663313538  0.4976325734587448  0.2811495104317814
  0.0001956305528381  0.4971081266573876  0.6070430511908071
  0.4997244759670068  0.3307032841109745  0.3943511324213773
  0.4875596455598199  0.3371191081830887  0.7200625405274010
  0.3502278177107883  0.4973488870292542  0.2804355123322395
  0.3271614941904488  0.4893574096729765  0.6034791540900102
  0.8326860135819985  0.3306011799951207  0.3943721323459144
  0.8167105386320230  0.3431377537905433  0.7217186415810488
  0.6832339541483989  0.4975589161445484  0.2806154102596210
  0.6692879708593793  0.4927119702352485  0.6061411233400165
  0.1668207741267480  0.6643670474150625  0.3946103763918956
  0.1531071077884505  0.6752486134159525  0.7212913473513680
  0.0167682995763059  0.8306855655902083  0.2804648239974981
  0.9989795233955263  0.8303458171748517  0.6078457028428943
  0.4995731638636656  0.6639930502005953  0.3946143797146320
  0.4913701956239791  0.7013125393021582  0.7351830541813200
  0.3501329941486588  0.8306735810714727  0.2802730338349235
  0.3353011359545732  0.8293048382477153  0.6105434855850476
  0.8323916370652000  0.6645005724322104  0.3946585832618155
  0.8212917121783718  0.6758255527886163  0.7211439765945684
  0.6833523399084385  0.8305375107309416  0.2802634444431007
  0.6646890266696914  0.8293714753047610  0.6097729216233603
  0.9995750628481233  0.9967340465910368  0.5011387471684188
  0.1663974732656754  0.1616977256997103  0.5000955415214676
  0.3331831107280365  0.9962952477622267  0.5015615289285478
  0.4999432091795697  0.1622430203688268  0.5007513717071674
  0.6660161818452934  0.9966832445725871  0.5015967803101589
  0.8332875183650899  0.1626206166572572  0.5004488260588644
  0.9990728933618414  0.3299583430704018  0.4995394778527924
  0.1657497493854407  0.4971746641766757  0.5001382352190404
  0.3327807296448810  0.3287059531689778  0.4997991010911775
  0.5000535751906199  0.4966402068872640  0.5011197760938941
  0.6664822380600697  0.3295419563262243  0.5002651304959542
  0.8335490379771926  0.4974547858094311  0.5006137070474281
  0.9994144710422006  0.6640463042972726  0.5008989607608285
  0.1669539534514684  0.8302477064155767  0.5015592759858833
  0.3333873875379041  0.6638992593839887  0.5022194661584578
  0.4997157444832752  0.8289184398431999  0.5028080681561420
  0.6654952808361614  0.6635301810302749  0.5022321113006853
  0.8326983175634126  0.8303536197047805  0.5014938012021233
  0.4782920342429549  0.6062869763697805  0.6816580941013370
 
  0.00000000E+00  0.00000000E+00  0.00000000E+00
  0.00000000E+00  0.00000000E+00  0.00000000E+00
  0.00000000E+00  0.00000000E+00  0.00000000E+00
  0.00000000E+00  0.00000000E+00  0.00000000E+00
  0.00000000E+00  0.00000000E+00  0.00000000E+00
  0.00000000E+00  0.00000000E+00  0.00000000E+00
  0.00000000E+00  0.00000000E+00  0.00000000E+00
  0.00000000E+00  0.00000000E+00  0.00000000E+00
  0.00000000E+00  0.00000000E+00  0.00000000E+00
  0.00000000E+00  0.00000000E+00  0.00000000E+00
  0.00000000E+00  0.00000000E+00  0.00000000E+00
  0.00000000E+00  0.00000000E+00  0.00000000E+00
  0.00000000E+00  0.00000000E+00  0.00000000E+00
  0.00000000E+00  0.00000000E+00  0.00000000E+00
  0.00000000E+00  0.00000000E+00  0.00000000E+00
  0.00000000E+00  0.00000000E+00  0.00000000E+00
  0.00000000E+00  0.00000000E+00  0.00000000E+00
  0.00000000E+00  0.00000000E+00  0.00000000E+00
  0.00000000E+00  0.00000000E+00  0.00000000E+00
  0.00000000E+00  0.00000000E+00  0.00000000E+00
  0.00000000E+00  0.00000000E+00  0.00000000E+00
  0.00000000E+00  0.00000000E+00  0.00000000E+00
  0.00000000E+00  0.00000000E+00  0.00000000E+00
  0.00000000E+00  0.00000000E+00  0.00000000E+00
  0.00000000E+00  0.00000000E+00  0.00000000E+00
  0.00000000E+00  0.00000000E+00  0.00000000E+00
  0.00000000E+00  0.00000000E+00  0.00000000E+00
  0.00000000E+00  0.00000000E+00  0.00000000E+00
  0.00000000E+00  0.00000000E+00  0.00000000E+00
  0.00000000E+00  0.00000000E+00  0.00000000E+00
  0.00000000E+00  0.00000000E+00  0.00000000E+00
  0.00000000E+00  0.00000000E+00  0.00000000E+00
  0.00000000E+00  0.00000000E+00  0.00000000E+00
  0.00000000E+00  0.00000000E+00  0.00000000E+00
  0.00000000E+00  0.00000000E+00  0.00000000E+00
  0.00000000E+00  0.00000000E+00  0.00000000E+00
  0.00000000E+00  0.00000000E+00  0.00000000E+00
  0.00000000E+00  0.00000000E+00  0.00000000E+00
  0.00000000E+00  0.00000000E+00  0.00000000E+00
  0.00000000E+00  0.00000000E+00  0.00000000E+00
  0.00000000E+00  0.00000000E+00  0.00000000E+00
  0.00000000E+00  0.00000000E+00  0.00000000E+00
  0.00000000E+00  0.00000000E+00  0.00000000E+00
  0.00000000E+00  0.00000000E+00  0.00000000E+00
  0.00000000E+00  0.00000000E+00  0.00000000E+00
  0.00000000E+00  0.00000000E+00  0.00000000E+00
  0.00000000E+00  0.00000000E+00  0.00000000E+00
  0.00000000E+00  0.00000000E+00  0.00000000E+00
  0.00000000E+00  0.00000000E+00  0.00000000E+00
  0.00000000E+00  0.00000000E+00  0.00000000E+00
  0.00000000E+00  0.00000000E+00  0.00000000E+00
  0.00000000E+00  0.00000000E+00  0.00000000E+00
  0.00000000E+00  0.00000000E+00  0.00000000E+00
  0.00000000E+00  0.00000000E+00  0.00000000E+00
  0.00000000E+00  0.00000000E+00  0.00000000E+00
  0.00000000E+00  0.00000000E+00  0.00000000E+00
  0.00000000E+00  0.00000000E+00  0.00000000E+00
  0.00000000E+00  0.00000000E+00  0.00000000E+00
  0.00000000E+00  0.00000000E+00  0.00000000E+00
  0.00000000E+00  0.00000000E+00  0.00000000E+00
  0.00000000E+00  0.00000000E+00  0.00000000E+00
  0.00000000E+00  0.00000000E+00  0.00000000E+00
  0.00000000E+00  0.00000000E+00  0.00000000E+00
  0.00000000E+00  0.00000000E+00  0.00000000E+00
  0.00000000E+00  0.00000000E+00  0.00000000E+00
  0.00000000E+00  0.00000000E+00  0.00000000E+00
  0.00000000E+00  0.00000000E+00  0.00000000E+00
  0.00000000E+00  0.00000000E+00  0.00000000E+00
  0.00000000E+00  0.00000000E+00  0.00000000E+00
  0.00000000E+00  0.00000000E+00  0.00000000E+00
  0.00000000E+00  0.00000000E+00  0.00000000E+00
  0.00000000E+00  0.00000000E+00  0.00000000E+00
  0.00000000E+00  0.00000000E+00  0.00000000E+00
  0.00000000E+00  0.00000000E+00  0.00000000E+00
  0.00000000E+00  0.00000000E+00  0.00000000E+00
  0.00000000E+00  0.00000000E+00  0.00000000E+00
  0.00000000E+00  0.00000000E+00  0.00000000E+00
  0.00000000E+00  0.00000000E+00  0.00000000E+00
  0.00000000E+00  0.00000000E+00  0.00000000E+00
  0.00000000E+00  0.00000000E+00  0.00000000E+00
  0.00000000E+00  0.00000000E+00  0.00000000E+00
  0.00000000E+00  0.00000000E+00  0.00000000E+00
  0.00000000E+00  0.00000000E+00  0.00000000E+00
  0.00000000E+00  0.00000000E+00  0.00000000E+00
  0.00000000E+00  0.00000000E+00  0.00000000E+00
  0.00000000E+00  0.00000000E+00  0.00000000E+00
  0.00000000E+00  0.00000000E+00  0.00000000E+00
  0.00000000E+00  0.00000000E+00  0.00000000E+00
  0.00000000E+00  0.00000000E+00  0.00000000E+00
  0.00000000E+00  0.00000000E+00  0.00000000E+00
  0.00000000E+00  0.00000000E+00  0.00000000E+00
