CONTCAR\(5)                             
   1.00000000000000     
    12.8629999160999997    0.0000000000000000    0.0000000000000000
     0.0000000000000000   14.3196001052999993    0.0000000000000000
     0.0000000000000000    0.0000000000000000   19.5569992064999987
   Ag   Au   S    O    H 
    12    24    24     1     1
Direct
  0.0902717685410611  0.3354149811270346  0.5975930179344493
  0.2481363737815684  0.0901444894416643  0.5905014235216994
  0.4314728277486568  0.3339826126484324  0.6071387301429173
  0.5807253300263494  0.0715929782449160  0.5924821460237064
  0.7598917831116638  0.3208238322754012  0.5977544817434870
  0.9140559786239639  0.0776452599238382  0.5904707683733220
  0.0900274239083156  0.8333647708562045  0.5979778382222303
  0.2421647389833165  0.5857504974990386  0.6013707948543529
  0.4257827662243683  0.8340741291271027  0.6077299350121833
  0.5761810301170033  0.5768659379935580  0.5935226733289306
  0.7593210027874766  0.8219285894783631  0.5981137813834715
  0.9020259646187597  0.5809682484857610  0.6001938110278553
  0.0280501637222913  0.4947324503985842  0.4980936964674704
  0.3081389712832119  0.2509187440662631  0.4978034673328567
  0.1517330238419793  0.3610378341846819  0.3820235873268133
  0.1633996325666110  0.1137982406063775  0.3858422191871772
  0.3517066836731232  0.4954613679085848  0.4843924261935384
  0.6319979863147368  0.2369985837479247  0.4945720459919349
  0.4979879913656617  0.3671584744187025  0.3964713545397442
  0.4956634692272340  0.1182842090051213  0.4024160395706528
  0.6923943363885943  0.4888057284205807  0.4835273108350454
  0.9751288719363577  0.2411839979877179  0.4735389082514809
  0.8279888725242586  0.3665551769302769  0.4085348813478845
  0.8276885953101750  0.1158455240695623  0.4025816412380665
  0.0356133713227568  0.9914548656634222  0.4827910987578910
  0.3016144429787282  0.7442948413866880  0.5043087446176284
  0.1639504095649071  0.8711377974156808  0.3844422805690313
  0.1522203635754511  0.6235670610619859  0.3783093121322690
  0.3566065303280740  0.9934347180403431  0.4759569171132890
  0.6293501838723415  0.7440640257633536  0.4921401741912185
  0.4925518990049111  0.8645658791468498  0.4060662420503257
  0.4970466871482328  0.6179648912923001  0.4063723626444410
  0.6961882299314786  0.9889932456774195  0.4823487956052145
  0.9751025693650344  0.7465850583412914  0.4739121806802739
  0.8244767754740467  0.8660503049458432  0.4026025268452394
  0.8271367063230430  0.6168574923535162  0.4086331788388074
  0.2534717423068177  0.4922839541112840  0.3850652786633861
  0.2546263723670047  0.2572300089035227  0.6110945301255089
  0.0793512330198168  0.5040246751925026  0.6114903440381282
  0.0465009452019441  0.2333655960772481  0.3640589635011147
  0.6062896382103858  0.4939466392054625  0.3781930050542094
  0.5862579593598373  0.2411804081028461  0.6103043008831093
  0.4080864387520864  0.5006475998683318  0.5974410104103889
  0.3818343728991069  0.2436553549039757  0.3904536164800476
  0.9411900012303729  0.4919468580264236  0.3947512650450543
  0.9285566092391382  0.2468177012852292  0.5890719402297357
  0.7444027793516248  0.4909659884418220  0.5985142375030275
  0.7154933857639714  0.2413472456031046  0.3892759866442573
  0.2798350049114608  0.9927623193407423  0.3680568219040535
  0.2522389709399694  0.7544952017558805  0.6183683757494964
  0.0890958518072223  0.0023343346363021  0.5963709842590278
  0.0468450263042711  0.7512596143954490  0.3641462985487882
  0.6014548091370694  0.9897539467125771  0.3806801667991545
  0.5852283565150840  0.7463756594002560  0.6085053636754129
  0.4105334774293911  0.0001875961222336  0.5903628156346394
  0.3776286823072481  0.7389912800899632  0.3979930387305175
  0.9363585640770802  0.9897296504862059  0.3830461203456871
  0.9273871262820553  0.7477181316289230  0.5893146486761112
  0.7530817317659475  0.9925992483412733  0.5958930755042374
  0.7135273512693027  0.7398854272602474  0.3866369921362627
  0.3272343547553345  0.4934166452217281  0.3156750002989077
  0.3864557212806710  0.4501024929520853  0.3255556352628589
 
  0.00000000E+00  0.00000000E+00  0.00000000E+00
  0.00000000E+00  0.00000000E+00  0.00000000E+00
  0.00000000E+00  0.00000000E+00  0.00000000E+00
  0.00000000E+00  0.00000000E+00  0.00000000E+00
  0.00000000E+00  0.00000000E+00  0.00000000E+00
  0.00000000E+00  0.00000000E+00  0.00000000E+00
  0.00000000E+00  0.00000000E+00  0.00000000E+00
  0.00000000E+00  0.00000000E+00  0.00000000E+00
  0.00000000E+00  0.00000000E+00  0.00000000E+00
  0.00000000E+00  0.00000000E+00  0.00000000E+00
  0.00000000E+00  0.00000000E+00  0.00000000E+00
  0.00000000E+00  0.00000000E+00  0.00000000E+00
  0.00000000E+00  0.00000000E+00  0.00000000E+00
  0.00000000E+00  0.00000000E+00  0.00000000E+00
  0.00000000E+00  0.00000000E+00  0.00000000E+00
  0.00000000E+00  0.00000000E+00  0.00000000E+00
  0.00000000E+00  0.00000000E+00  0.00000000E+00
  0.00000000E+00  0.00000000E+00  0.00000000E+00
  0.00000000E+00  0.00000000E+00  0.00000000E+00
  0.00000000E+00  0.00000000E+00  0.00000000E+00
  0.00000000E+00  0.00000000E+00  0.00000000E+00
  0.00000000E+00  0.00000000E+00  0.00000000E+00
  0.00000000E+00  0.00000000E+00  0.00000000E+00
  0.00000000E+00  0.00000000E+00  0.00000000E+00
  0.00000000E+00  0.00000000E+00  0.00000000E+00
  0.00000000E+00  0.00000000E+00  0.00000000E+00
  0.00000000E+00  0.00000000E+00  0.00000000E+00
  0.00000000E+00  0.00000000E+00  0.00000000E+00
  0.00000000E+00  0.00000000E+00  0.00000000E+00
  0.00000000E+00  0.00000000E+00  0.00000000E+00
  0.00000000E+00  0.00000000E+00  0.00000000E+00
  0.00000000E+00  0.00000000E+00  0.00000000E+00
  0.00000000E+00  0.00000000E+00  0.00000000E+00
  0.00000000E+00  0.00000000E+00  0.00000000E+00
  0.00000000E+00  0.00000000E+00  0.00000000E+00
  0.00000000E+00  0.00000000E+00  0.00000000E+00
  0.00000000E+00  0.00000000E+00  0.00000000E+00
  0.00000000E+00  0.00000000E+00  0.00000000E+00
  0.00000000E+00  0.00000000E+00  0.00000000E+00
  0.00000000E+00  0.00000000E+00  0.00000000E+00
  0.00000000E+00  0.00000000E+00  0.00000000E+00
  0.00000000E+00  0.00000000E+00  0.00000000E+00
  0.00000000E+00  0.00000000E+00  0.00000000E+00
  0.00000000E+00  0.00000000E+00  0.00000000E+00
  0.00000000E+00  0.00000000E+00  0.00000000E+00
  0.00000000E+00  0.00000000E+00  0.00000000E+00
  0.00000000E+00  0.00000000E+00  0.00000000E+00
  0.00000000E+00  0.00000000E+00  0.00000000E+00
  0.00000000E+00  0.00000000E+00  0.00000000E+00
  0.00000000E+00  0.00000000E+00  0.00000000E+00
  0.00000000E+00  0.00000000E+00  0.00000000E+00
  0.00000000E+00  0.00000000E+00  0.00000000E+00
  0.00000000E+00  0.00000000E+00  0.00000000E+00
  0.00000000E+00  0.00000000E+00  0.00000000E+00
  0.00000000E+00  0.00000000E+00  0.00000000E+00
  0.00000000E+00  0.00000000E+00  0.00000000E+00
  0.00000000E+00  0.00000000E+00  0.00000000E+00
  0.00000000E+00  0.00000000E+00  0.00000000E+00
  0.00000000E+00  0.00000000E+00  0.00000000E+00
  0.00000000E+00  0.00000000E+00  0.00000000E+00
  0.00000000E+00  0.00000000E+00  0.00000000E+00
  0.00000000E+00  0.00000000E+00  0.00000000E+00
