CONTCAR\(10)                            
   1.00000000000000     
    10.5118999480999999    0.0000000000000000    0.0000000000000000
     5.2559499741000000    9.1035723971000007    0.0000000000000000
     0.0000000000000000    0.0000000000000000   21.1504993439000017
   Zr   Br
    18    18
Direct
  0.2222199870000026  0.2222200100000009  0.4446625121626013
  0.1111099929999995  0.1111100050000005  0.5553374878373987
  0.5555600029999965  0.2222200100000009  0.4446625121626013
  0.4444400080000008  0.1111100050000005  0.5553374878373987
  0.8888899949999995  0.2222200100000009  0.4446625121626013
  0.7777799340000016  0.1111100050000005  0.5553374878373987
  0.2222199850000024  0.5555600289999987  0.4446625121626013
  0.1111099820000021  0.4444400200000018  0.5553374878373987
  0.5555600020000000  0.5555600289999987  0.4446625121626013
  0.4444399730000015  0.4444400200000018  0.5553374878373987
  0.8888899479999992  0.5555600289999987  0.4446625121626013
  0.7777799899999991  0.4444400200000018  0.5553374878373987
  0.2222199249999974  0.8888900970000009  0.4446625121626013
  0.1111099800000019  0.7777800389999996  0.5553374878373987
  0.5555599409999985  0.8888900970000009  0.4446625121626013
  0.4444400169999980  0.7777800389999996  0.5553374878373987
  0.8888899789999982  0.8888900970000009  0.4446625121626013
  0.7777799429999988  0.7777800389999996  0.5553374878373987
 -0.0000000000000000  0.0000000000000000  0.6448811195877306
  0.0000000000000000  0.0000000000000000  0.3551189034122748
  0.3333300139999977 -0.0000000000000000  0.6448811195877306
  0.3333300139999977  0.0000000000000000  0.3551189034122748
  0.6666700079999970 -0.0000000000000000  0.6448811195877306
  0.6666700079999970  0.0000000000000000  0.3551189034122748
 -0.0000000000000000  0.3333300150000014  0.6448811195877306
 -0.0000000000000000  0.3333300150000014  0.3551189034122748
  0.3333300030000004  0.3333300150000014  0.6448811195877306
  0.3333300030000004  0.3333300150000014  0.3551189034122748
  0.6666700190000014  0.3333300150000014  0.6448811195877306
  0.6666700190000014  0.3333300150000014  0.3551189034122748
  0.9999999870000025  0.6666700339999991  0.6448811195877306
  0.9999999870000025  0.6666700339999991  0.3551189034122748
  0.3333300010000002  0.6666700339999991  0.6448811195877306
  0.3333300010000002  0.6666700339999991  0.3551189034122748
  0.6666699729999976  0.6666700339999991  0.6448811195877306
  0.6666699729999976  0.6666700339999991  0.3551189034122748
 
  0.00000000E+00  0.00000000E+00  0.00000000E+00
  0.00000000E+00  0.00000000E+00  0.00000000E+00
  0.00000000E+00  0.00000000E+00  0.00000000E+00
  0.00000000E+00  0.00000000E+00  0.00000000E+00
  0.00000000E+00  0.00000000E+00  0.00000000E+00
  0.00000000E+00  0.00000000E+00  0.00000000E+00
  0.00000000E+00  0.00000000E+00  0.00000000E+00
  0.00000000E+00  0.00000000E+00  0.00000000E+00
  0.00000000E+00  0.00000000E+00  0.00000000E+00
  0.00000000E+00  0.00000000E+00  0.00000000E+00
  0.00000000E+00  0.00000000E+00  0.00000000E+00
  0.00000000E+00  0.00000000E+00  0.00000000E+00
  0.00000000E+00  0.00000000E+00  0.00000000E+00
  0.00000000E+00  0.00000000E+00  0.00000000E+00
  0.00000000E+00  0.00000000E+00  0.00000000E+00
  0.00000000E+00  0.00000000E+00  0.00000000E+00
  0.00000000E+00  0.00000000E+00  0.00000000E+00
  0.00000000E+00  0.00000000E+00  0.00000000E+00
  0.00000000E+00  0.00000000E+00  0.00000000E+00
  0.00000000E+00  0.00000000E+00  0.00000000E+00
  0.00000000E+00  0.00000000E+00  0.00000000E+00
  0.00000000E+00  0.00000000E+00  0.00000000E+00
  0.00000000E+00  0.00000000E+00  0.00000000E+00
  0.00000000E+00  0.00000000E+00  0.00000000E+00
  0.00000000E+00  0.00000000E+00  0.00000000E+00
  0.00000000E+00  0.00000000E+00  0.00000000E+00
  0.00000000E+00  0.00000000E+00  0.00000000E+00
  0.00000000E+00  0.00000000E+00  0.00000000E+00
  0.00000000E+00  0.00000000E+00  0.00000000E+00
  0.00000000E+00  0.00000000E+00  0.00000000E+00
  0.00000000E+00  0.00000000E+00  0.00000000E+00
  0.00000000E+00  0.00000000E+00  0.00000000E+00
  0.00000000E+00  0.00000000E+00  0.00000000E+00
  0.00000000E+00  0.00000000E+00  0.00000000E+00
  0.00000000E+00  0.00000000E+00  0.00000000E+00
  0.00000000E+00  0.00000000E+00  0.00000000E+00
