CONTCAR\(3)                             
   1.00000000000000     
    11.9904003143000004    0.0000000000000000    0.0000000000000000
     0.0000000000000000   11.9904003143000004    0.0000000000000000
     0.0000000000000000    0.0000000000000000   19.0006008147999985
   Tl   Cu   F 
    18     9    36
Direct
  0.1666699909999991  0.1666699909999991  0.6195387402326299
  0.1666699909999991  0.1666699909999991  0.3804612847673686
  0.5000000000000000  0.1666699909999991  0.6195387402326299
  0.5000000000000000  0.1666699909999991  0.3804612847673686
  0.8333299399999987  0.1666699909999991  0.6195387402326299
  0.8333299399999987  0.1666699909999991  0.3804612847673686
  0.1666699909999991  0.5000000000000000  0.6195387402326299
  0.1666699909999991  0.5000000000000000  0.3804612847673686
  0.5000000000000000  0.5000000000000000  0.6195387402326299
  0.5000000000000000  0.5000000000000000  0.3804612847673686
  0.8333299399999987  0.5000000000000000  0.6195387402326299
  0.8333299399999987  0.5000000000000000  0.3804612847673686
  0.1666699909999991  0.8333299399999987  0.6195387402326299
  0.1666699909999991  0.8333299399999987  0.3804612847673686
  0.5000000000000000  0.8333299399999987  0.6195387402326299
  0.5000000000000000  0.8333299399999987  0.3804612847673686
  0.8333299399999987  0.8333299399999987  0.6195387402326299
  0.8333299399999987  0.8333299399999987  0.3804612847673686
 -0.0000000000000000 -0.0000000000000000  0.5000000000000000
  0.3333299990000000 -0.0000000000000000  0.5000000000000000
  0.6666700199999980  0.0000000000000000  0.5000000000000000
 -0.0000000000000000  0.3333299990000000  0.5000000000000000
  0.3333299990000000  0.3333299990000000  0.5000000000000000
  0.6666700199999980  0.3333299990000000  0.5000000000000000
 -0.0000000000000000  0.6666700199999980  0.5000000000000000
  0.3333299990000000  0.6666700199999980  0.5000000000000000
  0.6666700199999980  0.6666700199999980  0.5000000000000000
 -0.0000000000000000  0.0000000000000000  0.3920645601163603
  0.0000000000000000  0.0000000000000000  0.6079354398836396
 -0.0000000000000000  0.1666699909999991  0.5000000000000000
  0.1666699909999991  0.0000000000000000  0.5000000000000000
  0.3333299990000000  0.0000000000000000  0.3920645601163603
  0.3333299990000000  0.0000000000000000  0.6079354398836396
  0.3333299990000000  0.1666699909999991  0.5000000000000000
  0.5000000000000000 -0.0000000000000000  0.5000000000000000
  0.6666700199999980 -0.0000000000000000  0.3920645601163603
  0.6666700199999980  0.0000000000000000  0.6079354398836396
  0.6666700199999980  0.1666699909999991  0.5000000000000000
  0.8333299399999987 -0.0000000000000000  0.5000000000000000
  0.0000000000000000  0.3333299990000000  0.3920645601163603
 -0.0000000000000000  0.3333299990000000  0.6079354398836396
 -0.0000000000000000  0.5000000000000000  0.5000000000000000
  0.1666699909999991  0.3333299990000000  0.5000000000000000
  0.3333299990000000  0.3333299990000000  0.3920645601163603
  0.3333299990000000  0.3333299990000000  0.6079354398836396
  0.3333299990000000  0.5000000000000000  0.5000000000000000
  0.5000000000000000  0.3333299990000000  0.5000000000000000
  0.6666700199999980  0.3333299990000000  0.3920645601163603
  0.6666700199999980  0.3333299990000000  0.6079354398836396
  0.6666700199999980  0.5000000000000000  0.5000000000000000
  0.8333299399999987  0.3333299990000000  0.5000000000000000
 -0.0000000000000000  0.6666700199999980  0.3920645601163603
 -0.0000000000000000  0.6666700199999980  0.6079354398836396
 -0.0000000000000000  0.8333299399999987  0.5000000000000000
  0.1666699909999991  0.6666700199999980  0.5000000000000000
  0.3333299990000000  0.6666700199999980  0.3920645601163603
  0.3333299990000000  0.6666700199999980  0.6079354398836396
  0.3333299990000000  0.8333299399999987  0.5000000000000000
  0.5000000000000000  0.6666700199999980  0.5000000000000000
  0.6666700199999980  0.6666700199999980  0.3920645601163603
  0.6666700199999980  0.6666700199999980  0.6079354398836396
  0.6666700199999980  0.8333299399999987  0.5000000000000000
  0.8333299399999987  0.6666700199999980  0.5000000000000000
 
  0.00000000E+00  0.00000000E+00  0.00000000E+00
  0.00000000E+00  0.00000000E+00  0.00000000E+00
  0.00000000E+00  0.00000000E+00  0.00000000E+00
  0.00000000E+00  0.00000000E+00  0.00000000E+00
  0.00000000E+00  0.00000000E+00  0.00000000E+00
  0.00000000E+00  0.00000000E+00  0.00000000E+00
  0.00000000E+00  0.00000000E+00  0.00000000E+00
  0.00000000E+00  0.00000000E+00  0.00000000E+00
  0.00000000E+00  0.00000000E+00  0.00000000E+00
  0.00000000E+00  0.00000000E+00  0.00000000E+00
  0.00000000E+00  0.00000000E+00  0.00000000E+00
  0.00000000E+00  0.00000000E+00  0.00000000E+00
  0.00000000E+00  0.00000000E+00  0.00000000E+00
  0.00000000E+00  0.00000000E+00  0.00000000E+00
  0.00000000E+00  0.00000000E+00  0.00000000E+00
  0.00000000E+00  0.00000000E+00  0.00000000E+00
  0.00000000E+00  0.00000000E+00  0.00000000E+00
  0.00000000E+00  0.00000000E+00  0.00000000E+00
  0.00000000E+00  0.00000000E+00  0.00000000E+00
  0.00000000E+00  0.00000000E+00  0.00000000E+00
  0.00000000E+00  0.00000000E+00  0.00000000E+00
  0.00000000E+00  0.00000000E+00  0.00000000E+00
  0.00000000E+00  0.00000000E+00  0.00000000E+00
  0.00000000E+00  0.00000000E+00  0.00000000E+00
  0.00000000E+00  0.00000000E+00  0.00000000E+00
  0.00000000E+00  0.00000000E+00  0.00000000E+00
  0.00000000E+00  0.00000000E+00  0.00000000E+00
  0.00000000E+00  0.00000000E+00  0.00000000E+00
  0.00000000E+00  0.00000000E+00  0.00000000E+00
  0.00000000E+00  0.00000000E+00  0.00000000E+00
  0.00000000E+00  0.00000000E+00  0.00000000E+00
  0.00000000E+00  0.00000000E+00  0.00000000E+00
  0.00000000E+00  0.00000000E+00  0.00000000E+00
  0.00000000E+00  0.00000000E+00  0.00000000E+00
  0.00000000E+00  0.00000000E+00  0.00000000E+00
  0.00000000E+00  0.00000000E+00  0.00000000E+00
  0.00000000E+00  0.00000000E+00  0.00000000E+00
  0.00000000E+00  0.00000000E+00  0.00000000E+00
  0.00000000E+00  0.00000000E+00  0.00000000E+00
  0.00000000E+00  0.00000000E+00  0.00000000E+00
  0.00000000E+00  0.00000000E+00  0.00000000E+00
  0.00000000E+00  0.00000000E+00  0.00000000E+00
  0.00000000E+00  0.00000000E+00  0.00000000E+00
  0.00000000E+00  0.00000000E+00  0.00000000E+00
  0.00000000E+00  0.00000000E+00  0.00000000E+00
  0.00000000E+00  0.00000000E+00  0.00000000E+00
  0.00000000E+00  0.00000000E+00  0.00000000E+00
  0.00000000E+00  0.00000000E+00  0.00000000E+00
  0.00000000E+00  0.00000000E+00  0.00000000E+00
  0.00000000E+00  0.00000000E+00  0.00000000E+00
  0.00000000E+00  0.00000000E+00  0.00000000E+00
  0.00000000E+00  0.00000000E+00  0.00000000E+00
  0.00000000E+00  0.00000000E+00  0.00000000E+00
  0.00000000E+00  0.00000000E+00  0.00000000E+00
  0.00000000E+00  0.00000000E+00  0.00000000E+00
  0.00000000E+00  0.00000000E+00  0.00000000E+00
  0.00000000E+00  0.00000000E+00  0.00000000E+00
  0.00000000E+00  0.00000000E+00  0.00000000E+00
  0.00000000E+00  0.00000000E+00  0.00000000E+00
  0.00000000E+00  0.00000000E+00  0.00000000E+00
  0.00000000E+00  0.00000000E+00  0.00000000E+00
  0.00000000E+00  0.00000000E+00  0.00000000E+00
  0.00000000E+00  0.00000000E+00  0.00000000E+00
