CONTCAR\(17)                            
   1.00000000000000     
    11.7923002242999999    0.0000000000000000    0.0000000000000000
     0.0000000000000000   21.3097991942999982    0.0000000000000000
     0.0000000000000000    0.0000000000000000   18.7763004303000010
   V    Ag   P    S 
     8     8    16    48
Direct
  0.1248867349249657  0.4638502967882455  0.5000069557834541
  0.3751232730750310  0.0361497122117517  0.4999930442165458
  0.6248867549249674  0.4638502967882455  0.5000069557834541
  0.8751232320750312  0.0361497122117517  0.4999930442165458
  0.1248867349249657  0.9638502517882453  0.5000069557834541
  0.3751232730750310  0.5361497032117545  0.4999930442165458
  0.6248867549249674  0.9638502517882453  0.5000069557834541
  0.8751232320750312  0.5361497032117545  0.4999930442165458
  0.3750213176472670  0.2151031393878551  0.5000407390463347
  0.1249786923527338  0.2848968606121449  0.4999592609536653
  0.8750213176472670  0.2151031393878551  0.5000407390463347
  0.6249786423527297  0.2848968606121449  0.4999592609536653
  0.3750213176472670  0.7151031613878569  0.5000407390463347
  0.1249786923527338  0.7848968826121396  0.4999592609536653
  0.8750213176472670  0.7151031613878569  0.5000407390463347
  0.6249786423527297  0.7848968826121396  0.4999592609536653
  0.1211900082683558  0.1252100742487350  0.5594844198859912
  0.3711220547076232  0.3747910112977568  0.5595085921951444
  0.3788100017316450  0.3747899257512650  0.4405155801140088
  0.1288679472923809  0.1252089887022432  0.4404914078048556
  0.6211900382683583  0.1252100742487350  0.5594844198859912
  0.8711220547076232  0.3747910112977568  0.5595085921951444
  0.8788099617316417  0.3747899257512650  0.4405155801140088
  0.6288679162923819  0.1252089887022432  0.4404914078048556
  0.1211900082683558  0.6252100292487348  0.5594844198859912
  0.3711220547076232  0.8747910562977570  0.5595085921951444
  0.3788100017316450  0.8747899707512652  0.4405155801140088
  0.1288679472923809  0.6252089437022430  0.4404914078048556
  0.6211900382683583  0.6252100292487348  0.5594844198859912
  0.8711220547076232  0.8747910562977570  0.5595085921951444
  0.8788099617316417  0.8747899707512652  0.4405155801140088
  0.6288679162923819  0.6252089437022430  0.4404914078048556
  0.4596323695243098  0.4598630385888687  0.5799674068856159
  0.3046646944107122  0.3000809486345430  0.3996998370428207
  0.4538639429146424  0.1150965312565269  0.5829902720812630
  0.2961865411927782  0.1150868140466933  0.4169913892777157
  0.0546739781460810  0.1998931470225976  0.3996547848977995
  0.2038034508072251  0.3849131969533041  0.5830085857222858
  0.0461460550853606  0.3849034457434747  0.4170097019187349
  0.2903311805978977  0.4598600665463052  0.4200885949984478
  0.0403676304756902  0.0401369894111336  0.4200326191143863
  0.2096688194021023  0.0401399614536971  0.5799114050015521
  0.1953353055892878  0.1999190513654570  0.6003001379571808
  0.4453360198539149  0.3001068529774024  0.6003451901022019
  0.9596323695243099  0.4598630385888687  0.5799674068856159
  0.8046646744107105  0.3000809486345430  0.3996998370428207
  0.9538639029146392  0.1150965312565269  0.5829902720812630
  0.7961865411927782  0.1150868140466933  0.4169913892777157
  0.5546740081460835  0.1998931470225976  0.3996547848977995
  0.7038034708072267  0.3849131969533041  0.5830085857222858
  0.5461460450853597  0.3849034457434747  0.4170097019187349
  0.7903311405979015  0.4598600665463052  0.4200885949984478
  0.5403676304756901  0.0401369894111336  0.4200326191143863
  0.7096688194021022  0.0401399614536971  0.5799114050015521
  0.6953352855892933  0.1999190513654570  0.6003001379571808
  0.9453360198539149  0.3001068529774024  0.6003451901022019
  0.4596323695243098  0.9598629485888683  0.5799674068856159
  0.3046646944107122  0.8000809486345430  0.3996998370428207
  0.4538639429146424  0.6150965542565253  0.5829902720812630
  0.2961865411927782  0.6150868030466959  0.4169913892777157
  0.0546739781460810  0.6998931250225958  0.3996547848977995
  0.2038034508072251  0.8849131969533041  0.5830085857222858
  0.0461460550853606  0.8849034457434747  0.4170097019187349
  0.2903311805978977  0.9598599765463048  0.4200885949984478
  0.0403676304756902  0.5401370064111315  0.4200326191143863
  0.2096688194021023  0.5401399784536950  0.5799114050015521
  0.1953353055892878  0.6999190063654568  0.6003001379571808
  0.4453360198539149  0.8001068299774040  0.6003451901022019
  0.9596323695243099  0.9598629485888683  0.5799674068856159
  0.8046646744107105  0.8000809486345430  0.3996998370428207
  0.9538639029146392  0.6150965542565253  0.5829902720812630
  0.7961865411927782  0.6150868030466959  0.4169913892777157
  0.5546740081460835  0.6998931250225958  0.3996547848977995
  0.7038034708072267  0.8849131969533041  0.5830085857222858
  0.5461460450853597  0.8849034457434747  0.4170097019187349
  0.7903311405979015  0.9598599765463048  0.4200885949984478
  0.5403676304756901  0.5401370064111315  0.4200326191143863
  0.7096688194021022  0.5401399784536950  0.5799114050015521
  0.6953352855892933  0.6999190063654568  0.6003001379571808
  0.9453360198539149  0.8001068299774040  0.6003451901022019
 
  0.00000000E+00  0.00000000E+00  0.00000000E+00
  0.00000000E+00  0.00000000E+00  0.00000000E+00
  0.00000000E+00  0.00000000E+00  0.00000000E+00
  0.00000000E+00  0.00000000E+00  0.00000000E+00
  0.00000000E+00  0.00000000E+00  0.00000000E+00
  0.00000000E+00  0.00000000E+00  0.00000000E+00
  0.00000000E+00  0.00000000E+00  0.00000000E+00
  0.00000000E+00  0.00000000E+00  0.00000000E+00
  0.00000000E+00  0.00000000E+00  0.00000000E+00
  0.00000000E+00  0.00000000E+00  0.00000000E+00
  0.00000000E+00  0.00000000E+00  0.00000000E+00
  0.00000000E+00  0.00000000E+00  0.00000000E+00
  0.00000000E+00  0.00000000E+00  0.00000000E+00
  0.00000000E+00  0.00000000E+00  0.00000000E+00
  0.00000000E+00  0.00000000E+00  0.00000000E+00
  0.00000000E+00  0.00000000E+00  0.00000000E+00
  0.00000000E+00  0.00000000E+00  0.00000000E+00
  0.00000000E+00  0.00000000E+00  0.00000000E+00
  0.00000000E+00  0.00000000E+00  0.00000000E+00
  0.00000000E+00  0.00000000E+00  0.00000000E+00
  0.00000000E+00  0.00000000E+00  0.00000000E+00
  0.00000000E+00  0.00000000E+00  0.00000000E+00
  0.00000000E+00  0.00000000E+00  0.00000000E+00
  0.00000000E+00  0.00000000E+00  0.00000000E+00
  0.00000000E+00  0.00000000E+00  0.00000000E+00
  0.00000000E+00  0.00000000E+00  0.00000000E+00
  0.00000000E+00  0.00000000E+00  0.00000000E+00
  0.00000000E+00  0.00000000E+00  0.00000000E+00
  0.00000000E+00  0.00000000E+00  0.00000000E+00
  0.00000000E+00  0.00000000E+00  0.00000000E+00
  0.00000000E+00  0.00000000E+00  0.00000000E+00
  0.00000000E+00  0.00000000E+00  0.00000000E+00
  0.00000000E+00  0.00000000E+00  0.00000000E+00
  0.00000000E+00  0.00000000E+00  0.00000000E+00
  0.00000000E+00  0.00000000E+00  0.00000000E+00
  0.00000000E+00  0.00000000E+00  0.00000000E+00
  0.00000000E+00  0.00000000E+00  0.00000000E+00
  0.00000000E+00  0.00000000E+00  0.00000000E+00
  0.00000000E+00  0.00000000E+00  0.00000000E+00
  0.00000000E+00  0.00000000E+00  0.00000000E+00
  0.00000000E+00  0.00000000E+00  0.00000000E+00
  0.00000000E+00  0.00000000E+00  0.00000000E+00
  0.00000000E+00  0.00000000E+00  0.00000000E+00
  0.00000000E+00  0.00000000E+00  0.00000000E+00
  0.00000000E+00  0.00000000E+00  0.00000000E+00
  0.00000000E+00  0.00000000E+00  0.00000000E+00
  0.00000000E+00  0.00000000E+00  0.00000000E+00
  0.00000000E+00  0.00000000E+00  0.00000000E+00
  0.00000000E+00  0.00000000E+00  0.00000000E+00
  0.00000000E+00  0.00000000E+00  0.00000000E+00
  0.00000000E+00  0.00000000E+00  0.00000000E+00
  0.00000000E+00  0.00000000E+00  0.00000000E+00
  0.00000000E+00  0.00000000E+00  0.00000000E+00
  0.00000000E+00  0.00000000E+00  0.00000000E+00
  0.00000000E+00  0.00000000E+00  0.00000000E+00
  0.00000000E+00  0.00000000E+00  0.00000000E+00
  0.00000000E+00  0.00000000E+00  0.00000000E+00
  0.00000000E+00  0.00000000E+00  0.00000000E+00
  0.00000000E+00  0.00000000E+00  0.00000000E+00
  0.00000000E+00  0.00000000E+00  0.00000000E+00
  0.00000000E+00  0.00000000E+00  0.00000000E+00
  0.00000000E+00  0.00000000E+00  0.00000000E+00
  0.00000000E+00  0.00000000E+00  0.00000000E+00
  0.00000000E+00  0.00000000E+00  0.00000000E+00
  0.00000000E+00  0.00000000E+00  0.00000000E+00
  0.00000000E+00  0.00000000E+00  0.00000000E+00
  0.00000000E+00  0.00000000E+00  0.00000000E+00
  0.00000000E+00  0.00000000E+00  0.00000000E+00
  0.00000000E+00  0.00000000E+00  0.00000000E+00
  0.00000000E+00  0.00000000E+00  0.00000000E+00
  0.00000000E+00  0.00000000E+00  0.00000000E+00
  0.00000000E+00  0.00000000E+00  0.00000000E+00
  0.00000000E+00  0.00000000E+00  0.00000000E+00
  0.00000000E+00  0.00000000E+00  0.00000000E+00
  0.00000000E+00  0.00000000E+00  0.00000000E+00
  0.00000000E+00  0.00000000E+00  0.00000000E+00
  0.00000000E+00  0.00000000E+00  0.00000000E+00
  0.00000000E+00  0.00000000E+00  0.00000000E+00
  0.00000000E+00  0.00000000E+00  0.00000000E+00
  0.00000000E+00  0.00000000E+00  0.00000000E+00
