CONTCAR\(6)                             
   1.00000000000000     
    13.7902002335000002    0.0000000000000000    0.0000000000000000
     6.8951001167000001   11.9426637253999992    0.0000000000000000
     0.0000000000000000    0.0000000000000000   18.3700008391999994
   Nb   Se   O    H 
    16    32     1     1
Direct
  0.0792580259103920  0.0915861313705873  0.4972793188828504
  0.3284045372173316  0.0915761610038026  0.4969206385806861
  0.5792541236552086  0.0921759490945933  0.5000686993874055
  0.8328088540294650  0.0898029852343755  0.4978153260858111
  0.0823429766597615  0.3328441765534725  0.4984693466871015
  0.3258245064254233  0.3318490903255212  0.5007660181831088
  0.5922075324482724  0.3318968166312302  0.5017380722967126
  0.8358569521878888  0.3327341076859868  0.4989354543083555
  0.0821938259526306  0.5799905758044011  0.5025260529090936
  0.3417358192316730  0.5720195149581164  0.5186994396175040
  0.5880542785963992  0.5800809642977435  0.5031159087373659
  0.8350038551856183  0.5816457059757008  0.4997787540176314
  0.0815492754311752  0.8411613260871600  0.5005085927107066
  0.3288252509702300  0.8421334566630985  0.4992336371524314
  0.5819982347422601  0.8389122072589943  0.4985514338786876
  0.8307386816135789  0.8382195389858580  0.4989467571137645
  0.1649553507163078  0.1687105133522309  0.5909375631200701
  0.1641353096125145  0.1705506892759225  0.4042827488581645
  0.4144606678738012  0.1625147042267100  0.5935785113505478
  0.4164706059790242  0.1707904076202708  0.4058801003538249
  0.6749092846083317  0.1613179547010543  0.5934765522323097
  0.6648194929845095  0.1700904322606434  0.4069446721337056
  0.9175398689846933  0.1684975897460840  0.5915828317530322
  0.9154584144174512  0.1705583236942370  0.4046190093295289
  0.1641301931538661  0.4167403883776494  0.5941742292589270
  0.1650222123991412  0.4200314030602427  0.4071262312790055
  0.4427409860982291  0.3640526756623971  0.5987012030360875
  0.4146247342491284  0.4221173112606263  0.4172994904016732
  0.6693801630427413  0.4169935783693771  0.5945677885956746
  0.6658225369974061  0.4193931342370237  0.4080105642007812
  0.9164710921499334  0.4179771535339590  0.5915762145146893
  0.9153392409572013  0.4192435480017595  0.4067010719187734
  0.1523075673098531  0.6781255319746795  0.5931191300942030
  0.1751895107038512  0.6630251743138673  0.4196242215977158
  0.4207222722794005  0.6830253114090454  0.5924902403798574
  0.4133925851940163  0.6631940654184968  0.4185350027970517
  0.6673780540457294  0.6723603251169039  0.5909225739618880
  0.6644646379410918  0.6694663192084090  0.4096154967031141
  0.9123933746923578  0.6716384778070542  0.5911601188665981
  0.9169499714421546  0.6694565095621715  0.4092917441667666
  0.1642477257683926  0.9238939657628177  0.5915333309510111
  0.1651937241180557  0.9192467259159894  0.4065191863569736
  0.4148775930189529  0.9240480694243777  0.5892429707254209
  0.4150863346278623  0.9206062322697838  0.4065710502216646
  0.6647732272898207  0.9216669109401007  0.5905178871915771
  0.6643159344412155  0.9231784633427554  0.4078631221429446
  0.9137603248474203  0.9220441197636313  0.5902289187904973
  0.9165985091475519  0.9195881609936846  0.4076252846331564
  0.3773455848545575  0.5230271406507609  0.6355331627535481
  0.3080649207961020  0.5436811528146730  0.6628150297799250
 
  0.00000000E+00  0.00000000E+00  0.00000000E+00
  0.00000000E+00  0.00000000E+00  0.00000000E+00
  0.00000000E+00  0.00000000E+00  0.00000000E+00
  0.00000000E+00  0.00000000E+00  0.00000000E+00
  0.00000000E+00  0.00000000E+00  0.00000000E+00
  0.00000000E+00  0.00000000E+00  0.00000000E+00
  0.00000000E+00  0.00000000E+00  0.00000000E+00
  0.00000000E+00  0.00000000E+00  0.00000000E+00
  0.00000000E+00  0.00000000E+00  0.00000000E+00
  0.00000000E+00  0.00000000E+00  0.00000000E+00
  0.00000000E+00  0.00000000E+00  0.00000000E+00
  0.00000000E+00  0.00000000E+00  0.00000000E+00
  0.00000000E+00  0.00000000E+00  0.00000000E+00
  0.00000000E+00  0.00000000E+00  0.00000000E+00
  0.00000000E+00  0.00000000E+00  0.00000000E+00
  0.00000000E+00  0.00000000E+00  0.00000000E+00
  0.00000000E+00  0.00000000E+00  0.00000000E+00
  0.00000000E+00  0.00000000E+00  0.00000000E+00
  0.00000000E+00  0.00000000E+00  0.00000000E+00
  0.00000000E+00  0.00000000E+00  0.00000000E+00
  0.00000000E+00  0.00000000E+00  0.00000000E+00
  0.00000000E+00  0.00000000E+00  0.00000000E+00
  0.00000000E+00  0.00000000E+00  0.00000000E+00
  0.00000000E+00  0.00000000E+00  0.00000000E+00
  0.00000000E+00  0.00000000E+00  0.00000000E+00
  0.00000000E+00  0.00000000E+00  0.00000000E+00
  0.00000000E+00  0.00000000E+00  0.00000000E+00
  0.00000000E+00  0.00000000E+00  0.00000000E+00
  0.00000000E+00  0.00000000E+00  0.00000000E+00
  0.00000000E+00  0.00000000E+00  0.00000000E+00
  0.00000000E+00  0.00000000E+00  0.00000000E+00
  0.00000000E+00  0.00000000E+00  0.00000000E+00
  0.00000000E+00  0.00000000E+00  0.00000000E+00
  0.00000000E+00  0.00000000E+00  0.00000000E+00
  0.00000000E+00  0.00000000E+00  0.00000000E+00
  0.00000000E+00  0.00000000E+00  0.00000000E+00
  0.00000000E+00  0.00000000E+00  0.00000000E+00
  0.00000000E+00  0.00000000E+00  0.00000000E+00
  0.00000000E+00  0.00000000E+00  0.00000000E+00
  0.00000000E+00  0.00000000E+00  0.00000000E+00
  0.00000000E+00  0.00000000E+00  0.00000000E+00
  0.00000000E+00  0.00000000E+00  0.00000000E+00
  0.00000000E+00  0.00000000E+00  0.00000000E+00
  0.00000000E+00  0.00000000E+00  0.00000000E+00
  0.00000000E+00  0.00000000E+00  0.00000000E+00
  0.00000000E+00  0.00000000E+00  0.00000000E+00
  0.00000000E+00  0.00000000E+00  0.00000000E+00
  0.00000000E+00  0.00000000E+00  0.00000000E+00
  0.00000000E+00  0.00000000E+00  0.00000000E+00
  0.00000000E+00  0.00000000E+00  0.00000000E+00
