CONTCAR                                 
   1.00000000000000     
    12.8863000870000004    0.0000000000000000    0.0000000000000000
     6.4431192937999997   11.1597653626000000    0.0000000000000000
     0.0000000000000000    0.0000000000000000   25.6977996825999995
   In   Te   O    H 
    27    36     2     1
Direct
  0.9960246617326654  0.0000932958097525  0.4984199024991270
  0.1106101691511133  0.1103538759944417  0.3511802162720503
  0.2195660155813276  0.2211896127096451  0.6476641506935239
  0.3339607910188060  0.0000261919234638  0.4982734492820536
  0.4453984712582220  0.1095594080453811  0.3499685779403545
  0.5525842822189890  0.2205155436441693  0.6483910903204976
  0.6651812339504273  0.0005557300491408  0.4997833356839051
  0.7747037804052637  0.1134347711203170  0.3500363557298239
  0.9003286065706402  0.2185784642873551  0.6461597348545390
  0.9963962793127542  0.3354716224430465  0.4993313579295415
  0.1093420191481596  0.4450163769786027  0.3499370969843618
  0.2199538798467708  0.5598886007596426  0.6485039018485929
  0.3299065844344257  0.3341883860476199  0.4998086577870548
  0.4424265250202324  0.4459068914815570  0.3501778669747805
  0.5524449240338228  0.5613699756685667  0.6466861675013621
  0.6643051722930229  0.3343748951357702  0.5003980626256636
  0.7745440754514755  0.4459990170364905  0.3501515695719516
  0.8889902363399469  0.5543277030909510  0.6500801896236184
  0.9961605627244829  0.6685393643019433  0.4996207464398875
  0.1094679929704832  0.7783723212913756  0.3506380293938914
  0.2169250267138984  0.8922078870450167  0.6492999979235649
  0.3306144865924794  0.6670162225823940  0.4996050916048553
  0.4446556842863904  0.7776927104737608  0.3497158152510764
  0.5541042551465757  0.8886224540480083  0.6496496209672328
  0.6635185627693120  0.6687279533351366  0.4994478996713844
  0.7781353635360380  0.7777433333690350  0.3487749803811155
  0.8864238055204881  0.8930465737662662  0.6496094404559051
 -0.0019224189519981  0.0012226115947589  0.2935134292002942
  0.9969402431520059  0.0016417021233299  0.7087294787912870
  0.1060327579801681  0.1122119559419172  0.5681472823760347
  0.2176685015240439  0.2237645908715147  0.4313112994185187
  0.3317259517473199  0.0005054563204964  0.2927817719287344
  0.3308500873185836  0.0012956034145490  0.7063831552609139
  0.4398023687810094  0.1126075193569624  0.5683765880858692
  0.5519675908646802  0.2239215559326142  0.4311741983867186
  0.6663391466162476  0.0008027128073045  0.2918278498320934
  0.6635414108780221  0.0009858675850378  0.7072276853434099
  0.7712469925123702  0.1116946412777060  0.5684676628922403
  0.8834921523648375  0.2240703845189336  0.4313713622188752
  0.9980763716487313  0.3327140654250225  0.2935723687045432
  0.0016288630678565  0.3340297729325635  0.7083503538994939
  0.1062272599736950  0.4460823158682087  0.5686423790130863
  0.2179600513349003  0.5573423604043943  0.4309758368502858
  0.3323857825200443  0.3328952429386200  0.2932601520243979
  0.3297358109492841  0.3355278780378385  0.7049566575403353
  0.4392330060183305  0.4470811848300082  0.5683175948132242
  0.5527477239281278  0.5573047257658095  0.4306027040398436
  0.6640089951565985  0.3350170884297428  0.2922649883272663
  0.6647048219122528  0.3342822391564726  0.7050023118931193
  0.7712813328767055  0.4504184164509590  0.5684035328368917
  0.8852650182639297  0.5574230089229586  0.4303600320536955
  0.0007089273343954  0.6663207195148309  0.2919223652202469
  0.9978686978805874  0.6694481347918624  0.7061430082640752
  0.1061260208776880  0.7801561281554165  0.5680702205045141
  0.2186290619002562  0.8905953355943766  0.4309955825733587
  0.3313312249927520  0.6681897431819388  0.2928079236164802
  0.3317589008251824  0.6697179916276784  0.7059316436138113
  0.4404487937615221  0.7810611315284973  0.5675648433589771
  0.5535647167981472  0.8907260289782681  0.4298135780824128
  0.6661688083305166  0.6669712896891057  0.2918041491482511
  0.6655696195805827  0.6664662220609554  0.7068962396863752
  0.7732683859665227  0.7797696461411299  0.5683643678831811
  0.8844709322192558  0.8893035248139759  0.4299451497538432
  0.5159566569618723  0.4448044540328424  0.7585270662404251
  0.5050965283586450  0.3832077217920828  0.8027755804292495
  0.4492607447461071  0.3574694937504537  0.7894838016819601
 
  0.00000000E+00  0.00000000E+00  0.00000000E+00
  0.00000000E+00  0.00000000E+00  0.00000000E+00
  0.00000000E+00  0.00000000E+00  0.00000000E+00
  0.00000000E+00  0.00000000E+00  0.00000000E+00
  0.00000000E+00  0.00000000E+00  0.00000000E+00
  0.00000000E+00  0.00000000E+00  0.00000000E+00
  0.00000000E+00  0.00000000E+00  0.00000000E+00
  0.00000000E+00  0.00000000E+00  0.00000000E+00
  0.00000000E+00  0.00000000E+00  0.00000000E+00
  0.00000000E+00  0.00000000E+00  0.00000000E+00
  0.00000000E+00  0.00000000E+00  0.00000000E+00
  0.00000000E+00  0.00000000E+00  0.00000000E+00
  0.00000000E+00  0.00000000E+00  0.00000000E+00
  0.00000000E+00  0.00000000E+00  0.00000000E+00
  0.00000000E+00  0.00000000E+00  0.00000000E+00
  0.00000000E+00  0.00000000E+00  0.00000000E+00
  0.00000000E+00  0.00000000E+00  0.00000000E+00
  0.00000000E+00  0.00000000E+00  0.00000000E+00
  0.00000000E+00  0.00000000E+00  0.00000000E+00
  0.00000000E+00  0.00000000E+00  0.00000000E+00
  0.00000000E+00  0.00000000E+00  0.00000000E+00
  0.00000000E+00  0.00000000E+00  0.00000000E+00
  0.00000000E+00  0.00000000E+00  0.00000000E+00
  0.00000000E+00  0.00000000E+00  0.00000000E+00
  0.00000000E+00  0.00000000E+00  0.00000000E+00
  0.00000000E+00  0.00000000E+00  0.00000000E+00
  0.00000000E+00  0.00000000E+00  0.00000000E+00
  0.00000000E+00  0.00000000E+00  0.00000000E+00
  0.00000000E+00  0.00000000E+00  0.00000000E+00
  0.00000000E+00  0.00000000E+00  0.00000000E+00
  0.00000000E+00  0.00000000E+00  0.00000000E+00
  0.00000000E+00  0.00000000E+00  0.00000000E+00
  0.00000000E+00  0.00000000E+00  0.00000000E+00
  0.00000000E+00  0.00000000E+00  0.00000000E+00
  0.00000000E+00  0.00000000E+00  0.00000000E+00
  0.00000000E+00  0.00000000E+00  0.00000000E+00
  0.00000000E+00  0.00000000E+00  0.00000000E+00
  0.00000000E+00  0.00000000E+00  0.00000000E+00
  0.00000000E+00  0.00000000E+00  0.00000000E+00
  0.00000000E+00  0.00000000E+00  0.00000000E+00
  0.00000000E+00  0.00000000E+00  0.00000000E+00
  0.00000000E+00  0.00000000E+00  0.00000000E+00
  0.00000000E+00  0.00000000E+00  0.00000000E+00
  0.00000000E+00  0.00000000E+00  0.00000000E+00
  0.00000000E+00  0.00000000E+00  0.00000000E+00
  0.00000000E+00  0.00000000E+00  0.00000000E+00
  0.00000000E+00  0.00000000E+00  0.00000000E+00
  0.00000000E+00  0.00000000E+00  0.00000000E+00
  0.00000000E+00  0.00000000E+00  0.00000000E+00
  0.00000000E+00  0.00000000E+00  0.00000000E+00
  0.00000000E+00  0.00000000E+00  0.00000000E+00
  0.00000000E+00  0.00000000E+00  0.00000000E+00
  0.00000000E+00  0.00000000E+00  0.00000000E+00
  0.00000000E+00  0.00000000E+00  0.00000000E+00
  0.00000000E+00  0.00000000E+00  0.00000000E+00
  0.00000000E+00  0.00000000E+00  0.00000000E+00
  0.00000000E+00  0.00000000E+00  0.00000000E+00
  0.00000000E+00  0.00000000E+00  0.00000000E+00
  0.00000000E+00  0.00000000E+00  0.00000000E+00
  0.00000000E+00  0.00000000E+00  0.00000000E+00
  0.00000000E+00  0.00000000E+00  0.00000000E+00
  0.00000000E+00  0.00000000E+00  0.00000000E+00
  0.00000000E+00  0.00000000E+00  0.00000000E+00
  0.00000000E+00  0.00000000E+00  0.00000000E+00
  0.00000000E+00  0.00000000E+00  0.00000000E+00
  0.00000000E+00  0.00000000E+00  0.00000000E+00
