CONTCAR\(5)                             
   1.00000000000000     
    10.6047000884999996    0.0000000000000000    0.0000000000000000
     0.0000000000000000   11.2699003219999998    0.0000000000000000
     0.0000000000000000    0.0000000000000000   19.2775993346999996
   Cr   Cu   O 
     8     8    33
Direct
  0.2503560718675441  0.1253163257878710  0.4371234689733063
  0.2386307485744946  0.3752842934609369  0.5786739768360624
  0.7289326942946072  0.1285059896509572  0.4246932923058755
  0.7557532093056047  0.3754429647535132  0.5740697852335200
  0.2475921967614118  0.6254048991423055  0.4379680251352845
  0.2335398237240198  0.8759528641226983  0.5712796304449201
  0.7262423812415231  0.6212680677533668  0.4242055611817659
  0.7536472990556480  0.8720106601570818  0.5862510574330833
  0.9916080292481362  0.2508876415713526  0.4955754475744407
  0.9914560809208448  0.9994371264240770  0.4832246853415090
  0.4956123198534463  0.2490115268628060  0.5116268225443645
  0.5034298258396532  0.9980690721119688  0.5108839632169049
  0.9870457927983117  0.7517924296345686  0.4848382073345148
  0.9900068435830739  0.4997465061015609  0.4951403427823903
  0.5018782460609189  0.7516549656239075  0.5110527930632516
  0.4945373214047570  0.5011204098265780  0.5115850976441209
  0.1030878558402347  0.3758040248947521  0.5256027769260833
  0.3823143863808253  0.1216533394655535  0.4929162667922515
  0.1130479507937158  0.1252598257492417  0.4895864347852356
  0.3739573253673230  0.3748341119532284  0.5246593159174781
  0.2406769691314045  0.4911799769540893  0.6254781530045364
  0.2535307622201237  0.2429234633297335  0.3917623984022513
  0.2398820087637658  0.2593334710895081  0.6254320615226250
  0.2507977634895698  0.0111202257024346  0.3888559546226586
  0.6076338326115273  0.3754315010299469  0.5331149800403784
  0.8852436094774997  0.1287842451922245  0.4563232498111351
  0.6196085090457523  0.1261987474502200  0.4948071885701792
  0.8689019013678413  0.3745881998025158  0.5064507574201316
  0.7706429736679472  0.4920390205098316  0.6196263788928360
  0.7070095618747686  0.2474791523496038  0.3822273832135451
  0.7700248726028908  0.2597852485871329  0.6204878171463899
  0.7063641596556471  0.0166088919219979  0.3763456902671588
  0.1052552798946927  0.8760846307347259  0.5117791764439032
  0.3806300004300187  0.6282588813817114  0.4933168549838076
  0.1104418617922740  0.6258838525164773  0.4902546658364708
  0.3811658230535403  0.8752656966844758  0.5267977050041595
  0.2264592198666920  0.9915527648384151  0.6179768493149507
  0.2483564997471857  0.7398978189268938  0.3899203109001980
  0.2249361462089099  0.7605070848396831  0.6180340260214179
  0.2498630458677259  0.5080597420953915  0.3923131744656304
  0.6239998304662291  0.8740911781400551  0.5216509444963917
  0.8827288715519113  0.6199452625254595  0.4544994023759309
  0.6181435537920814  0.6239522154837152  0.4952530924052715
  0.8910303866711859  0.8771313229789105  0.4575545776052130
  0.8356238334279039  0.9937803783527384  0.5809673134971630
  0.7036803287523768  0.7341525699622227  0.3766306587362224
  0.8459734977061858  0.7557088890108137  0.5755648968431837
  0.7013953567251868  0.5030145938714167  0.3814793316515262
  0.6875731862210798  0.8638740956893258  0.6606381140383537
 
  0.00000000E+00  0.00000000E+00  0.00000000E+00
  0.00000000E+00  0.00000000E+00  0.00000000E+00
  0.00000000E+00  0.00000000E+00  0.00000000E+00
  0.00000000E+00  0.00000000E+00  0.00000000E+00
  0.00000000E+00  0.00000000E+00  0.00000000E+00
  0.00000000E+00  0.00000000E+00  0.00000000E+00
  0.00000000E+00  0.00000000E+00  0.00000000E+00
  0.00000000E+00  0.00000000E+00  0.00000000E+00
  0.00000000E+00  0.00000000E+00  0.00000000E+00
  0.00000000E+00  0.00000000E+00  0.00000000E+00
  0.00000000E+00  0.00000000E+00  0.00000000E+00
  0.00000000E+00  0.00000000E+00  0.00000000E+00
  0.00000000E+00  0.00000000E+00  0.00000000E+00
  0.00000000E+00  0.00000000E+00  0.00000000E+00
  0.00000000E+00  0.00000000E+00  0.00000000E+00
  0.00000000E+00  0.00000000E+00  0.00000000E+00
  0.00000000E+00  0.00000000E+00  0.00000000E+00
  0.00000000E+00  0.00000000E+00  0.00000000E+00
  0.00000000E+00  0.00000000E+00  0.00000000E+00
  0.00000000E+00  0.00000000E+00  0.00000000E+00
  0.00000000E+00  0.00000000E+00  0.00000000E+00
  0.00000000E+00  0.00000000E+00  0.00000000E+00
  0.00000000E+00  0.00000000E+00  0.00000000E+00
  0.00000000E+00  0.00000000E+00  0.00000000E+00
  0.00000000E+00  0.00000000E+00  0.00000000E+00
  0.00000000E+00  0.00000000E+00  0.00000000E+00
  0.00000000E+00  0.00000000E+00  0.00000000E+00
  0.00000000E+00  0.00000000E+00  0.00000000E+00
  0.00000000E+00  0.00000000E+00  0.00000000E+00
  0.00000000E+00  0.00000000E+00  0.00000000E+00
  0.00000000E+00  0.00000000E+00  0.00000000E+00
  0.00000000E+00  0.00000000E+00  0.00000000E+00
  0.00000000E+00  0.00000000E+00  0.00000000E+00
  0.00000000E+00  0.00000000E+00  0.00000000E+00
  0.00000000E+00  0.00000000E+00  0.00000000E+00
  0.00000000E+00  0.00000000E+00  0.00000000E+00
  0.00000000E+00  0.00000000E+00  0.00000000E+00
  0.00000000E+00  0.00000000E+00  0.00000000E+00
  0.00000000E+00  0.00000000E+00  0.00000000E+00
  0.00000000E+00  0.00000000E+00  0.00000000E+00
  0.00000000E+00  0.00000000E+00  0.00000000E+00
  0.00000000E+00  0.00000000E+00  0.00000000E+00
  0.00000000E+00  0.00000000E+00  0.00000000E+00
  0.00000000E+00  0.00000000E+00  0.00000000E+00
  0.00000000E+00  0.00000000E+00  0.00000000E+00
  0.00000000E+00  0.00000000E+00  0.00000000E+00
  0.00000000E+00  0.00000000E+00  0.00000000E+00
  0.00000000E+00  0.00000000E+00  0.00000000E+00
  0.00000000E+00  0.00000000E+00  0.00000000E+00
