CONTCAR                                 
   1.00000000000000     
    13.1778001785000001    0.0000000000000000    0.0000000000000000
    -6.5889000893000000   11.4123097205999997    0.0000000000000000
     0.0000000000000000    0.0000000000000000   18.1460990905999999
   W    Se   H 
    16    32     1
Direct
  0.0816255700745223  0.1658631444515607  0.5004577377949322
  0.3290741056623529  0.1632085569551582  0.4972460864406624
  0.5794984525579845  0.1660345168970139  0.5004281536489510
  0.8305392974193206  0.1657776413462117  0.5006525658183772
  0.0807006077341232  0.4159009588572637  0.5007949845426060
  0.3311058648961304  0.4156203600219492  0.5023329176078952
  0.5794751608425717  0.4157094985510676  0.5023333626196298
  0.8303610849501821  0.4159443372509281  0.5007394102112950
  0.0804312985099161  0.6654221509728863  0.5000546022827793
  0.3304025229325573  0.6662620541565728  0.5001679093308082
  0.5806898364820675  0.6660702576071412  0.5009581389559383
  0.8311421588995358  0.6660644346500787  0.5001318956362046
  0.0802495443517676  0.9155289130402380  0.4996550774155021
  0.3308433469099110  0.9156757464735945  0.4996184723735522
  0.5803627751497392  0.9155873098921441  0.5003544464441226
  0.8305425103811225  0.9154808334963138  0.5003615111213519
  0.1626281428717030  0.0814174713295996  0.4057430541123109
  0.1653513602788598  0.0825505379701349  0.5925832144127279
  0.4141218097484561  0.0816479357149466  0.4057537014886251
  0.4124657507099688  0.0827897785480134  0.5924970124516801
  0.6639158865229676  0.0828818632654973  0.4076861838787106
  0.6633006559014339  0.0824757081736656  0.5933040991979194
  0.9142718400018998  0.0827426294033430  0.4076760841525233
  0.9143726677864802  0.0823050326596430  0.5933381851170297
  0.1648314824582718  0.3329660378399066  0.4081361167990151
  0.1628385210495487  0.3317843767154196  0.5941984338720392
  0.4140591410704578  0.3331764269651588  0.4084110588136334
  0.4175633528105672  0.3402102370801661  0.6004473233867081
  0.6632712972979793  0.3331709496188212  0.4081680776775584
  0.6640820478939843  0.3319222471794529  0.5941289144707763
  0.9138427497303185  0.3324823140459274  0.4077708497316910
  0.9137821080776865  0.3324048562050685  0.5936561489594137
  0.1639032976410434  0.5819731985862325  0.4072139162002049
  0.1640358369010489  0.5828833835452698  0.5934430387889095
  0.4136016202620929  0.5812856334140136  0.4082026339396297
  0.4140241756607836  0.5838715324530835  0.5939088562411438
  0.6629881870442036  0.5813477672937710  0.4081440431884891
  0.6651891131741023  0.5838685655580177  0.5938892697693625
  0.9135784166594656  0.5819584046970515  0.4071498362638968
  0.9143335672438410  0.5828492021536281  0.5934440642361322
  0.1638016571572086  0.8319970667239527  0.4067793720538651
  0.1641237912141555  0.8325123524026595  0.5925810548150735
  0.4142718095732683  0.8321752700846563  0.4068351062865946
  0.4137656584016961  0.8328839767976414  0.5932713465551626
  0.6638317280972417  0.8321479201192860  0.4073962022979729
  0.6641830698262037  0.8330044605707693  0.5936642931621234
  0.9134228689919464  0.8320485324424230  0.4068889951911073
  0.9145214509167414  0.8326533155926253  0.5932243150324560
  0.4721405572705901  0.4510296802299707  0.6562578802109039
 
  0.00000000E+00  0.00000000E+00  0.00000000E+00
  0.00000000E+00  0.00000000E+00  0.00000000E+00
  0.00000000E+00  0.00000000E+00  0.00000000E+00
  0.00000000E+00  0.00000000E+00  0.00000000E+00
  0.00000000E+00  0.00000000E+00  0.00000000E+00
  0.00000000E+00  0.00000000E+00  0.00000000E+00
  0.00000000E+00  0.00000000E+00  0.00000000E+00
  0.00000000E+00  0.00000000E+00  0.00000000E+00
  0.00000000E+00  0.00000000E+00  0.00000000E+00
  0.00000000E+00  0.00000000E+00  0.00000000E+00
  0.00000000E+00  0.00000000E+00  0.00000000E+00
  0.00000000E+00  0.00000000E+00  0.00000000E+00
  0.00000000E+00  0.00000000E+00  0.00000000E+00
  0.00000000E+00  0.00000000E+00  0.00000000E+00
  0.00000000E+00  0.00000000E+00  0.00000000E+00
  0.00000000E+00  0.00000000E+00  0.00000000E+00
  0.00000000E+00  0.00000000E+00  0.00000000E+00
  0.00000000E+00  0.00000000E+00  0.00000000E+00
  0.00000000E+00  0.00000000E+00  0.00000000E+00
  0.00000000E+00  0.00000000E+00  0.00000000E+00
  0.00000000E+00  0.00000000E+00  0.00000000E+00
  0.00000000E+00  0.00000000E+00  0.00000000E+00
  0.00000000E+00  0.00000000E+00  0.00000000E+00
  0.00000000E+00  0.00000000E+00  0.00000000E+00
  0.00000000E+00  0.00000000E+00  0.00000000E+00
  0.00000000E+00  0.00000000E+00  0.00000000E+00
  0.00000000E+00  0.00000000E+00  0.00000000E+00
  0.00000000E+00  0.00000000E+00  0.00000000E+00
  0.00000000E+00  0.00000000E+00  0.00000000E+00
  0.00000000E+00  0.00000000E+00  0.00000000E+00
  0.00000000E+00  0.00000000E+00  0.00000000E+00
  0.00000000E+00  0.00000000E+00  0.00000000E+00
  0.00000000E+00  0.00000000E+00  0.00000000E+00
  0.00000000E+00  0.00000000E+00  0.00000000E+00
  0.00000000E+00  0.00000000E+00  0.00000000E+00
  0.00000000E+00  0.00000000E+00  0.00000000E+00
  0.00000000E+00  0.00000000E+00  0.00000000E+00
  0.00000000E+00  0.00000000E+00  0.00000000E+00
  0.00000000E+00  0.00000000E+00  0.00000000E+00
  0.00000000E+00  0.00000000E+00  0.00000000E+00
  0.00000000E+00  0.00000000E+00  0.00000000E+00
  0.00000000E+00  0.00000000E+00  0.00000000E+00
  0.00000000E+00  0.00000000E+00  0.00000000E+00
  0.00000000E+00  0.00000000E+00  0.00000000E+00
  0.00000000E+00  0.00000000E+00  0.00000000E+00
  0.00000000E+00  0.00000000E+00  0.00000000E+00
  0.00000000E+00  0.00000000E+00  0.00000000E+00
  0.00000000E+00  0.00000000E+00  0.00000000E+00
  0.00000000E+00  0.00000000E+00  0.00000000E+00
