CONTCAR\(6)                             
   1.00000000000000     
    12.6871004104999994    0.0000000000000000    0.0000000000000000
     6.3137961378999998   11.0849910486999992    0.0000000000000000
     0.0000000000000000    0.0000000000000000   18.1028995514000002
   Ti   Br   O 
     8    24     1
Direct
  0.0729380976266256  0.3390074291077525  0.4884198936378752
  0.2523483197781218  0.4937903536623693  0.6258539201297282
  0.5895271561348494  0.3137837010444144  0.4891373180729346
  0.7612226846593302  0.4940707493610716  0.4941461024110936
  0.0978925097612375  0.8310104338833568  0.4886402219352348
  0.2543412388443471  0.9869669734360826  0.4925104939807241
  0.5872927982647411  0.8320736100146320  0.4955054012815481
  0.7445085122792889  0.9997770459195578  0.4943513713027556
  0.0932120184804930  0.4842773036925863  0.4179438118651930
  0.2474973012509452  0.3105739100779630  0.5891058239374729
  0.2471271750484973  0.1620409484078564  0.4143147679826455
  0.0864598026330796  0.1604787429930568  0.5698827965381952
  0.4434113276882741  0.4863234330491508  0.5915184094838040
  0.4237326226357823  0.3333499781724143  0.4189444897196424
  0.5919337669220113  0.4884582907669497  0.4158053574225562
  0.7531107319885137  0.3287803901913193  0.5724234459500863
  0.7514995556094775  0.1578292687127529  0.4068791829778817
  0.5953526755382228  0.1599794751373977  0.5826973325332787
  0.9213649321865560  0.4848663005384566  0.5830061995856752
  0.9154387042331891  0.3351085642306160  0.4048460784323282
  0.0926900392437489  0.9911137811754287  0.4042451888841541
  0.2460052159133639  0.8372551866947759  0.5820563250650537
  0.2434872531025434  0.6658958275659757  0.4187119462158861
  0.0714482302205184  0.6841383422601126  0.5906200320543888
  0.4195784206948403  0.9880300697090760  0.5780386477526349
  0.4212945194337294  0.8309697014292823  0.4104685326404720
  0.5891895899662742  0.9916208137789511  0.4087798991884100
  0.7462082183525425  0.8365207064746301  0.5805272063601166
  0.7507391233683336  0.6628115035806843  0.4123197881753882
  0.5952838761245545  0.6612907117029394  0.5771365680420004
  0.9206664212051692  0.9936539279440808  0.5713155588412562
  0.9196690575821478  0.8329605154222506  0.4157976434777737
  0.2512276952286854  0.4926627848620555  0.7152201621217529
 
  0.00000000E+00  0.00000000E+00  0.00000000E+00
  0.00000000E+00  0.00000000E+00  0.00000000E+00
  0.00000000E+00  0.00000000E+00  0.00000000E+00
  0.00000000E+00  0.00000000E+00  0.00000000E+00
  0.00000000E+00  0.00000000E+00  0.00000000E+00
  0.00000000E+00  0.00000000E+00  0.00000000E+00
  0.00000000E+00  0.00000000E+00  0.00000000E+00
  0.00000000E+00  0.00000000E+00  0.00000000E+00
  0.00000000E+00  0.00000000E+00  0.00000000E+00
  0.00000000E+00  0.00000000E+00  0.00000000E+00
  0.00000000E+00  0.00000000E+00  0.00000000E+00
  0.00000000E+00  0.00000000E+00  0.00000000E+00
  0.00000000E+00  0.00000000E+00  0.00000000E+00
  0.00000000E+00  0.00000000E+00  0.00000000E+00
  0.00000000E+00  0.00000000E+00  0.00000000E+00
  0.00000000E+00  0.00000000E+00  0.00000000E+00
  0.00000000E+00  0.00000000E+00  0.00000000E+00
  0.00000000E+00  0.00000000E+00  0.00000000E+00
  0.00000000E+00  0.00000000E+00  0.00000000E+00
  0.00000000E+00  0.00000000E+00  0.00000000E+00
  0.00000000E+00  0.00000000E+00  0.00000000E+00
  0.00000000E+00  0.00000000E+00  0.00000000E+00
  0.00000000E+00  0.00000000E+00  0.00000000E+00
  0.00000000E+00  0.00000000E+00  0.00000000E+00
  0.00000000E+00  0.00000000E+00  0.00000000E+00
  0.00000000E+00  0.00000000E+00  0.00000000E+00
  0.00000000E+00  0.00000000E+00  0.00000000E+00
  0.00000000E+00  0.00000000E+00  0.00000000E+00
  0.00000000E+00  0.00000000E+00  0.00000000E+00
  0.00000000E+00  0.00000000E+00  0.00000000E+00
  0.00000000E+00  0.00000000E+00  0.00000000E+00
  0.00000000E+00  0.00000000E+00  0.00000000E+00
  0.00000000E+00  0.00000000E+00  0.00000000E+00
