CONTCAR\(5)                             
   1.00000000000000     
    12.2055997849000004    0.0000000000000000    0.0000000000000000
    -6.1027998924000002   10.5703594821000006    0.0000000000000000
     0.0000000000000000    0.0000000000000000   18.8425998688000007
   Tm   I    O 
     9    18     1
Direct
  0.0000728455799843  0.0001120049975312  0.4986381242006817
  0.3153091478327771  0.0102553233736781  0.4981746346248973
  0.6948542253149029  0.0102031104443240  0.4981618641458338
  0.9898565237117608  0.3051644436259590  0.4981538897617031
  0.3152578660431564  0.3050626518497511  0.4981459839064416
  0.6664836077224391  0.3330927724629383  0.4928345116506143
  0.9901205518036463  0.6848535652335730  0.4981547834967802
  0.3333956204202488  0.6666792913407835  0.5516141942100341
  0.6947212623923473  0.6849162702486933  0.4981369523409403
  0.2166496962217020  0.1083280343562292  0.6107799210849814
  0.1095930644114351  0.2192651975503821  0.3897285538774341
  0.5550477467830209  0.1101180219440273  0.5921871936776888
  0.4453898282979460  0.2227074742118610  0.3901248925228406
  0.8916887441957592  0.1083610148706760  0.6107324885594482
  0.7773039314511370  0.2227140601734037  0.3901376878066973
  0.2013634315186555  0.4027675358339158  0.6020318641163730
  0.1162258281329829  0.5580974395249411  0.4191520293458494
  0.5550497533313755  0.4449987857391638  0.5920183746484127
  0.4418746636885899  0.5581188181066193  0.4191800309803789
  0.8897229279581850  0.4448874500412963  0.5921104951330890
  0.7773258049928190  0.5547045312156452  0.3903451256015549
  0.2014505395255773  0.7986730800380787  0.6020508889634293
  0.1096089470051976  0.8904687233471350  0.3897489672862551
  0.5973736316609558  0.7987719983433323  0.6020653668353407
  0.4418883069198836  0.8838155451891493  0.4192003577001374
  0.8916807834069876  0.7833492248943417  0.6107245989939897
  0.7809443084068052  0.8905577175768812  0.3897459946047407
  0.3334965812697240  0.6666259244656880  0.6520298119233876
 
  0.00000000E+00  0.00000000E+00  0.00000000E+00
  0.00000000E+00  0.00000000E+00  0.00000000E+00
  0.00000000E+00  0.00000000E+00  0.00000000E+00
  0.00000000E+00  0.00000000E+00  0.00000000E+00
  0.00000000E+00  0.00000000E+00  0.00000000E+00
  0.00000000E+00  0.00000000E+00  0.00000000E+00
  0.00000000E+00  0.00000000E+00  0.00000000E+00
  0.00000000E+00  0.00000000E+00  0.00000000E+00
  0.00000000E+00  0.00000000E+00  0.00000000E+00
  0.00000000E+00  0.00000000E+00  0.00000000E+00
  0.00000000E+00  0.00000000E+00  0.00000000E+00
  0.00000000E+00  0.00000000E+00  0.00000000E+00
  0.00000000E+00  0.00000000E+00  0.00000000E+00
  0.00000000E+00  0.00000000E+00  0.00000000E+00
  0.00000000E+00  0.00000000E+00  0.00000000E+00
  0.00000000E+00  0.00000000E+00  0.00000000E+00
  0.00000000E+00  0.00000000E+00  0.00000000E+00
  0.00000000E+00  0.00000000E+00  0.00000000E+00
  0.00000000E+00  0.00000000E+00  0.00000000E+00
  0.00000000E+00  0.00000000E+00  0.00000000E+00
  0.00000000E+00  0.00000000E+00  0.00000000E+00
  0.00000000E+00  0.00000000E+00  0.00000000E+00
  0.00000000E+00  0.00000000E+00  0.00000000E+00
  0.00000000E+00  0.00000000E+00  0.00000000E+00
  0.00000000E+00  0.00000000E+00  0.00000000E+00
  0.00000000E+00  0.00000000E+00  0.00000000E+00
  0.00000000E+00  0.00000000E+00  0.00000000E+00
  0.00000000E+00  0.00000000E+00  0.00000000E+00
