CONTCAR\(2)                             
   1.00000000000000     
     8.6349000931000006    0.0000000000000000    0.0000000000000000
     0.0000000000000000    8.9694995879999997    0.0000000000000000
     0.0000000000000000    0.0000000000000000   22.5806007384999994
   V    B    O    H 
    27    36    18     1
Direct
  0.1668905398712212  0.1658044786375511  0.6182082702466449
  0.0001209379476978  0.1655286334392614  0.5007083876120175
  0.1668444076906342  0.1660774012999349  0.3825154654279256
  0.4999491700355113  0.1658010332152050  0.6181807169066209
  0.3333691553442453  0.1657332789400378  0.5007663270073394
  0.4998889556803668  0.1660687744686638  0.3825185605941522
  0.8333957070453346  0.1656761723268962  0.6182139867688704
  0.6666051497875275  0.1655181401435586  0.5007059950924133
  0.8333672650265908  0.1658161130256759  0.3823811721490418
  0.1668699616208470  0.5001743578119958  0.6179564151107151
 -0.0000420910426040  0.4993849784375101  0.5004254934877378
  0.1664949615341571  0.4986644170159500  0.3823938920554981
  0.4998671012562849  0.5001912350393242  0.6179623665880800
  0.3333755774418924  0.4993484399664737  0.5005140137632672
  0.5002811963141695  0.4986704408254308  0.3824079489082570
  0.8333792500468212  0.4994574647423447  0.6181864265176017
  0.6667919883849167  0.4993762152701488  0.5004277961303252
  0.8333762067418229  0.4990005226662870  0.3824203883329397
  0.1631347879784926  0.8318180710543945  0.6159386425454493
 -0.0000260113659681  0.8325815682243078  0.4997179235009144
  0.1665008006250579  0.8324987760291698  0.3823101879821783
  0.5036886078345888  0.8317972403889116  0.6159473423113687
  0.3333810541433249  0.8323870609510879  0.4997760582877774
  0.5002323223768907  0.8325034154010617  0.3823062275416823
  0.8334337037947096  0.8316389923183026  0.6188350889823107
  0.6667624522964766  0.8325881394519082  0.4997146720397122
  0.8333964504344754  0.8326841721318771  0.3822675612325941
  0.0003366567321630 -0.0021338026616079  0.5760436915145429
  0.1671566450660909 -0.0010102402799986  0.5396903614924020
  0.0000496505196003 -0.0005136697876836  0.4246307059369740
  0.1668147904799245 -0.0005793319810367  0.4608405363873823
  0.3333922739125834 -0.0051973841078106  0.5771906051147141
  0.4996086318990529 -0.0010254508482684  0.5396882963065058
  0.3333757041217069 -0.0002520714794818  0.4245693995951985
  0.4999339540511115 -0.0005908427017311  0.4608428380744096
  0.6664237053889037 -0.0021286183764812  0.5760377643531571
  0.8333790799732974 -0.0008152733148574  0.5398061255860126
  0.6666852104851811 -0.0005199198048430  0.4246295251823539
  0.8333713586568855 -0.0005669387374184  0.4608272942020437
  0.0000007697987371  0.3325826213058765  0.5760218745808090
  0.1667750569916857  0.3325597936884279  0.5400071911142953
  0.0001428780171870  0.3324371946542913  0.4249249318303504
  0.1667583857389393  0.3323900690454535  0.4611053372763383
  0.3333806537941552  0.3332974595167084  0.5765036557754304
  0.4999750039094372  0.3325675662618343  0.5400001638679028
  0.3333712254124195  0.3319624392160717  0.4250462941644026
  0.4999795730782000  0.3323805525933959  0.4611023486398157
  0.6667358793223808  0.3325814972758954  0.5760209335910602
  0.8333700846280497  0.3324973721780100  0.5398409124040635
  0.6665931178614616  0.3324411436019182  0.4249254252876098
  0.8333717355537973  0.3323884749841168  0.4609486449569504
  0.0006568683547872  0.6671397988043812  0.5758689675455202
  0.1669444719096271  0.6657277280229366  0.5391523020874631
 -0.0001545565755117  0.6656491861311791  0.4244203995478062
  0.1667086249030313  0.6655993415057064  0.4604875577905674
  0.3333755046693860  0.6690055447923489  0.5761397805256575
  0.4998051939440493  0.6657486512942830  0.5391540163526143
  0.3333770024955484  0.6652108620144457  0.4243453425069966
  0.5000461303087277  0.6656020023177771  0.4604900657333793
  0.6661000090659404  0.6671420104437330  0.5758700576527659
  0.8333797951561731  0.6659143509875004  0.5397003096953817
  0.6669025573701349  0.6656350023631415  0.4244251333321596
  0.8333759554745787  0.6658740534012376  0.4607131266631472
 -0.0000735742904973  0.1660557072034797  0.6682034295364601
  0.0000617104414166  0.1658672707917767  0.3324539165237543
  0.3334143757599920  0.1655860950557145  0.6682530978401573
  0.3333649737558719  0.1663190585920731  0.3324205950330181
  0.6668219795148108  0.1660574542056018  0.6682014004290495
  0.6666750799062610  0.1658761209444672  0.3324579167318352
  0.0003986875090063  0.4984514008791959  0.6681513819223477
  0.0000919988464600  0.4990563337527116  0.3323474372220459
  0.3333725646316618  0.5072023763059007  0.6690326984038795
  0.3333927046733274  0.4973476021779947  0.3324950767479389
  0.6663519648795736  0.4984382804040175  0.6681475364910358
  0.6666521488195863  0.4990684031617031  0.3323461968417003
  0.0016188858092826  0.8302299492656791  0.6689510777833801
  0.0000279815556486  0.8327435417691882  0.3322501700481065
  0.3333838282870051  0.8293822636350585  0.6768598907150600
  0.3333604649595123  0.8325535490639199  0.3324179785605503
  0.6651733970536142  0.8302439008723200  0.6689383305467049
  0.6667189819687680  0.8327388586581451  0.3322611838633289
  0.3333627536037941  0.7379711667183330  0.7009511029680001
 
  0.00000000E+00  0.00000000E+00  0.00000000E+00
  0.00000000E+00  0.00000000E+00  0.00000000E+00
  0.00000000E+00  0.00000000E+00  0.00000000E+00
  0.00000000E+00  0.00000000E+00  0.00000000E+00
  0.00000000E+00  0.00000000E+00  0.00000000E+00
  0.00000000E+00  0.00000000E+00  0.00000000E+00
  0.00000000E+00  0.00000000E+00  0.00000000E+00
  0.00000000E+00  0.00000000E+00  0.00000000E+00
  0.00000000E+00  0.00000000E+00  0.00000000E+00
  0.00000000E+00  0.00000000E+00  0.00000000E+00
  0.00000000E+00  0.00000000E+00  0.00000000E+00
  0.00000000E+00  0.00000000E+00  0.00000000E+00
  0.00000000E+00  0.00000000E+00  0.00000000E+00
  0.00000000E+00  0.00000000E+00  0.00000000E+00
  0.00000000E+00  0.00000000E+00  0.00000000E+00
  0.00000000E+00  0.00000000E+00  0.00000000E+00
  0.00000000E+00  0.00000000E+00  0.00000000E+00
  0.00000000E+00  0.00000000E+00  0.00000000E+00
  0.00000000E+00  0.00000000E+00  0.00000000E+00
  0.00000000E+00  0.00000000E+00  0.00000000E+00
  0.00000000E+00  0.00000000E+00  0.00000000E+00
  0.00000000E+00  0.00000000E+00  0.00000000E+00
  0.00000000E+00  0.00000000E+00  0.00000000E+00
  0.00000000E+00  0.00000000E+00  0.00000000E+00
  0.00000000E+00  0.00000000E+00  0.00000000E+00
  0.00000000E+00  0.00000000E+00  0.00000000E+00
  0.00000000E+00  0.00000000E+00  0.00000000E+00
  0.00000000E+00  0.00000000E+00  0.00000000E+00
  0.00000000E+00  0.00000000E+00  0.00000000E+00
  0.00000000E+00  0.00000000E+00  0.00000000E+00
  0.00000000E+00  0.00000000E+00  0.00000000E+00
  0.00000000E+00  0.00000000E+00  0.00000000E+00
  0.00000000E+00  0.00000000E+00  0.00000000E+00
  0.00000000E+00  0.00000000E+00  0.00000000E+00
  0.00000000E+00  0.00000000E+00  0.00000000E+00
  0.00000000E+00  0.00000000E+00  0.00000000E+00
  0.00000000E+00  0.00000000E+00  0.00000000E+00
  0.00000000E+00  0.00000000E+00  0.00000000E+00
  0.00000000E+00  0.00000000E+00  0.00000000E+00
  0.00000000E+00  0.00000000E+00  0.00000000E+00
  0.00000000E+00  0.00000000E+00  0.00000000E+00
  0.00000000E+00  0.00000000E+00  0.00000000E+00
  0.00000000E+00  0.00000000E+00  0.00000000E+00
  0.00000000E+00  0.00000000E+00  0.00000000E+00
  0.00000000E+00  0.00000000E+00  0.00000000E+00
  0.00000000E+00  0.00000000E+00  0.00000000E+00
  0.00000000E+00  0.00000000E+00  0.00000000E+00
  0.00000000E+00  0.00000000E+00  0.00000000E+00
  0.00000000E+00  0.00000000E+00  0.00000000E+00
  0.00000000E+00  0.00000000E+00  0.00000000E+00
  0.00000000E+00  0.00000000E+00  0.00000000E+00
  0.00000000E+00  0.00000000E+00  0.00000000E+00
  0.00000000E+00  0.00000000E+00  0.00000000E+00
  0.00000000E+00  0.00000000E+00  0.00000000E+00
  0.00000000E+00  0.00000000E+00  0.00000000E+00
  0.00000000E+00  0.00000000E+00  0.00000000E+00
  0.00000000E+00  0.00000000E+00  0.00000000E+00
  0.00000000E+00  0.00000000E+00  0.00000000E+00
  0.00000000E+00  0.00000000E+00  0.00000000E+00
  0.00000000E+00  0.00000000E+00  0.00000000E+00
  0.00000000E+00  0.00000000E+00  0.00000000E+00
  0.00000000E+00  0.00000000E+00  0.00000000E+00
  0.00000000E+00  0.00000000E+00  0.00000000E+00
  0.00000000E+00  0.00000000E+00  0.00000000E+00
  0.00000000E+00  0.00000000E+00  0.00000000E+00
  0.00000000E+00  0.00000000E+00  0.00000000E+00
  0.00000000E+00  0.00000000E+00  0.00000000E+00
  0.00000000E+00  0.00000000E+00  0.00000000E+00
  0.00000000E+00  0.00000000E+00  0.00000000E+00
  0.00000000E+00  0.00000000E+00  0.00000000E+00
  0.00000000E+00  0.00000000E+00  0.00000000E+00
  0.00000000E+00  0.00000000E+00  0.00000000E+00
  0.00000000E+00  0.00000000E+00  0.00000000E+00
  0.00000000E+00  0.00000000E+00  0.00000000E+00
  0.00000000E+00  0.00000000E+00  0.00000000E+00
  0.00000000E+00  0.00000000E+00  0.00000000E+00
  0.00000000E+00  0.00000000E+00  0.00000000E+00
  0.00000000E+00  0.00000000E+00  0.00000000E+00
  0.00000000E+00  0.00000000E+00  0.00000000E+00
  0.00000000E+00  0.00000000E+00  0.00000000E+00
  0.00000000E+00  0.00000000E+00  0.00000000E+00
  0.00000000E+00  0.00000000E+00  0.00000000E+00
