Cu2 O4 F2                               
   1.00000000000000     
     3.1542766501592965    0.0000000000000000    0.0000000000000000
     0.0000000000000000    4.5823859328619294    0.0000000000000000
     0.0000000000000000    0.0000000000000000    5.8605881261975448
   Cu   O    F 
     2     4     2
Direct
  0.0000000000000000  0.6758849022221167  0.2059493867508475
  0.5000000000000000  0.1758849402221199  0.7940505932491581
  0.0000000000000000  0.9957399775641822  0.6197037751592164
  0.5000000000000000  0.4957399265641814  0.3802962248407837
  0.5000000000000000  0.5220072772198349  0.6044915034517853
  0.0000000000000000  0.0220072692198342  0.3955084565482113
  0.0000000000000000  0.3518378569938691  0.9831232044266636
  0.5000000000000000  0.8518378569938690  0.0168768585733382
 
  0.00000000E+00  0.00000000E+00  0.00000000E+00
  0.00000000E+00  0.00000000E+00  0.00000000E+00
  0.00000000E+00  0.00000000E+00  0.00000000E+00
  0.00000000E+00  0.00000000E+00  0.00000000E+00
  0.00000000E+00  0.00000000E+00  0.00000000E+00
  0.00000000E+00  0.00000000E+00  0.00000000E+00
  0.00000000E+00  0.00000000E+00  0.00000000E+00
  0.00000000E+00  0.00000000E+00  0.00000000E+00
