CONTCAR                                 
   1.00000000000000     
    11.9160003662000005    0.0000000000000000    0.0000000000000000
    -5.9580032889999996   10.3494530515999994    0.0000000000000000
     0.0000000000000000    0.0000000000000000   17.8166999817000011
   Hf   Fe   Cl   O 
     4     4    24     1
Direct
  0.1581288358425502  0.3244617111210485  0.5037527248672620
  0.6682310049784473  0.3266511780881663  0.4971158856745698
  0.1697172529799032  0.8357249132120577  0.5009974685432604
  0.6696200461143488  0.8395602933503724  0.4997726831354534
  0.5060624435212768  0.5140061149925669  0.5012130568109302
  0.0012447089334698  0.5016191515460534  0.5012139784652386
  0.5017495063070738  0.0035816475499600  0.4990913361625999
  0.0007645728306231  0.0031781539237429  0.5008846062722465
  0.1522188478083765  0.4957020166851493  0.5789229023783190
  0.3312279916934908  0.3423976998668777  0.5834039396807402
 -0.0041842921318076  0.1537890241604822  0.5822547875614696
  0.1566058025639711  0.1584384638729838  0.4228313410640096
  0.0015608868528807  0.3446525759413293  0.4227608740493968
  0.3311384697157754  0.4921241662706280  0.4223829430232018
  0.6601971925941840  0.4923972864289063  0.5788434153270464
  0.8433013935657372  0.3452446707962904  0.5788711574361313
  0.5023465446637631  0.1591222757069872  0.5772604208256025
  0.6579431623275851  0.1552188064233294  0.4182037884313198
  0.5108061254276599  0.3429594000888332  0.4178707342524920
  0.8431588344756550  0.4978457898381080  0.4218198024635236
  0.1553441730806782  0.9979775788562116  0.5790755413230727
  0.3457162357249309  0.8500160529194951  0.5784073277754905
  0.0046713349265379  0.6604278343842058  0.5787785250108968
  0.1559237276739519  0.6593643503419994  0.4229024682126116
  0.0056721043211972  0.8486487735328755  0.4225859652597654
  0.3426287234640339  0.9984111287036065  0.4210272542516186
  0.6595118616439162  0.0055005223921857  0.5768975435719774
  0.8432086617276764  0.8447241790234810  0.5769027744580849
  0.5114451871400967  0.6746648562433357  0.5847891871183125
  0.6617868336763146  0.6741426382114810  0.4146482288759712
  0.5014141764727295  0.8455428800679076  0.4227088312161769
  0.8458788205663662  0.0047990719896626  0.4221573292534255
  0.3041583625166128  0.6066046214696896  0.6858212772477722
 
  0.00000000E+00  0.00000000E+00  0.00000000E+00
  0.00000000E+00  0.00000000E+00  0.00000000E+00
  0.00000000E+00  0.00000000E+00  0.00000000E+00
  0.00000000E+00  0.00000000E+00  0.00000000E+00
  0.00000000E+00  0.00000000E+00  0.00000000E+00
  0.00000000E+00  0.00000000E+00  0.00000000E+00
  0.00000000E+00  0.00000000E+00  0.00000000E+00
  0.00000000E+00  0.00000000E+00  0.00000000E+00
  0.00000000E+00  0.00000000E+00  0.00000000E+00
  0.00000000E+00  0.00000000E+00  0.00000000E+00
  0.00000000E+00  0.00000000E+00  0.00000000E+00
  0.00000000E+00  0.00000000E+00  0.00000000E+00
  0.00000000E+00  0.00000000E+00  0.00000000E+00
  0.00000000E+00  0.00000000E+00  0.00000000E+00
  0.00000000E+00  0.00000000E+00  0.00000000E+00
  0.00000000E+00  0.00000000E+00  0.00000000E+00
  0.00000000E+00  0.00000000E+00  0.00000000E+00
  0.00000000E+00  0.00000000E+00  0.00000000E+00
  0.00000000E+00  0.00000000E+00  0.00000000E+00
  0.00000000E+00  0.00000000E+00  0.00000000E+00
  0.00000000E+00  0.00000000E+00  0.00000000E+00
  0.00000000E+00  0.00000000E+00  0.00000000E+00
  0.00000000E+00  0.00000000E+00  0.00000000E+00
  0.00000000E+00  0.00000000E+00  0.00000000E+00
  0.00000000E+00  0.00000000E+00  0.00000000E+00
  0.00000000E+00  0.00000000E+00  0.00000000E+00
  0.00000000E+00  0.00000000E+00  0.00000000E+00
  0.00000000E+00  0.00000000E+00  0.00000000E+00
  0.00000000E+00  0.00000000E+00  0.00000000E+00
  0.00000000E+00  0.00000000E+00  0.00000000E+00
  0.00000000E+00  0.00000000E+00  0.00000000E+00
  0.00000000E+00  0.00000000E+00  0.00000000E+00
  0.00000000E+00  0.00000000E+00  0.00000000E+00
