CONTCAR                                 
   1.00000000000000     
     9.4547004700000006    0.0000000000000000    0.0000000000000000
    -2.1212102605999998   15.2124219391000004    0.0000000000000000
     0.0000000000000000    0.0000000000000000   27.1490001678000006
   Li   Fe   P    O 
    16     8    32   105
Direct
  0.4356129124349167  0.1714464443250936  0.4868045441045816
  0.3245553573021278  0.2135683928299302  0.2814023006496987
  0.2813715548026839  0.2632557567440396  0.6968907816184424
  0.0671304030278058  0.3345688358456271  0.5202333538916575
  0.9341709474119267  0.1695250642888039  0.4846110490272174
  0.8246549522916055  0.2135015755056211  0.2813483923520325
  0.6511722501701678  0.2889151863734784  0.7168610908640876
  0.5602159426460507  0.3370805610977951  0.5215727341533568
  0.4361666872592141  0.6655224686568553  0.4832100829973999
  0.3249428720286021  0.7126685942668677  0.2811710888752328
  0.1692374146519449  0.7846549288211351  0.7190420886125189
  0.0642507190764578  0.8337975387908271  0.5165909279513102
  0.9395163298366321  0.6645747403933251  0.4838002945520267
  0.8252000164038482  0.7125190566039112  0.2811166799157903
  0.6744411904869441  0.7871900814411160  0.7199528451842658
  0.5618109095171319  0.8331265246737185  0.5170447006911938
  0.2988926714840975  0.0612468553531402  0.3819628855527188
  0.2031489347450854  0.4340284760836461  0.6201867264935904
  0.7985375165351928  0.0611649849922059  0.3819699302172943
  0.7024042440291571  0.4403383792795376  0.6201503282344208
  0.2993820839788976  0.5607221047412339  0.3820895915701809
  0.1972652120301570  0.9374661713385773  0.6165968283542632
  0.7992059973425878  0.5605630105467532  0.3822361835360503
  0.6961468333452913  0.9372359544270704  0.6175348753685518
  0.0371828530574912  0.4687117677461273  0.4332368541649895
  0.4640037622046406  0.4186834651552489  0.7009907787444218
  0.3695200791713864  0.3749513056083482  0.3593984392378838
  0.3128188903483110  0.2583299192941054  0.5873431845418061
  0.1928356084227626  0.2382086173279527  0.4188538374241939
  0.1249473156878845  0.1231877609605156  0.6380341363744891
  0.0661711713236550  0.1506853061464641  0.3283579620019487
  0.4601272679371816  0.0289043025349504  0.5662288678518272
  0.5367541788726752  0.4692223896836903  0.4333803124324746
  0.9311199568829175  0.3478722894491710  0.6736132546916488
  0.8695080947244999  0.3749440182126726  0.3592464132154694
  0.8047972282568973  0.2612305357276199  0.5835495676586282
  0.6924731211224603  0.2385095961160752  0.4190110800266920
  0.6252755052813282  0.1233771141655110  0.6408495017981083
  0.5662274812904921  0.1508156695559481  0.3284380627124505
  0.9566477847604655  0.0281064661035862  0.5661295850919381
  0.0361227208424190  0.9689750169076491  0.4321602615894266
  0.4292401084946801  0.8492409480004915  0.6715575194622790
  0.3691119260812533  0.8755458200897008  0.3582518203064257
  0.3049527531554952  0.7593492353874248  0.5815033906880398
  0.1939197105880963  0.7383904400567215  0.4179216181774171
  0.1307824014570922  0.6222714490687489  0.6412492510752610
  0.0665858536511066  0.6492283236035822  0.3280149818388397
  0.4633507945302532  0.5303029808097133  0.5681691777097935
  0.5361119195090001  0.9689025203084670  0.4323667220888891
  0.9308071199893169  0.8482218382051000  0.6708515874806996
  0.8686701628261722  0.8753962990228267  0.3582797457988128
  0.8054665515755967  0.7611067398326468  0.5802374450681496
  0.6937379297694547  0.7381959890662120  0.4180550190786265
  0.6342082264389022  0.6271501253968694  0.6400768295836348
  0.5668325614091141  0.6492397797894353  0.3279969262777188
  0.9660184273362926  0.5278256358422215  0.5667611781856965
  0.4597968312172194  0.0498744064504185  0.4197215581661878
  0.4019104773930061  0.1252064473740848  0.3282249700129067
  0.0192729164399140  0.4052184719542632  0.3844544945680618
  0.4890138591581981  0.4170315193995748  0.4775524084167008
  0.3799110218424250  0.3146706717881539  0.3177199659972805
  0.3918765743420343  0.2633299103039912  0.6352101330343325
  0.2979851761766662  0.9951607678594790  0.5647415171467517
  0.4185639661209007  0.3399984050748965  0.7338673111611891
  0.2973439160045984  0.1696992145689695  0.4194586083162186
  0.3911168682824578  0.2538689112486440  0.5392949111415286
  0.2817638444831144  0.3310616585006502  0.4061924273715924
  0.3554601786255399  0.4189091493149865  0.6552599129954103
  0.3033914092140608  0.4575525688005667  0.3458109724224469
  0.1930120622621624  0.0402208477491488  0.6514540828577350
  0.1377089190655002  0.0709408060150066  0.3443094533139832
  0.2011681769826694  0.1668868989901900  0.5898325720284320
  0.1110013483785428  0.2476229956764141  0.4647894396150153
  0.2054812172975078  0.3295876924944942  0.5831190469180892
  0.1186100189068920  0.1913544102374392  0.2805224062826056
  0.1994355099806164  0.5023658205356489  0.4335725097456268
  0.0909819441459593  0.2223666432263838  0.3724141543087308
  0.1192496140142730  0.1812331460650823  0.6812706635854886
  0.0022297907054593  0.0804344489857774  0.5217755806255669
  0.4767842644115821  0.0919784321097338  0.6147522249408481
  0.0946707466675918  0.3738480281485075  0.6738844019470619
  0.0443775623785839  0.4473865313694696  0.5802607161612955
  0.9598532915813065  0.0500307675701810  0.4195674877573023
  0.9018099924829435  0.1251345047276807  0.3282664679701358
  0.5189821475968829  0.4051478103114601  0.3848616951740284
  0.9907215796714611  0.4154138954512628  0.4771651721746110
  0.8796173778265495  0.3148094894073751  0.3174745849079768
  0.9075066704712308  0.2749965147793058  0.6295987859304173
  0.7946893113349750  0.9943217560446110  0.5653305442713401
  0.8631198018978369  0.3112546514854578  0.7199109666160916
  0.7966094156265217  0.1696701506538277  0.4196773319897459
  0.8863609744917765  0.2536463910345299  0.5372119177536254
  0.7821979248116894  0.3310201366886499  0.4060730908462049
  0.8656522715865386  0.4289713421219585  0.6540027927840190
  0.8029725363705695  0.4575195849415932  0.3458668022970864
  0.6919485480802049  0.0400939987407681  0.6534810537754785
  0.6374549403824319  0.0709350957098148  0.3443891602380201
  0.7143111014896393  0.1679594150355011  0.5945236183045679
  0.6110126218539176  0.2487127703413710  0.4649202812011640
  0.6998941336398729  0.3293277653525206  0.5844155868646790
  0.6188963122426698  0.1914704129304011  0.2806333276623854
  0.6991246745952595  0.5023536053498372  0.4338036878186230
  0.5908071288865134  0.2224026797381766  0.3725375865721428
  0.6146355569317161  0.1814879828589089  0.6833546806044614
  0.5095605109160880  0.0812047617741468  0.5221839275950455
  0.9722593230820438  0.0900479365380513  0.6151713057017560
  0.6007550276082594  0.3902510675884218  0.6735265704759640
  0.5431960734941301  0.4511727736594375  0.5812168197477624
  0.4603506698915960  0.5502598165984308  0.4204640343466355
  0.4024026509895549  0.6241074910168634  0.3280355672408110
  0.0187764955009083  0.9054620057998463  0.3833578113916683
  0.4876258869150671  0.9157801133048744  0.4761808240479924
  0.3789152950317417  0.8151420137463934  0.3165708843548374
  0.4063053381946278  0.7769386377775134  0.6278740264039531
  0.3021894571907456  0.4962197900525749  0.5680642237746761
  0.3751904856344976  0.8101458323040398  0.7194840565890358
  0.2987899468234467  0.6701855316576819  0.4187502985409751
  0.3880974002026409  0.7510482252489452  0.5356380920416091
  0.2816143798032695  0.8313927310724805  0.4050940069357469
  0.3581201528074479  0.9286013617711931  0.6542754489309937
  0.3030036020815570  0.9583114029911425  0.3451160201561996
  0.1965901075633952  0.5402299458562062  0.6553702651097945
  0.1377060917741669  0.5697037530655950  0.3445307816518998
  0.2196130771322067  0.6661143834456459  0.5943066092492583
  0.1120602424229608  0.7475795034951809  0.4639063207837738
  0.1993639939953175  0.8272390140443773  0.5802251839294424
  0.1191144934988207  0.6892226285656617  0.2800350042614895
  0.1984381140629697  0.0018721969474342  0.4330945626520048
  0.0918241892431223  0.7218253350841244  0.3716571603526773
  0.1188609181473869  0.6841679301848380  0.6820520739425529
  0.0172529097804239  0.5808103749623179  0.5229915375484561
  0.4827400814651755  0.5940606378244091  0.6168573326189174
  0.0949258444363987  0.8743753013475890  0.6705405085909621
  0.0358433870370475  0.9476582576470185  0.5782627038591450
  0.9600331664478253  0.5496192680968337  0.4206709583065548
  0.9022376414561473  0.6240040586033023  0.3281504732895833
  0.5189107104897175  0.9052927480794412  0.3835758316593962
  0.9877797820073231  0.9157964890402577  0.4759353266319778
  0.8782781874663574  0.8150502625588603  0.3165591789353319
  0.9058149111861927  0.7760447344363465  0.6270693752689838
  0.8050594264825479  0.4940451450757883  0.5653657492070131
  0.8807083184729327  0.8089412297454963  0.7192064937392343
  0.7984947446898149  0.6699076772023873  0.4189739818516934
  0.8891744972905222  0.7535206675557229  0.5344399434735544
  0.7818435963547308  0.8311539583187630  0.4052449785708409
  0.8579341433393632  0.9273476201294349  0.6545687043703167
  0.8023486356816181  0.9581377031333874  0.3451972297927917
  0.7086912512736268  0.5474477468547779  0.6526462490811805
  0.6376910628393987  0.5696413801198298  0.3445893877902488
  0.7163034414542236  0.6682866553604409  0.5911458713403737
  0.6111557276168557  0.7474768004928581  0.4638858430193161
  0.6996268055322694  0.8288922057658163  0.5801420667380822
  0.6194803838770511  0.6890461331722529  0.2799924227169816
  0.6984479738430678  0.0017879113091798  0.4332047892609197
  0.5921458612340731  0.7218463605354491  0.3716033521183990
  0.6284615910843026  0.6912996305319847  0.6798900319952189
  0.5089887861170338  0.5825089881809014  0.5236787427134044
  0.9824683739176517  0.5924150778244810  0.6150914084779869
  0.5934398104077437  0.8752465943639123  0.6719198886448650
  0.5357024609180699  0.9473396968903878  0.5791009820392272
  0.4871829696047968  0.5094100901359556  0.7220979693986351
 
  0.00000000E+00  0.00000000E+00  0.00000000E+00
  0.00000000E+00  0.00000000E+00  0.00000000E+00
  0.00000000E+00  0.00000000E+00  0.00000000E+00
  0.00000000E+00  0.00000000E+00  0.00000000E+00
  0.00000000E+00  0.00000000E+00  0.00000000E+00
  0.00000000E+00  0.00000000E+00  0.00000000E+00
  0.00000000E+00  0.00000000E+00  0.00000000E+00
  0.00000000E+00  0.00000000E+00  0.00000000E+00
  0.00000000E+00  0.00000000E+00  0.00000000E+00
  0.00000000E+00  0.00000000E+00  0.00000000E+00
  0.00000000E+00  0.00000000E+00  0.00000000E+00
  0.00000000E+00  0.00000000E+00  0.00000000E+00
  0.00000000E+00  0.00000000E+00  0.00000000E+00
  0.00000000E+00  0.00000000E+00  0.00000000E+00
  0.00000000E+00  0.00000000E+00  0.00000000E+00
  0.00000000E+00  0.00000000E+00  0.00000000E+00
  0.00000000E+00  0.00000000E+00  0.00000000E+00
  0.00000000E+00  0.00000000E+00  0.00000000E+00
  0.00000000E+00  0.00000000E+00  0.00000000E+00
  0.00000000E+00  0.00000000E+00  0.00000000E+00
  0.00000000E+00  0.00000000E+00  0.00000000E+00
  0.00000000E+00  0.00000000E+00  0.00000000E+00
  0.00000000E+00  0.00000000E+00  0.00000000E+00
  0.00000000E+00  0.00000000E+00  0.00000000E+00
  0.00000000E+00  0.00000000E+00  0.00000000E+00
  0.00000000E+00  0.00000000E+00  0.00000000E+00
  0.00000000E+00  0.00000000E+00  0.00000000E+00
  0.00000000E+00  0.00000000E+00  0.00000000E+00
  0.00000000E+00  0.00000000E+00  0.00000000E+00
  0.00000000E+00  0.00000000E+00  0.00000000E+00
  0.00000000E+00  0.00000000E+00  0.00000000E+00
  0.00000000E+00  0.00000000E+00  0.00000000E+00
  0.00000000E+00  0.00000000E+00  0.00000000E+00
  0.00000000E+00  0.00000000E+00  0.00000000E+00
  0.00000000E+00  0.00000000E+00  0.00000000E+00
  0.00000000E+00  0.00000000E+00  0.00000000E+00
  0.00000000E+00  0.00000000E+00  0.00000000E+00
  0.00000000E+00  0.00000000E+00  0.00000000E+00
  0.00000000E+00  0.00000000E+00  0.00000000E+00
  0.00000000E+00  0.00000000E+00  0.00000000E+00
  0.00000000E+00  0.00000000E+00  0.00000000E+00
  0.00000000E+00  0.00000000E+00  0.00000000E+00
  0.00000000E+00  0.00000000E+00  0.00000000E+00
  0.00000000E+00  0.00000000E+00  0.00000000E+00
  0.00000000E+00  0.00000000E+00  0.00000000E+00
  0.00000000E+00  0.00000000E+00  0.00000000E+00
  0.00000000E+00  0.00000000E+00  0.00000000E+00
  0.00000000E+00  0.00000000E+00  0.00000000E+00
  0.00000000E+00  0.00000000E+00  0.00000000E+00
  0.00000000E+00  0.00000000E+00  0.00000000E+00
  0.00000000E+00  0.00000000E+00  0.00000000E+00
  0.00000000E+00  0.00000000E+00  0.00000000E+00
  0.00000000E+00  0.00000000E+00  0.00000000E+00
  0.00000000E+00  0.00000000E+00  0.00000000E+00
  0.00000000E+00  0.00000000E+00  0.00000000E+00
  0.00000000E+00  0.00000000E+00  0.00000000E+00
  0.00000000E+00  0.00000000E+00  0.00000000E+00
  0.00000000E+00  0.00000000E+00  0.00000000E+00
  0.00000000E+00  0.00000000E+00  0.00000000E+00
  0.00000000E+00  0.00000000E+00  0.00000000E+00
  0.00000000E+00  0.00000000E+00  0.00000000E+00
  0.00000000E+00  0.00000000E+00  0.00000000E+00
  0.00000000E+00  0.00000000E+00  0.00000000E+00
  0.00000000E+00  0.00000000E+00  0.00000000E+00
  0.00000000E+00  0.00000000E+00  0.00000000E+00
  0.00000000E+00  0.00000000E+00  0.00000000E+00
  0.00000000E+00  0.00000000E+00  0.00000000E+00
  0.00000000E+00  0.00000000E+00  0.00000000E+00
  0.00000000E+00  0.00000000E+00  0.00000000E+00
  0.00000000E+00  0.00000000E+00  0.00000000E+00
  0.00000000E+00  0.00000000E+00  0.00000000E+00
  0.00000000E+00  0.00000000E+00  0.00000000E+00
  0.00000000E+00  0.00000000E+00  0.00000000E+00
  0.00000000E+00  0.00000000E+00  0.00000000E+00
  0.00000000E+00  0.00000000E+00  0.00000000E+00
  0.00000000E+00  0.00000000E+00  0.00000000E+00
  0.00000000E+00  0.00000000E+00  0.00000000E+00
  0.00000000E+00  0.00000000E+00  0.00000000E+00
  0.00000000E+00  0.00000000E+00  0.00000000E+00
  0.00000000E+00  0.00000000E+00  0.00000000E+00
  0.00000000E+00  0.00000000E+00  0.00000000E+00
  0.00000000E+00  0.00000000E+00  0.00000000E+00
  0.00000000E+00  0.00000000E+00  0.00000000E+00
  0.00000000E+00  0.00000000E+00  0.00000000E+00
  0.00000000E+00  0.00000000E+00  0.00000000E+00
  0.00000000E+00  0.00000000E+00  0.00000000E+00
  0.00000000E+00  0.00000000E+00  0.00000000E+00
  0.00000000E+00  0.00000000E+00  0.00000000E+00
  0.00000000E+00  0.00000000E+00  0.00000000E+00
  0.00000000E+00  0.00000000E+00  0.00000000E+00
  0.00000000E+00  0.00000000E+00  0.00000000E+00
  0.00000000E+00  0.00000000E+00  0.00000000E+00
  0.00000000E+00  0.00000000E+00  0.00000000E+00
  0.00000000E+00  0.00000000E+00  0.00000000E+00
  0.00000000E+00  0.00000000E+00  0.00000000E+00
  0.00000000E+00  0.00000000E+00  0.00000000E+00
  0.00000000E+00  0.00000000E+00  0.00000000E+00
  0.00000000E+00  0.00000000E+00  0.00000000E+00
  0.00000000E+00  0.00000000E+00  0.00000000E+00
  0.00000000E+00  0.00000000E+00  0.00000000E+00
  0.00000000E+00  0.00000000E+00  0.00000000E+00
  0.00000000E+00  0.00000000E+00  0.00000000E+00
  0.00000000E+00  0.00000000E+00  0.00000000E+00
  0.00000000E+00  0.00000000E+00  0.00000000E+00
  0.00000000E+00  0.00000000E+00  0.00000000E+00
  0.00000000E+00  0.00000000E+00  0.00000000E+00
  0.00000000E+00  0.00000000E+00  0.00000000E+00
  0.00000000E+00  0.00000000E+00  0.00000000E+00
  0.00000000E+00  0.00000000E+00  0.00000000E+00
  0.00000000E+00  0.00000000E+00  0.00000000E+00
  0.00000000E+00  0.00000000E+00  0.00000000E+00
  0.00000000E+00  0.00000000E+00  0.00000000E+00
  0.00000000E+00  0.00000000E+00  0.00000000E+00
  0.00000000E+00  0.00000000E+00  0.00000000E+00
  0.00000000E+00  0.00000000E+00  0.00000000E+00
  0.00000000E+00  0.00000000E+00  0.00000000E+00
  0.00000000E+00  0.00000000E+00  0.00000000E+00
  0.00000000E+00  0.00000000E+00  0.00000000E+00
  0.00000000E+00  0.00000000E+00  0.00000000E+00
  0.00000000E+00  0.00000000E+00  0.00000000E+00
  0.00000000E+00  0.00000000E+00  0.00000000E+00
  0.00000000E+00  0.00000000E+00  0.00000000E+00
  0.00000000E+00  0.00000000E+00  0.00000000E+00
  0.00000000E+00  0.00000000E+00  0.00000000E+00
  0.00000000E+00  0.00000000E+00  0.00000000E+00
  0.00000000E+00  0.00000000E+00  0.00000000E+00
  0.00000000E+00  0.00000000E+00  0.00000000E+00
  0.00000000E+00  0.00000000E+00  0.00000000E+00
  0.00000000E+00  0.00000000E+00  0.00000000E+00
  0.00000000E+00  0.00000000E+00  0.00000000E+00
  0.00000000E+00  0.00000000E+00  0.00000000E+00
  0.00000000E+00  0.00000000E+00  0.00000000E+00
  0.00000000E+00  0.00000000E+00  0.00000000E+00
  0.00000000E+00  0.00000000E+00  0.00000000E+00
  0.00000000E+00  0.00000000E+00  0.00000000E+00
  0.00000000E+00  0.00000000E+00  0.00000000E+00
  0.00000000E+00  0.00000000E+00  0.00000000E+00
  0.00000000E+00  0.00000000E+00  0.00000000E+00
  0.00000000E+00  0.00000000E+00  0.00000000E+00
  0.00000000E+00  0.00000000E+00  0.00000000E+00
  0.00000000E+00  0.00000000E+00  0.00000000E+00
  0.00000000E+00  0.00000000E+00  0.00000000E+00
  0.00000000E+00  0.00000000E+00  0.00000000E+00
  0.00000000E+00  0.00000000E+00  0.00000000E+00
  0.00000000E+00  0.00000000E+00  0.00000000E+00
  0.00000000E+00  0.00000000E+00  0.00000000E+00
  0.00000000E+00  0.00000000E+00  0.00000000E+00
  0.00000000E+00  0.00000000E+00  0.00000000E+00
  0.00000000E+00  0.00000000E+00  0.00000000E+00
  0.00000000E+00  0.00000000E+00  0.00000000E+00
  0.00000000E+00  0.00000000E+00  0.00000000E+00
  0.00000000E+00  0.00000000E+00  0.00000000E+00
  0.00000000E+00  0.00000000E+00  0.00000000E+00
  0.00000000E+00  0.00000000E+00  0.00000000E+00
  0.00000000E+00  0.00000000E+00  0.00000000E+00
  0.00000000E+00  0.00000000E+00  0.00000000E+00
  0.00000000E+00  0.00000000E+00  0.00000000E+00
  0.00000000E+00  0.00000000E+00  0.00000000E+00
  0.00000000E+00  0.00000000E+00  0.00000000E+00
  0.00000000E+00  0.00000000E+00  0.00000000E+00
  0.00000000E+00  0.00000000E+00  0.00000000E+00
