CONTCAR\(12)                            
   1.00000000000000     
    14.1683998108000004    0.0000000000000000    0.0000000000000000
     0.0000000000000000   20.5298995972000000    0.0000000000000000
     0.0000000000000000    0.0000000000000000   19.1021003723000007
   Nb   Te   O 
    32    48     1
Direct
  0.0623390086747122  0.1344223617101932  0.5466206665571534
  0.1865312943282120  0.0755076118361586  0.4487054635924679
  0.0605545506415197  0.2929701022459739  0.5003940464439722
  0.1820422984593435  0.4165978144967042  0.5041223360417177
  0.3123911051771344  0.1357749651909899  0.5476764792040214
  0.4363611916382055  0.0764530414605460  0.4490576699268871
  0.3084635873303156  0.2940532032383771  0.5027800325479959
  0.4362824325335808  0.4159658368320720  0.5130853021778279
  0.5613439599105590  0.1353875867890366  0.5475920917599026
  0.6873944164999202  0.0757017084565419  0.4485757980320955
  0.5688471686977934  0.2926797830107404  0.5021278918693994
  0.6985900495361435  0.4149718899176804  0.5074033919345666
  0.8152997949094356  0.1337736065313422  0.5463726708286316
  0.9372044279611700  0.0750353119724849  0.4479612375764432
  0.8164203812108397  0.2929153263715207  0.5008380482749217
  0.9376690768948990  0.4173756579457191  0.5027577956387077
  0.0598655861159045  0.6372603866743063  0.5509812833398726
  0.1852980202459804  0.5763632996451378  0.4549919916107186
  0.0593721667524250  0.7950829442910745  0.4965485763571067
  0.1862033410686976  0.9181519507015139  0.4968567961848436
  0.3048125937981467  0.6420168022562791  0.5524383687482981
  0.4362440819596003  0.5746983643038277  0.4631974393028599
  0.3096204450266313  0.7950441350539350  0.4968061960710699
  0.4359858684699063  0.9185370895711813  0.4977090623562006
  0.5626861697668417  0.6392208851470755  0.5552953002604681
  0.6872849581567735  0.5751800200087729  0.4572223896928378
  0.5624906402345431  0.7949914916050886  0.4975986503562240
  0.6867711923479902  0.9182304151596057  0.4974436766153403
  0.8101035605538556  0.6360007873193467  0.5526237307498363
  0.9364368703140542  0.5759681531207050  0.4540623268712380
  0.8118423039954834  0.7950903596013035  0.4971772963883865
  0.9364747470702781  0.9179508303548616  0.4966650645723618
  0.1864562651297703  0.3287025974040105  0.3949090641990267
  0.0618460078687235  0.1742013754043938  0.4079817184362753
  0.1854636840190764  0.2289532452525904  0.6014043988352213
  0.0614128027392553  0.4806597916406190  0.4023226517692109
  0.0595357115729911  0.3806427263264993  0.6104152736572317
  0.1877376478187429  0.0368722095509852  0.5877182442166315
  0.4373485442887812  0.3280179108336299  0.3991476271250818
  0.3112859937886725  0.1750682361875633  0.4089767729411591
  0.4375532721349771  0.2301367671753241  0.6013184225078021
  0.3133629229843180  0.4796048146985328  0.4097422262326376
  0.2963087078908089  0.3799433836700246  0.6126527859712496
  0.4367894899393576  0.0370764124487479  0.5878485565286908
  0.6889734889513477  0.3295176034044687  0.3954053441642671
  0.5625637346579779  0.1748494998526411  0.4088086342547115
  0.6909036674922291  0.2257869687707981  0.6016557391551842
  0.5597807935260875  0.4779240372517677  0.4129045238257874
  0.5948001709778552  0.3673771972448705  0.6201782750488505
  0.6874667940064612  0.0371406855050154  0.5874781661782436
  0.9374316310817647  0.3287885757503020  0.3935401781848711
  0.8123755040819631  0.1743442169899652  0.4079499697291666
  0.9385388689490100  0.2290948980297500  0.6006877955229015
  0.8113793355750687  0.4801773232455204  0.4032112330805830
  0.8225693724945771  0.3797503622411753  0.6131711887058415
  0.9382537897272627  0.0356300670553722  0.5870436075209184
  0.1857275861290404  0.8270604888658681  0.3897089381477770
  0.0611601088355371  0.6737588724190502  0.4108512340938262
  0.1824728847398873  0.7370769067031304  0.6004121995687868
  0.0622265745934740  0.9798115312079929  0.3954049993080631
  0.0611381980498962  0.8857543719981393  0.6036815744228932
  0.1839479843851564  0.5401991403013398  0.5948041268689153
  0.4365092485647821  0.8273389152011958  0.3910794234251043
  0.3135042838904738  0.6718410807244339  0.4109292768547164
  0.4352559409243426  0.7363695232247096  0.6000899418243222
  0.3121600074945903  0.9802371281793896  0.3964592046251809
  0.3108918945536558  0.8851887787641886  0.6041967619399529
  0.4292171052301228  0.5568323351115652  0.6105551726501588
  0.6860246467300897  0.8274675368041784  0.3902766866157990
  0.5603940086932155  0.6713320754717174  0.4143910594002804
  0.6877159288525689  0.7358616456421387  0.6008007843001835
  0.5615765754913724  0.9806664210475020  0.3967444002112828
  0.5618279639738262  0.8855744929077929  0.6044769553769953
  0.6844775443444107  0.5370321901977704  0.5961911448268964
  0.9353077367398370  0.8276407114412052  0.3891702759697608
  0.8103931719721373  0.6732141263777507  0.4128169375511419
  0.9354376473442727  0.7345100780791256  0.5995611822850364
  0.8114829420441154  0.9800949497514537  0.3954172223449604
  0.8119615672031486  0.8858843888568941  0.6041183872886293
  0.9358285893575555  0.5388436858387564  0.5938930138874738
  0.4840153968846082  0.4281539011279349  0.6074581105358661
 
  0.00000000E+00  0.00000000E+00  0.00000000E+00
  0.00000000E+00  0.00000000E+00  0.00000000E+00
  0.00000000E+00  0.00000000E+00  0.00000000E+00
  0.00000000E+00  0.00000000E+00  0.00000000E+00
  0.00000000E+00  0.00000000E+00  0.00000000E+00
  0.00000000E+00  0.00000000E+00  0.00000000E+00
  0.00000000E+00  0.00000000E+00  0.00000000E+00
  0.00000000E+00  0.00000000E+00  0.00000000E+00
  0.00000000E+00  0.00000000E+00  0.00000000E+00
  0.00000000E+00  0.00000000E+00  0.00000000E+00
  0.00000000E+00  0.00000000E+00  0.00000000E+00
  0.00000000E+00  0.00000000E+00  0.00000000E+00
  0.00000000E+00  0.00000000E+00  0.00000000E+00
  0.00000000E+00  0.00000000E+00  0.00000000E+00
  0.00000000E+00  0.00000000E+00  0.00000000E+00
  0.00000000E+00  0.00000000E+00  0.00000000E+00
  0.00000000E+00  0.00000000E+00  0.00000000E+00
  0.00000000E+00  0.00000000E+00  0.00000000E+00
  0.00000000E+00  0.00000000E+00  0.00000000E+00
  0.00000000E+00  0.00000000E+00  0.00000000E+00
  0.00000000E+00  0.00000000E+00  0.00000000E+00
  0.00000000E+00  0.00000000E+00  0.00000000E+00
  0.00000000E+00  0.00000000E+00  0.00000000E+00
  0.00000000E+00  0.00000000E+00  0.00000000E+00
  0.00000000E+00  0.00000000E+00  0.00000000E+00
  0.00000000E+00  0.00000000E+00  0.00000000E+00
  0.00000000E+00  0.00000000E+00  0.00000000E+00
  0.00000000E+00  0.00000000E+00  0.00000000E+00
  0.00000000E+00  0.00000000E+00  0.00000000E+00
  0.00000000E+00  0.00000000E+00  0.00000000E+00
  0.00000000E+00  0.00000000E+00  0.00000000E+00
  0.00000000E+00  0.00000000E+00  0.00000000E+00
  0.00000000E+00  0.00000000E+00  0.00000000E+00
  0.00000000E+00  0.00000000E+00  0.00000000E+00
  0.00000000E+00  0.00000000E+00  0.00000000E+00
  0.00000000E+00  0.00000000E+00  0.00000000E+00
  0.00000000E+00  0.00000000E+00  0.00000000E+00
  0.00000000E+00  0.00000000E+00  0.00000000E+00
  0.00000000E+00  0.00000000E+00  0.00000000E+00
  0.00000000E+00  0.00000000E+00  0.00000000E+00
  0.00000000E+00  0.00000000E+00  0.00000000E+00
  0.00000000E+00  0.00000000E+00  0.00000000E+00
  0.00000000E+00  0.00000000E+00  0.00000000E+00
  0.00000000E+00  0.00000000E+00  0.00000000E+00
  0.00000000E+00  0.00000000E+00  0.00000000E+00
  0.00000000E+00  0.00000000E+00  0.00000000E+00
  0.00000000E+00  0.00000000E+00  0.00000000E+00
  0.00000000E+00  0.00000000E+00  0.00000000E+00
  0.00000000E+00  0.00000000E+00  0.00000000E+00
  0.00000000E+00  0.00000000E+00  0.00000000E+00
  0.00000000E+00  0.00000000E+00  0.00000000E+00
  0.00000000E+00  0.00000000E+00  0.00000000E+00
  0.00000000E+00  0.00000000E+00  0.00000000E+00
  0.00000000E+00  0.00000000E+00  0.00000000E+00
  0.00000000E+00  0.00000000E+00  0.00000000E+00
  0.00000000E+00  0.00000000E+00  0.00000000E+00
  0.00000000E+00  0.00000000E+00  0.00000000E+00
  0.00000000E+00  0.00000000E+00  0.00000000E+00
  0.00000000E+00  0.00000000E+00  0.00000000E+00
  0.00000000E+00  0.00000000E+00  0.00000000E+00
  0.00000000E+00  0.00000000E+00  0.00000000E+00
  0.00000000E+00  0.00000000E+00  0.00000000E+00
  0.00000000E+00  0.00000000E+00  0.00000000E+00
  0.00000000E+00  0.00000000E+00  0.00000000E+00
  0.00000000E+00  0.00000000E+00  0.00000000E+00
  0.00000000E+00  0.00000000E+00  0.00000000E+00
  0.00000000E+00  0.00000000E+00  0.00000000E+00
  0.00000000E+00  0.00000000E+00  0.00000000E+00
  0.00000000E+00  0.00000000E+00  0.00000000E+00
  0.00000000E+00  0.00000000E+00  0.00000000E+00
  0.00000000E+00  0.00000000E+00  0.00000000E+00
  0.00000000E+00  0.00000000E+00  0.00000000E+00
  0.00000000E+00  0.00000000E+00  0.00000000E+00
  0.00000000E+00  0.00000000E+00  0.00000000E+00
  0.00000000E+00  0.00000000E+00  0.00000000E+00
  0.00000000E+00  0.00000000E+00  0.00000000E+00
  0.00000000E+00  0.00000000E+00  0.00000000E+00
  0.00000000E+00  0.00000000E+00  0.00000000E+00
  0.00000000E+00  0.00000000E+00  0.00000000E+00
  0.00000000E+00  0.00000000E+00  0.00000000E+00
  0.00000000E+00  0.00000000E+00  0.00000000E+00
