CONTCAR\(10)                            
   1.00000000000000     
    11.7750997542999993    0.0000000000000000    0.0000000000000000
     5.8875498771999997   10.1975355193000006    0.0000000000000000
     0.0000000000000000    0.0000000000000000   23.2443008422999995
   Ce   Zn   P    O 
    18    18    18    18
Direct
  0.1111099990000000  0.1111100010000001  0.5641999870000021
  0.0000000000000000  0.0000000000000000  0.4358199930000026
  0.4444400189999982  0.1111100010000001  0.5641999870000021
  0.3333299990000000  0.0000000000000000  0.4358199930000026
  0.7777799389999984  0.1111100010000001  0.5641999870000021
  0.6666700410000033  0.0000000000000000  0.4358199930000026
  0.1111099980000034  0.4444400020000003  0.5641999870000021
  0.9999999930000030  0.3333300130000012  0.4358199930000026
  0.4444399970000035  0.4444400020000003  0.5641999870000021
  0.3333300119999976  0.3333300130000012  0.4358199930000026
  0.7777799990000034  0.4444400020000003  0.5641999870000021
  0.6666700139999975  0.3333300130000012  0.4358199930000026
  0.1111100119999975  0.7777799750000014  0.5641999870000021
  0.0000000040000003  0.6666700330000026  0.4358199930000026
  0.4444400120000012  0.7777799750000014  0.5641999870000021
  0.3333300030000004  0.6666700330000026  0.4358199930000026
  0.7777800129999974  0.7777799750000014  0.5641999870000021
  0.6666700860000034  0.6666700330000026  0.4358199930000026
  0.0000000000000000  0.0000000000000000  0.6755600039999976
  0.1111099990000000  0.1111100010000001  0.3244199949999995
  0.3333299990000000  0.0000000000000000  0.6755600039999976
  0.4444400189999982  0.1111100010000001  0.3244199949999995
  0.6666700410000033  0.0000000000000000  0.6755600039999976
  0.7777799389999984  0.1111100010000001  0.3244199949999995
  0.9999999930000030  0.3333300130000012  0.6755600039999976
  0.1111099980000034  0.4444400020000003  0.3244199949999995
  0.3333300119999976  0.3333300130000012  0.6755600039999976
  0.4444399970000035  0.4444400020000003  0.3244199949999995
  0.6666700139999975  0.3333300130000012  0.6755600039999976
  0.7777799990000034  0.4444400020000003  0.3244199949999995
  0.0000000040000003  0.6666700330000026  0.6755600039999976
  0.1111100119999975  0.7777799750000014  0.3244199949999995
  0.3333300030000004  0.6666700330000026  0.6755600039999976
  0.4444400120000012  0.7777799750000014  0.3244199949999995
  0.6666700860000034  0.6666700330000026  0.6755600039999976
  0.7777800129999974  0.7777799750000014  0.3244199949999995
  0.2222199990000036  0.2222200009999966  0.3432499979999974
  0.2222199990000036  0.2222200009999966  0.6567399910000020
  0.5555599999999998  0.2222200009999966  0.3432499979999974
  0.5555599999999998  0.2222200009999966  0.6567399910000020
  0.8888900800000030  0.2222200009999966  0.3432499979999974
  0.8888900800000030  0.2222200009999966  0.6567399910000020
  0.2222200009999966  0.5555599979999997  0.3432499979999974
  0.2222200009999966  0.5555599979999997  0.6567399910000020
  0.5555599619999967  0.5555599979999997  0.3432499979999974
  0.5555599619999967  0.5555599979999997  0.6567399910000020
  0.8888900829999997  0.5555599979999997  0.3432499979999974
  0.8888900829999997  0.5555599979999997  0.6567399910000020
  0.2222200140000012  0.8888900110000009  0.3432499979999974
  0.2222200140000012  0.8888900110000009  0.6567399910000020
  0.5555600160000012  0.8888900110000009  0.3432499979999974
  0.5555600160000012  0.8888900110000009  0.6567399910000020
  0.8888900560000010  0.8888900110000009  0.3432499979999974
  0.8888900560000010  0.8888900110000009  0.6567399910000020
  0.1111099990000000  0.1111100010000001  0.4620799970000036
  0.0000000000000000  0.0000000000000000  0.5379300139999970
  0.4444400189999982  0.1111100010000001  0.4620799970000036
  0.3333299990000000  0.0000000000000000  0.5379300139999970
  0.7777799389999984  0.1111100010000001  0.4620799970000036
  0.6666700410000033  0.0000000000000000  0.5379300139999970
  0.1111099980000034  0.4444400020000003  0.4620799970000036
  0.9999999930000030  0.3333300130000012  0.5379300139999970
  0.4444399970000035  0.4444400020000003  0.4620799970000036
  0.3333300119999976  0.3333300130000012  0.5379300139999970
  0.7777799990000034  0.4444400020000003  0.4620799970000036
  0.6666700139999975  0.3333300130000012  0.5379300139999970
  0.1111100119999975  0.7777799750000014  0.4620799970000036
  0.0000000040000003  0.6666700330000026  0.5379300139999970
  0.4444400120000012  0.7777799750000014  0.4620799970000036
  0.3333300030000004  0.6666700330000026  0.5379300139999970
  0.7777800129999974  0.7777799750000014  0.4620799970000036
  0.6666700860000034  0.6666700330000026  0.5379300139999970
 
  0.00000000E+00  0.00000000E+00  0.00000000E+00
  0.00000000E+00  0.00000000E+00  0.00000000E+00
  0.00000000E+00  0.00000000E+00  0.00000000E+00
  0.00000000E+00  0.00000000E+00  0.00000000E+00
  0.00000000E+00  0.00000000E+00  0.00000000E+00
  0.00000000E+00  0.00000000E+00  0.00000000E+00
  0.00000000E+00  0.00000000E+00  0.00000000E+00
  0.00000000E+00  0.00000000E+00  0.00000000E+00
  0.00000000E+00  0.00000000E+00  0.00000000E+00
  0.00000000E+00  0.00000000E+00  0.00000000E+00
  0.00000000E+00  0.00000000E+00  0.00000000E+00
  0.00000000E+00  0.00000000E+00  0.00000000E+00
  0.00000000E+00  0.00000000E+00  0.00000000E+00
  0.00000000E+00  0.00000000E+00  0.00000000E+00
  0.00000000E+00  0.00000000E+00  0.00000000E+00
  0.00000000E+00  0.00000000E+00  0.00000000E+00
  0.00000000E+00  0.00000000E+00  0.00000000E+00
  0.00000000E+00  0.00000000E+00  0.00000000E+00
  0.00000000E+00  0.00000000E+00  0.00000000E+00
  0.00000000E+00  0.00000000E+00  0.00000000E+00
  0.00000000E+00  0.00000000E+00  0.00000000E+00
  0.00000000E+00  0.00000000E+00  0.00000000E+00
  0.00000000E+00  0.00000000E+00  0.00000000E+00
  0.00000000E+00  0.00000000E+00  0.00000000E+00
  0.00000000E+00  0.00000000E+00  0.00000000E+00
  0.00000000E+00  0.00000000E+00  0.00000000E+00
  0.00000000E+00  0.00000000E+00  0.00000000E+00
  0.00000000E+00  0.00000000E+00  0.00000000E+00
  0.00000000E+00  0.00000000E+00  0.00000000E+00
  0.00000000E+00  0.00000000E+00  0.00000000E+00
  0.00000000E+00  0.00000000E+00  0.00000000E+00
  0.00000000E+00  0.00000000E+00  0.00000000E+00
  0.00000000E+00  0.00000000E+00  0.00000000E+00
  0.00000000E+00  0.00000000E+00  0.00000000E+00
  0.00000000E+00  0.00000000E+00  0.00000000E+00
  0.00000000E+00  0.00000000E+00  0.00000000E+00
  0.00000000E+00  0.00000000E+00  0.00000000E+00
  0.00000000E+00  0.00000000E+00  0.00000000E+00
  0.00000000E+00  0.00000000E+00  0.00000000E+00
  0.00000000E+00  0.00000000E+00  0.00000000E+00
  0.00000000E+00  0.00000000E+00  0.00000000E+00
  0.00000000E+00  0.00000000E+00  0.00000000E+00
  0.00000000E+00  0.00000000E+00  0.00000000E+00
  0.00000000E+00  0.00000000E+00  0.00000000E+00
  0.00000000E+00  0.00000000E+00  0.00000000E+00
  0.00000000E+00  0.00000000E+00  0.00000000E+00
  0.00000000E+00  0.00000000E+00  0.00000000E+00
  0.00000000E+00  0.00000000E+00  0.00000000E+00
  0.00000000E+00  0.00000000E+00  0.00000000E+00
  0.00000000E+00  0.00000000E+00  0.00000000E+00
  0.00000000E+00  0.00000000E+00  0.00000000E+00
  0.00000000E+00  0.00000000E+00  0.00000000E+00
  0.00000000E+00  0.00000000E+00  0.00000000E+00
  0.00000000E+00  0.00000000E+00  0.00000000E+00
  0.00000000E+00  0.00000000E+00  0.00000000E+00
  0.00000000E+00  0.00000000E+00  0.00000000E+00
  0.00000000E+00  0.00000000E+00  0.00000000E+00
  0.00000000E+00  0.00000000E+00  0.00000000E+00
  0.00000000E+00  0.00000000E+00  0.00000000E+00
  0.00000000E+00  0.00000000E+00  0.00000000E+00
  0.00000000E+00  0.00000000E+00  0.00000000E+00
  0.00000000E+00  0.00000000E+00  0.00000000E+00
  0.00000000E+00  0.00000000E+00  0.00000000E+00
  0.00000000E+00  0.00000000E+00  0.00000000E+00
  0.00000000E+00  0.00000000E+00  0.00000000E+00
  0.00000000E+00  0.00000000E+00  0.00000000E+00
  0.00000000E+00  0.00000000E+00  0.00000000E+00
  0.00000000E+00  0.00000000E+00  0.00000000E+00
  0.00000000E+00  0.00000000E+00  0.00000000E+00
  0.00000000E+00  0.00000000E+00  0.00000000E+00
  0.00000000E+00  0.00000000E+00  0.00000000E+00
  0.00000000E+00  0.00000000E+00  0.00000000E+00
