CONTCAR\(9)                             
   1.00000000000000     
    11.8893995285000003    0.0000000000000000    0.0000000000000000
     0.0000000000000000   11.8893995285000003    0.0000000000000000
     0.0000000000000000    0.0000000000000000   25.3729991912999999
   Ce   Bi   S    O 
    18    18    36    19
Direct
  0.0011558710479199  0.9988703875958226  0.4516987885960779
  0.1664125277537824  0.1666761577307449  0.5497456068434211
  0.3333537837531761  0.9993673132887527  0.4516259917212938
  0.5002638141529563  0.1666965161201427  0.5497389284473776
  0.6654948516555030  0.9988494661223025  0.4517418871699547
  0.8333155397097358  0.1667002348103096  0.5498882765689092
  0.0011374452071481  0.3344978531364510  0.4517098260337630
  0.1694904642376413  0.5028573187664175  0.5531022677934245
  0.3333536595711325  0.3339454883102369  0.4515710001103322
  0.4972085088096050  0.5028577424268144  0.5530934725880494
  0.6655337315074940  0.3344949344159391  0.4516581842832442
  0.8332977796298816  0.4997700856539644  0.5497303933698655
  0.0006058007628043  0.6667241974617268  0.4515896306685081
  0.1695035820771912  0.8305390698096561  0.5531266048646210
  0.3333771657152358  0.6667213923569850  0.4546011273814407
  0.4971929115818290  0.8305271368241292  0.5531667971022005
  0.6660548727366746  0.6667098392668497  0.4515589029679343
  0.8333147979659359  0.8335957374639108  0.5497485378006111
  0.0007622886149797  0.9992362877259700  0.6991034414165924
  0.1665892110557519  0.1666558650161177  0.3015070921493941
  0.3333110080053798  0.9984751624963204  0.6987038183648959
  0.5000757760684525  0.1666469709554430  0.3014952283037143
  0.6658163092922651  0.9992417322741488  0.6990833542237240
  0.8333317640841144  0.1666647729064793  0.3018608805475000
  0.0007547170972190  0.3341700658429166  0.6990772057222259
  0.1668027324931698  0.5001369808389377  0.3016107133753181
  0.3332941310366398  0.3350063560103844  0.6987167146664377
  0.4998671845599373  0.5001348014531032  0.3015679982853761
  0.6656941131580422  0.3343051821259919  0.6991325442659517
  0.8333342111810151  0.4999157576728847  0.3014856671146052
  0.0015600192066332  0.6666753835149920  0.6987150406587728
  0.1668218945270057  0.8331818561155147  0.3016337912379256
  0.3333006694502677  0.6666979037688809  0.7225836006214222
  0.4998541747055498  0.8332073310068444  0.3016015784468193
  0.6649946226972743  0.6667076054578641  0.6987257013879512
  0.8333215218664527  0.8334332753016557  0.3015240434637845
  0.9974128424657459  0.0026115579191146  0.5992012226046712
  0.0000554406686527  0.9999213162310193  0.2967546981762061
  0.1663579481490400  0.1665794106007104  0.4016288431072191
  0.1675813444703827  0.1667830880316578  0.7047299544293929
  0.3333212301616193  0.0052213175768678  0.5989439942847399
  0.3333472633184964  1.0000243022730135  0.2974982205317322
  0.5003338645503618  0.1665442286939613  0.4016162587808572
  0.4989822951118322  0.1667938520573565  0.7047279733337752
  0.6691827812459613  0.0026324424233572  0.5991754486859966
  0.6666130320945886  0.9999211198113140  0.2965304873978102
  0.8332966041090737  0.1666323436977258  0.4017930158316098
  0.8331369633900181  0.1668216583503206  0.7046295876824316
  0.9974186630174011  0.3307722992463249  0.5991736263615761
  0.0000321352850361  0.3333618338500355  0.2967544889262645
  0.1671814794389750  0.5005762512575379  0.4017198698848147
  0.1645348676794642  0.4979851482183554  0.6871577057148264
  0.3333393090910302  0.3281074732953066  0.5989480712457586
  0.3333433153748824  0.3332859443932491  0.2978470741667583
  0.4996432853961379  0.5005040005634022  0.4016749344112262
  0.5018771930228995  0.4981450921950668  0.6870608299163230
  0.6691783917773590  0.3307571926228718  0.5992043780808484
  0.6666324820385012  0.3333619536260564  0.2967904155747084
  0.8333428185609598  0.4997234253042505  0.4015998362431574
  0.8332061378720298  0.5009933636830797  0.7047245515544287
  0.9947015798051768  0.6667212008589000  0.5989487524795492
  0.0000188146699659  0.6666154445426284  0.2976772360669441
  0.1672262348783347  0.8329231062185568  0.4017703607980931
  0.1645566856097657  0.8354390764856885  0.6873383808451007
  0.3333389727100779  0.6667200221096018  0.5946053086208477
  0.3333400473399417  0.6666250495768230  0.2953291974315675
  0.4995463989068895  0.8329784103538806  0.4017310685841454
  0.5019877868763361  0.8354219188144040  0.6870951783256679
  0.6718958681304538  0.6666936776742696  0.5989592996900763
  0.6666823979663428  0.6666774149683354  0.2977524918650355
  0.8332743952434871  0.8339307114492268  0.4016663851088808
  0.8332239479278157  0.8324681261330218  0.7047792395359586
  1.0000871369763793  0.1666667704888645  0.5003109312589042
  0.1666597862302213  0.9998314138900812  0.5012685119214981
  0.3333339277562134  0.1666722248093259  0.5001173002996298
  0.5000076869906463  0.9998281863875508  0.5012820975450428
  0.6665774354609214  0.1666829794614245  0.5003158846667580
  0.8333360258102784 -0.0000906908111958  0.5003515200771556
  0.0001393479179980  0.5000467627230675  0.5012414770001008
  0.1666709593408657  0.3335191869051266  0.5012444752587218
  0.3333671989197350  0.4973870716765701  0.5004006369758696
  0.5000180530658136  0.3335270311907189  0.5012195097745415
  0.6665109780879011  0.5000484506166617  0.5012057872854522
  0.8333178100010835  0.3334599359541319  0.5003002213644806
  0.0001507008361055  0.8333524180172098  0.5012618824855954
  0.1640204071433055  0.6667080410387995  0.5004227754826596
  0.3333575697365992  0.8359986312049615  0.5004491328916166
  0.5026781557334850  0.6666958425599521  0.5003965122627974
  0.6665102439919111  0.8333352015459953  0.5012704553827959
  0.8333147306068335  0.6667030830977999  0.5000997946075044
  0.3335134140626893  0.6665483550900541  0.7996191396164402
 
  0.00000000E+00  0.00000000E+00  0.00000000E+00
  0.00000000E+00  0.00000000E+00  0.00000000E+00
  0.00000000E+00  0.00000000E+00  0.00000000E+00
  0.00000000E+00  0.00000000E+00  0.00000000E+00
  0.00000000E+00  0.00000000E+00  0.00000000E+00
  0.00000000E+00  0.00000000E+00  0.00000000E+00
  0.00000000E+00  0.00000000E+00  0.00000000E+00
  0.00000000E+00  0.00000000E+00  0.00000000E+00
  0.00000000E+00  0.00000000E+00  0.00000000E+00
  0.00000000E+00  0.00000000E+00  0.00000000E+00
  0.00000000E+00  0.00000000E+00  0.00000000E+00
  0.00000000E+00  0.00000000E+00  0.00000000E+00
  0.00000000E+00  0.00000000E+00  0.00000000E+00
  0.00000000E+00  0.00000000E+00  0.00000000E+00
  0.00000000E+00  0.00000000E+00  0.00000000E+00
  0.00000000E+00  0.00000000E+00  0.00000000E+00
  0.00000000E+00  0.00000000E+00  0.00000000E+00
  0.00000000E+00  0.00000000E+00  0.00000000E+00
  0.00000000E+00  0.00000000E+00  0.00000000E+00
  0.00000000E+00  0.00000000E+00  0.00000000E+00
  0.00000000E+00  0.00000000E+00  0.00000000E+00
  0.00000000E+00  0.00000000E+00  0.00000000E+00
  0.00000000E+00  0.00000000E+00  0.00000000E+00
  0.00000000E+00  0.00000000E+00  0.00000000E+00
  0.00000000E+00  0.00000000E+00  0.00000000E+00
  0.00000000E+00  0.00000000E+00  0.00000000E+00
  0.00000000E+00  0.00000000E+00  0.00000000E+00
  0.00000000E+00  0.00000000E+00  0.00000000E+00
  0.00000000E+00  0.00000000E+00  0.00000000E+00
  0.00000000E+00  0.00000000E+00  0.00000000E+00
  0.00000000E+00  0.00000000E+00  0.00000000E+00
  0.00000000E+00  0.00000000E+00  0.00000000E+00
  0.00000000E+00  0.00000000E+00  0.00000000E+00
  0.00000000E+00  0.00000000E+00  0.00000000E+00
  0.00000000E+00  0.00000000E+00  0.00000000E+00
  0.00000000E+00  0.00000000E+00  0.00000000E+00
  0.00000000E+00  0.00000000E+00  0.00000000E+00
  0.00000000E+00  0.00000000E+00  0.00000000E+00
  0.00000000E+00  0.00000000E+00  0.00000000E+00
  0.00000000E+00  0.00000000E+00  0.00000000E+00
  0.00000000E+00  0.00000000E+00  0.00000000E+00
  0.00000000E+00  0.00000000E+00  0.00000000E+00
  0.00000000E+00  0.00000000E+00  0.00000000E+00
  0.00000000E+00  0.00000000E+00  0.00000000E+00
  0.00000000E+00  0.00000000E+00  0.00000000E+00
  0.00000000E+00  0.00000000E+00  0.00000000E+00
  0.00000000E+00  0.00000000E+00  0.00000000E+00
  0.00000000E+00  0.00000000E+00  0.00000000E+00
  0.00000000E+00  0.00000000E+00  0.00000000E+00
  0.00000000E+00  0.00000000E+00  0.00000000E+00
  0.00000000E+00  0.00000000E+00  0.00000000E+00
  0.00000000E+00  0.00000000E+00  0.00000000E+00
  0.00000000E+00  0.00000000E+00  0.00000000E+00
  0.00000000E+00  0.00000000E+00  0.00000000E+00
  0.00000000E+00  0.00000000E+00  0.00000000E+00
  0.00000000E+00  0.00000000E+00  0.00000000E+00
  0.00000000E+00  0.00000000E+00  0.00000000E+00
  0.00000000E+00  0.00000000E+00  0.00000000E+00
  0.00000000E+00  0.00000000E+00  0.00000000E+00
  0.00000000E+00  0.00000000E+00  0.00000000E+00
  0.00000000E+00  0.00000000E+00  0.00000000E+00
  0.00000000E+00  0.00000000E+00  0.00000000E+00
  0.00000000E+00  0.00000000E+00  0.00000000E+00
  0.00000000E+00  0.00000000E+00  0.00000000E+00
  0.00000000E+00  0.00000000E+00  0.00000000E+00
  0.00000000E+00  0.00000000E+00  0.00000000E+00
  0.00000000E+00  0.00000000E+00  0.00000000E+00
  0.00000000E+00  0.00000000E+00  0.00000000E+00
  0.00000000E+00  0.00000000E+00  0.00000000E+00
  0.00000000E+00  0.00000000E+00  0.00000000E+00
  0.00000000E+00  0.00000000E+00  0.00000000E+00
  0.00000000E+00  0.00000000E+00  0.00000000E+00
  0.00000000E+00  0.00000000E+00  0.00000000E+00
  0.00000000E+00  0.00000000E+00  0.00000000E+00
  0.00000000E+00  0.00000000E+00  0.00000000E+00
  0.00000000E+00  0.00000000E+00  0.00000000E+00
  0.00000000E+00  0.00000000E+00  0.00000000E+00
  0.00000000E+00  0.00000000E+00  0.00000000E+00
  0.00000000E+00  0.00000000E+00  0.00000000E+00
  0.00000000E+00  0.00000000E+00  0.00000000E+00
  0.00000000E+00  0.00000000E+00  0.00000000E+00
  0.00000000E+00  0.00000000E+00  0.00000000E+00
  0.00000000E+00  0.00000000E+00  0.00000000E+00
  0.00000000E+00  0.00000000E+00  0.00000000E+00
  0.00000000E+00  0.00000000E+00  0.00000000E+00
  0.00000000E+00  0.00000000E+00  0.00000000E+00
  0.00000000E+00  0.00000000E+00  0.00000000E+00
  0.00000000E+00  0.00000000E+00  0.00000000E+00
  0.00000000E+00  0.00000000E+00  0.00000000E+00
  0.00000000E+00  0.00000000E+00  0.00000000E+00
  0.00000000E+00  0.00000000E+00  0.00000000E+00
