CONTCAR                                 
   1.00000000000000     
    10.7850999832000003    0.0000000000000000    0.0000000000000000
     0.0000000000000000   11.5594997405999997    0.0000000000000000
     0.0000000000000000    0.0000000000000000   23.1807994842999996
   V    O    H 
    36    80     1
Selective dynamics
Direct
  0.0000409367604703  0.3541949562571958  0.6572769497192184   F   F   F
  0.1689188062764444  0.8512768955487644  0.3419724868340808   F   F   F
  0.1658877517812840  0.8547146275528235  0.6573005639849612   F   F   F
  0.0011434826460714  0.6482309855917947  0.3436660937372480   F   F   F
  0.1669390192077387  0.1481783262992238  0.3430664734642264   F   F   F
  0.1660054698647571  0.1482642652735251  0.6570111512788870   F   F   F
  0.9996016803922103  0.3528978400247524  0.3431568775710545   F   F   F
  0.9986040205146125  0.6497521654897156  0.6578760695406984   F   F   F
  0.1681635841240521  0.8508363589797767  0.4969217172998270   F   F   F
  0.0017113734917586  0.6504373540809425  0.5009986712667924   F   F   F
  0.0003540425870696  0.3525845082817369  0.5003071147262617   F   F   F
  0.1678863841383915  0.1493518306532025  0.5003579038326222   F   F   F
  0.3333164419796404  0.3524484886785828  0.6573665974881138   F   F   F
  0.4976954161535261  0.8512853419704527  0.3419679645768952   F   F   F
  0.5003856341240080  0.8545381709985875  0.6573152938529105   F   F   F
  0.3332942134142627  0.6438438852623136  0.3371683834928447   F   F   F
  0.4996968086314695  0.1481571319358537  0.3430846830015994   F   F   F
  0.5004012081744023  0.1481318233261106  0.6570414630734831   F   F   F
  0.3333154734973149  0.3537236534137165  0.3419372270845784   F   F   F
  0.3330499535391453  0.6504478578487962  0.6880574535040225   F   F   F
  0.4982409768480451  0.8508209452125044  0.4969472428732615   F   F   F
  0.3332415864762126  0.6516233142132322  0.5278805648840077   F   F   F
  0.3332762258218267  0.3601084406358410  0.4984744565304737   F   F   F
  0.4986889872546669  0.1493403650980341  0.5003600350947579   F   F   F
  0.6664604443364652  0.3541694797742707  0.6573133962832429   F   F   F
  0.8332817514864175  0.8529659815487207  0.3441158292189996   F   F   F
  0.8331715697721478  0.8559469710973744  0.6574379905507897   F   F   F
  0.6654930736961546  0.6482344991117799  0.3436720766654631   F   F   F
  0.8333256708646886  0.1474006921090520  0.3427587446464955   F   F   F
  0.8332104658400610  0.1501494674478820  0.6568035766581559   F   F   F
  0.6670473001646400  0.3528936391591699  0.3432228796242711   F   F   F
  0.6676171178699022  0.6497955143172476  0.6579164296517845   F   F   F
  0.8332143543840473  0.8511783405857400  0.5016968327612688   F   F   F
  0.6646722397492013  0.6504709218693634  0.5009898967380053   F   F   F
  0.6661896449015074  0.3526164733488883  0.5003642241012400   F   F   F
  0.8332706821261269  0.1493430450147457  0.4993393170281379   F   F   F
  0.1757842579974351  0.8506669593032186  0.4138835347406413   F   F   F
  0.1631530892328925  0.8597985867508697  0.5866559783279470   F   F   F
  0.9995111881887979  0.3554384274081031  0.4143704596394286   F   F   F
  0.0000117588198165  0.3558993839817930  0.5860300246040424   F   F   F
  0.9971437147349249  0.6479620570345048  0.5864600057413867   F   F   F
  0.0055791483230578  0.6457890149095036  0.4149360478005519   F   F   F
  0.1665465569476865  0.1444206393320044  0.5856705670265612   F   F   F
  0.1681312521004372  0.1469644612587686  0.4142398267460123   F   F   F
  0.0010995038509236  0.1766748233096465  0.5001060504329118   F   F   F
  0.0020574271802118  0.8254581042764073  0.4985888019696745   F   F   F
  0.1711614519152675  0.6766548249362643  0.5041729278811005   F   F   F
  0.1671417282613206  0.3270044122751727  0.4997099208705365   F   F   F
  0.0000994115216386  0.1815951702411240  0.3229620280534320   F   F   F
  0.1647703556782645  0.6810036002466688  0.3193553514732841   F   F   F
  0.1662276724518463  0.3187808060649147  0.3233130967369604   F   F   F
  0.0005760103243446  0.8193455841233828  0.3248332517580437   F   F   F
  0.9981610861321926  0.8227593688026502  0.6772184611935046   F   F   F
  0.9995446800161147  0.1832953023067247  0.6769825974394550   F   F   F
  0.1661134323396709  0.3178239088298795  0.6773486585757880   F   F   F
  0.1609618094940757  0.6862457603994159  0.6788345149530670   F   F   F
  0.1675517233442747  0.9995283974368263  0.3207813071642889   F   F   F
  0.1652937087204123  0.0026383801223062  0.6814829718686823   F   F   F
  0.0002842239008132  0.5018779138756955  0.6803297623875295   F   F   F
  0.9992206252927218  0.5002648211415348  0.3204279840087167   F   F   F
  0.1738208466238262  0.0005468315586015  0.4982969058065763   F   F   F
  0.9992231172522210  0.5009859213788914  0.5007707270853317   F   F   F
  0.4908113430541263  0.8507213687431943  0.4138903063053903   F   F   F
  0.5030985312725207  0.8596220705812669  0.5866805277510778   F   F   F
  0.3332709154998454  0.3633908666852435  0.4135107695625067   F   F   F
  0.3333343195241980  0.3626323520508308  0.5862459009903986   F   F   F
  0.3333425039011360  0.6400705645121860  0.5990045932749979   F   F   F
  0.3332503321385332  0.6355055164779131  0.4057690528956641   F   F   F
  0.4999520726630280  0.1444167514863821  0.5857019579757718   F   F   F
  0.4984482074256604  0.1469083549557268  0.4142566435591917   F   F   F
  0.3332796994245797  0.1855662110979495  0.5006379748472867   F   F   F
  0.3332053382006208  0.8183999240623692  0.5080739177464935   F   F   F
  0.4952535934933167  0.6766501325702379  0.5040512138661271   F   F   F
  0.4994092953303664  0.3269967735091086  0.4996992420028477   F   F   F
  0.3333289229604688  0.1831935795734907  0.3222532139310914   F   F   F
  0.5018420511265802  0.6810072041345734  0.3193813659823945   F   F   F
  0.5004217678490477  0.3187989040038346  0.3233750455084277   F   F   F
  0.3333060201122890  0.8166740779859083  0.3193213086987328   F   F   F
  0.3330833712648129  0.8244090383323837  0.6781788547975935   F   F   F
  0.3332403242310775  0.1821230727018133  0.6763660595686432   F   F   F
  0.5004275564072032  0.3176903573512107  0.6774656705148985   F   F   F
  0.5053590096911549  0.6862724413232968  0.6790948801177095   F   F   F
  0.4990891912039501  0.9995369752242027  0.3207693589542728   F   F   F
  0.5010375930664850  0.0025079723655708  0.6814809151904626   F   F   F
  0.3336091064005515  0.4924647353803877  0.6890023839769981   F   F   F
  0.3333462525622650  0.4954226008817173  0.3123063560023525   F   F   F
  0.4926943890189150  0.0005327371136161  0.4983400699928993   F   F   F
  0.3332653503036056  0.5084697092914539  0.5024762104292861   F   F   F
  0.8332358059541676  0.8564566338774924  0.4150145274784975   F   F   F
  0.8332318675093333  0.8560826124595238  0.5859196620461518   F   F   F
  0.6671367766251919  0.3554674916983984  0.4144235211591649   F   F   F
  0.6664670027259803  0.3558459113798023  0.5860607653001964   F   F   F
  0.6689749109024916  0.6480046300770397  0.5865080350856289   F   F   F
  0.6610547064012877  0.6458302655836192  0.4149433382262018   F   F   F
  0.8332354833861544  0.1472978196882835  0.5856737350579166   F   F   F
  0.8333192000871392  0.1453394245750701  0.4141108721723796   F   F   F
  0.6654429444613115  0.1766637301385785  0.5001148929041292   F   F   F
  0.6643789116276650  0.8254792512459304  0.4986562355516853   F   F   F
  0.8331991299249566  0.6761528978126563  0.4997497181829402   F   F   F
  0.8332546513798889  0.3245900478076607  0.4997978300646722   F   F   F
  0.6665360179512945  0.1815971772707172  0.3229997239896107   F   F   F
  0.8333175578084990  0.6824911040043418  0.3248678472328663   F   F   F
  0.8333183539746472  0.3180442193595496  0.3226137148504762   F   F   F
  0.6660282483511111  0.8193639045995127  0.3248096379592482   F   F   F
  0.6681792444467902  0.8228452185551944  0.6771800987226513   F   F   F
  0.6669030091704542  0.1831803383946706  0.6769879617507755   F   F   F
  0.8332184640539424  0.3203149168830777  0.6774652575335764   F   F   F
  0.8331169356496204  0.6844109022557703  0.6787315460044354   F   F   F
  0.8333226465982051  0.0001612659932846  0.3197330492075139   F   F   F
  0.8332521883010173  0.0029603413350756  0.6803489562071050   F   F   F
  0.6660663629404979  0.5018486870171728  0.6803356888617174   F   F   F
  0.6674178508359105  0.5002513355748235  0.3204776165614902   F   F   F
  0.8332596296576753  0.0008892103676033  0.5005166604054239   F   F   F
  0.6672816265192409  0.5010122850278762  0.5008182333820628   F   F   F
  0.3328034730071892  0.6540189672646832  0.7659133628896129   T   T   T
  0.3406874066529397  0.5547379175633012  0.8016397254938283   T   T   T
  0.3414085684332093  0.4923294094768380  0.7713600700894854   T   T   T
 
  0.00000000E+00  0.00000000E+00  0.00000000E+00
  0.00000000E+00  0.00000000E+00  0.00000000E+00
  0.00000000E+00  0.00000000E+00  0.00000000E+00
  0.00000000E+00  0.00000000E+00  0.00000000E+00
  0.00000000E+00  0.00000000E+00  0.00000000E+00
  0.00000000E+00  0.00000000E+00  0.00000000E+00
  0.00000000E+00  0.00000000E+00  0.00000000E+00
  0.00000000E+00  0.00000000E+00  0.00000000E+00
  0.00000000E+00  0.00000000E+00  0.00000000E+00
  0.00000000E+00  0.00000000E+00  0.00000000E+00
  0.00000000E+00  0.00000000E+00  0.00000000E+00
  0.00000000E+00  0.00000000E+00  0.00000000E+00
  0.00000000E+00  0.00000000E+00  0.00000000E+00
  0.00000000E+00  0.00000000E+00  0.00000000E+00
  0.00000000E+00  0.00000000E+00  0.00000000E+00
  0.00000000E+00  0.00000000E+00  0.00000000E+00
  0.00000000E+00  0.00000000E+00  0.00000000E+00
  0.00000000E+00  0.00000000E+00  0.00000000E+00
  0.00000000E+00  0.00000000E+00  0.00000000E+00
  0.00000000E+00  0.00000000E+00  0.00000000E+00
  0.00000000E+00  0.00000000E+00  0.00000000E+00
  0.00000000E+00  0.00000000E+00  0.00000000E+00
  0.00000000E+00  0.00000000E+00  0.00000000E+00
  0.00000000E+00  0.00000000E+00  0.00000000E+00
  0.00000000E+00  0.00000000E+00  0.00000000E+00
  0.00000000E+00  0.00000000E+00  0.00000000E+00
  0.00000000E+00  0.00000000E+00  0.00000000E+00
  0.00000000E+00  0.00000000E+00  0.00000000E+00
  0.00000000E+00  0.00000000E+00  0.00000000E+00
  0.00000000E+00  0.00000000E+00  0.00000000E+00
  0.00000000E+00  0.00000000E+00  0.00000000E+00
  0.00000000E+00  0.00000000E+00  0.00000000E+00
  0.00000000E+00  0.00000000E+00  0.00000000E+00
  0.00000000E+00  0.00000000E+00  0.00000000E+00
  0.00000000E+00  0.00000000E+00  0.00000000E+00
  0.00000000E+00  0.00000000E+00  0.00000000E+00
  0.00000000E+00  0.00000000E+00  0.00000000E+00
  0.00000000E+00  0.00000000E+00  0.00000000E+00
  0.00000000E+00  0.00000000E+00  0.00000000E+00
  0.00000000E+00  0.00000000E+00  0.00000000E+00
  0.00000000E+00  0.00000000E+00  0.00000000E+00
  0.00000000E+00  0.00000000E+00  0.00000000E+00
  0.00000000E+00  0.00000000E+00  0.00000000E+00
  0.00000000E+00  0.00000000E+00  0.00000000E+00
  0.00000000E+00  0.00000000E+00  0.00000000E+00
  0.00000000E+00  0.00000000E+00  0.00000000E+00
  0.00000000E+00  0.00000000E+00  0.00000000E+00
  0.00000000E+00  0.00000000E+00  0.00000000E+00
  0.00000000E+00  0.00000000E+00  0.00000000E+00
  0.00000000E+00  0.00000000E+00  0.00000000E+00
  0.00000000E+00  0.00000000E+00  0.00000000E+00
  0.00000000E+00  0.00000000E+00  0.00000000E+00
  0.00000000E+00  0.00000000E+00  0.00000000E+00
  0.00000000E+00  0.00000000E+00  0.00000000E+00
  0.00000000E+00  0.00000000E+00  0.00000000E+00
  0.00000000E+00  0.00000000E+00  0.00000000E+00
  0.00000000E+00  0.00000000E+00  0.00000000E+00
  0.00000000E+00  0.00000000E+00  0.00000000E+00
  0.00000000E+00  0.00000000E+00  0.00000000E+00
  0.00000000E+00  0.00000000E+00  0.00000000E+00
  0.00000000E+00  0.00000000E+00  0.00000000E+00
  0.00000000E+00  0.00000000E+00  0.00000000E+00
  0.00000000E+00  0.00000000E+00  0.00000000E+00
  0.00000000E+00  0.00000000E+00  0.00000000E+00
  0.00000000E+00  0.00000000E+00  0.00000000E+00
  0.00000000E+00  0.00000000E+00  0.00000000E+00
  0.00000000E+00  0.00000000E+00  0.00000000E+00
  0.00000000E+00  0.00000000E+00  0.00000000E+00
  0.00000000E+00  0.00000000E+00  0.00000000E+00
  0.00000000E+00  0.00000000E+00  0.00000000E+00
  0.00000000E+00  0.00000000E+00  0.00000000E+00
  0.00000000E+00  0.00000000E+00  0.00000000E+00
  0.00000000E+00  0.00000000E+00  0.00000000E+00
  0.00000000E+00  0.00000000E+00  0.00000000E+00
  0.00000000E+00  0.00000000E+00  0.00000000E+00
  0.00000000E+00  0.00000000E+00  0.00000000E+00
  0.00000000E+00  0.00000000E+00  0.00000000E+00
  0.00000000E+00  0.00000000E+00  0.00000000E+00
  0.00000000E+00  0.00000000E+00  0.00000000E+00
  0.00000000E+00  0.00000000E+00  0.00000000E+00
  0.00000000E+00  0.00000000E+00  0.00000000E+00
  0.00000000E+00  0.00000000E+00  0.00000000E+00
  0.00000000E+00  0.00000000E+00  0.00000000E+00
  0.00000000E+00  0.00000000E+00  0.00000000E+00
  0.00000000E+00  0.00000000E+00  0.00000000E+00
  0.00000000E+00  0.00000000E+00  0.00000000E+00
  0.00000000E+00  0.00000000E+00  0.00000000E+00
  0.00000000E+00  0.00000000E+00  0.00000000E+00
  0.00000000E+00  0.00000000E+00  0.00000000E+00
  0.00000000E+00  0.00000000E+00  0.00000000E+00
  0.00000000E+00  0.00000000E+00  0.00000000E+00
  0.00000000E+00  0.00000000E+00  0.00000000E+00
  0.00000000E+00  0.00000000E+00  0.00000000E+00
  0.00000000E+00  0.00000000E+00  0.00000000E+00
  0.00000000E+00  0.00000000E+00  0.00000000E+00
  0.00000000E+00  0.00000000E+00  0.00000000E+00
  0.00000000E+00  0.00000000E+00  0.00000000E+00
  0.00000000E+00  0.00000000E+00  0.00000000E+00
  0.00000000E+00  0.00000000E+00  0.00000000E+00
  0.00000000E+00  0.00000000E+00  0.00000000E+00
  0.00000000E+00  0.00000000E+00  0.00000000E+00
  0.00000000E+00  0.00000000E+00  0.00000000E+00
  0.00000000E+00  0.00000000E+00  0.00000000E+00
  0.00000000E+00  0.00000000E+00  0.00000000E+00
  0.00000000E+00  0.00000000E+00  0.00000000E+00
  0.00000000E+00  0.00000000E+00  0.00000000E+00
  0.00000000E+00  0.00000000E+00  0.00000000E+00
  0.00000000E+00  0.00000000E+00  0.00000000E+00
  0.00000000E+00  0.00000000E+00  0.00000000E+00
  0.00000000E+00  0.00000000E+00  0.00000000E+00
  0.00000000E+00  0.00000000E+00  0.00000000E+00
  0.00000000E+00  0.00000000E+00  0.00000000E+00
  0.00000000E+00  0.00000000E+00  0.00000000E+00
  0.00000000E+00  0.00000000E+00  0.00000000E+00
  0.00000000E+00  0.00000000E+00  0.00000000E+00
  0.00000000E+00  0.00000000E+00  0.00000000E+00
  0.00000000E+00  0.00000000E+00  0.00000000E+00
