CONTCAR\(6)                             
   1.00000000000000     
    12.5569000244000009    0.0000000000000000    0.0000000000000000
     0.0000000000000000   12.5685997009000001    0.0000000000000000
     0.0000000000000000    0.0000000000000000   19.2248001098999985
   Cu   Ag   Te   O    H 
    12    12    24     2     1
Direct
  0.1347460768197325  0.0018237163550011  0.5199707002795824
  0.3458338292356495 -0.0042708463231789  0.5347897479606140
  0.6294026386773194  0.0041009248611975  0.5124474858082294
  0.8391643598068668 -0.0023633351723232  0.5278835418626422
  0.1054286029081488  0.3310683435027839  0.5724790251335797
  0.3877491839900838  0.3405277190393357  0.5679107806791458
  0.5892226419644043  0.3343542735848064  0.5164952815425150
  0.8905425953112883  0.3309851050208572  0.5627941645263527
  0.1243411454141301  0.6625134478745638  0.5204990292243877
  0.4236791566717014  0.6435003087572866  0.5686897300824744
  0.6072007738433358  0.6677266488446041  0.5007083126966054
  0.9123254483744758  0.6665875454938569  0.5296592934067030
  0.0020665131328266  0.1748527611182890  0.4863780268062956
  0.2557110518965820  0.2033779862712305  0.4934690177080310
  0.4776074567367135  0.1565933670458923  0.4746424663432648
  0.7711794518250528  0.1953025897939540  0.4781525296354546
  0.9941414878733495  0.4786466921085585  0.4841162043566644
  0.2418001545692822  0.4702866037709050  0.4968168816561811
  0.4591667951338117  0.5004979834831678  0.4666492800706836
  0.7637837023136864  0.4843441293415369  0.4690193619810164
  0.9950074706111878  0.8500756342302431  0.4754616672807386
  0.2698663848583299  0.8083591169391440  0.4791461607948288
  0.4892801079965778  0.8464632813283163  0.4730039115356086
  0.7694151908453969  0.8090551352164330  0.4672350231368743
  0.0390375550081672  0.0128770736419341  0.3881570446953826
  0.1225824163363325  0.1456922228814586  0.6176505182836159
  0.2684897402460336  0.0054631201312620  0.4047941285128738
  0.3766201127956232  0.1531318129374943  0.6196233908716561
  0.5403480247045032  0.0039620452563121  0.3785903257281165
  0.6216411713478905  0.1684692710787913  0.5956011102410319
  0.7681104121466699  0.0042401351785647  0.3948578300026367
  0.8704501205211069  0.1507361029478874  0.6169952006523965
  0.0066567539550465  0.3279511592388544  0.3841652130660110
  0.1180979225926446  0.5167395554506956  0.6174136639792344
  0.2316362884868857  0.3315380251261191  0.3816326215520611
  0.3606611430010853  0.4944650456414062  0.6505655590289608
  0.5080589831343093  0.3278866966542252  0.3839669701566616
  0.6178804445244811  0.5091661930881012  0.5859714110105154
  0.7316797983050165  0.3283615699024227  0.3695927324286389
  0.8511479604226349  0.5126395638964106  0.6106361383722412
  0.9957853724913591  0.6628258015218830  0.3972145086929153
  0.1306858864111511  0.8322449157529921  0.6016254696163100
  0.2305807102917429  0.6372805132287761  0.3972272827451053
  0.3807863213648832  0.8300394697192970  0.6149160442604139
  0.4955123654653610  0.6751909788635329  0.3803459390669429
  0.6316742314728228  0.8323800797105830  0.5908742220347067
  0.7243997832805176  0.6524852301448700  0.3748618115749747
  0.8778902022078884  0.8334592984567945  0.6083731000772703
  0.4788773798269045  0.4634478529926889  0.7277667173841047
  0.5258261001591622  0.5607588987536907  0.7544042727214274
  0.5896405666898168  0.5668580753164975  0.7246085817353131
 
  0.00000000E+00  0.00000000E+00  0.00000000E+00
  0.00000000E+00  0.00000000E+00  0.00000000E+00
  0.00000000E+00  0.00000000E+00  0.00000000E+00
  0.00000000E+00  0.00000000E+00  0.00000000E+00
  0.00000000E+00  0.00000000E+00  0.00000000E+00
  0.00000000E+00  0.00000000E+00  0.00000000E+00
  0.00000000E+00  0.00000000E+00  0.00000000E+00
  0.00000000E+00  0.00000000E+00  0.00000000E+00
  0.00000000E+00  0.00000000E+00  0.00000000E+00
  0.00000000E+00  0.00000000E+00  0.00000000E+00
  0.00000000E+00  0.00000000E+00  0.00000000E+00
  0.00000000E+00  0.00000000E+00  0.00000000E+00
  0.00000000E+00  0.00000000E+00  0.00000000E+00
  0.00000000E+00  0.00000000E+00  0.00000000E+00
  0.00000000E+00  0.00000000E+00  0.00000000E+00
  0.00000000E+00  0.00000000E+00  0.00000000E+00
  0.00000000E+00  0.00000000E+00  0.00000000E+00
  0.00000000E+00  0.00000000E+00  0.00000000E+00
  0.00000000E+00  0.00000000E+00  0.00000000E+00
  0.00000000E+00  0.00000000E+00  0.00000000E+00
  0.00000000E+00  0.00000000E+00  0.00000000E+00
  0.00000000E+00  0.00000000E+00  0.00000000E+00
  0.00000000E+00  0.00000000E+00  0.00000000E+00
  0.00000000E+00  0.00000000E+00  0.00000000E+00
  0.00000000E+00  0.00000000E+00  0.00000000E+00
  0.00000000E+00  0.00000000E+00  0.00000000E+00
  0.00000000E+00  0.00000000E+00  0.00000000E+00
  0.00000000E+00  0.00000000E+00  0.00000000E+00
  0.00000000E+00  0.00000000E+00  0.00000000E+00
  0.00000000E+00  0.00000000E+00  0.00000000E+00
  0.00000000E+00  0.00000000E+00  0.00000000E+00
  0.00000000E+00  0.00000000E+00  0.00000000E+00
  0.00000000E+00  0.00000000E+00  0.00000000E+00
  0.00000000E+00  0.00000000E+00  0.00000000E+00
  0.00000000E+00  0.00000000E+00  0.00000000E+00
  0.00000000E+00  0.00000000E+00  0.00000000E+00
  0.00000000E+00  0.00000000E+00  0.00000000E+00
  0.00000000E+00  0.00000000E+00  0.00000000E+00
  0.00000000E+00  0.00000000E+00  0.00000000E+00
  0.00000000E+00  0.00000000E+00  0.00000000E+00
  0.00000000E+00  0.00000000E+00  0.00000000E+00
  0.00000000E+00  0.00000000E+00  0.00000000E+00
  0.00000000E+00  0.00000000E+00  0.00000000E+00
  0.00000000E+00  0.00000000E+00  0.00000000E+00
  0.00000000E+00  0.00000000E+00  0.00000000E+00
  0.00000000E+00  0.00000000E+00  0.00000000E+00
  0.00000000E+00  0.00000000E+00  0.00000000E+00
  0.00000000E+00  0.00000000E+00  0.00000000E+00
  0.00000000E+00  0.00000000E+00  0.00000000E+00
  0.00000000E+00  0.00000000E+00  0.00000000E+00
  0.00000000E+00  0.00000000E+00  0.00000000E+00
