 Sr2 Sb2 Se4 F2                         
   1.00000000000000     
     4.0493109996053844    0.0000000000000000    0.0000000000000000
     0.0000000000000000    4.0493110945022668    0.0000000000000000
     0.0000000000000000    0.0000000000000000   26.4330916859679981
   Sr   Sb   Se   F 
     2     2     4     2
Direct
 -0.0000000873881453  0.4999999488197159  0.4444180371000414
  0.5000001045474552 -0.0000000058092641  0.5555819582323817
  0.0000000278519661  0.5000000215498058  0.7014892854854961
  0.4999999933814229 -0.0000000139994664  0.2985107160913381
  0.4999999596398171  0.0000000057730764  0.3942976927683756
  0.4999999706670922  0.0000000140423614  0.7173407150180675
  0.0000000189764079  0.5000000502523571  0.2826592866498095
  0.0000000344895790  0.5000000053131068  0.6057023095143586
  0.0000000091262347 -0.0000000045882666  0.5000000018406509
  0.4999999687081700  0.4999999786465736  0.4999999972994815
 
  0.00000000E+00  0.00000000E+00  0.00000000E+00
  0.00000000E+00  0.00000000E+00  0.00000000E+00
  0.00000000E+00  0.00000000E+00  0.00000000E+00
  0.00000000E+00  0.00000000E+00  0.00000000E+00
  0.00000000E+00  0.00000000E+00  0.00000000E+00
  0.00000000E+00  0.00000000E+00  0.00000000E+00
  0.00000000E+00  0.00000000E+00  0.00000000E+00
  0.00000000E+00  0.00000000E+00  0.00000000E+00
  0.00000000E+00  0.00000000E+00  0.00000000E+00
  0.00000000E+00  0.00000000E+00  0.00000000E+00
