 Cr1 Ga2 S4                             
   1.00000000000000     
     3.6535272965612093    0.0000000000000000    0.0000000000000000
     1.8206703825425128    3.1702423967319340    0.0000000000000000
     0.0000000000000000    0.0000000000000000   24.0680323229339983
   Cr   Ga   S 
     1     2     4
Direct
  0.9960833931394515  0.0130275805182534  0.4999830947614991
  0.3319781595025147  0.3375474667727990  0.3551823696758090
  0.6603062632209900  0.6877613001584404  0.6447846727181172
  0.3298599237259642  0.3455380978048121  0.4487225584908680
  0.6622728897492997  0.6804550217800538  0.5512481627340715
  0.3268895328427795  0.3538632763481406  0.6872880278953264
  0.6654308378190031  0.6714632566174989  0.3126842283642396
 
  0.00000000E+00  0.00000000E+00  0.00000000E+00
  0.00000000E+00  0.00000000E+00  0.00000000E+00
  0.00000000E+00  0.00000000E+00  0.00000000E+00
  0.00000000E+00  0.00000000E+00  0.00000000E+00
  0.00000000E+00  0.00000000E+00  0.00000000E+00
  0.00000000E+00  0.00000000E+00  0.00000000E+00
  0.00000000E+00  0.00000000E+00  0.00000000E+00
