 Ag2 I1 O6                              
   1.00000000000000     
     5.5597971496013603    0.0000000000000000    0.0000000000000000
     2.7798985748006801    4.8149190529900094    0.0000000000000000
     0.0000000000000000    0.0000000000000000   17.5718329429199969
   Ag   I    O 
     2     1     6
Direct
  0.6666485637553924  0.6666950657589477  0.5000067291429217
  0.3333062730665700  0.3333649479479153  0.5000432238115016
  0.0000053941300493 -0.0000085069023926  0.4999678086713326
  0.2839916003315441  0.0001412164471590  0.5615294509928066
  0.0001241156181030  0.7158790958967990  0.5615322891326893
  0.7159006278819230  0.2839751701915520  0.5615271213780909
  0.7159736935056749 -0.0003135601278225  0.4384663027166322
 -0.0003176872724900  0.2843265742202126  0.4384640668380525
  0.2843674189832331  0.7159399965676302  0.4384630073159729
 
  0.00000000E+00  0.00000000E+00  0.00000000E+00
  0.00000000E+00  0.00000000E+00  0.00000000E+00
  0.00000000E+00  0.00000000E+00  0.00000000E+00
  0.00000000E+00  0.00000000E+00  0.00000000E+00
  0.00000000E+00  0.00000000E+00  0.00000000E+00
  0.00000000E+00  0.00000000E+00  0.00000000E+00
  0.00000000E+00  0.00000000E+00  0.00000000E+00
  0.00000000E+00  0.00000000E+00  0.00000000E+00
  0.00000000E+00  0.00000000E+00  0.00000000E+00
