G   47   47    1    0.005     # Parameters to Generate KPOINTS (Don't Edit This Line)
     576
Reciprocal lattice
    0.000000000000    0.000000000000    0.000000000000       1
    0.021276595745    0.000000000000    0.000000000000       2
    0.042553191489    0.000000000000    0.000000000000       2
    0.063829787234    0.000000000000    0.000000000000       2
    0.085106382979    0.000000000000    0.000000000000       2
    0.106382978723    0.000000000000    0.000000000000       2
    0.127659574468    0.000000000000    0.000000000000       2
    0.148936170213    0.000000000000    0.000000000000       2
    0.170212765957    0.000000000000    0.000000000000       2
    0.191489361702    0.000000000000    0.000000000000       2
    0.212765957447    0.000000000000    0.000000000000       2
    0.234042553191    0.000000000000    0.000000000000       2
    0.255319148936    0.000000000000    0.000000000000       2
    0.276595744681    0.000000000000    0.000000000000       2
    0.297872340426    0.000000000000    0.000000000000       2
    0.319148936170    0.000000000000    0.000000000000       2
    0.340425531915    0.000000000000    0.000000000000       2
    0.361702127660    0.000000000000    0.000000000000       2
    0.382978723404    0.000000000000    0.000000000000       2
    0.404255319149    0.000000000000    0.000000000000       2
    0.425531914894    0.000000000000    0.000000000000       2
    0.446808510638    0.000000000000    0.000000000000       2
    0.468085106383    0.000000000000    0.000000000000       2
    0.489361702128    0.000000000000    0.000000000000       2
    0.000000000000    0.021276595745    0.000000000000       2
    0.021276595745    0.021276595745    0.000000000000       4
    0.042553191489    0.021276595745    0.000000000000       4
    0.063829787234    0.021276595745    0.000000000000       4
    0.085106382979    0.021276595745    0.000000000000       4
    0.106382978723    0.021276595745    0.000000000000       4
    0.127659574468    0.021276595745    0.000000000000       4
    0.148936170213    0.021276595745    0.000000000000       4
    0.170212765957    0.021276595745    0.000000000000       4
    0.191489361702    0.021276595745    0.000000000000       4
    0.212765957447    0.021276595745    0.000000000000       4
    0.234042553191    0.021276595745    0.000000000000       4
    0.255319148936    0.021276595745    0.000000000000       4
    0.276595744681    0.021276595745    0.000000000000       4
    0.297872340426    0.021276595745    0.000000000000       4
    0.319148936170    0.021276595745    0.000000000000       4
    0.340425531915    0.021276595745    0.000000000000       4
    0.361702127660    0.021276595745    0.000000000000       4
    0.382978723404    0.021276595745    0.000000000000       4
    0.404255319149    0.021276595745    0.000000000000       4
    0.425531914894    0.021276595745    0.000000000000       4
    0.446808510638    0.021276595745    0.000000000000       4
    0.468085106383    0.021276595745    0.000000000000       4
    0.489361702128    0.021276595745    0.000000000000       4
    0.000000000000    0.042553191489    0.000000000000       2
    0.021276595745    0.042553191489    0.000000000000       4
    0.042553191489    0.042553191489    0.000000000000       4
    0.063829787234    0.042553191489    0.000000000000       4
    0.085106382979    0.042553191489    0.000000000000       4
    0.106382978723    0.042553191489    0.000000000000       4
    0.127659574468    0.042553191489    0.000000000000       4
    0.148936170213    0.042553191489    0.000000000000       4
    0.170212765957    0.042553191489    0.000000000000       4
    0.191489361702    0.042553191489    0.000000000000       4
    0.212765957447    0.042553191489    0.000000000000       4
    0.234042553191    0.042553191489    0.000000000000       4
    0.255319148936    0.042553191489    0.000000000000       4
    0.276595744681    0.042553191489    0.000000000000       4
    0.297872340426    0.042553191489    0.000000000000       4
    0.319148936170    0.042553191489    0.000000000000       4
    0.340425531915    0.042553191489    0.000000000000       4
    0.361702127660    0.042553191489    0.000000000000       4
    0.382978723404    0.042553191489    0.000000000000       4
    0.404255319149    0.042553191489    0.000000000000       4
    0.425531914894    0.042553191489    0.000000000000       4
    0.446808510638    0.042553191489    0.000000000000       4
    0.468085106383    0.042553191489    0.000000000000       4
    0.489361702128    0.042553191489    0.000000000000       4
    0.000000000000    0.063829787234    0.000000000000       2
    0.021276595745    0.063829787234    0.000000000000       4
    0.042553191489    0.063829787234    0.000000000000       4
    0.063829787234    0.063829787234    0.000000000000       4
    0.085106382979    0.063829787234    0.000000000000       4
    0.106382978723    0.063829787234    0.000000000000       4
    0.127659574468    0.063829787234    0.000000000000       4
    0.148936170213    0.063829787234    0.000000000000       4
    0.170212765957    0.063829787234    0.000000000000       4
    0.191489361702    0.063829787234    0.000000000000       4
    0.212765957447    0.063829787234    0.000000000000       4
    0.234042553191    0.063829787234    0.000000000000       4
    0.255319148936    0.063829787234    0.000000000000       4
    0.276595744681    0.063829787234    0.000000000000       4
    0.297872340426    0.063829787234    0.000000000000       4
    0.319148936170    0.063829787234    0.000000000000       4
    0.340425531915    0.063829787234    0.000000000000       4
    0.361702127660    0.063829787234    0.000000000000       4
    0.382978723404    0.063829787234    0.000000000000       4
    0.404255319149    0.063829787234    0.000000000000       4
    0.425531914894    0.063829787234    0.000000000000       4
    0.446808510638    0.063829787234    0.000000000000       4
    0.468085106383    0.063829787234    0.000000000000       4
    0.489361702128    0.063829787234    0.000000000000       4
    0.000000000000    0.085106382979    0.000000000000       2
    0.021276595745    0.085106382979    0.000000000000       4
    0.042553191489    0.085106382979    0.000000000000       4
    0.063829787234    0.085106382979    0.000000000000       4
    0.085106382979    0.085106382979    0.000000000000       4
    0.106382978723    0.085106382979    0.000000000000       4
    0.127659574468    0.085106382979    0.000000000000       4
    0.148936170213    0.085106382979    0.000000000000       4
    0.170212765957    0.085106382979    0.000000000000       4
    0.191489361702    0.085106382979    0.000000000000       4
    0.212765957447    0.085106382979    0.000000000000       4
    0.234042553191    0.085106382979    0.000000000000       4
    0.255319148936    0.085106382979    0.000000000000       4
    0.276595744681    0.085106382979    0.000000000000       4
    0.297872340426    0.085106382979    0.000000000000       4
    0.319148936170    0.085106382979    0.000000000000       4
    0.340425531915    0.085106382979    0.000000000000       4
    0.361702127660    0.085106382979    0.000000000000       4
    0.382978723404    0.085106382979    0.000000000000       4
    0.404255319149    0.085106382979    0.000000000000       4
    0.425531914894    0.085106382979    0.000000000000       4
    0.446808510638    0.085106382979    0.000000000000       4
    0.468085106383    0.085106382979    0.000000000000       4
    0.489361702128    0.085106382979    0.000000000000       4
    0.000000000000    0.106382978723    0.000000000000       2
    0.021276595745    0.106382978723    0.000000000000       4
    0.042553191489    0.106382978723    0.000000000000       4
    0.063829787234    0.106382978723    0.000000000000       4
    0.085106382979    0.106382978723    0.000000000000       4
    0.106382978723    0.106382978723    0.000000000000       4
    0.127659574468    0.106382978723    0.000000000000       4
    0.148936170213    0.106382978723    0.000000000000       4
    0.170212765957    0.106382978723    0.000000000000       4
    0.191489361702    0.106382978723    0.000000000000       4
    0.212765957447    0.106382978723    0.000000000000       4
    0.234042553191    0.106382978723    0.000000000000       4
    0.255319148936    0.106382978723    0.000000000000       4
    0.276595744681    0.106382978723    0.000000000000       4
    0.297872340426    0.106382978723    0.000000000000       4
    0.319148936170    0.106382978723    0.000000000000       4
    0.340425531915    0.106382978723    0.000000000000       4
    0.361702127660    0.106382978723    0.000000000000       4
    0.382978723404    0.106382978723    0.000000000000       4
    0.404255319149    0.106382978723    0.000000000000       4
    0.425531914894    0.106382978723    0.000000000000       4
    0.446808510638    0.106382978723    0.000000000000       4
    0.468085106383    0.106382978723    0.000000000000       4
    0.489361702128    0.106382978723    0.000000000000       4
    0.000000000000    0.127659574468    0.000000000000       2
    0.021276595745    0.127659574468    0.000000000000       4
    0.042553191489    0.127659574468    0.000000000000       4
    0.063829787234    0.127659574468    0.000000000000       4
    0.085106382979    0.127659574468    0.000000000000       4
    0.106382978723    0.127659574468    0.000000000000       4
    0.127659574468    0.127659574468    0.000000000000       4
    0.148936170213    0.127659574468    0.000000000000       4
    0.170212765957    0.127659574468    0.000000000000       4
    0.191489361702    0.127659574468    0.000000000000       4
    0.212765957447    0.127659574468    0.000000000000       4
    0.234042553191    0.127659574468    0.000000000000       4
    0.255319148936    0.127659574468    0.000000000000       4
    0.276595744681    0.127659574468    0.000000000000       4
    0.297872340426    0.127659574468    0.000000000000       4
    0.319148936170    0.127659574468    0.000000000000       4
    0.340425531915    0.127659574468    0.000000000000       4
    0.361702127660    0.127659574468    0.000000000000       4
    0.382978723404    0.127659574468    0.000000000000       4
    0.404255319149    0.127659574468    0.000000000000       4
    0.425531914894    0.127659574468    0.000000000000       4
    0.446808510638    0.127659574468    0.000000000000       4
    0.468085106383    0.127659574468    0.000000000000       4
    0.489361702128    0.127659574468    0.000000000000       4
    0.000000000000    0.148936170213    0.000000000000       2
    0.021276595745    0.148936170213    0.000000000000       4
    0.042553191489    0.148936170213    0.000000000000       4
    0.063829787234    0.148936170213    0.000000000000       4
    0.085106382979    0.148936170213    0.000000000000       4
    0.106382978723    0.148936170213    0.000000000000       4
    0.127659574468    0.148936170213    0.000000000000       4
    0.148936170213    0.148936170213    0.000000000000       4
    0.170212765957    0.148936170213    0.000000000000       4
    0.191489361702    0.148936170213    0.000000000000       4
    0.212765957447    0.148936170213    0.000000000000       4
    0.234042553191    0.148936170213    0.000000000000       4
    0.255319148936    0.148936170213    0.000000000000       4
    0.276595744681    0.148936170213    0.000000000000       4
    0.297872340426    0.148936170213    0.000000000000       4
    0.319148936170    0.148936170213    0.000000000000       4
    0.340425531915    0.148936170213    0.000000000000       4
    0.361702127660    0.148936170213    0.000000000000       4
    0.382978723404    0.148936170213    0.000000000000       4
    0.404255319149    0.148936170213    0.000000000000       4
    0.425531914894    0.148936170213    0.000000000000       4
    0.446808510638    0.148936170213    0.000000000000       4
    0.468085106383    0.148936170213    0.000000000000       4
    0.489361702128    0.148936170213    0.000000000000       4
    0.000000000000    0.170212765957    0.000000000000       2
    0.021276595745    0.170212765957    0.000000000000       4
    0.042553191489    0.170212765957    0.000000000000       4
    0.063829787234    0.170212765957    0.000000000000       4
    0.085106382979    0.170212765957    0.000000000000       4
    0.106382978723    0.170212765957    0.000000000000       4
    0.127659574468    0.170212765957    0.000000000000       4
    0.148936170213    0.170212765957    0.000000000000       4
    0.170212765957    0.170212765957    0.000000000000       4
    0.191489361702    0.170212765957    0.000000000000       4
    0.212765957447    0.170212765957    0.000000000000       4
    0.234042553191    0.170212765957    0.000000000000       4
    0.255319148936    0.170212765957    0.000000000000       4
    0.276595744681    0.170212765957    0.000000000000       4
    0.297872340426    0.170212765957    0.000000000000       4
    0.319148936170    0.170212765957    0.000000000000       4
    0.340425531915    0.170212765957    0.000000000000       4
    0.361702127660    0.170212765957    0.000000000000       4
    0.382978723404    0.170212765957    0.000000000000       4
    0.404255319149    0.170212765957    0.000000000000       4
    0.425531914894    0.170212765957    0.000000000000       4
    0.446808510638    0.170212765957    0.000000000000       4
    0.468085106383    0.170212765957    0.000000000000       4
    0.489361702128    0.170212765957    0.000000000000       4
    0.000000000000    0.191489361702    0.000000000000       2
    0.021276595745    0.191489361702    0.000000000000       4
    0.042553191489    0.191489361702    0.000000000000       4
    0.063829787234    0.191489361702    0.000000000000       4
    0.085106382979    0.191489361702    0.000000000000       4
    0.106382978723    0.191489361702    0.000000000000       4
    0.127659574468    0.191489361702    0.000000000000       4
    0.148936170213    0.191489361702    0.000000000000       4
    0.170212765957    0.191489361702    0.000000000000       4
    0.191489361702    0.191489361702    0.000000000000       4
    0.212765957447    0.191489361702    0.000000000000       4
    0.234042553191    0.191489361702    0.000000000000       4
    0.255319148936    0.191489361702    0.000000000000       4
    0.276595744681    0.191489361702    0.000000000000       4
    0.297872340426    0.191489361702    0.000000000000       4
    0.319148936170    0.191489361702    0.000000000000       4
    0.340425531915    0.191489361702    0.000000000000       4
    0.361702127660    0.191489361702    0.000000000000       4
    0.382978723404    0.191489361702    0.000000000000       4
    0.404255319149    0.191489361702    0.000000000000       4
    0.425531914894    0.191489361702    0.000000000000       4
    0.446808510638    0.191489361702    0.000000000000       4
    0.468085106383    0.191489361702    0.000000000000       4
    0.489361702128    0.191489361702    0.000000000000       4
    0.000000000000    0.212765957447    0.000000000000       2
    0.021276595745    0.212765957447    0.000000000000       4
    0.042553191489    0.212765957447    0.000000000000       4
    0.063829787234    0.212765957447    0.000000000000       4
    0.085106382979    0.212765957447    0.000000000000       4
    0.106382978723    0.212765957447    0.000000000000       4
    0.127659574468    0.212765957447    0.000000000000       4
    0.148936170213    0.212765957447    0.000000000000       4
    0.170212765957    0.212765957447    0.000000000000       4
    0.191489361702    0.212765957447    0.000000000000       4
    0.212765957447    0.212765957447    0.000000000000       4
    0.234042553191    0.212765957447    0.000000000000       4
    0.255319148936    0.212765957447    0.000000000000       4
    0.276595744681    0.212765957447    0.000000000000       4
    0.297872340426    0.212765957447    0.000000000000       4
    0.319148936170    0.212765957447    0.000000000000       4
    0.340425531915    0.212765957447    0.000000000000       4
    0.361702127660    0.212765957447    0.000000000000       4
    0.382978723404    0.212765957447    0.000000000000       4
    0.404255319149    0.212765957447    0.000000000000       4
    0.425531914894    0.212765957447    0.000000000000       4
    0.446808510638    0.212765957447    0.000000000000       4
    0.468085106383    0.212765957447    0.000000000000       4
    0.489361702128    0.212765957447    0.000000000000       4
    0.000000000000    0.234042553191    0.000000000000       2
    0.021276595745    0.234042553191    0.000000000000       4
    0.042553191489    0.234042553191    0.000000000000       4
    0.063829787234    0.234042553191    0.000000000000       4
    0.085106382979    0.234042553191    0.000000000000       4
    0.106382978723    0.234042553191    0.000000000000       4
    0.127659574468    0.234042553191    0.000000000000       4
    0.148936170213    0.234042553191    0.000000000000       4
    0.170212765957    0.234042553191    0.000000000000       4
    0.191489361702    0.234042553191    0.000000000000       4
    0.212765957447    0.234042553191    0.000000000000       4
    0.234042553191    0.234042553191    0.000000000000       4
    0.255319148936    0.234042553191    0.000000000000       4
    0.276595744681    0.234042553191    0.000000000000       4
    0.297872340426    0.234042553191    0.000000000000       4
    0.319148936170    0.234042553191    0.000000000000       4
    0.340425531915    0.234042553191    0.000000000000       4
    0.361702127660    0.234042553191    0.000000000000       4
    0.382978723404    0.234042553191    0.000000000000       4
    0.404255319149    0.234042553191    0.000000000000       4
    0.425531914894    0.234042553191    0.000000000000       4
    0.446808510638    0.234042553191    0.000000000000       4
    0.468085106383    0.234042553191    0.000000000000       4
    0.489361702128    0.234042553191    0.000000000000       4
    0.000000000000    0.255319148936    0.000000000000       2
    0.021276595745    0.255319148936    0.000000000000       4
    0.042553191489    0.255319148936    0.000000000000       4
    0.063829787234    0.255319148936    0.000000000000       4
    0.085106382979    0.255319148936    0.000000000000       4
    0.106382978723    0.255319148936    0.000000000000       4
    0.127659574468    0.255319148936    0.000000000000       4
    0.148936170213    0.255319148936    0.000000000000       4
    0.170212765957    0.255319148936    0.000000000000       4
    0.191489361702    0.255319148936    0.000000000000       4
    0.212765957447    0.255319148936    0.000000000000       4
    0.234042553191    0.255319148936    0.000000000000       4
    0.255319148936    0.255319148936    0.000000000000       4
    0.276595744681    0.255319148936    0.000000000000       4
    0.297872340426    0.255319148936    0.000000000000       4
    0.319148936170    0.255319148936    0.000000000000       4
    0.340425531915    0.255319148936    0.000000000000       4
    0.361702127660    0.255319148936    0.000000000000       4
    0.382978723404    0.255319148936    0.000000000000       4
    0.404255319149    0.255319148936    0.000000000000       4
    0.425531914894    0.255319148936    0.000000000000       4
    0.446808510638    0.255319148936    0.000000000000       4
    0.468085106383    0.255319148936    0.000000000000       4
    0.489361702128    0.255319148936    0.000000000000       4
    0.000000000000    0.276595744681    0.000000000000       2
    0.021276595745    0.276595744681    0.000000000000       4
    0.042553191489    0.276595744681    0.000000000000       4
    0.063829787234    0.276595744681    0.000000000000       4
    0.085106382979    0.276595744681    0.000000000000       4
    0.106382978723    0.276595744681    0.000000000000       4
    0.127659574468    0.276595744681    0.000000000000       4
    0.148936170213    0.276595744681    0.000000000000       4
    0.170212765957    0.276595744681    0.000000000000       4
    0.191489361702    0.276595744681    0.000000000000       4
    0.212765957447    0.276595744681    0.000000000000       4
    0.234042553191    0.276595744681    0.000000000000       4
    0.255319148936    0.276595744681    0.000000000000       4
    0.276595744681    0.276595744681    0.000000000000       4
    0.297872340426    0.276595744681    0.000000000000       4
    0.319148936170    0.276595744681    0.000000000000       4
    0.340425531915    0.276595744681    0.000000000000       4
    0.361702127660    0.276595744681    0.000000000000       4
    0.382978723404    0.276595744681    0.000000000000       4
    0.404255319149    0.276595744681    0.000000000000       4
    0.425531914894    0.276595744681    0.000000000000       4
    0.446808510638    0.276595744681    0.000000000000       4
    0.468085106383    0.276595744681    0.000000000000       4
    0.489361702128    0.276595744681    0.000000000000       4
    0.000000000000    0.297872340426    0.000000000000       2
    0.021276595745    0.297872340426    0.000000000000       4
    0.042553191489    0.297872340426    0.000000000000       4
    0.063829787234    0.297872340426    0.000000000000       4
    0.085106382979    0.297872340426    0.000000000000       4
    0.106382978723    0.297872340426    0.000000000000       4
    0.127659574468    0.297872340426    0.000000000000       4
    0.148936170213    0.297872340426    0.000000000000       4
    0.170212765957    0.297872340426    0.000000000000       4
    0.191489361702    0.297872340426    0.000000000000       4
    0.212765957447    0.297872340426    0.000000000000       4
    0.234042553191    0.297872340426    0.000000000000       4
    0.255319148936    0.297872340426    0.000000000000       4
    0.276595744681    0.297872340426    0.000000000000       4
    0.297872340426    0.297872340426    0.000000000000       4
    0.319148936170    0.297872340426    0.000000000000       4
    0.340425531915    0.297872340426    0.000000000000       4
    0.361702127660    0.297872340426    0.000000000000       4
    0.382978723404    0.297872340426    0.000000000000       4
    0.404255319149    0.297872340426    0.000000000000       4
    0.425531914894    0.297872340426    0.000000000000       4
    0.446808510638    0.297872340426    0.000000000000       4
    0.468085106383    0.297872340426    0.000000000000       4
    0.489361702128    0.297872340426    0.000000000000       4
    0.000000000000    0.319148936170    0.000000000000       2
    0.021276595745    0.319148936170    0.000000000000       4
    0.042553191489    0.319148936170    0.000000000000       4
    0.063829787234    0.319148936170    0.000000000000       4
    0.085106382979    0.319148936170    0.000000000000       4
    0.106382978723    0.319148936170    0.000000000000       4
    0.127659574468    0.319148936170    0.000000000000       4
    0.148936170213    0.319148936170    0.000000000000       4
    0.170212765957    0.319148936170    0.000000000000       4
    0.191489361702    0.319148936170    0.000000000000       4
    0.212765957447    0.319148936170    0.000000000000       4
    0.234042553191    0.319148936170    0.000000000000       4
    0.255319148936    0.319148936170    0.000000000000       4
    0.276595744681    0.319148936170    0.000000000000       4
    0.297872340426    0.319148936170    0.000000000000       4
    0.319148936170    0.319148936170    0.000000000000       4
    0.340425531915    0.319148936170    0.000000000000       4
    0.361702127660    0.319148936170    0.000000000000       4
    0.382978723404    0.319148936170    0.000000000000       4
    0.404255319149    0.319148936170    0.000000000000       4
    0.425531914894    0.319148936170    0.000000000000       4
    0.446808510638    0.319148936170    0.000000000000       4
    0.468085106383    0.319148936170    0.000000000000       4
    0.489361702128    0.319148936170    0.000000000000       4
    0.000000000000    0.340425531915    0.000000000000       2
    0.021276595745    0.340425531915    0.000000000000       4
    0.042553191489    0.340425531915    0.000000000000       4
    0.063829787234    0.340425531915    0.000000000000       4
    0.085106382979    0.340425531915    0.000000000000       4
    0.106382978723    0.340425531915    0.000000000000       4
    0.127659574468    0.340425531915    0.000000000000       4
    0.148936170213    0.340425531915    0.000000000000       4
    0.170212765957    0.340425531915    0.000000000000       4
    0.191489361702    0.340425531915    0.000000000000       4
    0.212765957447    0.340425531915    0.000000000000       4
    0.234042553191    0.340425531915    0.000000000000       4
    0.255319148936    0.340425531915    0.000000000000       4
    0.276595744681    0.340425531915    0.000000000000       4
    0.297872340426    0.340425531915    0.000000000000       4
    0.319148936170    0.340425531915    0.000000000000       4
    0.340425531915    0.340425531915    0.000000000000       4
    0.361702127660    0.340425531915    0.000000000000       4
    0.382978723404    0.340425531915    0.000000000000       4
    0.404255319149    0.340425531915    0.000000000000       4
    0.425531914894    0.340425531915    0.000000000000       4
    0.446808510638    0.340425531915    0.000000000000       4
    0.468085106383    0.340425531915    0.000000000000       4
    0.489361702128    0.340425531915    0.000000000000       4
    0.000000000000    0.361702127660    0.000000000000       2
    0.021276595745    0.361702127660    0.000000000000       4
    0.042553191489    0.361702127660    0.000000000000       4
    0.063829787234    0.361702127660    0.000000000000       4
    0.085106382979    0.361702127660    0.000000000000       4
    0.106382978723    0.361702127660    0.000000000000       4
    0.127659574468    0.361702127660    0.000000000000       4
    0.148936170213    0.361702127660    0.000000000000       4
    0.170212765957    0.361702127660    0.000000000000       4
    0.191489361702    0.361702127660    0.000000000000       4
    0.212765957447    0.361702127660    0.000000000000       4
    0.234042553191    0.361702127660    0.000000000000       4
    0.255319148936    0.361702127660    0.000000000000       4
    0.276595744681    0.361702127660    0.000000000000       4
    0.297872340426    0.361702127660    0.000000000000       4
    0.319148936170    0.361702127660    0.000000000000       4
    0.340425531915    0.361702127660    0.000000000000       4
    0.361702127660    0.361702127660    0.000000000000       4
    0.382978723404    0.361702127660    0.000000000000       4
    0.404255319149    0.361702127660    0.000000000000       4
    0.425531914894    0.361702127660    0.000000000000       4
    0.446808510638    0.361702127660    0.000000000000       4
    0.468085106383    0.361702127660    0.000000000000       4
    0.489361702128    0.361702127660    0.000000000000       4
    0.000000000000    0.382978723404    0.000000000000       2
    0.021276595745    0.382978723404    0.000000000000       4
    0.042553191489    0.382978723404    0.000000000000       4
    0.063829787234    0.382978723404    0.000000000000       4
    0.085106382979    0.382978723404    0.000000000000       4
    0.106382978723    0.382978723404    0.000000000000       4
    0.127659574468    0.382978723404    0.000000000000       4
    0.148936170213    0.382978723404    0.000000000000       4
    0.170212765957    0.382978723404    0.000000000000       4
    0.191489361702    0.382978723404    0.000000000000       4
    0.212765957447    0.382978723404    0.000000000000       4
    0.234042553191    0.382978723404    0.000000000000       4
    0.255319148936    0.382978723404    0.000000000000       4
    0.276595744681    0.382978723404    0.000000000000       4
    0.297872340426    0.382978723404    0.000000000000       4
    0.319148936170    0.382978723404    0.000000000000       4
    0.340425531915    0.382978723404    0.000000000000       4
    0.361702127660    0.382978723404    0.000000000000       4
    0.382978723404    0.382978723404    0.000000000000       4
    0.404255319149    0.382978723404    0.000000000000       4
    0.425531914894    0.382978723404    0.000000000000       4
    0.446808510638    0.382978723404    0.000000000000       4
    0.468085106383    0.382978723404    0.000000000000       4
    0.489361702128    0.382978723404    0.000000000000       4
    0.000000000000    0.404255319149    0.000000000000       2
    0.021276595745    0.404255319149    0.000000000000       4
    0.042553191489    0.404255319149    0.000000000000       4
    0.063829787234    0.404255319149    0.000000000000       4
    0.085106382979    0.404255319149    0.000000000000       4
    0.106382978723    0.404255319149    0.000000000000       4
    0.127659574468    0.404255319149    0.000000000000       4
    0.148936170213    0.404255319149    0.000000000000       4
    0.170212765957    0.404255319149    0.000000000000       4
    0.191489361702    0.404255319149    0.000000000000       4
    0.212765957447    0.404255319149    0.000000000000       4
    0.234042553191    0.404255319149    0.000000000000       4
    0.255319148936    0.404255319149    0.000000000000       4
    0.276595744681    0.404255319149    0.000000000000       4
    0.297872340426    0.404255319149    0.000000000000       4
    0.319148936170    0.404255319149    0.000000000000       4
    0.340425531915    0.404255319149    0.000000000000       4
    0.361702127660    0.404255319149    0.000000000000       4