CONTCAR                                 
   1.00000000000000     
    10.4560003281000000    0.0000000000000000    0.0000000000000000
     1.7426699834999999   13.6526291618000002    0.0000000000000000
     0.0000000000000000    0.0000000000000000   22.6816005706999988
   Sc   C    Cl   O 
    21     6    30     1
Direct
  0.2557056705511458  0.4544717216647607  0.4488464243787528
  0.0757368591298409  0.5461081186084489  0.5502574446612317
  0.2199290690787649  0.6803927704848229  0.4573470426385038
  0.1133848407889762  0.3205128626096814  0.5417816163225608
  0.0700385493943908  0.5805351385335775  0.3550613488088593
  0.2644177224970611  0.4200069703523566  0.6448458256280285
  0.0000351310046894  0.0010354622174951  0.4995795760974693
  0.5912450732496080  0.4534674783449267  0.4473619226248726
  0.4136718943167512  0.5441465129095574  0.5502775028733239
  0.5531477561256994  0.6810087094608763  0.4566368126497091
  0.4526436302134024  0.3205496125821027  0.5426403413499605
  0.4017485506490984  0.5808680428763563  0.3545859889166129
  0.5983087611056094  0.4111874098568057  0.6937070189988466
  0.3331771578749130  0.0010095099957631  0.4995603110774335
  0.9264421657625740  0.4544611327095627  0.4488280095873171
  0.7385500264267620  0.5441574533077423  0.5502501838645012
  0.8870915383634166  0.6802531665119803  0.4573232943091228
  0.7741615337419676  0.3205385319012231  0.5425963768391301
  0.7381949450292257  0.5809333929443181  0.3545878679492793
  0.9290733643401305  0.4199306585432671  0.6448256112851132
  0.6668198848935901  0.9994738236041295  0.4996320905842762
  0.0715951836818841  0.5714734152321731  0.4493988535460688
  0.2645437755030091  0.4278731932064637  0.5508323625941840
  0.4049534552661406  0.5725015137084281  0.4484354849768534
  0.5955162163132824  0.4276953499476311  0.5432292529383662
  0.7377967760163163  0.5724968908605647  0.4484229920187527
  0.9264036119724667  0.4278375454850423  0.5508188781493434
  0.1745135546606161  0.9542160827243454  0.5722592351867362
  0.1591596860288971  0.0449961275235130  0.4260133568700329
  0.2142416066049118  0.7139922156555312  0.3395808139198835
  0.1187968715856692  0.2876434950491258  0.6587896171464721
  0.0290034774390400  0.8264484348938150  0.4568200739671567
  0.0758798934611753  0.5445247339961358  0.6717784151749407
  0.2573746724787094  0.4545614686395671  0.3270883577859616
  0.1146627861581783  0.3127658203022942  0.4314623799354178
  0.2196255176434603  0.6861194415163403  0.5673611257165724
  0.3044254239267330  0.1741766613143541  0.5411425588793758
  0.5075842175039269  0.9537798901790578  0.5723572652392319
  0.4928609686890100  0.0461507083099004  0.4266021840393230
  0.5478954148426132  0.7132179509238619  0.3391864051614982
  0.4462741356354566  0.2846864211699580  0.6576271773196154
  0.3624631023760160  0.8268263574240720  0.4566707390038441
  0.4049336509756455  0.5464948767129026  0.6701927577750096
  0.5909130490411061  0.4559098811880475  0.3259405657161386
  0.4469968081042605  0.3125227826798258  0.4314029011291151
  0.5524962503309575  0.6860053020918320  0.5673584611661295
  0.6379482765701845  0.1729559513405020  0.5433674727772512
  0.8414703711092999  0.9538513340326149  0.5723451256541657
  0.8252719751096014  0.0458160322183222  0.4265253926332985
  0.8814096182843666  0.7140285303109810  0.3395615079439640
  0.7923261628765653  0.2846198790499644  0.6575300227039342
  0.6956487035275105  0.8266479133519009  0.4565076517623025
  0.7463623079391446  0.5464887307432188  0.6701823346994817
  0.9247464542531453  0.4546026809979528  0.3270757794585522
  0.7825042934831103  0.3124450351562150  0.4313804179293725
  0.8852334536946785  0.6861248653797006  0.5673209778010710
  0.9711825775536549  0.1741248262210421  0.5411324865985234
  0.6010016118216547  0.3988482994430019  0.7685260132371751
 
  0.00000000E+00  0.00000000E+00  0.00000000E+00
  0.00000000E+00  0.00000000E+00  0.00000000E+00
  0.00000000E+00  0.00000000E+00  0.00000000E+00
  0.00000000E+00  0.00000000E+00  0.00000000E+00
  0.00000000E+00  0.00000000E+00  0.00000000E+00
  0.00000000E+00  0.00000000E+00  0.00000000E+00
  0.00000000E+00  0.00000000E+00  0.00000000E+00
  0.00000000E+00  0.00000000E+00  0.00000000E+00
  0.00000000E+00  0.00000000E+00  0.00000000E+00
  0.00000000E+00  0.00000000E+00  0.00000000E+00
  0.00000000E+00  0.00000000E+00  0.00000000E+00
  0.00000000E+00  0.00000000E+00  0.00000000E+00
  0.00000000E+00  0.00000000E+00  0.00000000E+00
  0.00000000E+00  0.00000000E+00  0.00000000E+00
  0.00000000E+00  0.00000000E+00  0.00000000E+00
  0.00000000E+00  0.00000000E+00  0.00000000E+00
  0.00000000E+00  0.00000000E+00  0.00000000E+00
  0.00000000E+00  0.00000000E+00  0.00000000E+00
  0.00000000E+00  0.00000000E+00  0.00000000E+00
  0.00000000E+00  0.00000000E+00  0.00000000E+00
  0.00000000E+00  0.00000000E+00  0.00000000E+00
  0.00000000E+00  0.00000000E+00  0.00000000E+00
  0.00000000E+00  0.00000000E+00  0.00000000E+00
  0.00000000E+00  0.00000000E+00  0.00000000E+00
  0.00000000E+00  0.00000000E+00  0.00000000E+00
  0.00000000E+00  0.00000000E+00  0.00000000E+00
  0.00000000E+00  0.00000000E+00  0.00000000E+00
  0.00000000E+00  0.00000000E+00  0.00000000E+00
  0.00000000E+00  0.00000000E+00  0.00000000E+00
  0.00000000E+00  0.00000000E+00  0.00000000E+00
  0.00000000E+00  0.00000000E+00  0.00000000E+00
  0.00000000E+00  0.00000000E+00  0.00000000E+00
  0.00000000E+00  0.00000000E+00  0.00000000E+00
  0.00000000E+00  0.00000000E+00  0.00000000E+00
  0.00000000E+00  0.00000000E+00  0.00000000E+00
  0.00000000E+00  0.00000000E+00  0.00000000E+00
  0.00000000E+00  0.00000000E+00  0.00000000E+00
  0.00000000E+00  0.00000000E+00  0.00000000E+00
  0.00000000E+00  0.00000000E+00  0.00000000E+00
  0.00000000E+00  0.00000000E+00  0.00000000E+00
  0.00000000E+00  0.00000000E+00  0.00000000E+00
  0.00000000E+00  0.00000000E+00  0.00000000E+00
  0.00000000E+00  0.00000000E+00  0.00000000E+00
  0.00000000E+00  0.00000000E+00  0.00000000E+00
  0.00000000E+00  0.00000000E+00  0.00000000E+00
  0.00000000E+00  0.00000000E+00  0.00000000E+00
  0.00000000E+00  0.00000000E+00  0.00000000E+00
  0.00000000E+00  0.00000000E+00  0.00000000E+00
  0.00000000E+00  0.00000000E+00  0.00000000E+00
  0.00000000E+00  0.00000000E+00  0.00000000E+00
  0.00000000E+00  0.00000000E+00  0.00000000E+00
  0.00000000E+00  0.00000000E+00  0.00000000E+00
  0.00000000E+00  0.00000000E+00  0.00000000E+00
  0.00000000E+00  0.00000000E+00  0.00000000E+00
  0.00000000E+00  0.00000000E+00  0.00000000E+00
  0.00000000E+00  0.00000000E+00  0.00000000E+00
  0.00000000E+00  0.00000000E+00  0.00000000E+00
  0.00000000E+00  0.00000000E+00  0.00000000E+00
