CONTCAR                                 
   1.00000000000000     
    12.9092998505000001    0.0000000000000000    0.0000000000000000
     0.0000000000000000   11.5581998825000003    0.0000000000000000
     0.0000000000000000    0.0000000000000000   18.7824001311999993
   Nb   Ge   Te   O    H 
    12     4    24     1     1
Direct
  0.3468997946017406  0.7235900880690174  0.5034912633244549
  0.0988961015833727  0.2843692652531223  0.5035076080287310
  0.4847171181099973  0.0645084424421862  0.5030145825204209
  0.2338674723837177  0.9383319823486286  0.5027710586362544
  0.3319147175216113  0.4108020696906191  0.5027700170244370
  0.0878174210827060  0.5856147078500367  0.5036733922121076
  0.8485798125074221  0.7164509344427370  0.5035930842066790
  0.6000274406351900  0.2841866474268598  0.5034200133172774
  0.9828980583125656  0.0651178748658198  0.5030923031907794
  0.7343030960304281  0.9373704667714281  0.5034577027606609
  0.8359574674924104  0.4191620997540467  0.5036943774475773
  0.5986829999844023  0.5836966331173472  0.5039106212257707
  0.2883824216001478  0.1742638828181294  0.5025489437811852
  0.0381837919457364  0.8259955705799353  0.5024724429418450
  0.7892001543893795  0.1763638679917756  0.5034581682072704
  0.5407963314570783  0.8268196113023701  0.5031824519165397
  0.4297874085864473  0.5648622993144564  0.5908087807545683
  0.1755984209993152  0.4340938778090432  0.4009352191161233
  0.1758802026282016  0.4336433068264574  0.6061401003952244
  0.4299177952542709  0.5655790078454096  0.4058977709808195
  0.3941169056445540  0.9109295427110754  0.6042736294129303
  0.1429601994363258  0.0930378515472429  0.4020366267945065
  0.1433052883377612  0.0922786097961232  0.6036766271486680
  0.3948972994760570  0.9099042390122718  0.4017930086612821
  0.1828397285530955  0.7463717841975090  0.6019632906918476
  0.4340262762546223  0.2565703238401671  0.4047649269737073
  0.4332621883734849  0.2550213225224127  0.6012439273536874
  0.1832840919063282  0.7446694466252097  0.4043345455697475
  0.9284921966051455  0.5689475510679251  0.6055992888547814
  0.6790980394764716  0.4324826255993759  0.4004807910256591
  0.6800760631297862  0.4312614189147598  0.6071877420907531
  0.9277655482899372  0.5685968255298833  0.4017802285604582
  0.8950337301701984  0.9095724276066807  0.6039416261068784
  0.6447362695992355  0.0920749970886677  0.4023721648890874
  0.6442404185380891  0.0918754366202867  0.6041874761660252
  0.8944351543124016  0.9096438381967523  0.4023984998829068
  0.6847608979482480  0.7456519546069796  0.6028813920853765
  0.9326685562122324  0.2591491643079291  0.4055615341857912
  0.9328583921173085  0.2584869102963080  0.6014347696734175
  0.6842252958565355  0.7452330965876778  0.4041416601576117
  0.4372340938677587  0.5559472066306730  0.6979803662216466
  0.3657756307883558  0.5501507341746260  0.7153462375045220
 
  0.00000000E+00  0.00000000E+00  0.00000000E+00
  0.00000000E+00  0.00000000E+00  0.00000000E+00
  0.00000000E+00  0.00000000E+00  0.00000000E+00
  0.00000000E+00  0.00000000E+00  0.00000000E+00
  0.00000000E+00  0.00000000E+00  0.00000000E+00
  0.00000000E+00  0.00000000E+00  0.00000000E+00
  0.00000000E+00  0.00000000E+00  0.00000000E+00
  0.00000000E+00  0.00000000E+00  0.00000000E+00
  0.00000000E+00  0.00000000E+00  0.00000000E+00
  0.00000000E+00  0.00000000E+00  0.00000000E+00
  0.00000000E+00  0.00000000E+00  0.00000000E+00
  0.00000000E+00  0.00000000E+00  0.00000000E+00
  0.00000000E+00  0.00000000E+00  0.00000000E+00
  0.00000000E+00  0.00000000E+00  0.00000000E+00
  0.00000000E+00  0.00000000E+00  0.00000000E+00
  0.00000000E+00  0.00000000E+00  0.00000000E+00
  0.00000000E+00  0.00000000E+00  0.00000000E+00
  0.00000000E+00  0.00000000E+00  0.00000000E+00
  0.00000000E+00  0.00000000E+00  0.00000000E+00
  0.00000000E+00  0.00000000E+00  0.00000000E+00
  0.00000000E+00  0.00000000E+00  0.00000000E+00
  0.00000000E+00  0.00000000E+00  0.00000000E+00
  0.00000000E+00  0.00000000E+00  0.00000000E+00
  0.00000000E+00  0.00000000E+00  0.00000000E+00
  0.00000000E+00  0.00000000E+00  0.00000000E+00
  0.00000000E+00  0.00000000E+00  0.00000000E+00
  0.00000000E+00  0.00000000E+00  0.00000000E+00
  0.00000000E+00  0.00000000E+00  0.00000000E+00
  0.00000000E+00  0.00000000E+00  0.00000000E+00
  0.00000000E+00  0.00000000E+00  0.00000000E+00
  0.00000000E+00  0.00000000E+00  0.00000000E+00
  0.00000000E+00  0.00000000E+00  0.00000000E+00
  0.00000000E+00  0.00000000E+00  0.00000000E+00
  0.00000000E+00  0.00000000E+00  0.00000000E+00
  0.00000000E+00  0.00000000E+00  0.00000000E+00
  0.00000000E+00  0.00000000E+00  0.00000000E+00
  0.00000000E+00  0.00000000E+00  0.00000000E+00
  0.00000000E+00  0.00000000E+00  0.00000000E+00
  0.00000000E+00  0.00000000E+00  0.00000000E+00
  0.00000000E+00  0.00000000E+00  0.00000000E+00
  0.00000000E+00  0.00000000E+00  0.00000000E+00
  0.00000000E+00  0.00000000E+00  0.00000000E+00
