CONTCAR\(3)                             
   1.00000000000000     
    10.6176996231000000    0.0000000000000000    0.0000000000000000
     0.0000000000000000   17.6849002838000011    0.0000000000000000
     0.0000000000000000    0.0000000000000000   18.8054008484000015
   K    Fe   Se
     8    16    24
Direct
  0.3749549455321741  0.2498343631998381  0.4098150417986233
  0.1250150654678208  0.2498343631998381  0.5901649782013720
  0.8749549455321741  0.2498343631998381  0.4098150417986233
  0.6250150994678236  0.2498343631998381  0.5901649782013720
  0.3749549455321741  0.7498343361998323  0.4098150417986233
  0.1250150654678208  0.7498343361998323  0.5901649782013720
  0.8749549455321741  0.7498343361998323  0.4098150417986233
  0.6250150994678236  0.7498343361998323  0.5901649782013720
  0.2500000000000000  0.0723978531011795  0.4999900099999977
  0.0000000000000000  0.0724005314032112  0.5000099900000023
  0.2500100150000009  0.9276383130568533  0.5000000000000000
  0.0000100000000032  0.9276463468757470  0.5000099900000023
  0.7500000220000018  0.0723978531011795  0.4999900099999977
  0.5000000000000000  0.0724005314032112  0.5000099900000023
  0.7500099920000025  0.9276383130568533  0.5000000000000000
  0.5000100150000009  0.9276463468757470  0.5000099900000023
  0.2500000000000000  0.5723978871011823  0.4999900099999977
  0.0000000000000000  0.5724005654032140  0.5000099900000023
  0.2500100150000009  0.4276382860568546  0.5000000000000000
  0.0000100000000032  0.4276463738757457  0.5000099900000023
  0.7500000220000018  0.5723978871011823  0.4999900099999977
  0.5000000000000000  0.5724005654032140  0.5000099900000023
  0.7500099920000025  0.4276382860568546  0.5000000000000000
  0.5000100150000009  0.4276463738757457  0.5000099900000023
  0.3751223732858193  0.0000209560417019  0.4262749011921372
  0.1249076267141831  0.0000309560416980  0.5737350898078617
  0.3750404174173880  0.1432977625750667  0.5707884731970765
  0.1249395745826050  0.1432877595750668  0.4292015358029246
  0.1249422230562303  0.8568053784649052  0.4292130894551889
  0.3750677809437732  0.8568053784649052  0.5707869105448111
  0.8751223502858139  0.0000209560417019  0.4262749011921372
  0.6249076487141849  0.0000309560416980  0.5737350898078617
  0.8750403724173950  0.1432977625750667  0.5707884731970765
  0.6249395525826102  0.1432877595750668  0.4292015358029246
  0.6249422120562329  0.8568053784649052  0.4292130894551889
  0.8750677579437678  0.8568053784649052  0.5707869105448111
  0.3751223732858193  0.5000209390416970  0.4262749011921372
  0.1249076267141831  0.5000309690417026  0.5737350898078617
  0.3750404174173880  0.6432977625750667  0.5707884731970765
  0.1249395745826050  0.6432877865750655  0.4292015358029246
  0.1249422230562303  0.3568053784649052  0.4292130894551889
  0.3750677809437732  0.3568053784649052  0.5707869105448111
  0.8751223502858139  0.5000209390416970  0.4262749011921372
  0.6249076487141849  0.5000309690417026  0.5737350898078617
  0.8750403724173950  0.6432977625750667  0.5707884731970765
  0.6249395525826102  0.6432877865750655  0.4292015358029246
  0.6249422120562329  0.3568053784649052  0.4292130894551889
  0.8750677579437678  0.3568053784649052  0.5707869105448111
 
  0.00000000E+00  0.00000000E+00  0.00000000E+00
  0.00000000E+00  0.00000000E+00  0.00000000E+00
  0.00000000E+00  0.00000000E+00  0.00000000E+00
  0.00000000E+00  0.00000000E+00  0.00000000E+00
  0.00000000E+00  0.00000000E+00  0.00000000E+00
  0.00000000E+00  0.00000000E+00  0.00000000E+00
  0.00000000E+00  0.00000000E+00  0.00000000E+00
  0.00000000E+00  0.00000000E+00  0.00000000E+00
  0.00000000E+00  0.00000000E+00  0.00000000E+00
  0.00000000E+00  0.00000000E+00  0.00000000E+00
  0.00000000E+00  0.00000000E+00  0.00000000E+00
  0.00000000E+00  0.00000000E+00  0.00000000E+00
  0.00000000E+00  0.00000000E+00  0.00000000E+00
  0.00000000E+00  0.00000000E+00  0.00000000E+00
  0.00000000E+00  0.00000000E+00  0.00000000E+00
  0.00000000E+00  0.00000000E+00  0.00000000E+00
  0.00000000E+00  0.00000000E+00  0.00000000E+00
  0.00000000E+00  0.00000000E+00  0.00000000E+00
  0.00000000E+00  0.00000000E+00  0.00000000E+00
  0.00000000E+00  0.00000000E+00  0.00000000E+00
  0.00000000E+00  0.00000000E+00  0.00000000E+00
  0.00000000E+00  0.00000000E+00  0.00000000E+00
  0.00000000E+00  0.00000000E+00  0.00000000E+00
  0.00000000E+00  0.00000000E+00  0.00000000E+00
  0.00000000E+00  0.00000000E+00  0.00000000E+00
  0.00000000E+00  0.00000000E+00  0.00000000E+00
  0.00000000E+00  0.00000000E+00  0.00000000E+00
  0.00000000E+00  0.00000000E+00  0.00000000E+00
  0.00000000E+00  0.00000000E+00  0.00000000E+00
  0.00000000E+00  0.00000000E+00  0.00000000E+00
  0.00000000E+00  0.00000000E+00  0.00000000E+00
  0.00000000E+00  0.00000000E+00  0.00000000E+00
  0.00000000E+00  0.00000000E+00  0.00000000E+00
  0.00000000E+00  0.00000000E+00  0.00000000E+00
  0.00000000E+00  0.00000000E+00  0.00000000E+00
  0.00000000E+00  0.00000000E+00  0.00000000E+00
  0.00000000E+00  0.00000000E+00  0.00000000E+00
  0.00000000E+00  0.00000000E+00  0.00000000E+00
  0.00000000E+00  0.00000000E+00  0.00000000E+00
  0.00000000E+00  0.00000000E+00  0.00000000E+00
  0.00000000E+00  0.00000000E+00  0.00000000E+00
  0.00000000E+00  0.00000000E+00  0.00000000E+00
  0.00000000E+00  0.00000000E+00  0.00000000E+00
  0.00000000E+00  0.00000000E+00  0.00000000E+00
  0.00000000E+00  0.00000000E+00  0.00000000E+00
  0.00000000E+00  0.00000000E+00  0.00000000E+00
  0.00000000E+00  0.00000000E+00  0.00000000E+00
  0.00000000E+00  0.00000000E+00  0.00000000E+00
