CONTCAR\(6)                             
   1.00000000000000     
    13.2530002594000003    0.0000000000000000    0.0000000000000000
    -6.6264500618000000   11.4773481809000000    0.0000000000000000
     0.0000000000000000    0.0000000000000000   18.1429996490000001
   V    Se   O 
    16    32     1
Direct
  0.9881706963915742  0.0048790911503202  0.5019670254871758
  0.2548458406445984  0.9882058842211434  0.5018488625743590
  0.4990629182574049  0.9923726478442271  0.5012029405550812
  0.7384012766287545  0.0013165288902387  0.5006977743457427
  0.9820308317956112  0.2462794249858143  0.5009652782058057
  0.2239855610063352  0.2599319187927761  0.4966329051291707
  0.5152962644836527  0.2320902953622086  0.5053893748986267
  0.7500072175040562  0.2427241959662488  0.5014370429354189
  0.0095519207163963  0.5014759130304779  0.5017434578015691
  0.2520013225132811  0.5167115755934795  0.4999571815885329
  0.4934559650586198  0.5262641149346489  0.4971317105335402
  0.7619897932885259  0.4951020701088624  0.5012989907396314
  0.0065160108054209  0.7460945566757001  0.5005223386031344
  0.2555913267350220  0.7501046707710015  0.5016962240480269
  0.4990325184854305  0.7632481347916660  0.5009600870537646
  0.7448810212968966  0.7610723590882185  0.5019590586266711
  0.1668484119291008  0.0890918125536569  0.5802778158400030
  0.0712492350304427  0.1660405187710606  0.4090734274646942
  0.4161089896064206  0.0778642814561087  0.5934702479955706
  0.3335985366524509  0.1727812605756930  0.4276857181631011
  0.6639545243586503  0.0822436356901666  0.5920140870125553
  0.5852088659655453  0.1621380888759859  0.4100222575674071
  0.9092870304803409  0.0844884736591136  0.5901425287755566
  0.8286583833078025  0.1651845767449225  0.4087737652852186
  0.1596630858186820  0.3385651528227139  0.5885802758036180
  0.0820891900401593  0.4183066812025568  0.4127892509286037
  0.4174511995970719  0.3313255761015036  0.5700805037506060
  0.3289924626405861  0.4237374697260196  0.4109042391720812
  0.6712121420048078  0.3325586089208105  0.5927078333563169
  0.5770142557641356  0.4151652683858668  0.4276780539089743
  0.9141649178113310  0.3346619068944675  0.5911792293887044
  0.8361122668135913  0.4155065856887168  0.4131767917913167
  0.1671485210485699  0.5876400438025886  0.5927585751347513
  0.0855645381945368  0.6671142815121075  0.4127325107774764
  0.4145166919201039  0.5910920470089832  0.5911597380637859
  0.3337267225656607  0.6729599085686833  0.4092810112754391
  0.6616876673813424  0.5831690597154496  0.5814406901855884
  0.5842721976470331  0.6774063035336597  0.4088488372851662
  0.9184350908184096  0.5846288206213937  0.5908027816359476
  0.8322368439605009  0.6667133167898003  0.4186751483915438
  0.1655760925196268  0.8325782829116471  0.5918069290340845
  0.0840432406420560  0.9190796210873893  0.4183130203918047
  0.4154957730398643  0.8351612600722343  0.5936288439245274
  0.3340159157043330  0.9154606919665624  0.4107315174941657
  0.6631973000095608  0.8379558946837092  0.5910439529994712
  0.5816038344492440  0.9180399401545846  0.4078859356745592
  0.9145264839837818  0.8350432315808572  0.5855945596162077
  0.8302534154154472  0.9186246690844908  0.4112980292596130
  0.4126160252672344  0.3369495586294451  0.6624520675253104
 
  0.00000000E+00  0.00000000E+00  0.00000000E+00
  0.00000000E+00  0.00000000E+00  0.00000000E+00
  0.00000000E+00  0.00000000E+00  0.00000000E+00
  0.00000000E+00  0.00000000E+00  0.00000000E+00
  0.00000000E+00  0.00000000E+00  0.00000000E+00
  0.00000000E+00  0.00000000E+00  0.00000000E+00
  0.00000000E+00  0.00000000E+00  0.00000000E+00
  0.00000000E+00  0.00000000E+00  0.00000000E+00
  0.00000000E+00  0.00000000E+00  0.00000000E+00
  0.00000000E+00  0.00000000E+00  0.00000000E+00
  0.00000000E+00  0.00000000E+00  0.00000000E+00
  0.00000000E+00  0.00000000E+00  0.00000000E+00
  0.00000000E+00  0.00000000E+00  0.00000000E+00
  0.00000000E+00  0.00000000E+00  0.00000000E+00
  0.00000000E+00  0.00000000E+00  0.00000000E+00
  0.00000000E+00  0.00000000E+00  0.00000000E+00
  0.00000000E+00  0.00000000E+00  0.00000000E+00
  0.00000000E+00  0.00000000E+00  0.00000000E+00
  0.00000000E+00  0.00000000E+00  0.00000000E+00
  0.00000000E+00  0.00000000E+00  0.00000000E+00
  0.00000000E+00  0.00000000E+00  0.00000000E+00
  0.00000000E+00  0.00000000E+00  0.00000000E+00
  0.00000000E+00  0.00000000E+00  0.00000000E+00
  0.00000000E+00  0.00000000E+00  0.00000000E+00
  0.00000000E+00  0.00000000E+00  0.00000000E+00
  0.00000000E+00  0.00000000E+00  0.00000000E+00
  0.00000000E+00  0.00000000E+00  0.00000000E+00
  0.00000000E+00  0.00000000E+00  0.00000000E+00
  0.00000000E+00  0.00000000E+00  0.00000000E+00
  0.00000000E+00  0.00000000E+00  0.00000000E+00
  0.00000000E+00  0.00000000E+00  0.00000000E+00
  0.00000000E+00  0.00000000E+00  0.00000000E+00
  0.00000000E+00  0.00000000E+00  0.00000000E+00
  0.00000000E+00  0.00000000E+00  0.00000000E+00
  0.00000000E+00  0.00000000E+00  0.00000000E+00
  0.00000000E+00  0.00000000E+00  0.00000000E+00
  0.00000000E+00  0.00000000E+00  0.00000000E+00
  0.00000000E+00  0.00000000E+00  0.00000000E+00
  0.00000000E+00  0.00000000E+00  0.00000000E+00
  0.00000000E+00  0.00000000E+00  0.00000000E+00
  0.00000000E+00  0.00000000E+00  0.00000000E+00
  0.00000000E+00  0.00000000E+00  0.00000000E+00
  0.00000000E+00  0.00000000E+00  0.00000000E+00
  0.00000000E+00  0.00000000E+00  0.00000000E+00
  0.00000000E+00  0.00000000E+00  0.00000000E+00
  0.00000000E+00  0.00000000E+00  0.00000000E+00
  0.00000000E+00  0.00000000E+00  0.00000000E+00
  0.00000000E+00  0.00000000E+00  0.00000000E+00
  0.00000000E+00  0.00000000E+00  0.00000000E+00
