 Sc5 C1 Cl8                             
   1.00000000000000     
     3.5167766229888926    0.0000000000000000    0.0000000000000000
     0.0000000000000000   11.9769309213580861    0.0000000000000000
     0.0000000000000000    0.0000000000000000   20.6152555295099980
   Sc   C    Cl
     5     1     8
Direct
  0.5000000116173934  0.9809295655988231  0.6046756427395702
  0.5000000110017412  0.0190716637693475  0.3953193637402060
  0.0000000044284755  0.1257691840357869  0.5076366691996722
 -0.0000000026239758  0.8742293741573374  0.4923725604329586
  0.5000000051355269  0.5000004050241043  0.5000005164263691
  0.5000000070300898  0.0000000537308734  0.5000019501493265
  0.4999999919975608  0.7100055202836316  0.4800913569395381
  0.4999999936340851  0.2899954649126588  0.5199004771365879
  0.0000000044499213  0.8287683613639838  0.6184637937577585
  0.0000000107689933  0.1712094004965240  0.3815346248418366
 -0.0000000077270491  0.8752974385402511  0.3630307937812460
 -0.0000000013835970  0.1247250005660942  0.6369721272814418
 -0.0000000226340118  0.5212836392571351  0.5848905205144831
 -0.0000000056951542  0.4787159282634476  0.4151096030590050
 
  0.00000000E+00  0.00000000E+00  0.00000000E+00
  0.00000000E+00  0.00000000E+00  0.00000000E+00
  0.00000000E+00  0.00000000E+00  0.00000000E+00
  0.00000000E+00  0.00000000E+00  0.00000000E+00
  0.00000000E+00  0.00000000E+00  0.00000000E+00
  0.00000000E+00  0.00000000E+00  0.00000000E+00
  0.00000000E+00  0.00000000E+00  0.00000000E+00
  0.00000000E+00  0.00000000E+00  0.00000000E+00
  0.00000000E+00  0.00000000E+00  0.00000000E+00
  0.00000000E+00  0.00000000E+00  0.00000000E+00
  0.00000000E+00  0.00000000E+00  0.00000000E+00
  0.00000000E+00  0.00000000E+00  0.00000000E+00
  0.00000000E+00  0.00000000E+00  0.00000000E+00
  0.00000000E+00  0.00000000E+00  0.00000000E+00
