 Li2 Cu6 F20                            
   1.00000000000000     
     3.6881840137473709    0.0000000000000000    0.0000000000000000
     0.0000000000000000   13.4974042069305327    0.0000000000000000
     0.0000000000000000    0.0000000000000000   23.6391792754559944
   Li   Cu   F 
     2     6    20
Direct
  0.7014610933584393  0.4359188841753863  0.6092343612435940
  0.6931868507452634  0.9366387008590422  0.3911038742332735
  0.9940486053755038  0.0342842456162771  0.5293442699522188
  0.0047178633842222  0.2854262789092772  0.5052607739533244
  0.9900686335113420  0.1233775170143900  0.3776080499731620
  0.9930193679522716  0.5346882041475354  0.4709313776357007
  0.0021534579430664  0.7856020062757452  0.4943247072074115
  0.9871618250955123  0.6238972450627855  0.6224410733428840
  0.0209389231060015  0.3473883847058303  0.5771699214772994
  0.9970947381693094  0.1651733804958724  0.5483174258041004
  0.9993101118391294  0.2284851578484819  0.4308159286743347
  0.9753237847000378  0.0058851642685553  0.3350272872369047
  0.9736182670194609  0.0382299417866392  0.4400938271760211
  0.9938738118229864  0.2064694667659097  0.3193655954922434
  0.0167377395434301  0.8481800492072082  0.4226238019353445
  0.9962653404991073  0.4017877440106545  0.4591296168144083
  0.9952056164283576  0.6653571332934334  0.4513075429896460
  0.9963330822246306  0.7278118833365497  0.5684200036260805
  0.9722012746396800  0.5070613975758675  0.6656719659666095
  0.9713903597571516  0.5375622938955900  0.5604662364066471
  0.9907706317863685  0.7080702553753326  0.6801598709335792
  0.9957966424215741  0.9013884120137874  0.5409597211157546
  0.4936994783563051  0.0335512994837117  0.5285148251633984
  0.5046787622895934  0.2861055744500547  0.5058348699892505
  0.4889593515705997  0.1155162638724647  0.3797208471338180
  0.4926566410311963  0.5341482024012549  0.4722446980546664
  0.5021539484231070  0.7866587448897349  0.4935630446862831
  0.4860865993722356  0.6164761682625439  0.6203444817820198
 
  0.00000000E+00  0.00000000E+00  0.00000000E+00
  0.00000000E+00  0.00000000E+00  0.00000000E+00
  0.00000000E+00  0.00000000E+00  0.00000000E+00
  0.00000000E+00  0.00000000E+00  0.00000000E+00
  0.00000000E+00  0.00000000E+00  0.00000000E+00
  0.00000000E+00  0.00000000E+00  0.00000000E+00
  0.00000000E+00  0.00000000E+00  0.00000000E+00
  0.00000000E+00  0.00000000E+00  0.00000000E+00
  0.00000000E+00  0.00000000E+00  0.00000000E+00
  0.00000000E+00  0.00000000E+00  0.00000000E+00
  0.00000000E+00  0.00000000E+00  0.00000000E+00
  0.00000000E+00  0.00000000E+00  0.00000000E+00
  0.00000000E+00  0.00000000E+00  0.00000000E+00
  0.00000000E+00  0.00000000E+00  0.00000000E+00
  0.00000000E+00  0.00000000E+00  0.00000000E+00
  0.00000000E+00  0.00000000E+00  0.00000000E+00
  0.00000000E+00  0.00000000E+00  0.00000000E+00
  0.00000000E+00  0.00000000E+00  0.00000000E+00
  0.00000000E+00  0.00000000E+00  0.00000000E+00
  0.00000000E+00  0.00000000E+00  0.00000000E+00
  0.00000000E+00  0.00000000E+00  0.00000000E+00
  0.00000000E+00  0.00000000E+00  0.00000000E+00
  0.00000000E+00  0.00000000E+00  0.00000000E+00
  0.00000000E+00  0.00000000E+00  0.00000000E+00
  0.00000000E+00  0.00000000E+00  0.00000000E+00
  0.00000000E+00  0.00000000E+00  0.00000000E+00
  0.00000000E+00  0.00000000E+00  0.00000000E+00
  0.00000000E+00  0.00000000E+00  0.00000000E+00
