CONTCAR\(12)                            
   1.00000000000000     
    13.6462001800999992    0.0000000000000000    0.0000000000000000
     1.7063387634000000   10.2396006658999994    0.0000000000000000
     0.0000000000000000    0.0000000000000000   19.9377994536999985
   Ta   Te
    16    24
Direct
  0.1435691357355040  0.8522302419525900  0.4915180662448719
  0.1064308602644957  0.1477697920474057  0.5084819337551281
  0.2012886252249899  0.3910849129073668  0.5221067909333001
  0.0487113697750132  0.6089151330926299  0.4778932090666999
  0.3935691697355068  0.8522302419525900  0.4915180662448719
  0.3564308342644935  0.1477697920474057  0.5084819337551281
  0.4512886422249878  0.3910849129073668  0.5221067909333001
  0.2987113607750089  0.6089151330926299  0.4778932090666999
  0.6435691357355040  0.8522302419525900  0.4915180662448719
  0.6064309042644922  0.1477697920474057  0.5084819337551281
  0.7012886072249884  0.3910849129073668  0.5221067909333001
  0.5487114307750076  0.6089151330926299  0.4778932090666999
  0.8935691007355047  0.8522302419525900  0.4915180662448719
  0.8564308692644929  0.1477697920474057  0.5084819337551281
  0.9512886422249878  0.3910849129073668  0.5221067909333001
  0.7987113957750083  0.6089151330926299  0.4778932090666999
  0.1689318558176751  0.6480928950971716  0.5873833863663691
  0.0810681331823275  0.3519171859028276  0.4126165656336340
  0.1627409976428709  0.6983568775957707  0.3749209561665836
  0.0872589873571314  0.3016431684042260  0.6250790198334144
  0.0024007333816556  0.9805666760700475  0.5874323898511591
  0.2475992816183421  0.0194433339299493  0.4125676581488378
  0.4189318378176736  0.6480928950971716  0.5873833863663691
  0.3310681331823275  0.3519171859028276  0.4126165656336340
  0.4127409806428659  0.6983568775957707  0.3749209561665836
  0.3372589873571314  0.3016431684042260  0.6250790198334144
  0.2524007153816612  0.9805666760700475  0.5874323898511591
  0.4975992646183443  0.0194433339299493  0.4125676581488378
  0.6689318028176743  0.6480928950971716  0.5873833863663691
  0.5810681681823269  0.3519171859028276  0.4126165656336340
  0.6627410156428652  0.6983568775957707  0.3749209561665836
  0.5872589533571357  0.3016431684042260  0.6250790198334144
  0.5024007153816612  0.9805666760700475  0.5874323898511591
  0.7475992646183443  0.0194433339299493  0.4125676581488378
  0.9189318378176736  0.6480928950971716  0.5873833863663691
  0.8310682031823262  0.3519171859028276  0.4126165656336340
  0.9127410496428681  0.6983568775957707  0.3749209561665836
  0.8372589873571314  0.3016431684042260  0.6250790198334144
  0.7524006803816548  0.9805666760700475  0.5874323898511591
  0.9975992296183449  0.0194433339299493  0.4125676581488378
 
  0.00000000E+00  0.00000000E+00  0.00000000E+00
  0.00000000E+00  0.00000000E+00  0.00000000E+00
  0.00000000E+00  0.00000000E+00  0.00000000E+00
  0.00000000E+00  0.00000000E+00  0.00000000E+00
  0.00000000E+00  0.00000000E+00  0.00000000E+00
  0.00000000E+00  0.00000000E+00  0.00000000E+00
  0.00000000E+00  0.00000000E+00  0.00000000E+00
  0.00000000E+00  0.00000000E+00  0.00000000E+00
  0.00000000E+00  0.00000000E+00  0.00000000E+00
  0.00000000E+00  0.00000000E+00  0.00000000E+00
  0.00000000E+00  0.00000000E+00  0.00000000E+00
  0.00000000E+00  0.00000000E+00  0.00000000E+00
  0.00000000E+00  0.00000000E+00  0.00000000E+00
  0.00000000E+00  0.00000000E+00  0.00000000E+00
  0.00000000E+00  0.00000000E+00  0.00000000E+00
  0.00000000E+00  0.00000000E+00  0.00000000E+00
  0.00000000E+00  0.00000000E+00  0.00000000E+00
  0.00000000E+00  0.00000000E+00  0.00000000E+00
  0.00000000E+00  0.00000000E+00  0.00000000E+00
  0.00000000E+00  0.00000000E+00  0.00000000E+00
  0.00000000E+00  0.00000000E+00  0.00000000E+00
  0.00000000E+00  0.00000000E+00  0.00000000E+00
  0.00000000E+00  0.00000000E+00  0.00000000E+00
  0.00000000E+00  0.00000000E+00  0.00000000E+00
  0.00000000E+00  0.00000000E+00  0.00000000E+00
  0.00000000E+00  0.00000000E+00  0.00000000E+00
  0.00000000E+00  0.00000000E+00  0.00000000E+00
  0.00000000E+00  0.00000000E+00  0.00000000E+00
  0.00000000E+00  0.00000000E+00  0.00000000E+00
  0.00000000E+00  0.00000000E+00  0.00000000E+00
  0.00000000E+00  0.00000000E+00  0.00000000E+00
  0.00000000E+00  0.00000000E+00  0.00000000E+00
  0.00000000E+00  0.00000000E+00  0.00000000E+00
  0.00000000E+00  0.00000000E+00  0.00000000E+00
  0.00000000E+00  0.00000000E+00  0.00000000E+00
  0.00000000E+00  0.00000000E+00  0.00000000E+00
  0.00000000E+00  0.00000000E+00  0.00000000E+00
  0.00000000E+00  0.00000000E+00  0.00000000E+00
  0.00000000E+00  0.00000000E+00  0.00000000E+00
  0.00000000E+00  0.00000000E+00  0.00000000E+00
