CONTCAR\(6)                             
   1.00000000000000     
    13.4954004288000000    0.0000000000000000    0.0000000000000000
    -3.3738461598999998   19.0216094057000014    0.0000000000000000
     0.0000000000000000    0.0000000000000000   18.9101009369000010
   Ta   Pd   Se
    16     8    48
Direct
  0.0879720863876585  0.3517194655103140  0.5237426132045613
  0.1620279146123451  0.1482805564896879  0.4762573867954387
  0.3379720773876542  0.3517194655103140  0.5237426132045613
  0.4120279496123445  0.1482805564896879  0.4762573867954387
  0.5879720953876557  0.3517194655103140  0.5237426132045613
  0.6620278616123443  0.1482805564896879  0.4762573867954387
  0.8379720423876549  0.3517194655103140  0.5237426132045613
  0.9120278436123428  0.1482805564896879  0.4762573867954387
  0.0879720963876593  0.8517194885103123  0.5237426132045613
  0.1620279236123423  0.6482805794896862  0.4762573867954387
  0.3379720873876551  0.8517194885103123  0.5237426132045613
  0.4120279586123416  0.6482805794896862  0.4762573867954387
  0.5879721053876565  0.8517194885103123  0.5237426132045613
  0.6620279056123408  0.6482805794896862  0.4762573867954387
  0.8379721223876544  0.8517194885103123  0.5237426132045613
  0.9120278526123471  0.6482805794896862  0.4762573867954387
  0.0000000000000000  0.0000000000000000  0.5000000000000000
  0.2500000000000000  0.0000000000000000  0.5000000000000000
  0.5000000000000000  0.0000000000000000  0.5000000000000000
  0.7500000180000015  0.0000000000000000  0.5000000000000000
  0.0000000100000008  0.5000000220000018  0.5000000000000000
  0.2500000100000008  0.5000000220000018  0.5000000000000000
  0.5000000100000008  0.5000000220000018  0.5000000000000000
  0.7500000269999987  0.5000000220000018  0.5000000000000000
  0.2302155799755283  0.4206202586098584  0.6036346179854135
  0.0197844280244723  0.0793797763901409  0.3963653820145865
  0.0607691393019323  0.2430437551829030  0.4272711888097547
  0.2232910420012573  0.3930519539033313  0.4260031967935731
  0.0267089759987442  0.1069480680966706  0.5740067892064289
  0.1892308826980695  0.2569562678170954  0.5727387961902508
  0.4802156249755285  0.4206202586098584  0.6036346179854135
  0.2697844230244684  0.0793797763901409  0.3963653820145865
  0.3107691353019320  0.2430437551829030  0.4272711888097547
  0.4732910420012573  0.3930519539033313  0.4260031967935731
  0.2767089849987414  0.1069480680966706  0.5740067892064289
  0.4392308566980745  0.2569562678170954  0.5727387961902508
  0.7302156069755270  0.4206202586098584  0.6036346179854135
  0.5197843880244690  0.0793797763901409  0.3963653820145865
  0.5607691533019263  0.2430437551829030  0.4272711888097547
  0.7232910250012594  0.3930519539033313  0.4260031967935731
  0.5267089319987406  0.1069480680966706  0.5740067892064289
  0.6892309096980682  0.2569562678170954  0.5727387961902508
  0.9802155889755326  0.4206202586098584  0.6036346179854135
  0.7697844410244699  0.0793797763901409  0.3963653820145865
  0.8107691353019320  0.2430437551829030  0.4272711888097547
  0.9732910070012579  0.3930519539033313  0.4260031967935731
  0.7767089499987421  0.1069480680966706  0.5740067892064289
  0.9392308916980738  0.2569562678170954  0.5727387961902508
  0.2302155929755330  0.9206202556098546  0.6036346179854135
  0.0197844360244730  0.5793798113901403  0.3963653820145865
  0.0607691563019301  0.7430437521829063  0.4272711888097547
  0.2232910640012591  0.8930520269033337  0.4260031967935731
  0.0267089729987404  0.6069480410966648  0.5740067892064289
  0.1892308896980737  0.7569563148170957  0.5727387961902508
  0.4802156279755323  0.9206202556098546  0.6036346179854135
  0.2697844270244687  0.5793798113901403  0.3963653820145865
  0.3107691383019286  0.7430437521829063  0.4272711888097547
  0.4732910470012612  0.8930520269033337  0.4260031967935731
  0.2767089819987447  0.6069480410966648  0.5740067892064289
  0.4392308726980687  0.7569563148170957  0.5727387961902508
  0.7302156459755338  0.9206202556098546  0.6036346179854135
  0.5197844010244665  0.5793798113901403  0.3963653820145865
  0.5607691563019301  0.7430437521829063  0.4272711888097547
  0.7232910470012612  0.8930520269033337  0.4260031967935731
  0.5267089639987432  0.6069480410966648  0.5740067892064289
  0.6892308896980737  0.7569563148170957  0.5727387961902508
  0.9802155929755330  0.9206202556098546  0.6036346179854135
  0.7697844540244674  0.5793798113901403  0.3963653820145865
  0.8107692093019310  0.7430437521829063  0.4272711888097547
  0.9732910290012597  0.8930520269033337  0.4260031967935731
  0.7767089469987383  0.6069480410966648  0.5740067892064289
  0.9392309076980681  0.7569563148170957  0.5727387961902508
 
  0.00000000E+00  0.00000000E+00  0.00000000E+00
  0.00000000E+00  0.00000000E+00  0.00000000E+00
  0.00000000E+00  0.00000000E+00  0.00000000E+00
  0.00000000E+00  0.00000000E+00  0.00000000E+00
  0.00000000E+00  0.00000000E+00  0.00000000E+00
  0.00000000E+00  0.00000000E+00  0.00000000E+00
  0.00000000E+00  0.00000000E+00  0.00000000E+00
  0.00000000E+00  0.00000000E+00  0.00000000E+00
  0.00000000E+00  0.00000000E+00  0.00000000E+00
  0.00000000E+00  0.00000000E+00  0.00000000E+00
  0.00000000E+00  0.00000000E+00  0.00000000E+00
  0.00000000E+00  0.00000000E+00  0.00000000E+00
  0.00000000E+00  0.00000000E+00  0.00000000E+00
  0.00000000E+00  0.00000000E+00  0.00000000E+00
  0.00000000E+00  0.00000000E+00  0.00000000E+00
  0.00000000E+00  0.00000000E+00  0.00000000E+00
  0.00000000E+00  0.00000000E+00  0.00000000E+00
  0.00000000E+00  0.00000000E+00  0.00000000E+00
  0.00000000E+00  0.00000000E+00  0.00000000E+00
  0.00000000E+00  0.00000000E+00  0.00000000E+00
  0.00000000E+00  0.00000000E+00  0.00000000E+00
  0.00000000E+00  0.00000000E+00  0.00000000E+00
  0.00000000E+00  0.00000000E+00  0.00000000E+00
  0.00000000E+00  0.00000000E+00  0.00000000E+00
  0.00000000E+00  0.00000000E+00  0.00000000E+00
  0.00000000E+00  0.00000000E+00  0.00000000E+00
  0.00000000E+00  0.00000000E+00  0.00000000E+00
  0.00000000E+00  0.00000000E+00  0.00000000E+00
  0.00000000E+00  0.00000000E+00  0.00000000E+00
  0.00000000E+00  0.00000000E+00  0.00000000E+00
  0.00000000E+00  0.00000000E+00  0.00000000E+00
  0.00000000E+00  0.00000000E+00  0.00000000E+00
  0.00000000E+00  0.00000000E+00  0.00000000E+00
  0.00000000E+00  0.00000000E+00  0.00000000E+00
  0.00000000E+00  0.00000000E+00  0.00000000E+00
  0.00000000E+00  0.00000000E+00  0.00000000E+00
  0.00000000E+00  0.00000000E+00  0.00000000E+00
  0.00000000E+00  0.00000000E+00  0.00000000E+00
  0.00000000E+00  0.00000000E+00  0.00000000E+00
  0.00000000E+00  0.00000000E+00  0.00000000E+00
  0.00000000E+00  0.00000000E+00  0.00000000E+00
  0.00000000E+00  0.00000000E+00  0.00000000E+00
  0.00000000E+00  0.00000000E+00  0.00000000E+00
  0.00000000E+00  0.00000000E+00  0.00000000E+00
  0.00000000E+00  0.00000000E+00  0.00000000E+00
  0.00000000E+00  0.00000000E+00  0.00000000E+00
  0.00000000E+00  0.00000000E+00  0.00000000E+00
  0.00000000E+00  0.00000000E+00  0.00000000E+00
  0.00000000E+00  0.00000000E+00  0.00000000E+00
  0.00000000E+00  0.00000000E+00  0.00000000E+00
  0.00000000E+00  0.00000000E+00  0.00000000E+00
  0.00000000E+00  0.00000000E+00  0.00000000E+00
  0.00000000E+00  0.00000000E+00  0.00000000E+00
  0.00000000E+00  0.00000000E+00  0.00000000E+00
  0.00000000E+00  0.00000000E+00  0.00000000E+00
  0.00000000E+00  0.00000000E+00  0.00000000E+00
  0.00000000E+00  0.00000000E+00  0.00000000E+00
  0.00000000E+00  0.00000000E+00  0.00000000E+00
  0.00000000E+00  0.00000000E+00  0.00000000E+00
  0.00000000E+00  0.00000000E+00  0.00000000E+00
  0.00000000E+00  0.00000000E+00  0.00000000E+00
  0.00000000E+00  0.00000000E+00  0.00000000E+00
  0.00000000E+00  0.00000000E+00  0.00000000E+00
  0.00000000E+00  0.00000000E+00  0.00000000E+00
  0.00000000E+00  0.00000000E+00  0.00000000E+00
  0.00000000E+00  0.00000000E+00  0.00000000E+00
  0.00000000E+00  0.00000000E+00  0.00000000E+00
  0.00000000E+00  0.00000000E+00  0.00000000E+00
  0.00000000E+00  0.00000000E+00  0.00000000E+00
  0.00000000E+00  0.00000000E+00  0.00000000E+00
  0.00000000E+00  0.00000000E+00  0.00000000E+00
  0.00000000E+00  0.00000000E+00  0.00000000E+00
