CONTCAR\(2)                             
   1.00000000000000     
    13.4693002700999998    0.0000000000000000    0.0000000000000000
     0.0000000000000000   11.7332000732000008    0.0000000000000000
     0.0000000000000000    0.0000000000000000   18.0195999146000005
   Ti   Nb   S    O 
     8     8    32     1
Direct
  0.1227093325808973  0.2433918535774017  0.5008879538822341
  0.3724425593137979  0.2464110515293965  0.5014909694608720
  0.6221068894003923  0.2571167543877568  0.5023984238538597
  0.8723710115921800  0.2463826686008824  0.5010667908820580
  0.1226439423542826  0.7562260341582061  0.5037588560139885
  0.3713228427587028  0.7489319533553378  0.5006775246742755
  0.6224394402279830  0.7380203476891742  0.4926438610721357
  0.8738042756232191  0.7485766061419188  0.5003811821838948
  0.9866149682856872  0.9989915359177156  0.5022338371467329
  0.2582328171821754  0.9989031697178115  0.5023729050117776
  0.5063349215476587  0.9961834102879770  0.5002540359613781
  0.7381463970703969  0.9962446621625328  0.5000654738104710
  0.0066275048627792  0.4993643114102139  0.5016037023247040
  0.2394079465016675  0.4996457333830170  0.5019188210628224
  0.4819506641423781  0.4985327093512048  0.5010222377656784
  0.7627045558020604  0.4981638484819056  0.5006462867674503
  0.1224972744125181  0.0816821431234116  0.4214474777061809
  0.9958079111997957  0.1661447547631539  0.5837293988179212
  0.9989681223038229  0.3300517251690601  0.4208674741379160
  0.1225271716776870  0.4102310458065779  0.5877739123458414
  0.3743082315977987  0.0856865124804734  0.4165260324038182
  0.2488178729890722  0.1659394973954720  0.5840068548442355
  0.2463526845794328  0.3300631921723853  0.4210925313415880
  0.3699016388529610  0.4116653944542819  0.5866082991435644
  0.6221365273688537  0.0873324054217354  0.4147960880615840
  0.4985842992040864  0.1667243086492652  0.5814984382638928
  0.4957444547043045  0.3317793420602030  0.4193951959831881
  0.6225734826781962  0.4163756288077095  0.5802752570753748
  0.8703336902115915  0.0856064360780936  0.4163019490324091
  0.7462520460671521  0.1667543418548685  0.5810918114166110
  0.7485963499662125  0.3315856347951094  0.4191388342466856
  0.8750886210394700  0.4117377480170861  0.5860285986751842
  0.1228116060035087  0.5877276718121492  0.4159440880744881
  0.9974834350238622  0.6676188014738083  0.5828884292708308
  0.9979885511142609  0.8313618263099202  0.4198553225178366
  0.1222926924293306  0.9161080975647694  0.5833963820095059
  0.3683935463295472  0.5855805522815496  0.4157193981725834
  0.2475376229196319  0.6679612512254626  0.5831629342713683
  0.2471161001438642  0.8313969875903731  0.4198988639286616
  0.3758422741516622  0.9106539258221577  0.5855191325703605
  0.6222176856270663  0.5791237430250101  0.4176249272218189
  0.4999933382508767  0.6675603290259248  0.5801687182177435
  0.4953290908337266  0.8295992800728087  0.4178300365995989
  0.6224249295524313  0.9190652413959789  0.5860821086331726
  0.8766663270383820  0.5851833874289620  0.4155715064321309
  0.7450812495068005  0.6672859751542456  0.5799305208532971
  0.7493924555686351  0.8294520157376462  0.4177870832495510
  0.8689943552884711  0.9104222343969161  0.5851238291767363
  0.6224246691186948  0.8942419054809895  0.6670457244299884
 
  0.00000000E+00  0.00000000E+00  0.00000000E+00
  0.00000000E+00  0.00000000E+00  0.00000000E+00
  0.00000000E+00  0.00000000E+00  0.00000000E+00
  0.00000000E+00  0.00000000E+00  0.00000000E+00
  0.00000000E+00  0.00000000E+00  0.00000000E+00
  0.00000000E+00  0.00000000E+00  0.00000000E+00
  0.00000000E+00  0.00000000E+00  0.00000000E+00
  0.00000000E+00  0.00000000E+00  0.00000000E+00
  0.00000000E+00  0.00000000E+00  0.00000000E+00
  0.00000000E+00  0.00000000E+00  0.00000000E+00
  0.00000000E+00  0.00000000E+00  0.00000000E+00
  0.00000000E+00  0.00000000E+00  0.00000000E+00
  0.00000000E+00  0.00000000E+00  0.00000000E+00
  0.00000000E+00  0.00000000E+00  0.00000000E+00
  0.00000000E+00  0.00000000E+00  0.00000000E+00
  0.00000000E+00  0.00000000E+00  0.00000000E+00
  0.00000000E+00  0.00000000E+00  0.00000000E+00
  0.00000000E+00  0.00000000E+00  0.00000000E+00
  0.00000000E+00  0.00000000E+00  0.00000000E+00
  0.00000000E+00  0.00000000E+00  0.00000000E+00
  0.00000000E+00  0.00000000E+00  0.00000000E+00
  0.00000000E+00  0.00000000E+00  0.00000000E+00
  0.00000000E+00  0.00000000E+00  0.00000000E+00
  0.00000000E+00  0.00000000E+00  0.00000000E+00
  0.00000000E+00  0.00000000E+00  0.00000000E+00
  0.00000000E+00  0.00000000E+00  0.00000000E+00
  0.00000000E+00  0.00000000E+00  0.00000000E+00
  0.00000000E+00  0.00000000E+00  0.00000000E+00
  0.00000000E+00  0.00000000E+00  0.00000000E+00
  0.00000000E+00  0.00000000E+00  0.00000000E+00
  0.00000000E+00  0.00000000E+00  0.00000000E+00
  0.00000000E+00  0.00000000E+00  0.00000000E+00
  0.00000000E+00  0.00000000E+00  0.00000000E+00
  0.00000000E+00  0.00000000E+00  0.00000000E+00
  0.00000000E+00  0.00000000E+00  0.00000000E+00
  0.00000000E+00  0.00000000E+00  0.00000000E+00
  0.00000000E+00  0.00000000E+00  0.00000000E+00
  0.00000000E+00  0.00000000E+00  0.00000000E+00
  0.00000000E+00  0.00000000E+00  0.00000000E+00
  0.00000000E+00  0.00000000E+00  0.00000000E+00
  0.00000000E+00  0.00000000E+00  0.00000000E+00
  0.00000000E+00  0.00000000E+00  0.00000000E+00
  0.00000000E+00  0.00000000E+00  0.00000000E+00
  0.00000000E+00  0.00000000E+00  0.00000000E+00
  0.00000000E+00  0.00000000E+00  0.00000000E+00
  0.00000000E+00  0.00000000E+00  0.00000000E+00
  0.00000000E+00  0.00000000E+00  0.00000000E+00
  0.00000000E+00  0.00000000E+00  0.00000000E+00
  0.00000000E+00  0.00000000E+00  0.00000000E+00
