 Li2 H2 Pt1                             
   1.00000000000000     
     2.9852935643837180    0.0000000000000000    0.0000000000000000
     0.0000000000000000    2.9891170681735741    0.0000000000000000
     0.0000000000000000    0.0000000000000000   18.3725818852879996
   Li   H    Pt
     2     2     1
Direct
  0.5000000003083364  0.0000000059682573  0.4201065680032297
  0.4999999997758556 -0.0000000057065698  0.5798934079842613
 -0.0000000015132307  0.5000000012382280  0.5914021202363278
  0.0000000014399896  0.4999999985709982  0.4085978915074037
 -0.0000000000109498  0.4999999999290856  0.5000000122687775
 
  0.00000000E+00  0.00000000E+00  0.00000000E+00
  0.00000000E+00  0.00000000E+00  0.00000000E+00
  0.00000000E+00  0.00000000E+00  0.00000000E+00
  0.00000000E+00  0.00000000E+00  0.00000000E+00
  0.00000000E+00  0.00000000E+00  0.00000000E+00
