CONTCAR                                 
   1.00000000000000     
    12.9361000061000002    0.0000000000000000    0.0000000000000000
     0.0000000000000000   12.9357995986999992    0.0000000000000000
     0.0000000000000000    0.0000000000000000   24.1072998046999984
   Dy   Te   O    H 
    18    54     2     1
Selective dynamics
Direct
  0.1672321248814583  0.0032217889419783  0.5858751297381772   F   F   F
  0.0010537646300648  0.1698314548128295  0.4161486117624307   F   F   F
  0.5021874695388462  0.0029985205700171  0.5852242195386523   F   F   F
  0.3339360598648753  0.1687295725195384  0.4149059656098046   F   F   F
  0.8368060933373229  0.0032303960836941  0.5861640680882516   F   F   F
  0.6684230341470396  0.1689529115891801  0.4152026480801823   F   F   F
  0.1678258873193741  0.3369446909457565  0.5861624141979291   F   F   F
  0.0011406941208989  0.5028153635100523  0.4163213735904847   F   F   F
  0.5001195570735320  0.3271516756332318  0.5815147074096814   F   F   F
  0.3345401687201104  0.5027431141607579  0.4153771194531402   F   F   F
  0.8352991116466768  0.3366197697313424  0.5868587605404585   F   F   F
  0.6672109349869473  0.5029578404639139  0.4157133039745986   F   F   F
  0.1678420700724388  0.6692422025624936  0.5861595716207404   F   F   F
  0.0010770283654509  0.8358693588021637  0.4159729583525333   F   F   F
  0.5001961032631286  0.6786889382490884  0.5819693713834937   F   F   F
  0.3338600988931191  0.8367787299719822  0.4149292928983854   F   F   F
  0.8360014873091046  0.6693453452509175  0.5865482547282141   F   F   F
  0.6684107766656524  0.8367308581845307  0.4151643319896721   F   F   F
  0.0010380089163178  0.0023193416415452  0.3125969375315378   F   F   F
  0.1686804504212276  0.1706130659081850  0.6898886299615441   F   F   F
  0.0044104190841381  0.0038686377536621  0.6900077250164287   F   F   F
  0.1676534611731242  0.1691277887881455  0.3123434143441415   F   F   F
  0.1668889431697380  0.0027812174606225  0.4542592300630943   F   F   F
  0.0013414198372672  0.1706856532574363  0.5477465139918039   F   F   F
  0.3342020132884329  0.0025819460904373  0.3115897912341765   F   F   F
  0.5011274449090877  0.1695278385663244  0.6876475992226503   F   F   F
  0.3357035321294077  0.0033870384517130  0.6889113214957874   F   F   F
  0.5011900901218524  0.1693022566371383  0.3119197193637646   F   F   F
  0.5012959008880316  0.0025675388374182  0.4538984564166313   F   F   F
  0.3330735147066832  0.1675446047259541  0.5462201559884718   F   F   F
  0.6680403161543111  0.0029541528987167  0.3118006601947059   F   F   F
  0.8349324260670485  0.1698992927765843  0.6903274839720694   F   F   F
  0.6704197153802198  0.0035271570600202  0.6894383063339760   F   F   F
  0.8349564850473428  0.1692526157866254  0.3126684524538135   F   F   F
  0.8354041114192867  0.0029169879605604  0.4544798122589881   F   F   F
  0.6699603532617999  0.1682731201954155  0.5467064563445589   F   F   F
  0.0014968704749734  0.3361919441019694  0.3131675712740574   F   F   F
  0.1709826916107673  0.5031886043147580  0.6897074694919283   F   F   F
  0.0018950908173778  0.3365342576496175  0.6904088041873635   F   F   F
  0.1678518432027545  0.5028805930562470  0.3126693049636842   F   F   F
  0.1685715639895449  0.3365677919719516  0.4547177631863661   F   F   F
  0.0013141785735087  0.5027520029165657  0.5479071863812877   F   F   F
  0.3343981675334717  0.3358939526137661  0.3118661009878494   F   F   F
  0.5066286747291002  0.5039125482691915  0.6781548173383172   F   F   F
  0.3357688675042638  0.3370666010160264  0.6882468238932589   F   F   F
  0.5010618352470573  0.5023334800982155  0.3124059646989465   F   F   F
  0.5011383900118389  0.3350117247526754  0.4525826309753214   F   F   F
  0.3368076103142386  0.5030819216580866  0.5476694233785011   F   F   F
  0.6680091433186419  0.3360432020185371  0.3123367943599575   F   F   F
  0.8366508972416753  0.5025784727362819  0.6904585425859509   F   F   F
  0.6683321362761419  0.3358206280822102  0.6898717113551740   F   F   F
  0.8345065621527468  0.5026470715692142  0.3128705159132963   F   F   F
  0.8333672290654732  0.3373238799879488  0.4552038366962563   F   F   F
  0.6651624214950260  0.5029858908728784  0.5491245748543463   F   F   F
  0.0011022185820124  0.6693601633171085  0.3129549638638309   F   F   F
  0.1677678131927038  0.8372133153036714  0.6896845103623264   F   F   F
  0.0018421029164699  0.6696565511975976  0.6901051021961280   F   F   F
  0.1676061281986279  0.8359912654841608  0.3123256475604705   F   F   F
  0.1684242167561791  0.6688426434759549  0.4547303834142156   F   F   F
  0.0017077831633685  0.8358370055786040  0.5474396461973896   F   F   F
  0.3346112109488857  0.6692502978863502  0.3120603409785758   F   F   F
  0.5012190714392091  0.8373037763313462  0.6879250730088629   F   F   F
  0.3351946944170763  0.6700294340160227  0.6883821665825138   F   F   F
  0.5016105056892854  0.8362093792529777  0.3117533502061889   F   F   F
  0.5009291947808308  0.6708430660357934  0.4527681006078907   F   F   F
  0.3329657814476974  0.8381730944850432  0.5464278747389031   F   F   F
  0.6680367583048934  0.6690706950492284  0.3122962531398485   F   F   F
  0.8360420302506881  0.8378212740195607  0.6899276523733491   F   F   F
  0.6694190742355488  0.6720644544419940  0.6886283289476225   F   F   F
  0.8344391250649750  0.8358404792339300  0.3125540585011350   F   F   F
  0.8333765316069801  0.6685674357634284  0.4551256930151411   F   F   F
  0.6699595982621958  0.8377400449509338  0.5467465230430477   F   F   F
  0.4867071165655901  0.5183005631823434  0.7676001041224012   T   T   T
  0.5791042965206614  0.5004496376396119  0.7987202943062854   T   T   T
  0.6112594502861413  0.5696185188882410  0.7984184399957858   T   T   T
 
  0.00000000E+00  0.00000000E+00  0.00000000E+00
  0.00000000E+00  0.00000000E+00  0.00000000E+00
  0.00000000E+00  0.00000000E+00  0.00000000E+00
  0.00000000E+00  0.00000000E+00  0.00000000E+00
  0.00000000E+00  0.00000000E+00  0.00000000E+00
  0.00000000E+00  0.00000000E+00  0.00000000E+00
  0.00000000E+00  0.00000000E+00  0.00000000E+00
  0.00000000E+00  0.00000000E+00  0.00000000E+00
  0.00000000E+00  0.00000000E+00  0.00000000E+00
  0.00000000E+00  0.00000000E+00  0.00000000E+00
  0.00000000E+00  0.00000000E+00  0.00000000E+00
  0.00000000E+00  0.00000000E+00  0.00000000E+00
  0.00000000E+00  0.00000000E+00  0.00000000E+00
  0.00000000E+00  0.00000000E+00  0.00000000E+00
  0.00000000E+00  0.00000000E+00  0.00000000E+00
  0.00000000E+00  0.00000000E+00  0.00000000E+00
  0.00000000E+00  0.00000000E+00  0.00000000E+00
  0.00000000E+00  0.00000000E+00  0.00000000E+00
  0.00000000E+00  0.00000000E+00  0.00000000E+00
  0.00000000E+00  0.00000000E+00  0.00000000E+00
  0.00000000E+00  0.00000000E+00  0.00000000E+00
  0.00000000E+00  0.00000000E+00  0.00000000E+00
  0.00000000E+00  0.00000000E+00  0.00000000E+00
  0.00000000E+00  0.00000000E+00  0.00000000E+00
  0.00000000E+00  0.00000000E+00  0.00000000E+00
  0.00000000E+00  0.00000000E+00  0.00000000E+00
  0.00000000E+00  0.00000000E+00  0.00000000E+00
  0.00000000E+00  0.00000000E+00  0.00000000E+00
  0.00000000E+00  0.00000000E+00  0.00000000E+00
  0.00000000E+00  0.00000000E+00  0.00000000E+00
  0.00000000E+00  0.00000000E+00  0.00000000E+00
  0.00000000E+00  0.00000000E+00  0.00000000E+00
  0.00000000E+00  0.00000000E+00  0.00000000E+00
  0.00000000E+00  0.00000000E+00  0.00000000E+00
  0.00000000E+00  0.00000000E+00  0.00000000E+00
  0.00000000E+00  0.00000000E+00  0.00000000E+00
  0.00000000E+00  0.00000000E+00  0.00000000E+00
  0.00000000E+00  0.00000000E+00  0.00000000E+00
  0.00000000E+00  0.00000000E+00  0.00000000E+00
  0.00000000E+00  0.00000000E+00  0.00000000E+00
  0.00000000E+00  0.00000000E+00  0.00000000E+00
  0.00000000E+00  0.00000000E+00  0.00000000E+00
  0.00000000E+00  0.00000000E+00  0.00000000E+00
  0.00000000E+00  0.00000000E+00  0.00000000E+00
  0.00000000E+00  0.00000000E+00  0.00000000E+00
  0.00000000E+00  0.00000000E+00  0.00000000E+00
  0.00000000E+00  0.00000000E+00  0.00000000E+00
  0.00000000E+00  0.00000000E+00  0.00000000E+00
  0.00000000E+00  0.00000000E+00  0.00000000E+00
  0.00000000E+00  0.00000000E+00  0.00000000E+00
  0.00000000E+00  0.00000000E+00  0.00000000E+00
  0.00000000E+00  0.00000000E+00  0.00000000E+00
  0.00000000E+00  0.00000000E+00  0.00000000E+00
  0.00000000E+00  0.00000000E+00  0.00000000E+00
  0.00000000E+00  0.00000000E+00  0.00000000E+00
  0.00000000E+00  0.00000000E+00  0.00000000E+00
  0.00000000E+00  0.00000000E+00  0.00000000E+00
  0.00000000E+00  0.00000000E+00  0.00000000E+00
  0.00000000E+00  0.00000000E+00  0.00000000E+00
  0.00000000E+00  0.00000000E+00  0.00000000E+00
  0.00000000E+00  0.00000000E+00  0.00000000E+00
  0.00000000E+00  0.00000000E+00  0.00000000E+00
  0.00000000E+00  0.00000000E+00  0.00000000E+00
  0.00000000E+00  0.00000000E+00  0.00000000E+00
  0.00000000E+00  0.00000000E+00  0.00000000E+00
  0.00000000E+00  0.00000000E+00  0.00000000E+00
  0.00000000E+00  0.00000000E+00  0.00000000E+00
  0.00000000E+00  0.00000000E+00  0.00000000E+00
  0.00000000E+00  0.00000000E+00  0.00000000E+00
  0.00000000E+00  0.00000000E+00  0.00000000E+00
  0.00000000E+00  0.00000000E+00  0.00000000E+00
  0.00000000E+00  0.00000000E+00  0.00000000E+00
  0.00000000E+00  0.00000000E+00  0.00000000E+00
  0.00000000E+00  0.00000000E+00  0.00000000E+00
  0.00000000E+00  0.00000000E+00  0.00000000E+00
