CONTCAR\(5)                             
   1.00000000000000     
    11.6057996750000001    0.0000000000000000    0.0000000000000000
     5.8029393748000002   10.0514726542999995    0.0000000000000000
     0.0000000000000000    0.0000000000000000   18.0372009276999989
   Ni   P    S    O 
     8     8    24     1
Direct
  0.1691692582613459  0.1614698224795973  0.5019699052943453
  0.3394806936831306  0.3271656598394742  0.5035394373687786
  0.6694983092916496  0.1635399492551886  0.4999861245514172
  0.8347123954579699  0.3281012911425382  0.5008642652343408
  0.1709578314055600  0.6640887047942364  0.5035814430080493
  0.3364888499152345  0.8290864075108572  0.4997620407111846
  0.6664026735879847  0.6641253554111052  0.5002937701595566
  0.8348003779089410  0.8301235266913073  0.5016656910877311
  0.5029626183138723  0.9965350799453280  0.5618867097022692
  0.0020415869889745  0.9957878054869481  0.4408378120741261
  0.0035312099265623  0.9952018924446416  0.5620851831656858
  0.5020081865244918  0.9960637675156953  0.4406197394699793
  0.5031013503240305  0.4961466620777651  0.5598221887545214
  0.0026749864163312  0.4958681419579453  0.4448329179482653
  0.9931061560805314  0.4960177194502324  0.5659631667567705
  0.5042842313982847  0.4959752189562543  0.4385648201438871
  0.3296764415439430  0.1685311260441649  0.5861347938897662
  0.0017079102959103  0.1689022425281355  0.4174954325421501
  0.3295257548564477  0.9958867195892044  0.4163869612364789
  0.1765206565626230  0.9942586110614889  0.5860699326526637
  0.5051799364487255  0.3219076950177854  0.5836111566384795
  0.1768919907537842  0.3246944905365776  0.4213129840044630
  0.8309502738189130  0.1677103625866992  0.5858059720455496
  0.5010707666813065  0.1686730278683391  0.4159007112166057
  0.8292472950710117  0.9962441656886285  0.4166198936637189
  0.6748054985405788  0.9976034217606059  0.5859651705076524
  0.9978879459156126  0.3216468027724445  0.5873581319874019
  0.6772361883960362  0.3233975315070466  0.4154407969477253
  0.3310098746490127  0.6705159750098448  0.5835118356567784
  0.0060601656232275  0.6669785115821140  0.4213625855232481
  0.3324278685189027  0.4958230276689041  0.4152033570255130
  0.1897006980283172  0.4956790561828888  0.5768612225504046
  0.5027077799875667  0.8242170723881733  0.5856054098681620
  0.1736108637637005  0.8231096812550692  0.4160780254831218
  0.8232008795306797  0.6704238469331225  0.5870404685932392
  0.5043080162358813  0.6686632347910351  0.4151680465882405
  0.8312504462403366  0.4957861773138654  0.4179100835832188
  0.6746372238786109  0.4961891072650135  0.5842102270903641
  0.0023336548362859  0.8232654137230778  0.5864485468458990
  0.6746511632423644  0.8228664771230527  0.4171453756701412
  0.2207198740953239  0.4956290998436398  0.6567278957581224
 
  0.00000000E+00  0.00000000E+00  0.00000000E+00
  0.00000000E+00  0.00000000E+00  0.00000000E+00
  0.00000000E+00  0.00000000E+00  0.00000000E+00
  0.00000000E+00  0.00000000E+00  0.00000000E+00
  0.00000000E+00  0.00000000E+00  0.00000000E+00
  0.00000000E+00  0.00000000E+00  0.00000000E+00
  0.00000000E+00  0.00000000E+00  0.00000000E+00
  0.00000000E+00  0.00000000E+00  0.00000000E+00
  0.00000000E+00  0.00000000E+00  0.00000000E+00
  0.00000000E+00  0.00000000E+00  0.00000000E+00
  0.00000000E+00  0.00000000E+00  0.00000000E+00
  0.00000000E+00  0.00000000E+00  0.00000000E+00
  0.00000000E+00  0.00000000E+00  0.00000000E+00
  0.00000000E+00  0.00000000E+00  0.00000000E+00
  0.00000000E+00  0.00000000E+00  0.00000000E+00
  0.00000000E+00  0.00000000E+00  0.00000000E+00
  0.00000000E+00  0.00000000E+00  0.00000000E+00
  0.00000000E+00  0.00000000E+00  0.00000000E+00
  0.00000000E+00  0.00000000E+00  0.00000000E+00
  0.00000000E+00  0.00000000E+00  0.00000000E+00
  0.00000000E+00  0.00000000E+00  0.00000000E+00
  0.00000000E+00  0.00000000E+00  0.00000000E+00
  0.00000000E+00  0.00000000E+00  0.00000000E+00
  0.00000000E+00  0.00000000E+00  0.00000000E+00
  0.00000000E+00  0.00000000E+00  0.00000000E+00
  0.00000000E+00  0.00000000E+00  0.00000000E+00
  0.00000000E+00  0.00000000E+00  0.00000000E+00
  0.00000000E+00  0.00000000E+00  0.00000000E+00
  0.00000000E+00  0.00000000E+00  0.00000000E+00
  0.00000000E+00  0.00000000E+00  0.00000000E+00
  0.00000000E+00  0.00000000E+00  0.00000000E+00
  0.00000000E+00  0.00000000E+00  0.00000000E+00
  0.00000000E+00  0.00000000E+00  0.00000000E+00
  0.00000000E+00  0.00000000E+00  0.00000000E+00
  0.00000000E+00  0.00000000E+00  0.00000000E+00
  0.00000000E+00  0.00000000E+00  0.00000000E+00
  0.00000000E+00  0.00000000E+00  0.00000000E+00
  0.00000000E+00  0.00000000E+00  0.00000000E+00
  0.00000000E+00  0.00000000E+00  0.00000000E+00
  0.00000000E+00  0.00000000E+00  0.00000000E+00
  0.00000000E+00  0.00000000E+00  0.00000000E+00
