CONTCAR\(11)                            
   1.00000000000000     
    14.0796003342000002    0.0000000000000000    0.0000000000000000
    -7.0398001671000001   12.1932915645000008    0.0000000000000000
     0.0000000000000000    0.0000000000000000   18.0872001647999987
   Ti   Se   O    H 
    16    32     1     1
Direct
  0.9997496033413696  0.0001904962839570  0.4991911698342277
  0.2502548467657664  0.0005578006648119  0.4999714795917927
  0.5004220820099530  0.0001995181053779  0.4991159460632278
  0.7493472756611764  0.9986727486761814  0.4985029099519256
  0.0012900237888357  0.2506288436771889  0.4984531334487258
  0.2528794860750196  0.2516347935568173  0.5000180498893598
  0.4987200696129178  0.2516343076825928  0.5000562620368517
  0.7493112628802058  0.2506701811978223  0.4984909029211146
  0.9997754815048395  0.4995688138394813  0.4990995283879103
  0.2528982127127385  0.5012850835161916  0.4999567073742789
  0.4999697169835095  0.4999629849684217  0.4944256340688055
  0.7483534818233766  0.5012938126315393  0.5000799793481628
  0.9994309431079222  0.7497427813188591  0.4999677472362570
  0.2502214326748874  0.7497524925251665  0.4999449981063301
  0.4987231971283451  0.7470975354461818  0.4999804001163289
  0.7483039517800429  0.7470487919660317  0.5000676302822510
  0.0838811685700978  0.1663234789783459  0.4127806056797160
  0.1667192154327894  0.0840359799191902  0.5857835965646017
  0.3325781719726694  0.1651557945492669  0.4126020112458658
  0.4172352705781347  0.0839478739267130  0.5857688325167042
  0.5824582202600742  0.1663652319508698  0.4127808297852858
  0.6668889999992028  0.0834648759255540  0.5848971665523029
  0.8332741996903801  0.1665791052742436  0.4129920554893626
  0.9165018235261916  0.0834867667672014  0.5849262899197396
  0.0838443529741575  0.4175217108873341  0.4127462762934946
  0.1664312549230871  0.3332481115174738  0.5852692892145835
  0.3309224055542395  0.4154495609602687  0.4111429585358983
  0.4185533912863045  0.3371094302266210  0.5843037785513828
  0.5845410173710827  0.4154434928786603  0.4111988750265179
  0.6667687875952969  0.3332028710665432  0.5853101616031998
  0.8336247984585597  0.4175655328498956  0.4127809793690106
  0.9165574564078492  0.3331148623836074  0.5848783499051672
  0.0834040680306164  0.6669150258543274  0.4134806688317636
  0.1667162956144872  0.5827316080624343  0.5857223790406862
  0.3325596932902513  0.6674463742406691  0.4125575317073019
  0.4184996230417720  0.5814785742342665  0.5842516388465326
  0.5845565218976051  0.6690757741598367  0.4111668248217127
  0.6628165721339790  0.5814021075626741  0.5843425177012962
  0.8348102464324012  0.6674252985337752  0.4126238549325934
  0.9160462787971505  0.5827533217778037  0.5857729948541389
  0.0833568098903062  0.9166245239108056  0.4135583879241450
  0.1666575945491052  0.8333372572961529  0.5859284880538547
  0.3331013942760616  0.9166050295761721  0.4134859230635034
  0.4172697202286366  0.8332904985319119  0.5857280992488635
  0.5824587260593218  0.9161317133804358  0.4127663188194634
  0.6667259894628613  0.8335529065505694  0.5852901275835964
  0.8336432510420234  0.9160939210765044  0.4128035741337785
  0.9159590416221279  0.8332601617847555  0.5858089037175763
  0.5006509174137437  0.4999420045828963  0.6822945362065185
  0.5010959477665138  0.5001487287656212  0.7365918096022742
 
  0.00000000E+00  0.00000000E+00  0.00000000E+00
  0.00000000E+00  0.00000000E+00  0.00000000E+00
  0.00000000E+00  0.00000000E+00  0.00000000E+00
  0.00000000E+00  0.00000000E+00  0.00000000E+00
  0.00000000E+00  0.00000000E+00  0.00000000E+00
  0.00000000E+00  0.00000000E+00  0.00000000E+00
  0.00000000E+00  0.00000000E+00  0.00000000E+00
  0.00000000E+00  0.00000000E+00  0.00000000E+00
  0.00000000E+00  0.00000000E+00  0.00000000E+00
  0.00000000E+00  0.00000000E+00  0.00000000E+00
  0.00000000E+00  0.00000000E+00  0.00000000E+00
  0.00000000E+00  0.00000000E+00  0.00000000E+00
  0.00000000E+00  0.00000000E+00  0.00000000E+00
  0.00000000E+00  0.00000000E+00  0.00000000E+00
  0.00000000E+00  0.00000000E+00  0.00000000E+00
  0.00000000E+00  0.00000000E+00  0.00000000E+00
  0.00000000E+00  0.00000000E+00  0.00000000E+00
  0.00000000E+00  0.00000000E+00  0.00000000E+00
  0.00000000E+00  0.00000000E+00  0.00000000E+00
  0.00000000E+00  0.00000000E+00  0.00000000E+00
  0.00000000E+00  0.00000000E+00  0.00000000E+00
  0.00000000E+00  0.00000000E+00  0.00000000E+00
  0.00000000E+00  0.00000000E+00  0.00000000E+00
  0.00000000E+00  0.00000000E+00  0.00000000E+00
  0.00000000E+00  0.00000000E+00  0.00000000E+00
  0.00000000E+00  0.00000000E+00  0.00000000E+00
  0.00000000E+00  0.00000000E+00  0.00000000E+00
  0.00000000E+00  0.00000000E+00  0.00000000E+00
  0.00000000E+00  0.00000000E+00  0.00000000E+00
  0.00000000E+00  0.00000000E+00  0.00000000E+00
  0.00000000E+00  0.00000000E+00  0.00000000E+00
  0.00000000E+00  0.00000000E+00  0.00000000E+00
  0.00000000E+00  0.00000000E+00  0.00000000E+00
  0.00000000E+00  0.00000000E+00  0.00000000E+00
  0.00000000E+00  0.00000000E+00  0.00000000E+00
  0.00000000E+00  0.00000000E+00  0.00000000E+00
  0.00000000E+00  0.00000000E+00  0.00000000E+00
  0.00000000E+00  0.00000000E+00  0.00000000E+00
  0.00000000E+00  0.00000000E+00  0.00000000E+00
  0.00000000E+00  0.00000000E+00  0.00000000E+00
  0.00000000E+00  0.00000000E+00  0.00000000E+00
  0.00000000E+00  0.00000000E+00  0.00000000E+00
  0.00000000E+00  0.00000000E+00  0.00000000E+00
  0.00000000E+00  0.00000000E+00  0.00000000E+00
  0.00000000E+00  0.00000000E+00  0.00000000E+00
  0.00000000E+00  0.00000000E+00  0.00000000E+00
  0.00000000E+00  0.00000000E+00  0.00000000E+00
  0.00000000E+00  0.00000000E+00  0.00000000E+00
  0.00000000E+00  0.00000000E+00  0.00000000E+00
  0.00000000E+00  0.00000000E+00  0.00000000E+00
