CONTCAR\(8)                             
   1.00000000000000     
    18.0454998015999983    0.0000000000000000    0.0000000000000000
    -9.0227856342999999   15.5459183949999993    0.0000000000000000
     0.0000000000000000    0.0000000000000000   17.8997001647999987
   Ti   Cl   O    H 
    18    54     1     1
Direct
  0.2785655786177096  0.2503958791303635  0.4940063189250787
  0.0686637247052991  0.1404936682603179  0.4940295272268417
  0.6242641525933347  0.2635744052089403  0.5029910342585729
  0.4044443946062627  0.1406290170909600  0.4956327070299340
  0.9604250244913471  0.2626379406061355  0.4946407801594035
  0.7431922866195496  0.1508077745355453  0.4930237840805425
  0.3095849177439901  0.6042303853197409  0.4838564368239239
  0.0713578107576805  0.4762854762302187  0.4958083929251312
  0.6393040315832502  0.6060669859036538  0.5176367553000805
  0.4379399292498968  0.4863989991624385  0.6006619403256954
  0.9676017918264819  0.5967114315173033  0.4956185719870900
  0.7334600728105337  0.4806290696350975  0.5106594712545049
  0.2934380746993401  0.9278725308622481  0.4902468995747581
  0.0735988065341003  0.8096339685907893  0.4902770020226436
  0.6276924749048769  0.9338553802413024  0.4894346991390287
  0.4109488866398477  0.8170964715573391  0.4868790385643182
  0.9573981696788330  0.9272653177367135  0.4927944632361314
  0.7426758826221111  0.8146135958332301  0.4970763278973976
  0.0659373634130224  0.0332599804586088  0.5743065297210588
  0.2998362966949901  0.0364982778993081  0.4093015205875626
  0.1759062228760912  0.1418098450249372  0.4134813448135516
  0.0680186212137876  0.2538561937081331  0.4187610746991619
  0.2882044828730940  0.1369596795513039  0.5670386563150305
  0.1739237124207102  0.2455736617456261  0.5781625097430440
  0.4010284400911265  0.0325101639555950  0.5742010169402004
  0.6349493332094193  0.0430047929492714  0.4094192005690983
  0.5180388558727536  0.1562417006208425  0.4172188225109211
  0.3981613954125203  0.2534551606435245  0.4257529088023308
  0.6322717132815779  0.1515927177153195  0.5718596678697967
  0.5111667214570845  0.2486815473174245  0.5819984028251572
  0.7368007143911767  0.0416063767721095  0.5715952867546331
  0.9607956113889632  0.0338349164884254  0.4110758006496362
  0.8503485982558876  0.1559164081728362  0.4118220801309981
  0.7341984026399492  0.2624664312900566  0.4228211470531822
  0.9594858257874150  0.1481382698003571  0.5687115777308963
  0.8523028441976929  0.2595447089192623  0.5741626335314901
  0.0705963561552958  0.3684845077466189  0.5756080775063954
  0.2931108967949563  0.3591959886338735  0.4255535744262462
  0.1870820031921648  0.4847694338583342  0.4199934881454988
  0.0679889771511621  0.5865768011014740  0.4156690370642172
  0.3166869773449801  0.4952938841554758  0.5801203295710415
  0.1923282938181167  0.5873972304417454  0.5673910870582887
  0.3791795972233268  0.3353469748615056  0.5954835226276233
  0.6247014922701127  0.3758673450819013  0.4299246720875395
  0.5023798032022490  0.4857371177916835  0.4797131300889255
  0.4004527454327496  0.5918373962484639  0.4095467352374009
  0.6457036088068296  0.4992545450222243  0.6022842903298464
  0.5452112536867540  0.6308216672963036  0.6041106547957339
  0.7322333010034286  0.3689281123089203  0.5859694893796660
  0.9668886003539496  0.3718244053979834  0.4129123147226096
  0.8442528946574674  0.4843110805891264  0.4283946431080952
  0.7289372561824065  0.5886403289039042  0.4307738146637466
  0.9719734619881758  0.4876119597452320  0.5761814070122127
  0.8576811514741418  0.5915439863408167  0.5783519502262930
  0.0738665638841725  0.7056045670921475  0.5743854430706922
  0.2993413259598309  0.7068968051623311  0.4084582974910844
  0.1828666277636823  0.8177980821842781  0.4094450843282842
  0.0656474860224342  0.9192749162326078  0.4155986746032256
  0.2991530874159882  0.8171218603653446  0.5641673645936994
  0.1838342574269456  0.9205940272612918  0.5697436751216018
  0.4078159547388211  0.7102677044985855  0.5692785073655502
  0.6272468551919355  0.6994365606861669  0.4279600690257535
  0.5206708533979395  0.8226926840403969  0.4086089488924940
  0.4038970294544899  0.9256148590565686  0.4120620076338639
  0.6376687947250547  0.8305069731880651  0.5712924675074750
  0.5180933862285177  0.9269535511677353  0.5687351933700576
  0.7521438833532096  0.7192344411003992  0.5860918772593778
  0.9635160700982619  0.7000989137052265  0.4130363024854711
  0.8464578781766361  0.8153826141128255  0.4143550166772262
  0.7361016963049007  0.9224056438740705  0.4168391252878614
  0.9666617524739954  0.8178596362473859  0.5677747698912849
  0.8535312123088541  0.9283584642230144  0.5737250639935937
  0.4441266478029664  0.4757095651572446  0.6992862426922811
  0.4347997273713399  0.4301463186634499  0.7339602746790083
 
  0.00000000E+00  0.00000000E+00  0.00000000E+00
  0.00000000E+00  0.00000000E+00  0.00000000E+00
  0.00000000E+00  0.00000000E+00  0.00000000E+00
  0.00000000E+00  0.00000000E+00  0.00000000E+00
  0.00000000E+00  0.00000000E+00  0.00000000E+00
  0.00000000E+00  0.00000000E+00  0.00000000E+00
  0.00000000E+00  0.00000000E+00  0.00000000E+00
  0.00000000E+00  0.00000000E+00  0.00000000E+00
  0.00000000E+00  0.00000000E+00  0.00000000E+00
  0.00000000E+00  0.00000000E+00  0.00000000E+00
  0.00000000E+00  0.00000000E+00  0.00000000E+00
  0.00000000E+00  0.00000000E+00  0.00000000E+00
  0.00000000E+00  0.00000000E+00  0.00000000E+00
  0.00000000E+00  0.00000000E+00  0.00000000E+00
  0.00000000E+00  0.00000000E+00  0.00000000E+00
  0.00000000E+00  0.00000000E+00  0.00000000E+00
  0.00000000E+00  0.00000000E+00  0.00000000E+00
  0.00000000E+00  0.00000000E+00  0.00000000E+00
  0.00000000E+00  0.00000000E+00  0.00000000E+00
  0.00000000E+00  0.00000000E+00  0.00000000E+00
  0.00000000E+00  0.00000000E+00  0.00000000E+00
  0.00000000E+00  0.00000000E+00  0.00000000E+00
  0.00000000E+00  0.00000000E+00  0.00000000E+00
  0.00000000E+00  0.00000000E+00  0.00000000E+00
  0.00000000E+00  0.00000000E+00  0.00000000E+00
  0.00000000E+00  0.00000000E+00  0.00000000E+00
  0.00000000E+00  0.00000000E+00  0.00000000E+00
  0.00000000E+00  0.00000000E+00  0.00000000E+00
  0.00000000E+00  0.00000000E+00  0.00000000E+00
  0.00000000E+00  0.00000000E+00  0.00000000E+00
  0.00000000E+00  0.00000000E+00  0.00000000E+00
  0.00000000E+00  0.00000000E+00  0.00000000E+00
  0.00000000E+00  0.00000000E+00  0.00000000E+00
  0.00000000E+00  0.00000000E+00  0.00000000E+00
  0.00000000E+00  0.00000000E+00  0.00000000E+00
  0.00000000E+00  0.00000000E+00  0.00000000E+00
  0.00000000E+00  0.00000000E+00  0.00000000E+00
  0.00000000E+00  0.00000000E+00  0.00000000E+00
  0.00000000E+00  0.00000000E+00  0.00000000E+00
  0.00000000E+00  0.00000000E+00  0.00000000E+00
  0.00000000E+00  0.00000000E+00  0.00000000E+00
  0.00000000E+00  0.00000000E+00  0.00000000E+00
  0.00000000E+00  0.00000000E+00  0.00000000E+00
  0.00000000E+00  0.00000000E+00  0.00000000E+00
  0.00000000E+00  0.00000000E+00  0.00000000E+00
  0.00000000E+00  0.00000000E+00  0.00000000E+00
  0.00000000E+00  0.00000000E+00  0.00000000E+00
  0.00000000E+00  0.00000000E+00  0.00000000E+00
  0.00000000E+00  0.00000000E+00  0.00000000E+00
  0.00000000E+00  0.00000000E+00  0.00000000E+00
  0.00000000E+00  0.00000000E+00  0.00000000E+00
  0.00000000E+00  0.00000000E+00  0.00000000E+00
  0.00000000E+00  0.00000000E+00  0.00000000E+00
  0.00000000E+00  0.00000000E+00  0.00000000E+00
  0.00000000E+00  0.00000000E+00  0.00000000E+00
  0.00000000E+00  0.00000000E+00  0.00000000E+00
  0.00000000E+00  0.00000000E+00  0.00000000E+00
  0.00000000E+00  0.00000000E+00  0.00000000E+00
  0.00000000E+00  0.00000000E+00  0.00000000E+00
  0.00000000E+00  0.00000000E+00  0.00000000E+00
  0.00000000E+00  0.00000000E+00  0.00000000E+00
  0.00000000E+00  0.00000000E+00  0.00000000E+00
  0.00000000E+00  0.00000000E+00  0.00000000E+00
  0.00000000E+00  0.00000000E+00  0.00000000E+00
  0.00000000E+00  0.00000000E+00  0.00000000E+00
  0.00000000E+00  0.00000000E+00  0.00000000E+00
  0.00000000E+00  0.00000000E+00  0.00000000E+00
  0.00000000E+00  0.00000000E+00  0.00000000E+00
  0.00000000E+00  0.00000000E+00  0.00000000E+00
  0.00000000E+00  0.00000000E+00  0.00000000E+00
  0.00000000E+00  0.00000000E+00  0.00000000E+00
  0.00000000E+00  0.00000000E+00  0.00000000E+00
  0.00000000E+00  0.00000000E+00  0.00000000E+00
  0.00000000E+00  0.00000000E+00  0.00000000E+00
