CONTCAR\(5)                             
   1.00000000000000     
    15.7967996596999996    0.0000000000000000    0.0000000000000000
    -7.8983998298999998   13.6804298037999992    0.0000000000000000
     0.0000000000000000    0.0000000000000000   18.1074008942000013
   Co   I    O 
    16    32     1
Direct
  0.0046033219618291  0.0045734941796568  0.4972437041876804
  0.2540686328221485  0.0080537445150062  0.4973507770126176
  0.4977378990315237  0.9984888609444490  0.5014205152785147
  0.7420068837312083  0.9910024028172105  0.5060905864652454
  0.9925082807405935  0.2467008676936517  0.4979678251418728
  0.2415274027534141  0.2410741009023618  0.4974295292117317
  0.4927439652215651  0.2441062304683651  0.5059621554522996
  0.7467844159767535  0.2486368417755455  0.5041467251708979
  0.0032264445022518  0.4993029283072760  0.4989562059458144
  0.2420003885805589  0.4986457876561192  0.4997298325270211
  0.4869546934000747  0.4933014856141278  0.5102450772871140
  0.7524305996811764  0.5013250051712083  0.5067177252291993
  0.0043449824203189  0.7526095394530188  0.4964888674322394
  0.2485046305947659  0.7503492116932301  0.4999746412894061
  0.5013026637103521  0.7530562219552728  0.5077327443353455
  0.7534905766267764  0.7508357648664611  0.5071261053631136
  0.0745743431040291  0.1684309348917301  0.4139848392641612
  0.1641100369570189  0.0806023850544060  0.5875661381501296
  0.3341062711158961  0.1682588848826801  0.4098453798095500
  0.4119871093664006  0.0805643505937643  0.5904314609157479
  0.5869734783145396  0.1705104719381419  0.4225184692507168
  0.6664858604887390  0.0861987368887726  0.5848561877620666
  0.8300738213327299  0.1703608487606773  0.4224318253366377
  0.9162831572258088  0.0872059351330889  0.5810365938677571
  0.0744794504080102  0.4070906733043326  0.4144890342605295
  0.1501221131757985  0.3257203788674525  0.5790137624266973
  0.3388200188192689  0.4201805627405393  0.4171641044125677
  0.4023588399544006  0.3278664206658196  0.5840745446468278
  0.5843411765917568  0.4257276172821300  0.4353330828051959
  0.6681414654396512  0.3266894746583240  0.5909073463235011
  0.8218060344075201  0.4098449630747519  0.4225930380792058
  0.9118535738991305  0.3278056269531828  0.5801593879579976
  0.0887091360684246  0.6702923901759839  0.4171940711980376
  0.1667804358374290  0.5903348252790853  0.5835070439618542
  0.3268455944818981  0.6693953549379443  0.4189257477223839
  0.4030262951776351  0.5734521499577397  0.5853319040647458
  0.5838123664377127  0.6592087118647428  0.4353548929087130
  0.7103831117440975  0.6044964117333053  0.5881442465878427
  0.8505592557382381  0.6747824393154623  0.4098043756629561
  0.9219249843596138  0.5889999840265308  0.5791557929530385
  0.0842978525501573  0.9163430781165398  0.4154894462709433
  0.1632795263631721  0.8274924401535296  0.5764459181525634
  0.3316429851643821  0.9121973386785492  0.4185179623829334
  0.4066316785472802  0.8281415373724582  0.5846483808270994
  0.5818805214157853  0.9132584426272566  0.4167664824974050
  0.6640447272605416  0.8310770147643453  0.5982024415969107
  0.8253099795827469  0.9091387804714770  0.4197250366953792
  0.9232376570153231  0.8338090758570351  0.5802978496289481
  0.5672411898995826  0.5326587719651997  0.5920101572888744
 
  0.00000000E+00  0.00000000E+00  0.00000000E+00
  0.00000000E+00  0.00000000E+00  0.00000000E+00
  0.00000000E+00  0.00000000E+00  0.00000000E+00
  0.00000000E+00  0.00000000E+00  0.00000000E+00
  0.00000000E+00  0.00000000E+00  0.00000000E+00
  0.00000000E+00  0.00000000E+00  0.00000000E+00
  0.00000000E+00  0.00000000E+00  0.00000000E+00
  0.00000000E+00  0.00000000E+00  0.00000000E+00
  0.00000000E+00  0.00000000E+00  0.00000000E+00
  0.00000000E+00  0.00000000E+00  0.00000000E+00
  0.00000000E+00  0.00000000E+00  0.00000000E+00
  0.00000000E+00  0.00000000E+00  0.00000000E+00
  0.00000000E+00  0.00000000E+00  0.00000000E+00
  0.00000000E+00  0.00000000E+00  0.00000000E+00
  0.00000000E+00  0.00000000E+00  0.00000000E+00
  0.00000000E+00  0.00000000E+00  0.00000000E+00
  0.00000000E+00  0.00000000E+00  0.00000000E+00
  0.00000000E+00  0.00000000E+00  0.00000000E+00
  0.00000000E+00  0.00000000E+00  0.00000000E+00
  0.00000000E+00  0.00000000E+00  0.00000000E+00
  0.00000000E+00  0.00000000E+00  0.00000000E+00
  0.00000000E+00  0.00000000E+00  0.00000000E+00
  0.00000000E+00  0.00000000E+00  0.00000000E+00
  0.00000000E+00  0.00000000E+00  0.00000000E+00
  0.00000000E+00  0.00000000E+00  0.00000000E+00
  0.00000000E+00  0.00000000E+00  0.00000000E+00
  0.00000000E+00  0.00000000E+00  0.00000000E+00
  0.00000000E+00  0.00000000E+00  0.00000000E+00
  0.00000000E+00  0.00000000E+00  0.00000000E+00
  0.00000000E+00  0.00000000E+00  0.00000000E+00
  0.00000000E+00  0.00000000E+00  0.00000000E+00
  0.00000000E+00  0.00000000E+00  0.00000000E+00
  0.00000000E+00  0.00000000E+00  0.00000000E+00
  0.00000000E+00  0.00000000E+00  0.00000000E+00
  0.00000000E+00  0.00000000E+00  0.00000000E+00
  0.00000000E+00  0.00000000E+00  0.00000000E+00
  0.00000000E+00  0.00000000E+00  0.00000000E+00
  0.00000000E+00  0.00000000E+00  0.00000000E+00
  0.00000000E+00  0.00000000E+00  0.00000000E+00
  0.00000000E+00  0.00000000E+00  0.00000000E+00
  0.00000000E+00  0.00000000E+00  0.00000000E+00
  0.00000000E+00  0.00000000E+00  0.00000000E+00
  0.00000000E+00  0.00000000E+00  0.00000000E+00
  0.00000000E+00  0.00000000E+00  0.00000000E+00
  0.00000000E+00  0.00000000E+00  0.00000000E+00
  0.00000000E+00  0.00000000E+00  0.00000000E+00
  0.00000000E+00  0.00000000E+00  0.00000000E+00
  0.00000000E+00  0.00000000E+00  0.00000000E+00
  0.00000000E+00  0.00000000E+00  0.00000000E+00
