Repeated-UnitCell:     3    3    1      
   1.00000000000000     
    10.5605211257999994    0.0000000000000000    0.0000000000000000
     0.0000000000000000   10.5605220795000001    0.0000000000000000
     0.0000000000000000    0.0000000000000000   21.7057113647000008
   Zr   Si   Se
    17    18    18
Direct
  0.1674491990574967 -0.0007825290574988  0.6011989073697486
  0.5000000000000000 -0.0055575921065860  0.6015362051042362
  0.8325508799424992 -0.0007825290574988  0.6011989073697486
  0.1674491990574967  0.3341158620574975  0.6011989073697486
  0.5000000000000000  0.3388909251065848  0.6015362051042362
  0.8325508799424992  0.3341158620574975  0.6011989073697486
  0.1722242621065839  0.6666666670000012  0.6015362051042362
  0.8277758168934118  0.6666666670000012  0.6015362051042362
 -0.0000000000000000  0.1666666220000010  0.3999894933089872
  0.3335783889200032  0.1666666220000010  0.3999138634943719
  0.6664215210799965  0.1666666220000010  0.3999138634943719
 -0.0000000000000000  0.5002450709200020  0.3999138634943719
  0.3339361088290214  0.5006027908290203  0.3999916537046486
  0.6660638011709783  0.5006027908290203  0.3999916537046486
 -0.0000000000000000  0.8330882170799966  0.3999138634943719
  0.3339361088290214  0.8327304971709784  0.3999916537046486
  0.6660638011709783  0.8327304971709784  0.3999916537046486
 -0.0000000000000000 -0.0008800202050745  0.4997937148642311
  0.3339565485896934 -0.0001357368361038  0.5001364365850964
  0.6660434744103050 -0.0001357368361038  0.5001364365850964
 -0.0000000000000000  0.3342133532050732  0.4997937148642311
  0.3339565485896934  0.3334690698361025  0.5001364365850964
  0.6660434744103050  0.3334690698361025  0.5001364365850964
 -0.0000000000000000  0.6666666670000012  0.5004342609693996
  0.3359053478349726  0.6666666670000012  0.5006845089487926
  0.6640946751650260  0.6666666670000012  0.5006845089487926
  0.1675466792050750  0.1666666670000012  0.4997937148642311
  0.5000000000000000  0.1666666670000012  0.5004342609693996
  0.8324532977949266  0.1666666670000012  0.4997937148642311
  0.1668023958361043  0.5006232075896939  0.5001364365850964
  0.5000000000000000  0.5025720068349729  0.5006845089487926
  0.8331975811638973  0.5006232075896939  0.5001364365850964
  0.1668023958361043  0.8327101254103049  0.5001364365850964
  0.5000000000000000  0.8307613261650258  0.5006845089487926
  0.8331975811638973  0.8327101254103049  0.5001364365850964
 -0.0000000000000000  0.1666666670000012  0.6543953051163804
  0.3349174719819867  0.1666666670000012  0.6531984030996689
  0.6650825510180116  0.1666666670000012  0.6531984030996689
 -0.0000000000000000  0.5015841309819872  0.6531984030996689
  0.3305427291789722  0.4972093881789727  0.6520971035210605
  0.6694572938210263  0.4972093881789727  0.6520971035210605
 -0.0000000000000000  0.8317492020180115  0.6531984030996689
  0.3305427291789722  0.8361239448210261  0.6520971035210605
  0.6694572938210263  0.8361239448210261  0.6520971035210605
  0.1667825550628416 -0.0001158850628437  0.3459231531229740
  0.5000000000000000  0.0006263144483102  0.3451370598261426
  0.8332174329371574 -0.0001158850628437  0.3459231531229740
  0.1667825550628416  0.3334492180628426  0.3459231531229740
  0.5000000000000000  0.3327070185516887  0.3451370598261426
  0.8332174329371574  0.3334492180628426  0.3459231531229740
  0.1660403555516877  0.6666666670000012  0.3451370598261426
  0.5000000000000000  0.6666666670000012  0.3459504897316526
  0.8339596324483114  0.6666666670000012  0.3451370598261426
 
  0.00000000E+00  0.00000000E+00  0.00000000E+00
  0.00000000E+00  0.00000000E+00  0.00000000E+00
  0.00000000E+00  0.00000000E+00  0.00000000E+00
  0.00000000E+00  0.00000000E+00  0.00000000E+00
  0.00000000E+00  0.00000000E+00  0.00000000E+00
  0.00000000E+00  0.00000000E+00  0.00000000E+00
  0.00000000E+00  0.00000000E+00  0.00000000E+00
  0.00000000E+00  0.00000000E+00  0.00000000E+00
  0.00000000E+00  0.00000000E+00  0.00000000E+00
  0.00000000E+00  0.00000000E+00  0.00000000E+00
  0.00000000E+00  0.00000000E+00  0.00000000E+00
  0.00000000E+00  0.00000000E+00  0.00000000E+00
  0.00000000E+00  0.00000000E+00  0.00000000E+00
  0.00000000E+00  0.00000000E+00  0.00000000E+00
  0.00000000E+00  0.00000000E+00  0.00000000E+00
  0.00000000E+00  0.00000000E+00  0.00000000E+00
  0.00000000E+00  0.00000000E+00  0.00000000E+00
  0.00000000E+00  0.00000000E+00  0.00000000E+00
  0.00000000E+00  0.00000000E+00  0.00000000E+00
  0.00000000E+00  0.00000000E+00  0.00000000E+00
  0.00000000E+00  0.00000000E+00  0.00000000E+00
  0.00000000E+00  0.00000000E+00  0.00000000E+00
  0.00000000E+00  0.00000000E+00  0.00000000E+00
  0.00000000E+00  0.00000000E+00  0.00000000E+00
  0.00000000E+00  0.00000000E+00  0.00000000E+00
  0.00000000E+00  0.00000000E+00  0.00000000E+00
  0.00000000E+00  0.00000000E+00  0.00000000E+00
  0.00000000E+00  0.00000000E+00  0.00000000E+00
  0.00000000E+00  0.00000000E+00  0.00000000E+00
  0.00000000E+00  0.00000000E+00  0.00000000E+00
  0.00000000E+00  0.00000000E+00  0.00000000E+00
  0.00000000E+00  0.00000000E+00  0.00000000E+00
  0.00000000E+00  0.00000000E+00  0.00000000E+00
  0.00000000E+00  0.00000000E+00  0.00000000E+00
  0.00000000E+00  0.00000000E+00  0.00000000E+00
  0.00000000E+00  0.00000000E+00  0.00000000E+00
  0.00000000E+00  0.00000000E+00  0.00000000E+00
  0.00000000E+00  0.00000000E+00  0.00000000E+00
  0.00000000E+00  0.00000000E+00  0.00000000E+00
  0.00000000E+00  0.00000000E+00  0.00000000E+00
  0.00000000E+00  0.00000000E+00  0.00000000E+00
  0.00000000E+00  0.00000000E+00  0.00000000E+00
  0.00000000E+00  0.00000000E+00  0.00000000E+00
  0.00000000E+00  0.00000000E+00  0.00000000E+00
  0.00000000E+00  0.00000000E+00  0.00000000E+00
  0.00000000E+00  0.00000000E+00  0.00000000E+00
  0.00000000E+00  0.00000000E+00  0.00000000E+00
  0.00000000E+00  0.00000000E+00  0.00000000E+00
  0.00000000E+00  0.00000000E+00  0.00000000E+00
  0.00000000E+00  0.00000000E+00  0.00000000E+00
  0.00000000E+00  0.00000000E+00  0.00000000E+00
  0.00000000E+00  0.00000000E+00  0.00000000E+00
  0.00000000E+00  0.00000000E+00  0.00000000E+00
