CONTCAR\(8)                             
   1.00000000000000     
    11.2875003814999992    0.0000000000000000    0.0000000000000000
    -5.6437736758000003   10.4440391513000002    0.0000000000000000
     0.0000000000000000    0.0000000000000000   21.6142997741999991
   Y    C    Br   O    H 
    18    18    18     2     1
Direct
  0.2014329438297200  0.0684342369710109  0.5664061065714828
  0.1176576942103025  0.2345587501357620  0.4314870710509307
  0.5343146183596605  0.0684796751712178  0.5664342171607893
  0.4509475411577966  0.2347659743668277  0.4315615746039168
  0.8677231146858432  0.0682953207757150  0.5662811990613338
  0.7840578679330006  0.2342250372157618  0.4314591118228009
  0.2016100553471165  0.4019709790199589  0.5664584414506336
  0.1176031912481136  0.5678477554550958  0.4312888530195744
  0.5345984002682569  0.4017653231890253  0.5670107356501635
  0.4508470134213035  0.5679576424386681  0.4313615676572751
  0.8678486187551422  0.4019977911555073  0.5662563204633134
  0.7841859449897501  0.5678338939530677  0.4313135116814857
  0.2010513002514381  0.7349356172497267  0.5662129793540360
  0.1175636145633625  0.9013356115709794  0.4313305381298980
  0.5341858980859067  0.7344134345269591  0.5664399572401932
  0.4507857874212037  0.9012331096244707  0.4313626533818013
  0.8674367571155970  0.7345628569100195  0.5662393317555015
  0.7839903181128618  0.9009354250264687  0.4313976696248948
  0.2997792291806260  0.2654515502779941  0.5162600061550869
  0.0190792758963980  0.0374602521037569  0.4813881261932224
  0.6330004038173869  0.2653678468589877  0.5161942525529691
  0.3524095292475141  0.0375257586994925  0.4813521546566636
  0.9662930644368373  0.2651998792522384  0.5160926908179297
  0.6853735583878449  0.0371467456416970  0.4814065062892621
  0.2995886468236440  0.5986847606850728  0.5161401581553433
  0.0191276183617658  0.3708416564892793  0.4813742876344859
  0.6328172331034356  0.5984676263885946  0.5162953942152907
  0.3526441472587900  0.3710018669563829  0.4814758723034876
  0.9664244097680899  0.5987268662768342  0.5159843996276788
  0.6856266122510782  0.3708484341199718  0.4813728579518194
  0.2995707296641139  0.9318475085519616  0.5160681268077455
  0.0190529852071599  0.7042053613366543  0.4811711135148561
  0.6327213772757614  0.9316616874663982  0.5162651597713501
  0.3523325586259157  0.7041261221339401  0.4812692701749443
  0.9661545364344207  0.9318872917128342  0.5161770235602288
  0.6853683215278650  0.7036828897975256  0.4812570591482137
  0.0870064389360735  0.1735496049173900  0.6531556334486082
  0.2315922595775232  0.1293740377785333  0.3442952657634577
  0.4201792826737802  0.1731552309508828  0.6527402308561060
  0.5647176285476763  0.1296188219425301  0.3443382950266290
  0.7541011120603905  0.1742759833461806  0.6531432937870176
  0.8982929237268119  0.1289812531719451  0.3444723025093942
  0.0870672816232574  0.5070378460244774  0.6531857582035271
  0.2314807677349033  0.4624709430434603  0.3442410814030846
  0.4205390677511623  0.5076287197999984  0.6529396486078566
  0.5648041361475300  0.4626915419331399  0.3442707742479562
  0.7551662196123763  0.5083492008387207  0.6525313045772272
  0.8981914296507303  0.4622378226683151  0.3443734508790402
  0.0868740648094538  0.8401715231452891  0.6531311899289329
  0.2314672559027997  0.7959748462164121  0.3441672217324809
  0.4203932788941703  0.8405262943751367  0.6532085704327592
  0.5647750074491695  0.7961566900748028  0.3442694896490319
  0.7539939018812313  0.8406815385683999  0.6532480984831888
  0.8982485814367602  0.7959211557636854  0.3442706341833283
  0.5532563071189832  0.3842654626072489  0.7709773239260431
  0.4739603892597957  0.3757536615854803  0.8204733933133395
  0.5310483891803949  0.3852157237421640  0.8568305578303365
 
  0.00000000E+00  0.00000000E+00  0.00000000E+00
  0.00000000E+00  0.00000000E+00  0.00000000E+00
  0.00000000E+00  0.00000000E+00  0.00000000E+00
  0.00000000E+00  0.00000000E+00  0.00000000E+00
  0.00000000E+00  0.00000000E+00  0.00000000E+00
  0.00000000E+00  0.00000000E+00  0.00000000E+00
  0.00000000E+00  0.00000000E+00  0.00000000E+00
  0.00000000E+00  0.00000000E+00  0.00000000E+00
  0.00000000E+00  0.00000000E+00  0.00000000E+00
  0.00000000E+00  0.00000000E+00  0.00000000E+00
  0.00000000E+00  0.00000000E+00  0.00000000E+00
  0.00000000E+00  0.00000000E+00  0.00000000E+00
  0.00000000E+00  0.00000000E+00  0.00000000E+00
  0.00000000E+00  0.00000000E+00  0.00000000E+00
  0.00000000E+00  0.00000000E+00  0.00000000E+00
  0.00000000E+00  0.00000000E+00  0.00000000E+00
  0.00000000E+00  0.00000000E+00  0.00000000E+00
  0.00000000E+00  0.00000000E+00  0.00000000E+00
  0.00000000E+00  0.00000000E+00  0.00000000E+00
  0.00000000E+00  0.00000000E+00  0.00000000E+00
  0.00000000E+00  0.00000000E+00  0.00000000E+00
  0.00000000E+00  0.00000000E+00  0.00000000E+00
  0.00000000E+00  0.00000000E+00  0.00000000E+00
  0.00000000E+00  0.00000000E+00  0.00000000E+00
  0.00000000E+00  0.00000000E+00  0.00000000E+00
  0.00000000E+00  0.00000000E+00  0.00000000E+00
  0.00000000E+00  0.00000000E+00  0.00000000E+00
  0.00000000E+00  0.00000000E+00  0.00000000E+00
  0.00000000E+00  0.00000000E+00  0.00000000E+00
  0.00000000E+00  0.00000000E+00  0.00000000E+00
  0.00000000E+00  0.00000000E+00  0.00000000E+00
  0.00000000E+00  0.00000000E+00  0.00000000E+00
  0.00000000E+00  0.00000000E+00  0.00000000E+00
  0.00000000E+00  0.00000000E+00  0.00000000E+00
  0.00000000E+00  0.00000000E+00  0.00000000E+00
  0.00000000E+00  0.00000000E+00  0.00000000E+00
  0.00000000E+00  0.00000000E+00  0.00000000E+00
  0.00000000E+00  0.00000000E+00  0.00000000E+00
  0.00000000E+00  0.00000000E+00  0.00000000E+00
  0.00000000E+00  0.00000000E+00  0.00000000E+00
  0.00000000E+00  0.00000000E+00  0.00000000E+00
  0.00000000E+00  0.00000000E+00  0.00000000E+00
  0.00000000E+00  0.00000000E+00  0.00000000E+00
  0.00000000E+00  0.00000000E+00  0.00000000E+00
  0.00000000E+00  0.00000000E+00  0.00000000E+00
  0.00000000E+00  0.00000000E+00  0.00000000E+00
  0.00000000E+00  0.00000000E+00  0.00000000E+00
  0.00000000E+00  0.00000000E+00  0.00000000E+00
  0.00000000E+00  0.00000000E+00  0.00000000E+00
  0.00000000E+00  0.00000000E+00  0.00000000E+00
  0.00000000E+00  0.00000000E+00  0.00000000E+00
  0.00000000E+00  0.00000000E+00  0.00000000E+00
  0.00000000E+00  0.00000000E+00  0.00000000E+00
  0.00000000E+00  0.00000000E+00  0.00000000E+00
  0.00000000E+00  0.00000000E+00  0.00000000E+00
  0.00000000E+00  0.00000000E+00  0.00000000E+00
  0.00000000E+00  0.00000000E+00  0.00000000E+00
