CONTCAR\(2)                             
   1.00000000000000     
    11.7923002242999999    0.0000000000000000    0.0000000000000000
     0.0000000000000000   21.3097991942999982    0.0000000000000000
     0.0000000000000000    0.0000000000000000   18.7763004303000010
   V    Ag   P    S    O 
     8     8    16    48     1
Direct
  0.1236735045574310  0.4625281430477488  0.5004909611046711
  0.3786783931721918  0.0355193575494092  0.4989964191139636
  0.6284054991103634  0.4618791180078625  0.5034984018544330
  0.8819470419177051  0.0367363848067806  0.4995843884346778
  0.1189039727610319  0.9628665551561937  0.4991122031588340
  0.3691227608307932  0.5375968908705540  0.5023410566015158
  0.6150632119564060  0.9617503797749286  0.4988398699891592
  0.8759426198752955  0.5343040890509447  0.5023522153143334
  0.3766209743705762  0.2133902560005752  0.5035852827939704
  0.1273574335444116  0.2860788358638596  0.4999889360432793
  0.8762441058432721  0.2127030669636358  0.5008342904680183
  0.6238517579916432  0.2851023450636317  0.5005978151001957
  0.3679641516910048  0.7101887862131230  0.4953739996356974
  0.1220048649818464  0.7860925788750213  0.4895785452866353
  0.8865272853617090  0.7179423752604571  0.4907370113883943
  0.6327179613985278  0.7823637762006217  0.5180671786876433
  0.1233539413465007  0.1240581698726971  0.5603340955311662
  0.3716825052796797  0.3741496224112814  0.5613216227448486
  0.3792738509204132  0.3738967562333300  0.4424855628668342
  0.1307203826802738  0.1255448965063702  0.4412634584204682
  0.6235688940807044  0.1236047045251666  0.5588081547981237
  0.8723958988435103  0.3735404935853524  0.5608929310668740
  0.8787211129927924  0.3739588087385488  0.4418103033754363
  0.6307180646465389  0.1246863054466562  0.4398435080872308
  0.1204487042757871  0.6255052359338573  0.5547689466190172
  0.3660641093682719  0.8728318964933540  0.5573265435243675
  0.3755614303522494  0.8744140251014940  0.4382411155365450
  0.1272075956882599  0.6219944724739426  0.4356095127378680
  0.6299157048626634  0.6217934721514460  0.5693476994805675
  0.8679284261250331  0.8737055055132305  0.5579006994954101
  0.8729997331535048  0.8752718001084810  0.4388285931810822
  0.6277303350422149  0.6253667987823719  0.4504383929295883
  0.4569490331223574  0.4591305861182995  0.5803916215907983
  0.3077182128178937  0.2980611064329699  0.4021244222441513
  0.4559964264341164  0.1137767203175187  0.5825314766809513
  0.2976643281332055  0.1153438394069694  0.4170190876922147
  0.0554602820313180  0.2002969628061849  0.4012514986558607
  0.2032635498571283  0.3844818655547488  0.5839091979268470
  0.0454504123313370  0.3846722878758883  0.4167821133641074
  0.2910370184082585  0.4577900283268139  0.4221472652811715
  0.0416939966531134  0.0405436284996307  0.4189175969754665
  0.2102508485481777  0.0385402255356500  0.5784776735991763
  0.1963800173597877  0.1986202552194503  0.6018461351720802
  0.4458650280565972  0.2991781806007954  0.6018932435452137
  0.9619496669239745  0.4584781288671336  0.5817982629687019
  0.8041345411919243  0.2991029949143861  0.4014689455777939
  0.9559199497127286  0.1135542294252990  0.5842446824747582
  0.7980408477704510  0.1137174741680638  0.4159406551113326
  0.5569640794351156  0.1991652260684030  0.3987929527592440
  0.7054494626391200  0.3839231078012189  0.5863147982710755
  0.5471744551591474  0.3854756288786843  0.4191354067070092
  0.7892116932998064  0.4590782691836480  0.4219235330695315
  0.5401038848514140  0.0397114068206866  0.4186606078058525
  0.7100612937542184  0.0384061782509474  0.5768944650835333
  0.6972506777529347  0.1987363270734766  0.5992254622612064
  0.9470099346030730  0.2983757091078556  0.6004341805740958
  0.4553825495578258  0.9580639967770034  0.5795529047976107
  0.3018680182713965  0.8002197370949703  0.3955223229901560
  0.4464307531628315  0.6053902177971784  0.5853241537424639
  0.2938248531189838  0.6078282436053356  0.4109620797835242
  0.0567987350974048  0.6960550392023870  0.3908345214329010
  0.1989064546242321  0.8832099520591125  0.5807528390375967
  0.0407020796418389  0.8850443237327598  0.4147132966696914
  0.2870223257350558  0.9597968897369104  0.4200977191700282
  0.0370160862896716  0.5368877546471242  0.4192780662329246
  0.2038681733609041  0.5406370625293095  0.5799477228005183
  0.1984912105432077  0.7023259020193623  0.5890972622370666
  0.4388101277034464  0.7985307049802720  0.6000452121699666
  0.9573247060611392  0.9583267218739171  0.5800407981835669
  0.7977551615379886  0.8005745804336669  0.3988544412666094
  0.9534223478212833  0.6187672807046327  0.5799094163575191
  0.7935287248419639  0.6167494676972335  0.4229721082016841
  0.5528566035414189  0.7036981437197245  0.4170284599362782
  0.7003692627099797  0.8849704516028490  0.5828351847027479
  0.5421619293223793  0.8846370617743859  0.4146933797004999
  0.7871508330080178  0.9604668840781159  0.4212556433489918
  0.5401903856518886  0.5421354457286864  0.4268665797075921
  0.7141776039891296  0.5357149359988207  0.5865593930554357
  0.6889035971367330  0.6953355501877356  0.6184677770728139
  0.9397364573452239  0.7980025244097961  0.5977822197820373
  0.4204054220562268  0.6119844127710641  0.6627017508567151
 
  0.00000000E+00  0.00000000E+00  0.00000000E+00
  0.00000000E+00  0.00000000E+00  0.00000000E+00
  0.00000000E+00  0.00000000E+00  0.00000000E+00
  0.00000000E+00  0.00000000E+00  0.00000000E+00
  0.00000000E+00  0.00000000E+00  0.00000000E+00
  0.00000000E+00  0.00000000E+00  0.00000000E+00
  0.00000000E+00  0.00000000E+00  0.00000000E+00
  0.00000000E+00  0.00000000E+00  0.00000000E+00
  0.00000000E+00  0.00000000E+00  0.00000000E+00
  0.00000000E+00  0.00000000E+00  0.00000000E+00
  0.00000000E+00  0.00000000E+00  0.00000000E+00
  0.00000000E+00  0.00000000E+00  0.00000000E+00
  0.00000000E+00  0.00000000E+00  0.00000000E+00
  0.00000000E+00  0.00000000E+00  0.00000000E+00
  0.00000000E+00  0.00000000E+00  0.00000000E+00
  0.00000000E+00  0.00000000E+00  0.00000000E+00
  0.00000000E+00  0.00000000E+00  0.00000000E+00
  0.00000000E+00  0.00000000E+00  0.00000000E+00
  0.00000000E+00  0.00000000E+00  0.00000000E+00
  0.00000000E+00  0.00000000E+00  0.00000000E+00
  0.00000000E+00  0.00000000E+00  0.00000000E+00
  0.00000000E+00  0.00000000E+00  0.00000000E+00
  0.00000000E+00  0.00000000E+00  0.00000000E+00
  0.00000000E+00  0.00000000E+00  0.00000000E+00
  0.00000000E+00  0.00000000E+00  0.00000000E+00
  0.00000000E+00  0.00000000E+00  0.00000000E+00
  0.00000000E+00  0.00000000E+00  0.00000000E+00
  0.00000000E+00  0.00000000E+00  0.00000000E+00
  0.00000000E+00  0.00000000E+00  0.00000000E+00
  0.00000000E+00  0.00000000E+00  0.00000000E+00
  0.00000000E+00  0.00000000E+00  0.00000000E+00
  0.00000000E+00  0.00000000E+00  0.00000000E+00
  0.00000000E+00  0.00000000E+00  0.00000000E+00
  0.00000000E+00  0.00000000E+00  0.00000000E+00
  0.00000000E+00  0.00000000E+00  0.00000000E+00
  0.00000000E+00  0.00000000E+00  0.00000000E+00
  0.00000000E+00  0.00000000E+00  0.00000000E+00
  0.00000000E+00  0.00000000E+00  0.00000000E+00
  0.00000000E+00  0.00000000E+00  0.00000000E+00
  0.00000000E+00  0.00000000E+00  0.00000000E+00
  0.00000000E+00  0.00000000E+00  0.00000000E+00
  0.00000000E+00  0.00000000E+00  0.00000000E+00
  0.00000000E+00  0.00000000E+00  0.00000000E+00
  0.00000000E+00  0.00000000E+00  0.00000000E+00
  0.00000000E+00  0.00000000E+00  0.00000000E+00
  0.00000000E+00  0.00000000E+00  0.00000000E+00
  0.00000000E+00  0.00000000E+00  0.00000000E+00
  0.00000000E+00  0.00000000E+00  0.00000000E+00
  0.00000000E+00  0.00000000E+00  0.00000000E+00
  0.00000000E+00  0.00000000E+00  0.00000000E+00
  0.00000000E+00  0.00000000E+00  0.00000000E+00
  0.00000000E+00  0.00000000E+00  0.00000000E+00
  0.00000000E+00  0.00000000E+00  0.00000000E+00
  0.00000000E+00  0.00000000E+00  0.00000000E+00
  0.00000000E+00  0.00000000E+00  0.00000000E+00
  0.00000000E+00  0.00000000E+00  0.00000000E+00
  0.00000000E+00  0.00000000E+00  0.00000000E+00
  0.00000000E+00  0.00000000E+00  0.00000000E+00
  0.00000000E+00  0.00000000E+00  0.00000000E+00
  0.00000000E+00  0.00000000E+00  0.00000000E+00
  0.00000000E+00  0.00000000E+00  0.00000000E+00
  0.00000000E+00  0.00000000E+00  0.00000000E+00
  0.00000000E+00  0.00000000E+00  0.00000000E+00
  0.00000000E+00  0.00000000E+00  0.00000000E+00
  0.00000000E+00  0.00000000E+00  0.00000000E+00
  0.00000000E+00  0.00000000E+00  0.00000000E+00
  0.00000000E+00  0.00000000E+00  0.00000000E+00
  0.00000000E+00  0.00000000E+00  0.00000000E+00
  0.00000000E+00  0.00000000E+00  0.00000000E+00
  0.00000000E+00  0.00000000E+00  0.00000000E+00
  0.00000000E+00  0.00000000E+00  0.00000000E+00
  0.00000000E+00  0.00000000E+00  0.00000000E+00
  0.00000000E+00  0.00000000E+00  0.00000000E+00
  0.00000000E+00  0.00000000E+00  0.00000000E+00
  0.00000000E+00  0.00000000E+00  0.00000000E+00
  0.00000000E+00  0.00000000E+00  0.00000000E+00
  0.00000000E+00  0.00000000E+00  0.00000000E+00
  0.00000000E+00  0.00000000E+00  0.00000000E+00
  0.00000000E+00  0.00000000E+00  0.00000000E+00
  0.00000000E+00  0.00000000E+00  0.00000000E+00
  0.00000000E+00  0.00000000E+00  0.00000000E+00
