CONTCAR\(2)                             
   1.00000000000000     
    14.0611000061000002    0.0000000000000000    0.0000000000000000
     0.0000000000000000   17.2483997345000013    0.0000000000000000
     0.0000000000000000    0.0000000000000000   18.5618991852000015
   Cu   H    Se   O 
     8    17    16    49
Selective dynamics
Direct
  0.0015504296973603  0.9981302470663422  0.5011830993535042   F   F   F
  0.2471933768610342  0.2475868727374291  0.5033626895048258   F   F   F
  0.4999230012482059  0.9999997154630691  0.4984464909052448   F   F   F
  0.7490648454193760  0.2504378250436758  0.4999215167470226   F   F   F
  0.0000968720602970  0.5008867130218988  0.4979084066117707   F   F   F
  0.2550214669548296  0.7471961486446048  0.5000632834747236   F   F   F
  0.4984204795470291  0.5015399516101127  0.5076160776230338   F   F   F
  0.7487596633095350  0.7510745958788405  0.5026696543876668   F   F   F
  0.3125315702224896  0.0185258945163937  0.4345090044638056   F   F   F
  0.0595018208656271  0.2289440984158944  0.5661264808618043   F   F   F
  0.4350635233286724  0.2779723546821984  0.4411017848245891   F   F   F
  0.1897524874618597  0.4877592025559778  0.5586694907294429   F   F   F
  0.8133124949151735  0.0208212015462266  0.4363088984139551   F   F   F
  0.5627541469448829  0.2291943182337448  0.5630228860092998   F   F   F
  0.9382912692607874  0.2706016882392888  0.4350346916421159   F   F   F
  0.6890826674145600  0.4802047168042307  0.5684842125619127   F   F   F
  0.3095622033829457  0.5208807120376449  0.4259772504331991   F   F   F
  0.0641603776656368  0.7276487983500957  0.5648237410709100   F   F   F
  0.4332793997154454  0.7638117447433359  0.4479442362037318   F   F   F
  0.1913744370436845  0.9755537129056790  0.5649842938573855   F   F   F
  0.8077088905787022  0.5206785042960149  0.4363912755180053   F   F   F
  0.5501185354771110  0.7275299437456724  0.5674036176233486   F   F   F
  0.9399144160798585  0.7708045879809973  0.4372566216271281   F   F   F
  0.6866640399858426  0.9808403735993352  0.5635084941496942   F   F   F
  0.5316563214955394  0.5597178203559707  0.6433044972213793   T   T   T
  0.3209526216230145  0.4113803095201689  0.5561490517035850   F   F   F
  0.0742354726267891  0.3411884449332234  0.4416104520259267   F   F   F
  0.4276794028732240  0.1571708823194697  0.5597146485860449   F   F   F
  0.1780801122413109  0.0904618877943122  0.4408435256961809   F   F   F
  0.8241632411063904  0.4081915048883005  0.5605494176525596   F   F   F
  0.5718705267203106  0.3481194595323061  0.4456578784352772   F   F   F
  0.9258776201519225  0.1563124434573666  0.5590120174168405   F   F   F
  0.6778992222373788  0.0924863524182697  0.4389208043811266   F   F   F
  0.3268871136549905  0.9042583698849995  0.5588442735654837   F   F   F
  0.0764606216783292  0.8410881610872067  0.4417541600925574   F   F   F
  0.4222515663973638  0.6458534149707376  0.5693568995230081   F   F   F
  0.1765173721746933  0.5951403626406417  0.4351798904573485   F   F   F
  0.8208874981531693  0.9082521009418016  0.5609648972003640   F   F   F
  0.5673619472493456  0.8378631200752622  0.4417264695227914   F   F   F
  0.9270265554662345  0.6580753829789714  0.5594643214916530   F   F   F
  0.6743830416340586  0.5942985539419468  0.4445850033727723   F   F   F
  0.1122380582538298  0.2585448061925320  0.4873835416873433   F   F   F
  0.3830198823207382  0.2394616256792901  0.5173471395471481   F   F   F
  0.3635385454278151  0.4800582610462882  0.4965546401196335   F   F   F
  0.2335799589964225  0.1368213961443701  0.5111424193150143   F   F   F
  0.1365385877256386  0.0090392873052565  0.4860619345096353   F   F   F
  0.4798604551455199  0.1107357592402920  0.4878859317596138   F   F   F
  0.2575412874875411  0.3577354117563161  0.4942018775761738   F   F   F
  0.0193767254302912  0.3902277444856281  0.5106708865763636   F   F   F
  0.2755031857026253  0.0464613615372755  0.3958456741330423   F   F   F
  0.0217946588157645  0.2015692090549308  0.6048234984495267   F   F   F
  0.2283727438504144  0.4640913706272372  0.5987216213896005   F   F   F
  0.4704040505912417  0.3077446416973615  0.4027224298719432   F   F   F
  0.6140974242363626  0.2635410355309915  0.4855402383749805   F   F   F
  0.8843483774099354  0.2368332488919407  0.5123986529411653   F   F   F
  0.8653963020783024  0.4886529456872850  0.5137047020304095   F   F   F
  0.7299650645048175  0.1398173035705028  0.5100870349108817   F   F   F
  0.6348144504955400  0.0112553566128710  0.4834224962756437   F   F   F
  0.9839393254840090  0.1088747083217427  0.4904370145863197   F   F   F
  0.7668786678015778  0.3612090970817903  0.4914497291581128   F   F   F
  0.5234240923822782  0.3919233852895090  0.5202724636344982   F   F   F
  0.7774968793444401  0.0483875139047996  0.3967660629084619   F   F   F
  0.5271055468339512  0.2007625411902225  0.6022302827645589   F   F   F
  0.7282654925222971  0.4531816926455505  0.6065202902929698   F   F   F
  0.9757240421753224  0.2985232148612340  0.3966227711373804   F   F   F
  0.1198859265589149  0.7596575815856852  0.4866411179377863   F   F   F
  0.3853662138363774  0.7364664276154329  0.5167075704781396   F   F   F
  0.3652639453853581  0.9859298113300028  0.5124682267200171   F   F   F
  0.2334285249911900  0.6380647979852654  0.5073629251394891   F   F   F
  0.1341676979120976  0.5131037423973410  0.4789776007310138   F   F   F
  0.4701938352646451  0.6081831661960209  0.4899096780474324   F   F   F
  0.2704253244458528  0.8568182587647968  0.4891008404009582   F   F   F
  0.0209639366634704  0.8874376079478239  0.5119648170477404   F   F   F
  0.2719008126920670  0.5510298786627672  0.3886815769165182   F   F   F
  0.0258009118326044  0.7012635349555225  0.6036004671446165   F   F   F
  0.2285699389142621  0.9476945046861687  0.6034935395200378   F   F   F
  0.4685460936046226  0.7907293006506535  0.4046606513761759   F   F   F
  0.6132287740430442  0.7598339069033031  0.4901247910804258   F   F   F
  0.8847882053591576  0.7399573864633950  0.5150887650040019   F   F   F
  0.8662284936843960  0.9875543711718322  0.5146116785006569   F   F   F
  0.7343716084806786  0.6404763873473769  0.5128771613732965   F   F   F
  0.6332226705494222  0.5148633429577600  0.4923024932161866   F   F   F
  0.9809960303640679  0.6116222721313349  0.4885504665728462   F   F   F
  0.7658642999409722  0.8611680343547405  0.4910545777969944   F   F   F
  0.5176962980386008  0.8897359851525266  0.5118824269594811   F   F   F
  0.7690281182917786  0.5477723831664960  0.3981714982015419   F   F   F
  0.5199888752748976  0.6976459176781162  0.6077895761629293   F   F   F
  0.7234985501649405  0.9550164071663758  0.6035145923948519   F   F   F
  0.9786589625919220  0.7962454191522639  0.3979704991316382   F   F   F
  0.4728996941729307  0.5462440493621514  0.6172643352876123   T   T   T
 
  0.00000000E+00  0.00000000E+00  0.00000000E+00
  0.00000000E+00  0.00000000E+00  0.00000000E+00
  0.00000000E+00  0.00000000E+00  0.00000000E+00
  0.00000000E+00  0.00000000E+00  0.00000000E+00
  0.00000000E+00  0.00000000E+00  0.00000000E+00
  0.00000000E+00  0.00000000E+00  0.00000000E+00
  0.00000000E+00  0.00000000E+00  0.00000000E+00
  0.00000000E+00  0.00000000E+00  0.00000000E+00
  0.00000000E+00  0.00000000E+00  0.00000000E+00
  0.00000000E+00  0.00000000E+00  0.00000000E+00
  0.00000000E+00  0.00000000E+00  0.00000000E+00
  0.00000000E+00  0.00000000E+00  0.00000000E+00
  0.00000000E+00  0.00000000E+00  0.00000000E+00
  0.00000000E+00  0.00000000E+00  0.00000000E+00
  0.00000000E+00  0.00000000E+00  0.00000000E+00
  0.00000000E+00  0.00000000E+00  0.00000000E+00
  0.00000000E+00  0.00000000E+00  0.00000000E+00
  0.00000000E+00  0.00000000E+00  0.00000000E+00
  0.00000000E+00  0.00000000E+00  0.00000000E+00
  0.00000000E+00  0.00000000E+00  0.00000000E+00
  0.00000000E+00  0.00000000E+00  0.00000000E+00
  0.00000000E+00  0.00000000E+00  0.00000000E+00
  0.00000000E+00  0.00000000E+00  0.00000000E+00
  0.00000000E+00  0.00000000E+00  0.00000000E+00
  0.00000000E+00  0.00000000E+00  0.00000000E+00
  0.00000000E+00  0.00000000E+00  0.00000000E+00
  0.00000000E+00  0.00000000E+00  0.00000000E+00
  0.00000000E+00  0.00000000E+00  0.00000000E+00
  0.00000000E+00  0.00000000E+00  0.00000000E+00
  0.00000000E+00  0.00000000E+00  0.00000000E+00
  0.00000000E+00  0.00000000E+00  0.00000000E+00
  0.00000000E+00  0.00000000E+00  0.00000000E+00
  0.00000000E+00  0.00000000E+00  0.00000000E+00
  0.00000000E+00  0.00000000E+00  0.00000000E+00
  0.00000000E+00  0.00000000E+00  0.00000000E+00
  0.00000000E+00  0.00000000E+00  0.00000000E+00
  0.00000000E+00  0.00000000E+00  0.00000000E+00
  0.00000000E+00  0.00000000E+00  0.00000000E+00
  0.00000000E+00  0.00000000E+00  0.00000000E+00
  0.00000000E+00  0.00000000E+00  0.00000000E+00
  0.00000000E+00  0.00000000E+00  0.00000000E+00
  0.00000000E+00  0.00000000E+00  0.00000000E+00
  0.00000000E+00  0.00000000E+00  0.00000000E+00
  0.00000000E+00  0.00000000E+00  0.00000000E+00
  0.00000000E+00  0.00000000E+00  0.00000000E+00
  0.00000000E+00  0.00000000E+00  0.00000000E+00
  0.00000000E+00  0.00000000E+00  0.00000000E+00
  0.00000000E+00  0.00000000E+00  0.00000000E+00
  0.00000000E+00  0.00000000E+00  0.00000000E+00
  0.00000000E+00  0.00000000E+00  0.00000000E+00
  0.00000000E+00  0.00000000E+00  0.00000000E+00
  0.00000000E+00  0.00000000E+00  0.00000000E+00
  0.00000000E+00  0.00000000E+00  0.00000000E+00
  0.00000000E+00  0.00000000E+00  0.00000000E+00
  0.00000000E+00  0.00000000E+00  0.00000000E+00
  0.00000000E+00  0.00000000E+00  0.00000000E+00
  0.00000000E+00  0.00000000E+00  0.00000000E+00
  0.00000000E+00  0.00000000E+00  0.00000000E+00
  0.00000000E+00  0.00000000E+00  0.00000000E+00
  0.00000000E+00  0.00000000E+00  0.00000000E+00
  0.00000000E+00  0.00000000E+00  0.00000000E+00
  0.00000000E+00  0.00000000E+00  0.00000000E+00
  0.00000000E+00  0.00000000E+00  0.00000000E+00
  0.00000000E+00  0.00000000E+00  0.00000000E+00
  0.00000000E+00  0.00000000E+00  0.00000000E+00
  0.00000000E+00  0.00000000E+00  0.00000000E+00
  0.00000000E+00  0.00000000E+00  0.00000000E+00
  0.00000000E+00  0.00000000E+00  0.00000000E+00
  0.00000000E+00  0.00000000E+00  0.00000000E+00
  0.00000000E+00  0.00000000E+00  0.00000000E+00
  0.00000000E+00  0.00000000E+00  0.00000000E+00
  0.00000000E+00  0.00000000E+00  0.00000000E+00
  0.00000000E+00  0.00000000E+00  0.00000000E+00
  0.00000000E+00  0.00000000E+00  0.00000000E+00
  0.00000000E+00  0.00000000E+00  0.00000000E+00
  0.00000000E+00  0.00000000E+00  0.00000000E+00
  0.00000000E+00  0.00000000E+00  0.00000000E+00
  0.00000000E+00  0.00000000E+00  0.00000000E+00
  0.00000000E+00  0.00000000E+00  0.00000000E+00
  0.00000000E+00  0.00000000E+00  0.00000000E+00
  0.00000000E+00  0.00000000E+00  0.00000000E+00
  0.00000000E+00  0.00000000E+00  0.00000000E+00
  0.00000000E+00  0.00000000E+00  0.00000000E+00
  0.00000000E+00  0.00000000E+00  0.00000000E+00
  0.00000000E+00  0.00000000E+00  0.00000000E+00
  0.00000000E+00  0.00000000E+00  0.00000000E+00
  0.00000000E+00  0.00000000E+00  0.00000000E+00
  0.00000000E+00  0.00000000E+00  0.00000000E+00
  0.00000000E+00  0.00000000E+00  0.00000000E+00
  0.00000000E+00  0.00000000E+00  0.00000000E+00
