 Ni2 P2 S6                              
   1.00000000000000     
     5.8029169593798384    0.0000000000000000    0.0000000000000000
     2.9014589782609383    5.0257277142862415    0.0000000000000000
     0.0000000000000000    0.0000000000000000   18.0372257663999989
   Ni   P    S 
     2     2     6
Direct
  0.3333011508219457  0.3333972085427348  0.4999999909795889
  0.6666990663651831  0.6666024186456738  0.5000000056790697
  0.9997663749238228  0.0000002593222774  0.5604400975132720
  0.0002335884310867  0.9999998246038828  0.4395599044717926
  0.6539628280329595  0.3457044860135809  0.5843903956690895
  0.0003330262197423  0.3457032984231105  0.4156093466078374
  0.6545765955022276  0.9999992599494405  0.4155478205331207
  0.3454238121613855  0.9999999172301486  0.5844521810730328
  0.9996660036587812  0.6542972760984824  0.5843906622985600
  0.3460375538828799  0.6542960511706823  0.4156095951746224
 
  0.00000000E+00  0.00000000E+00  0.00000000E+00
  0.00000000E+00  0.00000000E+00  0.00000000E+00
  0.00000000E+00  0.00000000E+00  0.00000000E+00
  0.00000000E+00  0.00000000E+00  0.00000000E+00
  0.00000000E+00  0.00000000E+00  0.00000000E+00
  0.00000000E+00  0.00000000E+00  0.00000000E+00
  0.00000000E+00  0.00000000E+00  0.00000000E+00
  0.00000000E+00  0.00000000E+00  0.00000000E+00
  0.00000000E+00  0.00000000E+00  0.00000000E+00
  0.00000000E+00  0.00000000E+00  0.00000000E+00
