Layer                                   
   1.00000000000000     
     6.6606001853999999    0.0000000000000000    0.0000000000000000
    -3.3303000926999999    5.7682489649999997    0.0000000000000000
     0.0000000000000000    0.0000000000000000   17.5000000000000000
   H    O    Ta   S 
    20    18     4     8
Direct
  0.3554855477906365  0.5800180581433204  0.2732365837251067
  0.2980312172961119  0.7609729879616252  0.2352995834276815
  0.7474147859797242  0.0803432664686042  0.3582395079086432
  0.6348348198113498  0.9196619120447785  0.2785866953633040
  0.1594498712469596  0.3419831235133083  0.5437163608087047
  0.1494778128297777  0.4991369623973465  0.6136239300642691
  0.3181320982772586  0.2137854066519567  0.2854209265573551
  0.0696099486269345  0.1937381365810109  0.2657376080525754
  0.5477953484147005  0.6245031980160949  0.5645395923583516
  0.6373738376266628  0.5712492666758932  0.4888586754567263
  0.9312913633416806  0.7263819126857985  0.3512414099696597
  0.0444440213974581  0.7833961629137878  0.4324935068490267
  0.6427122403231197  0.3779086283793338  0.5646830681682917
  0.6298948045033669  0.1929981404502317  0.6207639321494934
  0.8251669089043204  0.0032211413113944  0.4518025454966451
  0.7239119914443081  0.1429018372993306  0.5023166828242642
  0.3226622594548119  0.1196049367839074  0.5554653520423930
  0.0533428192192403  0.9275723575884716  0.5597651394477065
  0.7380510983852493  0.4841428447060339  0.2347105411871908
  0.8094018061931414  0.3231134840954805  0.2870521846303556
  0.3723801090105306  0.7407708366819621  0.2844202628579406
  0.7722516021775578  0.0864951928684196  0.3014442629262215
  0.2209643599422509  0.5002819683991828  0.5649999231123700
  0.2350912060298522  0.2417681322093474  0.2447287890840046
  0.6820705983526428  0.6344317512159444  0.5398266178493227
  0.9744611412140053  0.8328612231390499  0.3952643955175028
  0.6025793080472428  0.2129201571374707  0.5685552162778372
  0.7488348336218040  0.0883422746977897  0.4494151005128139
  0.1614881548143260  0.0755244267071733  0.5347210616157825
  0.7959734104491739  0.4773844285613261  0.2800199068586876
  0.9437171478831282  0.9591377048860285  0.0539154998197195
  0.9120775843911043  0.9903617780796106  0.7012953306163993
  0.4384971998654670  0.9711182157208088  0.0541148417633029
  0.4471951073201934  0.9588941595261835  0.7025963119916061
  0.9311646941920103  0.5033143126387147  0.0582115385972036
  0.9616400950312540  0.5172830379980775  0.7035110987803069
  0.4789682366429037  0.5101817331071908  0.0480147442222765
  0.4422187335455203  0.4771217948874310  0.7051848268016818
  0.2728872425391012  0.1564326194381664  0.8773969079944838
  0.7895977854051915  0.1634803082067971  0.8808686042428898
  0.2651960875188623  0.6616313763517445  0.8794517305638876
  0.7792676910811135  0.6520391121780812  0.8767699503817900
  0.4523052911145239  0.0065241045909932  0.9705384111883815
  0.9463780256888935  0.9884715302506647  0.7851374755576711
  0.9413943943006876  0.9791825394663057  0.9690366268577310
  0.4491241323469456  0.9798583759466788  0.7889947293626839
  0.4460747784416492  0.4763553699856324  0.9641457235148577
  0.9514521341801815  0.4922165035128064  0.7898786933528030
  0.9551260179578074  0.5055480740409983  0.9731622917318771
  0.4422529683902663  0.5021937539704533  0.7898419974674514
 
 -0.34421940E-02  0.14097219E-01 -0.13163360E-01
  0.10494322E-01 -0.72223928E-02 -0.81170317E-02
 -0.62047777E-02  0.69491421E-02  0.96076320E-02
 -0.17964656E-02 -0.21549387E-01  0.21150015E-02
 -0.80298062E-03 -0.24197194E-01 -0.83775875E-03
  0.43559914E-02 -0.67853449E-02  0.48506843E-02
 -0.29028275E-01  0.68809032E-02 -0.28616330E-02
 -0.18402240E-01 -0.90565017E-02 -0.30584880E-01
 -0.20081393E-01  0.31521850E-01  0.19357554E-01
  0.68817718E-02 -0.29167572E-02  0.12634436E-01
  0.43944406E-02 -0.31674414E-01  0.13990796E-02
  0.37421804E-02 -0.28275760E-01  0.16396257E-02
  0.33677606E-02  0.43661794E-01 -0.22606970E-03
  0.21809021E-02 -0.13570668E-02  0.57022701E-01
  0.11728623E-01 -0.98991554E-02  0.44600771E-02
  0.34949605E-02 -0.19341383E-01 -0.12592895E-01
  0.10603416E-01  0.32672856E-01  0.29989647E-01
  0.24519917E-01 -0.93829826E-02  0.92782357E-02
 -0.14336737E-01  0.16218409E-01 -0.19725571E-01
 -0.43380554E-01 -0.20337931E-02 -0.21109121E-01
 -0.11929118E-02 -0.11603776E-02 -0.18040604E-02
 -0.81209223E-02 -0.14486815E-03 -0.54535107E-02
  0.49291106E-02 -0.82490241E-03 -0.58249563E-03
 -0.58323012E-02  0.22219632E-02 -0.29071673E-02
  0.70956265E-02  0.48314718E-02  0.28926219E-02
  0.52023516E-02  0.13299332E-02 -0.51690929E-02
  0.51796440E-02 -0.31776621E-02 -0.97330617E-03
 -0.72382403E-02 -0.49306060E-02 -0.63538647E-03
 -0.23125114E-03  0.61905318E-02 -0.75639288E-02
 -0.39661229E-02  0.48766459E-02  0.68813445E-02
 -0.40085244E-02 -0.41070436E-02  0.26931565E-02
 -0.95592336E-03 -0.91476657E-03  0.13011858E-02
 -0.28270719E-02  0.21752425E-02  0.20801145E-02
  0.53776007E-03  0.66706019E-03  0.47684495E-02
 -0.42656950E-02 -0.34427846E-02  0.51992096E-02
  0.75790898E-04 -0.30031303E-02  0.21816795E-02
  0.21995689E-02  0.50359300E-02  0.54191342E-02
  0.76085984E-03  0.59214039E-02 -0.26727245E-02
  0.46343322E-03  0.42710944E-03  0.22210642E-02
 -0.38656696E-03  0.48028567E-03  0.16477146E-02
  0.60027763E-03 -0.72660310E-03 -0.30144329E-03
  0.28727510E-03 -0.13280143E-03 -0.35779617E-02
  0.19594877E-02 -0.11321293E-02 -0.24420664E-02
 -0.21435251E-02  0.22702891E-02 -0.34991906E-02
 -0.27913653E-02  0.19243533E-02 -0.19655566E-03
 -0.14001086E-02 -0.36578520E-02  0.40061370E-02
  0.39314129E-02  0.31402952E-02 -0.34869804E-02
 -0.12013154E-02 -0.64793733E-02  0.79445278E-04
  0.59960019E-02  0.25366261E-02  0.17053271E-02
 -0.18640394E-02 -0.39567434E-02 -0.27318092E-03
 
           1
   1.00000000000000     
  0.26467887E+03  0.34007060E+00 -0.24497127E-17  0.00000000E+00
  0.35619072E+00  0.58246199E+00  0.27248439E+00
  0.29898075E+00  0.75972089E+00  0.23483575E+00
  0.74708558E+00  0.81547989E-01  0.35878852E+00
  0.63269717E+00  0.91592605E+00  0.27870755E+00
  0.15723187E+00  0.33778823E+00  0.54366849E+00
  0.14954364E+00  0.49796064E+00  0.61390111E+00
  0.31437034E+00  0.21497830E+00  0.28525740E+00
  0.66062068E-01  0.19216808E+00  0.26398990E+00
  0.54751275E+00  0.62996792E+00  0.56564574E+00
  0.63815421E+00  0.57074361E+00  0.48958064E+00
  0.92920555E+00  0.72089075E+00  0.35132136E+00
  0.42554877E-01  0.77849420E+00  0.43258720E+00
  0.64700253E+00  0.38547796E+00  0.56467015E+00
  0.63010461E+00  0.19276288E+00  0.62402237E+00
  0.82606973E+00  0.15049957E-02  0.45205741E+00
  0.72276017E+00  0.13954876E+00  0.50159709E+00
  0.32708635E+00  0.12526920E+00  0.55717905E+00
  0.56210826E-01  0.92594570E+00  0.56029532E+00
  0.73730446E+00  0.48695451E+00  0.23358337E+00
  0.80271250E+00  0.32276090E+00  0.28584595E+00
  0.37210043E+00  0.74056967E+00  0.28431717E+00
  0.77101980E+00  0.86470078E-01  0.30113263E+00
  0.22163290E+00  0.50013896E+00  0.56496664E+00
  0.23440817E+00  0.24215334E+00  0.24456267E+00
  0.68355471E+00  0.63526935E+00  0.53999191E+00
  0.97535749E+00  0.83309178E+00  0.39496902E+00
  0.60308152E+00  0.21236927E+00  0.56849960E+00
  0.74732072E+00  0.87487491E-01  0.44937879E+00
  0.16199004E+00  0.76597635E-01  0.53428884E+00
  0.79580066E+00  0.47822986E+00  0.28041313E+00
  0.94275932E+00  0.95842570E+00  0.54069394E-01
  0.91185477E+00  0.99020319E+00  0.70136968E+00
  0.43826131E+00  0.97149532E+00  0.54233705E-01
  0.44733367E+00  0.95900980E+00  0.70286879E+00
  0.93022583E+00  0.50271746E+00  0.58508636E-01
  0.96139116E+00  0.51676241E+00  0.70363577E+00
  0.47973499E+00  0.51105478E+00  0.48324409E-01
  0.44284624E+00  0.47814835E+00  0.70503210E+00
  0.27299384E+00  0.15650666E+00  0.87752383E+00
  0.78958138E+00  0.16356357E+00  0.88096276E+00
  0.26522323E+00  0.66150541E+00  0.87943451E+00
  0.77929931E+00  0.65201609E+00  0.87656550E+00
  0.45250135E+00  0.63278355E-02  0.97039886E+00
  0.94625300E+00  0.98886511E+00  0.78493752E+00
  0.94114211E+00  0.97951615E+00  0.96902540E+00
  0.44859686E+00  0.97922424E+00  0.78922365E+00
  0.44693723E+00  0.47689978E+00  0.96394647E+00
  0.95071013E+00  0.49109322E+00  0.78988323E+00
  0.95624612E+00  0.50598783E+00  0.97325974E+00
  0.44163013E+00  0.50150780E+00  0.78982639E+00
  0.70677925E-03  0.14986803E-02 -0.85201887E-03
  0.28754767E-03 -0.11926534E-02 -0.93415738E-03
 -0.29098293E-03  0.12267120E-02  0.53806553E-03
 -0.26647267E-02 -0.51005032E-02 -0.17573821E-03
 -0.20897110E-02 -0.40711750E-02 -0.22123394E-03
  0.24712594E-03 -0.82531030E-03  0.27259770E-03
 -0.35357932E-02  0.13269742E-02 -0.19571303E-03
 -0.48498695E-02 -0.17169363E-02 -0.16533366E-02
  0.51678811E-03  0.55410496E-02  0.10917660E-02
  0.94663620E-03 -0.67270205E-03  0.82847200E-03
 -0.20460838E-02 -0.53543487E-02  0.65835469E-04
 -0.23264368E-02 -0.46224088E-02 -0.81324981E-04
  0.39317846E-02  0.69336392E-02  0.22597955E-04
  0.11829747E-03  0.89436178E-04  0.29649937E-02
 -0.10695556E-03 -0.68322812E-03  0.96598867E-04
 -0.11053748E-02 -0.28954954E-02 -0.44436315E-03
  0.50693152E-02  0.60046295E-02  0.18252529E-02
  0.28009126E-02 -0.19335465E-02  0.57451779E-03
  0.80715497E-03  0.28314134E-02  0.15692808E-03
 -0.61423548E-02 -0.92361194E-03 -0.10267626E-02
 -0.23783705E-03 -0.12298601E-03 -0.61136132E-04
 -0.12175634E-02  0.18578516E-04 -0.29572773E-03
  0.64949859E-03 -0.17245805E-03 -0.23923528E-04
 -0.60968898E-03  0.38554168E-03 -0.17459287E-03
  0.14264809E-02  0.84151219E-03  0.16125029E-03
  0.92641502E-03  0.21245707E-03 -0.27966733E-03
  0.51465482E-03 -0.54538084E-03 -0.42332430E-04
 -0.14538309E-02 -0.93684679E-03 -0.43498907E-04
  0.47194527E-03  0.10776508E-02 -0.44264835E-03
 -0.29365299E-03  0.88166993E-03  0.30434860E-03
 -0.96251076E-03 -0.72577275E-03  0.15874186E-03
 -0.23535362E-03 -0.16060900E-03  0.77085270E-04
 -0.23822975E-03  0.36722640E-03  0.11016079E-03
  0.13649761E-03  0.10509448E-03  0.25431705E-03
 -0.94909814E-03 -0.59237779E-03  0.30423472E-03
 -0.23866901E-03 -0.49989807E-03  0.11033675E-03
  0.78627475E-03  0.89002859E-03  0.30478496E-03
  0.63022761E-03  0.10190948E-02 -0.15205103E-03
  0.10656060E-03  0.76404017E-04  0.12690411E-03
 -0.14845140E-04  0.85055576E-04  0.94028132E-04
  0.22905965E-04 -0.12560853E-03 -0.17391579E-04
  0.30926678E-04 -0.24493732E-04 -0.20417862E-03
  0.19848190E-03 -0.18390170E-03 -0.12856043E-03
 -0.11772223E-03  0.39322909E-03 -0.20740365E-03
 -0.25417198E-03  0.32712154E-03 -0.92634229E-05
 -0.52814556E-03 -0.64824855E-03  0.23178316E-03
  0.85480550E-03  0.51618206E-03 -0.19902254E-03
 -0.73475967E-03 -0.11266554E-02  0.13665033E-04
  0.11359590E-02  0.45257415E-03  0.97158708E-04
 -0.62616310E-03 -0.67198720E-03 -0.18292373E-04
  0.00000000E+00  0.00000000E+00  0.00000000E+00
  0.00000000E+00  0.00000000E+00  0.00000000E+00
  0.00000000E+00  0.00000000E+00  0.00000000E+00
  0.00000000E+00  0.00000000E+00  0.00000000E+00
  0.00000000E+00  0.00000000E+00  0.00000000E+00
  0.00000000E+00  0.00000000E+00  0.00000000E+00
  0.00000000E+00  0.00000000E+00  0.00000000E+00
  0.00000000E+00  0.00000000E+00  0.00000000E+00
  0.00000000E+00  0.00000000E+00  0.00000000E+00
  0.00000000E+00  0.00000000E+00  0.00000000E+00
  0.00000000E+00  0.00000000E+00  0.00000000E+00
  0.00000000E+00  0.00000000E+00  0.00000000E+00
  0.00000000E+00  0.00000000E+00  0.00000000E+00
  0.00000000E+00  0.00000000E+00  0.00000000E+00
  0.00000000E+00  0.00000000E+00  0.00000000E+00
  0.00000000E+00  0.00000000E+00  0.00000000E+00
  0.00000000E+00  0.00000000E+00  0.00000000E+00
  0.00000000E+00  0.00000000E+00  0.00000000E+00
  0.00000000E+00  0.00000000E+00  0.00000000E+00
  0.00000000E+00  0.00000000E+00  0.00000000E+00
  0.00000000E+00  0.00000000E+00  0.00000000E+00
  0.00000000E+00  0.00000000E+00  0.00000000E+00
  0.00000000E+00  0.00000000E+00  0.00000000E+00
  0.00000000E+00  0.00000000E+00  0.00000000E+00
  0.00000000E+00  0.00000000E+00  0.00000000E+00
  0.00000000E+00  0.00000000E+00  0.00000000E+00
  0.00000000E+00  0.00000000E+00  0.00000000E+00
  0.00000000E+00  0.00000000E+00  0.00000000E+00
  0.00000000E+00  0.00000000E+00  0.00000000E+00
  0.00000000E+00  0.00000000E+00  0.00000000E+00
  0.00000000E+00  0.00000000E+00  0.00000000E+00
  0.00000000E+00  0.00000000E+00  0.00000000E+00
  0.00000000E+00  0.00000000E+00  0.00000000E+00
  0.00000000E+00  0.00000000E+00  0.00000000E+00
  0.00000000E+00  0.00000000E+00  0.00000000E+00
  0.00000000E+00  0.00000000E+00  0.00000000E+00
  0.00000000E+00  0.00000000E+00  0.00000000E+00
  0.00000000E+00  0.00000000E+00  0.00000000E+00
  0.00000000E+00  0.00000000E+00  0.00000000E+00
  0.00000000E+00  0.00000000E+00  0.00000000E+00
  0.00000000E+00  0.00000000E+00  0.00000000E+00
  0.00000000E+00  0.00000000E+00  0.00000000E+00
  0.00000000E+00  0.00000000E+00  0.00000000E+00
  0.00000000E+00  0.00000000E+00  0.00000000E+00
  0.00000000E+00  0.00000000E+00  0.00000000E+00
  0.00000000E+00  0.00000000E+00  0.00000000E+00
  0.00000000E+00  0.00000000E+00  0.00000000E+00
  0.00000000E+00  0.00000000E+00  0.00000000E+00
  0.00000000E+00  0.00000000E+00  0.00000000E+00
  0.00000000E+00  0.00000000E+00  0.00000000E+00
