CONTCAR\(6)                             
   1.00000000000000     
    13.8635997771999993    0.0000000000000000    0.0000000000000000
     6.9317998885999996   12.0062295950000006    0.0000000000000000
     0.0000000000000000    0.0000000000000000   20.7936000824000011
   Sc   Cl   O 
    32    32     1
Direct
  0.9990860007776085  0.9990860007776085  0.5565606214743629
  0.0832674750809659  0.0832674780809626  0.4355433950779600
  0.2499507778336378  0.0000984443327245  0.5564642110730974
  0.3334550378380712  0.0832674780809626  0.4355433950779600
  0.5018279984447903  0.9990860007776085  0.5565606214743629
  0.5829274063172166  0.0839933836015674  0.4365174150842487
  0.7495221376283094  0.0009556567433766  0.5579844687859984
  0.8330692350812188  0.0839933836015674  0.4365174150842487
  0.0000984463327247  0.2499507738336375  0.5564642110730974
  0.0832674890809599  0.3334550468380684  0.4355433950779600
  0.2499507628336401  0.2499507738336375  0.5564642110730974
  0.3330740722994041  0.3330740672994073  0.4355572739804511
  0.4981353741291465  0.2495995515941278  0.5573124911456349
  0.5819321044150856  0.3361258161698313  0.4373324649768842
  0.7522650742767257  0.2495995515941278  0.5573124911456349
  0.8338419204011833  0.3330740672994073  0.4355572739804511
  0.9990860047776088  0.5018279904447897  0.5565606214743629
  0.0839933996015688  0.5829273713172102  0.4365174150842487
  0.2495995595941285  0.4981353471291479  0.5573124911456349
  0.3361258261698322  0.5819320554150780  0.4373324649768842
  0.4999999699999975  0.4999999919999993  0.7056070872865520
  0.5819320754150797  0.5819320554150780  0.4373324649768842
  0.7522650932767238  0.4981353471291479  0.5573124911456349
  0.8330692200812211  0.5829273713172102  0.4365174150842487
  0.0009556457433793  0.7495221596283113  0.5579844687859984
  0.0839934186015668  0.8330691620812163  0.4365174150842487
  0.2495995095941315  0.7522650772767224  0.5573124911456349
  0.3330740962994061  0.8338418324011831  0.4355572739804511
  0.4981353441291512  0.7522650772767224  0.5573124911456349
  0.5829274103172098  0.8330691620812163  0.4365174150842487
  0.7495221256283155  0.7495221596283113  0.5579844687859984
  0.8333299649999972  0.8333299569999966  0.4373375325627646
  0.1666699940000029  0.1666699869999988  0.3568649611933052
  0.1666699940000029  0.1666699869999988  0.6351975338711537
  0.4173168308700596  0.1662367340651986  0.3569505745966575
  0.4163184607902997  0.1643444281747159  0.6353495222353127
  0.6656685396809859  0.1686728956380390  0.3585908362127082
  0.6653216618100046  0.1693666513799950  0.6361930068683390
  0.9164564440647489  0.1662367340651986  0.3569505745966575
  0.9193471200349849  0.1643444281747159  0.6353495222353127
  0.1662367600652008  0.4173168198700551  0.3569505745966575
  0.1643444541747180  0.4163184497902952  0.6353495222353127
  0.4168883722121016  0.4168883762121019  0.3574855641458682
  0.4083428749957624  0.4083428789957628  0.6418730992575654
  0.6662332265757870  0.4168883762121019  0.3574855641458682
  0.6833242210084723  0.4083428789957628  0.6418730992575654
  0.9164564630647469  0.4173168198700551  0.3569505745966575
  0.9193471390349829  0.4163184497902952  0.6353495222353127
  0.1686728866380418  0.6656685636809808  0.3585908362127082
  0.1693666423799978  0.6653216858099995  0.6361930068683390
  0.4168883712121050  0.6662332315757838  0.3574855641458682
  0.4083428739957659  0.6833242260084692  0.6418730992575654
  0.6656684896809818  0.6656685636809808  0.3585908362127082
  0.6653216118100005  0.6653216858099995  0.6361930068683390
  0.9164875907298492  0.6670347925402956  0.3582612181731338
  0.9165577243827933  0.6668945252344132  0.6364776305771210
  0.1662367790651988  0.9164564300647478  0.3569505745966575
  0.1643444731747161  0.9193471060349837  0.6353495222353127
  0.4173168338700563  0.9164564300647478  0.3569505745966575
  0.4163184637902964  0.9193471060349837  0.6353495222353127
  0.6670347375402946  0.9164876267298522  0.3582612181731338
  0.6668944702344122  0.9165577603827891  0.6364776305771210
  0.9164876097298472  0.9164876267298522  0.3582612181731338
  0.9165577433827913  0.9165577603827891  0.6364776305771210
  0.5000400389999982  0.4999799750000022  0.7870010999046632
 
  0.00000000E+00  0.00000000E+00  0.00000000E+00
  0.00000000E+00  0.00000000E+00  0.00000000E+00
  0.00000000E+00  0.00000000E+00  0.00000000E+00
  0.00000000E+00  0.00000000E+00  0.00000000E+00
  0.00000000E+00  0.00000000E+00  0.00000000E+00
  0.00000000E+00  0.00000000E+00  0.00000000E+00
  0.00000000E+00  0.00000000E+00  0.00000000E+00
  0.00000000E+00  0.00000000E+00  0.00000000E+00
  0.00000000E+00  0.00000000E+00  0.00000000E+00
  0.00000000E+00  0.00000000E+00  0.00000000E+00
  0.00000000E+00  0.00000000E+00  0.00000000E+00
  0.00000000E+00  0.00000000E+00  0.00000000E+00
  0.00000000E+00  0.00000000E+00  0.00000000E+00
  0.00000000E+00  0.00000000E+00  0.00000000E+00
  0.00000000E+00  0.00000000E+00  0.00000000E+00
  0.00000000E+00  0.00000000E+00  0.00000000E+00
  0.00000000E+00  0.00000000E+00  0.00000000E+00
  0.00000000E+00  0.00000000E+00  0.00000000E+00
  0.00000000E+00  0.00000000E+00  0.00000000E+00
  0.00000000E+00  0.00000000E+00  0.00000000E+00
  0.00000000E+00  0.00000000E+00  0.00000000E+00
  0.00000000E+00  0.00000000E+00  0.00000000E+00
  0.00000000E+00  0.00000000E+00  0.00000000E+00
  0.00000000E+00  0.00000000E+00  0.00000000E+00
  0.00000000E+00  0.00000000E+00  0.00000000E+00
  0.00000000E+00  0.00000000E+00  0.00000000E+00
  0.00000000E+00  0.00000000E+00  0.00000000E+00
  0.00000000E+00  0.00000000E+00  0.00000000E+00
  0.00000000E+00  0.00000000E+00  0.00000000E+00
  0.00000000E+00  0.00000000E+00  0.00000000E+00
  0.00000000E+00  0.00000000E+00  0.00000000E+00
  0.00000000E+00  0.00000000E+00  0.00000000E+00
  0.00000000E+00  0.00000000E+00  0.00000000E+00
  0.00000000E+00  0.00000000E+00  0.00000000E+00
  0.00000000E+00  0.00000000E+00  0.00000000E+00
  0.00000000E+00  0.00000000E+00  0.00000000E+00
  0.00000000E+00  0.00000000E+00  0.00000000E+00
  0.00000000E+00  0.00000000E+00  0.00000000E+00
  0.00000000E+00  0.00000000E+00  0.00000000E+00
  0.00000000E+00  0.00000000E+00  0.00000000E+00
  0.00000000E+00  0.00000000E+00  0.00000000E+00
  0.00000000E+00  0.00000000E+00  0.00000000E+00
  0.00000000E+00  0.00000000E+00  0.00000000E+00
  0.00000000E+00  0.00000000E+00  0.00000000E+00
  0.00000000E+00  0.00000000E+00  0.00000000E+00
  0.00000000E+00  0.00000000E+00  0.00000000E+00
  0.00000000E+00  0.00000000E+00  0.00000000E+00
  0.00000000E+00  0.00000000E+00  0.00000000E+00
  0.00000000E+00  0.00000000E+00  0.00000000E+00
  0.00000000E+00  0.00000000E+00  0.00000000E+00
  0.00000000E+00  0.00000000E+00  0.00000000E+00
  0.00000000E+00  0.00000000E+00  0.00000000E+00
  0.00000000E+00  0.00000000E+00  0.00000000E+00
  0.00000000E+00  0.00000000E+00  0.00000000E+00
  0.00000000E+00  0.00000000E+00  0.00000000E+00
  0.00000000E+00  0.00000000E+00  0.00000000E+00
  0.00000000E+00  0.00000000E+00  0.00000000E+00
  0.00000000E+00  0.00000000E+00  0.00000000E+00
  0.00000000E+00  0.00000000E+00  0.00000000E+00
  0.00000000E+00  0.00000000E+00  0.00000000E+00
  0.00000000E+00  0.00000000E+00  0.00000000E+00
  0.00000000E+00  0.00000000E+00  0.00000000E+00
  0.00000000E+00  0.00000000E+00  0.00000000E+00
  0.00000000E+00  0.00000000E+00  0.00000000E+00
  0.00000000E+00  0.00000000E+00  0.00000000E+00
