CONTCAR\(5)                             
   1.00000000000000     
    13.6462001800999992    0.0000000000000000    0.0000000000000000
     1.7063387634000000   10.2396006658999994    0.0000000000000000
     0.0000000000000000    0.0000000000000000   19.9377994536999985
   Ta   Te   O    H 
    16    24     2     1
Direct
  0.1457169956989897  0.8512727272782592  0.4909599091275263
  0.1088172599325658  0.1471651262052705  0.5084463279752693
  0.2035232199347449  0.3902059925028690  0.5225393030082017
  0.0505248641385234  0.6078395719537620  0.4778186595810177
  0.3955747526150343  0.8505631311218371  0.4906423199267189
  0.3591039536944344  0.1467200606944628  0.5080327343163639
  0.4533666762230014  0.3891232144734495  0.5226640168768104
  0.3008232795967647  0.6081940281237447  0.4776866946858541
  0.6457084843482654  0.8507744124656647  0.4908586542224324
  0.6080916024561530  0.1467614397324838  0.5081059581109280
  0.7030984969434297  0.3898823327416683  0.5220306702522697
  0.5503565242393668  0.6079965681386373  0.4775931291966342
  0.8956450602837729  0.8513813073623699  0.4910310199688407
  0.8581839827441327  0.1469711546117809  0.5083365347507228
  0.9532965386120738  0.3901210796652710  0.5221865471771936
  0.8008118957684565  0.6080384304112277  0.4776777745475775
  0.1710733793268111  0.6472946967423879  0.5871347426397286
  0.0833434033578133  0.3514941226659069  0.4128767023156256
  0.1646519643644482  0.6968639906543302  0.3745228410429451
  0.0897093271766092  0.2999853733917009  0.6253232407308531
  0.0045781782906145  0.9794322313810876  0.5870924799836592
  0.2496473183700935  0.0189794998869871  0.4121272637416907
  0.4209017040252208  0.6469014117973184  0.5872800567581643
  0.3331410077688658  0.3518690342548838  0.4128710583777352
  0.4145518111792634  0.6968308080994017  0.3741333778375848
  0.3396498987575921  0.3011082723922976  0.6262698076011715
  0.2549807739465899  0.9788228114514543  0.5867968272982640
  0.4996063712226622  0.0190061958181966  0.4121104829786980
  0.6705582089072951  0.6470096697158370  0.5869908713092907
  0.5825932449877677  0.3515054815865594  0.4126561910301842
  0.6645332992296507  0.6965967412410941  0.3743601147635930
  0.5895068971162877  0.2999287685977819  0.6256947264351982
  0.5044372637563618  0.9789403613956592  0.5868824781657018
  0.7496236202851619  0.0186494923905391  0.4121458684983774
  0.9205923621940458  0.6474769303458838  0.5872218189324274
  0.8331333618991094  0.3515343375609297  0.4126431757777894
  0.9147102297286132  0.6970815181032288  0.3745473086304726
  0.8387836355973269  0.3005721664808218  0.6251251903796382
  0.7542115532903988  0.9789150236680940  0.5868969825531594
  0.9996654138017459  0.0193024690056889  0.4124308387691596
  0.4335940442484883  0.4456621856524594  0.7127833294580701
  0.4170069937285119  0.4606393191392057  0.7818451216634507
  0.3891509022129415  0.5539579610975467  0.7862169896030042
 
  0.00000000E+00  0.00000000E+00  0.00000000E+00
  0.00000000E+00  0.00000000E+00  0.00000000E+00
  0.00000000E+00  0.00000000E+00  0.00000000E+00
  0.00000000E+00  0.00000000E+00  0.00000000E+00
  0.00000000E+00  0.00000000E+00  0.00000000E+00
  0.00000000E+00  0.00000000E+00  0.00000000E+00
  0.00000000E+00  0.00000000E+00  0.00000000E+00
  0.00000000E+00  0.00000000E+00  0.00000000E+00
  0.00000000E+00  0.00000000E+00  0.00000000E+00
  0.00000000E+00  0.00000000E+00  0.00000000E+00
  0.00000000E+00  0.00000000E+00  0.00000000E+00
  0.00000000E+00  0.00000000E+00  0.00000000E+00
  0.00000000E+00  0.00000000E+00  0.00000000E+00
  0.00000000E+00  0.00000000E+00  0.00000000E+00
  0.00000000E+00  0.00000000E+00  0.00000000E+00
  0.00000000E+00  0.00000000E+00  0.00000000E+00
  0.00000000E+00  0.00000000E+00  0.00000000E+00
  0.00000000E+00  0.00000000E+00  0.00000000E+00
  0.00000000E+00  0.00000000E+00  0.00000000E+00
  0.00000000E+00  0.00000000E+00  0.00000000E+00
  0.00000000E+00  0.00000000E+00  0.00000000E+00
  0.00000000E+00  0.00000000E+00  0.00000000E+00
  0.00000000E+00  0.00000000E+00  0.00000000E+00
  0.00000000E+00  0.00000000E+00  0.00000000E+00
  0.00000000E+00  0.00000000E+00  0.00000000E+00
  0.00000000E+00  0.00000000E+00  0.00000000E+00
  0.00000000E+00  0.00000000E+00  0.00000000E+00
  0.00000000E+00  0.00000000E+00  0.00000000E+00
  0.00000000E+00  0.00000000E+00  0.00000000E+00
  0.00000000E+00  0.00000000E+00  0.00000000E+00
  0.00000000E+00  0.00000000E+00  0.00000000E+00
  0.00000000E+00  0.00000000E+00  0.00000000E+00
  0.00000000E+00  0.00000000E+00  0.00000000E+00
  0.00000000E+00  0.00000000E+00  0.00000000E+00
  0.00000000E+00  0.00000000E+00  0.00000000E+00
  0.00000000E+00  0.00000000E+00  0.00000000E+00
  0.00000000E+00  0.00000000E+00  0.00000000E+00
  0.00000000E+00  0.00000000E+00  0.00000000E+00
  0.00000000E+00  0.00000000E+00  0.00000000E+00
  0.00000000E+00  0.00000000E+00  0.00000000E+00
  0.00000000E+00  0.00000000E+00  0.00000000E+00
  0.00000000E+00  0.00000000E+00  0.00000000E+00
  0.00000000E+00  0.00000000E+00  0.00000000E+00
