 Cu4 Se4 O12                            
   1.00000000000000     
     6.1428690650473525    0.0000000000000000    0.0000000000000000
     0.0000000000000000   12.3888798299841874    0.0000000000000000
     0.0000000000000000    0.0000000000000000   16.9626198425599988
   Cu   Se   O 
     4     4    12
Direct
  0.1650843959279515  0.9077965296798653  0.4883516845490096
  0.6649975759522766  0.5922945606975619  0.5117097279279745
  0.8349302094327081  0.0922119296464598  0.5116823221863726
  0.3350120946521019  0.4076991558509025  0.4882765549207895
  0.3806015261708873  0.1486527488031196  0.4783701836424484
  0.8804783255724219  0.3513872173816485  0.5217131794488230
  0.6193983784001663  0.8513464870365949  0.5216243832246219
  0.1195241780436833  0.6486140738394807  0.4782831247007724
  0.9608241166137028  0.5901829791473752  0.5506137251000729
  0.4607528529245963  0.9097944091091575  0.4493026229210735
  0.0391035349629305  0.4098041777570475  0.4493754177489705
  0.5391805053544843  0.0902039121777600  0.5506909736733901
  0.3581362182061240  0.5662553949780091  0.4890613093054367
  0.8581290675120163  0.9336477431436350  0.5108705788225081
  0.6419123182593987  0.4337790906597759  0.5109396128465336
  0.1419148345869841  0.0663265094395057  0.4891404482515752
  0.2871340635771276  0.2619395867906796  0.5260065203081151
  0.7870242572588717  0.2380737099378845  0.4740907490342816
  0.7128835054749083  0.7380386483372054  0.4740042581769897
  0.2129780411166655  0.7619511355863097  0.5258926232102344
 
  0.00000000E+00  0.00000000E+00  0.00000000E+00
  0.00000000E+00  0.00000000E+00  0.00000000E+00
  0.00000000E+00  0.00000000E+00  0.00000000E+00
  0.00000000E+00  0.00000000E+00  0.00000000E+00
  0.00000000E+00  0.00000000E+00  0.00000000E+00
  0.00000000E+00  0.00000000E+00  0.00000000E+00
  0.00000000E+00  0.00000000E+00  0.00000000E+00
  0.00000000E+00  0.00000000E+00  0.00000000E+00
  0.00000000E+00  0.00000000E+00  0.00000000E+00
  0.00000000E+00  0.00000000E+00  0.00000000E+00
  0.00000000E+00  0.00000000E+00  0.00000000E+00
  0.00000000E+00  0.00000000E+00  0.00000000E+00
  0.00000000E+00  0.00000000E+00  0.00000000E+00
  0.00000000E+00  0.00000000E+00  0.00000000E+00
  0.00000000E+00  0.00000000E+00  0.00000000E+00
  0.00000000E+00  0.00000000E+00  0.00000000E+00
  0.00000000E+00  0.00000000E+00  0.00000000E+00
  0.00000000E+00  0.00000000E+00  0.00000000E+00
  0.00000000E+00  0.00000000E+00  0.00000000E+00
  0.00000000E+00  0.00000000E+00  0.00000000E+00
