CONTCAR\(16)                            
   1.00000000000000     
    12.5135002136000004    0.0000000000000000    0.0000000000000000
     0.0000000000000000   15.7480001450000007    0.0000000000000000
     0.0000000000000000    0.0000000000000000   19.7180004119999985
   Nb   Fe   Te   O 
    16    16    32     1
Direct
  0.2386226688583170  0.1553807579715810  0.4930474250806260
  0.0135150789152253  0.4059492041904847  0.4910261941435006
  0.9876479242153663  0.0974141232428028  0.5087370652626050
  0.2664311559056874  0.3499429191238523  0.5088686120072183
  0.7370182352258444  0.1566657927064490  0.4928141601471742
  0.5123463562166444  0.4056471562413037  0.4894197222119641
  0.4881589407329102  0.0972221357532614  0.5091431512382502
  0.7637967120237678  0.3474909004159038  0.5016924350713923
  0.2391670330764907  0.6546881927623284  0.4924356559277690
  0.0126217603796777  0.9058574710600947  0.4936251512411388
  0.9878250291470742  0.5972173628680748  0.5083270757586680
  0.2631890863824157  0.8468411412837341  0.5097666098022904
  0.7385920517505981  0.6557514575824983  0.4920279418355071
  0.5124273470730975  0.9060092518320044  0.4936515976045237
  0.4868002150059242  0.5941829164312378  0.5101972194969683
  0.7631773502366036  0.8470591066085974  0.5092869574705714
  0.0719864415297066  0.2472756159439793  0.5383469018595706
  0.3219496443400328  0.0051734873777053  0.4631645528085162
  0.4266285518934994  0.2549464062003564  0.4624454495244272
  0.1782073203656260  0.9976543787019198  0.5397936104276521
  0.5712245491469929  0.2501341895445834  0.5395700505916387
  0.8220161020836237  0.0054032200327533  0.4630644890523699
  0.9294961086670742  0.2556013775192168  0.4605825699214307
  0.6782971647487557  0.9982167102696884  0.5398520227423662
  0.0728773397771612  0.7472008574096479  0.5393838538656235
  0.3217637795142297  0.5039937636768628  0.4614837279615596
  0.4285070146647200  0.7551491319710599  0.4632504553137077
  0.1790080498559911  0.4974251850396817  0.5383927910639430
  0.5731232621885513  0.7466657156578651  0.5392077279450352
  0.8236103092772563  0.5061597920257942  0.4612828715866382
  0.9282281992212753  0.7555289272619823  0.4628961977755306
  0.6786825159154516  0.4923907657226198  0.5395712685178138
  0.3691633419080315  0.3793896871680892  0.3813861176586260
  0.1269167644228810  0.0238338686033085  0.4124902386913129
  0.3735087822356053  0.9792895810527954  0.5904199575355881
  0.1183915932074118  0.3724558978634624  0.6167354475025177
  0.3776090497067817  0.2293622695101193  0.5898276763762832
  0.1249884606924216  0.2742476175115184  0.4120356817483546
  0.1297518003745117  0.1225622655273696  0.6183324159697425
  0.3808738386250540  0.1295840970447262  0.3835685572878339
  0.8696452451550268  0.3817576925374617  0.3805874435101225
  0.6268866901452236  0.0233853247963314  0.4124710182362948
  0.8735036398496315  0.9795672661091035  0.5902710139366372
  0.6133178501737699  0.3732827657150287  0.6212456228698063
  0.8750511258169723  0.2321262203388234  0.5879589309238729
  0.6208901084322190  0.2713511758340268  0.4103710667604212
  0.6307114324763998  0.1239520336997730  0.6182515390589784
  0.8798190479549456  0.1303812562060205  0.3831621431276007
  0.3700887553689373  0.8806379009729616  0.3841627260169878
  0.1276001501115522  0.5239920689294154  0.4103963968794557
  0.3816396017939103  0.4732381393354421  0.5928499527341228
  0.1201551067630313  0.8717204937350876  0.6188403626872959
  0.3779088246778231  0.7270669821976340  0.5898465067256798
  0.1240433866383649  0.7741082490557631  0.4126049876193498
  0.1318790104053797  0.6215631996528591  0.6177363164803712
  0.3827867196143150  0.6310275729734484  0.3838616634161342
  0.8702939888704455  0.8810775801360186  0.3838913168357633
  0.6281891660121359  0.5263406751398287  0.4123127257771240
  0.8729231904879681  0.4772517770229102  0.5880746572563497
  0.6202438700278422  0.8716965449678639  0.6185740804048375
  0.8776214717411992  0.7283201616883462  0.5897410149458935
  0.6237109218780775  0.7743717697603526  0.4122116440428266
  0.6332560437074241  0.6203786559813427  0.6171670085295309
  0.8828234013495819  0.6317876362195645  0.3825618330762067
  0.4832140240395080  0.4165317032833125  0.6691663991200787
 
  0.00000000E+00  0.00000000E+00  0.00000000E+00
  0.00000000E+00  0.00000000E+00  0.00000000E+00
  0.00000000E+00  0.00000000E+00  0.00000000E+00
  0.00000000E+00  0.00000000E+00  0.00000000E+00
  0.00000000E+00  0.00000000E+00  0.00000000E+00
  0.00000000E+00  0.00000000E+00  0.00000000E+00
  0.00000000E+00  0.00000000E+00  0.00000000E+00
  0.00000000E+00  0.00000000E+00  0.00000000E+00
  0.00000000E+00  0.00000000E+00  0.00000000E+00
  0.00000000E+00  0.00000000E+00  0.00000000E+00
  0.00000000E+00  0.00000000E+00  0.00000000E+00
  0.00000000E+00  0.00000000E+00  0.00000000E+00
  0.00000000E+00  0.00000000E+00  0.00000000E+00
  0.00000000E+00  0.00000000E+00  0.00000000E+00
  0.00000000E+00  0.00000000E+00  0.00000000E+00
  0.00000000E+00  0.00000000E+00  0.00000000E+00
  0.00000000E+00  0.00000000E+00  0.00000000E+00
  0.00000000E+00  0.00000000E+00  0.00000000E+00
  0.00000000E+00  0.00000000E+00  0.00000000E+00
  0.00000000E+00  0.00000000E+00  0.00000000E+00
  0.00000000E+00  0.00000000E+00  0.00000000E+00
  0.00000000E+00  0.00000000E+00  0.00000000E+00
  0.00000000E+00  0.00000000E+00  0.00000000E+00
  0.00000000E+00  0.00000000E+00  0.00000000E+00
  0.00000000E+00  0.00000000E+00  0.00000000E+00
  0.00000000E+00  0.00000000E+00  0.00000000E+00
  0.00000000E+00  0.00000000E+00  0.00000000E+00
  0.00000000E+00  0.00000000E+00  0.00000000E+00
  0.00000000E+00  0.00000000E+00  0.00000000E+00
  0.00000000E+00  0.00000000E+00  0.00000000E+00
  0.00000000E+00  0.00000000E+00  0.00000000E+00
  0.00000000E+00  0.00000000E+00  0.00000000E+00
  0.00000000E+00  0.00000000E+00  0.00000000E+00
  0.00000000E+00  0.00000000E+00  0.00000000E+00
  0.00000000E+00  0.00000000E+00  0.00000000E+00
  0.00000000E+00  0.00000000E+00  0.00000000E+00
  0.00000000E+00  0.00000000E+00  0.00000000E+00
  0.00000000E+00  0.00000000E+00  0.00000000E+00
  0.00000000E+00  0.00000000E+00  0.00000000E+00
  0.00000000E+00  0.00000000E+00  0.00000000E+00
  0.00000000E+00  0.00000000E+00  0.00000000E+00
  0.00000000E+00  0.00000000E+00  0.00000000E+00
  0.00000000E+00  0.00000000E+00  0.00000000E+00
  0.00000000E+00  0.00000000E+00  0.00000000E+00
  0.00000000E+00  0.00000000E+00  0.00000000E+00
  0.00000000E+00  0.00000000E+00  0.00000000E+00
  0.00000000E+00  0.00000000E+00  0.00000000E+00
  0.00000000E+00  0.00000000E+00  0.00000000E+00
  0.00000000E+00  0.00000000E+00  0.00000000E+00
  0.00000000E+00  0.00000000E+00  0.00000000E+00
  0.00000000E+00  0.00000000E+00  0.00000000E+00
  0.00000000E+00  0.00000000E+00  0.00000000E+00
  0.00000000E+00  0.00000000E+00  0.00000000E+00
  0.00000000E+00  0.00000000E+00  0.00000000E+00
  0.00000000E+00  0.00000000E+00  0.00000000E+00
  0.00000000E+00  0.00000000E+00  0.00000000E+00
  0.00000000E+00  0.00000000E+00  0.00000000E+00
  0.00000000E+00  0.00000000E+00  0.00000000E+00
  0.00000000E+00  0.00000000E+00  0.00000000E+00
  0.00000000E+00  0.00000000E+00  0.00000000E+00
  0.00000000E+00  0.00000000E+00  0.00000000E+00
  0.00000000E+00  0.00000000E+00  0.00000000E+00
  0.00000000E+00  0.00000000E+00  0.00000000E+00
  0.00000000E+00  0.00000000E+00  0.00000000E+00
  0.00000000E+00  0.00000000E+00  0.00000000E+00
