CONTCAR\(4)                             
   1.00000000000000     
    11.3126001358000003    0.0000000000000000    0.0000000000000000
     0.0000000000000000   12.6614999771000001    0.0000000000000000
     0.0000000000000000    0.0000000000000000   20.9256000518999983
   K    P    Pd   O 
    16    16     8     1
Direct
  0.1251031058674474 -0.0030009333504050  0.3573343168932793
  0.1250483394592211  0.2495599855045281  0.4497614092051946
  0.3838850179971031  0.9898973200384957  0.6469903449362415
  0.3734340145827134  0.2453132594335833  0.5504607167224864
  0.6250126442874928  0.9985368579279266  0.3584769183408275
  0.6249487154059665  0.2486354086898006  0.4504065670078499
  0.8666153692636192  0.9896134450674390  0.6468073141029134
  0.8766862655145606  0.2452039519400458  0.5504256319059618
  0.1249100418103242  0.5026832896303386  0.3590820906978897
  0.1250245275379756  0.7482792972854798  0.4561164903779482
  0.3756411825587994  0.4934176602909177  0.6441202299874546
  0.3831354672065408  0.7443191972480846  0.5552826924995291
  0.6248330094746403  0.4933429179172263  0.3587779584806979
  0.6253351418097074  0.7433646615154907  0.4478639124570745
  0.8733509103100334  0.4928416665348786  0.6443009540938123
  0.8670770507259251  0.7438706422709981  0.5553447081995408
  0.1251616987960445  0.9138188842567395  0.5814553035159884
  0.3703641618933358  0.9103775721267213  0.4227299332556927
  0.3714314221039979  0.0828769621867685  0.4186030271617764
  0.1253123553785105  0.0855617263316333  0.5821322245299593
  0.6250324434713103  0.9271895304254136  0.5712578543970096
  0.8801268629992310  0.9103490975505117  0.4227563317782730
  0.8787809714557548  0.0827874390382231  0.4185954597305163
  0.6252135181134401  0.0981463696363236  0.5779760722035026
  0.1248871186592499  0.4116006153883396  0.5798651082202764
  0.3724412704364840  0.4121250994658410  0.4218571263763899
  0.3762220481043040  0.5845642905651925  0.4222244146204007
  0.1247519266242916  0.5837236171655819  0.5823834152411118
  0.6246191876523420  0.4086619007413853  0.5801899375280540
  0.8774368571124520  0.4119992688917353  0.4218515621254873
  0.8735582948700191  0.5844229739130237  0.4223051919901578
  0.6249315246035710  0.5805669595851803  0.5799927117462470
  0.0017954166229271 -0.0000006183434421  0.5017878141427338
  0.2486302131725877 -0.0003559053843861  0.5018214832952622
  0.4947669375826030  0.9956713064716263  0.5004523513200207
  0.7556662697200756  0.9955918801051794  0.5005721939457762
  0.9995739157645533  0.4999628538009953  0.5019601369458275
  0.2500599619494559  0.5001177515843358  0.5018832839315751
  0.4998658656435233  0.4947844527088541  0.5008223423791693
  0.7498792869138698  0.4942653192050493  0.5008658313456839
  0.6247998075439737  0.8554722126383622  0.6320469813644132
 
  0.00000000E+00  0.00000000E+00  0.00000000E+00
  0.00000000E+00  0.00000000E+00  0.00000000E+00
  0.00000000E+00  0.00000000E+00  0.00000000E+00
  0.00000000E+00  0.00000000E+00  0.00000000E+00
  0.00000000E+00  0.00000000E+00  0.00000000E+00
  0.00000000E+00  0.00000000E+00  0.00000000E+00
  0.00000000E+00  0.00000000E+00  0.00000000E+00
  0.00000000E+00  0.00000000E+00  0.00000000E+00
  0.00000000E+00  0.00000000E+00  0.00000000E+00
  0.00000000E+00  0.00000000E+00  0.00000000E+00
  0.00000000E+00  0.00000000E+00  0.00000000E+00
  0.00000000E+00  0.00000000E+00  0.00000000E+00
  0.00000000E+00  0.00000000E+00  0.00000000E+00
  0.00000000E+00  0.00000000E+00  0.00000000E+00
  0.00000000E+00  0.00000000E+00  0.00000000E+00
  0.00000000E+00  0.00000000E+00  0.00000000E+00
  0.00000000E+00  0.00000000E+00  0.00000000E+00
  0.00000000E+00  0.00000000E+00  0.00000000E+00
  0.00000000E+00  0.00000000E+00  0.00000000E+00
  0.00000000E+00  0.00000000E+00  0.00000000E+00
  0.00000000E+00  0.00000000E+00  0.00000000E+00
  0.00000000E+00  0.00000000E+00  0.00000000E+00
  0.00000000E+00  0.00000000E+00  0.00000000E+00
  0.00000000E+00  0.00000000E+00  0.00000000E+00
  0.00000000E+00  0.00000000E+00  0.00000000E+00
  0.00000000E+00  0.00000000E+00  0.00000000E+00
  0.00000000E+00  0.00000000E+00  0.00000000E+00
  0.00000000E+00  0.00000000E+00  0.00000000E+00
  0.00000000E+00  0.00000000E+00  0.00000000E+00
  0.00000000E+00  0.00000000E+00  0.00000000E+00
  0.00000000E+00  0.00000000E+00  0.00000000E+00
  0.00000000E+00  0.00000000E+00  0.00000000E+00
  0.00000000E+00  0.00000000E+00  0.00000000E+00
  0.00000000E+00  0.00000000E+00  0.00000000E+00
  0.00000000E+00  0.00000000E+00  0.00000000E+00
  0.00000000E+00  0.00000000E+00  0.00000000E+00
  0.00000000E+00  0.00000000E+00  0.00000000E+00
  0.00000000E+00  0.00000000E+00  0.00000000E+00
  0.00000000E+00  0.00000000E+00  0.00000000E+00
  0.00000000E+00  0.00000000E+00  0.00000000E+00
  0.00000000E+00  0.00000000E+00  0.00000000E+00
