CONTCAR                                 
   1.00000000000000     
    10.2920999526999992    0.0000000000000000    0.0000000000000000
     1.7153529658000000    9.6351993213000000    0.0000000000000000
     0.0000000000000000    0.0000000000000000   19.1306991577000005
   Nb   Te
     9    18
Direct
 -0.0000000858098975  0.0000002719677041  0.5000002553157216
  0.1189928171440942  0.2863440672751166  0.4954940385194764
  0.2143625006743965  0.7136370491106703  0.5044946473708901
  0.3333127236959835 -0.0000071578656886  0.5000110931284081
  0.4522842952403057  0.2863389591083461  0.4954980514038556
  0.5477148268547782  0.7136642008927111  0.5045023436379510
  0.6666875453013730  0.0000073528602171  0.4999892675034633
  0.7856362413013971  0.2863702177218815  0.4955057741204942
  0.8810049045002941  0.7136591422960409  0.5045058342418566
  0.1482602013011117  0.1098066643753343  0.6053472120131042
  0.1849754422392781  0.8901621415856561  0.3946685917847447
  0.2583227415677217  0.4504102350739717  0.5822023639782756
  0.0749459736778523  0.5496286245387020  0.4177847248929015
  0.0350976494230510  0.7901998898757224  0.6093678928307422
  0.2983224553668696  0.2097306413390015  0.3906341958240048
  0.4816964816127733  0.1096543680862085  0.6053076686925695
  0.5183033354376541  0.8903466670382250  0.3946924486061260
  0.5915879751942508  0.4503235893872637  0.5822027980441703
  0.4084121065267588  0.5496760814728949  0.4177969041323509
  0.3683572925382354  0.7901586113008920  0.6093770272422031
  0.6316430137801969  0.2098425377050052  0.3906241597337551
  0.8150244770754740  0.1098391669642378  0.6053313658140071
  0.8517401202375519  0.8901941986783225  0.3946529859000117
  0.9250533462055043  0.4503710243995438  0.5822151677489449
  0.7416725962051383  0.5496012401092621  0.4177927965392681
  0.7016773328278360  0.7902691332946319  0.6093666956913028
  0.9649018748800183  0.2098012374081055  0.3906337702893963
 
  0.00000000E+00  0.00000000E+00  0.00000000E+00
  0.00000000E+00  0.00000000E+00  0.00000000E+00
  0.00000000E+00  0.00000000E+00  0.00000000E+00
  0.00000000E+00  0.00000000E+00  0.00000000E+00
  0.00000000E+00  0.00000000E+00  0.00000000E+00
  0.00000000E+00  0.00000000E+00  0.00000000E+00
  0.00000000E+00  0.00000000E+00  0.00000000E+00
  0.00000000E+00  0.00000000E+00  0.00000000E+00
  0.00000000E+00  0.00000000E+00  0.00000000E+00
  0.00000000E+00  0.00000000E+00  0.00000000E+00
  0.00000000E+00  0.00000000E+00  0.00000000E+00
  0.00000000E+00  0.00000000E+00  0.00000000E+00
  0.00000000E+00  0.00000000E+00  0.00000000E+00
  0.00000000E+00  0.00000000E+00  0.00000000E+00
  0.00000000E+00  0.00000000E+00  0.00000000E+00
  0.00000000E+00  0.00000000E+00  0.00000000E+00
  0.00000000E+00  0.00000000E+00  0.00000000E+00
  0.00000000E+00  0.00000000E+00  0.00000000E+00
  0.00000000E+00  0.00000000E+00  0.00000000E+00
  0.00000000E+00  0.00000000E+00  0.00000000E+00
  0.00000000E+00  0.00000000E+00  0.00000000E+00
  0.00000000E+00  0.00000000E+00  0.00000000E+00
  0.00000000E+00  0.00000000E+00  0.00000000E+00
  0.00000000E+00  0.00000000E+00  0.00000000E+00
  0.00000000E+00  0.00000000E+00  0.00000000E+00
  0.00000000E+00  0.00000000E+00  0.00000000E+00
  0.00000000E+00  0.00000000E+00  0.00000000E+00
