CONTCAR\(9)                             
   1.00000000000000     
    13.5033998488999991    0.0000000000000000    0.0000000000000000
     0.0000000000000000   19.6100006104000002    0.0000000000000000
     0.0000000000000000    0.0000000000000000   18.7679004668999987
   Nb   Se   O 
    32    48     1
Direct
  0.0636049044150799  0.4356821892824433  0.5002040082409082
  0.1891556499373539  0.0624915297515746  0.5004399363869411
  0.0639537139183487  0.2798312421420344  0.4493888147403423
  0.1893311329587662  0.2186515271337783  0.5514028775701678
  0.3140469976321547  0.4358933834506967  0.5001718349653418
  0.4390758906682512  0.0642693296772357  0.5004871483380879
  0.3138719633780071  0.2799531886706978  0.4495311125339480
  0.4390943716199851  0.2191827609617607  0.5516034875529411
  0.5639921890872817  0.4358033352159701  0.5003468261395633
  0.6890197603119661  0.0625586066143673  0.5005392276619455
  0.5642517714800052  0.2800106789665157  0.4497031339749116
  0.6890696492861469  0.2187057308779508  0.5516498906586388
  0.8142913499163895  0.4359029171648049  0.5002948019407208
  0.9389999833691459  0.0629009942275226  0.5004486170396060
  0.8142257883773918  0.2798645996086546  0.4496393945382451
  0.9390978333275134  0.2185338357850304  0.5514430478688570
  0.0664600917811441  0.9357240553758016  0.5009696326147113
  0.1883353750748752  0.5626403572420755  0.4997297705518837
  0.0638612312735986  0.7799712000169970  0.4494976313808823
  0.1891320391645129  0.7182921973626120  0.5511631326995889
  0.3124121996860792  0.9345006302489837  0.5002027196629534
  0.4389474337381257  0.5626575637178920  0.4996780812038601
  0.3139369994901329  0.7794835779074115  0.4491016476168406
  0.4389590485220567  0.7183458585571276  0.5508961628843088
  0.5656970573612163  0.9344419079449973  0.5001431458987695
  0.6898021132517222  0.5627016373893953  0.4999040025902151
  0.5640522937027529  0.7795455573023582  0.4490464328053653
  0.6889392402907557  0.7184298397582370  0.5511934795582309
  0.8115347839698654  0.9358612248533660  0.5008820337072613
  0.9387197119798537  0.5626720668997862  0.5001600202683810
  0.8139475502782849  0.7800356675110984  0.4495156818186541
  0.9388995937627129  0.7187534202859081  0.5514637342587454
  0.0642062234590718  0.0273352085483427  0.4031334703783853
  0.1887058538188286  0.4709867907903260  0.5976255640884669
  0.0643210989883718  0.1238880869969694  0.5941693996323246
  0.1889794080836572  0.3744399368580100  0.4066621418825881
  0.1890706700550336  0.1832721932396269  0.4187315907285839
  0.0641482823729919  0.3151359776977335  0.5820457702454167
  0.3143400150749987  0.0273223377924347  0.4028514205478261
  0.4389838566281054  0.4710649920206722  0.5977444995188173
  0.3142312264995528  0.1240003311648122  0.5939959665124723
  0.4390019592600092  0.3744822539405284  0.4066999398609786
  0.4391855519107417  0.1837206644487612  0.4184761533200105
  0.3139367385869308  0.3155681311062522  0.5821857971913943
  0.5638009761846644  0.0273222976216482  0.4029733961922708
  0.6890315184036265  0.4711120523901394  0.5978643632605609
  0.5639610490913535  0.1241172354637248  0.5941758476656704
  0.6892977473712099  0.3744402694114382  0.4068112090004876
  0.6890823101884375  0.1833644799308534  0.4189554411494741
  0.5643053944806377  0.3154502344215475  0.5823869252162841
  0.8138654166603215  0.0276091979106072  0.4030208750589286
  0.9391658753222348  0.4710756302237049  0.5980478846311910
  0.8140716271025009  0.1237569692231515  0.5941355586618140
  0.9388383236990636  0.3743345563070644  0.4063629510311446
  0.9391025262087707  0.1832462214166210  0.4187140251271926
  0.8142400279331243  0.3153220499948658  0.5823352246304766
  0.0632840176635430  0.5273320062239871  0.4023291726947928
  0.1902030127161445  0.9709951663444778  0.5989293099288014
  0.0639604193568691  0.6238840402131690  0.5938783098269107
  0.1891076492085652  0.8741824400654725  0.4060147447281165
  0.1885313318377763  0.6832564745494221  0.4183711527928710
  0.0644059313745539  0.8149565156189845  0.5822682694158824
  0.3136837345246412  0.5276585579376387  0.4021714238838152
  0.4392323860915633  0.9713086789701277  0.5937770225880591
  0.3140538668280854  0.6235605896681925  0.5935298763385478
  0.4389128133254248  0.8739916740486824  0.4064096257121173
  0.4391186930648164  0.6831019110885304  0.4180731013376637
  0.3140996648060332  0.8147854238520861  0.5821978272998565
  0.5643486275725054  0.5275370892525929  0.4024908117748310
  0.6876949427819333  0.9709668119792449  0.5989445326122126
  0.5639302146565494  0.6237805028397980  0.5936149711417247
  0.6890927688200015  0.8742562735617717  0.4059101261971983
  0.6892743944652032  0.6833292071213003  0.4183466003891604
  0.5637894182207477  0.8148306799939515  0.5820056173898518
  0.8142588548361197  0.5274890573792441  0.4020971340325963
  0.9389798648074610  0.9705147122443329  0.5973049249608102
  0.8140787378603502  0.6238004673217427  0.5939220023163524
  0.9389552577204279  0.8747676666076222  0.4075714299136062
  0.9389104619666901  0.6834431396589521  0.4188239889183422
  0.8136157798106868  0.8152527199976550  0.5822899190844480
  0.4397039522876013  0.9710769346361261  0.6834421235168147
 
  0.00000000E+00  0.00000000E+00  0.00000000E+00
  0.00000000E+00  0.00000000E+00  0.00000000E+00
  0.00000000E+00  0.00000000E+00  0.00000000E+00
  0.00000000E+00  0.00000000E+00  0.00000000E+00
  0.00000000E+00  0.00000000E+00  0.00000000E+00
  0.00000000E+00  0.00000000E+00  0.00000000E+00
  0.00000000E+00  0.00000000E+00  0.00000000E+00
  0.00000000E+00  0.00000000E+00  0.00000000E+00
  0.00000000E+00  0.00000000E+00  0.00000000E+00
  0.00000000E+00  0.00000000E+00  0.00000000E+00
  0.00000000E+00  0.00000000E+00  0.00000000E+00
  0.00000000E+00  0.00000000E+00  0.00000000E+00
  0.00000000E+00  0.00000000E+00  0.00000000E+00
  0.00000000E+00  0.00000000E+00  0.00000000E+00
  0.00000000E+00  0.00000000E+00  0.00000000E+00
  0.00000000E+00  0.00000000E+00  0.00000000E+00
  0.00000000E+00  0.00000000E+00  0.00000000E+00
  0.00000000E+00  0.00000000E+00  0.00000000E+00
  0.00000000E+00  0.00000000E+00  0.00000000E+00
  0.00000000E+00  0.00000000E+00  0.00000000E+00
  0.00000000E+00  0.00000000E+00  0.00000000E+00
  0.00000000E+00  0.00000000E+00  0.00000000E+00
  0.00000000E+00  0.00000000E+00  0.00000000E+00
  0.00000000E+00  0.00000000E+00  0.00000000E+00
  0.00000000E+00  0.00000000E+00  0.00000000E+00
  0.00000000E+00  0.00000000E+00  0.00000000E+00
  0.00000000E+00  0.00000000E+00  0.00000000E+00
  0.00000000E+00  0.00000000E+00  0.00000000E+00
  0.00000000E+00  0.00000000E+00  0.00000000E+00
  0.00000000E+00  0.00000000E+00  0.00000000E+00
  0.00000000E+00  0.00000000E+00  0.00000000E+00
  0.00000000E+00  0.00000000E+00  0.00000000E+00
  0.00000000E+00  0.00000000E+00  0.00000000E+00
  0.00000000E+00  0.00000000E+00  0.00000000E+00
  0.00000000E+00  0.00000000E+00  0.00000000E+00
  0.00000000E+00  0.00000000E+00  0.00000000E+00
  0.00000000E+00  0.00000000E+00  0.00000000E+00
  0.00000000E+00  0.00000000E+00  0.00000000E+00
  0.00000000E+00  0.00000000E+00  0.00000000E+00
  0.00000000E+00  0.00000000E+00  0.00000000E+00
  0.00000000E+00  0.00000000E+00  0.00000000E+00
  0.00000000E+00  0.00000000E+00  0.00000000E+00
  0.00000000E+00  0.00000000E+00  0.00000000E+00
  0.00000000E+00  0.00000000E+00  0.00000000E+00
  0.00000000E+00  0.00000000E+00  0.00000000E+00
  0.00000000E+00  0.00000000E+00  0.00000000E+00
  0.00000000E+00  0.00000000E+00  0.00000000E+00
  0.00000000E+00  0.00000000E+00  0.00000000E+00
  0.00000000E+00  0.00000000E+00  0.00000000E+00
  0.00000000E+00  0.00000000E+00  0.00000000E+00
  0.00000000E+00  0.00000000E+00  0.00000000E+00
  0.00000000E+00  0.00000000E+00  0.00000000E+00
  0.00000000E+00  0.00000000E+00  0.00000000E+00
  0.00000000E+00  0.00000000E+00  0.00000000E+00
  0.00000000E+00  0.00000000E+00  0.00000000E+00
  0.00000000E+00  0.00000000E+00  0.00000000E+00
  0.00000000E+00  0.00000000E+00  0.00000000E+00
  0.00000000E+00  0.00000000E+00  0.00000000E+00
  0.00000000E+00  0.00000000E+00  0.00000000E+00
  0.00000000E+00  0.00000000E+00  0.00000000E+00
  0.00000000E+00  0.00000000E+00  0.00000000E+00
  0.00000000E+00  0.00000000E+00  0.00000000E+00
  0.00000000E+00  0.00000000E+00  0.00000000E+00
  0.00000000E+00  0.00000000E+00  0.00000000E+00
  0.00000000E+00  0.00000000E+00  0.00000000E+00
  0.00000000E+00  0.00000000E+00  0.00000000E+00
  0.00000000E+00  0.00000000E+00  0.00000000E+00
  0.00000000E+00  0.00000000E+00  0.00000000E+00
  0.00000000E+00  0.00000000E+00  0.00000000E+00
  0.00000000E+00  0.00000000E+00  0.00000000E+00
  0.00000000E+00  0.00000000E+00  0.00000000E+00
  0.00000000E+00  0.00000000E+00  0.00000000E+00
  0.00000000E+00  0.00000000E+00  0.00000000E+00
  0.00000000E+00  0.00000000E+00  0.00000000E+00
  0.00000000E+00  0.00000000E+00  0.00000000E+00
  0.00000000E+00  0.00000000E+00  0.00000000E+00
  0.00000000E+00  0.00000000E+00  0.00000000E+00
  0.00000000E+00  0.00000000E+00  0.00000000E+00
  0.00000000E+00  0.00000000E+00  0.00000000E+00
  0.00000000E+00  0.00000000E+00  0.00000000E+00
  0.00000000E+00  0.00000000E+00  0.00000000E+00
