 Pr4 C2 Cl5                             
   1.00000000000000     
     3.8958208726516568    0.0000000000000000    0.0000000000000000
     0.0000000000000000    7.8301871924386468    0.0000000000000000
     0.0000000000000000    0.0000000000000000   20.9486705366139994
   Pr   C    Cl
     4     2     5
Direct
  0.4999999771584096  0.4996141508225409  0.3604433442346545
  0.5000000301591985  0.4994141155650059  0.6395546099915543
  0.0000000062599619  0.7141628525905450  0.5000201982598804
  0.0000000040779240  0.2848365653171034  0.4999805487716245
  0.4999999897905059  0.4995400848044576  0.4665303557005608
  0.5000000124206871  0.4994907385999628  0.5334728245487294
  0.0000000055801735  0.2343576316304140  0.6436133325735655
 -0.0000000116616112  0.2345516325403999  0.3563414541964534
 -0.0000000847765611  0.7646663528337055  0.3563835320001372
  0.0000000704105337  0.7644698041812495  0.6436608121395831
  0.5000000005807788  0.9995100711146219  0.4999989875832574
 
  0.00000000E+00  0.00000000E+00  0.00000000E+00
  0.00000000E+00  0.00000000E+00  0.00000000E+00
  0.00000000E+00  0.00000000E+00  0.00000000E+00
  0.00000000E+00  0.00000000E+00  0.00000000E+00
  0.00000000E+00  0.00000000E+00  0.00000000E+00
  0.00000000E+00  0.00000000E+00  0.00000000E+00
  0.00000000E+00  0.00000000E+00  0.00000000E+00
  0.00000000E+00  0.00000000E+00  0.00000000E+00
  0.00000000E+00  0.00000000E+00  0.00000000E+00
  0.00000000E+00  0.00000000E+00  0.00000000E+00
  0.00000000E+00  0.00000000E+00  0.00000000E+00
