CONTCAR\(5)                             
   1.00000000000000     
    12.2055997849000004    0.0000000000000000    0.0000000000000000
    -6.1027998924000002   10.5703594821000006    0.0000000000000000
     0.0000000000000000    0.0000000000000000   18.8425998688000007
   Tm   I    O    H 
     9    18     1     1
Direct
  0.0129808052779567  0.0258225339370335  0.4996290495487786
  0.3396429615062050  0.0344074342209866  0.4954104899173958
  0.6948037926549168  0.0341631292423974  0.4954781720540391
  0.9623088293283304  0.3144201182282290  0.4936673857845980
  0.3526000530074491  0.3147255069626491  0.4936890087513087
  0.6707793310019001  0.3421713405321000  0.4912863868567751
  0.9623150805149088  0.6341812719297379  0.4929834986594562
  0.3354242384313976  0.6710177267415045  0.5520652510776578
  0.6715258359454986  0.6339963444226830  0.4930312771849681
  0.2225088976490370  0.1139877620981682  0.6111555830991137
  0.1159565127698803  0.2318390306761642  0.3938709088136340
  0.5562290129985271  0.1123862041167146  0.5985535447345625
  0.4509665320364464  0.2224516971872899  0.3758400855210069
  0.8915650761624315  0.1138988300212901  0.6111975247609369
  0.7712966424169495  0.2223316348761916  0.3760105366508352
  0.2007160586827639  0.4012520119353851  0.5863284473827969
  0.1229601036659556  0.5594586582325910  0.4131108487706635
  0.5556040272389480  0.4405545866152250  0.6075409440695734
  0.4364225220983843  0.5595400089744114  0.4130509110667891
  0.8848248413243053  0.4402606731785939  0.6072573209670949
  0.7759630363889515  0.5521682450318333  0.3727722854756215
  0.1941349131626028  0.7980648736352950  0.5898079124623463
  0.1046489914348493  0.8865765841980358  0.4024007938484346
  0.6036859518875561  0.7979907509497212  0.5899753817752831
  0.4409845490683779  0.8819477441702392  0.4199245094048262
  0.8907611977788021  0.7817840729874012  0.5922749338124591
  0.7818581426863550  0.8864676431005533  0.4023975396687152
  0.3338534005568725  0.6682231228600699  0.6567607095165366
  0.3333389323234399  0.6700105079374770  0.7079182373637429
 
  0.00000000E+00  0.00000000E+00  0.00000000E+00
  0.00000000E+00  0.00000000E+00  0.00000000E+00
  0.00000000E+00  0.00000000E+00  0.00000000E+00
  0.00000000E+00  0.00000000E+00  0.00000000E+00
  0.00000000E+00  0.00000000E+00  0.00000000E+00
  0.00000000E+00  0.00000000E+00  0.00000000E+00
  0.00000000E+00  0.00000000E+00  0.00000000E+00
  0.00000000E+00  0.00000000E+00  0.00000000E+00
  0.00000000E+00  0.00000000E+00  0.00000000E+00
  0.00000000E+00  0.00000000E+00  0.00000000E+00
  0.00000000E+00  0.00000000E+00  0.00000000E+00
  0.00000000E+00  0.00000000E+00  0.00000000E+00
  0.00000000E+00  0.00000000E+00  0.00000000E+00
  0.00000000E+00  0.00000000E+00  0.00000000E+00
  0.00000000E+00  0.00000000E+00  0.00000000E+00
  0.00000000E+00  0.00000000E+00  0.00000000E+00
  0.00000000E+00  0.00000000E+00  0.00000000E+00
  0.00000000E+00  0.00000000E+00  0.00000000E+00
  0.00000000E+00  0.00000000E+00  0.00000000E+00
  0.00000000E+00  0.00000000E+00  0.00000000E+00
  0.00000000E+00  0.00000000E+00  0.00000000E+00
  0.00000000E+00  0.00000000E+00  0.00000000E+00
  0.00000000E+00  0.00000000E+00  0.00000000E+00
  0.00000000E+00  0.00000000E+00  0.00000000E+00
  0.00000000E+00  0.00000000E+00  0.00000000E+00
  0.00000000E+00  0.00000000E+00  0.00000000E+00
  0.00000000E+00  0.00000000E+00  0.00000000E+00
  0.00000000E+00  0.00000000E+00  0.00000000E+00
  0.00000000E+00  0.00000000E+00  0.00000000E+00
