CONTCAR\(4)                             
   1.00000000000000     
    13.4069995879999997    0.0000000000000000    0.0000000000000000
     0.0000000000000000   14.7997999190999998    0.0000000000000000
     0.0000000000000000    0.0000000000000000   22.4342994689999990
   Ta   S    O 
    24    72     1
Direct
  0.1857503523320396  0.0872222774033450  0.4394359135553852
  0.0613747754184135  0.9144507871600444  0.5591814855346692
  0.1867918018491006  0.7549428212862828  0.4260376239178220
  0.0611513029647213  0.2456068148723262  0.5739356079790097
  0.1864308552177518  0.5044809013446766  0.5831768119505263
  0.0611908011691580  0.4955560559335385  0.4196083630423717
  0.4357140945055795  0.0878528290528305  0.4389820401514004
  0.3113600039096374  0.9146354801526048  0.5587327974304311
  0.4370839994281807  0.7570177343710741  0.4246686521620329
  0.3112629239841146  0.2457576330657761  0.5733804603062717
  0.4429616041838500  0.5058512802046504  0.5892622213373894
  0.3129289542867107  0.4955448075097502  0.4203260703900843
  0.6868085953374629  0.0878993953622691  0.4390412655388727
  0.5612675108099414  0.9153136157126408  0.5578086681583471
  0.6853946284232710  0.7570503125664650  0.4246218521447438
  0.5611277181214842  0.2448934434333810  0.5736530642781946
  0.6792634360408539  0.5058704580341994  0.5891885141246210
  0.5610718206248582  0.4958957209868898  0.4203809730454809
  0.9367359112073292  0.0871848766025460  0.4394866873185669
  0.8112233275642183  0.9146500439204757  0.5587186607956555
  0.9357631945212148  0.7549981615166055  0.4260000062918159
  0.8110929711055589  0.2457914679501427  0.5733390257290443
  0.9358693126001765  0.5044695259954480  0.5831299736661645
  0.8092430378298028  0.4956920312700159  0.4202836163851393
  0.1860630242414270  0.9215682280579892  0.4761389352758632
  0.0613108255418178  0.0799479158049501  0.5224912596251232
  0.1865990820047534  0.9792024074535552  0.6316230351211843
  0.0612378375700117  0.0221751495901413  0.3667628292866858
  0.1867630816093767  0.8331708680697203  0.6231582630596650
  0.0611309328330516  0.1681463646543945  0.3749106306102140
  0.1861818293296769  0.1568063599855689  0.6300134892270436
  0.0613067844865317  0.8430805245980036  0.3692319116018910
  0.1858926700396770  0.3445933307000019  0.6274910373055732
  0.0611945282291348  0.6545836959406793  0.3740518513185254
  0.1857688797692830  0.2451561655931337  0.4892396252558189
  0.0612781579848066  0.7564202556268850  0.5104399367499833
  0.1868301765307629  0.4803167842405284  0.3366108686085463
  0.0611073065065298  0.5200453094670608  0.6662281017445620
  0.1863744386915235  0.5819794295547063  0.4793264529229548
  0.0611895566198294  0.4181376658112365  0.5234822573765369
  0.1867572805763623  0.3730956843628035  0.3976585216003614
  0.0611487558705060  0.6275469075402101  0.6050023117622305
  0.4357154041319134  0.9229018476970510  0.4752568168752937
  0.3112188950255170  0.0802568849640030  0.5220568914214284
  0.4365612447839671  0.9794436836984942  0.6307341825928712
  0.3106712736381058  0.0227238412652216  0.3666002481043473
  0.4372344063784044  0.8324453689578359  0.6215339720693890
  0.3106054337324871  0.1687407772296365  0.3750059592312232
  0.4357399814710018  0.1553140791506029  0.6294984964742898
  0.3101519037744646  0.8438124728359632  0.3683509046330080
  0.4360990645315452  0.3412334025582452  0.6276772690660239
  0.3116144869972510  0.6544468764444957  0.3742435891705292
  0.4358968515407249  0.2451552323542446  0.4888745602542550
  0.3121972590815484  0.7567823052737629  0.5098691042610949
  0.4364214007345812  0.4807646288040964  0.3364792529512463
  0.3091314317416878  0.5188525078641280  0.6679484258436019
  0.4365409907182846  0.5806348486563686  0.4805462883238696
  0.3130661477842463  0.4190483679363787  0.5253875831511732
  0.4367101202247327  0.3726217959618218  0.3968588419137212
  0.3121330774182104  0.6262065500342964  0.6071680837152234
  0.6868922687556691  0.9228878120354003  0.4752562089866200
  0.5611984705134020  0.0806075855933658  0.5216905491854885
  0.6859565853805325  0.9793544979316321  0.6307423902936311
  0.5613485471069172  0.0234242701153730  0.3663799671967625
  0.6854016933150312  0.8324307826801374  0.6215323492581023
  0.5612639343570761  0.1695143605011143  0.3753341719113347
  0.6865833053240744  0.1554246780645153  0.6294890984502927
  0.5612709523762945  0.8448422138534010  0.3665634417405561
  0.6862151798352673  0.3412446247769574  0.6275788385343128
  0.5611686729583408  0.6552533537786276  0.3736119209983061
  0.6863815634889743  0.2452335674415978  0.4888960000612538
  0.5613149878382940  0.7610999580383616  0.5064056451868405
  0.6856954342020881  0.4808552039932481  0.3365022506004705
  0.5614844081992414  0.4900869147219917  0.6793033616960066
  0.6856758368731836  0.5807214474239921  0.4805353830688009
  0.5609917933323754  0.4169395934796726  0.5251167452773413
  0.6854602479217384  0.3727044680624350  0.3969138524511123
  0.5610660444026270  0.6257449141859833  0.6007458537292926
  0.9365597773538291  0.9216029888166751  0.4761519065691884
  0.8112716230207542  0.0803011101207619  0.5221292185738114
  0.9360448225122427  0.9791003693548517  0.6316393107439703
  0.8119340846050498  0.0227623418958381  0.3666419456912278
  0.9358827521336257  0.8330465260879656  0.6229101349686937
  0.8119520633211241  0.1687639461624128  0.3750923278339852
  0.9361989004982643  0.1569287234683638  0.6300652785933551
  0.8124484862651702  0.8438427638253232  0.3682854851156000
  0.9363608697251655  0.3445938933133837  0.6274924297397010
  0.8108513863330991  0.6545531316156340  0.3741874441349612
  0.9365486801961990  0.2451418698518004  0.4891886133975844
  0.8102665514296035  0.7568133208741067  0.5098295945874355
  0.9354738269715756  0.4804417362565466  0.3365986501980485
  0.8131464135281850  0.5186938376527742  0.6678897454257597
  0.9359150271338734  0.5820615697652085  0.4792460477823111
  0.8091985185049594  0.4190587979646882  0.5253171824779718
  0.9353499215411935  0.3732833565871365  0.3976625463827443
  0.8102220612707862  0.6261388085693861  0.6071495129952298
  0.5620469638949825  0.4098146506931104  0.7208421084224952
 
  0.00000000E+00  0.00000000E+00  0.00000000E+00
  0.00000000E+00  0.00000000E+00  0.00000000E+00
  0.00000000E+00  0.00000000E+00  0.00000000E+00
  0.00000000E+00  0.00000000E+00  0.00000000E+00
  0.00000000E+00  0.00000000E+00  0.00000000E+00
  0.00000000E+00  0.00000000E+00  0.00000000E+00
  0.00000000E+00  0.00000000E+00  0.00000000E+00
  0.00000000E+00  0.00000000E+00  0.00000000E+00
  0.00000000E+00  0.00000000E+00  0.00000000E+00
  0.00000000E+00  0.00000000E+00  0.00000000E+00
  0.00000000E+00  0.00000000E+00  0.00000000E+00
  0.00000000E+00  0.00000000E+00  0.00000000E+00
  0.00000000E+00  0.00000000E+00  0.00000000E+00
  0.00000000E+00  0.00000000E+00  0.00000000E+00
  0.00000000E+00  0.00000000E+00  0.00000000E+00
  0.00000000E+00  0.00000000E+00  0.00000000E+00
  0.00000000E+00  0.00000000E+00  0.00000000E+00
  0.00000000E+00  0.00000000E+00  0.00000000E+00
  0.00000000E+00  0.00000000E+00  0.00000000E+00
  0.00000000E+00  0.00000000E+00  0.00000000E+00
  0.00000000E+00  0.00000000E+00  0.00000000E+00
  0.00000000E+00  0.00000000E+00  0.00000000E+00
  0.00000000E+00  0.00000000E+00  0.00000000E+00
  0.00000000E+00  0.00000000E+00  0.00000000E+00
  0.00000000E+00  0.00000000E+00  0.00000000E+00
  0.00000000E+00  0.00000000E+00  0.00000000E+00
  0.00000000E+00  0.00000000E+00  0.00000000E+00
  0.00000000E+00  0.00000000E+00  0.00000000E+00
  0.00000000E+00  0.00000000E+00  0.00000000E+00
  0.00000000E+00  0.00000000E+00  0.00000000E+00
  0.00000000E+00  0.00000000E+00  0.00000000E+00
  0.00000000E+00  0.00000000E+00  0.00000000E+00
  0.00000000E+00  0.00000000E+00  0.00000000E+00
  0.00000000E+00  0.00000000E+00  0.00000000E+00
  0.00000000E+00  0.00000000E+00  0.00000000E+00
  0.00000000E+00  0.00000000E+00  0.00000000E+00
  0.00000000E+00  0.00000000E+00  0.00000000E+00
  0.00000000E+00  0.00000000E+00  0.00000000E+00
  0.00000000E+00  0.00000000E+00  0.00000000E+00
  0.00000000E+00  0.00000000E+00  0.00000000E+00
  0.00000000E+00  0.00000000E+00  0.00000000E+00
  0.00000000E+00  0.00000000E+00  0.00000000E+00
  0.00000000E+00  0.00000000E+00  0.00000000E+00
  0.00000000E+00  0.00000000E+00  0.00000000E+00
  0.00000000E+00  0.00000000E+00  0.00000000E+00
  0.00000000E+00  0.00000000E+00  0.00000000E+00
  0.00000000E+00  0.00000000E+00  0.00000000E+00
  0.00000000E+00  0.00000000E+00  0.00000000E+00
  0.00000000E+00  0.00000000E+00  0.00000000E+00
  0.00000000E+00  0.00000000E+00  0.00000000E+00
  0.00000000E+00  0.00000000E+00  0.00000000E+00
  0.00000000E+00  0.00000000E+00  0.00000000E+00
  0.00000000E+00  0.00000000E+00  0.00000000E+00
  0.00000000E+00  0.00000000E+00  0.00000000E+00
  0.00000000E+00  0.00000000E+00  0.00000000E+00
  0.00000000E+00  0.00000000E+00  0.00000000E+00
  0.00000000E+00  0.00000000E+00  0.00000000E+00
  0.00000000E+00  0.00000000E+00  0.00000000E+00
  0.00000000E+00  0.00000000E+00  0.00000000E+00
  0.00000000E+00  0.00000000E+00  0.00000000E+00
  0.00000000E+00  0.00000000E+00  0.00000000E+00
  0.00000000E+00  0.00000000E+00  0.00000000E+00
  0.00000000E+00  0.00000000E+00  0.00000000E+00
  0.00000000E+00  0.00000000E+00  0.00000000E+00
  0.00000000E+00  0.00000000E+00  0.00000000E+00
  0.00000000E+00  0.00000000E+00  0.00000000E+00
  0.00000000E+00  0.00000000E+00  0.00000000E+00
  0.00000000E+00  0.00000000E+00  0.00000000E+00
  0.00000000E+00  0.00000000E+00  0.00000000E+00
  0.00000000E+00  0.00000000E+00  0.00000000E+00
  0.00000000E+00  0.00000000E+00  0.00000000E+00
  0.00000000E+00  0.00000000E+00  0.00000000E+00
  0.00000000E+00  0.00000000E+00  0.00000000E+00
  0.00000000E+00  0.00000000E+00  0.00000000E+00
  0.00000000E+00  0.00000000E+00  0.00000000E+00
  0.00000000E+00  0.00000000E+00  0.00000000E+00
  0.00000000E+00  0.00000000E+00  0.00000000E+00
  0.00000000E+00  0.00000000E+00  0.00000000E+00
  0.00000000E+00  0.00000000E+00  0.00000000E+00
  0.00000000E+00  0.00000000E+00  0.00000000E+00
  0.00000000E+00  0.00000000E+00  0.00000000E+00
  0.00000000E+00  0.00000000E+00  0.00000000E+00
  0.00000000E+00  0.00000000E+00  0.00000000E+00
  0.00000000E+00  0.00000000E+00  0.00000000E+00
  0.00000000E+00  0.00000000E+00  0.00000000E+00
  0.00000000E+00  0.00000000E+00  0.00000000E+00
  0.00000000E+00  0.00000000E+00  0.00000000E+00
  0.00000000E+00  0.00000000E+00  0.00000000E+00
  0.00000000E+00  0.00000000E+00  0.00000000E+00
  0.00000000E+00  0.00000000E+00  0.00000000E+00
  0.00000000E+00  0.00000000E+00  0.00000000E+00
  0.00000000E+00  0.00000000E+00  0.00000000E+00
  0.00000000E+00  0.00000000E+00  0.00000000E+00
  0.00000000E+00  0.00000000E+00  0.00000000E+00
  0.00000000E+00  0.00000000E+00  0.00000000E+00
  0.00000000E+00  0.00000000E+00  0.00000000E+00
  0.00000000E+00  0.00000000E+00  0.00000000E+00
