CONTCAR\(8)                             
   1.00000000000000     
    13.7044000625999995    0.0000000000000000    0.0000000000000000
     6.8522000312999998   11.8683585978000004    0.0000000000000000
     0.0000000000000000    0.0000000000000000   18.4445991515999985
   Cr   Ge   Te   O 
     8     8    24     1
Selective dynamics
Direct
  0.1665162142001790  0.1666791722652334  0.4954410782411358   F   F   F
  0.3350094517214544  0.3292316966063780  0.4903624157611262   F   F   F
  0.6637527923280402  0.1674766574481978  0.4954865274861220   F   F   F
  0.8336823857342495  0.3328720189852632  0.5027559273133377   F   F   F
  0.1642981075919963  0.6706637869271148  0.4904035597323571   F   F   F
  0.3312921671700195  0.8324922695333683  0.4954503923517990   F   F   F
  0.6665496893070184  0.6671366810077828  0.5027452783198783   F   F   F
  0.8332163722116093  0.8333001375258178  0.4954813289564015   F   F   F
  0.9977475910891584  0.0021601079929496  0.4303606717499591   F   F   F
  0.9997100605477840  0.0003276365406535  0.5613935856547769   F   F   F
  0.4999745678290708  0.9977815558643641  0.4303625912109226   F   F   F
  0.5000756203894667  0.9996035373481504  0.5613864599676646   F   F   F
  0.9973671538147855  0.5000024500856597  0.4310824481803195   F   F   F
  0.0023424197009305  0.5000190095159311  0.5620250657664911   F   F   F
  0.4737233819823103  0.4999771051744517  0.4518048819971412   F   F   F
  0.5269763428137395  0.5000736843834304  0.6437036438327226   F   F   F
  0.3125361667796938  0.9994968611721831  0.5898680775072549   F   F   F
  0.0056312866375734  0.1838156159043720  0.5928246290461416   F   F   F
  0.1907032956147248  0.3134200852132807  0.5889760029985354   F   F   F
  0.1832936932983245  0.4999802362580112  0.3986485413082690   F   F   F
  0.5010199092314949  0.3093766744650495  0.3983264137854547   F   F   F
  0.3122158972799625  0.1831209934698279  0.3988562215526201   F   F   F
  0.8120504103859290  0.0004645403148871  0.5899361805044023   F   F   F
  0.4972943437934916  0.1880998040155077  0.5893713190794827   F   F   F
  0.6960319591524069  0.3013851194030579  0.5933709425644551   F   F   F
  0.6661481410362597  0.5000030179870834  0.4245933156618733   F   F   F
  0.9947593660912730  0.3145378126299789  0.4032549172719442   F   F   F
  0.8110316632508940  0.1912605496997273  0.4041902120918266   F   F   F
  0.3417297272072020  0.4998873329374618  0.5630171804322970   F   F   F
  0.0041177939769597  0.6865583936507917  0.5890266349655349   F   F   F
  0.1854538561369239  0.8118686237363448  0.5893765458681486   F   F   F
  0.1859742624513956  0.0003335824161681  0.4011518254593867   F   F   F
  0.5023443017869909  0.8087192400811531  0.4041165954169799   F   F   F
  0.3104239086580591  0.6905670606464795  0.3983720441541436   F   F   F
  0.8166345529487202  0.5000083219342244  0.5956180584528497   F   F   F
  0.4973936102072685  0.6987265076402522  0.5933803577287264   F   F   F
  0.6895056277604255  0.8161188675493278  0.5928452914746956   F   F   F
  0.6863859384466409  0.9996244358665720  0.4011731508448761   F   F   F
  0.9953611501208215  0.8167511452981273  0.3988948571946267   F   F   F
  0.8093307069161639  0.6855205880206796  0.4032812282797593   F   F   F
  0.5003435423986033  0.5005573174846774  0.7307300616428229   T   T   T
 
  0.00000000E+00  0.00000000E+00  0.00000000E+00
  0.00000000E+00  0.00000000E+00  0.00000000E+00
  0.00000000E+00  0.00000000E+00  0.00000000E+00
  0.00000000E+00  0.00000000E+00  0.00000000E+00
  0.00000000E+00  0.00000000E+00  0.00000000E+00
  0.00000000E+00  0.00000000E+00  0.00000000E+00
  0.00000000E+00  0.00000000E+00  0.00000000E+00
  0.00000000E+00  0.00000000E+00  0.00000000E+00
  0.00000000E+00  0.00000000E+00  0.00000000E+00
  0.00000000E+00  0.00000000E+00  0.00000000E+00
  0.00000000E+00  0.00000000E+00  0.00000000E+00
  0.00000000E+00  0.00000000E+00  0.00000000E+00
  0.00000000E+00  0.00000000E+00  0.00000000E+00
  0.00000000E+00  0.00000000E+00  0.00000000E+00
  0.00000000E+00  0.00000000E+00  0.00000000E+00
  0.00000000E+00  0.00000000E+00  0.00000000E+00
  0.00000000E+00  0.00000000E+00  0.00000000E+00
  0.00000000E+00  0.00000000E+00  0.00000000E+00
  0.00000000E+00  0.00000000E+00  0.00000000E+00
  0.00000000E+00  0.00000000E+00  0.00000000E+00
  0.00000000E+00  0.00000000E+00  0.00000000E+00
  0.00000000E+00  0.00000000E+00  0.00000000E+00
  0.00000000E+00  0.00000000E+00  0.00000000E+00
  0.00000000E+00  0.00000000E+00  0.00000000E+00
  0.00000000E+00  0.00000000E+00  0.00000000E+00
  0.00000000E+00  0.00000000E+00  0.00000000E+00
  0.00000000E+00  0.00000000E+00  0.00000000E+00
  0.00000000E+00  0.00000000E+00  0.00000000E+00
  0.00000000E+00  0.00000000E+00  0.00000000E+00
  0.00000000E+00  0.00000000E+00  0.00000000E+00
  0.00000000E+00  0.00000000E+00  0.00000000E+00
  0.00000000E+00  0.00000000E+00  0.00000000E+00
  0.00000000E+00  0.00000000E+00  0.00000000E+00
  0.00000000E+00  0.00000000E+00  0.00000000E+00
  0.00000000E+00  0.00000000E+00  0.00000000E+00
  0.00000000E+00  0.00000000E+00  0.00000000E+00
  0.00000000E+00  0.00000000E+00  0.00000000E+00
  0.00000000E+00  0.00000000E+00  0.00000000E+00
  0.00000000E+00  0.00000000E+00  0.00000000E+00
  0.00000000E+00  0.00000000E+00  0.00000000E+00
  0.00000000E+00  0.00000000E+00  0.00000000E+00
