CONTCAR\(3)                             
   1.00000000000000     
    11.7566995620999997    0.0000000000000000    0.0000000000000000
     0.0000000000000000   11.8254995346000005    0.0000000000000000
     0.0000000000000000    0.0000000000000000   21.8330993651999989
   Zr   Te   O 
    12    36     1
Direct
  0.0814896031269043  0.3451825699667452  0.5741345526221835
  0.2530838358909548  0.0896759004381309  0.4243177854233195
  0.4209133919736061  0.3263312209681288  0.5854476718623971
  0.5862166341357451  0.0894608992651129  0.4236289030533200
  0.7527239528276013  0.3412728377322765  0.5746578798789059
  0.9188209320109451  0.0904568659763640  0.4233763069241760
  0.0844687041232746  0.8420382712346139  0.5778801213689775
  0.2519875972348515  0.5909499029320884  0.4257744807290749
  0.4175672429569985  0.8407675118635183  0.5775986617627140
  0.5833095243618800  0.5902236052770320  0.4259839915949684
  0.7508349846493232  0.8415037688237703  0.5779738335893470
  0.9172033858317334  0.5918920819018467  0.4240914661082655
  0.1998145055426761  0.2246655028309448  0.6752123275832815
  0.2571072606944398  0.3377719516751654  0.4787565254603052
  0.0871687732309923  0.2102130252291659  0.3451053465043614
  0.0850447770139340  0.4722580312314690  0.3456882920533673
  0.2404966286726591  0.4617244738610395  0.6548335817010127
  0.0847466338171188  0.0924550982387444  0.5252621846785601
  0.6208802618151097  0.2212894001880699  0.6642436163557690
  0.5839588969907723  0.3383045070344579  0.4772523681746748
  0.4193843198308329  0.2095660290841863  0.3456770205219755
  0.4171082876513879  0.4719655963520424  0.3456481188206553
  0.5804989771531766  0.4542520728217525  0.6601062195398555
  0.4216256228335453  0.0855198137956634  0.5246248875145341
  0.9308773585551648  0.2295572297813706  0.6665440010016965
  0.9175087703191807  0.3405143124292493  0.4737606397561649
  0.7520309021248721  0.2096999830023165  0.3439619430214336
  0.7495608947941506  0.4719357796860635  0.3454580484276306
  0.9111565065546401  0.4657787258329051  0.6523727702934821
  0.7533814659982667  0.0911159892525930  0.5255955967824235
  0.2489990924795507  0.7267416837426950  0.6607641127423420
  0.2514172791205169  0.8407999242189419  0.4760250864949427
  0.0859383492447137  0.7099130366378148  0.3452904144181161
  0.0853209027571253  0.9724447093274478  0.3437738771045531
  0.2504715308022725  0.9650665931005094  0.6531499205153750
  0.0833806562086465  0.5936248716300625  0.5255001687303320
  0.5863676498801098  0.7230189149813810  0.6580452740895524
  0.5847894422480309  0.8395440152922546  0.4762759354074788
  0.4183306873342048  0.7096739684447897  0.3466975493042597
  0.4185621670515758  0.9719932920596435  0.3428944256719078
  0.5810303876350957  0.9600687011073532  0.6573822138283134
  0.4168462733426850  0.5915169908963733  0.5282011553201613
  0.9189738396843339  0.7276102234248327  0.6610345617614399
  0.9177667965746110  0.8417841018420944  0.4759891697338006
  0.7496758999241138  0.7096746471052811  0.3455018056474373
  0.7522784371529951  0.9715570425181710  0.3438335305369122
  0.9165729687530160  0.9649387134348331  0.6541611074623148
  0.7512677113659691  0.5921223426379143  0.5262702339229293
  0.3676491007237246  0.2229530348907787  0.6495908501989902
 
  0.00000000E+00  0.00000000E+00  0.00000000E+00
  0.00000000E+00  0.00000000E+00  0.00000000E+00
  0.00000000E+00  0.00000000E+00  0.00000000E+00
  0.00000000E+00  0.00000000E+00  0.00000000E+00
  0.00000000E+00  0.00000000E+00  0.00000000E+00
  0.00000000E+00  0.00000000E+00  0.00000000E+00
  0.00000000E+00  0.00000000E+00  0.00000000E+00
  0.00000000E+00  0.00000000E+00  0.00000000E+00
  0.00000000E+00  0.00000000E+00  0.00000000E+00
  0.00000000E+00  0.00000000E+00  0.00000000E+00
  0.00000000E+00  0.00000000E+00  0.00000000E+00
  0.00000000E+00  0.00000000E+00  0.00000000E+00
  0.00000000E+00  0.00000000E+00  0.00000000E+00
  0.00000000E+00  0.00000000E+00  0.00000000E+00
  0.00000000E+00  0.00000000E+00  0.00000000E+00
  0.00000000E+00  0.00000000E+00  0.00000000E+00
  0.00000000E+00  0.00000000E+00  0.00000000E+00
  0.00000000E+00  0.00000000E+00  0.00000000E+00
  0.00000000E+00  0.00000000E+00  0.00000000E+00
  0.00000000E+00  0.00000000E+00  0.00000000E+00
  0.00000000E+00  0.00000000E+00  0.00000000E+00
  0.00000000E+00  0.00000000E+00  0.00000000E+00
  0.00000000E+00  0.00000000E+00  0.00000000E+00
  0.00000000E+00  0.00000000E+00  0.00000000E+00
  0.00000000E+00  0.00000000E+00  0.00000000E+00
  0.00000000E+00  0.00000000E+00  0.00000000E+00
  0.00000000E+00  0.00000000E+00  0.00000000E+00
  0.00000000E+00  0.00000000E+00  0.00000000E+00
  0.00000000E+00  0.00000000E+00  0.00000000E+00
  0.00000000E+00  0.00000000E+00  0.00000000E+00
  0.00000000E+00  0.00000000E+00  0.00000000E+00
  0.00000000E+00  0.00000000E+00  0.00000000E+00
  0.00000000E+00  0.00000000E+00  0.00000000E+00
  0.00000000E+00  0.00000000E+00  0.00000000E+00
  0.00000000E+00  0.00000000E+00  0.00000000E+00
  0.00000000E+00  0.00000000E+00  0.00000000E+00
  0.00000000E+00  0.00000000E+00  0.00000000E+00
  0.00000000E+00  0.00000000E+00  0.00000000E+00
  0.00000000E+00  0.00000000E+00  0.00000000E+00
  0.00000000E+00  0.00000000E+00  0.00000000E+00
  0.00000000E+00  0.00000000E+00  0.00000000E+00
  0.00000000E+00  0.00000000E+00  0.00000000E+00
  0.00000000E+00  0.00000000E+00  0.00000000E+00
  0.00000000E+00  0.00000000E+00  0.00000000E+00
  0.00000000E+00  0.00000000E+00  0.00000000E+00
  0.00000000E+00  0.00000000E+00  0.00000000E+00
  0.00000000E+00  0.00000000E+00  0.00000000E+00
  0.00000000E+00  0.00000000E+00  0.00000000E+00
  0.00000000E+00  0.00000000E+00  0.00000000E+00
