 Ti2 Br2 O2                             
   1.00000000000000     
     3.3198986176253280    0.0000000000000000    0.0000000000000000
     0.0000000000000000    3.9871792540752828    0.0000000000000000
     0.0000000000000000    0.0000000000000000   20.2246911658580011
   Ti   Br   O 
     2     2     2
Direct
  0.4999999640028250  0.9999999954686274  0.4663472449274622
  0.0000000401802964  0.5000000078138669  0.5336622209501485
  0.9999999589018032  0.9999999935528550  0.3693705992080325
  0.5000000255818549  0.5000000135493181  0.6306216645601808
  0.5000000361629020  0.4999999979842116  0.4714758878613665
  0.9999999751703328  0.9999999916311282  0.5285223824928025
 
  0.00000000E+00  0.00000000E+00  0.00000000E+00
  0.00000000E+00  0.00000000E+00  0.00000000E+00
  0.00000000E+00  0.00000000E+00  0.00000000E+00
  0.00000000E+00  0.00000000E+00  0.00000000E+00
  0.00000000E+00  0.00000000E+00  0.00000000E+00
  0.00000000E+00  0.00000000E+00  0.00000000E+00
