CONTCAR\(6)                             
   1.00000000000000     
    12.8863000870000004    0.0000000000000000    0.0000000000000000
     6.4431192937999997   11.1597653626000000    0.0000000000000000
     0.0000000000000000    0.0000000000000000   25.6977996825999995
   In   Te
    27    36
Direct
  0.0000000000000000 -0.0000000000000000  0.5000000000000000
  0.1111099960000033  0.1111099980000034  0.3509207410285017
  0.2222199930000031  0.2222199959999998  0.6490792589714984
  0.3333300150000014  0.0000000000000000  0.5000000000000000
  0.4444400120000012  0.1111099980000034  0.3509207410285017
  0.5555600360000028  0.2222199959999998  0.6490792589714984
  0.6666700219999981  0.0000000000000000  0.5000000000000000
  0.7777799440000024  0.1111099980000034  0.3509207410285017
  0.8888900879999966  0.2222199959999998  0.6490792589714984
  0.0000000049999969  0.3333300039999969  0.5000000000000000
  0.1111100070000006  0.4444399910000030  0.3509207410285017
  0.2222200320000027  0.5555599979999997  0.6490792589714984
  0.3333300210000019  0.3333300039999969  0.5000000000000000
  0.4444399859999990  0.4444399910000030  0.3509207410285017
  0.5555600010000035  0.5555599979999997  0.6490792589714984
  0.6666700270000021  0.3333300039999969  0.5000000000000000
  0.7777799549999997  0.4444399910000030  0.3509207410285017
  0.8888900529999972  0.5555599979999997  0.6490792589714984
  0.0000000069999970  0.6666700070000005  0.5000000000000000
  0.1111100569999977  0.7777799719999976  0.3509207410285017
  0.2222200479999970  0.8888899809999984  0.6490792589714984
  0.3333300230000020  0.6666700070000005  0.5000000000000000
  0.4444400349999995  0.7777799719999976  0.3509207410285017
  0.5555600169999977  0.8888899809999984  0.6490792589714984
  0.6666700660000018  0.6666700070000005  0.5000000000000000
  0.7777800040000002  0.7777799719999976  0.3509207410285017
  0.8888900689999986  0.8888899809999984  0.6490792589714984
  0.0000000000000000 -0.0000000000000000  0.2935078892605105
 -0.0000000000000000  0.0000000000000000  0.7064921477394892
  0.1111099960000033  0.1111099980000034  0.5685989352717321
  0.2222199930000031  0.2222199959999998  0.4314011017282675
  0.3333300150000014 -0.0000000000000000  0.2935078892605105
  0.3333300150000014  0.0000000000000000  0.7064921477394892
  0.4444400120000012  0.1111099980000034  0.5685989352717321
  0.5555600360000028  0.2222199959999998  0.4314011017282675
  0.6666700219999981 -0.0000000000000000  0.2935078892605105
  0.6666700219999981  0.0000000000000000  0.7064921477394892
  0.7777799440000024  0.1111099980000034  0.5685989352717321
  0.8888900879999966  0.2222199959999998  0.4314011017282675
  0.0000000049999969  0.3333300039999969  0.2935078892605105
  0.0000000049999969  0.3333300039999969  0.7064921477394892
  0.1111100070000006  0.4444399910000030  0.5685989352717321
  0.2222200320000027  0.5555599979999997  0.4314011017282675
  0.3333300210000019  0.3333300039999969  0.2935078892605105
  0.3333300210000019  0.3333300039999969  0.7064921477394892
  0.4444399859999990  0.4444399910000030  0.5685989352717321
  0.5555600010000035  0.5555599979999997  0.4314011017282675
  0.6666700270000021  0.3333300039999969  0.2935078892605105
  0.6666700270000021  0.3333300039999969  0.7064921477394892
  0.7777799549999997  0.4444399910000030  0.5685989352717321
  0.8888900529999972  0.5555599979999997  0.4314011017282675
  0.0000000069999970  0.6666700070000005  0.2935078892605105
  0.0000000069999970  0.6666700070000005  0.7064921477394892
  0.1111100569999977  0.7777799719999976  0.5685989352717321
  0.2222200479999970  0.8888899809999984  0.4314011017282675
  0.3333300230000020  0.6666700070000005  0.2935078892605105
  0.3333300230000020  0.6666700070000005  0.7064921477394892
  0.4444400349999995  0.7777799719999976  0.5685989352717321
  0.5555600169999977  0.8888899809999984  0.4314011017282675
  0.6666700660000018  0.6666700070000005  0.2935078892605105
  0.6666700660000018  0.6666700070000005  0.7064921477394892
  0.7777800040000002  0.7777799719999976  0.5685989352717321
  0.8888900689999986  0.8888899809999984  0.4314011017282675
 
  0.00000000E+00  0.00000000E+00  0.00000000E+00
  0.00000000E+00  0.00000000E+00  0.00000000E+00
  0.00000000E+00  0.00000000E+00  0.00000000E+00
  0.00000000E+00  0.00000000E+00  0.00000000E+00
  0.00000000E+00  0.00000000E+00  0.00000000E+00
  0.00000000E+00  0.00000000E+00  0.00000000E+00
  0.00000000E+00  0.00000000E+00  0.00000000E+00
  0.00000000E+00  0.00000000E+00  0.00000000E+00
  0.00000000E+00  0.00000000E+00  0.00000000E+00
  0.00000000E+00  0.00000000E+00  0.00000000E+00
  0.00000000E+00  0.00000000E+00  0.00000000E+00
  0.00000000E+00  0.00000000E+00  0.00000000E+00
  0.00000000E+00  0.00000000E+00  0.00000000E+00
  0.00000000E+00  0.00000000E+00  0.00000000E+00
  0.00000000E+00  0.00000000E+00  0.00000000E+00
  0.00000000E+00  0.00000000E+00  0.00000000E+00
  0.00000000E+00  0.00000000E+00  0.00000000E+00
  0.00000000E+00  0.00000000E+00  0.00000000E+00
  0.00000000E+00  0.00000000E+00  0.00000000E+00
  0.00000000E+00  0.00000000E+00  0.00000000E+00
  0.00000000E+00  0.00000000E+00  0.00000000E+00
  0.00000000E+00  0.00000000E+00  0.00000000E+00
  0.00000000E+00  0.00000000E+00  0.00000000E+00
  0.00000000E+00  0.00000000E+00  0.00000000E+00
  0.00000000E+00  0.00000000E+00  0.00000000E+00
  0.00000000E+00  0.00000000E+00  0.00000000E+00
  0.00000000E+00  0.00000000E+00  0.00000000E+00
  0.00000000E+00  0.00000000E+00  0.00000000E+00
  0.00000000E+00  0.00000000E+00  0.00000000E+00
  0.00000000E+00  0.00000000E+00  0.00000000E+00
  0.00000000E+00  0.00000000E+00  0.00000000E+00
  0.00000000E+00  0.00000000E+00  0.00000000E+00
  0.00000000E+00  0.00000000E+00  0.00000000E+00
  0.00000000E+00  0.00000000E+00  0.00000000E+00
  0.00000000E+00  0.00000000E+00  0.00000000E+00
  0.00000000E+00  0.00000000E+00  0.00000000E+00
  0.00000000E+00  0.00000000E+00  0.00000000E+00
  0.00000000E+00  0.00000000E+00  0.00000000E+00
  0.00000000E+00  0.00000000E+00  0.00000000E+00
  0.00000000E+00  0.00000000E+00  0.00000000E+00
  0.00000000E+00  0.00000000E+00  0.00000000E+00
  0.00000000E+00  0.00000000E+00  0.00000000E+00
  0.00000000E+00  0.00000000E+00  0.00000000E+00
  0.00000000E+00  0.00000000E+00  0.00000000E+00
  0.00000000E+00  0.00000000E+00  0.00000000E+00
  0.00000000E+00  0.00000000E+00  0.00000000E+00
  0.00000000E+00  0.00000000E+00  0.00000000E+00
  0.00000000E+00  0.00000000E+00  0.00000000E+00
  0.00000000E+00  0.00000000E+00  0.00000000E+00
  0.00000000E+00  0.00000000E+00  0.00000000E+00
  0.00000000E+00  0.00000000E+00  0.00000000E+00
  0.00000000E+00  0.00000000E+00  0.00000000E+00
  0.00000000E+00  0.00000000E+00  0.00000000E+00
  0.00000000E+00  0.00000000E+00  0.00000000E+00
  0.00000000E+00  0.00000000E+00  0.00000000E+00
  0.00000000E+00  0.00000000E+00  0.00000000E+00
  0.00000000E+00  0.00000000E+00  0.00000000E+00
  0.00000000E+00  0.00000000E+00  0.00000000E+00
  0.00000000E+00  0.00000000E+00  0.00000000E+00
  0.00000000E+00  0.00000000E+00  0.00000000E+00
  0.00000000E+00  0.00000000E+00  0.00000000E+00
  0.00000000E+00  0.00000000E+00  0.00000000E+00
  0.00000000E+00  0.00000000E+00  0.00000000E+00
