CONTCAR\(3)                             
   1.00000000000000     
    12.1801004410000004    0.0000000000000000    0.0000000000000000
    -1.4509505809000001   16.7930344431000016    0.0000000000000000
     0.0000000000000000    0.0000000000000000   21.1623001098999985
   Cu   Se   Cl   O 
    24    16    16    49
Direct
  0.4119429001925365  0.2781691601009738  0.3769114318802431
  0.2592894393713753  0.1685701038650687  0.4628416882046890
  0.4975785457570664  0.1840922360068671  0.6234020732578333
  0.3533402225737476  0.0112683221529230  0.5348340904656670
  0.1493627994037927  0.2915286036206424  0.5371837865200036
  0.0576198819368266  0.4500681137635967  0.4670548121384778
  0.9121242095837487  0.2779773278073715  0.3770769888556739
  0.7591947868347991  0.1683669104500438  0.4627025622984888
  0.9974856550064157  0.1836083056050658  0.6243730541810225
  0.8525677724145250  0.0113087932711251  0.5348359669910775
  0.6502623973792468  0.2916901368695745  0.5368067420184305
  0.5595082990243013  0.4508994675258828  0.4663223007284638
  0.4132211084356008  0.7771828381814555  0.3762508224546174
  0.2609535509074836  0.6693206092058843  0.4641310709414926
  0.5058820009415664  0.6898882957279990  0.6302550002056302
  0.3466725939332494  0.5097198603695909  0.5302662547953958
  0.1515347958189811  0.7928877308630581  0.5375063029712267
  0.0587032121784058  0.9504655489520977  0.4654294888737544
  0.9130672314702879  0.7763382910908917  0.3769719553947748
  0.7601188913895305  0.6676143709156248  0.4641160421737687
  0.0016314846197767  0.6855155567581758  0.6252410851170825
  0.8526691219646629  0.5121817169674991  0.5378016291284423
  0.6517869790498535  0.7924681301338152  0.5355488680729149
  0.5581722586108598  0.9502744904860749  0.4639273664564566
  0.1606922961197351  0.3274750557992806  0.3781170705529588
  0.2487840729307039  0.1340199310434533  0.6225096475042214
  0.0211243279837393  0.1227814717372887  0.4226915297357226
  0.3882923044675949  0.3385671004663490  0.5765680239488701
  0.6612372187381903  0.3274587686675383  0.3779468515631520
  0.7480794628063407  0.1338309853057355  0.6224574142007864
  0.5208036434811115  0.1227980488648837  0.4223750348376831
  0.8878568940720228  0.3384204602104629  0.5779648174606086
  0.1618854431596047  0.8268976067798557  0.3777937441044112
  0.2511759546817480  0.6342942378128751  0.6238174594279023
  0.0222599996665126  0.6225933490510198  0.4252210334187770
  0.3905956663665682  0.8386188334803771  0.5764175483268045
  0.6626307695808293  0.8267806527694104  0.3764473015112390
  0.7511021676451430  0.6366443925041824  0.6251292844322563
  0.5224640275787288  0.6234048507712950  0.4239896685877987
  0.8900494325377167  0.8389692771743225  0.5768290098283096
  0.2095946697216697  0.4446734633146989  0.5866124176080219
  0.1995407190273674  0.0174942263915372  0.4129574408114605
  0.4194887915124162  0.4026172487660244  0.3466831505996857
  0.4906980775950373  0.0593125119526582  0.6531659998772669
  0.7083961638695304  0.4466274011204793  0.5886497817759371
  0.6997970327034513  0.0175897731267419  0.4122166865358839
  0.9199009983858637  0.4032169879608891  0.3485199386297763
  0.9916064052619955  0.0590257432852634  0.6541192371257082
  0.2116048345856774  0.9443771969370898  0.5866943359485990
  0.2037519978889711  0.5166490483940146  0.4178388898138068
  0.4201962071386109  0.9014700340050501  0.3455729209802589
  0.4415320419777038  0.5258367895854477  0.6846821842479954
  0.7103592182623791  0.9440842769520500  0.5860615769695957
  0.7021968057971693  0.5181291131428259  0.4155254095992676
  0.9198210042085413  0.9004403190068989  0.3458727167828311
  0.9942251938852567  0.5609493208943163  0.6553477966568546
  0.0579394857966521  0.2578000629046855  0.3527470264992315
  0.4402949206866333  0.4202085511734798  0.5298514142917256
  0.1043420645196607  0.1721491043884635  0.4784112413566346
  0.3515625571754296  0.2041911841835269  0.6472347122601061
  0.2931391764371842  0.1132550943681754  0.5444489223954966
  0.1525929092250627  0.2036163727817771  0.6075366530170478
  0.4678601058227588  0.0408311401999932  0.4683866793762284
  0.4043262088118301  0.1785384958034709  0.4266233416408750
  0.3048040415664385  0.2889006789763211  0.5212775021005024
  0.1150497507724582  0.3472286611187159  0.4561766457926307
  0.0049314943515488  0.2832643021290833  0.5747158403908631
  0.2565575859400628  0.2575757375031598  0.3924758918785028
  0.5579632084841212  0.2577540433880402  0.3531420043108591
  0.9411724027590359  0.4207833925090461  0.5326300383256324
  0.6042270058084951  0.1717834440739883  0.4782090963911191
  0.8510956339006650  0.2031907186399521  0.6479885616385223
  0.7931206979805593  0.1134694630040087  0.5444725681096753
  0.6528621518187238  0.2041201345017413  0.6072947548374048
  0.9682321879298109  0.0410098964074519  0.4689255177507108
  0.9043435396951702  0.1782378377040417  0.4265831451283403
  0.8055611697051483  0.2898564097580116  0.5215382167574494
  0.6175609039393998  0.3483955355172825  0.4561386646826109
  0.5053324516459933  0.2833650848463147  0.5732229089191886
  0.7567701172029668  0.2574677700931626  0.3925924750883393
  0.0590844292588284  0.7563141071844748  0.3538381503409983
  0.4429251641745988  0.9201269887798947  0.5298440619352528
  0.1057575104658903  0.6725279726129948  0.4805271774939101
  0.3564012195180166  0.7005590943524984  0.6511368875778201
  0.2986825910779723  0.6150013196750634  0.5461725352881588
  0.1576109777500501  0.7063157424819761  0.6092530713690010
  0.4695380502949749  0.5414184007019318  0.4704706686908203
  0.4053449388722221  0.6782226410997581  0.4268678280648007
  0.3062074766039024  0.7891623220914524  0.5213378634125168
  0.1177718716521306  0.8480542393269593  0.4558161873068693
  0.0074685251835440  0.7839126845463006  0.5742807589702895
  0.2578400301535834  0.7573216205262352  0.3924289524468177
  0.5591578624310400  0.7565465632073589  0.3526326825175051
  0.9431765363723001  0.9210183557032878  0.5308096006600903
  0.6050868693527249  0.6722128516332725  0.4801369099835700
  0.8559330641346877  0.7052802969040600  0.6496876668477347
  0.7956944176291003  0.6150880876080678  0.5473348834168170
  0.6582395495727837  0.7085803648968071  0.6090682401792756
  0.9690327542653289  0.5415188153639243  0.4720772897064522
  0.9053437378897115  0.6778292224352316  0.4277444113016992
  0.8080201210822129  0.7898146869340070  0.5206994577635317
  0.6176368219686259  0.8481441093564352  0.4542404203281710
  0.5057299313830187  0.7815691158217567  0.5724170746434725
  0.7577769107187086  0.7568984638040637  0.3920972165276012
  0.5371125817816628  0.6022528820127323  0.6803388367570806
 
  0.00000000E+00  0.00000000E+00  0.00000000E+00
  0.00000000E+00  0.00000000E+00  0.00000000E+00
  0.00000000E+00  0.00000000E+00  0.00000000E+00
  0.00000000E+00  0.00000000E+00  0.00000000E+00
  0.00000000E+00  0.00000000E+00  0.00000000E+00
  0.00000000E+00  0.00000000E+00  0.00000000E+00
  0.00000000E+00  0.00000000E+00  0.00000000E+00
  0.00000000E+00  0.00000000E+00  0.00000000E+00
  0.00000000E+00  0.00000000E+00  0.00000000E+00
  0.00000000E+00  0.00000000E+00  0.00000000E+00
  0.00000000E+00  0.00000000E+00  0.00000000E+00
  0.00000000E+00  0.00000000E+00  0.00000000E+00
  0.00000000E+00  0.00000000E+00  0.00000000E+00
  0.00000000E+00  0.00000000E+00  0.00000000E+00
  0.00000000E+00  0.00000000E+00  0.00000000E+00
  0.00000000E+00  0.00000000E+00  0.00000000E+00
  0.00000000E+00  0.00000000E+00  0.00000000E+00
  0.00000000E+00  0.00000000E+00  0.00000000E+00
  0.00000000E+00  0.00000000E+00  0.00000000E+00
  0.00000000E+00  0.00000000E+00  0.00000000E+00
  0.00000000E+00  0.00000000E+00  0.00000000E+00
  0.00000000E+00  0.00000000E+00  0.00000000E+00
  0.00000000E+00  0.00000000E+00  0.00000000E+00
  0.00000000E+00  0.00000000E+00  0.00000000E+00
  0.00000000E+00  0.00000000E+00  0.00000000E+00
  0.00000000E+00  0.00000000E+00  0.00000000E+00
  0.00000000E+00  0.00000000E+00  0.00000000E+00
  0.00000000E+00  0.00000000E+00  0.00000000E+00
  0.00000000E+00  0.00000000E+00  0.00000000E+00
  0.00000000E+00  0.00000000E+00  0.00000000E+00
  0.00000000E+00  0.00000000E+00  0.00000000E+00
  0.00000000E+00  0.00000000E+00  0.00000000E+00
  0.00000000E+00  0.00000000E+00  0.00000000E+00
  0.00000000E+00  0.00000000E+00  0.00000000E+00
  0.00000000E+00  0.00000000E+00  0.00000000E+00
  0.00000000E+00  0.00000000E+00  0.00000000E+00
  0.00000000E+00  0.00000000E+00  0.00000000E+00
  0.00000000E+00  0.00000000E+00  0.00000000E+00
  0.00000000E+00  0.00000000E+00  0.00000000E+00
  0.00000000E+00  0.00000000E+00  0.00000000E+00
  0.00000000E+00  0.00000000E+00  0.00000000E+00
  0.00000000E+00  0.00000000E+00  0.00000000E+00
  0.00000000E+00  0.00000000E+00  0.00000000E+00
  0.00000000E+00  0.00000000E+00  0.00000000E+00
  0.00000000E+00  0.00000000E+00  0.00000000E+00
  0.00000000E+00  0.00000000E+00  0.00000000E+00
  0.00000000E+00  0.00000000E+00  0.00000000E+00
  0.00000000E+00  0.00000000E+00  0.00000000E+00
  0.00000000E+00  0.00000000E+00  0.00000000E+00
  0.00000000E+00  0.00000000E+00  0.00000000E+00
  0.00000000E+00  0.00000000E+00  0.00000000E+00
  0.00000000E+00  0.00000000E+00  0.00000000E+00
  0.00000000E+00  0.00000000E+00  0.00000000E+00
  0.00000000E+00  0.00000000E+00  0.00000000E+00
  0.00000000E+00  0.00000000E+00  0.00000000E+00
  0.00000000E+00  0.00000000E+00  0.00000000E+00
  0.00000000E+00  0.00000000E+00  0.00000000E+00
  0.00000000E+00  0.00000000E+00  0.00000000E+00
  0.00000000E+00  0.00000000E+00  0.00000000E+00
  0.00000000E+00  0.00000000E+00  0.00000000E+00
  0.00000000E+00  0.00000000E+00  0.00000000E+00
  0.00000000E+00  0.00000000E+00  0.00000000E+00
  0.00000000E+00  0.00000000E+00  0.00000000E+00
  0.00000000E+00  0.00000000E+00  0.00000000E+00
  0.00000000E+00  0.00000000E+00  0.00000000E+00
  0.00000000E+00  0.00000000E+00  0.00000000E+00
  0.00000000E+00  0.00000000E+00  0.00000000E+00
  0.00000000E+00  0.00000000E+00  0.00000000E+00
  0.00000000E+00  0.00000000E+00  0.00000000E+00
  0.00000000E+00  0.00000000E+00  0.00000000E+00
  0.00000000E+00  0.00000000E+00  0.00000000E+00
  0.00000000E+00  0.00000000E+00  0.00000000E+00
  0.00000000E+00  0.00000000E+00  0.00000000E+00
  0.00000000E+00  0.00000000E+00  0.00000000E+00
  0.00000000E+00  0.00000000E+00  0.00000000E+00
  0.00000000E+00  0.00000000E+00  0.00000000E+00
  0.00000000E+00  0.00000000E+00  0.00000000E+00
  0.00000000E+00  0.00000000E+00  0.00000000E+00
  0.00000000E+00  0.00000000E+00  0.00000000E+00
  0.00000000E+00  0.00000000E+00  0.00000000E+00
  0.00000000E+00  0.00000000E+00  0.00000000E+00
  0.00000000E+00  0.00000000E+00  0.00000000E+00
  0.00000000E+00  0.00000000E+00  0.00000000E+00
  0.00000000E+00  0.00000000E+00  0.00000000E+00
  0.00000000E+00  0.00000000E+00  0.00000000E+00
  0.00000000E+00  0.00000000E+00  0.00000000E+00
  0.00000000E+00  0.00000000E+00  0.00000000E+00
  0.00000000E+00  0.00000000E+00  0.00000000E+00
  0.00000000E+00  0.00000000E+00  0.00000000E+00
  0.00000000E+00  0.00000000E+00  0.00000000E+00
  0.00000000E+00  0.00000000E+00  0.00000000E+00
  0.00000000E+00  0.00000000E+00  0.00000000E+00
  0.00000000E+00  0.00000000E+00  0.00000000E+00
  0.00000000E+00  0.00000000E+00  0.00000000E+00
  0.00000000E+00  0.00000000E+00  0.00000000E+00
  0.00000000E+00  0.00000000E+00  0.00000000E+00
  0.00000000E+00  0.00000000E+00  0.00000000E+00
  0.00000000E+00  0.00000000E+00  0.00000000E+00
  0.00000000E+00  0.00000000E+00  0.00000000E+00
  0.00000000E+00  0.00000000E+00  0.00000000E+00
  0.00000000E+00  0.00000000E+00  0.00000000E+00
  0.00000000E+00  0.00000000E+00  0.00000000E+00
  0.00000000E+00  0.00000000E+00  0.00000000E+00
  0.00000000E+00  0.00000000E+00  0.00000000E+00
  0.00000000E+00  0.00000000E+00  0.00000000E+00
