CONTCAR\(3)                             
   1.00000000000000     
    13.6462001800999992    0.0000000000000000    0.0000000000000000
     1.7063387634000000   10.2396006658999994    0.0000000000000000
     0.0000000000000000    0.0000000000000000   19.9377994536999985
   Ta   Te   O    H 
    16    24     2     1
Direct
  0.1368403312560610  0.8629781400616863  0.4964910243943555
  0.1002498722702095  0.1594333771871890  0.5132463572081973
  0.1913927434051993  0.4016945176908527  0.5229429546687644
  0.0421213859755096  0.6200366556963772  0.4821685614930752
  0.3867978880014090  0.8632773318870863  0.4974815745975018
  0.3495837908845804  0.1622168610399876  0.5163004218735627
  0.4447891184455761  0.4003535371899883  0.5300361551378644
  0.2930406472539784  0.6180228102082808  0.4849317545665890
  0.6375974581689786  0.8633076430800579  0.4964657414702651
  0.6008132651296215  0.1588544317956404  0.5147039620758009
  0.6958146208476681  0.4027498447380160  0.5268563769411343
  0.5420646867285300  0.6200804886851294  0.4837564524467243
  0.8867316066084183  0.8633926072889274  0.4958333400015655
  0.8505362633299280  0.1596515368032040  0.5132816186262020
  0.9433303355209943  0.4017380065574584  0.5254891094893580
  0.7915740963971556  0.6204187511207554  0.4820240414317479
  0.1612563247948798  0.6575075153499476  0.5923426625285988
  0.0734956720585230  0.3628580058249457  0.4149667477557973
  0.1579688204555522  0.7092079718368630  0.3804347033353681
  0.0832031117041248  0.3162683357123518  0.6289393305548421
 -0.0040457452935273  0.9913892441888121  0.5921439474395639
  0.2419085634903157  0.0321935581000583  0.4188625984970166
  0.4126581856141713  0.6591087279096361  0.5937294090279334
  0.3274624424096499  0.3631765275729023  0.4176157697732615
  0.4055720308605887  0.7090523406487795  0.3810528279143720
  0.3342514722020085  0.3102483068646035  0.6350423045433057
  0.2449098078788138  0.9919343402240474  0.5932614662732639
  0.4902032084315469  0.0326983277684790  0.4192020078764403
  0.6630170539011206  0.6596844322583416  0.5923814331844601
  0.5738841763996381  0.3631092425704142  0.4192449974103480
  0.6544728582164200  0.7103312610523007  0.3797070537804458
  0.5857501616993229  0.3106303506107321  0.6311750332369789
  0.4966864774518222  0.9898007144305272  0.5925579747859566
  0.7408062844654911  0.0314142551840647  0.4175180691206606
  0.9119056207238833  0.6584084208562481  0.5913245887733893
  0.8236841653955715  0.3625399200492454  0.4163198510974139
  0.9060106643467318  0.7099131545965220  0.3790262110483108
  0.8326935734245120  0.3135718564261815  0.6299499312271151
  0.7469997711877681  0.9908913176814435  0.5925853307445699
  0.9915287868968490  0.0302535187743527  0.4174996975018133
  0.4426981062211028  0.2119796163261820  0.7136280636302246
  0.4030883996735508  0.1116165752196446  0.7488074995885424
  0.4298016921657413  0.0332370149317924  0.7222211589272814
 
  0.00000000E+00  0.00000000E+00  0.00000000E+00
  0.00000000E+00  0.00000000E+00  0.00000000E+00
  0.00000000E+00  0.00000000E+00  0.00000000E+00
  0.00000000E+00  0.00000000E+00  0.00000000E+00
  0.00000000E+00  0.00000000E+00  0.00000000E+00
  0.00000000E+00  0.00000000E+00  0.00000000E+00
  0.00000000E+00  0.00000000E+00  0.00000000E+00
  0.00000000E+00  0.00000000E+00  0.00000000E+00
  0.00000000E+00  0.00000000E+00  0.00000000E+00
  0.00000000E+00  0.00000000E+00  0.00000000E+00
  0.00000000E+00  0.00000000E+00  0.00000000E+00
  0.00000000E+00  0.00000000E+00  0.00000000E+00
  0.00000000E+00  0.00000000E+00  0.00000000E+00
  0.00000000E+00  0.00000000E+00  0.00000000E+00
  0.00000000E+00  0.00000000E+00  0.00000000E+00
  0.00000000E+00  0.00000000E+00  0.00000000E+00
  0.00000000E+00  0.00000000E+00  0.00000000E+00
  0.00000000E+00  0.00000000E+00  0.00000000E+00
  0.00000000E+00  0.00000000E+00  0.00000000E+00
  0.00000000E+00  0.00000000E+00  0.00000000E+00
  0.00000000E+00  0.00000000E+00  0.00000000E+00
  0.00000000E+00  0.00000000E+00  0.00000000E+00
  0.00000000E+00  0.00000000E+00  0.00000000E+00
  0.00000000E+00  0.00000000E+00  0.00000000E+00
  0.00000000E+00  0.00000000E+00  0.00000000E+00
  0.00000000E+00  0.00000000E+00  0.00000000E+00
  0.00000000E+00  0.00000000E+00  0.00000000E+00
  0.00000000E+00  0.00000000E+00  0.00000000E+00
  0.00000000E+00  0.00000000E+00  0.00000000E+00
  0.00000000E+00  0.00000000E+00  0.00000000E+00
  0.00000000E+00  0.00000000E+00  0.00000000E+00
  0.00000000E+00  0.00000000E+00  0.00000000E+00
  0.00000000E+00  0.00000000E+00  0.00000000E+00
  0.00000000E+00  0.00000000E+00  0.00000000E+00
  0.00000000E+00  0.00000000E+00  0.00000000E+00
  0.00000000E+00  0.00000000E+00  0.00000000E+00
  0.00000000E+00  0.00000000E+00  0.00000000E+00
  0.00000000E+00  0.00000000E+00  0.00000000E+00
  0.00000000E+00  0.00000000E+00  0.00000000E+00
  0.00000000E+00  0.00000000E+00  0.00000000E+00
  0.00000000E+00  0.00000000E+00  0.00000000E+00
  0.00000000E+00  0.00000000E+00  0.00000000E+00
  0.00000000E+00  0.00000000E+00  0.00000000E+00
