 Ta4 Co4 Te8                            
   1.00000000000000     
     6.2343983915343815    0.0000000000000000    0.0000000000000000
     0.0000000000000000    7.7130228288520435    0.0000000000000000
     0.0000000000000000    0.0000000000000000   19.6598131244519969
   Ta   Co   Te
     4     4     8
Direct
  0.9791908697274465  0.1072244855837070  0.5062193287404142
  0.4793075588778919  0.2141695755677873  0.4937896288338308
  0.0206902161443452  0.7141462194715302  0.4937899813329523
  0.5207986280209127  0.6071940850081532  0.5062171129789803
  0.8500059297195506  0.4200993914417310  0.4604072857112484
  0.1500181179316868  0.4012240471289488  0.5395703959617180
  0.6500250753797872  0.9200928841479907  0.4603983430102190
  0.3499821820067766  0.9012123579657114  0.5395555540309047
  0.2567859698351924  0.9514252062968893  0.4112574841696954
  0.2432012131628980  0.4514189914251361  0.4112610524131952
  0.7570127569263079  0.3700111137346767  0.5887931116005376
  0.7430061122400673  0.8700168250952061  0.5887960261446850
  0.2476023460769241  0.6482524525008841  0.6188207394325786
  0.7478273782992986  0.6730841252052997  0.3811516618221376
  0.7521648018719773  0.1730830882507988  0.3811519487586637
  0.2523808437789299  0.1482851511755499  0.6188203450582321
 
  0.00000000E+00  0.00000000E+00  0.00000000E+00
  0.00000000E+00  0.00000000E+00  0.00000000E+00
  0.00000000E+00  0.00000000E+00  0.00000000E+00
  0.00000000E+00  0.00000000E+00  0.00000000E+00
  0.00000000E+00  0.00000000E+00  0.00000000E+00
  0.00000000E+00  0.00000000E+00  0.00000000E+00
  0.00000000E+00  0.00000000E+00  0.00000000E+00
  0.00000000E+00  0.00000000E+00  0.00000000E+00
  0.00000000E+00  0.00000000E+00  0.00000000E+00
  0.00000000E+00  0.00000000E+00  0.00000000E+00
  0.00000000E+00  0.00000000E+00  0.00000000E+00
  0.00000000E+00  0.00000000E+00  0.00000000E+00
  0.00000000E+00  0.00000000E+00  0.00000000E+00
  0.00000000E+00  0.00000000E+00  0.00000000E+00
  0.00000000E+00  0.00000000E+00  0.00000000E+00
  0.00000000E+00  0.00000000E+00  0.00000000E+00
