CONTCAR                                 
   1.00000000000000     
    14.3652000426999997    0.0000000000000000    0.0000000000000000
     7.1792291409000004   12.4398023524999992    0.0000000000000000
     0.0000000000000000    0.0000000000000000   17.6567993164000008
   Co   Te   O    H 
    16    32     2     1
Direct
  0.9807176553114303  0.0160172609609575  0.4867738538215107
  0.2613037393439228  0.9935789579002403  0.5028103847126033
  0.4924110412776486  0.9886260706573395  0.5047279749621580
  0.7485087810198294  0.0083001453037568  0.4923932530005004
  0.9989712026135393  0.2495889334658088  0.5059095711277592
  0.2527505726155823  0.2645905147188685  0.5000203055306969
  0.4759916101615644  0.2609682531579764  0.5012692994239245
  0.7656380850798286  0.2067672598610955  0.4881203889807111
  0.9757763202359513  0.5146063224979542  0.4998253159583470
  0.2601530923669699  0.4712787267341838  0.5026524588633237
  0.5014057618134231  0.5065502766292198  0.5147279081440104
  0.7538180574902995  0.5177507734333346  0.5062882654230876
  0.0180762943673756  0.7481920214756954  0.4967558846017539
  0.2293243190493470  0.7497583323743626  0.4979035765089463
  0.4806556676744194  0.7815612443058981  0.5060753772541347
  0.7634616927406199  0.7318730951954819  0.4958467138188425
  0.1716369401782174  0.1693823742182090  0.5799544817446503
  0.0887328656801856  0.0876443141328380  0.4193506874542194
  0.4154843920653661  0.1593862245615156  0.5868079975980223
  0.3281181733018741  0.0921388589640983  0.4196396820536279
  0.6541445789506639  0.1680271795947164  0.5798902500009646
  0.5695971306283241  0.0853900499203988  0.4236885099205026
  0.9139954136734332  0.1637946377882429  0.5837549997268141
  0.8338683429402280  0.0684331467757247  0.3902787679087467
  0.1452558502738270  0.4239990786236945  0.5866064093404546
  0.0761663542883184  0.3387143753718433  0.4240693879274104
  0.4186417208621265  0.4170030918125391  0.5924602524451217
  0.3327781153878533  0.3313949389753645  0.4028933509595873
  0.6725729102341873  0.4278808935819356  0.5859165920763161
  0.5819304293719298  0.3375477354484531  0.4317305946932564
  0.9185923812482670  0.4147324268923427  0.5904449489548824
  0.8250877704841031  0.3368268502506808  0.4294323422379733
  0.1757559577188843  0.6462456043898257  0.5842402740934105
  0.0877318240259441  0.5759722881637046  0.4215113954020708
  0.3973776203007446  0.6857483514924638  0.5807005762182058
  0.3368713956088527  0.5727115070151285  0.4272737271625715
  0.6562474937690368  0.6849271847643337  0.5863827394647387
  0.5754367896002393  0.5997485871889197  0.4330665495042041
  0.9226506378060151  0.6774449587742168  0.5828534980475695
  0.8314555430808710  0.5800921699899391  0.4023486428661229
  0.1504678566450153  0.9245225546681510  0.5741730225735537
  0.0749797909074559  0.8455904060746704  0.4058018147433984
  0.4057961937861805  0.9271000046673521  0.6021014727429304
  0.3214665468706031  0.8313212295883119  0.4179374512678891
  0.6742212069392508  0.9100294247121070  0.5727544614963875
  0.5896415445408394  0.8301137201341220  0.4171589944524925
  0.9170384642304086  0.9182549582715112  0.5759800120617555
  0.8424614763487668  0.8289767599049611  0.4188720896107583
  0.5567423129879856  0.5853253200957411  0.7171803623400734
  0.6511064160180169  0.4811214897722209  0.6988201601484647
  0.5090039380841986  0.5618285917475916  0.7390628986285535
 
  0.00000000E+00  0.00000000E+00  0.00000000E+00
  0.00000000E+00  0.00000000E+00  0.00000000E+00
  0.00000000E+00  0.00000000E+00  0.00000000E+00
  0.00000000E+00  0.00000000E+00  0.00000000E+00
  0.00000000E+00  0.00000000E+00  0.00000000E+00
  0.00000000E+00  0.00000000E+00  0.00000000E+00
  0.00000000E+00  0.00000000E+00  0.00000000E+00
  0.00000000E+00  0.00000000E+00  0.00000000E+00
  0.00000000E+00  0.00000000E+00  0.00000000E+00
  0.00000000E+00  0.00000000E+00  0.00000000E+00
  0.00000000E+00  0.00000000E+00  0.00000000E+00
  0.00000000E+00  0.00000000E+00  0.00000000E+00
  0.00000000E+00  0.00000000E+00  0.00000000E+00
  0.00000000E+00  0.00000000E+00  0.00000000E+00
  0.00000000E+00  0.00000000E+00  0.00000000E+00
  0.00000000E+00  0.00000000E+00  0.00000000E+00
  0.00000000E+00  0.00000000E+00  0.00000000E+00
  0.00000000E+00  0.00000000E+00  0.00000000E+00
  0.00000000E+00  0.00000000E+00  0.00000000E+00
  0.00000000E+00  0.00000000E+00  0.00000000E+00
  0.00000000E+00  0.00000000E+00  0.00000000E+00
  0.00000000E+00  0.00000000E+00  0.00000000E+00
  0.00000000E+00  0.00000000E+00  0.00000000E+00
  0.00000000E+00  0.00000000E+00  0.00000000E+00
  0.00000000E+00  0.00000000E+00  0.00000000E+00
  0.00000000E+00  0.00000000E+00  0.00000000E+00
  0.00000000E+00  0.00000000E+00  0.00000000E+00
  0.00000000E+00  0.00000000E+00  0.00000000E+00
  0.00000000E+00  0.00000000E+00  0.00000000E+00
  0.00000000E+00  0.00000000E+00  0.00000000E+00
  0.00000000E+00  0.00000000E+00  0.00000000E+00
  0.00000000E+00  0.00000000E+00  0.00000000E+00
  0.00000000E+00  0.00000000E+00  0.00000000E+00
  0.00000000E+00  0.00000000E+00  0.00000000E+00
  0.00000000E+00  0.00000000E+00  0.00000000E+00
  0.00000000E+00  0.00000000E+00  0.00000000E+00
  0.00000000E+00  0.00000000E+00  0.00000000E+00
  0.00000000E+00  0.00000000E+00  0.00000000E+00
  0.00000000E+00  0.00000000E+00  0.00000000E+00
  0.00000000E+00  0.00000000E+00  0.00000000E+00
  0.00000000E+00  0.00000000E+00  0.00000000E+00
  0.00000000E+00  0.00000000E+00  0.00000000E+00
  0.00000000E+00  0.00000000E+00  0.00000000E+00
  0.00000000E+00  0.00000000E+00  0.00000000E+00
  0.00000000E+00  0.00000000E+00  0.00000000E+00
  0.00000000E+00  0.00000000E+00  0.00000000E+00
  0.00000000E+00  0.00000000E+00  0.00000000E+00
  0.00000000E+00  0.00000000E+00  0.00000000E+00
  0.00000000E+00  0.00000000E+00  0.00000000E+00
  0.00000000E+00  0.00000000E+00  0.00000000E+00
  0.00000000E+00  0.00000000E+00  0.00000000E+00
