CONTCAR\(5)                             
   1.00000000000000     
    10.2070999146000005    0.0000000000000000    0.0000000000000000
    -1.7011927660999999   18.1179073708000011    0.0000000000000000
     0.0000000000000000    0.0000000000000000   20.2910003661999987
   Ta   Co   Pd   Se   O    H 
    12     6     3    36     2     1
Direct
  0.0213054344521666  0.1542741674535577  0.4679918548412090
  0.3038445951440281  0.8516350883712676  0.5339394110771849
  0.0654679065662620  0.4108850801264126  0.4728247092804665
  0.2622223388085843  0.5952149789828312  0.5302540390541921
  0.3547776733459074  0.1545841205153522  0.4678439441779290
  0.6400327067321854  0.8516987668772629  0.5339335924382240
  0.3988457963467837  0.4109189227217982  0.4727085592077955
  0.5955282611266455  0.5952654473499308  0.5301556275732011
  0.6885262317246870  0.1545653290067435  0.4679515790080444
  0.9716488770389660  0.8518386711146064  0.5343381341556892
  0.7320548424363267  0.4109386736771867  0.4725337976119022
  0.9288487911705658  0.5952092863756420  0.5302553803663059
  0.2113072720746274  0.2882702274101661  0.4419465908002067
  0.1163393485831676  0.7180141191434615  0.5606417407714659
  0.5449211454504237  0.2885605581768615  0.4417942266260013
  0.4493210806180414  0.7184284549848172  0.5606133765269803
  0.8781891386777119  0.2885396691168722  0.4418445334885206
  0.7825994631040984  0.7181813600518936  0.5607164327757275
  0.1638960456352905  0.0028965879027041  0.5010206134566459
  0.4968266185750139  0.0039697486709755  0.5006953262772313
  0.8292804058841483  0.0029509155309881  0.5010794506518934
  0.1824113575312722  0.1210624650013870  0.5608403151036185
  0.1435579577940942  0.8846673810855492  0.4410577342370559
  0.0980179132483840  0.6070512405959079  0.6235919115340849
  0.2297531044646561  0.3994026951945031  0.3793958601231111
  0.2382011125735346  0.4506312645237927  0.5641508060356131
  0.0895494482697359  0.5554363321930751  0.4390818261398763
  0.0367787867591360  0.2416224528414617  0.3712131357482917
  0.2906785448702323  0.7649082526765127  0.6311448402628628
  0.1751885359892782  0.0774203542312151  0.3990066785132313
  0.1515375265797942  0.9286560425791421  0.6032734862076552
  0.0437899860919870  0.2836255091942732  0.5260736627792824
  0.2833167531002232  0.7222907969352192  0.4762842450961529
  0.5160685215001237  0.1218401948801926  0.5606239246014013
  0.4773656562239523  0.8852282594352161  0.4414645224693245
  0.4313922832623831  0.6075886899119709  0.6236143540855039
  0.5629832830976866  0.3995704254965773  0.3791230637707415
  0.5716495252927416  0.4508536747039784  0.5640286437998938
  0.4228621568343911  0.5554377348564472  0.4389176089371247
  0.3700065675761834  0.2418861908259373  0.3711505305057443
  0.6239096810525666  0.7651014085342638  0.6312558256845122
  0.5085597562800359  0.0780556126525624  0.3987222916187889
  0.4847433711056297  0.9285434455253423  0.6018340006300278
  0.3777545840391738  0.2837002282673922  0.5261068141021283
  0.6168369409294030  0.7223435849269322  0.4763722014501255
  0.8491544854121003  0.1209923416610508  0.5609144878381613
  0.8111996745475096  0.8847905611209299  0.4409094153109905
  0.7645519066642308  0.6072685661981652  0.6236192293629372
  0.8967370566878898  0.3995993749709044  0.3792159792010921
  0.9045357418044517  0.4507186107333041  0.5640856408617907
  0.7564635598056526  0.5555425765467774  0.4388831562480817
  0.7036742072470972  0.2419039012973840  0.3711498628301442
  0.9574260804646642  0.7648194394650147  0.6312680892930942
  0.8417400173811558  0.0774075240368219  0.3989568970802395
  0.8180709420903227  0.9288342483819818  0.6032902110866161
  0.7107246412032069  0.2837749005642038  0.5261341521919576
  0.9499310033290129  0.7223578967521718  0.4765273186827983
  0.5541785951498284  0.0389064546851472  0.7296139122145391
  0.6616444988951002  0.0717080558794407  0.6995044664783450
  0.5161799973555503  0.0012099000765176  0.6967963207162171
 
  0.00000000E+00  0.00000000E+00  0.00000000E+00
  0.00000000E+00  0.00000000E+00  0.00000000E+00
  0.00000000E+00  0.00000000E+00  0.00000000E+00
  0.00000000E+00  0.00000000E+00  0.00000000E+00
  0.00000000E+00  0.00000000E+00  0.00000000E+00
  0.00000000E+00  0.00000000E+00  0.00000000E+00
  0.00000000E+00  0.00000000E+00  0.00000000E+00
  0.00000000E+00  0.00000000E+00  0.00000000E+00
  0.00000000E+00  0.00000000E+00  0.00000000E+00
  0.00000000E+00  0.00000000E+00  0.00000000E+00
  0.00000000E+00  0.00000000E+00  0.00000000E+00
  0.00000000E+00  0.00000000E+00  0.00000000E+00
  0.00000000E+00  0.00000000E+00  0.00000000E+00
  0.00000000E+00  0.00000000E+00  0.00000000E+00
  0.00000000E+00  0.00000000E+00  0.00000000E+00
  0.00000000E+00  0.00000000E+00  0.00000000E+00
  0.00000000E+00  0.00000000E+00  0.00000000E+00
  0.00000000E+00  0.00000000E+00  0.00000000E+00
  0.00000000E+00  0.00000000E+00  0.00000000E+00
  0.00000000E+00  0.00000000E+00  0.00000000E+00
  0.00000000E+00  0.00000000E+00  0.00000000E+00
  0.00000000E+00  0.00000000E+00  0.00000000E+00
  0.00000000E+00  0.00000000E+00  0.00000000E+00
  0.00000000E+00  0.00000000E+00  0.00000000E+00
  0.00000000E+00  0.00000000E+00  0.00000000E+00
  0.00000000E+00  0.00000000E+00  0.00000000E+00
  0.00000000E+00  0.00000000E+00  0.00000000E+00
  0.00000000E+00  0.00000000E+00  0.00000000E+00
  0.00000000E+00  0.00000000E+00  0.00000000E+00
  0.00000000E+00  0.00000000E+00  0.00000000E+00
  0.00000000E+00  0.00000000E+00  0.00000000E+00
  0.00000000E+00  0.00000000E+00  0.00000000E+00
  0.00000000E+00  0.00000000E+00  0.00000000E+00
  0.00000000E+00  0.00000000E+00  0.00000000E+00
  0.00000000E+00  0.00000000E+00  0.00000000E+00
  0.00000000E+00  0.00000000E+00  0.00000000E+00
  0.00000000E+00  0.00000000E+00  0.00000000E+00
  0.00000000E+00  0.00000000E+00  0.00000000E+00
  0.00000000E+00  0.00000000E+00  0.00000000E+00
  0.00000000E+00  0.00000000E+00  0.00000000E+00
  0.00000000E+00  0.00000000E+00  0.00000000E+00
  0.00000000E+00  0.00000000E+00  0.00000000E+00
  0.00000000E+00  0.00000000E+00  0.00000000E+00
  0.00000000E+00  0.00000000E+00  0.00000000E+00
  0.00000000E+00  0.00000000E+00  0.00000000E+00
  0.00000000E+00  0.00000000E+00  0.00000000E+00
  0.00000000E+00  0.00000000E+00  0.00000000E+00
  0.00000000E+00  0.00000000E+00  0.00000000E+00
  0.00000000E+00  0.00000000E+00  0.00000000E+00
  0.00000000E+00  0.00000000E+00  0.00000000E+00
  0.00000000E+00  0.00000000E+00  0.00000000E+00
  0.00000000E+00  0.00000000E+00  0.00000000E+00
  0.00000000E+00  0.00000000E+00  0.00000000E+00
  0.00000000E+00  0.00000000E+00  0.00000000E+00
  0.00000000E+00  0.00000000E+00  0.00000000E+00
  0.00000000E+00  0.00000000E+00  0.00000000E+00
  0.00000000E+00  0.00000000E+00  0.00000000E+00
  0.00000000E+00  0.00000000E+00  0.00000000E+00
  0.00000000E+00  0.00000000E+00  0.00000000E+00
  0.00000000E+00  0.00000000E+00  0.00000000E+00
