G   67   67    1    0.005     # Parameters to Generate KPOINTS (Don't Edit This Line)
    1156
Reciprocal lattice
    0.000000000000    0.000000000000    0.000000000000       1
    0.014925373134    0.000000000000    0.000000000000       2
    0.029850746269    0.000000000000    0.000000000000       2
    0.044776119403    0.000000000000    0.000000000000       2
    0.059701492537    0.000000000000    0.000000000000       2
    0.074626865672    0.000000000000    0.000000000000       2
    0.089552238806    0.000000000000    0.000000000000       2
    0.104477611940    0.000000000000    0.000000000000       2
    0.119402985075    0.000000000000    0.000000000000       2
    0.134328358209    0.000000000000    0.000000000000       2
    0.149253731343    0.000000000000    0.000000000000       2
    0.164179104478    0.000000000000    0.000000000000       2
    0.179104477612    0.000000000000    0.000000000000       2
    0.194029850746    0.000000000000    0.000000000000       2
    0.208955223881    0.000000000000    0.000000000000       2
    0.223880597015    0.000000000000    0.000000000000       2
    0.238805970149    0.000000000000    0.000000000000       2
    0.253731343284    0.000000000000    0.000000000000       2
    0.268656716418    0.000000000000    0.000000000000       2
    0.283582089552    0.000000000000    0.000000000000       2
    0.298507462687    0.000000000000    0.000000000000       2
    0.313432835821    0.000000000000    0.000000000000       2
    0.328358208955    0.000000000000    0.000000000000       2
    0.343283582090    0.000000000000    0.000000000000       2
    0.358208955224    0.000000000000    0.000000000000       2
    0.373134328358    0.000000000000    0.000000000000       2
    0.388059701493    0.000000000000    0.000000000000       2
    0.402985074627    0.000000000000    0.000000000000       2
    0.417910447761    0.000000000000    0.000000000000       2
    0.432835820896    0.000000000000    0.000000000000       2
    0.447761194030    0.000000000000    0.000000000000       2
    0.462686567164    0.000000000000    0.000000000000       2
    0.477611940299    0.000000000000    0.000000000000       2
    0.492537313433    0.000000000000    0.000000000000       2
    0.000000000000    0.014925373134    0.000000000000       2
    0.014925373134    0.014925373134    0.000000000000       4
    0.029850746269    0.014925373134    0.000000000000       4
    0.044776119403    0.014925373134    0.000000000000       4
    0.059701492537    0.014925373134    0.000000000000       4
    0.074626865672    0.014925373134    0.000000000000       4
    0.089552238806    0.014925373134    0.000000000000       4
    0.104477611940    0.014925373134    0.000000000000       4
    0.119402985075    0.014925373134    0.000000000000       4
    0.134328358209    0.014925373134    0.000000000000       4
    0.149253731343    0.014925373134    0.000000000000       4
    0.164179104478    0.014925373134    0.000000000000       4
    0.179104477612    0.014925373134    0.000000000000       4
    0.194029850746    0.014925373134    0.000000000000       4
    0.208955223881    0.014925373134    0.000000000000       4
    0.223880597015    0.014925373134    0.000000000000       4
    0.238805970149    0.014925373134    0.000000000000       4
    0.253731343284    0.014925373134    0.000000000000       4
    0.268656716418    0.014925373134    0.000000000000       4
    0.283582089552    0.014925373134    0.000000000000       4
    0.298507462687    0.014925373134    0.000000000000       4
    0.313432835821    0.014925373134    0.000000000000       4
    0.328358208955    0.014925373134    0.000000000000       4
    0.343283582090    0.014925373134    0.000000000000       4
    0.358208955224    0.014925373134    0.000000000000       4
    0.373134328358    0.014925373134    0.000000000000       4
    0.388059701493    0.014925373134    0.000000000000       4
    0.402985074627    0.014925373134    0.000000000000       4
    0.417910447761    0.014925373134    0.000000000000       4
    0.432835820896    0.014925373134    0.000000000000       4
    0.447761194030    0.014925373134    0.000000000000       4
    0.462686567164    0.014925373134    0.000000000000       4
    0.477611940299    0.014925373134    0.000000000000       4
    0.492537313433    0.014925373134    0.000000000000       4
    0.000000000000    0.029850746269    0.000000000000       2
    0.014925373134    0.029850746269    0.000000000000       4
    0.029850746269    0.029850746269    0.000000000000       4
    0.044776119403    0.029850746269    0.000000000000       4
    0.059701492537    0.029850746269    0.000000000000       4
    0.074626865672    0.029850746269    0.000000000000       4
    0.089552238806    0.029850746269    0.000000000000       4
    0.104477611940    0.029850746269    0.000000000000       4
    0.119402985075    0.029850746269    0.000000000000       4
    0.134328358209    0.029850746269    0.000000000000       4
    0.149253731343    0.029850746269    0.000000000000       4
    0.164179104478    0.029850746269    0.000000000000       4
    0.179104477612    0.029850746269    0.000000000000       4
    0.194029850746    0.029850746269    0.000000000000       4
    0.208955223881    0.029850746269    0.000000000000       4
    0.223880597015    0.029850746269    0.000000000000       4
    0.238805970149    0.029850746269    0.000000000000       4
    0.253731343284    0.029850746269    0.000000000000       4
    0.268656716418    0.029850746269    0.000000000000       4
    0.283582089552    0.029850746269    0.000000000000       4
    0.298507462687    0.029850746269    0.000000000000       4
    0.313432835821    0.029850746269    0.000000000000       4
    0.328358208955    0.029850746269    0.000000000000       4
    0.343283582090    0.029850746269    0.000000000000       4
    0.358208955224    0.029850746269    0.000000000000       4
    0.373134328358    0.029850746269    0.000000000000       4
    0.388059701493    0.029850746269    0.000000000000       4
    0.402985074627    0.029850746269    0.000000000000       4
    0.417910447761    0.029850746269    0.000000000000       4
    0.432835820896    0.029850746269    0.000000000000       4
    0.447761194030    0.029850746269    0.000000000000       4
    0.462686567164    0.029850746269    0.000000000000       4
    0.477611940299    0.029850746269    0.000000000000       4
    0.492537313433    0.029850746269    0.000000000000       4
    0.000000000000    0.044776119403    0.000000000000       2
    0.014925373134    0.044776119403    0.000000000000       4
    0.029850746269    0.044776119403    0.000000000000       4
    0.044776119403    0.044776119403    0.000000000000       4
    0.059701492537    0.044776119403    0.000000000000       4
    0.074626865672    0.044776119403    0.000000000000       4
    0.089552238806    0.044776119403    0.000000000000       4
    0.104477611940    0.044776119403    0.000000000000       4
    0.119402985075    0.044776119403    0.000000000000       4
    0.134328358209    0.044776119403    0.000000000000       4
    0.149253731343    0.044776119403    0.000000000000       4
    0.164179104478    0.044776119403    0.000000000000       4
    0.179104477612    0.044776119403    0.000000000000       4
    0.194029850746    0.044776119403    0.000000000000       4
    0.208955223881    0.044776119403    0.000000000000       4
    0.223880597015    0.044776119403    0.000000000000       4
    0.238805970149    0.044776119403    0.000000000000       4
    0.253731343284    0.044776119403    0.000000000000       4
    0.268656716418    0.044776119403    0.000000000000       4
    0.283582089552    0.044776119403    0.000000000000       4
    0.298507462687    0.044776119403    0.000000000000       4
    0.313432835821    0.044776119403    0.000000000000       4
    0.328358208955    0.044776119403    0.000000000000       4
    0.343283582090    0.044776119403    0.000000000000       4
    0.358208955224    0.044776119403    0.000000000000       4
    0.373134328358    0.044776119403    0.000000000000       4
    0.388059701493    0.044776119403    0.000000000000       4
    0.402985074627    0.044776119403    0.000000000000       4
    0.417910447761    0.044776119403    0.000000000000       4
    0.432835820896    0.044776119403    0.000000000000       4
    0.447761194030    0.044776119403    0.000000000000       4
    0.462686567164    0.044776119403    0.000000000000       4
    0.477611940299    0.044776119403    0.000000000000       4
    0.492537313433    0.044776119403    0.000000000000       4
    0.000000000000    0.059701492537    0.000000000000       2
    0.014925373134    0.059701492537    0.000000000000       4
    0.029850746269    0.059701492537    0.000000000000       4
    0.044776119403    0.059701492537    0.000000000000       4
    0.059701492537    0.059701492537    0.000000000000       4
    0.074626865672    0.059701492537    0.000000000000       4
    0.089552238806    0.059701492537    0.000000000000       4
    0.104477611940    0.059701492537    0.000000000000       4
    0.119402985075    0.059701492537    0.000000000000       4
    0.134328358209    0.059701492537    0.000000000000       4
    0.149253731343    0.059701492537    0.000000000000       4
    0.164179104478    0.059701492537    0.000000000000       4
    0.179104477612    0.059701492537    0.000000000000       4
    0.194029850746    0.059701492537    0.000000000000       4
    0.208955223881    0.059701492537    0.000000000000       4
    0.223880597015    0.059701492537    0.000000000000       4
    0.238805970149    0.059701492537    0.000000000000       4
    0.253731343284    0.059701492537    0.000000000000       4
    0.268656716418    0.059701492537    0.000000000000       4
    0.283582089552    0.059701492537    0.000000000000       4
    0.298507462687    0.059701492537    0.000000000000       4
    0.313432835821    0.059701492537    0.000000000000       4
    0.328358208955    0.059701492537    0.000000000000       4
    0.343283582090    0.059701492537    0.000000000000       4
    0.358208955224    0.059701492537    0.000000000000       4
    0.373134328358    0.059701492537    0.000000000000       4
    0.388059701493    0.059701492537    0.000000000000       4
    0.402985074627    0.059701492537    0.000000000000       4
    0.417910447761    0.059701492537    0.000000000000       4
    0.432835820896    0.059701492537    0.000000000000       4
    0.447761194030    0.059701492537    0.000000000000       4
    0.462686567164    0.059701492537    0.000000000000       4
    0.477611940299    0.059701492537    0.000000000000       4
    0.492537313433    0.059701492537    0.000000000000       4
    0.000000000000    0.074626865672    0.000000000000       2
    0.014925373134    0.074626865672    0.000000000000       4
    0.029850746269    0.074626865672    0.000000000000       4
    0.044776119403    0.074626865672    0.000000000000       4
    0.059701492537    0.074626865672    0.000000000000       4
    0.074626865672    0.074626865672    0.000000000000       4
    0.089552238806    0.074626865672    0.000000000000       4
    0.104477611940    0.074626865672    0.000000000000       4
    0.119402985075    0.074626865672    0.000000000000       4
    0.134328358209    0.074626865672    0.000000000000       4
    0.149253731343    0.074626865672    0.000000000000       4
    0.164179104478    0.074626865672    0.000000000000       4
    0.179104477612    0.074626865672    0.000000000000       4
    0.194029850746    0.074626865672    0.000000000000       4
    0.208955223881    0.074626865672    0.000000000000       4
    0.223880597015    0.074626865672    0.000000000000       4
    0.238805970149    0.074626865672    0.000000000000       4
    0.253731343284    0.074626865672    0.000000000000       4
    0.268656716418    0.074626865672    0.000000000000       4
    0.283582089552    0.074626865672    0.000000000000       4
    0.298507462687    0.074626865672    0.000000000000       4
    0.313432835821    0.074626865672    0.000000000000       4
    0.328358208955    0.074626865672    0.000000000000       4
    0.343283582090    0.074626865672    0.000000000000       4
    0.358208955224    0.074626865672    0.000000000000       4
    0.373134328358    0.074626865672    0.000000000000       4
    0.388059701493    0.074626865672    0.000000000000       4
    0.402985074627    0.074626865672    0.000000000000       4
    0.417910447761    0.074626865672    0.000000000000       4
    0.432835820896    0.074626865672    0.000000000000       4
    0.447761194030    0.074626865672    0.000000000000       4
    0.462686567164    0.074626865672    0.000000000000       4
    0.477611940299    0.074626865672    0.000000000000       4
    0.492537313433    0.074626865672    0.000000000000       4
    0.000000000000    0.089552238806    0.000000000000       2
    0.014925373134    0.089552238806    0.000000000000       4
    0.029850746269    0.089552238806    0.000000000000       4
    0.044776119403    0.089552238806    0.000000000000       4
    0.059701492537    0.089552238806    0.000000000000       4
    0.074626865672    0.089552238806    0.000000000000       4
    0.089552238806    0.089552238806    0.000000000000       4
    0.104477611940    0.089552238806    0.000000000000       4
    0.119402985075    0.089552238806    0.000000000000       4
    0.134328358209    0.089552238806    0.000000000000       4
    0.149253731343    0.089552238806    0.000000000000       4
    0.164179104478    0.089552238806    0.000000000000       4
    0.179104477612    0.089552238806    0.000000000000       4
    0.194029850746    0.089552238806    0.000000000000       4
    0.208955223881    0.089552238806    0.000000000000       4
    0.223880597015    0.089552238806    0.000000000000       4
    0.238805970149    0.089552238806    0.000000000000       4
    0.253731343284    0.089552238806    0.000000000000       4
    0.268656716418    0.089552238806    0.000000000000       4
    0.283582089552    0.089552238806    0.000000000000       4
    0.298507462687    0.089552238806    0.000000000000       4
    0.313432835821    0.089552238806    0.000000000000       4
    0.328358208955    0.089552238806    0.000000000000       4
    0.343283582090    0.089552238806    0.000000000000       4
    0.358208955224    0.089552238806    0.000000000000       4
    0.373134328358    0.089552238806    0.000000000000       4
    0.388059701493    0.089552238806    0.000000000000       4
    0.402985074627    0.089552238806    0.000000000000       4
    0.417910447761    0.089552238806    0.000000000000       4
    0.432835820896    0.089552238806    0.000000000000       4
    0.447761194030    0.089552238806    0.000000000000       4
    0.462686567164    0.089552238806    0.000000000000       4
    0.477611940299    0.089552238806    0.000000000000       4
    0.492537313433    0.089552238806    0.000000000000       4
    0.000000000000    0.104477611940    0.000000000000       2
    0.014925373134    0.104477611940    0.000000000000       4
    0.029850746269    0.104477611940    0.000000000000       4
    0.044776119403    0.104477611940    0.000000000000       4
    0.059701492537    0.104477611940    0.000000000000       4
    0.074626865672    0.104477611940    0.000000000000       4
    0.089552238806    0.104477611940    0.000000000000       4
    0.104477611940    0.104477611940    0.000000000000       4
    0.119402985075    0.104477611940    0.000000000000       4
    0.134328358209    0.104477611940    0.000000000000       4
    0.149253731343    0.104477611940    0.000000000000       4
    0.164179104478    0.104477611940    0.000000000000       4
    0.179104477612    0.104477611940    0.000000000000       4
    0.194029850746    0.104477611940    0.000000000000       4
    0.208955223881    0.104477611940    0.000000000000       4
    0.223880597015    0.104477611940    0.000000000000       4
    0.238805970149    0.104477611940    0.000000000000       4
    0.253731343284    0.104477611940    0.000000000000       4
    0.268656716418    0.104477611940    0.000000000000       4
    0.283582089552    0.104477611940    0.000000000000       4
    0.298507462687    0.104477611940    0.000000000000       4
    0.313432835821    0.104477611940    0.000000000000       4
    0.328358208955    0.104477611940    0.000000000000       4
    0.343283582090    0.104477611940    0.000000000000       4
    0.358208955224    0.104477611940    0.000000000000       4
    0.373134328358    0.104477611940    0.000000000000       4
    0.388059701493    0.104477611940    0.000000000000       4
    0.402985074627    0.104477611940    0.000000000000       4
    0.417910447761    0.104477611940    0.000000000000       4
    0.432835820896    0.104477611940    0.000000000000       4
    0.447761194030    0.104477611940    0.000000000000       4
    0.462686567164    0.104477611940    0.000000000000       4
    0.477611940299    0.104477611940    0.000000000000       4
    0.492537313433    0.104477611940    0.000000000000       4
    0.000000000000    0.119402985075    0.000000000000       2
    0.014925373134    0.119402985075    0.000000000000       4
    0.029850746269    0.119402985075    0.000000000000       4
    0.044776119403    0.119402985075    0.000000000000       4
    0.059701492537    0.119402985075    0.000000000000       4
    0.074626865672    0.119402985075    0.000000000000       4
    0.089552238806    0.119402985075    0.000000000000       4
    0.104477611940    0.119402985075    0.000000000000       4
    0.119402985075    0.119402985075    0.000000000000       4
    0.134328358209    0.119402985075    0.000000000000       4
    0.149253731343    0.119402985075    0.000000000000       4
    0.164179104478    0.119402985075    0.000000000000       4
    0.179104477612    0.119402985075    0.000000000000       4
    0.194029850746    0.119402985075    0.000000000000       4
    0.208955223881    0.119402985075    0.000000000000       4
    0.223880597015    0.119402985075    0.000000000000       4
    0.238805970149    0.119402985075    0.000000000000       4
    0.253731343284    0.119402985075    0.000000000000       4
    0.268656716418    0.119402985075    0.000000000000       4
    0.283582089552    0.119402985075    0.000000000000       4
    0.298507462687    0.119402985075    0.000000000000       4
    0.313432835821    0.119402985075    0.000000000000       4
    0.328358208955    0.119402985075    0.000000000000       4
    0.343283582090    0.119402985075    0.000000000000       4
    0.358208955224    0.119402985075    0.000000000000       4
    0.373134328358    0.119402985075    0.000000000000       4
    0.388059701493    0.119402985075    0.000000000000       4
    0.402985074627    0.119402985075    0.000000000000       4
    0.417910447761    0.119402985075    0.000000000000       4
    0.432835820896    0.119402985075    0.000000000000       4
    0.447761194030    0.119402985075    0.000000000000       4
    0.462686567164    0.119402985075    0.000000000000       4
    0.477611940299    0.119402985075    0.000000000000       4
    0.492537313433    0.119402985075    0.000000000000       4
    0.000000000000    0.134328358209    0.000000000000       2
    0.014925373134    0.134328358209    0.000000000000       4
    0.029850746269    0.134328358209    0.000000000000       4
    0.044776119403    0.134328358209    0.000000000000       4
    0.059701492537    0.134328358209    0.000000000000       4
    0.074626865672    0.134328358209    0.000000000000       4
    0.089552238806    0.134328358209    0.000000000000       4
    0.104477611940    0.134328358209    0.000000000000       4
    0.119402985075    0.134328358209    0.000000000000       4
    0.134328358209    0.134328358209    0.000000000000       4
    0.149253731343    0.134328358209    0.000000000000       4
    0.164179104478    0.134328358209    0.000000000000       4
    0.179104477612    0.134328358209    0.000000000000       4
    0.194029850746    0.134328358209    0.000000000000       4
    0.208955223881    0.134328358209    0.000000000000       4
    0.223880597015    0.134328358209    0.000000000000       4
    0.238805970149    0.134328358209    0.000000000000       4
    0.253731343284    0.134328358209    0.000000000000       4
    0.268656716418    0.134328358209    0.000000000000       4
    0.283582089552    0.134328358209    0.000000000000       4
    0.298507462687    0.134328358209    0.000000000000       4
    0.313432835821    0.134328358209    0.000000000000       4
    0.328358208955    0.134328358209    0.000000000000       4
    0.343283582090    0.134328358209    0.000000000000       4
    0.358208955224    0.134328358209    0.000000000000       4
    0.373134328358    0.134328358209    0.000000000000       4
    0.388059701493    0.134328358209    0.000000000000       4
    0.402985074627    0.134328358209    0.000000000000       4
    0.417910447761    0.134328358209    0.000000000000       4
    0.432835820896    0.134328358209    0.000000000000       4
    0.447761194030    0.134328358209    0.000000000000       4
    0.462686567164    0.134328358209    0.000000000000       4
    0.477611940299    0.134328358209    0.000000000000       4
    0.492537313433    0.134328358209    0.000000000000       4
    0.000000000000    0.149253731343    0.000000000000       2
    0.014925373134    0.149253731343    0.000000000000       4
    0.029850746269    0.149253731343    0.000000000000       4
    0.044776119403    0.149253731343    0.000000000000       4
    0.059701492537    0.149253731343    0.000000000000       4
    0.074626865672    0.149253731343    0.000000000000       4
    0.089552238806    0.149253731343    0.000000000000       4
    0.104477611940    0.149253731343    0.000000000000       4
    0.119402985075    0.149253731343    0.000000000000       4
    0.134328358209    0.149253731343    0.000000000000       4
    0.149253731343    0.149253731343    0.000000000000       4
    0.164179104478    0.149253731343    0.000000000000       4
    0.179104477612    0.149253731343    0.000000000000       4
    0.194029850746    0.149253731343    0.000000000000       4
    0.208955223881    0.149253731343    0.000000000000       4
    0.223880597015    0.149253731343    0.000000000000       4
    0.238805970149    0.149253731343    0.000000000000       4
    0.253731343284    0.149253731343    0.000000000000       4
    0.268656716418    0.149253731343    0.000000000000       4
    0.283582089552    0.149253731343    0.000000000000       4
    0.298507462687    0.149253731343    0.000000000000       4
    0.313432835821    0.149253731343    0.000000000000       4
    0.328358208955    0.149253731343    0.000000000000       4
    0.343283582090    0.149253731343    0.000000000000       4
    0.358208955224    0.149253731343    0.000000000000       4
    0.373134328358    0.149253731343    0.000000000000       4
    0.388059701493    0.149253731343    0.000000000000       4
    0.402985074627    0.149253731343    0.000000000000       4
    0.417910447761    0.149253731343    0.000000000000       4
    0.432835820896    0.149253731343    0.000000000000       4
    0.447761194030    0.149253731343    0.000000000000       4
    0.462686567164    0.149253731343    0.000000000000       4
    0.477611940299    0.149253731343    0.000000000000       4
    0.492537313433    0.149253731343    0.000000000000       4
    0.000000000000    0.164179104478    0.000000000000       2
    0.014925373134    0.164179104478    0.000000000000       4
    0.029850746269    0.164179104478    0.000000000000       4
    0.044776119403    0.164179104478    0.000000000000       4
    0.059701492537    0.164179104478    0.000000000000       4
    0.074626865672    0.164179104478    0.000000000000       4
    0.089552238806    0.164179104478    0.000000000000       4
    0.104477611940    0.164179104478    0.000000000000       4
    0.119402985075    0.164179104478    0.000000000000       4
    0.134328358209    0.164179104478    0.000000000000       4
    0.149253731343    0.164179104478    0.000000000000       4
    0.164179104478    0.164179104478    0.000000000000       4
    0.179104477612    0.164179104478    0.000000000000       4
    0.194029850746    0.164179104478    0.000000000000       4
    0.208955223881    0.164179104478    0.000000000000       4
    0.223880597015    0.164179104478    0.000000000000       4
    0.238805970149    0.164179104478    0.000000000000       4
    0.253731343284    0.164179104478    0.000000000000       4
    0.268656716418    0.164179104478    0.000000000000       4
    0.283582089552    0.164179104478    0.000000000000       4
    0.298507462687    0.164179104478    0.000000000000       4
    0.313432835821    0.164179104478    0.000000000000       4
    0.328358208955    0.164179104478    0.000000000000       4
    0.343283582090    0.164179104478    0.000000000000       4
    0.358208955224    0.164179104478    0.000000000000       4
    0.373134328358    0.164179104478    0.000000000000       4
    0.388059701493    0.164179104478    0.000000000000       4
    0.402985074627    0.164179104478    0.000000000000       4
    0.417910447761    0.164179104478    0.000000000000       4
    0.432835820896    0.164179104478    0.000000000000       4
    0.447761194030    0.164179104478    0.000000000000       4
    0.462686567164    0.164179104478    0.000000000000       4
    0.477611940299    0.164179104478    0.000000000000       4
    0.492537313433    0.164179104478    0.000000000000       4
    0.000000000000    0.179104477612    0.000000000000       2
    0.014925373134    0.179104477612    0.000000000000       4
    0.029850746269    0.179104477612    0.000000000000       4
    0.044776119403    0.179104477612    0.000000000000       4
    0.059701492537    0.179104477612    0.000000000000       4
    0.074626865672    0.179104477612    0.000000000000       4
    0.089552238806    0.179104477612    0.000000000000       4
    0.104477611940    0.179104477612    0.000000000000       4
    0.119402985075    0.179104477612    0.000000000000       4
    0.134328358209    0.179104477612    0.000000000000       4
    0.149253731343    0.179104477612    0.000000000000       4
    0.164179104478    0.179104477612    0.000000000000       4
    0.179104477612    0.179104477612    0.000000000000       4
    0.194029850746    0.179104477612    0.000000000000       4
    0.208955223881    0.179104477612    0.000000000000       4
    0.223880597015    0.179104477612    0.000000000000       4
    0.238805970149    0.179104477612    0.000000000000       4
    0.253731343284    0.179104477612    0.000000000000       4
    0.268656716418    0.179104477612    0.000000000000       4
    0.283582089552    0.179104477612    0.000000000000       4
    0.298507462687    0.179104477612    0.000000000000       4
    0.313432835821    0.179104477612    0.000000000000       4
    0.328358208955    0.179104477612    0.000000000000       4
    0.343283582090    0.179104477612    0.000000000000       4
    0.358208955224    0.179104477612    0.000000000000       4
    0.373134328358    0.179104477612    0.000000000000       4
    0.388059701493    0.179104477612    0.000000000000       4
    0.402985074627    0.179104477612    0.000000000000       4
    0.417910447761    0.179104477612    0.000000000000       4
    0.432835820896    0.179104477612    0.000000000000       4
    0.447761194030    0.179104477612    0.000000000000       4
    0.462686567164    0.179104477612    0.000000000000       4
    0.477611940299    0.179104477612    0.000000000000       4
    0.492537313433    0.179104477612    0.000000000000       4
    0.000000000000    0.194029850746    0.000000000000       2
    0.014925373134    0.194029850746    0.000000000000       4
    0.029850746269    0.194029850746    0.000000000000       4
    0.044776119403    0.194029850746    0.000000000000       4
    0.059701492537    0.194029850746    0.000000000000       4
    0.074626865672    0.194029850746    0.000000000000       4
    0.089552238806    0.194029850746    0.000000000000       4
    0.104477611940    0.194029850746    0.000000000000       4
    0.119402985075    0.194029850746    0.000000000000       4
    0.134328358209    0.194029850746    0.000000000000       4
    0.149253731343    0.194029850746    0.000000000000       4
    0.164179104478    0.194029850746    0.000000000000       4
    0.179104477612    0.194029850746    0.000000000000       4
    0.194029850746    0.194029850746    0.000000000000       4
    0.208955223881    0.194029850746    0.000000000000       4
    0.223880597015    0.194029850746    0.000000000000       4
    0.238805970149    0.194029850746    0.000000000000       4
    0.253731343284    0.194029850746    0.000000000000       4
    0.268656716418    0.194029850746    0.000000000000       4
    0.283582089552    0.194029850746    0.000000000000       4
    0.298507462687    0.194029850746    0.000000000000       4
    0.313432835821    0.194029850746    0.000000000000       4
    0.328358208955    0.194029850746    0.000000000000       4
    0.343283582090    0.194029850746    0.000000000000       4
    0.358208955224    0.194029850746    0.000000000000       4
    0.373134328358    0.194029850746    0.000000000000       4
    0.388059701493    0.194029850746    0.000000000000       4
    0.402985074627    0.194029850746    0.000000000000       4
    0.417910447761    0.194029850746    0.000000000000       4
    0.432835820896    0.194029850746    0.000000000000       4
    0.447761194030    0.194029850746    0.000000000000       4
    0.462686567164    0.194029850746    0.000000000000       4