Repeated-UnitCell:     2    2    1      
   1.00000000000000     
     8.5985546112000009    0.0000000000000000    0.0000000000000000
    -4.2992790992999996    7.4465767056000001    0.0000000000000000
     0.0000000000000000    0.0000000000000000   22.5038433074999986
   La   P    I 
     8     4     7
Direct
  0.1628251960499359  0.3256503910998753  0.5689772748756816
  0.6666667240000024  0.3333335310000010  0.5704885036427561
  0.1628251990499397  0.8371750939500595  0.5689772748756816
  0.6743498539001271  0.8371750939500595  0.5689772748756816
  0.3350116116518012  0.1675058393259052  0.4287118129818294
  0.8324939366740981  0.1675058393259052  0.4287118129818294
  0.3333331409999971  0.6666666140000004  0.4301716258336975
  0.8324938786741004  0.6649881453481965  0.4287118129818294
 -0.0000000000000000 -0.0000000000000000  0.4994363939977042
  0.5002589534193115  0.0005180168386247  0.5010097593907401
 -0.0005180158386282  0.4997409525806880  0.5010097593907401
  0.5002589544193151  0.4997409525806880  0.5010097593907401
  0.3320575316633256  0.1660285073316645  0.6670779737650900
  0.8339715446683393  0.1660285073316645  0.6670779737650900
  0.8339714786683339  0.6679424573366701  0.6670779737650900
  0.1671377024037151  0.3342756258074307  0.3341210317127160
  0.6666665890000019  0.3333333710000019  0.3335802713476706
  0.1671376624037118  0.8328622045962878  0.3341210317127160
  0.6657242801925682  0.8328622045962878  0.3341210317127160
 
  0.00000000E+00  0.00000000E+00  0.00000000E+00
  0.00000000E+00  0.00000000E+00  0.00000000E+00
  0.00000000E+00  0.00000000E+00  0.00000000E+00
  0.00000000E+00  0.00000000E+00  0.00000000E+00
  0.00000000E+00  0.00000000E+00  0.00000000E+00
  0.00000000E+00  0.00000000E+00  0.00000000E+00
  0.00000000E+00  0.00000000E+00  0.00000000E+00
  0.00000000E+00  0.00000000E+00  0.00000000E+00
  0.00000000E+00  0.00000000E+00  0.00000000E+00
  0.00000000E+00  0.00000000E+00  0.00000000E+00
  0.00000000E+00  0.00000000E+00  0.00000000E+00
  0.00000000E+00  0.00000000E+00  0.00000000E+00
  0.00000000E+00  0.00000000E+00  0.00000000E+00
  0.00000000E+00  0.00000000E+00  0.00000000E+00
  0.00000000E+00  0.00000000E+00  0.00000000E+00
  0.00000000E+00  0.00000000E+00  0.00000000E+00
  0.00000000E+00  0.00000000E+00  0.00000000E+00
  0.00000000E+00  0.00000000E+00  0.00000000E+00
  0.00000000E+00  0.00000000E+00  0.00000000E+00
