Repeated-UnitCell:     3    1    1      
   1.00000000000000     
    10.0818483349662511    0.0000000000000000    0.0000000000000000
     1.6803075928496445    9.2881524522364405    0.0000000000000000
     0.0000000000000000    0.0000000000000000   18.6295635591599975
   V    Te
     9    18
Direct
  0.0000039158063420 -0.0000074816216828  0.5000000138164853
  0.3333372491396777 -0.0000074816216828  0.5000000138164853
  0.6666705824730135 -0.0000074816216828  0.5000000138164853
  0.1183605408843988  0.2899327641714455  0.4966657015018576
  0.4516938742177344  0.2899327641714455  0.4966657015018576
  0.7850272075510701  0.2899327641714455  0.4966657015018576
  0.2149663837376914  0.7100698780354112  0.5033338133342610
  0.5482997170710272  0.7100698780354112  0.5033338133342610
  0.8816330504043558  0.7100698780354112  0.5033338133342610
  0.1489092287434264  0.1076184098548265  0.6014562915175776
  0.4822425620767549  0.1076184098548265  0.6014562915175776
  0.8155758954100908  0.1076184098548265  0.6014562915175776
  0.1844230267605673  0.8923848508150333  0.3985418532588293
  0.5177563600939030  0.8923848508150333  0.3985418532588293
  0.8510896934272316  0.8923848508150333  0.3985418532588293
  0.2586221646664251  0.4483195378598202  0.5811658730008529
  0.5919554979997609  0.4483195378598202  0.5811658730008529
  0.9252888313330966  0.4483195378598202  0.5811658730008529
  0.0747159361475271  0.5516939286235157  0.4188352273601048
  0.4080492694808627  0.5516939286235157  0.4188352273601048
  0.7413826028141984  0.5516939286235157  0.4188352273601048
  0.0357985825176069  0.7860088192061824  0.6044378436819690
  0.3691319158509426  0.7860088192061824  0.6044378436819690
  0.7024652491842783  0.7860088192061824  0.6044378436819690
  0.2975335540693436  0.2139792930554477  0.3955633825280695
  0.6308668874026723  0.2139792930554477  0.3955633825280695
  0.9642002207360080  0.2139792930554477  0.3955633825280695
 
  0.00000000E+00  0.00000000E+00  0.00000000E+00
  0.00000000E+00  0.00000000E+00  0.00000000E+00
  0.00000000E+00  0.00000000E+00  0.00000000E+00
  0.00000000E+00  0.00000000E+00  0.00000000E+00
  0.00000000E+00  0.00000000E+00  0.00000000E+00
  0.00000000E+00  0.00000000E+00  0.00000000E+00
  0.00000000E+00  0.00000000E+00  0.00000000E+00
  0.00000000E+00  0.00000000E+00  0.00000000E+00
  0.00000000E+00  0.00000000E+00  0.00000000E+00
  0.00000000E+00  0.00000000E+00  0.00000000E+00
  0.00000000E+00  0.00000000E+00  0.00000000E+00
  0.00000000E+00  0.00000000E+00  0.00000000E+00
  0.00000000E+00  0.00000000E+00  0.00000000E+00
  0.00000000E+00  0.00000000E+00  0.00000000E+00
  0.00000000E+00  0.00000000E+00  0.00000000E+00
  0.00000000E+00  0.00000000E+00  0.00000000E+00
  0.00000000E+00  0.00000000E+00  0.00000000E+00
  0.00000000E+00  0.00000000E+00  0.00000000E+00
  0.00000000E+00  0.00000000E+00  0.00000000E+00
  0.00000000E+00  0.00000000E+00  0.00000000E+00
  0.00000000E+00  0.00000000E+00  0.00000000E+00
  0.00000000E+00  0.00000000E+00  0.00000000E+00
  0.00000000E+00  0.00000000E+00  0.00000000E+00
  0.00000000E+00  0.00000000E+00  0.00000000E+00
  0.00000000E+00  0.00000000E+00  0.00000000E+00
  0.00000000E+00  0.00000000E+00  0.00000000E+00
  0.00000000E+00  0.00000000E+00  0.00000000E+00
