 Zr1 Ti1 Te4                            
   1.00000000000000     
     3.8451488058545085    0.0000000000000000    0.0000000000000000
     0.0000000000000000    6.6728767105617735    0.0000000000000000
     0.0000000000000000    0.0000000000000000   18.6074057397464330
   Zr   Ti   Te
     1     1     4
Direct
  0.4999999949310165  0.5051058782998652  0.4999881049878852
  0.0000000025735361  0.0052659335804961  0.4998587023124941
  0.4999999692452874  0.1611782346389319  0.5940984974879484
  0.5000000346198874  0.8484414170985488  0.4057048733306985
  0.9999999964060038  0.6826995245274432  0.5970731892659131
  0.0000000022242759  0.3275394832378709  0.4027578338026316
 
  0.00000000E+00  0.00000000E+00  0.00000000E+00
  0.00000000E+00  0.00000000E+00  0.00000000E+00
  0.00000000E+00  0.00000000E+00  0.00000000E+00
  0.00000000E+00  0.00000000E+00  0.00000000E+00
  0.00000000E+00  0.00000000E+00  0.00000000E+00
  0.00000000E+00  0.00000000E+00  0.00000000E+00
