G   52   30    1    0.005     # Parameters to Generate KPOINTS (Don't Edit This Line)
     432
Reciprocal lattice
    0.000000000000    0.000000000000    0.000000000000       1
    0.019230769231    0.000000000000    0.000000000000       2
    0.038461538462    0.000000000000    0.000000000000       2
    0.057692307692    0.000000000000    0.000000000000       2
    0.076923076923    0.000000000000    0.000000000000       2
    0.096153846154    0.000000000000    0.000000000000       2
    0.115384615385    0.000000000000    0.000000000000       2
    0.134615384615    0.000000000000    0.000000000000       2
    0.153846153846    0.000000000000    0.000000000000       2
    0.173076923077    0.000000000000    0.000000000000       2
    0.192307692308    0.000000000000    0.000000000000       2
    0.211538461538    0.000000000000    0.000000000000       2
    0.230769230769    0.000000000000    0.000000000000       2
    0.250000000000    0.000000000000    0.000000000000       2
    0.269230769231    0.000000000000    0.000000000000       2
    0.288461538462    0.000000000000    0.000000000000       2
    0.307692307692    0.000000000000    0.000000000000       2
    0.326923076923    0.000000000000    0.000000000000       2
    0.346153846154    0.000000000000    0.000000000000       2
    0.365384615385    0.000000000000    0.000000000000       2
    0.384615384615    0.000000000000    0.000000000000       2
    0.403846153846    0.000000000000    0.000000000000       2
    0.423076923077    0.000000000000    0.000000000000       2
    0.442307692308    0.000000000000    0.000000000000       2
    0.461538461538    0.000000000000    0.000000000000       2
    0.480769230769    0.000000000000    0.000000000000       2
    0.500000000000    0.000000000000    0.000000000000       1
    0.000000000000    0.033333333333    0.000000000000       2
    0.019230769231    0.033333333333    0.000000000000       4
    0.038461538462    0.033333333333    0.000000000000       4
    0.057692307692    0.033333333333    0.000000000000       4
    0.076923076923    0.033333333333    0.000000000000       4
    0.096153846154    0.033333333333    0.000000000000       4
    0.115384615385    0.033333333333    0.000000000000       4
    0.134615384615    0.033333333333    0.000000000000       4
    0.153846153846    0.033333333333    0.000000000000       4
    0.173076923077    0.033333333333    0.000000000000       4
    0.192307692308    0.033333333333    0.000000000000       4
    0.211538461538    0.033333333333    0.000000000000       4
    0.230769230769    0.033333333333    0.000000000000       4
    0.250000000000    0.033333333333    0.000000000000       4
    0.269230769231    0.033333333333    0.000000000000       4
    0.288461538462    0.033333333333    0.000000000000       4
    0.307692307692    0.033333333333    0.000000000000       4
    0.326923076923    0.033333333333    0.000000000000       4
    0.346153846154    0.033333333333    0.000000000000       4
    0.365384615385    0.033333333333    0.000000000000       4
    0.384615384615    0.033333333333    0.000000000000       4
    0.403846153846    0.033333333333    0.000000000000       4
    0.423076923077    0.033333333333    0.000000000000       4
    0.442307692308    0.033333333333    0.000000000000       4
    0.461538461538    0.033333333333    0.000000000000       4
    0.480769230769    0.033333333333    0.000000000000       4
    0.500000000000    0.033333333333    0.000000000000       2
    0.000000000000    0.066666666667    0.000000000000       2
    0.019230769231    0.066666666667    0.000000000000       4
    0.038461538462    0.066666666667    0.000000000000       4
    0.057692307692    0.066666666667    0.000000000000       4
    0.076923076923    0.066666666667    0.000000000000       4
    0.096153846154    0.066666666667    0.000000000000       4
    0.115384615385    0.066666666667    0.000000000000       4
    0.134615384615    0.066666666667    0.000000000000       4
    0.153846153846    0.066666666667    0.000000000000       4
    0.173076923077    0.066666666667    0.000000000000       4
    0.192307692308    0.066666666667    0.000000000000       4
    0.211538461538    0.066666666667    0.000000000000       4
    0.230769230769    0.066666666667    0.000000000000       4
    0.250000000000    0.066666666667    0.000000000000       4
    0.269230769231    0.066666666667    0.000000000000       4
    0.288461538462    0.066666666667    0.000000000000       4
    0.307692307692    0.066666666667    0.000000000000       4
    0.326923076923    0.066666666667    0.000000000000       4
    0.346153846154    0.066666666667    0.000000000000       4
    0.365384615385    0.066666666667    0.000000000000       4
    0.384615384615    0.066666666667    0.000000000000       4
    0.403846153846    0.066666666667    0.000000000000       4
    0.423076923077    0.066666666667    0.000000000000       4
    0.442307692308    0.066666666667    0.000000000000       4
    0.461538461538    0.066666666667    0.000000000000       4
    0.480769230769    0.066666666667    0.000000000000       4
    0.500000000000    0.066666666667    0.000000000000       2
    0.000000000000    0.100000000000    0.000000000000       2
    0.019230769231    0.100000000000    0.000000000000       4
    0.038461538462    0.100000000000    0.000000000000       4
    0.057692307692    0.100000000000    0.000000000000       4
    0.076923076923    0.100000000000    0.000000000000       4
    0.096153846154    0.100000000000    0.000000000000       4
    0.115384615385    0.100000000000    0.000000000000       4
    0.134615384615    0.100000000000    0.000000000000       4
    0.153846153846    0.100000000000    0.000000000000       4
    0.173076923077    0.100000000000    0.000000000000       4
    0.192307692308    0.100000000000    0.000000000000       4
    0.211538461538    0.100000000000    0.000000000000       4
    0.230769230769    0.100000000000    0.000000000000       4
    0.250000000000    0.100000000000    0.000000000000       4
    0.269230769231    0.100000000000    0.000000000000       4
    0.288461538462    0.100000000000    0.000000000000       4
    0.307692307692    0.100000000000    0.000000000000       4
    0.326923076923    0.100000000000    0.000000000000       4
    0.346153846154    0.100000000000    0.000000000000       4
    0.365384615385    0.100000000000    0.000000000000       4
    0.384615384615    0.100000000000    0.000000000000       4
    0.403846153846    0.100000000000    0.000000000000       4
    0.423076923077    0.100000000000    0.000000000000       4
    0.442307692308    0.100000000000    0.000000000000       4
    0.461538461538    0.100000000000    0.000000000000       4
    0.480769230769    0.100000000000    0.000000000000       4
    0.500000000000    0.100000000000    0.000000000000       2
    0.000000000000    0.133333333333    0.000000000000       2
    0.019230769231    0.133333333333    0.000000000000       4
    0.038461538462    0.133333333333    0.000000000000       4
    0.057692307692    0.133333333333    0.000000000000       4
    0.076923076923    0.133333333333    0.000000000000       4
    0.096153846154    0.133333333333    0.000000000000       4
    0.115384615385    0.133333333333    0.000000000000       4
    0.134615384615    0.133333333333    0.000000000000       4
    0.153846153846    0.133333333333    0.000000000000       4
    0.173076923077    0.133333333333    0.000000000000       4
    0.192307692308    0.133333333333    0.000000000000       4
    0.211538461538    0.133333333333    0.000000000000       4
    0.230769230769    0.133333333333    0.000000000000       4
    0.250000000000    0.133333333333    0.000000000000       4
    0.269230769231    0.133333333333    0.000000000000       4
    0.288461538462    0.133333333333    0.000000000000       4
    0.307692307692    0.133333333333    0.000000000000       4
    0.326923076923    0.133333333333    0.000000000000       4
    0.346153846154    0.133333333333    0.000000000000       4
    0.365384615385    0.133333333333    0.000000000000       4
    0.384615384615    0.133333333333    0.000000000000       4
    0.403846153846    0.133333333333    0.000000000000       4
    0.423076923077    0.133333333333    0.000000000000       4
    0.442307692308    0.133333333333    0.000000000000       4
    0.461538461538    0.133333333333    0.000000000000       4
    0.480769230769    0.133333333333    0.000000000000       4
    0.500000000000    0.133333333333    0.000000000000       2
    0.000000000000    0.166666666667    0.000000000000       2
    0.019230769231    0.166666666667    0.000000000000       4
    0.038461538462    0.166666666667    0.000000000000       4
    0.057692307692    0.166666666667    0.000000000000       4
    0.076923076923    0.166666666667    0.000000000000       4
    0.096153846154    0.166666666667    0.000000000000       4
    0.115384615385    0.166666666667    0.000000000000       4
    0.134615384615    0.166666666667    0.000000000000       4
    0.153846153846    0.166666666667    0.000000000000       4
    0.173076923077    0.166666666667    0.000000000000       4
    0.192307692308    0.166666666667    0.000000000000       4
    0.211538461538    0.166666666667    0.000000000000       4
    0.230769230769    0.166666666667    0.000000000000       4
    0.250000000000    0.166666666667    0.000000000000       4
    0.269230769231    0.166666666667    0.000000000000       4
    0.288461538462    0.166666666667    0.000000000000       4
    0.307692307692    0.166666666667    0.000000000000       4
    0.326923076923    0.166666666667    0.000000000000       4
    0.346153846154    0.166666666667    0.000000000000       4
    0.365384615385    0.166666666667    0.000000000000       4
    0.384615384615    0.166666666667    0.000000000000       4
    0.403846153846    0.166666666667    0.000000000000       4
    0.423076923077    0.166666666667    0.000000000000       4
    0.442307692308    0.166666666667    0.000000000000       4
    0.461538461538    0.166666666667    0.000000000000       4
    0.480769230769    0.166666666667    0.000000000000       4
    0.500000000000    0.166666666667    0.000000000000       2
    0.000000000000    0.200000000000    0.000000000000       2
    0.019230769231    0.200000000000    0.000000000000       4
    0.038461538462    0.200000000000    0.000000000000       4
    0.057692307692    0.200000000000    0.000000000000       4
    0.076923076923    0.200000000000    0.000000000000       4
    0.096153846154    0.200000000000    0.000000000000       4
    0.115384615385    0.200000000000    0.000000000000       4
    0.134615384615    0.200000000000    0.000000000000       4
    0.153846153846    0.200000000000    0.000000000000       4
    0.173076923077    0.200000000000    0.000000000000       4
    0.192307692308    0.200000000000    0.000000000000       4
    0.211538461538    0.200000000000    0.000000000000       4
    0.230769230769    0.200000000000    0.000000000000       4
    0.250000000000    0.200000000000    0.000000000000       4
    0.269230769231    0.200000000000    0.000000000000       4
    0.288461538462    0.200000000000    0.000000000000       4
    0.307692307692    0.200000000000    0.000000000000       4
    0.326923076923    0.200000000000    0.000000000000       4
    0.346153846154    0.200000000000    0.000000000000       4
    0.365384615385    0.200000000000    0.000000000000       4
    0.384615384615    0.200000000000    0.000000000000       4
    0.403846153846    0.200000000000    0.000000000000       4
    0.423076923077    0.200000000000    0.000000000000       4
    0.442307692308    0.200000000000    0.000000000000       4
    0.461538461538    0.200000000000    0.000000000000       4
    0.480769230769    0.200000000000    0.000000000000       4
    0.500000000000    0.200000000000    0.000000000000       2
    0.000000000000    0.233333333333    0.000000000000       2
    0.019230769231    0.233333333333    0.000000000000       4
    0.038461538462    0.233333333333    0.000000000000       4
    0.057692307692    0.233333333333    0.000000000000       4
    0.076923076923    0.233333333333    0.000000000000       4
    0.096153846154    0.233333333333    0.000000000000       4
    0.115384615385    0.233333333333    0.000000000000       4
    0.134615384615    0.233333333333    0.000000000000       4
    0.153846153846    0.233333333333    0.000000000000       4
    0.173076923077    0.233333333333    0.000000000000       4
    0.192307692308    0.233333333333    0.000000000000       4
    0.211538461538    0.233333333333    0.000000000000       4
    0.230769230769    0.233333333333    0.000000000000       4
    0.250000000000    0.233333333333    0.000000000000       4
    0.269230769231    0.233333333333    0.000000000000       4
    0.288461538462    0.233333333333    0.000000000000       4
    0.307692307692    0.233333333333    0.000000000000       4
    0.326923076923    0.233333333333    0.000000000000       4
    0.346153846154    0.233333333333    0.000000000000       4
    0.365384615385    0.233333333333    0.000000000000       4
    0.384615384615    0.233333333333    0.000000000000       4
    0.403846153846    0.233333333333    0.000000000000       4
    0.423076923077    0.233333333333    0.000000000000       4
    0.442307692308    0.233333333333    0.000000000000       4
    0.461538461538    0.233333333333    0.000000000000       4
    0.480769230769    0.233333333333    0.000000000000       4
    0.500000000000    0.233333333333    0.000000000000       2
    0.000000000000    0.266666666667    0.000000000000       2
    0.019230769231    0.266666666667    0.000000000000       4
    0.038461538462    0.266666666667    0.000000000000       4
    0.057692307692    0.266666666667    0.000000000000       4
    0.076923076923    0.266666666667    0.000000000000       4
    0.096153846154    0.266666666667    0.000000000000       4
    0.115384615385    0.266666666667    0.000000000000       4
    0.134615384615    0.266666666667    0.000000000000       4
    0.153846153846    0.266666666667    0.000000000000       4
    0.173076923077    0.266666666667    0.000000000000       4
    0.192307692308    0.266666666667    0.000000000000       4
    0.211538461538    0.266666666667    0.000000000000       4
    0.230769230769    0.266666666667    0.000000000000       4
    0.250000000000    0.266666666667    0.000000000000       4
    0.269230769231    0.266666666667    0.000000000000       4
    0.288461538462    0.266666666667    0.000000000000       4
    0.307692307692    0.266666666667    0.000000000000       4
    0.326923076923    0.266666666667    0.000000000000       4
    0.346153846154    0.266666666667    0.000000000000       4
    0.365384615385    0.266666666667    0.000000000000       4
    0.384615384615    0.266666666667    0.000000000000       4
    0.403846153846    0.266666666667    0.000000000000       4
    0.423076923077    0.266666666667    0.000000000000       4
    0.442307692308    0.266666666667    0.000000000000       4
    0.461538461538    0.266666666667    0.000000000000       4
    0.480769230769    0.266666666667    0.000000000000       4
    0.500000000000    0.266666666667    0.000000000000       2
    0.000000000000    0.300000000000    0.000000000000       2
    0.019230769231    0.300000000000    0.000000000000       4
    0.038461538462    0.300000000000    0.000000000000       4
    0.057692307692    0.300000000000    0.000000000000       4
    0.076923076923    0.300000000000    0.000000000000       4
    0.096153846154    0.300000000000    0.000000000000       4
    0.115384615385    0.300000000000    0.000000000000       4
    0.134615384615    0.300000000000    0.000000000000       4
    0.153846153846    0.300000000000    0.000000000000       4
    0.173076923077    0.300000000000    0.000000000000       4
    0.192307692308    0.300000000000    0.000000000000       4
    0.211538461538    0.300000000000    0.000000000000       4
    0.230769230769    0.300000000000    0.000000000000       4
    0.250000000000    0.300000000000    0.000000000000       4
    0.269230769231    0.300000000000    0.000000000000       4
    0.288461538462    0.300000000000    0.000000000000       4
    0.307692307692    0.300000000000    0.000000000000       4
    0.326923076923    0.300000000000    0.000000000000       4
    0.346153846154    0.300000000000    0.000000000000       4
    0.365384615385    0.300000000000    0.000000000000       4
    0.384615384615    0.300000000000    0.000000000000       4
    0.403846153846    0.300000000000    0.000000000000       4
    0.423076923077    0.300000000000    0.000000000000       4
    0.442307692308    0.300000000000    0.000000000000       4
    0.461538461538    0.300000000000    0.000000000000       4
    0.480769230769    0.300000000000    0.000000000000       4
    0.500000000000    0.300000000000    0.000000000000       2
    0.000000000000    0.333333333333    0.000000000000       2
    0.019230769231    0.333333333333    0.000000000000       4
    0.038461538462    0.333333333333    0.000000000000       4
    0.057692307692    0.333333333333    0.000000000000       4
    0.076923076923    0.333333333333    0.000000000000       4
    0.096153846154    0.333333333333    0.000000000000       4
    0.115384615385    0.333333333333    0.000000000000       4
    0.134615384615    0.333333333333    0.000000000000       4
    0.153846153846    0.333333333333    0.000000000000       4
    0.173076923077    0.333333333333    0.000000000000       4
    0.192307692308    0.333333333333    0.000000000000       4
    0.211538461538    0.333333333333    0.000000000000       4
    0.230769230769    0.333333333333    0.000000000000       4
    0.250000000000    0.333333333333    0.000000000000       4
    0.269230769231    0.333333333333    0.000000000000       4
    0.288461538462    0.333333333333    0.000000000000       4
    0.307692307692    0.333333333333    0.000000000000       4
    0.326923076923    0.333333333333    0.000000000000       4
    0.346153846154    0.333333333333    0.000000000000       4
    0.365384615385    0.333333333333    0.000000000000       4
    0.384615384615    0.333333333333    0.000000000000       4
    0.403846153846    0.333333333333    0.000000000000       4
    0.423076923077    0.333333333333    0.000000000000       4
    0.442307692308    0.333333333333    0.000000000000       4
    0.461538461538    0.333333333333    0.000000000000       4
    0.480769230769    0.333333333333    0.000000000000       4
    0.500000000000    0.333333333333    0.000000000000       2
    0.000000000000    0.366666666667    0.000000000000       2
    0.019230769231    0.366666666667    0.000000000000       4
    0.038461538462    0.366666666667    0.000000000000       4
    0.057692307692    0.366666666667    0.000000000000       4
    0.076923076923    0.366666666667    0.000000000000       4
    0.096153846154    0.366666666667    0.000000000000       4
    0.115384615385    0.366666666667    0.000000000000       4
    0.134615384615    0.366666666667    0.000000000000       4
    0.153846153846    0.366666666667    0.000000000000       4
    0.173076923077    0.366666666667    0.000000000000       4
    0.192307692308    0.366666666667    0.000000000000       4
    0.211538461538    0.366666666667    0.000000000000       4
    0.230769230769    0.366666666667    0.000000000000       4
    0.250000000000    0.366666666667    0.000000000000       4
    0.269230769231    0.366666666667    0.000000000000       4
    0.288461538462    0.366666666667    0.000000000000       4
    0.307692307692    0.366666666667    0.000000000000       4
    0.326923076923    0.366666666667    0.000000000000       4
    0.346153846154    0.366666666667    0.000000000000       4
    0.365384615385    0.366666666667    0.000000000000       4
    0.384615384615    0.366666666667    0.000000000000       4
    0.403846153846    0.366666666667    0.000000000000       4
    0.423076923077    0.366666666667    0.000000000000       4
    0.442307692308    0.366666666667    0.000000000000       4
    0.461538461538    0.366666666667    0.000000000000       4
    0.480769230769    0.366666666667    0.000000000000       4
    0.500000000000    0.366666666667    0.000000000000       2
    0.000000000000    0.400000000000    0.000000000000       2
    0.019230769231    0.400000000000    0.000000000000       4
    0.038461538462    0.400000000000    0.000000000000       4
    0.057692307692    0.400000000000    0.000000000000       4
    0.076923076923    0.400000000000    0.000000000000       4
    0.096153846154    0.400000000000    0.000000000000       4
    0.115384615385    0.400000000000    0.000000000000       4
    0.134615384615    0.400000000000    0.000000000000       4
    0.153846153846    0.400000000000    0.000000000000       4
    0.173076923077    0.400000000000    0.000000000000       4
    0.192307692308    0.400000000000    0.000000000000       4
    0.211538461538    0.400000000000    0.000000000000       4
    0.230769230769    0.400000000000    0.000000000000       4
    0.250000000000    0.400000000000    0.000000000000       4
    0.269230769231    0.400000000000    0.000000000000       4
    0.288461538462    0.400000000000    0.000000000000       4
    0.307692307692    0.400000000000    0.000000000000       4
    0.326923076923    0.400000000000    0.000000000000       4
    0.346153846154    0.400000000000    0.000000000000       4
    0.365384615385    0.400000000000    0.000000000000       4
    0.384615384615    0.400000000000    0.000000000000       4
    0.403846153846    0.400000000000    0.000000000000       4
    0.423076923077    0.400000000000    0.000000000000       4
    0.442307692308    0.400000000000    0.000000000000       4
    0.461538461538    0.400000000000    0.000000000000       4
    0.480769230769    0.400000000000    0.000000000000       4
    0.500000000000    0.400000000000    0.000000000000       2
    0.000000000000    0.433333333333    0.000000000000       2
    0.019230769231    0.433333333333    0.000000000000       4
    0.038461538462    0.433333333333    0.000000000000       4
    0.057692307692    0.433333333333    0.000000000000       4
    0.076923076923    0.433333333333    0.000000000000       4
    0.096153846154    0.433333333333    0.000000000000       4
    0.115384615385    0.433333333333    0.000000000000       4
    0.134615384615    0.433333333333    0.000000000000       4
    0.153846153846    0.433333333333    0.000000000000       4
    0.173076923077    0.433333333333    0.000000000000       4
    0.192307692308    0.433333333333    0.000000000000       4
    0.211538461538    0.433333333333    0.000000000000       4
    0.230769230769    0.433333333333    0.000000000000       4
    0.250000000000    0.433333333333    0.000000000000       4
    0.269230769231    0.433333333333    0.000000000000       4
    0.288461538462    0.433333333333    0.000000000000       4
    0.307692307692    0.433333333333    0.000000000000       4
    0.326923076923    0.433333333333    0.000000000000       4
    0.346153846154    0.433333333333    0.000000000000       4
    0.365384615385    0.433333333333    0.000000000000       4
    0.384615384615    0.433333333333    0.000000000000       4
    0.403846153846    0.433333333333    0.000000000000       4
    0.423076923077    0.433333333333    0.000000000000       4
    0.442307692308    0.433333333333    0.000000000000       4
    0.461538461538    0.433333333333    0.000000000000       4
    0.480769230769    0.433333333333    0.000000000000       4
    0.500000000000    0.433333333333    0.000000000000       2
    0.000000000000    0.466666666667    0.000000000000       2
    0.019230769231    0.466666666667    0.000000000000       4
    0.038461538462    0.466666666667    0.000000000000       4
    0.057692307692    0.466666666667    0.000000000000       4
    0.076923076923    0.466666666667    0.000000000000       4
    0.096153846154    0.466666666667    0.000000000000       4
    0.115384615385    0.466666666667    0.000000000000       4
    0.134615384615    0.466666666667    0.000000000000       4
    0.153846153846    0.466666666667    0.000000000000       4
    0.173076923077    0.466666666667    0.000000000000       4
    0.192307692308    0.466666666667    0.000000000000       4
    0.211538461538    0.466666666667    0.000000000000       4
    0.230769230769    0.466666666667    0.000000000000       4
    0.250000000000    0.466666666667    0.000000000000       4
    0.269230769231    0.466666666667    0.000000000000       4
    0.288461538462    0.466666666667    0.000000000000       4
    0.307692307692    0.466666666667    0.000000000000       4
    0.326923076923    0.466666666667    0.000000000000       4
    0.346153846154    0.466666666667    0.000000000000       4
    0.365384615385    0.466666666667    0.000000000000       4
    0.384615384615    0.466666666667    0.000000000000       4
    0.403846153846    0.466666666667    0.000000000000       4
    0.423076923077    0.466666666667    0.000000000000       4
    0.442307692308    0.466666666667    0.000000000000       4
    0.461538461538    0.466666666667    0.000000000000       4
    0.480769230769    0.466666666667    0.000000000000       4
    0.500000000000    0.466666666667    0.000000000000       2
    0.000000000000    0.500000000000    0.000000000000       1
    0.019230769231    0.500000000000    0.000000000000       2
    0.038461538462    0.500000000000    0.000000000000       2
    0.057692307692    0.500000000000    0.000000000000       2
    0.076923076923    0.500000000000    0.000000000000       2
    0.096153846154    0.500000000000    0.000000000000       2
    0.115384615385    0.500000000000    0.000000000000       2
    0.134615384615    0.500000000000    0.000000000000       2
    0.153846153846    0.500000000000    0.000000000000       2
    0.173076923077    0.500000000000    0.000000000000       2
    0.192307692308    0.500000000000    0.000000000000       2
    0.211538461538    0.500000000000    0.000000000000       2
    0.230769230769    0.500000000000    0.000000000000       2
    0.250000000000    0.500000000000    0.000000000000       2
    0.269230769231    0.500000000000    0.000000000000       2
    0.288461538462    0.500000000000    0.000000000000       2
    0.307692307692    0.500000000000    0.000000000000       2
    0.326923076923    0.500000000000    0.000000000000       2
    0.346153846154    0.500000000000    0.000000000000       2
    0.365384615385    0.500000000000    0.000000000000       2
    0.384615384615    0.500000000000    0.000000000000       2
    0.403846153846    0.500000000000    0.000000000000       2
    0.423076923077    0.500000000000    0.000000000000       2
    0.442307692308    0.500000000000    0.000000000000       2
    0.461538461538    0.500000000000    0.000000000000       2
    0.480769230769    0.500000000000    0.000000000000       2
    0.500000000000    0.500000000000    0.000000000000       1
