CONTCAR\(4)                             
   1.00000000000000     
    15.6891002655000005    0.0000000000000000    0.0000000000000000
     7.8445501328000002   13.5871593924000003    0.0000000000000000
     0.0000000000000000    0.0000000000000000   18.9503002167000005
   Te   Pt   O 
    32    32     1
Direct
  0.1649493284353831  0.1667685597622667  0.6094216727712852
  0.1647232677127764  0.1663346493034127  0.3893197576775726
  0.4138684338780723  0.1664665569411845  0.6095897662806339
  0.4164528497170658  0.1647632953835869  0.3911189239406825
  0.6653061575748679  0.1654216110693287  0.6110345674398662
  0.6660809944813767  0.1645615459990789  0.3919012633704992
  0.9158894354533348  0.1658893694533364  0.6100881594601165
  0.9149279190477361  0.1649278530477376  0.3919196037592855
  0.1650677345906862  0.4150677635906851  0.6088398492012076
  0.1648580371234296  0.4148580661234285  0.3884897761426556
  0.4146779485069039  0.4151745485689252  0.6096581567634500
  0.4163475521803656  0.4139658556691109  0.3902507107848849
  0.6661266689407255  0.4146617996958480  0.6098900245082509
  0.6666740788126776  0.4136106844928715  0.3904602335094023
  0.9167685737622679  0.4149493364353837  0.6094216727712852
  0.9163346633034138  0.4147232757127772  0.3893197576775726
  0.1651745105689220  0.6646780575069023  0.6096581567634500
  0.1639658176691076  0.6663476611803637  0.3902507107848849
  0.4151888044207748  0.6651889224207774  0.6013235920155798
  0.4153556750700921  0.6653557930700876  0.3939638461388576
  0.6664960833943241  0.6648205943804506  0.6098454053614458
  0.6664932676015253  0.6656110717369947  0.3908860541676544
  0.9164665619411814  0.6638684908780735  0.6095897662806339
  0.9147633003835837  0.6664529067170668  0.3911189239406825
  0.1646617876958471  0.9161267249407230  0.6098900245082509
  0.1636106724928705  0.9166741348126751  0.3904602335094023
  0.4148205023804502  0.9164961483943259  0.6098454053614458
  0.4156109797369941  0.9164933326015271  0.3908860541676544
  0.6657062977000067  0.9157063367000063  0.6107439350566874
  0.6656807651715576  0.9156808041715573  0.3918373265190773
  0.9154216420693273  0.9153061615748682  0.6110345674398662
  0.9145615769990780  0.9160809984813770  0.3919012633704992
  0.0821776351176578  0.0826804067670203  0.5411627417105971
  0.9982736366675475  0.9989376067381116  0.4605841287679963
  0.3312977039589605  0.0828216319072457  0.5406640257040261
  0.2475054584004616  0.0007224521986859  0.4576683393520923
  0.5814505488856243  0.0825296398530462  0.5426562246457277
  0.4989317392442789  0.9989558238080448  0.4602636416029164
  0.8322189259422581  0.0822189269422620  0.5429558233663594
  0.7487037254633195  0.9987037554633149  0.4616901483484926
  0.0822087785693711  0.3322087705693705  0.5401725004981236
  0.9986912507604730  0.2486912447604724  0.4587357821710552
  0.3314134948531160  0.3323742375565478  0.5401435559257431
  0.2487773084337239  0.2487918310756989  0.4579607360487901
  0.5819519373009153  0.3317695037288980  0.5422234324311043
  0.4990595357488634  0.2482584090450075  0.4598537659557904
  0.8326804187670216  0.3321776401176617  0.5411627417105971
  0.7489375937381141  0.2482736326675472  0.4605841287679963
  0.0823742285565506  0.5814134298531142  0.5401435559257431
  0.9987918390756997  0.4987773124337241  0.4579607360487901
  0.3301339356971564  0.5801338876971526  0.5391526974889109
  0.2477736052564923  0.4977735922564947  0.4566312816877800
  0.5858445927638702  0.5800565611668141  0.5399206832483674
  0.5000723181236016  0.4965941639173880  0.4587312776387875
  0.8328215659072474  0.5812976219589607  0.5406640257040261
  0.7507224561986861  0.4975054494004715  0.4576683393520923
  0.0817695027288942  0.8319519153009135  0.5422234324311043
  0.9982583960450100  0.7490595237488626  0.4598537659557904
  0.3300566171668119  0.8358445887638699  0.5399206832483674
  0.2465941249173885  0.7500723491235936  0.4587312776387875
  0.5822541512841289  0.8322541382841243  0.5425333852590186
  0.4997368523448948  0.7497368743448896  0.4590220153835957
  0.8325297038530444  0.8314505398856200  0.5426562246457277
  0.7489558368080423  0.7489317442442759  0.4602636416029164
  0.4142379906040103  0.6641979616040132  0.6985512942879711
 
  0.00000000E+00  0.00000000E+00  0.00000000E+00
  0.00000000E+00  0.00000000E+00  0.00000000E+00
  0.00000000E+00  0.00000000E+00  0.00000000E+00
  0.00000000E+00  0.00000000E+00  0.00000000E+00
  0.00000000E+00  0.00000000E+00  0.00000000E+00
  0.00000000E+00  0.00000000E+00  0.00000000E+00
  0.00000000E+00  0.00000000E+00  0.00000000E+00
  0.00000000E+00  0.00000000E+00  0.00000000E+00
  0.00000000E+00  0.00000000E+00  0.00000000E+00
  0.00000000E+00  0.00000000E+00  0.00000000E+00
  0.00000000E+00  0.00000000E+00  0.00000000E+00
  0.00000000E+00  0.00000000E+00  0.00000000E+00
  0.00000000E+00  0.00000000E+00  0.00000000E+00
  0.00000000E+00  0.00000000E+00  0.00000000E+00
  0.00000000E+00  0.00000000E+00  0.00000000E+00
  0.00000000E+00  0.00000000E+00  0.00000000E+00
  0.00000000E+00  0.00000000E+00  0.00000000E+00
  0.00000000E+00  0.00000000E+00  0.00000000E+00
  0.00000000E+00  0.00000000E+00  0.00000000E+00
  0.00000000E+00  0.00000000E+00  0.00000000E+00
  0.00000000E+00  0.00000000E+00  0.00000000E+00
  0.00000000E+00  0.00000000E+00  0.00000000E+00
  0.00000000E+00  0.00000000E+00  0.00000000E+00
  0.00000000E+00  0.00000000E+00  0.00000000E+00
  0.00000000E+00  0.00000000E+00  0.00000000E+00
  0.00000000E+00  0.00000000E+00  0.00000000E+00
  0.00000000E+00  0.00000000E+00  0.00000000E+00
  0.00000000E+00  0.00000000E+00  0.00000000E+00
  0.00000000E+00  0.00000000E+00  0.00000000E+00
  0.00000000E+00  0.00000000E+00  0.00000000E+00
  0.00000000E+00  0.00000000E+00  0.00000000E+00
  0.00000000E+00  0.00000000E+00  0.00000000E+00
  0.00000000E+00  0.00000000E+00  0.00000000E+00
  0.00000000E+00  0.00000000E+00  0.00000000E+00
  0.00000000E+00  0.00000000E+00  0.00000000E+00
  0.00000000E+00  0.00000000E+00  0.00000000E+00
  0.00000000E+00  0.00000000E+00  0.00000000E+00
  0.00000000E+00  0.00000000E+00  0.00000000E+00
  0.00000000E+00  0.00000000E+00  0.00000000E+00
  0.00000000E+00  0.00000000E+00  0.00000000E+00
  0.00000000E+00  0.00000000E+00  0.00000000E+00
  0.00000000E+00  0.00000000E+00  0.00000000E+00
  0.00000000E+00  0.00000000E+00  0.00000000E+00
  0.00000000E+00  0.00000000E+00  0.00000000E+00
  0.00000000E+00  0.00000000E+00  0.00000000E+00
  0.00000000E+00  0.00000000E+00  0.00000000E+00
  0.00000000E+00  0.00000000E+00  0.00000000E+00
  0.00000000E+00  0.00000000E+00  0.00000000E+00
  0.00000000E+00  0.00000000E+00  0.00000000E+00
  0.00000000E+00  0.00000000E+00  0.00000000E+00
  0.00000000E+00  0.00000000E+00  0.00000000E+00
  0.00000000E+00  0.00000000E+00  0.00000000E+00
  0.00000000E+00  0.00000000E+00  0.00000000E+00
  0.00000000E+00  0.00000000E+00  0.00000000E+00
  0.00000000E+00  0.00000000E+00  0.00000000E+00
  0.00000000E+00  0.00000000E+00  0.00000000E+00
  0.00000000E+00  0.00000000E+00  0.00000000E+00
  0.00000000E+00  0.00000000E+00  0.00000000E+00
  0.00000000E+00  0.00000000E+00  0.00000000E+00
  0.00000000E+00  0.00000000E+00  0.00000000E+00
  0.00000000E+00  0.00000000E+00  0.00000000E+00
  0.00000000E+00  0.00000000E+00  0.00000000E+00
  0.00000000E+00  0.00000000E+00  0.00000000E+00
  0.00000000E+00  0.00000000E+00  0.00000000E+00
  0.00000000E+00  0.00000000E+00  0.00000000E+00
