CONTCAR\(2)                             
   1.00000000000000     
    18.0916004181000005    0.0000000000000000    0.0000000000000000
     1.9381108455000000   16.0410405593999990    0.0000000000000000
     0.0000000000000000    0.0000000000000000   22.7443008422999995
   Sc   C    I    O    H 
    24     8    44     2     1
Selective dynamics
Direct
  0.3740389259295256  0.5335697210194965  0.5523613717022400   F   F   F
  0.2072999797633557  0.6864399394093397  0.4470181531418120   F   F   F
  0.4609394841006207  0.3400235315879314  0.4945510176326593   F   F   F
  0.1191951030230669  0.8791377559796345  0.5052978363905538   F   F   F
  0.3433207997286658  0.3373167565128838  0.5976521153318046   F   F   F
  0.2365692758014717  0.8832473443024043  0.4021963299078450   F   F   F
  0.2138611064283609  0.4222327249259124  0.5181628535257516   F   F   F
  0.3663349135521514  0.7989965472353262  0.4820187591426475   F   F   F
  0.3314041418254945  0.4297186477707839  0.4159441946666931   F   F   F
  0.2488409045590387  0.7902761100600770  0.5837351634520047   F   F   F
  0.3066256197762200  0.2313718320082288  0.4628791079767183   F   F   F
  0.2724908847126599  0.9892056699855942  0.5370300884736920   F   F   F
  0.8727248684289890  0.5343829652044221  0.5520425733016623   F   F   F
  0.7052634105129485  0.6864930488275078  0.4492325267749990   F   F   F
  0.9612237209034475  0.3407755746686192  0.4941257867820710   F   F   F
  0.6205130199739486  0.8767079908440607  0.5117813306170120   F   F   F
  0.8440743019808394  0.3368135037823876  0.5976454785130088   F   F   F
  0.7348938110705419  0.8823900992742679  0.4059308732363291   F   F   F
  0.7142029382081319  0.4223789459684824  0.5190865533693270   F   F   F
  0.8632935704025684  0.7972207065633370  0.4866782052133374   F   F   F
  0.8305478033611777  0.4294574973757861  0.4160796832321623   F   F   F
  0.7517092850968865  0.7929275436255523  0.6079645572770218   F   F   F
  0.8067917487988510  0.2311442787623932  0.4634545653086306   F   F   F
  0.7737687625869896  0.9884916618766582  0.5391002581716506   F   F   F
  0.2348901207283802  0.7965490748808861  0.4822147874487186   F   F   F
  0.3456547370708449  0.4236680517431068  0.5174072756404797   F   F   F
  0.2510025495563184  0.8747985798945308  0.5034916687258146   F   F   F
  0.3287675636602856  0.3456270291905668  0.4962931558966659   F   F   F
  0.7333006585281225  0.7955925924479672  0.4862623805357060   F   F   F
  0.8461180558197157  0.4233588817935470  0.5175638470331805   F   F   F
  0.7516243215945266  0.8717560291659865  0.5094814071151887   F   F   F
  0.8292091062511204  0.3453401874515336  0.4964825817062035   F   F   F
  0.3788255697731273  0.4787977609662093  0.6710505035290382   F   F   F
  0.2032548234513314  0.7413684534741520  0.3281954242739999   F   F   F
  0.0308598228408528  0.4913843739320924  0.5352422114132267   F   F   F
  0.0509192864859003  0.7287414070530573  0.4626563009924354   F   F   F
  0.2142947299498914  0.6041892315848543  0.5675645313911204   F   F   F
  0.3672206104283831  0.6161348675462293  0.4321994647489760   F   F   F
  0.2701277043829080  0.0618297876707672  0.4162715921659768   F   F   F
  0.3081421368232142  0.1591598458647283  0.5833342398204380   F   F   F
  0.4601287941683125  0.1740864319947661  0.4448671774698525   F   F   F
  0.1190208260586516  0.0456374469353165  0.5554415154114594   F   F   F
  0.1436506898097605  0.2820612822148476  0.4758095658990769   F   F   F
  0.4347832493581478  0.9404172339823305  0.5241140055541607   F   F   F
  0.3863525721265830  0.8465153027062584  0.3628431314577512   F   F   F
  0.1939842082839007  0.3749521040046488  0.6375787344414121   F   F   F
  0.0862424049667823  0.9517432341583856  0.3907414461321963   F   F   F
  0.4928062676377607  0.2672656740742170  0.6093654900627854   F   F   F
  0.4001121819464473  0.7106962205545884  0.5952790604462592   F   F   F
  0.1801069711944052  0.5096007764342190  0.4048660732599245   F   F   F
  0.1015727035643508  0.8145241321969436  0.6241204235009192   F   F   F
  0.4788389452348483  0.4043635005306996  0.3755602117491890   F   F   F
  0.2882212625378386  0.9231653719881407  0.6567404128601453   F   F   F
  0.2911644336438073  0.2967048748685741  0.3430670310663899   F   F   F
  0.8795477997957803  0.4799926167242532  0.6717340381977337   F   F   F
  0.6993994363524578  0.7436786888198554  0.3309584686476370   F   F   F
  0.5309694154356279  0.4896869019838732  0.5358646081119431   F   F   F
  0.5484049453606517  0.7292691476712321  0.4670800370045569   F   F   F
  0.7128662725701105  0.5974432215585352  0.5661681231131581   F   F   F
  0.8649924287308437  0.6165150051380195  0.4321778302217112   F   F   F
  0.7702760008781482  0.0595419354287685  0.4182111991087893   F   F   F
  0.8103146201321394  0.1593830625860591  0.5834557948542098   F   F   F
  0.9603330299669182  0.1743401729206155  0.4446074041301102   F   F   F
  0.6202771799990856  0.0452072340386778  0.5575627330460904   F   F   F
  0.6437895635172239  0.2812174175287296  0.4770327883365013   F   F   F
  0.9359595400779170  0.9378108825289004  0.5250248449818287   F   F   F
  0.8842074616621787  0.8444369977486872  0.3662106986643252   F   F   F
  0.6953902755384789  0.3725931043703881  0.6386143996895441   F   F   F
  0.5856333320173874  0.9511853035815818  0.3961457567055291   F   F   F
  0.9942707802682307  0.2689542244003889  0.6088401768963720   F   F   F
  0.9066869248604092  0.7100781737453161  0.5920721503044319   F   F   F
  0.6792741802344793  0.5087523986694151  0.4048503591334480   F   F   F
  0.5947758645099199  0.8191021541306682  0.6266308578624731   F   F   F
  0.9778844725647389  0.4056433622164306  0.3752589016286194   F   F   F
  0.7919840820804822  0.9384766302046401  0.6618636200953176   F   F   F
  0.7907630466169238  0.2955313073226264  0.3436086778979188   F   F   F
  0.7639959791926501  0.7284766696506040  0.6762641404662162   T   T   T
  0.8020573818322347  0.7003284470507865  0.7281844501882944   T   T   T
  0.8053404024025497  0.6393342991057834  0.7224933419491734   T   T   T
 
  0.00000000E+00  0.00000000E+00  0.00000000E+00
  0.00000000E+00  0.00000000E+00  0.00000000E+00
  0.00000000E+00  0.00000000E+00  0.00000000E+00
  0.00000000E+00  0.00000000E+00  0.00000000E+00
  0.00000000E+00  0.00000000E+00  0.00000000E+00
  0.00000000E+00  0.00000000E+00  0.00000000E+00
  0.00000000E+00  0.00000000E+00  0.00000000E+00
  0.00000000E+00  0.00000000E+00  0.00000000E+00
  0.00000000E+00  0.00000000E+00  0.00000000E+00
  0.00000000E+00  0.00000000E+00  0.00000000E+00
  0.00000000E+00  0.00000000E+00  0.00000000E+00
  0.00000000E+00  0.00000000E+00  0.00000000E+00
  0.00000000E+00  0.00000000E+00  0.00000000E+00
  0.00000000E+00  0.00000000E+00  0.00000000E+00
  0.00000000E+00  0.00000000E+00  0.00000000E+00
  0.00000000E+00  0.00000000E+00  0.00000000E+00
  0.00000000E+00  0.00000000E+00  0.00000000E+00
  0.00000000E+00  0.00000000E+00  0.00000000E+00
  0.00000000E+00  0.00000000E+00  0.00000000E+00
  0.00000000E+00  0.00000000E+00  0.00000000E+00
  0.00000000E+00  0.00000000E+00  0.00000000E+00
  0.00000000E+00  0.00000000E+00  0.00000000E+00
  0.00000000E+00  0.00000000E+00  0.00000000E+00
  0.00000000E+00  0.00000000E+00  0.00000000E+00
  0.00000000E+00  0.00000000E+00  0.00000000E+00
  0.00000000E+00  0.00000000E+00  0.00000000E+00
  0.00000000E+00  0.00000000E+00  0.00000000E+00
  0.00000000E+00  0.00000000E+00  0.00000000E+00
  0.00000000E+00  0.00000000E+00  0.00000000E+00
  0.00000000E+00  0.00000000E+00  0.00000000E+00
  0.00000000E+00  0.00000000E+00  0.00000000E+00
  0.00000000E+00  0.00000000E+00  0.00000000E+00
  0.00000000E+00  0.00000000E+00  0.00000000E+00
  0.00000000E+00  0.00000000E+00  0.00000000E+00
  0.00000000E+00  0.00000000E+00  0.00000000E+00
  0.00000000E+00  0.00000000E+00  0.00000000E+00
  0.00000000E+00  0.00000000E+00  0.00000000E+00
  0.00000000E+00  0.00000000E+00  0.00000000E+00
  0.00000000E+00  0.00000000E+00  0.00000000E+00
  0.00000000E+00  0.00000000E+00  0.00000000E+00
  0.00000000E+00  0.00000000E+00  0.00000000E+00
  0.00000000E+00  0.00000000E+00  0.00000000E+00
  0.00000000E+00  0.00000000E+00  0.00000000E+00
  0.00000000E+00  0.00000000E+00  0.00000000E+00
  0.00000000E+00  0.00000000E+00  0.00000000E+00
  0.00000000E+00  0.00000000E+00  0.00000000E+00
  0.00000000E+00  0.00000000E+00  0.00000000E+00
  0.00000000E+00  0.00000000E+00  0.00000000E+00
  0.00000000E+00  0.00000000E+00  0.00000000E+00
  0.00000000E+00  0.00000000E+00  0.00000000E+00
  0.00000000E+00  0.00000000E+00  0.00000000E+00
  0.00000000E+00  0.00000000E+00  0.00000000E+00
  0.00000000E+00  0.00000000E+00  0.00000000E+00
  0.00000000E+00  0.00000000E+00  0.00000000E+00
  0.00000000E+00  0.00000000E+00  0.00000000E+00
  0.00000000E+00  0.00000000E+00  0.00000000E+00
  0.00000000E+00  0.00000000E+00  0.00000000E+00
  0.00000000E+00  0.00000000E+00  0.00000000E+00
  0.00000000E+00  0.00000000E+00  0.00000000E+00
  0.00000000E+00  0.00000000E+00  0.00000000E+00
  0.00000000E+00  0.00000000E+00  0.00000000E+00
  0.00000000E+00  0.00000000E+00  0.00000000E+00
  0.00000000E+00  0.00000000E+00  0.00000000E+00
  0.00000000E+00  0.00000000E+00  0.00000000E+00
  0.00000000E+00  0.00000000E+00  0.00000000E+00
  0.00000000E+00  0.00000000E+00  0.00000000E+00
  0.00000000E+00  0.00000000E+00  0.00000000E+00
  0.00000000E+00  0.00000000E+00  0.00000000E+00
  0.00000000E+00  0.00000000E+00  0.00000000E+00
  0.00000000E+00  0.00000000E+00  0.00000000E+00
  0.00000000E+00  0.00000000E+00  0.00000000E+00
  0.00000000E+00  0.00000000E+00  0.00000000E+00
  0.00000000E+00  0.00000000E+00  0.00000000E+00
  0.00000000E+00  0.00000000E+00  0.00000000E+00
  0.00000000E+00  0.00000000E+00  0.00000000E+00
  0.00000000E+00  0.00000000E+00  0.00000000E+00
  0.00000000E+00  0.00000000E+00  0.00000000E+00
  0.00000000E+00  0.00000000E+00  0.00000000E+00
  0.00000000E+00  0.00000000E+00  0.00000000E+00
