CONTCAR\(14)                            
   1.00000000000000     
    11.5354003905999996    0.0000000000000000    0.0000000000000000
     0.0000000000000000   13.3458003997999999    0.0000000000000000
     0.0000000000000000    0.0000000000000000   18.6074008942000013
   Zr   Ti   Te   O 
     6     6    24     1
Direct
  0.1693892222036090  0.2552535701832920  0.4967472522234413
  0.5026807039479742  0.2494880519430496  0.5015637724296388
  0.8332912288219397  0.2506210920953056  0.4968946462601221
  0.1589432172845784  0.7489131338886126  0.4986242004858871
  0.4972790625544364  0.7546759268075441  0.5251519482632874
  0.8325990445184132  0.7474506565686933  0.4991330114723316
  0.0035154796732419  0.0044138256802236  0.4970147086561197
  0.3342156923323372  0.0070896387206965  0.4989298033274819
  0.6725710933858976  0.9977634173983134  0.5026542833146529
  0.0032587526072444  0.4976443959291801  0.4998175589144433
  0.3393456119545796  0.5029016650096990  0.5037412350141751
  0.6704827940909160  0.5004359441858531  0.5010426866476455
  0.1615155060096561  0.0856305490389349  0.5939175239042689
  0.1720091127819085  0.4274064602629520  0.4050765061103379
  0.0021662278575478  0.3387138471664398  0.5959717682086452
  0.0031402756854314  0.1622181609825656  0.4002750820078389
  0.4996321326599928  0.0759869911671449  0.5959265801600426
  0.5015881805162226  0.4219317889401526  0.4075523405850058
  0.3346875702557663  0.3354388631358919  0.5979936135571542
  0.3368204768591549  0.1643346246073875  0.4018469891138663
  0.8386580363017812  0.0813972904287562  0.5938720872276760
  0.8362441092387590  0.4234260409840800  0.4048414263209155
  0.6715604983129139  0.3325291704004874  0.5981665734814332
  0.6671709428041773  0.1590548967884039  0.4030030572809288
  0.1688571268692073  0.5808495607915711  0.5954423609535248
  0.1693823425828695  0.9226329370601533  0.4053774560397336
  0.0007401077753799  0.8423044763799329  0.5970624058445534
  0.0004857069866153  0.6618061457455794  0.4014514263351254
  0.5078411437947107  0.5626756181231887  0.6000903584719874
  0.4998891558584938  0.9143007042126889  0.4157575092340250
  0.2924723925665256  0.8637020486909808  0.6087325794286814
  0.3452176377092571  0.6680245959839860  0.4132631232525958
  0.8369983940108200  0.5764937455520353  0.5946974377422124
  0.8318377482271306  0.9210300151128042  0.4060247864616390
  0.6947884609713911  0.8455636773861231  0.6040133550674983
  0.6602683470901968  0.6625344599270571  0.4098144102798431
  0.4482465378989657  0.7924622727202060  0.6220042189212265
 
  0.00000000E+00  0.00000000E+00  0.00000000E+00
  0.00000000E+00  0.00000000E+00  0.00000000E+00
  0.00000000E+00  0.00000000E+00  0.00000000E+00
  0.00000000E+00  0.00000000E+00  0.00000000E+00
  0.00000000E+00  0.00000000E+00  0.00000000E+00
  0.00000000E+00  0.00000000E+00  0.00000000E+00
  0.00000000E+00  0.00000000E+00  0.00000000E+00
  0.00000000E+00  0.00000000E+00  0.00000000E+00
  0.00000000E+00  0.00000000E+00  0.00000000E+00
  0.00000000E+00  0.00000000E+00  0.00000000E+00
  0.00000000E+00  0.00000000E+00  0.00000000E+00
  0.00000000E+00  0.00000000E+00  0.00000000E+00
  0.00000000E+00  0.00000000E+00  0.00000000E+00
  0.00000000E+00  0.00000000E+00  0.00000000E+00
  0.00000000E+00  0.00000000E+00  0.00000000E+00
  0.00000000E+00  0.00000000E+00  0.00000000E+00
  0.00000000E+00  0.00000000E+00  0.00000000E+00
  0.00000000E+00  0.00000000E+00  0.00000000E+00
  0.00000000E+00  0.00000000E+00  0.00000000E+00
  0.00000000E+00  0.00000000E+00  0.00000000E+00
  0.00000000E+00  0.00000000E+00  0.00000000E+00
  0.00000000E+00  0.00000000E+00  0.00000000E+00
  0.00000000E+00  0.00000000E+00  0.00000000E+00
  0.00000000E+00  0.00000000E+00  0.00000000E+00
  0.00000000E+00  0.00000000E+00  0.00000000E+00
  0.00000000E+00  0.00000000E+00  0.00000000E+00
  0.00000000E+00  0.00000000E+00  0.00000000E+00
  0.00000000E+00  0.00000000E+00  0.00000000E+00
  0.00000000E+00  0.00000000E+00  0.00000000E+00
  0.00000000E+00  0.00000000E+00  0.00000000E+00
  0.00000000E+00  0.00000000E+00  0.00000000E+00
  0.00000000E+00  0.00000000E+00  0.00000000E+00
  0.00000000E+00  0.00000000E+00  0.00000000E+00
  0.00000000E+00  0.00000000E+00  0.00000000E+00
  0.00000000E+00  0.00000000E+00  0.00000000E+00
  0.00000000E+00  0.00000000E+00  0.00000000E+00
  0.00000000E+00  0.00000000E+00  0.00000000E+00
