CONTCAR\(7)                             
   1.00000000000000     
    12.5420999526999992    0.0000000000000000    0.0000000000000000
     0.0000000000000000   15.8683996200999999    0.0000000000000000
     0.0000000000000000    0.0000000000000000   20.3181991577000005
   La   Br   O 
    12    30     1
Direct
  0.2518445857180394  0.8523989513621222  0.4792605480467643
  0.0865312480383499  0.1230438757068477  0.5113438588334245
  0.2420966420968775  0.3498398869622760  0.4656378526526544
  0.0809138031814180  0.6200715596173323  0.5251291024502220
  0.5818612536253877  0.8516329505367830  0.4797419407498999
  0.4166250061921423  0.1168590748919308  0.6253260152743931
  0.5908531570454736  0.3498181501639498  0.4658529508201948
  0.4173716499769969  0.6176005942315529  0.5292186578377523
  0.9167065527897591  0.8474507373631044  0.4738537311112816
  0.7467628680442893  0.1227291576928755  0.5118061598619202
  0.9164674016114431  0.3523282475745719  0.4613406200375269
  0.7519912595371296  0.6201198824813223  0.5256226323020845
  0.2477349144118230  0.6057343756050444  0.6276193242428078
  0.0834663943865879  0.3684270297112223  0.3609706573639826
  0.2275397281076871  0.9965281052078494  0.5801866852416482
  0.0850142340875812  0.9676209340152151  0.4152586804966333
  0.0765588805259464  0.4281565494385943  0.5556560022543038
  0.2515812054563470  0.5452423364993091  0.4358101691613254
  0.0882562630679371  0.7416065476135733  0.4051850863533866
  0.2230533800327101  0.2393487247385575  0.5919148617243549
  0.0791576975856020  0.8003992091820094  0.5776573540268325
  0.2483882182449894  0.1725825549796487  0.4168883449776495
  0.5855774699092551  0.6047228857191768  0.6284022424044254
  0.4164804894522533  0.3609776337985265  0.3694564528217141
  0.6059414670307388  0.9959674714001657  0.5807352537000890
  0.4173552140590060  0.9689560618974197  0.4297246854371563
  0.4169352967957751  0.4169714402279940  0.5575205129311562
  0.5820722548006969  0.5450029548784470  0.4355679028448782
  0.4164613194059053  0.7394592860343150  0.4102052191892800
  0.6108506644190268  0.2391314011265039  0.5924886977132520
  0.4161599721479202  0.8016848197008425  0.5821607132474281
  0.5849270289017873  0.1726493487869772  0.4172650362133015
  0.9172559027214001  0.6075542732983129  0.6281112217570217
  0.7491920625807172  0.3684409599924949  0.3611952197610669
  0.9167953756189205  0.0013516049329891  0.5679610592085801
  0.7481115206766120  0.9676093320369701  0.4157558337768602
  0.7561400369904668  0.4281259670699611  0.5560808331968182
  0.9162205196528671  0.5486277382760421  0.4308109885186829
  0.7456362843045662  0.7415635950135566  0.4054330845516048
  0.9167937146652193  0.2293482045063938  0.5807469798984951
  0.7550831308362278  0.8003082253925499  0.5781717826606938
  0.9163078532881945  0.1681489430814135  0.4098720323625268
  0.4156864919779564  0.1062381552532451  0.7157032159839202
 
  0.00000000E+00  0.00000000E+00  0.00000000E+00
  0.00000000E+00  0.00000000E+00  0.00000000E+00
  0.00000000E+00  0.00000000E+00  0.00000000E+00
  0.00000000E+00  0.00000000E+00  0.00000000E+00
  0.00000000E+00  0.00000000E+00  0.00000000E+00
  0.00000000E+00  0.00000000E+00  0.00000000E+00
  0.00000000E+00  0.00000000E+00  0.00000000E+00
  0.00000000E+00  0.00000000E+00  0.00000000E+00
  0.00000000E+00  0.00000000E+00  0.00000000E+00
  0.00000000E+00  0.00000000E+00  0.00000000E+00
  0.00000000E+00  0.00000000E+00  0.00000000E+00
  0.00000000E+00  0.00000000E+00  0.00000000E+00
  0.00000000E+00  0.00000000E+00  0.00000000E+00
  0.00000000E+00  0.00000000E+00  0.00000000E+00
  0.00000000E+00  0.00000000E+00  0.00000000E+00
  0.00000000E+00  0.00000000E+00  0.00000000E+00
  0.00000000E+00  0.00000000E+00  0.00000000E+00
  0.00000000E+00  0.00000000E+00  0.00000000E+00
  0.00000000E+00  0.00000000E+00  0.00000000E+00
  0.00000000E+00  0.00000000E+00  0.00000000E+00
  0.00000000E+00  0.00000000E+00  0.00000000E+00
  0.00000000E+00  0.00000000E+00  0.00000000E+00
  0.00000000E+00  0.00000000E+00  0.00000000E+00
  0.00000000E+00  0.00000000E+00  0.00000000E+00
  0.00000000E+00  0.00000000E+00  0.00000000E+00
  0.00000000E+00  0.00000000E+00  0.00000000E+00
  0.00000000E+00  0.00000000E+00  0.00000000E+00
  0.00000000E+00  0.00000000E+00  0.00000000E+00
  0.00000000E+00  0.00000000E+00  0.00000000E+00
  0.00000000E+00  0.00000000E+00  0.00000000E+00
  0.00000000E+00  0.00000000E+00  0.00000000E+00
  0.00000000E+00  0.00000000E+00  0.00000000E+00
  0.00000000E+00  0.00000000E+00  0.00000000E+00
  0.00000000E+00  0.00000000E+00  0.00000000E+00
  0.00000000E+00  0.00000000E+00  0.00000000E+00
  0.00000000E+00  0.00000000E+00  0.00000000E+00
  0.00000000E+00  0.00000000E+00  0.00000000E+00
  0.00000000E+00  0.00000000E+00  0.00000000E+00
  0.00000000E+00  0.00000000E+00  0.00000000E+00
  0.00000000E+00  0.00000000E+00  0.00000000E+00
  0.00000000E+00  0.00000000E+00  0.00000000E+00
  0.00000000E+00  0.00000000E+00  0.00000000E+00
  0.00000000E+00  0.00000000E+00  0.00000000E+00
