CONTCAR\(10)                            
   1.00000000000000     
    14.1827001571999993    0.0000000000000000    0.0000000000000000
     0.0000000000000000   18.7943000793000010    0.0000000000000000
     0.0000000000000000    0.0000000000000000   21.0296001433999997
   Ta   Pt   Se   O 
    16     8    56     1
Direct
  0.1824460770820599  0.4212534143266359  0.5632765519194473
  0.0610403573806319  0.5768434794401620  0.4378996216256957
  0.0623043246016473  0.9031948748164794  0.4891062450588002
  0.1878849318530305  0.0964242179589827  0.5099398334999721
  0.4423056449460398  0.4243863245130768  0.5725095493396100
  0.3108151084833580  0.5763897018065184  0.4381481798115585
  0.3122255848800823  0.9036007861646090  0.4888686097628379
  0.4352848631171757  0.0963546067480724  0.5106937972158326
  0.6892754843735515  0.4186410685951771  0.5633720352382051
  0.5606018111539846  0.5763936131543532  0.4396459139318002
  0.5616983375184610  0.9029790976664077  0.4897050319541531
  0.6879699260708330  0.0946541755939453  0.5101747379681817
  0.9366636117396724  0.4199183468149247  0.5627297291629536
  0.8118187201649618  0.5766345754947120  0.4386205135784623
  0.8118978124518554  0.9031298829857274  0.4889314429028046
  0.9381216276495710  0.0948385211941250  0.5094669752037749
  0.0621748610533166  0.2243699280019277  0.5352749019870356
  0.1867079233850642  0.7732385507784315  0.4645706695852266
  0.3127071317912950  0.2250274050160166  0.5366404636588517
  0.4368103366698740  0.7734666223928289  0.4650647627034316
  0.5632910901030524  0.2279539950202923  0.5359001745151462
  0.6868053505796801  0.7733568492323450  0.4652494225375593
  0.8125430707004494  0.2238537214584869  0.5341777685788137
  0.9369442913758416  0.7733161006394473  0.4648491765364902
  0.0618919620849608  0.6960450490721912  0.5145942739921762
  0.1884171686455189  0.3024142974420461  0.4873767949997812
  0.0604632736264288  0.4334215540927300  0.4678908618723522
  0.1854092551251817  0.5642482528543605  0.5323203303638230
  0.1862994202014429  0.5230271054022684  0.3592320335966668
  0.0576215423145073  0.4732545310342958  0.6427973014368445
  0.1871581749472531  0.9831447417928005  0.4293379186112686
  0.0630304127198355  0.0158637115353620  0.5695500229526961
  0.0607331993063679  0.3335675640553401  0.6151736416181377
  0.1861899207447874  0.6626719223814551  0.3856741604421614
  0.1872659705555566  0.1720067939385074  0.6085129712957197
  0.0617987232681638  0.8264269082264784  0.3915496988138988
  0.0627339241427538  0.1455202258888234  0.4327419245198987
  0.1875397493134390  0.8537712239323880  0.5661772952157256
  0.3115771010498173  0.6960903341195356  0.5144891989793446
  0.4345291557097369  0.3071363340139286  0.4904223432823830
  0.3130989038115385  0.4338716635257797  0.4745368485238250
  0.4345139734383690  0.5648569241332642  0.5331129957063545
  0.4362915394045321  0.5238267336044260  0.3593558381060006
  0.2987435090870701  0.4750026753013065  0.6450902741670520
  0.4372403031897177  0.9833691021926492  0.4296097877264856
  0.3116360333528059  0.0161581890282535  0.5700042781746306
  0.3095607641943038  0.3421587384674521  0.6231914754484960
  0.4363317717479311  0.6619013182303826  0.3861623359469345
  0.4368703118581269  0.1719424668882552  0.6086445349628136
  0.3122054484238117  0.8262849127212222  0.3916881791742673
  0.3123915755809607  0.1457192333529547  0.4326181864683112
  0.4366624827247512  0.8543933295907398  0.5667614538356818
  0.5613036232692485  0.6963277551850386  0.5152078549723103
  0.6889787926441809  0.3027088919104078  0.4848151588874239
  0.5602489814843389  0.4340537768239630  0.4717318906067215
  0.6867365443720317  0.5638999446950761  0.5341240273595039
  0.6854807493929409  0.5231002050919293  0.3605353090442897
  0.5772134808289289  0.4951804278433038  0.6374626552954978
  0.6866203492565583  0.9826172902632079  0.4292910332641987
  0.5615698283142666  0.0161271807072892  0.5695406193718772
  0.5649058511282776  0.3281741432593149  0.6149427448643120
  0.6857749327668697  0.6621191064564896  0.3869392421027075
  0.6890189349139746  0.1694650960488368  0.6079431350594894
  0.5619552448699136  0.8262102886197162  0.3920350699946136
  0.5615213591769738  0.1494065684704154  0.4354579772614205
  0.6873265733661759  0.8542025254784138  0.5668071861830902
  0.8120938255539908  0.6962878178706577  0.5149944169935412
  0.9377399276948808  0.3015539672959264  0.4850782249923513
  0.8119504555212441  0.4333376931369187  0.4686072597190796
  0.9364463638854337  0.5638655249565581  0.5326722946537288
  0.9354214590669808  0.5240315991989735  0.3588230400690594
  0.8136586973635980  0.4705898864507556  0.6434172788428744
  0.9372340642259713  0.9823401240495797  0.4289922670013526
  0.8130535666337628  0.0153326820115960  0.5695942958777428
  0.8136830945211905  0.3323110181114402  0.6146444785851148
  0.9359302817670127  0.6631454740744901  0.3860825655079539
  0.9368448204542718  0.1701857913219290  0.6077027934047948
  0.8117386810002798  0.8261058783720440  0.3916423374330010
  0.8122252837349783  0.1440496800816652  0.4323126297236123
  0.9371856334002300  0.8540155153140634  0.5663156450566875
  0.4856952066963043  0.4340786522671176  0.6671831803612887
 
  0.00000000E+00  0.00000000E+00  0.00000000E+00
  0.00000000E+00  0.00000000E+00  0.00000000E+00
  0.00000000E+00  0.00000000E+00  0.00000000E+00
  0.00000000E+00  0.00000000E+00  0.00000000E+00
  0.00000000E+00  0.00000000E+00  0.00000000E+00
  0.00000000E+00  0.00000000E+00  0.00000000E+00
  0.00000000E+00  0.00000000E+00  0.00000000E+00
  0.00000000E+00  0.00000000E+00  0.00000000E+00
  0.00000000E+00  0.00000000E+00  0.00000000E+00
  0.00000000E+00  0.00000000E+00  0.00000000E+00
  0.00000000E+00  0.00000000E+00  0.00000000E+00
  0.00000000E+00  0.00000000E+00  0.00000000E+00
  0.00000000E+00  0.00000000E+00  0.00000000E+00
  0.00000000E+00  0.00000000E+00  0.00000000E+00
  0.00000000E+00  0.00000000E+00  0.00000000E+00
  0.00000000E+00  0.00000000E+00  0.00000000E+00
  0.00000000E+00  0.00000000E+00  0.00000000E+00
  0.00000000E+00  0.00000000E+00  0.00000000E+00
  0.00000000E+00  0.00000000E+00  0.00000000E+00
  0.00000000E+00  0.00000000E+00  0.00000000E+00
  0.00000000E+00  0.00000000E+00  0.00000000E+00
  0.00000000E+00  0.00000000E+00  0.00000000E+00
  0.00000000E+00  0.00000000E+00  0.00000000E+00
  0.00000000E+00  0.00000000E+00  0.00000000E+00
  0.00000000E+00  0.00000000E+00  0.00000000E+00
  0.00000000E+00  0.00000000E+00  0.00000000E+00
  0.00000000E+00  0.00000000E+00  0.00000000E+00
  0.00000000E+00  0.00000000E+00  0.00000000E+00
  0.00000000E+00  0.00000000E+00  0.00000000E+00
  0.00000000E+00  0.00000000E+00  0.00000000E+00
  0.00000000E+00  0.00000000E+00  0.00000000E+00
  0.00000000E+00  0.00000000E+00  0.00000000E+00
  0.00000000E+00  0.00000000E+00  0.00000000E+00
  0.00000000E+00  0.00000000E+00  0.00000000E+00
  0.00000000E+00  0.00000000E+00  0.00000000E+00
  0.00000000E+00  0.00000000E+00  0.00000000E+00
  0.00000000E+00  0.00000000E+00  0.00000000E+00
  0.00000000E+00  0.00000000E+00  0.00000000E+00
  0.00000000E+00  0.00000000E+00  0.00000000E+00
  0.00000000E+00  0.00000000E+00  0.00000000E+00
  0.00000000E+00  0.00000000E+00  0.00000000E+00
  0.00000000E+00  0.00000000E+00  0.00000000E+00
  0.00000000E+00  0.00000000E+00  0.00000000E+00
  0.00000000E+00  0.00000000E+00  0.00000000E+00
  0.00000000E+00  0.00000000E+00  0.00000000E+00
  0.00000000E+00  0.00000000E+00  0.00000000E+00
  0.00000000E+00  0.00000000E+00  0.00000000E+00
  0.00000000E+00  0.00000000E+00  0.00000000E+00
  0.00000000E+00  0.00000000E+00  0.00000000E+00
  0.00000000E+00  0.00000000E+00  0.00000000E+00
  0.00000000E+00  0.00000000E+00  0.00000000E+00
  0.00000000E+00  0.00000000E+00  0.00000000E+00
  0.00000000E+00  0.00000000E+00  0.00000000E+00
  0.00000000E+00  0.00000000E+00  0.00000000E+00
  0.00000000E+00  0.00000000E+00  0.00000000E+00
  0.00000000E+00  0.00000000E+00  0.00000000E+00
  0.00000000E+00  0.00000000E+00  0.00000000E+00
  0.00000000E+00  0.00000000E+00  0.00000000E+00
  0.00000000E+00  0.00000000E+00  0.00000000E+00
  0.00000000E+00  0.00000000E+00  0.00000000E+00
  0.00000000E+00  0.00000000E+00  0.00000000E+00
  0.00000000E+00  0.00000000E+00  0.00000000E+00
  0.00000000E+00  0.00000000E+00  0.00000000E+00
  0.00000000E+00  0.00000000E+00  0.00000000E+00
  0.00000000E+00  0.00000000E+00  0.00000000E+00
  0.00000000E+00  0.00000000E+00  0.00000000E+00
  0.00000000E+00  0.00000000E+00  0.00000000E+00
  0.00000000E+00  0.00000000E+00  0.00000000E+00
  0.00000000E+00  0.00000000E+00  0.00000000E+00
  0.00000000E+00  0.00000000E+00  0.00000000E+00
  0.00000000E+00  0.00000000E+00  0.00000000E+00
  0.00000000E+00  0.00000000E+00  0.00000000E+00
  0.00000000E+00  0.00000000E+00  0.00000000E+00
  0.00000000E+00  0.00000000E+00  0.00000000E+00
  0.00000000E+00  0.00000000E+00  0.00000000E+00
  0.00000000E+00  0.00000000E+00  0.00000000E+00
  0.00000000E+00  0.00000000E+00  0.00000000E+00
  0.00000000E+00  0.00000000E+00  0.00000000E+00
  0.00000000E+00  0.00000000E+00  0.00000000E+00
  0.00000000E+00  0.00000000E+00  0.00000000E+00
  0.00000000E+00  0.00000000E+00  0.00000000E+00
