CONTCAR                                 
   1.00000000000000     
    12.0100002288999992    0.0000000000000000    0.0000000000000000
     0.0000000000000000   13.6953001021999992    0.0000000000000000
     0.0000000000000000    0.0000000000000000   20.2971992493000002
   Hf   Te   O    H 
     6    30     2     1
Direct
  0.1675059740396847  0.9918130211145595  0.5469922542761054
  0.9982771169262818  0.4923946774155112  0.4510737965788749
  0.4985165656125972  0.9926231258047835  0.5467335890031748
  0.3322426046456002  0.4933715025441074  0.4586525301246169
  0.8328499554895075  0.9908809265009637  0.5452337673155299
  0.6664620195141353  0.4924199865787102  0.4507044565009579
  0.9992426422752132  0.6731056609862591  0.5316983598300666
  0.1664366206255679  0.8058564392571910  0.4724324312100734
  0.1574842699097090  0.4790497682134500  0.5639171578015976
  0.0014748843362966  0.9842245477322891  0.4359647679911376
  0.1688459523660697  0.5992512930490861  0.3763732187287800
  0.9996568155294270  0.8931220424368007  0.6300737832719463
  0.9983127619959475  0.0964467410192142  0.6255366738078365
  0.1688864525390628  0.3960871707487357  0.3700275095245331
  0.9981405727097510  0.3046342208512556  0.5239853546353572
  0.1671836518810963  0.1733437785033871  0.4670434134544834
  0.3320899591450299  0.6769345469776127  0.5445350346623670
  0.5007547770034151  0.8079775562709912  0.4706377495819964
  0.5078897068290757  0.4773821236565539  0.5636841525687686
  0.3330502556342907  0.9923999244335633  0.4361338929655574
  0.4950674634231191  0.5987968661426066  0.3760413346063203
  0.3339758425479715  0.8892522487632490  0.6290829808727381
  0.3322271554046026  0.0947790769869243  0.6286547775630424
  0.4955163228966128  0.3956408383729837  0.3698391092245785
  0.3328294425847389  0.3048325239466223  0.5280831259381387
  0.4985058978093875  0.1738307970200452  0.4667095116307465
  0.6640635428832411  0.6742164045010455  0.5305516987796395
  0.8333670417279748  0.8041539349903886  0.4718609553282676
  0.8321206241789838  0.4933006802816209  0.5611395764203309
  0.6650240939289560  0.9852958205318174  0.4355981716406347
  0.8326704662568645  0.5961842736954139  0.3691618957296541
  0.6662068836687780  0.8932814367254380  0.6294107068109156
  0.6670500147289360  0.0964505035605185  0.6253811003040113
  0.8323823060602109  0.3929254956259314  0.3672761726317333
  0.6669328266313528  0.3055206567687563  0.5238143726160729
  0.8322174961702018  0.1686079659458883  0.4625342192438850
  0.3788842849351681  0.6515018290963610  0.6920101008004025
  0.3328106689775367  0.5938510787513636  0.6394270767525256
  0.3154340731776060  0.6516184871979931  0.7224791702725923
 
  0.00000000E+00  0.00000000E+00  0.00000000E+00
  0.00000000E+00  0.00000000E+00  0.00000000E+00
  0.00000000E+00  0.00000000E+00  0.00000000E+00
  0.00000000E+00  0.00000000E+00  0.00000000E+00
  0.00000000E+00  0.00000000E+00  0.00000000E+00
  0.00000000E+00  0.00000000E+00  0.00000000E+00
  0.00000000E+00  0.00000000E+00  0.00000000E+00
  0.00000000E+00  0.00000000E+00  0.00000000E+00
  0.00000000E+00  0.00000000E+00  0.00000000E+00
  0.00000000E+00  0.00000000E+00  0.00000000E+00
  0.00000000E+00  0.00000000E+00  0.00000000E+00
  0.00000000E+00  0.00000000E+00  0.00000000E+00
  0.00000000E+00  0.00000000E+00  0.00000000E+00
  0.00000000E+00  0.00000000E+00  0.00000000E+00
  0.00000000E+00  0.00000000E+00  0.00000000E+00
  0.00000000E+00  0.00000000E+00  0.00000000E+00
  0.00000000E+00  0.00000000E+00  0.00000000E+00
  0.00000000E+00  0.00000000E+00  0.00000000E+00
  0.00000000E+00  0.00000000E+00  0.00000000E+00
  0.00000000E+00  0.00000000E+00  0.00000000E+00
  0.00000000E+00  0.00000000E+00  0.00000000E+00
  0.00000000E+00  0.00000000E+00  0.00000000E+00
  0.00000000E+00  0.00000000E+00  0.00000000E+00
  0.00000000E+00  0.00000000E+00  0.00000000E+00
  0.00000000E+00  0.00000000E+00  0.00000000E+00
  0.00000000E+00  0.00000000E+00  0.00000000E+00
  0.00000000E+00  0.00000000E+00  0.00000000E+00
  0.00000000E+00  0.00000000E+00  0.00000000E+00
  0.00000000E+00  0.00000000E+00  0.00000000E+00
  0.00000000E+00  0.00000000E+00  0.00000000E+00
  0.00000000E+00  0.00000000E+00  0.00000000E+00
  0.00000000E+00  0.00000000E+00  0.00000000E+00
  0.00000000E+00  0.00000000E+00  0.00000000E+00
  0.00000000E+00  0.00000000E+00  0.00000000E+00
  0.00000000E+00  0.00000000E+00  0.00000000E+00
  0.00000000E+00  0.00000000E+00  0.00000000E+00
  0.00000000E+00  0.00000000E+00  0.00000000E+00
  0.00000000E+00  0.00000000E+00  0.00000000E+00
  0.00000000E+00  0.00000000E+00  0.00000000E+00
