CONTCAR\(7)                             
   1.00000000000000     
    12.5420999526999992    0.0000000000000000    0.0000000000000000
     0.0000000000000000   15.8683996200999999    0.0000000000000000
     0.0000000000000000    0.0000000000000000   20.3181991577000005
   La   Br   O 
    12    30     1
Direct
  0.2518730852909636  0.8439702339010872  0.4803658345799223
  0.0870634091895863  0.1147956589298503  0.5109873011743329
  0.2422607547380173  0.3416059118478535  0.4646908648373734
  0.0813329989877831  0.6116574418021355  0.5245791914106224
  0.5820546668809337  0.8441494030749358  0.4805787344710208
  0.4167323233296449  0.1069637699236353  0.6277680417687769
  0.5904395953940103  0.3414485161515765  0.4651258680795756
  0.4165079610096915  0.6097567125412742  0.5284824979215570
  0.9170384886744338  0.8392915463694630  0.4740238315080444
  0.7465322211754793  0.1146978788630828  0.5117165127473672
  0.9166529236143330  0.3440426334655558  0.4609042714230315
  0.7518831613992564  0.6117834108707153  0.5249787573344259
  0.2477925524397221  0.5964954776542645  0.6271522410303397
  0.0834490673011456  0.3607437177852162  0.3603041709536920
  0.2262549075440072  0.9880190237658824  0.5815396282411492
  0.0854783829005259  0.9592887152226599  0.4153113221291378
  0.0773645583870305  0.4197888754770719  0.5554036218966295
  0.2517017662832364  0.5370168643432550  0.4344468183605827
  0.0884945261528872  0.7334620753757269  0.4051999064737983
  0.2247084055638250  0.2305932295623988  0.5907496225112459
  0.0789602746909350  0.7917559219395079  0.5779695797519090
  0.2469093940722786  0.1645250740336412  0.4153566577189177
  0.5851387148689916  0.5971233143992897  0.6273993558191536
  0.4165211939882533  0.3518820731392899  0.3682821044542631
  0.6074796508160257  0.9878705483817265  0.5821537050752911
  0.4167571862342725  0.9617667078329829  0.4316839290343689
  0.4163845826360568  0.4095866279476875  0.5563794038679392
  0.5818102748932505  0.5369649615704751  0.4348260063908713
  0.4170510196149536  0.7324472913237060  0.4103702321817277
  0.6088890094808772  0.2307370817955755  0.5916232168337549
  0.4171563248280388  0.7936748221853113  0.5830321498727713
  0.5853574235769292  0.1639623177073544  0.4167817539757776
  0.9167188362036465  0.5987904619362399  0.6272724319806431
  0.7491169948771184  0.3597230327394695  0.3607342688419925
  0.9171625967416221  0.9934273256007143  0.5678411317318919
  0.7480752753924967  0.9595209094806769  0.4158519928421130
  0.7557872696080784  0.4194626156803152  0.5554406475432809
  0.9160152953737262  0.5401926390458384  0.4303350409147466
  0.7454774831252107  0.7339264858254272  0.4055674321544189
  0.9169446328742398  0.2213675550589374  0.5805514267529803
  0.7551837964215493  0.7917973605055914  0.5783253382966550
  0.9163256984289918  0.1596384112995403  0.4096224756977927
  0.4158617169959470  0.0973153026430486  0.7182009094141126
 
  0.00000000E+00  0.00000000E+00  0.00000000E+00
  0.00000000E+00  0.00000000E+00  0.00000000E+00
  0.00000000E+00  0.00000000E+00  0.00000000E+00
  0.00000000E+00  0.00000000E+00  0.00000000E+00
  0.00000000E+00  0.00000000E+00  0.00000000E+00
  0.00000000E+00  0.00000000E+00  0.00000000E+00
  0.00000000E+00  0.00000000E+00  0.00000000E+00
  0.00000000E+00  0.00000000E+00  0.00000000E+00
  0.00000000E+00  0.00000000E+00  0.00000000E+00
  0.00000000E+00  0.00000000E+00  0.00000000E+00
  0.00000000E+00  0.00000000E+00  0.00000000E+00
  0.00000000E+00  0.00000000E+00  0.00000000E+00
  0.00000000E+00  0.00000000E+00  0.00000000E+00
  0.00000000E+00  0.00000000E+00  0.00000000E+00
  0.00000000E+00  0.00000000E+00  0.00000000E+00
  0.00000000E+00  0.00000000E+00  0.00000000E+00
  0.00000000E+00  0.00000000E+00  0.00000000E+00
  0.00000000E+00  0.00000000E+00  0.00000000E+00
  0.00000000E+00  0.00000000E+00  0.00000000E+00
  0.00000000E+00  0.00000000E+00  0.00000000E+00
  0.00000000E+00  0.00000000E+00  0.00000000E+00
  0.00000000E+00  0.00000000E+00  0.00000000E+00
  0.00000000E+00  0.00000000E+00  0.00000000E+00
  0.00000000E+00  0.00000000E+00  0.00000000E+00
  0.00000000E+00  0.00000000E+00  0.00000000E+00
  0.00000000E+00  0.00000000E+00  0.00000000E+00
  0.00000000E+00  0.00000000E+00  0.00000000E+00
  0.00000000E+00  0.00000000E+00  0.00000000E+00
  0.00000000E+00  0.00000000E+00  0.00000000E+00
  0.00000000E+00  0.00000000E+00  0.00000000E+00
  0.00000000E+00  0.00000000E+00  0.00000000E+00
  0.00000000E+00  0.00000000E+00  0.00000000E+00
  0.00000000E+00  0.00000000E+00  0.00000000E+00
  0.00000000E+00  0.00000000E+00  0.00000000E+00
  0.00000000E+00  0.00000000E+00  0.00000000E+00
  0.00000000E+00  0.00000000E+00  0.00000000E+00
  0.00000000E+00  0.00000000E+00  0.00000000E+00
  0.00000000E+00  0.00000000E+00  0.00000000E+00
  0.00000000E+00  0.00000000E+00  0.00000000E+00
  0.00000000E+00  0.00000000E+00  0.00000000E+00
  0.00000000E+00  0.00000000E+00  0.00000000E+00
  0.00000000E+00  0.00000000E+00  0.00000000E+00
  0.00000000E+00  0.00000000E+00  0.00000000E+00
