 Li4 Fe2 P8 O26                         
   1.00000000000000     
     4.7273391464069707    0.0000000000000000    0.0000000000000000
    -1.0606045738166383    7.6061982480007986    0.0000000000000000
     0.0000000000000000    0.0000000000000000   27.1489465723740011
   Li   Fe   P    O 
     4     2     8    26
Direct
  0.8736023950924618  0.3390940140286034  0.4825590066018037
  0.6692323494177614  0.4161766019080133  0.2811943894186513
  0.3307665955174173  0.5838222383125000  0.7188055959982407
  0.1264000887960037  0.6609011976222874  0.5174410525255411
  0.6104490447488686  0.1130851749900472  0.3815506260995889
  0.3895510715140560  0.8869179563114571  0.6184510781928836
  0.0813203004016145  0.9292680009417111  0.4333375005430540
  0.8501925250267348  0.6988282497617533  0.6707615530712587
  0.7534079724394118  0.7388863700719384  0.3580902721621584
  0.6002756494807500  0.5213959477889176  0.5794954141244517
  0.3997351595567196  0.4785854464984212  0.4205076362341558
  0.2465795718455794  0.2611257384012120  0.6419041560957268
  0.1498006056570418  0.3011616930388428  0.3292378684780886
  0.9186841144221916  0.0707440920111679  0.5666647167180372
  0.9259784678029348  0.0904394501877519  0.4190939209392397
  0.8239010526218422  0.2444343440561880  0.3276649423338256
  0.0500776710511914  0.8023243788844781  0.3851125922822476
  0.9764198141221954  0.8306711635257216  0.4780103424814257
  0.7873193726497405  0.6084225174989655  0.3194709604551278
  0.8055607668942883  0.5617114422835385  0.6260523975871450
  0.5970360527573604  0.0009497823228060  0.5654091389539673
  0.7386346878843639  0.6200039475217380  0.7184692083968969
  0.6087490908203250  0.3456569411836696  0.4228574603534767
  0.7755280174322863  0.4986421456806269  0.5351210722714299
  0.5688013863770252  0.6639383131039409  0.4054318807098554
  0.7055188572997082  0.8594588985872136  0.6545304512344146
  0.6286926725476221  0.9009114226647128  0.3417589403698216
  0.3713004925328960  0.0990928277320009  0.6582384212949393
  0.2944782701435287  0.1405365958159379  0.3454693373417754
  0.4311961134380553  0.3360648695985660  0.5945672098388428
  0.2244758784969036  0.5013481338622086  0.4648801118065506
  0.3912658413593491  0.6543410248704546  0.5771443035664845
  0.2613674537638317  0.3799887379414741  0.2815294175303578
  0.4029603808090840  0.9990573356648724  0.4345935480843011
  0.1944462481158311  0.4382806264361463  0.3739479288344540
  0.2126784129820152  0.3915780995097293  0.6805255219010036
  0.0235830693838039  0.1693306941895472  0.5219914412152278
  0.9499158824566294  0.1976855731515599  0.6148856952537471
  0.1760991350027084  0.7555695227733281  0.6723338112228348
  0.0740174673378817  0.9095684892659577  0.5809090774769459
 
  0.00000000E+00  0.00000000E+00  0.00000000E+00
  0.00000000E+00  0.00000000E+00  0.00000000E+00
  0.00000000E+00  0.00000000E+00  0.00000000E+00
  0.00000000E+00  0.00000000E+00  0.00000000E+00
  0.00000000E+00  0.00000000E+00  0.00000000E+00
  0.00000000E+00  0.00000000E+00  0.00000000E+00
  0.00000000E+00  0.00000000E+00  0.00000000E+00
  0.00000000E+00  0.00000000E+00  0.00000000E+00
  0.00000000E+00  0.00000000E+00  0.00000000E+00
  0.00000000E+00  0.00000000E+00  0.00000000E+00
  0.00000000E+00  0.00000000E+00  0.00000000E+00
  0.00000000E+00  0.00000000E+00  0.00000000E+00
  0.00000000E+00  0.00000000E+00  0.00000000E+00
  0.00000000E+00  0.00000000E+00  0.00000000E+00
  0.00000000E+00  0.00000000E+00  0.00000000E+00
  0.00000000E+00  0.00000000E+00  0.00000000E+00
  0.00000000E+00  0.00000000E+00  0.00000000E+00
  0.00000000E+00  0.00000000E+00  0.00000000E+00
  0.00000000E+00  0.00000000E+00  0.00000000E+00
  0.00000000E+00  0.00000000E+00  0.00000000E+00
  0.00000000E+00  0.00000000E+00  0.00000000E+00
  0.00000000E+00  0.00000000E+00  0.00000000E+00
  0.00000000E+00  0.00000000E+00  0.00000000E+00
  0.00000000E+00  0.00000000E+00  0.00000000E+00
  0.00000000E+00  0.00000000E+00  0.00000000E+00
  0.00000000E+00  0.00000000E+00  0.00000000E+00
  0.00000000E+00  0.00000000E+00  0.00000000E+00
  0.00000000E+00  0.00000000E+00  0.00000000E+00
  0.00000000E+00  0.00000000E+00  0.00000000E+00
  0.00000000E+00  0.00000000E+00  0.00000000E+00
  0.00000000E+00  0.00000000E+00  0.00000000E+00
  0.00000000E+00  0.00000000E+00  0.00000000E+00
  0.00000000E+00  0.00000000E+00  0.00000000E+00
  0.00000000E+00  0.00000000E+00  0.00000000E+00
  0.00000000E+00  0.00000000E+00  0.00000000E+00
  0.00000000E+00  0.00000000E+00  0.00000000E+00
  0.00000000E+00  0.00000000E+00  0.00000000E+00
  0.00000000E+00  0.00000000E+00  0.00000000E+00
  0.00000000E+00  0.00000000E+00  0.00000000E+00
  0.00000000E+00  0.00000000E+00  0.00000000E+00
