G   43   26    1    0.005     # Parameters to Generate KPOINTS (Don't Edit This Line)
     560
Reciprocal lattice
    0.000000000000    0.000000000000    0.000000000000       1
    0.023255813953    0.000000000000    0.000000000000       2
    0.046511627907    0.000000000000    0.000000000000       2
    0.069767441860    0.000000000000    0.000000000000       2
    0.093023255814    0.000000000000    0.000000000000       2
    0.116279069767    0.000000000000    0.000000000000       2
    0.139534883721    0.000000000000    0.000000000000       2
    0.162790697674    0.000000000000    0.000000000000       2
    0.186046511628    0.000000000000    0.000000000000       2
    0.209302325581    0.000000000000    0.000000000000       2
    0.232558139535    0.000000000000    0.000000000000       2
    0.255813953488    0.000000000000    0.000000000000       2
    0.279069767442    0.000000000000    0.000000000000       2
    0.302325581395    0.000000000000    0.000000000000       2
    0.325581395349    0.000000000000    0.000000000000       2
    0.348837209302    0.000000000000    0.000000000000       2
    0.372093023256    0.000000000000    0.000000000000       2
    0.395348837209    0.000000000000    0.000000000000       2
    0.418604651163    0.000000000000    0.000000000000       2
    0.441860465116    0.000000000000    0.000000000000       2
    0.465116279070    0.000000000000    0.000000000000       2
    0.488372093023    0.000000000000    0.000000000000       2
    0.000000000000    0.038461538462    0.000000000000       2
    0.023255813953    0.038461538462    0.000000000000       2
    0.046511627907    0.038461538462    0.000000000000       2
    0.069767441860    0.038461538462    0.000000000000       2
    0.093023255814    0.038461538462    0.000000000000       2
    0.116279069767    0.038461538462    0.000000000000       2
    0.139534883721    0.038461538462    0.000000000000       2
    0.162790697674    0.038461538462    0.000000000000       2
    0.186046511628    0.038461538462    0.000000000000       2
    0.209302325581    0.038461538462    0.000000000000       2
    0.232558139535    0.038461538462    0.000000000000       2
    0.255813953488    0.038461538462    0.000000000000       2
    0.279069767442    0.038461538462    0.000000000000       2
    0.302325581395    0.038461538462    0.000000000000       2
    0.325581395349    0.038461538462    0.000000000000       2
    0.348837209302    0.038461538462    0.000000000000       2
    0.372093023256    0.038461538462    0.000000000000       2
    0.395348837209    0.038461538462    0.000000000000       2
    0.418604651163    0.038461538462    0.000000000000       2
    0.441860465116    0.038461538462    0.000000000000       2
    0.465116279070    0.038461538462    0.000000000000       2
    0.488372093023    0.038461538462    0.000000000000       2
   -0.488372093023    0.038461538462    0.000000000000       2
   -0.465116279070    0.038461538462    0.000000000000       2
   -0.441860465116    0.038461538462    0.000000000000       2
   -0.418604651163    0.038461538462    0.000000000000       2
   -0.395348837209    0.038461538462    0.000000000000       2
   -0.372093023256    0.038461538462    0.000000000000       2
   -0.348837209302    0.038461538462    0.000000000000       2
   -0.325581395349    0.038461538462    0.000000000000       2
   -0.302325581395    0.038461538462    0.000000000000       2
   -0.279069767442    0.038461538462    0.000000000000       2
   -0.255813953488    0.038461538462    0.000000000000       2
   -0.232558139535    0.038461538462    0.000000000000       2
   -0.209302325581    0.038461538462    0.000000000000       2
   -0.186046511628    0.038461538462    0.000000000000       2
   -0.162790697674    0.038461538462    0.000000000000       2
   -0.139534883721    0.038461538462    0.000000000000       2
   -0.116279069767    0.038461538462    0.000000000000       2
   -0.093023255814    0.038461538462    0.000000000000       2
   -0.069767441860    0.038461538462    0.000000000000       2
   -0.046511627907    0.038461538462    0.000000000000       2
   -0.023255813953    0.038461538462    0.000000000000       2
    0.000000000000    0.076923076923    0.000000000000       2
    0.023255813953    0.076923076923    0.000000000000       2
    0.046511627907    0.076923076923    0.000000000000       2
    0.069767441860    0.076923076923    0.000000000000       2
    0.093023255814    0.076923076923    0.000000000000       2
    0.116279069767    0.076923076923    0.000000000000       2
    0.139534883721    0.076923076923    0.000000000000       2
    0.162790697674    0.076923076923    0.000000000000       2
    0.186046511628    0.076923076923    0.000000000000       2
    0.209302325581    0.076923076923    0.000000000000       2
    0.232558139535    0.076923076923    0.000000000000       2
    0.255813953488    0.076923076923    0.000000000000       2
    0.279069767442    0.076923076923    0.000000000000       2
    0.302325581395    0.076923076923    0.000000000000       2
    0.325581395349    0.076923076923    0.000000000000       2
    0.348837209302    0.076923076923    0.000000000000       2
    0.372093023256    0.076923076923    0.000000000000       2
    0.395348837209    0.076923076923    0.000000000000       2
    0.418604651163    0.076923076923    0.000000000000       2
    0.441860465116    0.076923076923    0.000000000000       2
    0.465116279070    0.076923076923    0.000000000000       2
    0.488372093023    0.076923076923    0.000000000000       2
   -0.488372093023    0.076923076923    0.000000000000       2
   -0.465116279070    0.076923076923    0.000000000000       2
   -0.441860465116    0.076923076923    0.000000000000       2
   -0.418604651163    0.076923076923    0.000000000000       2
   -0.395348837209    0.076923076923    0.000000000000       2
   -0.372093023256    0.076923076923    0.000000000000       2
   -0.348837209302    0.076923076923    0.000000000000       2
   -0.325581395349    0.076923076923    0.000000000000       2
   -0.302325581395    0.076923076923    0.000000000000       2
   -0.279069767442    0.076923076923    0.000000000000       2
   -0.255813953488    0.076923076923    0.000000000000       2
   -0.232558139535    0.076923076923    0.000000000000       2
   -0.209302325581    0.076923076923    0.000000000000       2
   -0.186046511628    0.076923076923    0.000000000000       2
   -0.162790697674    0.076923076923    0.000000000000       2
   -0.139534883721    0.076923076923    0.000000000000       2
   -0.116279069767    0.076923076923    0.000000000000       2
   -0.093023255814    0.076923076923    0.000000000000       2
   -0.069767441860    0.076923076923    0.000000000000       2
   -0.046511627907    0.076923076923    0.000000000000       2
   -0.023255813953    0.076923076923    0.000000000000       2
    0.000000000000    0.115384615385    0.000000000000       2
    0.023255813953    0.115384615385    0.000000000000       2
    0.046511627907    0.115384615385    0.000000000000       2
    0.069767441860    0.115384615385    0.000000000000       2
    0.093023255814    0.115384615385    0.000000000000       2
    0.116279069767    0.115384615385    0.000000000000       2
    0.139534883721    0.115384615385    0.000000000000       2
    0.162790697674    0.115384615385    0.000000000000       2
    0.186046511628    0.115384615385    0.000000000000       2
    0.209302325581    0.115384615385    0.000000000000       2
    0.232558139535    0.115384615385    0.000000000000       2
    0.255813953488    0.115384615385    0.000000000000       2
    0.279069767442    0.115384615385    0.000000000000       2
    0.302325581395    0.115384615385    0.000000000000       2
    0.325581395349    0.115384615385    0.000000000000       2
    0.348837209302    0.115384615385    0.000000000000       2
    0.372093023256    0.115384615385    0.000000000000       2
    0.395348837209    0.115384615385    0.000000000000       2
    0.418604651163    0.115384615385    0.000000000000       2
    0.441860465116    0.115384615385    0.000000000000       2
    0.465116279070    0.115384615385    0.000000000000       2
    0.488372093023    0.115384615385    0.000000000000       2
   -0.488372093023    0.115384615385    0.000000000000       2
   -0.465116279070    0.115384615385    0.000000000000       2
   -0.441860465116    0.115384615385    0.000000000000       2
   -0.418604651163    0.115384615385    0.000000000000       2
   -0.395348837209    0.115384615385    0.000000000000       2
   -0.372093023256    0.115384615385    0.000000000000       2
   -0.348837209302    0.115384615385    0.000000000000       2
   -0.325581395349    0.115384615385    0.000000000000       2
   -0.302325581395    0.115384615385    0.000000000000       2
   -0.279069767442    0.115384615385    0.000000000000       2
   -0.255813953488    0.115384615385    0.000000000000       2
   -0.232558139535    0.115384615385    0.000000000000       2
   -0.209302325581    0.115384615385    0.000000000000       2
   -0.186046511628    0.115384615385    0.000000000000       2
   -0.162790697674    0.115384615385    0.000000000000       2
   -0.139534883721    0.115384615385    0.000000000000       2
   -0.116279069767    0.115384615385    0.000000000000       2
   -0.093023255814    0.115384615385    0.000000000000       2
   -0.069767441860    0.115384615385    0.000000000000       2
   -0.046511627907    0.115384615385    0.000000000000       2
   -0.023255813953    0.115384615385    0.000000000000       2
    0.000000000000    0.153846153846    0.000000000000       2
    0.023255813953    0.153846153846    0.000000000000       2
    0.046511627907    0.153846153846    0.000000000000       2
    0.069767441860    0.153846153846    0.000000000000       2
    0.093023255814    0.153846153846    0.000000000000       2
    0.116279069767    0.153846153846    0.000000000000       2
    0.139534883721    0.153846153846    0.000000000000       2
    0.162790697674    0.153846153846    0.000000000000       2
    0.186046511628    0.153846153846    0.000000000000       2
    0.209302325581    0.153846153846    0.000000000000       2
    0.232558139535    0.153846153846    0.000000000000       2
    0.255813953488    0.153846153846    0.000000000000       2
    0.279069767442    0.153846153846    0.000000000000       2
    0.302325581395    0.153846153846    0.000000000000       2
    0.325581395349    0.153846153846    0.000000000000       2
    0.348837209302    0.153846153846    0.000000000000       2
    0.372093023256    0.153846153846    0.000000000000       2
    0.395348837209    0.153846153846    0.000000000000       2
    0.418604651163    0.153846153846    0.000000000000       2
    0.441860465116    0.153846153846    0.000000000000       2
    0.465116279070    0.153846153846    0.000000000000       2
    0.488372093023    0.153846153846    0.000000000000       2
   -0.488372093023    0.153846153846    0.000000000000       2
   -0.465116279070    0.153846153846    0.000000000000       2
   -0.441860465116    0.153846153846    0.000000000000       2
   -0.418604651163    0.153846153846    0.000000000000       2
   -0.395348837209    0.153846153846    0.000000000000       2
   -0.372093023256    0.153846153846    0.000000000000       2
   -0.348837209302    0.153846153846    0.000000000000       2
   -0.325581395349    0.153846153846    0.000000000000       2
   -0.302325581395    0.153846153846    0.000000000000       2
   -0.279069767442    0.153846153846    0.000000000000       2
   -0.255813953488    0.153846153846    0.000000000000       2
   -0.232558139535    0.153846153846    0.000000000000       2
   -0.209302325581    0.153846153846    0.000000000000       2
   -0.186046511628    0.153846153846    0.000000000000       2
   -0.162790697674    0.153846153846    0.000000000000       2
   -0.139534883721    0.153846153846    0.000000000000       2
   -0.116279069767    0.153846153846    0.000000000000       2
   -0.093023255814    0.153846153846    0.000000000000       2
   -0.069767441860    0.153846153846    0.000000000000       2
   -0.046511627907    0.153846153846    0.000000000000       2
   -0.023255813953    0.153846153846    0.000000000000       2
    0.000000000000    0.192307692308    0.000000000000       2
    0.023255813953    0.192307692308    0.000000000000       2
    0.046511627907    0.192307692308    0.000000000000       2
    0.069767441860    0.192307692308    0.000000000000       2
    0.093023255814    0.192307692308    0.000000000000       2
    0.116279069767    0.192307692308    0.000000000000       2
    0.139534883721    0.192307692308    0.000000000000       2
    0.162790697674    0.192307692308    0.000000000000       2
    0.186046511628    0.192307692308    0.000000000000       2
    0.209302325581    0.192307692308    0.000000000000       2
    0.232558139535    0.192307692308    0.000000000000       2
    0.255813953488    0.192307692308    0.000000000000       2
    0.279069767442    0.192307692308    0.000000000000       2
    0.302325581395    0.192307692308    0.000000000000       2
    0.325581395349    0.192307692308    0.000000000000       2
    0.348837209302    0.192307692308    0.000000000000       2
    0.372093023256    0.192307692308    0.000000000000       2
    0.395348837209    0.192307692308    0.000000000000       2
    0.418604651163    0.192307692308    0.000000000000       2
    0.441860465116    0.192307692308    0.000000000000       2
    0.465116279070    0.192307692308    0.000000000000       2
    0.488372093023    0.192307692308    0.000000000000       2
   -0.488372093023    0.192307692308    0.000000000000       2
   -0.465116279070    0.192307692308    0.000000000000       2
   -0.441860465116    0.192307692308    0.000000000000       2
   -0.418604651163    0.192307692308    0.000000000000       2
   -0.395348837209    0.192307692308    0.000000000000       2
   -0.372093023256    0.192307692308    0.000000000000       2
   -0.348837209302    0.192307692308    0.000000000000       2
   -0.325581395349    0.192307692308    0.000000000000       2
   -0.302325581395    0.192307692308    0.000000000000       2
   -0.279069767442    0.192307692308    0.000000000000       2
   -0.255813953488    0.192307692308    0.000000000000       2
   -0.232558139535    0.192307692308    0.000000000000       2
   -0.209302325581    0.192307692308    0.000000000000       2
   -0.186046511628    0.192307692308    0.000000000000       2
   -0.162790697674    0.192307692308    0.000000000000       2
   -0.139534883721    0.192307692308    0.000000000000       2
   -0.116279069767    0.192307692308    0.000000000000       2
   -0.093023255814    0.192307692308    0.000000000000       2
   -0.069767441860    0.192307692308    0.000000000000       2
   -0.046511627907    0.192307692308    0.000000000000       2
   -0.023255813953    0.192307692308    0.000000000000       2
    0.000000000000    0.230769230769    0.000000000000       2
    0.023255813953    0.230769230769    0.000000000000       2
    0.046511627907    0.230769230769    0.000000000000       2
    0.069767441860    0.230769230769    0.000000000000       2
    0.093023255814    0.230769230769    0.000000000000       2
    0.116279069767    0.230769230769    0.000000000000       2
    0.139534883721    0.230769230769    0.000000000000       2
    0.162790697674    0.230769230769    0.000000000000       2
    0.186046511628    0.230769230769    0.000000000000       2
    0.209302325581    0.230769230769    0.000000000000       2
    0.232558139535    0.230769230769    0.000000000000       2
    0.255813953488    0.230769230769    0.000000000000       2
    0.279069767442    0.230769230769    0.000000000000       2
    0.302325581395    0.230769230769    0.000000000000       2
    0.325581395349    0.230769230769    0.000000000000       2
    0.348837209302    0.230769230769    0.000000000000       2
    0.372093023256    0.230769230769    0.000000000000       2
    0.395348837209    0.230769230769    0.000000000000       2
    0.418604651163    0.230769230769    0.000000000000       2
    0.441860465116    0.230769230769    0.000000000000       2
    0.465116279070    0.230769230769    0.000000000000       2
    0.488372093023    0.230769230769    0.000000000000       2
   -0.488372093023    0.230769230769    0.000000000000       2
   -0.465116279070    0.230769230769    0.000000000000       2
   -0.441860465116    0.230769230769    0.000000000000       2
   -0.418604651163    0.230769230769    0.000000000000       2
   -0.395348837209    0.230769230769    0.000000000000       2
   -0.372093023256    0.230769230769    0.000000000000       2
   -0.348837209302    0.230769230769    0.000000000000       2
   -0.325581395349    0.230769230769    0.000000000000       2
   -0.302325581395    0.230769230769    0.000000000000       2
   -0.279069767442    0.230769230769    0.000000000000       2
   -0.255813953488    0.230769230769    0.000000000000       2
   -0.232558139535    0.230769230769    0.000000000000       2
   -0.209302325581    0.230769230769    0.000000000000       2
   -0.186046511628    0.230769230769    0.000000000000       2
   -0.162790697674    0.230769230769    0.000000000000       2
   -0.139534883721    0.230769230769    0.000000000000       2
   -0.116279069767    0.230769230769    0.000000000000       2
   -0.093023255814    0.230769230769    0.000000000000       2
   -0.069767441860    0.230769230769    0.000000000000       2
   -0.046511627907    0.230769230769    0.000000000000       2
   -0.023255813953    0.230769230769    0.000000000000       2
    0.000000000000    0.269230769231    0.000000000000       2
    0.023255813953    0.269230769231    0.000000000000       2
    0.046511627907    0.269230769231    0.000000000000       2
    0.069767441860    0.269230769231    0.000000000000       2
    0.093023255814    0.269230769231    0.000000000000       2
    0.116279069767    0.269230769231    0.000000000000       2
    0.139534883721    0.269230769231    0.000000000000       2
    0.162790697674    0.269230769231    0.000000000000       2
    0.186046511628    0.269230769231    0.000000000000       2
    0.209302325581    0.269230769231    0.000000000000       2
    0.232558139535    0.269230769231    0.000000000000       2
    0.255813953488    0.269230769231    0.000000000000       2
    0.279069767442    0.269230769231    0.000000000000       2
    0.302325581395    0.269230769231    0.000000000000       2
    0.325581395349    0.269230769231    0.000000000000       2
    0.348837209302    0.269230769231    0.000000000000       2
    0.372093023256    0.269230769231    0.000000000000       2
    0.395348837209    0.269230769231    0.000000000000       2
    0.418604651163    0.269230769231    0.000000000000       2
    0.441860465116    0.269230769231    0.000000000000       2
    0.465116279070    0.269230769231    0.000000000000       2
    0.488372093023    0.269230769231    0.000000000000       2
   -0.488372093023    0.269230769231    0.000000000000       2
   -0.465116279070    0.269230769231    0.000000000000       2
   -0.441860465116    0.269230769231    0.000000000000       2
   -0.418604651163    0.269230769231    0.000000000000       2
   -0.395348837209    0.269230769231    0.000000000000       2
   -0.372093023256    0.269230769231    0.000000000000       2
   -0.348837209302    0.269230769231    0.000000000000       2
   -0.325581395349    0.269230769231    0.000000000000       2
   -0.302325581395    0.269230769231    0.000000000000       2
   -0.279069767442    0.269230769231    0.000000000000       2
   -0.255813953488    0.269230769231    0.000000000000       2
   -0.232558139535    0.269230769231    0.000000000000       2
   -0.209302325581    0.269230769231    0.000000000000       2
   -0.186046511628    0.269230769231    0.000000000000       2
   -0.162790697674    0.269230769231    0.000000000000       2
   -0.139534883721    0.269230769231    0.000000000000       2
   -0.116279069767    0.269230769231    0.000000000000       2
   -0.093023255814    0.269230769231    0.000000000000       2
   -0.069767441860    0.269230769231    0.000000000000       2
   -0.046511627907    0.269230769231    0.000000000000       2
   -0.023255813953    0.269230769231    0.000000000000       2
    0.000000000000    0.307692307692    0.000000000000       2
    0.023255813953    0.307692307692    0.000000000000       2
    0.046511627907    0.307692307692    0.000000000000       2
    0.069767441860    0.307692307692    0.000000000000       2
    0.093023255814    0.307692307692    0.000000000000       2
    0.116279069767    0.307692307692    0.000000000000       2
    0.139534883721    0.307692307692    0.000000000000       2
    0.162790697674    0.307692307692    0.000000000000       2
    0.186046511628    0.307692307692    0.000000000000       2
    0.209302325581    0.307692307692    0.000000000000       2
    0.232558139535    0.307692307692    0.000000000000       2
    0.255813953488    0.307692307692    0.000000000000       2
    0.279069767442    0.307692307692    0.000000000000       2
    0.302325581395    0.307692307692    0.000000000000       2
    0.325581395349    0.307692307692    0.000000000000       2
    0.348837209302    0.307692307692    0.000000000000       2
    0.372093023256    0.307692307692    0.000000000000       2
    0.395348837209    0.307692307692    0.000000000000       2
    0.418604651163    0.307692307692    0.000000000000       2
    0.441860465116    0.307692307692    0.000000000000       2
    0.465116279070    0.307692307692    0.000000000000       2
    0.488372093023    0.307692307692    0.000000000000       2
   -0.488372093023    0.307692307692    0.000000000000       2
   -0.465116279070    0.307692307692    0.000000000000       2
   -0.441860465116    0.307692307692    0.000000000000       2
   -0.418604651163    0.307692307692    0.000000000000       2
   -0.395348837209    0.307692307692    0.000000000000       2
   -0.372093023256    0.307692307692    0.000000000000       2
   -0.348837209302    0.307692307692    0.000000000000       2
   -0.325581395349    0.307692307692    0.000000000000       2
   -0.302325581395    0.307692307692    0.000000000000       2
   -0.279069767442    0.307692307692    0.000000000000       2
   -0.255813953488    0.307692307692    0.000000000000       2
   -0.232558139535    0.307692307692    0.000000000000       2
   -0.209302325581    0.307692307692    0.000000000000       2
   -0.186046511628    0.307692307692    0.000000000000       2
   -0.162790697674    0.307692307692    0.000000000000       2
   -0.139534883721    0.307692307692    0.000000000000       2
   -0.116279069767    0.307692307692    0.000000000000       2
   -0.093023255814    0.307692307692    0.000000000000       2
   -0.069767441860    0.307692307692    0.000000000000       2
   -0.046511627907    0.307692307692    0.000000000000       2
   -0.023255813953    0.307692307692    0.000000000000       2
    0.000000000000    0.346153846154    0.000000000000       2
    0.023255813953    0.346153846154    0.000000000000       2
    0.046511627907    0.346153846154    0.000000000000       2
    0.069767441860    0.346153846154    0.000000000000       2
    0.093023255814    0.346153846154    0.000000000000       2
    0.116279069767    0.346153846154    0.000000000000       2
    0.139534883721    0.346153846154    0.000000000000       2
    0.162790697674    0.346153846154    0.000000000000       2
    0.186046511628    0.346153846154    0.000000000000       2
    0.209302325581    0.346153846154    0.000000000000       2
    0.232558139535    0.346153846154    0.000000000000       2
    0.255813953488    0.346153846154    0.000000000000       2
    0.279069767442    0.346153846154    0.000000000000       2
    0.302325581395    0.346153846154    0.000000000000       2
    0.325581395349    0.346153846154    0.000000000000       2
    0.348837209302    0.346153846154    0.000000000000       2
    0.372093023256    0.346153846154    0.000000000000       2
    0.395348837209    0.346153846154    0.000000000000       2
    0.418604651163    0.346153846154    0.000000000000       2
    0.441860465116    0.346153846154    0.000000000000       2
    0.465116279070    0.346153846154    0.000000000000       2
    0.488372093023    0.346153846154    0.000000000000       2
   -0.488372093023    0.346153846154    0.000000000000       2
   -0.465116279070    0.346153846154    0.000000000000       2
   -0.441860465116    0.346153846154    0.000000000000       2
   -0.418604651163    0.346153846154    0.000000000000       2
   -0.395348837209    0.346153846154    0.000000000000       2
   -0.372093023256    0.346153846154    0.000000000000       2
   -0.348837209302    0.346153846154    0.000000000000       2
   -0.325581395349    0.346153846154    0.000000000000       2
   -0.302325581395    0.346153846154    0.000000000000       2
   -0.279069767442    0.346153846154    0.000000000000       2
   -0.255813953488    0.346153846154    0.000000000000       2
   -0.232558139535    0.346153846154    0.000000000000       2
   -0.209302325581    0.346153846154    0.000000000000       2
   -0.186046511628    0.346153846154    0.000000000000       2
   -0.162790697674    0.346153846154    0.000000000000       2
   -0.139534883721    0.346153846154    0.000000000000       2
   -0.116279069767    0.346153846154    0.000000000000       2
   -0.093023255814    0.346153846154    0.000000000000       2
   -0.069767441860    0.346153846154    0.000000000000       2
   -0.046511627907    0.346153846154    0.000000000000       2
   -0.023255813953    0.346153846154    0.000000000000       2
    0.000000000000    0.384615384615    0.000000000000       2
    0.023255813953    0.384615384615    0.000000000000       2
    0.046511627907    0.384615384615    0.000000000000       2
    0.069767441860    0.384615384615    0.000000000000       2
    0.093023255814    0.384615384615    0.000000000000       2
    0.116279069767    0.384615384615    0.000000000000       2
    0.139534883721    0.384615384615    0.000000000000       2
    0.162790697674    0.384615384615    0.000000000000       2
    0.186046511628    0.384615384615    0.000000000000       2
    0.209302325581    0.384615384615    0.000000000000       2
    0.232558139535    0.384615384615    0.000000000000       2
    0.255813953488    0.384615384615    0.000000000000       2
    0.279069767442    0.384615384615    0.000000000000       2
    0.302325581395    0.384615384615    0.000000000000       2
    0.325581395349    0.384615384615    0.000000000000       2
    0.348837209302    0.384615384615    0.000000000000       2
    0.372093023256    0.384615384615    0.000000000000       2
    0.395348837209    0.384615384615    0.000000000000       2
    0.418604651163    0.384615384615    0.000000000000       2
    0.441860465116    0.384615384615    0.000000000000       2
    0.465116279070    0.384615384615    0.000000000000       2
    0.488372093023    0.384615384615    0.000000000000       2
   -0.488372093023    0.384615384615    0.000000000000       2
   -0.465116279070    0.384615384615    0.000000000000       2
   -0.441860465116    0.384615384615    0.000000000000       2
   -0.418604651163    0.384615384615    0.000000000000       2
   -0.395348837209    0.384615384615    0.000000000000       2
   -0.372093023256    0.384615384615    0.000000000000       2
   -0.348837209302    0.384615384615    0.000000000000       2
   -0.325581395349    0.384615384615    0.000000000000       2
   -0.302325581395    0.384615384615    0.000000000000       2
   -0.279069767442    0.384615384615    0.000000000000       2
   -0.255813953488    0.384615384615    0.000000000000       2
   -0.232558139535    0.384615384615    0.000000000000       2
   -0.209302325581    0.384615384615    0.000000000000       2
   -0.186046511628    0.384615384615    0.000000000000       2
   -0.162790697674    0.384615384615    0.000000000000       2
   -0.139534883721    0.384615384615    0.000000000000       2
   -0.116279069767    0.384615384615    0.000000000000       2
   -0.093023255814    0.384615384615    0.000000000000       2
   -0.069767441860    0.384615384615    0.000000000000       2
   -0.046511627907    0.384615384615    0.000000000000       2
   -0.023255813953    0.384615384615    0.000000000000       2
    0.000000000000    0.423076923077    0.000000000000       2
    0.023255813953    0.423076923077    0.000000000000       2
    0.046511627907    0.423076923077    0.000000000000       2
    0.069767441860    0.423076923077    0.000000000000       2
    0.093023255814    0.423076923077    0.000000000000       2
    0.116279069767    0.423076923077    0.000000000000       2
    0.139534883721    0.423076923077    0.000000000000       2
    0.162790697674    0.423076923077    0.000000000000       2
    0.186046511628    0.423076923077    0.000000000000       2
    0.209302325581    0.423076923077    0.000000000000       2
    0.232558139535    0.423076923077    0.000000000000       2
    0.255813953488    0.423076923077    0.000000000000       2
    0.279069767442    0.423076923077    0.000000000000       2
    0.302325581395    0.423076923077    0.000000000000       2
    0.325581395349    0.423076923077    0.000000000000       2
    0.348837209302    0.423076923077    0.000000000000       2
    0.372093023256    0.423076923077    0.000000000000       2
    0.395348837209    0.423076923077    0.000000000000       2
    0.418604651163    0.423076923077    0.000000000000       2
    0.441860465116    0.423076923077    0.000000000000       2
    0.465116279070    0.423076923077    0.000000000000       2
    0.488372093023    0.423076923077    0.000000000000       2