CONTCAR\(2)                             
   1.00000000000000     
    11.7923002242999999    0.0000000000000000    0.0000000000000000
     0.0000000000000000   21.3097991942999982    0.0000000000000000
     0.0000000000000000    0.0000000000000000   18.7763004303000010
   V    Ag   P    S    O 
     8     8    16    48     1
Direct
  0.1400258306225775  0.4638854834282512  0.4998575544209170
  0.3661859267508643  0.0379026454190149  0.4998064977205052
  0.6310726272780971  0.4657445772975663  0.5031449466840954
  0.8686163920711493  0.0362335214017289  0.5002350094233030
  0.1328107461880137  0.9628993136561392  0.4913198041105765
  0.3827121593242694  0.5371091455180641  0.4981818712690401
  0.6349135242460686  0.9629715612235796  0.4905465374928013
  0.8638622878365833  0.5405808040949146  0.5155325263983980
  0.3616339730831487  0.2093969626989380  0.5238082747439193
  0.1383529160114501  0.2950999500505828  0.4829676078669196
  0.8623439256125740  0.2263446242570803  0.4715942082854959
  0.6398247347289289  0.2756514362937644  0.5240923288907828
  0.3470536379342954  0.7292842822631636  0.4531411512044597
  0.1278851953736709  0.7750464397577537  0.5176201368822924
  0.8161481237192441  0.7080064756056216  0.5614842494443752
  0.6304360115238782  0.7949412220772082  0.4630503295575780
  0.1131038693333219  0.1232068639983351  0.5637962646984339
  0.3783649532712254  0.3754784998816352  0.5583710846031497
  0.3901146938811640  0.3759181241352473  0.4394360920694538
  0.1250881143951640  0.1276893779858483  0.4446343324167367
  0.6187412983580407  0.1195127338141942  0.5717090478319534
  0.8814433101846432  0.3728232265491917  0.5470826089817941
  0.8853228867581650  0.3847091932456000  0.4290775046277046
  0.6243206095935370  0.1294873143019277  0.4532474664795519
  0.1284811976304707  0.6230584952956421  0.5730640819072562
  0.3790940277450091  0.8700378525276938  0.5332184565893250
  0.3816625617813292  0.8834569639764170  0.4151010495598028
  0.1224293339448450  0.6280816822422192  0.4542612540883317
  0.6065958215229574  0.6031016774251616  0.6387715381067129
  0.8736430979430236  0.8727909724647620  0.5489032567684266
  0.8866768691319757  0.8746449399322999  0.4299180140885843
  0.6025522903034081  0.6279571047429794  0.4505922393001035
  0.4653467347763012  0.4604730112020506  0.5811109434457243
  0.3156762699660150  0.3023049325178773  0.3967390371583800
  0.4509854284890411  0.1048848560038661  0.5934416249277608
  0.2945853740620772  0.1215886081396443  0.4239295154837849
  0.0567085903169343  0.2030917584306546  0.4004650527957043
  0.2096884049014218  0.3838526328545851  0.5801782508129302
  0.0531374652063448  0.3976896604012629  0.4065680427181372
  0.2989917036477563  0.4618460296542725  0.4194007866439741
  0.0378406573677553  0.0436698161840915  0.4203475104824581
  0.2053736721325590  0.0359124315009244  0.5782022346474882
  0.1868331512322974  0.1948281236906961  0.6109143131232297
  0.4481188121863443  0.3009243989486685  0.6033980638920371
  0.9675920319667443  0.4548607251683190  0.5771668047184874
  0.8101376208259736  0.3163932875303578  0.3774930834839824
  0.9477126060888155  0.1107758901890961  0.5868818977834506
  0.7910412918897709  0.1202667915787917  0.4247810716891255
  0.5520135803685055  0.2089716337573939  0.4223803104781159
  0.7141430849793249  0.3786154054228674  0.5746618656854284
  0.5559243281861439  0.3875312093745736  0.4170552174550134
  0.7933174099058320  0.4716680231303824  0.4231542434298859
  0.5390856351208454  0.0474723321384808  0.4232402546790995
  0.7080839186845327  0.0326173762723835  0.5810546972543609
  0.6927723633993742  0.1890402651057612  0.6217851206274231
  0.9545508023865148  0.2924848671730793  0.5753989268405209
  0.4620232479362035  0.9522594525245217  0.5657798899098607
  0.3067558544428785  0.8161447245980834  0.3612577399521605
  0.4972038002317765  0.6280989829771028  0.5463127770286328
  0.2891096715243688  0.6170211062941343  0.4223851413698431
  0.0478997379687963  0.7049087787799395  0.4190744826936466
  0.2139282609042582  0.8775855773510638  0.5650074691113594
  0.0518045975393328  0.8872846223686930  0.4059341301803140
  0.2909221425984398  0.9695925311954401  0.4085719735376582
  0.0338374289547748  0.5457389540492414  0.4333365503942261
  0.2244911368037559  0.5384496906698586  0.5830086611353800
  0.2071798869348340  0.6945791054864719  0.6160797789511111
  0.4540006113157405  0.7891554275539364  0.5583296147477097
  0.9636345106428463  0.9555128089752889  0.5723950941947625
  0.8131572897858134  0.8016053693535188  0.3859194841475904
  0.9640670524018207  0.6072007882278126  0.6036610332940064
  0.7765205861310678  0.6317526485986288  0.4602939808969944
  0.5532268007217740  0.6971250966526312  0.3876399693482583
  0.7045688074557321  0.8802316376205740  0.5690059513653156
  0.5499319127914730  0.8982782488427391  0.3940460232433323
  0.7966639376407106  0.9626179621496440  0.4136736991898096
  0.5476219026054018  0.5382795198130913  0.4166966442778764
  0.7141101767847600  0.5280316180617918  0.5976349181006937
  0.6911417004692543  0.6793458486158791  0.6656536898992309
  0.9427820564438429  0.7980677718589639  0.5958671724545390
  0.5252130758000089  0.5724237324483561  0.6881981518063303
 
  0.00000000E+00  0.00000000E+00  0.00000000E+00
  0.00000000E+00  0.00000000E+00  0.00000000E+00
  0.00000000E+00  0.00000000E+00  0.00000000E+00
  0.00000000E+00  0.00000000E+00  0.00000000E+00
  0.00000000E+00  0.00000000E+00  0.00000000E+00
  0.00000000E+00  0.00000000E+00  0.00000000E+00
  0.00000000E+00  0.00000000E+00  0.00000000E+00
  0.00000000E+00  0.00000000E+00  0.00000000E+00
  0.00000000E+00  0.00000000E+00  0.00000000E+00
  0.00000000E+00  0.00000000E+00  0.00000000E+00
  0.00000000E+00  0.00000000E+00  0.00000000E+00
  0.00000000E+00  0.00000000E+00  0.00000000E+00
  0.00000000E+00  0.00000000E+00  0.00000000E+00
  0.00000000E+00  0.00000000E+00  0.00000000E+00
  0.00000000E+00  0.00000000E+00  0.00000000E+00
  0.00000000E+00  0.00000000E+00  0.00000000E+00
  0.00000000E+00  0.00000000E+00  0.00000000E+00
  0.00000000E+00  0.00000000E+00  0.00000000E+00
  0.00000000E+00  0.00000000E+00  0.00000000E+00
  0.00000000E+00  0.00000000E+00  0.00000000E+00
  0.00000000E+00  0.00000000E+00  0.00000000E+00
  0.00000000E+00  0.00000000E+00  0.00000000E+00
  0.00000000E+00  0.00000000E+00  0.00000000E+00
  0.00000000E+00  0.00000000E+00  0.00000000E+00
  0.00000000E+00  0.00000000E+00  0.00000000E+00
  0.00000000E+00  0.00000000E+00  0.00000000E+00
  0.00000000E+00  0.00000000E+00  0.00000000E+00
  0.00000000E+00  0.00000000E+00  0.00000000E+00
  0.00000000E+00  0.00000000E+00  0.00000000E+00
  0.00000000E+00  0.00000000E+00  0.00000000E+00
  0.00000000E+00  0.00000000E+00  0.00000000E+00
  0.00000000E+00  0.00000000E+00  0.00000000E+00
  0.00000000E+00  0.00000000E+00  0.00000000E+00
  0.00000000E+00  0.00000000E+00  0.00000000E+00
  0.00000000E+00  0.00000000E+00  0.00000000E+00
  0.00000000E+00  0.00000000E+00  0.00000000E+00
  0.00000000E+00  0.00000000E+00  0.00000000E+00
  0.00000000E+00  0.00000000E+00  0.00000000E+00
  0.00000000E+00  0.00000000E+00  0.00000000E+00
  0.00000000E+00  0.00000000E+00  0.00000000E+00
  0.00000000E+00  0.00000000E+00  0.00000000E+00
  0.00000000E+00  0.00000000E+00  0.00000000E+00
  0.00000000E+00  0.00000000E+00  0.00000000E+00
  0.00000000E+00  0.00000000E+00  0.00000000E+00
  0.00000000E+00  0.00000000E+00  0.00000000E+00
  0.00000000E+00  0.00000000E+00  0.00000000E+00
  0.00000000E+00  0.00000000E+00  0.00000000E+00
  0.00000000E+00  0.00000000E+00  0.00000000E+00
  0.00000000E+00  0.00000000E+00  0.00000000E+00
  0.00000000E+00  0.00000000E+00  0.00000000E+00
  0.00000000E+00  0.00000000E+00  0.00000000E+00
  0.00000000E+00  0.00000000E+00  0.00000000E+00
  0.00000000E+00  0.00000000E+00  0.00000000E+00
  0.00000000E+00  0.00000000E+00  0.00000000E+00
  0.00000000E+00  0.00000000E+00  0.00000000E+00
  0.00000000E+00  0.00000000E+00  0.00000000E+00
  0.00000000E+00  0.00000000E+00  0.00000000E+00
  0.00000000E+00  0.00000000E+00  0.00000000E+00
  0.00000000E+00  0.00000000E+00  0.00000000E+00
  0.00000000E+00  0.00000000E+00  0.00000000E+00
  0.00000000E+00  0.00000000E+00  0.00000000E+00
  0.00000000E+00  0.00000000E+00  0.00000000E+00
  0.00000000E+00  0.00000000E+00  0.00000000E+00
  0.00000000E+00  0.00000000E+00  0.00000000E+00
  0.00000000E+00  0.00000000E+00  0.00000000E+00
  0.00000000E+00  0.00000000E+00  0.00000000E+00
  0.00000000E+00  0.00000000E+00  0.00000000E+00
  0.00000000E+00  0.00000000E+00  0.00000000E+00
  0.00000000E+00  0.00000000E+00  0.00000000E+00
  0.00000000E+00  0.00000000E+00  0.00000000E+00
  0.00000000E+00  0.00000000E+00  0.00000000E+00
  0.00000000E+00  0.00000000E+00  0.00000000E+00
  0.00000000E+00  0.00000000E+00  0.00000000E+00
  0.00000000E+00  0.00000000E+00  0.00000000E+00
  0.00000000E+00  0.00000000E+00  0.00000000E+00
  0.00000000E+00  0.00000000E+00  0.00000000E+00
  0.00000000E+00  0.00000000E+00  0.00000000E+00
  0.00000000E+00  0.00000000E+00  0.00000000E+00
  0.00000000E+00  0.00000000E+00  0.00000000E+00
  0.00000000E+00  0.00000000E+00  0.00000000E+00
  0.00000000E+00  0.00000000E+00  0.00000000E+00
