CONTCAR\(8)                             
   1.00000000000000     
    16.2672996521000002    0.0000000000000000    0.0000000000000000
     2.6171829271000000   16.2219330010999983    0.0000000000000000
     0.0000000000000000    0.0000000000000000   16.8505992888999998
   Ag   H    O 
    18    18    36
Direct
  0.1882339791332797  0.1289772441938837  0.5341697110279711
  0.0242057529126569  0.2944908079338902  0.5352856911170676
  0.5215639511332810  0.1289772441938837  0.5341697110279711
  0.3575457579126606  0.2944908079338902  0.5352856911170676
  0.8548939821332766  0.1289772441938837  0.5341697110279711
  0.6908757299126549  0.2944908079338902  0.5352856911170676
  0.1882339771332795  0.4623172481938838  0.5341697110279711
  0.0242057489126566  0.6278208469338864  0.5352856911170676
  0.5215639491332809  0.4623172481938838  0.5341697110279711
  0.3575457459126596  0.6278208469338864  0.5352856911170676
  0.8548939801332764  0.4623172481938838  0.5341697110279711
  0.6908757479126564  0.6278208469338864  0.5352856911170676
  0.1882340001332778  0.7956472571938775  0.5341697110279711
  0.0242057559126536  0.9611607919338852  0.5352856911170676
  0.5215639721332792  0.7956472571938775  0.5341697110279711
  0.3575457829126591  0.9611607919338852  0.5352856911170676
  0.8548940021332783  0.7956472571938775  0.5341697110279711
  0.6908757549126605  0.9611607919338852  0.5352856911170676
  0.1786000136161547  0.2822469324956884  0.5513182124580283
  0.2265738521351537  0.9988287545271390  0.4419871183748398
  0.5119400396161566  0.2822469324956884  0.5513182124580283
  0.5599038391351527  0.9988287545271390  0.4419871183748398
  0.8452700116161580  0.2822469324956884  0.5513182124580283
  0.8932438941351535  0.9988287545271390  0.4419871183748398
  0.1786000106161580  0.6155869364956885  0.5513182124580283
  0.2265738611351580  0.3321687775271371  0.4419871183748398
  0.5119400376161565  0.6155869364956885  0.5513182124580283
  0.5599038331351522  0.3321687775271371  0.4419871183748398
  0.8452700096161578  0.6155869364956885  0.5513182124580283
  0.8932438891351566  0.3321687775271371  0.4419871183748398
  0.1785999946161567  0.9489170044956907  0.5513182124580283
  0.2265738541351539  0.6654987875271416  0.4419871183748398
  0.5119400506161611  0.9489170044956907  0.5513182124580283
  0.5599037971351564  0.6654987875271416  0.4419871183748398
  0.8452699646161577  0.9489170044956907  0.5513182124580283
  0.8932438531351536  0.6654987875271416  0.4419871183748398
  0.1416819148781059  0.2457703253489782  0.5751591024165634
  0.0520870535646978  0.0993118428582918  0.5179513088376169
  0.2352573900392372  0.0075859167703172  0.4982342369216042
  0.3245700317207039  0.1579082018718125  0.5416846328463052
  0.4750118868781072  0.2457703253489782  0.5751591024165634
  0.3854170625646987  0.0993118428582918  0.5179513088376169
  0.5685973730392320  0.0075859167703172  0.4982342369216042
  0.6579000627207066  0.1579082018718125  0.5416846328463052
  0.8083519428781045  0.2457703253489782  0.5751591024165634
  0.7187571185647030  0.0993118428582918  0.5179513088376169
  0.9019273450392333  0.0075859167703172  0.4982342369216042
  0.9912401187207038  0.1579082018718125  0.5416846328463052
  0.1416819168781061  0.5791102993489758  0.5751591024165634
  0.0520870575646981  0.4326518528582923  0.5179513088376169
  0.2352573970392342  0.3409159367703154  0.4982342369216042
  0.3245700277207035  0.4912482198718067  0.5416846328463052
  0.4750118888781074  0.5791102993489758  0.5751591024165634
  0.3854170585646983  0.4326518528582923  0.5179513088376169
  0.5685973940392373  0.3409159367703154  0.4982342369216042
  0.6579000587207062  0.4912482198718067  0.5416846328463052
  0.8083519448781047  0.5791102993489758  0.5751591024165634
  0.7187571145647027  0.4326518528582923  0.5179513088376169
  0.9019273660392315  0.3409159367703154  0.4982342369216042
  0.9912401137206999  0.4912482198718067  0.5416846328463052
  0.1416819298781036  0.9124403673489780  0.5751591024165634
  0.0520870505647011  0.7659818628582897  0.5179513088376169
  0.2352573990392344  0.6742559107703201  0.4982342369216042
  0.3245700257207034  0.8245781998718087  0.5416846328463052
  0.4750119028781015  0.9124403673489780  0.5751591024165634
  0.3854170815647038  0.7659818628582897  0.5179513088376169
  0.5685973960392374  0.6742559107703201  0.4982342369216042
  0.6579000267207036  0.8245781998718087  0.5416846328463052
  0.8083518998781045  0.9124403673489780  0.5751591024165634
  0.7187570785646997  0.7659818628582897  0.5179513088376169
  0.9019273100392340  0.6742559107703201  0.4982342369216042
  0.9912400827207009  0.8245781998718087  0.5416846328463052
 
  0.00000000E+00  0.00000000E+00  0.00000000E+00
  0.00000000E+00  0.00000000E+00  0.00000000E+00
  0.00000000E+00  0.00000000E+00  0.00000000E+00
  0.00000000E+00  0.00000000E+00  0.00000000E+00
  0.00000000E+00  0.00000000E+00  0.00000000E+00
  0.00000000E+00  0.00000000E+00  0.00000000E+00
  0.00000000E+00  0.00000000E+00  0.00000000E+00
  0.00000000E+00  0.00000000E+00  0.00000000E+00
  0.00000000E+00  0.00000000E+00  0.00000000E+00
  0.00000000E+00  0.00000000E+00  0.00000000E+00
  0.00000000E+00  0.00000000E+00  0.00000000E+00
  0.00000000E+00  0.00000000E+00  0.00000000E+00
  0.00000000E+00  0.00000000E+00  0.00000000E+00
  0.00000000E+00  0.00000000E+00  0.00000000E+00
  0.00000000E+00  0.00000000E+00  0.00000000E+00
  0.00000000E+00  0.00000000E+00  0.00000000E+00
  0.00000000E+00  0.00000000E+00  0.00000000E+00
  0.00000000E+00  0.00000000E+00  0.00000000E+00
  0.00000000E+00  0.00000000E+00  0.00000000E+00
  0.00000000E+00  0.00000000E+00  0.00000000E+00
  0.00000000E+00  0.00000000E+00  0.00000000E+00
  0.00000000E+00  0.00000000E+00  0.00000000E+00
  0.00000000E+00  0.00000000E+00  0.00000000E+00
  0.00000000E+00  0.00000000E+00  0.00000000E+00
  0.00000000E+00  0.00000000E+00  0.00000000E+00
  0.00000000E+00  0.00000000E+00  0.00000000E+00
  0.00000000E+00  0.00000000E+00  0.00000000E+00
  0.00000000E+00  0.00000000E+00  0.00000000E+00
  0.00000000E+00  0.00000000E+00  0.00000000E+00
  0.00000000E+00  0.00000000E+00  0.00000000E+00
  0.00000000E+00  0.00000000E+00  0.00000000E+00
  0.00000000E+00  0.00000000E+00  0.00000000E+00
  0.00000000E+00  0.00000000E+00  0.00000000E+00
  0.00000000E+00  0.00000000E+00  0.00000000E+00
  0.00000000E+00  0.00000000E+00  0.00000000E+00
  0.00000000E+00  0.00000000E+00  0.00000000E+00
  0.00000000E+00  0.00000000E+00  0.00000000E+00
  0.00000000E+00  0.00000000E+00  0.00000000E+00
  0.00000000E+00  0.00000000E+00  0.00000000E+00
  0.00000000E+00  0.00000000E+00  0.00000000E+00
  0.00000000E+00  0.00000000E+00  0.00000000E+00
  0.00000000E+00  0.00000000E+00  0.00000000E+00
  0.00000000E+00  0.00000000E+00  0.00000000E+00
  0.00000000E+00  0.00000000E+00  0.00000000E+00
  0.00000000E+00  0.00000000E+00  0.00000000E+00
  0.00000000E+00  0.00000000E+00  0.00000000E+00
  0.00000000E+00  0.00000000E+00  0.00000000E+00
  0.00000000E+00  0.00000000E+00  0.00000000E+00
  0.00000000E+00  0.00000000E+00  0.00000000E+00
  0.00000000E+00  0.00000000E+00  0.00000000E+00
  0.00000000E+00  0.00000000E+00  0.00000000E+00
  0.00000000E+00  0.00000000E+00  0.00000000E+00
  0.00000000E+00  0.00000000E+00  0.00000000E+00
  0.00000000E+00  0.00000000E+00  0.00000000E+00
  0.00000000E+00  0.00000000E+00  0.00000000E+00
  0.00000000E+00  0.00000000E+00  0.00000000E+00
  0.00000000E+00  0.00000000E+00  0.00000000E+00
  0.00000000E+00  0.00000000E+00  0.00000000E+00
  0.00000000E+00  0.00000000E+00  0.00000000E+00
  0.00000000E+00  0.00000000E+00  0.00000000E+00
  0.00000000E+00  0.00000000E+00  0.00000000E+00
  0.00000000E+00  0.00000000E+00  0.00000000E+00
  0.00000000E+00  0.00000000E+00  0.00000000E+00
  0.00000000E+00  0.00000000E+00  0.00000000E+00
  0.00000000E+00  0.00000000E+00  0.00000000E+00
  0.00000000E+00  0.00000000E+00  0.00000000E+00
  0.00000000E+00  0.00000000E+00  0.00000000E+00
  0.00000000E+00  0.00000000E+00  0.00000000E+00
  0.00000000E+00  0.00000000E+00  0.00000000E+00
  0.00000000E+00  0.00000000E+00  0.00000000E+00
  0.00000000E+00  0.00000000E+00  0.00000000E+00
  0.00000000E+00  0.00000000E+00  0.00000000E+00
