 Na2 Zr1 N2                             
   1.00000000000000     
     3.3590904500142402    0.0000000000000000    0.0000000000000000
    -1.6795452250071201    2.9090526617518986    0.0000000000000000
     0.0000000000000000    0.0000000000000000   20.2116570227319983
   Na   Zr   N 
     2     1     2
Direct
  0.6666664525164947  0.3333336062637429  0.3735812621882573
  0.3333335458922875  0.6666663881189336  0.6264187163502826
  0.0000000012657111  0.9999999995899103  0.5000000019599184
  0.6666666530314203  0.3333333847374220  0.5576125434841759
  0.3333333472940794  0.6666666212899912  0.4423874760173659
 
  0.00000000E+00  0.00000000E+00  0.00000000E+00
  0.00000000E+00  0.00000000E+00  0.00000000E+00
  0.00000000E+00  0.00000000E+00  0.00000000E+00
  0.00000000E+00  0.00000000E+00  0.00000000E+00
  0.00000000E+00  0.00000000E+00  0.00000000E+00
