CONTCAR\(4)                             
   1.00000000000000     
    10.8957996367999996    0.0000000000000000    0.0000000000000000
     0.0000000000000000   12.8001003265000008    0.0000000000000000
     0.0000000000000000    0.0000000000000000   21.8099994658999989
   Cu   Si   P    O    H 
    12    24    36     2     1
Direct
  0.0059745255938286  0.1078774618881345  0.4625770503237793
  0.0003484106338938  0.2898594061159930  0.3613042822260379
  0.3379985652259298  0.1081032870347269  0.4622699251539683
  0.3299029154632587  0.2874351193273989  0.3629158881495242
  0.6695964589524012  0.1079929101285518  0.4626640202428369
  0.6586175652502791  0.2892936465989717  0.3611375740450439
  0.9976471564694961  0.6081514443744903  0.4642848666893991
 -0.0013895409029074  0.7879979029890549  0.3616947266992790
  0.3333548052718404  0.6077388614805793  0.4608540684218756
  0.3303495144014179  0.7817778900042450  0.3470473967306733
  0.6747726635402310  0.6092043286714042  0.4646925902809868
  0.6635538613527501  0.7886775050528997  0.3623515482269607
  0.1608298460461818  0.0432252215282810  0.3859129561058256
  0.1679994570921657  0.1955306136756477  0.6087987068487766
  0.1680520478024521  0.3567025357322801  0.4815265131178565
 -0.0000374625344991  0.4445649232726291  0.6150677029725993
  0.4924281505440966  0.0429081777494889  0.3859360306161095
  0.5006192767661810  0.1959471616164107  0.6084631259138511
  0.4994616665499632  0.3579171918653167  0.4809919038713811
  0.3335603992224237  0.4433754166668822  0.6163713066232052
  0.8267263860262020  0.0463899653255555  0.3868507136608995
  0.8343314972534793  0.1944486851629327  0.6091131709211762
  0.8336911079949534  0.3530541213192421  0.4817455600120666
  0.6669904521550652  0.4445024873550780  0.6150905118194570
  0.1804932682727715  0.5544899598314658  0.3831856245007181
  0.1682553494819702  0.6947745916212912  0.6092108586336913
  0.1675836320309387  0.8521300488539871  0.4802468675157276
  0.0010104393141185  0.9442624784613102  0.6141692607443175
  0.4737805481494989  0.5546000194543163  0.3804957498347323
  0.4995465163153914  0.6943334122422247  0.6087739674253458
  0.4976820164154072  0.8512608199334130  0.4801039340418457
  0.3333402520592175  0.9444449312553700  0.6143561050257198
  0.8282937072674348  0.5451377450383970  0.3884678888223361
  0.8337609320180208  0.6963660826766159  0.6112062982907984
  0.8329250007701779  0.8547206176895582  0.4818744861857498
  0.6654197239843778  0.9442616582492909  0.6139285622223410
 -0.0060059480961442  0.1209092215602468  0.3466543570161427
  0.1713040693645413  0.1894636896197399  0.5060942249783340
  0.1657231240440315  0.3809507575441776  0.3802765878094842
  0.0009108056628953  0.2761323168433097  0.6550124470667364
 -0.0002109438819938  0.4487989652110886  0.5119596034856930
  0.1670015564313561  0.0312176538736269  0.6554733647537869
  0.3264580169906797  0.1197544484241031  0.3462601490526339
  0.5033766344031692  0.1904350498948011  0.5056736628108436
  0.4939472336410359  0.3813723443443005  0.3795112786213579
  0.3343126627433016  0.2752929373740705  0.6560277053856025
  0.3335254727533471  0.4501748418869393  0.5139334157236776
  0.4999357156938226  0.0316175430837092  0.6551665390442550
  0.6586744564313890  0.1202670423026076  0.3464263042342482
  0.8373066916313907  0.1861634761833298  0.5065810974458945
  0.8293685267959167  0.3730341760893627  0.3802696004273661
  0.6675767247509716  0.2760616574772319  0.6549854437924060
  0.6680090936520480  0.4492140369771902  0.5119402617049809
  0.8332614115865248  0.0296891214518318  0.6550412924337778
 -0.0019828397160730  0.6192816657781970  0.3502845427389851
  0.1679956408260707  0.6857099308229657  0.5062872105379075
  0.1690022943920477  0.8713380475688340  0.3788664857345523
  0.0024616966554300  0.7774783683855235  0.6557940037515603
  0.0015665100157013  0.9479586130230877  0.5108620236913493
  0.1665459431852916  0.5308137039456996  0.6567029397915428
  0.3241866639288181  0.6166305760195274  0.3164670283408321
  0.5014037251416362  0.6842854853134297  0.5057557484329668
  0.4919880580711810  0.8708039000213148  0.3786454716081388
  0.3340876370914599  0.7768265842254337  0.6552047006479392
  0.3330978567389352  0.9480803679681252  0.5110531150870455
  0.5004817065164524  0.5307539071662538  0.6567794419698061
  0.6579321855990536  0.6200697354450015  0.3511327283796171
  0.8359033700194030  0.6904286549774591  0.5097491024285074
  0.8313398506911343  0.8745574690388382  0.3803135412058056
  0.6647767230784477  0.7774903821769711  0.6555036704846169
  0.6638723206103895  0.9474622751806443  0.5106373213950971
  0.8334337754160548  0.5307198140375200  0.6568167554326952
  0.2985329150780405  0.6730748249097994  0.2015605850337847
  0.3151354340718056  0.5794720719893163  0.2436110560796863
  0.3629426447400305  0.6560960726209841  0.1717037625234350
 
  0.00000000E+00  0.00000000E+00  0.00000000E+00
  0.00000000E+00  0.00000000E+00  0.00000000E+00
  0.00000000E+00  0.00000000E+00  0.00000000E+00
  0.00000000E+00  0.00000000E+00  0.00000000E+00
  0.00000000E+00  0.00000000E+00  0.00000000E+00
  0.00000000E+00  0.00000000E+00  0.00000000E+00
  0.00000000E+00  0.00000000E+00  0.00000000E+00
  0.00000000E+00  0.00000000E+00  0.00000000E+00
  0.00000000E+00  0.00000000E+00  0.00000000E+00
  0.00000000E+00  0.00000000E+00  0.00000000E+00
  0.00000000E+00  0.00000000E+00  0.00000000E+00
  0.00000000E+00  0.00000000E+00  0.00000000E+00
  0.00000000E+00  0.00000000E+00  0.00000000E+00
  0.00000000E+00  0.00000000E+00  0.00000000E+00
  0.00000000E+00  0.00000000E+00  0.00000000E+00
  0.00000000E+00  0.00000000E+00  0.00000000E+00
  0.00000000E+00  0.00000000E+00  0.00000000E+00
  0.00000000E+00  0.00000000E+00  0.00000000E+00
  0.00000000E+00  0.00000000E+00  0.00000000E+00
  0.00000000E+00  0.00000000E+00  0.00000000E+00
  0.00000000E+00  0.00000000E+00  0.00000000E+00
  0.00000000E+00  0.00000000E+00  0.00000000E+00
  0.00000000E+00  0.00000000E+00  0.00000000E+00
  0.00000000E+00  0.00000000E+00  0.00000000E+00
  0.00000000E+00  0.00000000E+00  0.00000000E+00
  0.00000000E+00  0.00000000E+00  0.00000000E+00
  0.00000000E+00  0.00000000E+00  0.00000000E+00
  0.00000000E+00  0.00000000E+00  0.00000000E+00
  0.00000000E+00  0.00000000E+00  0.00000000E+00
  0.00000000E+00  0.00000000E+00  0.00000000E+00
  0.00000000E+00  0.00000000E+00  0.00000000E+00
  0.00000000E+00  0.00000000E+00  0.00000000E+00
  0.00000000E+00  0.00000000E+00  0.00000000E+00
  0.00000000E+00  0.00000000E+00  0.00000000E+00
  0.00000000E+00  0.00000000E+00  0.00000000E+00
  0.00000000E+00  0.00000000E+00  0.00000000E+00
  0.00000000E+00  0.00000000E+00  0.00000000E+00
  0.00000000E+00  0.00000000E+00  0.00000000E+00
  0.00000000E+00  0.00000000E+00  0.00000000E+00
  0.00000000E+00  0.00000000E+00  0.00000000E+00
  0.00000000E+00  0.00000000E+00  0.00000000E+00
  0.00000000E+00  0.00000000E+00  0.00000000E+00
  0.00000000E+00  0.00000000E+00  0.00000000E+00
  0.00000000E+00  0.00000000E+00  0.00000000E+00
  0.00000000E+00  0.00000000E+00  0.00000000E+00
  0.00000000E+00  0.00000000E+00  0.00000000E+00
  0.00000000E+00  0.00000000E+00  0.00000000E+00
  0.00000000E+00  0.00000000E+00  0.00000000E+00
  0.00000000E+00  0.00000000E+00  0.00000000E+00
  0.00000000E+00  0.00000000E+00  0.00000000E+00
  0.00000000E+00  0.00000000E+00  0.00000000E+00
  0.00000000E+00  0.00000000E+00  0.00000000E+00
  0.00000000E+00  0.00000000E+00  0.00000000E+00
  0.00000000E+00  0.00000000E+00  0.00000000E+00
  0.00000000E+00  0.00000000E+00  0.00000000E+00
  0.00000000E+00  0.00000000E+00  0.00000000E+00
  0.00000000E+00  0.00000000E+00  0.00000000E+00
  0.00000000E+00  0.00000000E+00  0.00000000E+00
  0.00000000E+00  0.00000000E+00  0.00000000E+00
  0.00000000E+00  0.00000000E+00  0.00000000E+00
  0.00000000E+00  0.00000000E+00  0.00000000E+00
  0.00000000E+00  0.00000000E+00  0.00000000E+00
  0.00000000E+00  0.00000000E+00  0.00000000E+00
  0.00000000E+00  0.00000000E+00  0.00000000E+00
  0.00000000E+00  0.00000000E+00  0.00000000E+00
  0.00000000E+00  0.00000000E+00  0.00000000E+00
  0.00000000E+00  0.00000000E+00  0.00000000E+00
  0.00000000E+00  0.00000000E+00  0.00000000E+00
  0.00000000E+00  0.00000000E+00  0.00000000E+00
  0.00000000E+00  0.00000000E+00  0.00000000E+00
  0.00000000E+00  0.00000000E+00  0.00000000E+00
  0.00000000E+00  0.00000000E+00  0.00000000E+00
  0.00000000E+00  0.00000000E+00  0.00000000E+00
  0.00000000E+00  0.00000000E+00  0.00000000E+00
  0.00000000E+00  0.00000000E+00  0.00000000E+00
