CONTCAR\(2)                             
   1.00000000000000     
    21.4713001251000009    0.0000000000000000    0.0000000000000000
    10.7356067371999995   19.1142855119999986    0.0000000000000000
     0.0000000000000000    0.0000000000000000   19.1464004516999999
   Ta   Te   O 
    36    72     1
Direct
  0.4041785179480874  0.3558158319126559  0.5003808606715298
  0.2589261336916717  0.1461921234090600  0.4996638828498127
  0.0948375245531842  0.1462377423250688  0.4996806155162107
  0.2410386329453972  0.3568330780900573  0.5008664901404069
  0.4293160456657462  0.1442646452174891  0.4980910535687507
  0.0719033084665554  0.3564009940190385  0.5026188293162348
  0.0979960907360508  0.0010932213685513  0.5020984504742728
  0.4007989824812430  0.0011336337690552  0.5020830799623113
  0.2488933932821895  0.0020162559490935  0.5014935895311938
  0.9022562836080382  0.3568085643573093  0.5007084634243930
  0.7593784046904798  0.1428953169938677  0.4996551949489753
  0.5977127499275504  0.1429146461586939  0.4997887695792238
  0.7401597411929922  0.3557736885717999  0.5002222986555728
  0.9264340593707583  0.1443315666658904  0.4980082859556748
  0.5724093011656859  0.3552291630263631  0.5011747766284605
  0.5982488886344457  0.9998272216761593  0.5022158874118424
  0.9018082231226270  0.9998721459648419  0.5021045787038362
  0.7500671946023058 -0.0001407736077166  0.5014214482841520
  0.3956158671868673  0.8630193297329265  0.5036864043670676
  0.2631694341305641  0.6384706365668087  0.4982216134728960
  0.0987609482854450  0.6437828868462820  0.5015380888186066
  0.2412814284967292  0.8630096672559933  0.5036474288675497
  0.4302619737386339  0.6394734028683964  0.4793427020012460
  0.0737272894994448  0.8584333350309353  0.5095838782183787
  0.0987580305938780  0.5003653960094756  0.5012472641654333
  0.4016215721247208  0.4994934548241831  0.4961380828359945
  0.2507944831714341  0.5000640242845450  0.4997884883782512
  0.9047172465735465  0.8557854651736607  0.5033100696169310
  0.7573418708867634  0.6437353043852470  0.5015085176351827
  0.5983509390500413  0.6384591522812061  0.4982776614881639
  0.7393214363258308  0.8558199991818844  0.5033588239779939
  0.9276496429762880  0.6445257327546968  0.5003736751224395
  0.5676769968590469  0.8585022255485074  0.5096485026323404
  0.5989044934118690  0.4995575559746488  0.4961282134601833
  0.9007905491120290  0.5004904508529173  0.5012281159911139
  0.7492101515026860  0.5001352439814432  0.4997788414519242
  0.4722563006158654  0.2241413655810273  0.5801898331890643
  0.1949683560243402  0.2776781945381346  0.4198249998186003
  0.0276086503300836  0.2777618840401337  0.4197177594264861
  0.3051475074635033  0.2251143557409563  0.5799765162893723
  0.3628295765447669  0.2749133529987028  0.4186356770343185
  0.1367287311926416  0.2266123317628650  0.5821758661268730
  0.3571292438993027  0.4441750787870404  0.3899890145545707
  0.3019884826523232  0.0576048425115711  0.6094419548068486
  0.1402824520605684  0.0575983842352691  0.6094699863479541
  0.1943368717903770  0.1112766846769651  0.3949178886654420
  0.3055875741651964  0.3909648689980090  0.6061543090609650
  0.3615248440594269  0.1083996535242801  0.3967014237777320
  0.4691158666074725  0.3939434328588612  0.6031098762222674
  0.1397847097539326  0.3917393073475784  0.6048489727370155
  0.0301369399087308  0.1083664779759899  0.3966751257589430
  0.0221826447970351  0.4556765628165838  0.4055610621654849
  0.4762917964182686  0.0482797928763460  0.5979668489516065
  0.1949309829686263  0.4475549709099402  0.3920991965061808
  0.9697799934405417  0.2251670748309265  0.5799840963087833
  0.6959437343071163  0.2747174839748796  0.4198449667397213
  0.5294229460290056  0.2746446908360882  0.4198471451031142
  0.8036781937007161  0.2240828962400513  0.5801423026341993
  0.8623847058777382  0.2749956667008533  0.4183948478735873
  0.6378820159240755  0.2243306400936568  0.5819043664284621
  0.8575842056819252  0.4476356120991415  0.3919981947016741
  0.8037339407748192  0.0531703742615596  0.6095623380673059
  0.6431124815257383  0.0531004265797354  0.6096234091724656
  0.6963629851336547  0.1072209592932337  0.3939079628953476
  0.8035854367792972  0.3908778475278953  0.6060050652709553
  0.8617718561239769  0.1058506711836353  0.3959530751087048
  0.9685110135893352  0.3917760538900881  0.6047260099150561
  0.6371714499035956  0.3938716315635538  0.6029639088425318
  0.5324237083391141  0.1058203950319924  0.3960837902937647
  0.5246532258225540  0.4506585336229347  0.4006409696132806
  0.9753785634279457  0.0482935016073763  0.5978488850323171
  0.6987425917773122  0.4442705514936127  0.3899302767371818
  0.4598366380497569  0.7267726444954200  0.5665618734040007
  0.2006004874841830  0.7744063339214941  0.4325789075580571
  0.0309986269074010  0.7768399953315136  0.4253033213756676
  0.3134822942171192  0.7267744336406304  0.5665562115860893
  0.3598457339985122  0.7802817230844561  0.4127714900003046
  0.1413480726004289  0.7241029945719983  0.5817842865006806
  0.3557947173455762  0.9496793224530221  0.3923745112773989
  0.3068872782046159  0.5511515430930819  0.6080978177402548
  0.1441500156771440  0.5524502422219972  0.6096293226989211
  0.1950517514875589  0.6082260122414653  0.3936006624553065
  0.3006114791063034  0.8986969938730134  0.6118783775394205
  0.3581545216074137  0.6038803122653207  0.3856960041579247
  0.4636058424836601  0.8962758983663983  0.6097654573716919
  0.1400700442354955  0.8961811877993220  0.6097254585983356
  0.0306827177615025  0.6097824140948281  0.3982223753989437
  0.0252633187092204  0.9513125513966304  0.4067756400326158
  0.4743461341938103  0.5513645701252160  0.5875138194816060
  0.1944012160381485  0.9496630993670939  0.3923374288374845
  0.9721522841025155  0.7237886380577501  0.5818820856728472
  0.6920615080223069  0.7769104218098204  0.4253342767963267
  0.5249174673515007  0.7744686818141728  0.4325976898849340
  0.8039550226148238  0.7237503593109599  0.5818611026816816
  0.8621471360707318  0.7756187481462650  0.4219495780231283
  0.6345159236060141  0.7241764216606075  0.5817926386941795
  0.8580776974244941  0.9457630566595758  0.3939411329889381
  0.8033826713587991  0.5524514376091932  0.6096962760805131
  0.6420320904700836  0.5510869802718201  0.6081404976383498
  0.6966860234730970  0.6081918779901960  0.3935630598865482
  0.8046354120753578  0.8906454513054439  0.6078354530671582
  0.8593766080927128  0.6099199604954452  0.3981145825814935
  0.9687562332480112  0.8927299343125452  0.6084446899501269
  0.6384559709174420  0.8926578897525905  0.6085770363655052
  0.5379962968001281  0.6038945568581351  0.3857212159815253
  0.5232914547187526  0.9513807918116166  0.4068879770241685
  0.9770847385810556  0.5456947652731837  0.5976571785920267
  0.6960373504973357  0.9457679453886083  0.3940055896498478
  0.3878347610452695  0.7244138626966514  0.6393442931232317
 
  0.00000000E+00  0.00000000E+00  0.00000000E+00
  0.00000000E+00  0.00000000E+00  0.00000000E+00
  0.00000000E+00  0.00000000E+00  0.00000000E+00
  0.00000000E+00  0.00000000E+00  0.00000000E+00
  0.00000000E+00  0.00000000E+00  0.00000000E+00
  0.00000000E+00  0.00000000E+00  0.00000000E+00
  0.00000000E+00  0.00000000E+00  0.00000000E+00
  0.00000000E+00  0.00000000E+00  0.00000000E+00
  0.00000000E+00  0.00000000E+00  0.00000000E+00
  0.00000000E+00  0.00000000E+00  0.00000000E+00
  0.00000000E+00  0.00000000E+00  0.00000000E+00
  0.00000000E+00  0.00000000E+00  0.00000000E+00
  0.00000000E+00  0.00000000E+00  0.00000000E+00
  0.00000000E+00  0.00000000E+00  0.00000000E+00
  0.00000000E+00  0.00000000E+00  0.00000000E+00
  0.00000000E+00  0.00000000E+00  0.00000000E+00
  0.00000000E+00  0.00000000E+00  0.00000000E+00
  0.00000000E+00  0.00000000E+00  0.00000000E+00
  0.00000000E+00  0.00000000E+00  0.00000000E+00
  0.00000000E+00  0.00000000E+00  0.00000000E+00
  0.00000000E+00  0.00000000E+00  0.00000000E+00
  0.00000000E+00  0.00000000E+00  0.00000000E+00
  0.00000000E+00  0.00000000E+00  0.00000000E+00
  0.00000000E+00  0.00000000E+00  0.00000000E+00
  0.00000000E+00  0.00000000E+00  0.00000000E+00
  0.00000000E+00  0.00000000E+00  0.00000000E+00
  0.00000000E+00  0.00000000E+00  0.00000000E+00
  0.00000000E+00  0.00000000E+00  0.00000000E+00
  0.00000000E+00  0.00000000E+00  0.00000000E+00
  0.00000000E+00  0.00000000E+00  0.00000000E+00
  0.00000000E+00  0.00000000E+00  0.00000000E+00
  0.00000000E+00  0.00000000E+00  0.00000000E+00
  0.00000000E+00  0.00000000E+00  0.00000000E+00
  0.00000000E+00  0.00000000E+00  0.00000000E+00
  0.00000000E+00  0.00000000E+00  0.00000000E+00
  0.00000000E+00  0.00000000E+00  0.00000000E+00
  0.00000000E+00  0.00000000E+00  0.00000000E+00
  0.00000000E+00  0.00000000E+00  0.00000000E+00
  0.00000000E+00  0.00000000E+00  0.00000000E+00
  0.00000000E+00  0.00000000E+00  0.00000000E+00
  0.00000000E+00  0.00000000E+00  0.00000000E+00
  0.00000000E+00  0.00000000E+00  0.00000000E+00
  0.00000000E+00  0.00000000E+00  0.00000000E+00
  0.00000000E+00  0.00000000E+00  0.00000000E+00
  0.00000000E+00  0.00000000E+00  0.00000000E+00
  0.00000000E+00  0.00000000E+00  0.00000000E+00
  0.00000000E+00  0.00000000E+00  0.00000000E+00
  0.00000000E+00  0.00000000E+00  0.00000000E+00
  0.00000000E+00  0.00000000E+00  0.00000000E+00
  0.00000000E+00  0.00000000E+00  0.00000000E+00
  0.00000000E+00  0.00000000E+00  0.00000000E+00
  0.00000000E+00  0.00000000E+00  0.00000000E+00
  0.00000000E+00  0.00000000E+00  0.00000000E+00
  0.00000000E+00  0.00000000E+00  0.00000000E+00
  0.00000000E+00  0.00000000E+00  0.00000000E+00
  0.00000000E+00  0.00000000E+00  0.00000000E+00
  0.00000000E+00  0.00000000E+00  0.00000000E+00
  0.00000000E+00  0.00000000E+00  0.00000000E+00
  0.00000000E+00  0.00000000E+00  0.00000000E+00
  0.00000000E+00  0.00000000E+00  0.00000000E+00
  0.00000000E+00  0.00000000E+00  0.00000000E+00
  0.00000000E+00  0.00000000E+00  0.00000000E+00
  0.00000000E+00  0.00000000E+00  0.00000000E+00
  0.00000000E+00  0.00000000E+00  0.00000000E+00
  0.00000000E+00  0.00000000E+00  0.00000000E+00
  0.00000000E+00  0.00000000E+00  0.00000000E+00
  0.00000000E+00  0.00000000E+00  0.00000000E+00
  0.00000000E+00  0.00000000E+00  0.00000000E+00
  0.00000000E+00  0.00000000E+00  0.00000000E+00
  0.00000000E+00  0.00000000E+00  0.00000000E+00
  0.00000000E+00  0.00000000E+00  0.00000000E+00
  0.00000000E+00  0.00000000E+00  0.00000000E+00
  0.00000000E+00  0.00000000E+00  0.00000000E+00
  0.00000000E+00  0.00000000E+00  0.00000000E+00
  0.00000000E+00  0.00000000E+00  0.00000000E+00
  0.00000000E+00  0.00000000E+00  0.00000000E+00
  0.00000000E+00  0.00000000E+00  0.00000000E+00
  0.00000000E+00  0.00000000E+00  0.00000000E+00
  0.00000000E+00  0.00000000E+00  0.00000000E+00
  0.00000000E+00  0.00000000E+00  0.00000000E+00
  0.00000000E+00  0.00000000E+00  0.00000000E+00
  0.00000000E+00  0.00000000E+00  0.00000000E+00
  0.00000000E+00  0.00000000E+00  0.00000000E+00
  0.00000000E+00  0.00000000E+00  0.00000000E+00
  0.00000000E+00  0.00000000E+00  0.00000000E+00
  0.00000000E+00  0.00000000E+00  0.00000000E+00
  0.00000000E+00  0.00000000E+00  0.00000000E+00
  0.00000000E+00  0.00000000E+00  0.00000000E+00
  0.00000000E+00  0.00000000E+00  0.00000000E+00
  0.00000000E+00  0.00000000E+00  0.00000000E+00
  0.00000000E+00  0.00000000E+00  0.00000000E+00
  0.00000000E+00  0.00000000E+00  0.00000000E+00
  0.00000000E+00  0.00000000E+00  0.00000000E+00
  0.00000000E+00  0.00000000E+00  0.00000000E+00
  0.00000000E+00  0.00000000E+00  0.00000000E+00
  0.00000000E+00  0.00000000E+00  0.00000000E+00
  0.00000000E+00  0.00000000E+00  0.00000000E+00
  0.00000000E+00  0.00000000E+00  0.00000000E+00
  0.00000000E+00  0.00000000E+00  0.00000000E+00
  0.00000000E+00  0.00000000E+00  0.00000000E+00
  0.00000000E+00  0.00000000E+00  0.00000000E+00
  0.00000000E+00  0.00000000E+00  0.00000000E+00
  0.00000000E+00  0.00000000E+00  0.00000000E+00
  0.00000000E+00  0.00000000E+00  0.00000000E+00
  0.00000000E+00  0.00000000E+00  0.00000000E+00
  0.00000000E+00  0.00000000E+00  0.00000000E+00
  0.00000000E+00  0.00000000E+00  0.00000000E+00
  0.00000000E+00  0.00000000E+00  0.00000000E+00
  0.00000000E+00  0.00000000E+00  0.00000000E+00
