CONTCAR\(2)                             
   1.00000000000000     
    18.0454998015999983    0.0000000000000000    0.0000000000000000
    -9.0227856342999999   15.5459183949999993    0.0000000000000000
     0.0000000000000000    0.0000000000000000   17.8997001647999987
   Ti   Cl   O 
    18    54     1
Direct
  0.2848296184797761  0.2559217050672942  0.4951074702084810
  0.0740900021799078  0.1449621161775951  0.4979983365360212
  0.6277218066277044  0.2631470954289625  0.4987884891769241
  0.4083370189803475  0.1430469104653014  0.4970457425546613
  0.9610993288860428  0.2627675009671080  0.4967804335502066
  0.7434238942440956  0.1471860324000858  0.4955816294103244
  0.3030442331729830  0.5986506477249876  0.4932698626341292
  0.0675231165116301  0.4775544299793353  0.4969798189969339
  0.6321372516439041  0.5848443529185303  0.4955686793161576
  0.4074491349784353  0.4816504067403358  0.6273580512882333
  0.9676459861117976  0.5959923625454664  0.4949927980301041
  0.7375856889240353  0.4787274188026629  0.4994514885114612
  0.2946257988570053  0.9293986862011749  0.4964578269866422
  0.0752922501918221  0.8109349449549441  0.4942476490184617
  0.6271179550723147  0.9282193924321547  0.4970102728028110
  0.4141331847380485  0.8185970501978730  0.4965191519106895
  0.9598611832314816  0.9272511625238451  0.4957485742857060
  0.7483208372875154  0.8197027898939879  0.4970806987758181
  0.0693181355070323  0.0355939806743351  0.5769896909847105
  0.3009212961951349  0.0365307624386446  0.4139003145143647
  0.1808531641423059  0.1468002420861012  0.4162040301185144
  0.0706975857685137  0.2561536440712473  0.4221605411835725
  0.2960474158857167  0.1460466962668647  0.5705522415195432
  0.1814783190076952  0.2503492009486266  0.5811909040235932
  0.4033258075830517  0.0363189428605892  0.5785348986310055
  0.6335105569639765  0.0370638968428949  0.4156969084502578
  0.5182315820867913  0.1530619797922483  0.4169735342360994
  0.4012460108650657  0.2545656299853860  0.4253944173307076
  0.6336302857731582  0.1517469273791860  0.5721022077275961
  0.5179091043826602  0.2534003181145508  0.5789522711098698
  0.7382029782864734  0.0389327207603856  0.5760522876915601
  0.9646931966486179  0.0367831101280274  0.4166174768650635
  0.8515881134662990  0.1529669693417119  0.4151835402531248
  0.7354741983823345  0.2562706439177518  0.4206934192551728
  0.9640011046463215  0.1505767219136018  0.5723727690129792
  0.8518226524387700  0.2568481237015234  0.5760457232859224
  0.0678803307393849  0.3702201875449092  0.5777280534390314
  0.2982797260954158  0.3643783354495582  0.4273259138405550
  0.1843014387423452  0.4855550935700492  0.4224985828474530
  0.0687524479982642  0.5877264209670940  0.4149684217808627
  0.2878540996536429  0.4885513921800140  0.5911366089718513
  0.1838949930182352  0.5908449429303104  0.5694909590871617
  0.3978462832675618  0.3531949419417586  0.5918866276824986
  0.6313698516985653  0.3713778275865920  0.4185108126598038
  0.5222290046912192  0.4876766937897656  0.4307577345165186
  0.3993882497181787  0.5867688890339053  0.4269082894515677
  0.6387459743531210  0.4874099893414510  0.5838485814479881
  0.5354206935689731  0.6014304726683974  0.5925788651298660
  0.7373971563385169  0.3698877656687714  0.5787680467072533
  0.9655247732495198  0.3703261993148885  0.4139623191911781
  0.8506916178761585  0.4834348833411113  0.4216434380541898
  0.7404926376923413  0.5894749631072074  0.4186320222036386
  0.9663188590869325  0.4853855337947692  0.5764888375883217
  0.8544389633561735  0.5898460428243908  0.5735135808709160
  0.0720050600324598  0.7039600557458598  0.5765391457297397
  0.3025613292236571  0.7072058144949693  0.4175146478110108
  0.1855543621719278  0.8183879940590941  0.4155425238189707
  0.0701880112469766  0.9222105185103331  0.4198058282491530
  0.3013728189321725  0.8202117925574868  0.5717592690666962
  0.1847391647803320  0.9217698754136023  0.5752233863154146
  0.4025184955911243  0.7073364364263455  0.5789800404302170
  0.6352423347807985  0.7023057092454081  0.4250112957448096
  0.5194850107986753  0.8180108543975564  0.4171494463193923
  0.4054570788439804  0.9242972668897949  0.4202222660482917
  0.6370418189505003  0.8226347950570343  0.5744873318668695
  0.5203301772075761  0.9254570365702008  0.5781277382878116
  0.7421164576976480  0.7061609679187768  0.5731914649557837
  0.9669607021766780  0.7032065759208095  0.4144544494992459
  0.8523930429759332  0.8200252579952974  0.4142590836907303
  0.7372832060240313  0.9225878844616844  0.4195068099188717
  0.9668902814625397  0.8174705202084880  0.5709129000966797
  0.8542563982861395  0.9238938336054403  0.5793685482939495
  0.4065282405234854  0.4812208028215679  0.7176629231983895
 
  0.00000000E+00  0.00000000E+00  0.00000000E+00
  0.00000000E+00  0.00000000E+00  0.00000000E+00
  0.00000000E+00  0.00000000E+00  0.00000000E+00
  0.00000000E+00  0.00000000E+00  0.00000000E+00
  0.00000000E+00  0.00000000E+00  0.00000000E+00
  0.00000000E+00  0.00000000E+00  0.00000000E+00
  0.00000000E+00  0.00000000E+00  0.00000000E+00
  0.00000000E+00  0.00000000E+00  0.00000000E+00
  0.00000000E+00  0.00000000E+00  0.00000000E+00
  0.00000000E+00  0.00000000E+00  0.00000000E+00
  0.00000000E+00  0.00000000E+00  0.00000000E+00
  0.00000000E+00  0.00000000E+00  0.00000000E+00
  0.00000000E+00  0.00000000E+00  0.00000000E+00
  0.00000000E+00  0.00000000E+00  0.00000000E+00
  0.00000000E+00  0.00000000E+00  0.00000000E+00
  0.00000000E+00  0.00000000E+00  0.00000000E+00
  0.00000000E+00  0.00000000E+00  0.00000000E+00
  0.00000000E+00  0.00000000E+00  0.00000000E+00
  0.00000000E+00  0.00000000E+00  0.00000000E+00
  0.00000000E+00  0.00000000E+00  0.00000000E+00
  0.00000000E+00  0.00000000E+00  0.00000000E+00
  0.00000000E+00  0.00000000E+00  0.00000000E+00
  0.00000000E+00  0.00000000E+00  0.00000000E+00
  0.00000000E+00  0.00000000E+00  0.00000000E+00
  0.00000000E+00  0.00000000E+00  0.00000000E+00
  0.00000000E+00  0.00000000E+00  0.00000000E+00
  0.00000000E+00  0.00000000E+00  0.00000000E+00
  0.00000000E+00  0.00000000E+00  0.00000000E+00
  0.00000000E+00  0.00000000E+00  0.00000000E+00
  0.00000000E+00  0.00000000E+00  0.00000000E+00
  0.00000000E+00  0.00000000E+00  0.00000000E+00
  0.00000000E+00  0.00000000E+00  0.00000000E+00
  0.00000000E+00  0.00000000E+00  0.00000000E+00
  0.00000000E+00  0.00000000E+00  0.00000000E+00
  0.00000000E+00  0.00000000E+00  0.00000000E+00
  0.00000000E+00  0.00000000E+00  0.00000000E+00
  0.00000000E+00  0.00000000E+00  0.00000000E+00
  0.00000000E+00  0.00000000E+00  0.00000000E+00
  0.00000000E+00  0.00000000E+00  0.00000000E+00
  0.00000000E+00  0.00000000E+00  0.00000000E+00
  0.00000000E+00  0.00000000E+00  0.00000000E+00
  0.00000000E+00  0.00000000E+00  0.00000000E+00
  0.00000000E+00  0.00000000E+00  0.00000000E+00
  0.00000000E+00  0.00000000E+00  0.00000000E+00
  0.00000000E+00  0.00000000E+00  0.00000000E+00
  0.00000000E+00  0.00000000E+00  0.00000000E+00
  0.00000000E+00  0.00000000E+00  0.00000000E+00
  0.00000000E+00  0.00000000E+00  0.00000000E+00
  0.00000000E+00  0.00000000E+00  0.00000000E+00
  0.00000000E+00  0.00000000E+00  0.00000000E+00
  0.00000000E+00  0.00000000E+00  0.00000000E+00
  0.00000000E+00  0.00000000E+00  0.00000000E+00
  0.00000000E+00  0.00000000E+00  0.00000000E+00
  0.00000000E+00  0.00000000E+00  0.00000000E+00
  0.00000000E+00  0.00000000E+00  0.00000000E+00
  0.00000000E+00  0.00000000E+00  0.00000000E+00
  0.00000000E+00  0.00000000E+00  0.00000000E+00
  0.00000000E+00  0.00000000E+00  0.00000000E+00
  0.00000000E+00  0.00000000E+00  0.00000000E+00
  0.00000000E+00  0.00000000E+00  0.00000000E+00
  0.00000000E+00  0.00000000E+00  0.00000000E+00
  0.00000000E+00  0.00000000E+00  0.00000000E+00
  0.00000000E+00  0.00000000E+00  0.00000000E+00
  0.00000000E+00  0.00000000E+00  0.00000000E+00
  0.00000000E+00  0.00000000E+00  0.00000000E+00
  0.00000000E+00  0.00000000E+00  0.00000000E+00
  0.00000000E+00  0.00000000E+00  0.00000000E+00
  0.00000000E+00  0.00000000E+00  0.00000000E+00
  0.00000000E+00  0.00000000E+00  0.00000000E+00
  0.00000000E+00  0.00000000E+00  0.00000000E+00
  0.00000000E+00  0.00000000E+00  0.00000000E+00
  0.00000000E+00  0.00000000E+00  0.00000000E+00
  0.00000000E+00  0.00000000E+00  0.00000000E+00
