 Mo2 Cl6                                
   1.00000000000000     
     5.8559816627830994    0.0000000000000000    0.0000000000000000
    -2.5587230955772355    5.2430301954607321    0.0000000000000000
     0.0000000000000000    0.0000000000000000   18.3064954249200014
   Mo   Cl
     2     6
Direct
  0.1464780912426736  0.8540154323988491  0.4999551655387751
  0.8535211510888883  0.1459852814131982  0.5000448366198368
  0.1532653477068006  0.1539382307960569  0.5897802362769764
  0.8467360488838069  0.8460606188895435  0.4102197260135765
  0.1611451871705072  0.4993758373660233  0.4274344627155813
  0.4998673610281077  0.8386223441619753  0.5725254391591531
  0.8388549364748203  0.5006247609776590  0.5725653189617561
  0.5001318764043942  0.1613774939966947  0.4274748147143450
 
  0.00000000E+00  0.00000000E+00  0.00000000E+00
  0.00000000E+00  0.00000000E+00  0.00000000E+00
  0.00000000E+00  0.00000000E+00  0.00000000E+00
  0.00000000E+00  0.00000000E+00  0.00000000E+00
  0.00000000E+00  0.00000000E+00  0.00000000E+00
  0.00000000E+00  0.00000000E+00  0.00000000E+00
  0.00000000E+00  0.00000000E+00  0.00000000E+00
  0.00000000E+00  0.00000000E+00  0.00000000E+00
