CONTCAR                                 
   1.00000000000000     
    11.2482995986999992    0.0000000000000000    0.0000000000000000
     0.0000000000000000   13.7291002274000000    0.0000000000000000
     0.0000000000000000    0.0000000000000000   19.4125995636000006
   Zr   I    O    H 
    12    24     1     1
Direct
 -0.0000216674044500  0.2474174546435151  0.4991807629567811
  0.1680633107780866  0.0577504655251722  0.4940392763817213
  0.3332274040771653  0.2476715460808332  0.4990430361843479
  0.4984562643785557  0.0575640131790887  0.4941094972666459
  0.6668215410938522  0.2472537307266603  0.4991256868508877
  0.8334359793285639  0.0580368493848587  0.4939302441586449
 -0.0004460855849451  0.7473843587029935  0.4991665954403638
  0.1663928543518841  0.5584715138069697  0.4938420157833311
  0.3329329402893236  0.7483801119016029  0.4993839980070720
  0.4998196048875014  0.5583251559592428  0.4938535159153309
  0.6675128986117618  0.7473409289967126  0.4992210173053241
  0.8336087322943339  0.5579713687040510  0.4937534092744293
  0.0001602803808965  0.4422726498959584  0.5812885531638727
  0.0001533411884436  0.1125121602230583  0.3838223829856999
  0.1666390806284604  0.3632564331859712  0.4115009665157160
  0.1668236668682573  0.1929656648234729  0.6092279022598507
  0.3331156797569034  0.4426317222819843  0.5814656454592021
  0.3333230614567047  0.1128406161912763  0.3834923669083267
  0.5000713706242141  0.3632490467378099  0.4114978479448747
  0.4998260103228072  0.1929659368182210  0.6090884211034669
  0.6664964537715569  0.4422007414054459  0.5810811063402415
  0.6665107583937503  0.1121719946821691  0.3838998340775782
  0.8333842949577278  0.3634007229651813  0.4115677023396009
  0.8333242243138771  0.1929087087175285  0.6093302495092037
  0.0002901948801172  0.9422958889454369  0.5812970858709219
 -0.0001239758346484  0.6129176041404042  0.3834711724574369
  0.1664353136424801  0.8638465737693516  0.4114872433085396
  0.1683393473854987  0.6946714489068064  0.6081643766506392
  0.3330356709060452  0.9423086344767320  0.5816591251510449
  0.3331475163560356  0.6127997657769272  0.3836527974337421
  0.5003140418434662  0.8635038504095071  0.4118343101550533
  0.4981335755856698  0.6948959448135597  0.6078709261114708
  0.6664788622019725  0.9421530001212265  0.5813514071088716
  0.6668918386995821  0.6125050823309401  0.3837282117735983
  0.8333833295699983  0.8642463779195151  0.4113894271316824
  0.8334118484344851  0.6926390176811852  0.6093625865798628
  0.3341335907399462  0.7846804344187757  0.6984910114547987
  0.3347071718241344  0.7872623707498778  0.7487881446798267
 
  0.00000000E+00  0.00000000E+00  0.00000000E+00
  0.00000000E+00  0.00000000E+00  0.00000000E+00
  0.00000000E+00  0.00000000E+00  0.00000000E+00
  0.00000000E+00  0.00000000E+00  0.00000000E+00
  0.00000000E+00  0.00000000E+00  0.00000000E+00
  0.00000000E+00  0.00000000E+00  0.00000000E+00
  0.00000000E+00  0.00000000E+00  0.00000000E+00
  0.00000000E+00  0.00000000E+00  0.00000000E+00
  0.00000000E+00  0.00000000E+00  0.00000000E+00
  0.00000000E+00  0.00000000E+00  0.00000000E+00
  0.00000000E+00  0.00000000E+00  0.00000000E+00
  0.00000000E+00  0.00000000E+00  0.00000000E+00
  0.00000000E+00  0.00000000E+00  0.00000000E+00
  0.00000000E+00  0.00000000E+00  0.00000000E+00
  0.00000000E+00  0.00000000E+00  0.00000000E+00
  0.00000000E+00  0.00000000E+00  0.00000000E+00
  0.00000000E+00  0.00000000E+00  0.00000000E+00
  0.00000000E+00  0.00000000E+00  0.00000000E+00
  0.00000000E+00  0.00000000E+00  0.00000000E+00
  0.00000000E+00  0.00000000E+00  0.00000000E+00
  0.00000000E+00  0.00000000E+00  0.00000000E+00
  0.00000000E+00  0.00000000E+00  0.00000000E+00
  0.00000000E+00  0.00000000E+00  0.00000000E+00
  0.00000000E+00  0.00000000E+00  0.00000000E+00
  0.00000000E+00  0.00000000E+00  0.00000000E+00
  0.00000000E+00  0.00000000E+00  0.00000000E+00
  0.00000000E+00  0.00000000E+00  0.00000000E+00
  0.00000000E+00  0.00000000E+00  0.00000000E+00
  0.00000000E+00  0.00000000E+00  0.00000000E+00
  0.00000000E+00  0.00000000E+00  0.00000000E+00
  0.00000000E+00  0.00000000E+00  0.00000000E+00
  0.00000000E+00  0.00000000E+00  0.00000000E+00
  0.00000000E+00  0.00000000E+00  0.00000000E+00
  0.00000000E+00  0.00000000E+00  0.00000000E+00
  0.00000000E+00  0.00000000E+00  0.00000000E+00
  0.00000000E+00  0.00000000E+00  0.00000000E+00
  0.00000000E+00  0.00000000E+00  0.00000000E+00
  0.00000000E+00  0.00000000E+00  0.00000000E+00
