CONTCAR\(2)                             
   1.00000000000000     
    17.6217002869000012    0.0000000000000000    0.0000000000000000
    -8.8108499033999994   15.2599152229000001    0.0000000000000000
     0.0000000000000000    0.0000000000000000   22.3565006255999990
   Pr   Re   O 
     9    18    71
Direct
  0.0003097204994727  0.9999261576092452  0.4995314347595136
  0.3332794677611906  0.9992246650150466  0.5002077898992174
  0.6667097166521188  0.0001927046583146  0.4999182540450022
  0.0028645260445185  0.3346429372643811  0.5006788997230740
  0.3518364874395816  0.3409290543301971  0.5048708983617474
  0.6638880024416469  0.3370493602354254  0.5018892600617704
  0.0003684705010030  0.6668580427600109  0.4997873869670093
  0.3335786902327452  0.6677513304667080  0.4988257486646813
  0.6617406206986790  0.6582092355411826  0.5040198207924331
  0.1228718227333314  0.2280520960469240  0.4121664575903408
  0.2240616084768303  0.1141932931422892  0.5895789579070158
  0.4451068340853924  0.2192405101527628  0.4055998387866269
  0.5552688652271235  0.1113954742690490  0.5920825712891528
  0.7780837748782914  0.2235704216004287  0.4098726696087494
  0.8894259095738605  0.1111740700099535  0.5922925326007948
  0.1113246457491494  0.5564112766894678  0.4072420320597398
  0.2267938245413582  0.4464013759140723  0.5909029183814186
  0.4445827060058405  0.5572132995630992  0.4055758352458206
  0.5358678316622510  0.4406844901947098  0.5761693628753776
  0.7777711596067083  0.5550478377616832  0.4075327952650449
  0.8883459971682295  0.4444412889015277  0.5923651086092652
  0.1119331519295364  0.8893132439878924  0.4073021357662163
  0.2224646081148855  0.7773967108838704  0.5921838915499574
  0.4450682558151108  0.8894597207842005  0.4072885822933720
  0.5556131821760263  0.7777217686669294  0.5903600634890288
  0.7744553162991745  0.8826485327186070  0.4099640548528314
  0.8892434895417735  0.7775300594309078  0.5923727010424475
  0.0385157275226118  0.2487255336089308  0.4373594306039046
  0.2239591514107993  0.3073681412566113  0.4447468230620235
  0.1299803929268518  0.2327806881666602  0.3351352007861091
  0.2429801788756388  0.2154163427305621  0.5585731376379952
  0.0954751248386926  0.1214757954435272  0.4384538732662532
  0.2246190685626323  0.1168352108552675  0.6667164884889112
  0.1207417992409686  0.0290506639382206  0.5623255519462010
  0.3072855830451828  0.0933937635293222  0.5619943958198294
  0.3669173350857827  0.2436768635592266  0.4380751842940256
  0.5517183321707316  0.3018230299126486  0.4288129462608133
  0.4356390661406125  0.2133029467156077  0.3286973263107641
  0.5732216835949943  0.2136175053861898  0.5627809159767472
  0.4256446060030242  0.1172056082275369  0.4363021714770523
  0.5558630808133657  0.1117557788659572  0.6692817094283019
  0.4523730917163976  0.0268730960148713  0.5635932465689549
  0.6386751869281104  0.0919677961828213  0.5628116960492312
  0.6959488011511701  0.2430386498566543  0.4404241965278243
  0.8825798853647668  0.3054081209745165  0.4376772225749189
  0.7761383768872074  0.2249800818038722  0.3326937495522353
  0.9105895724829297  0.2145864915275487  0.5627983408832881
  0.7584157806032547  0.1195385432815871  0.4367150445828915
  0.8895976539389887  0.1114629343574749  0.6695130453841102
  0.7859661776956777  0.0285015097615769  0.5631281747822078
  0.9720259143037080  0.0905128630833935  0.5628872534943192
  0.0273075162589270  0.5753913779535917  0.4359372433336954
  0.2141552823470382  0.6407049316150935  0.4360754603627507
  0.1113133730896472  0.5553192832076081  0.3300252864468443
  0.2435348962264941  0.5487132648093752  0.5624841078286845
  0.0927330666652893  0.4542291726252864  0.4372323807496762
  0.2278767669270496  0.4460833638933767  0.6680844258728452
  0.1234155970917054  0.3626885053919414  0.5626306974596702
  0.3113804497484070  0.4293186183520021  0.5613237212457149
  0.3611458886607420  0.5759266423365708  0.4354682994018682
  0.5470249509419868  0.6371929071270517  0.4371347855253677
  0.4475556276934549  0.5649724775174727  0.3285869391363208
  0.5615349500937493  0.5521745125390957  0.5713329660304163
  0.4227500461584361  0.4517697463954857  0.4295058967868145
  0.4351871944108927  0.3439053418300601  0.5921256130717418
  0.6263882241632355  0.4251992525532652  0.5536788930552032
  0.6938303676275851  0.5740081140932757  0.4359375066445088
  0.8801405698997685  0.6387421202650277  0.4370816946072738
  0.7795490082388776  0.5558528770540068  0.3303502294613001
  0.9096002423618166  0.5478947234740154  0.5630864641073056
  0.7595006152075869  0.4522294184943165  0.4357607004282836
  0.8893803016322482  0.4450770141332229  0.6695756499340973
  0.7839936880414163  0.3628618858579836  0.5639661235249926
  0.9706818785270767  0.4232424132422774  0.5631261653282391
  0.0284941315939536  0.9090735090878302  0.4361158285279403
  0.2149143013334323  0.9726624106238040  0.4365428739104709
  0.1120369713616807  0.8890544375731617  0.3300844391600022
  0.2413353871281643  0.8803624301249463  0.5633416866075501
  0.0919538349039777  0.7862661043277873  0.4366216760447446
  0.2223107800391921  0.7768946854622354  0.6694027587314153
  0.1197779132160811  0.6938362605684698  0.5626916143796086
  0.3065307690964471  0.7589127170440876  0.5628144563456198
  0.3610989112084530  0.9077792950928337  0.4369828429334120
  0.5479190379689217  0.9731559845172097  0.4364397225168717
  0.4448459528886147  0.8902893303218811  0.3300745829016286
  0.5739679273612920  0.8808224087088073  0.5623397459086882
  0.4263744070962088  0.7864315800808578  0.4357788716311290
  0.5553036253343029  0.7769609356037177  0.6675638998686125
  0.4528822723821109  0.6940655874358423  0.5613136043765513
  0.6399374582921146  0.7598557754039457  0.5611300265914244
  0.6935784093732456  0.9070037861675563  0.4374279015528146
  0.8786687508143110  0.9663580776249271  0.4372478483209522
  0.7739609230791183  0.8793315275356994  0.3327916773762959
  0.9098770320951137  0.8807459822157359  0.5630020831949227
  0.7528829055140673  0.7803041594570159  0.4409295153905431
  0.8895857695551812  0.7781576169325564  0.6695828929691059
  0.7860220185111423  0.6939106920658669  0.5636039123686019
  0.9725190396795051  0.7577004766223189  0.5632942348008392
 
  0.00000000E+00  0.00000000E+00  0.00000000E+00
  0.00000000E+00  0.00000000E+00  0.00000000E+00
  0.00000000E+00  0.00000000E+00  0.00000000E+00
  0.00000000E+00  0.00000000E+00  0.00000000E+00
  0.00000000E+00  0.00000000E+00  0.00000000E+00
  0.00000000E+00  0.00000000E+00  0.00000000E+00
  0.00000000E+00  0.00000000E+00  0.00000000E+00
  0.00000000E+00  0.00000000E+00  0.00000000E+00
  0.00000000E+00  0.00000000E+00  0.00000000E+00
  0.00000000E+00  0.00000000E+00  0.00000000E+00
  0.00000000E+00  0.00000000E+00  0.00000000E+00
  0.00000000E+00  0.00000000E+00  0.00000000E+00
  0.00000000E+00  0.00000000E+00  0.00000000E+00
  0.00000000E+00  0.00000000E+00  0.00000000E+00
  0.00000000E+00  0.00000000E+00  0.00000000E+00
  0.00000000E+00  0.00000000E+00  0.00000000E+00
  0.00000000E+00  0.00000000E+00  0.00000000E+00
  0.00000000E+00  0.00000000E+00  0.00000000E+00
  0.00000000E+00  0.00000000E+00  0.00000000E+00
  0.00000000E+00  0.00000000E+00  0.00000000E+00
  0.00000000E+00  0.00000000E+00  0.00000000E+00
  0.00000000E+00  0.00000000E+00  0.00000000E+00
  0.00000000E+00  0.00000000E+00  0.00000000E+00
  0.00000000E+00  0.00000000E+00  0.00000000E+00
  0.00000000E+00  0.00000000E+00  0.00000000E+00
  0.00000000E+00  0.00000000E+00  0.00000000E+00
  0.00000000E+00  0.00000000E+00  0.00000000E+00
  0.00000000E+00  0.00000000E+00  0.00000000E+00
  0.00000000E+00  0.00000000E+00  0.00000000E+00
  0.00000000E+00  0.00000000E+00  0.00000000E+00
  0.00000000E+00  0.00000000E+00  0.00000000E+00
  0.00000000E+00  0.00000000E+00  0.00000000E+00
  0.00000000E+00  0.00000000E+00  0.00000000E+00
  0.00000000E+00  0.00000000E+00  0.00000000E+00
  0.00000000E+00  0.00000000E+00  0.00000000E+00
  0.00000000E+00  0.00000000E+00  0.00000000E+00
  0.00000000E+00  0.00000000E+00  0.00000000E+00
  0.00000000E+00  0.00000000E+00  0.00000000E+00
  0.00000000E+00  0.00000000E+00  0.00000000E+00
  0.00000000E+00  0.00000000E+00  0.00000000E+00
  0.00000000E+00  0.00000000E+00  0.00000000E+00
  0.00000000E+00  0.00000000E+00  0.00000000E+00
  0.00000000E+00  0.00000000E+00  0.00000000E+00
  0.00000000E+00  0.00000000E+00  0.00000000E+00
  0.00000000E+00  0.00000000E+00  0.00000000E+00
  0.00000000E+00  0.00000000E+00  0.00000000E+00
  0.00000000E+00  0.00000000E+00  0.00000000E+00
  0.00000000E+00  0.00000000E+00  0.00000000E+00
  0.00000000E+00  0.00000000E+00  0.00000000E+00
  0.00000000E+00  0.00000000E+00  0.00000000E+00
  0.00000000E+00  0.00000000E+00  0.00000000E+00
  0.00000000E+00  0.00000000E+00  0.00000000E+00
  0.00000000E+00  0.00000000E+00  0.00000000E+00
  0.00000000E+00  0.00000000E+00  0.00000000E+00
  0.00000000E+00  0.00000000E+00  0.00000000E+00
  0.00000000E+00  0.00000000E+00  0.00000000E+00
  0.00000000E+00  0.00000000E+00  0.00000000E+00
  0.00000000E+00  0.00000000E+00  0.00000000E+00
  0.00000000E+00  0.00000000E+00  0.00000000E+00
  0.00000000E+00  0.00000000E+00  0.00000000E+00
  0.00000000E+00  0.00000000E+00  0.00000000E+00
  0.00000000E+00  0.00000000E+00  0.00000000E+00
  0.00000000E+00  0.00000000E+00  0.00000000E+00
  0.00000000E+00  0.00000000E+00  0.00000000E+00
  0.00000000E+00  0.00000000E+00  0.00000000E+00
  0.00000000E+00  0.00000000E+00  0.00000000E+00
  0.00000000E+00  0.00000000E+00  0.00000000E+00
  0.00000000E+00  0.00000000E+00  0.00000000E+00
  0.00000000E+00  0.00000000E+00  0.00000000E+00
  0.00000000E+00  0.00000000E+00  0.00000000E+00
  0.00000000E+00  0.00000000E+00  0.00000000E+00
  0.00000000E+00  0.00000000E+00  0.00000000E+00
  0.00000000E+00  0.00000000E+00  0.00000000E+00
  0.00000000E+00  0.00000000E+00  0.00000000E+00
  0.00000000E+00  0.00000000E+00  0.00000000E+00
  0.00000000E+00  0.00000000E+00  0.00000000E+00
  0.00000000E+00  0.00000000E+00  0.00000000E+00
  0.00000000E+00  0.00000000E+00  0.00000000E+00
  0.00000000E+00  0.00000000E+00  0.00000000E+00
  0.00000000E+00  0.00000000E+00  0.00000000E+00
  0.00000000E+00  0.00000000E+00  0.00000000E+00
  0.00000000E+00  0.00000000E+00  0.00000000E+00
  0.00000000E+00  0.00000000E+00  0.00000000E+00
  0.00000000E+00  0.00000000E+00  0.00000000E+00
  0.00000000E+00  0.00000000E+00  0.00000000E+00
  0.00000000E+00  0.00000000E+00  0.00000000E+00
  0.00000000E+00  0.00000000E+00  0.00000000E+00
  0.00000000E+00  0.00000000E+00  0.00000000E+00
  0.00000000E+00  0.00000000E+00  0.00000000E+00
  0.00000000E+00  0.00000000E+00  0.00000000E+00
  0.00000000E+00  0.00000000E+00  0.00000000E+00
  0.00000000E+00  0.00000000E+00  0.00000000E+00
  0.00000000E+00  0.00000000E+00  0.00000000E+00
  0.00000000E+00  0.00000000E+00  0.00000000E+00
  0.00000000E+00  0.00000000E+00  0.00000000E+00
  0.00000000E+00  0.00000000E+00  0.00000000E+00
  0.00000000E+00  0.00000000E+00  0.00000000E+00
  0.00000000E+00  0.00000000E+00  0.00000000E+00
