CONTCAR\(3)                             
   1.00000000000000     
    12.4035997391000006    0.0000000000000000    0.0000000000000000
     6.2017683962000003   10.7417350166999999    0.0000000000000000
     0.0000000000000000    0.0000000000000000   17.7593994140999989
   Fe   Br   O    H 
     8    24     1     1
Direct
  0.9945055875719149  0.0098843366273513  0.4979072022631570
  0.1603419578509531  0.1774338645140929  0.5007124439886184
  0.4924422177634611  0.0102320752934588  0.5003596944962538
  0.6892667239964752  0.1536663531783944  0.4879800995793460
  0.9935833969176144  0.5114776951248032  0.5012985243717409
  0.1603496729959417  0.6792217108554013  0.5022925767022954
  0.4933179002730625  0.5128236639844275  0.5055581326585710
  0.6595879876713013  0.6782467026301688  0.5012160515173463
  0.0073654536068730  0.1653130048167242  0.4227856083468140
  0.1464857706010108  0.3448364186111874  0.4240483543353477
  0.3257743450995605  0.0246261300832558  0.4230562626925831
  0.1488571022112524  0.0222750638358988  0.5768211402670431
  0.0081534329437574  0.3443339558737719  0.5790532937599338
  0.3273992930304601  0.1627007909663547  0.5790648775694081
  0.5014969735456773  0.1646452092022699  0.4206351097519629
  0.6472806705048342  0.3505185828864938  0.4230742619415366
  0.8498413243018916  0.0062371770012746  0.4065370375577189
  0.6476788457950562  0.0206925470542458  0.5791134072231969
  0.4836149930998062  0.3611664337333877  0.5768091021102464
  0.8342464665437959  0.1643172075321004  0.5825450127897227
  0.0101558711596113  0.6622208293938456  0.4229921822909688
  0.1563507054009889  0.8411902083748473  0.4249183250500081
  0.3278632246587563  0.5222531105035770  0.4262928861756166
  0.1433112110042600  0.5283584589235915  0.5804923638697801
  0.0031808087196126  0.8468284174292080  0.5758564456872932
  0.3241469233881844  0.6710041116377568  0.5806858962537333
  0.5058895254460012  0.6645830517128744  0.4248688605587461
  0.6456614423728837  0.8442847765935895  0.4227724369941797
  0.8269236325666824  0.5252163046967340  0.4237817104077237
  0.6461110464892315  0.5269287765657893  0.5805866034936358
  0.5063977505932371  0.8445071602181287  0.5783268473012626
  0.8264180067634541  0.6648243053681000  0.5782965276184910
  0.5518285159942096  0.3483558680871823  0.6736427440191335
  0.6406911931181796  0.2869461336897174  0.6657579713566406
 
  0.00000000E+00  0.00000000E+00  0.00000000E+00
  0.00000000E+00  0.00000000E+00  0.00000000E+00
  0.00000000E+00  0.00000000E+00  0.00000000E+00
  0.00000000E+00  0.00000000E+00  0.00000000E+00
  0.00000000E+00  0.00000000E+00  0.00000000E+00
  0.00000000E+00  0.00000000E+00  0.00000000E+00
  0.00000000E+00  0.00000000E+00  0.00000000E+00
  0.00000000E+00  0.00000000E+00  0.00000000E+00
  0.00000000E+00  0.00000000E+00  0.00000000E+00
  0.00000000E+00  0.00000000E+00  0.00000000E+00
  0.00000000E+00  0.00000000E+00  0.00000000E+00
  0.00000000E+00  0.00000000E+00  0.00000000E+00
  0.00000000E+00  0.00000000E+00  0.00000000E+00
  0.00000000E+00  0.00000000E+00  0.00000000E+00
  0.00000000E+00  0.00000000E+00  0.00000000E+00
  0.00000000E+00  0.00000000E+00  0.00000000E+00
  0.00000000E+00  0.00000000E+00  0.00000000E+00
  0.00000000E+00  0.00000000E+00  0.00000000E+00
  0.00000000E+00  0.00000000E+00  0.00000000E+00
  0.00000000E+00  0.00000000E+00  0.00000000E+00
  0.00000000E+00  0.00000000E+00  0.00000000E+00
  0.00000000E+00  0.00000000E+00  0.00000000E+00
  0.00000000E+00  0.00000000E+00  0.00000000E+00
  0.00000000E+00  0.00000000E+00  0.00000000E+00
  0.00000000E+00  0.00000000E+00  0.00000000E+00
  0.00000000E+00  0.00000000E+00  0.00000000E+00
  0.00000000E+00  0.00000000E+00  0.00000000E+00
  0.00000000E+00  0.00000000E+00  0.00000000E+00
  0.00000000E+00  0.00000000E+00  0.00000000E+00
  0.00000000E+00  0.00000000E+00  0.00000000E+00
  0.00000000E+00  0.00000000E+00  0.00000000E+00
  0.00000000E+00  0.00000000E+00  0.00000000E+00
  0.00000000E+00  0.00000000E+00  0.00000000E+00
  0.00000000E+00  0.00000000E+00  0.00000000E+00
