CONTCAR\(4)                             
   1.00000000000000     
    12.9610004424999996    0.0000000000000000    0.0000000000000000
     0.0000000000000000   15.8519001007000000    0.0000000000000000
     0.0000000000000000    0.0000000000000000   18.7994003296000010
   Nb   Ge   Te   O    H 
    16     8    32     2     1
Direct
  0.1786469358344259  0.0173861884087872  0.5000211544018477
  0.3217665936052298  0.2674703906539406  0.5000556619839273
  0.4286758396291828  0.1069301901581918  0.5000291374348472
  0.0718829496971716  0.3569630497692602  0.5000727490656337
  0.6786545660124331  0.0173969988429053  0.5000245344314120
  0.8218129055869097  0.2674361818889267  0.5000998137926577
  0.9287046527604518  0.1069445057273519  0.5000612653818445
  0.5718676116255430  0.3569590486618175  0.5000377244445899
  0.1787953293357219  0.5175771167767598  0.5000088579305426
  0.3217745377939366  0.7674183936685215  0.4999552450168974
  0.4286019179988778  0.6069276386495754  0.5000099477291903
  0.0718175447408058  0.8569188644873661  0.4999756551884905
  0.6787376788283118  0.5174573830899973  0.5000801000926177
  0.8218925125936503  0.7674520945190726  0.5000090826964991
  0.9287068662571463  0.6069595166618851  0.5000134733151921
  0.5717672658226859  0.8569170992982409  0.5000428167054040
  0.1252666642981741  0.1871269151107220  0.5001009104523170
  0.3753059959059677  0.4372610308619632  0.5000042926329942
  0.6252607248445116  0.1871541262028721  0.5000586801700287
  0.8754511898634014  0.4372315149618141  0.5001774809182399
  0.1254151373298737  0.6871445653299466  0.4999489340268783
  0.3750261158651033  0.9371240919759722  0.5001808951600429
  0.6251150104387226  0.6872114425690599  0.5002421783484678
  0.8752474619795113  0.9370974185224732  0.5000472984175706
  0.0193103244156983  0.4943767770426680  0.3987088124343617
  0.4811619880736999  0.2443967781650031  0.6013241815744949
  0.2312538249169235  0.3801452894379618  0.6013879003978146
  0.2692606467522450  0.1300474895462197  0.3987300771323292
  0.4812209323965268  0.2443884681199381  0.3987235779539826
  0.0193740919384875  0.4944784865933067  0.6014246385244443
  0.2692876744072465  0.1300230303402735  0.6013873406121654
  0.2312634420685402  0.3800207258837427  0.3987391455046266
  0.5193724811152802  0.4943629270003306  0.3987022116553399
  0.9812031667561047  0.2443912187638784  0.6013752035187113
  0.7312085598586019  0.3800957300739370  0.6014296734399202
  0.7692810867801040  0.1300834787957313  0.3987402114592629
  0.9812123056596954  0.2444104008449735  0.3987984767247891
  0.5192061888339308  0.4942986578384522  0.6014151140576386
  0.7693028407827902  0.1299701338169841  0.6013820572038769
  0.7313376286159805  0.3800834492998477  0.3987566764161863
  0.0192085893293517  0.9943577183191716  0.3986903733811758
  0.4809891749947477  0.7443117409040590  0.6014101922883454
  0.2311732413153323  0.8799528944515941  0.6014706430979596
  0.2694487390884365  0.6300370700988587  0.3985039678745892
  0.4812528512564159  0.7443798105891393  0.3987322163282037
  0.0192852226582103  0.9942254289247701  0.6013334192149056
  0.2688641339891698  0.6304949214540951  0.6010676545427492
  0.2311854345220429  0.8800839002876581  0.3986465562994450
  0.5191869382283262  0.9942838364937135  0.3987570381754050
  0.9814216330338238  0.7442960726651071  0.6013693100024161
  0.7312315468793202  0.8800159152337308  0.6013724299365820
  0.7692167189338657  0.6300963828493799  0.3987603482156060
  0.9811990723454768  0.7443285422678532  0.3986740545045334
  0.5192176628422088  0.9943128207561106  0.6013595486766377
  0.7694173283705968  0.6301144601421410  0.6013737848083629
  0.7311940121310331  0.8800561950183917  0.3987036845079083
  0.2975337107450281  0.6136214046079779  0.8004803223211837
  0.2294982596989268  0.6506939316497732  0.7536158373726515
  0.2684346346180556  0.5568681349258011  0.8083750931032776
 
  0.00000000E+00  0.00000000E+00  0.00000000E+00
  0.00000000E+00  0.00000000E+00  0.00000000E+00
  0.00000000E+00  0.00000000E+00  0.00000000E+00
  0.00000000E+00  0.00000000E+00  0.00000000E+00
  0.00000000E+00  0.00000000E+00  0.00000000E+00
  0.00000000E+00  0.00000000E+00  0.00000000E+00
  0.00000000E+00  0.00000000E+00  0.00000000E+00
  0.00000000E+00  0.00000000E+00  0.00000000E+00
  0.00000000E+00  0.00000000E+00  0.00000000E+00
  0.00000000E+00  0.00000000E+00  0.00000000E+00
  0.00000000E+00  0.00000000E+00  0.00000000E+00
  0.00000000E+00  0.00000000E+00  0.00000000E+00
  0.00000000E+00  0.00000000E+00  0.00000000E+00
  0.00000000E+00  0.00000000E+00  0.00000000E+00
  0.00000000E+00  0.00000000E+00  0.00000000E+00
  0.00000000E+00  0.00000000E+00  0.00000000E+00
  0.00000000E+00  0.00000000E+00  0.00000000E+00
  0.00000000E+00  0.00000000E+00  0.00000000E+00
  0.00000000E+00  0.00000000E+00  0.00000000E+00
  0.00000000E+00  0.00000000E+00  0.00000000E+00
  0.00000000E+00  0.00000000E+00  0.00000000E+00
  0.00000000E+00  0.00000000E+00  0.00000000E+00
  0.00000000E+00  0.00000000E+00  0.00000000E+00
  0.00000000E+00  0.00000000E+00  0.00000000E+00
  0.00000000E+00  0.00000000E+00  0.00000000E+00
  0.00000000E+00  0.00000000E+00  0.00000000E+00
  0.00000000E+00  0.00000000E+00  0.00000000E+00
  0.00000000E+00  0.00000000E+00  0.00000000E+00
  0.00000000E+00  0.00000000E+00  0.00000000E+00
  0.00000000E+00  0.00000000E+00  0.00000000E+00
  0.00000000E+00  0.00000000E+00  0.00000000E+00
  0.00000000E+00  0.00000000E+00  0.00000000E+00
  0.00000000E+00  0.00000000E+00  0.00000000E+00
  0.00000000E+00  0.00000000E+00  0.00000000E+00
  0.00000000E+00  0.00000000E+00  0.00000000E+00
  0.00000000E+00  0.00000000E+00  0.00000000E+00
  0.00000000E+00  0.00000000E+00  0.00000000E+00
  0.00000000E+00  0.00000000E+00  0.00000000E+00
  0.00000000E+00  0.00000000E+00  0.00000000E+00
  0.00000000E+00  0.00000000E+00  0.00000000E+00
  0.00000000E+00  0.00000000E+00  0.00000000E+00
  0.00000000E+00  0.00000000E+00  0.00000000E+00
  0.00000000E+00  0.00000000E+00  0.00000000E+00
  0.00000000E+00  0.00000000E+00  0.00000000E+00
  0.00000000E+00  0.00000000E+00  0.00000000E+00
  0.00000000E+00  0.00000000E+00  0.00000000E+00
  0.00000000E+00  0.00000000E+00  0.00000000E+00
  0.00000000E+00  0.00000000E+00  0.00000000E+00
  0.00000000E+00  0.00000000E+00  0.00000000E+00
  0.00000000E+00  0.00000000E+00  0.00000000E+00
  0.00000000E+00  0.00000000E+00  0.00000000E+00
  0.00000000E+00  0.00000000E+00  0.00000000E+00
  0.00000000E+00  0.00000000E+00  0.00000000E+00
  0.00000000E+00  0.00000000E+00  0.00000000E+00
  0.00000000E+00  0.00000000E+00  0.00000000E+00
  0.00000000E+00  0.00000000E+00  0.00000000E+00
  0.00000000E+00  0.00000000E+00  0.00000000E+00
  0.00000000E+00  0.00000000E+00  0.00000000E+00
  0.00000000E+00  0.00000000E+00  0.00000000E+00
