CONTCAR\(4)                             
   1.00000000000000     
    12.9361000061000002    0.0000000000000000    0.0000000000000000
     0.0000000000000000   12.9357995986999992    0.0000000000000000
     0.0000000000000000    0.0000000000000000   24.1072998046999984
   Dy   Te
    18    54
Direct
  0.1666699960000031  0.0000000000000000  0.5849092885150711
  0.0000000000000000  0.1666699969999996  0.4150906724849293
  0.5000000000000000  0.0000000000000000  0.5849092885150711
  0.3333300039999969  0.1666699969999996  0.4150906724849293
  0.8333299669999974  0.0000000000000000  0.5849092885150711
  0.6666700330000026  0.1666699969999996  0.4150906724849293
  0.1666699960000031  0.3333300030000004  0.5849092885150711
  0.0000000000000000  0.5000000000000000  0.4150906724849293
  0.5000000000000000  0.3333300030000004  0.5849092885150711
  0.3333300039999969  0.5000000000000000  0.4150906724849293
  0.8333299669999974  0.3333300030000004  0.5849092885150711
  0.6666700330000026  0.5000000000000000  0.4150906724849293
  0.1666699960000031  0.6666700330000026  0.5849092885150711
  0.0000000000000000  0.8333300030000004  0.4150906724849293
  0.5000000000000000  0.6666700330000026  0.5849092885150711
  0.3333300039999969  0.8333300030000004  0.4150906724849293
  0.8333299669999974  0.6666700330000026  0.5849092885150711
  0.6666700330000026  0.8333300030000004  0.4150906724849293
  0.0000000000000000  0.0000000000000000  0.3117741197406261
  0.1666699960000031  0.1666699969999996  0.6882259002593756
  0.0000000000000000  0.0000000000000000  0.6882244317328201
  0.1666699960000031  0.1666699969999996  0.3117655602671761
  0.1666699960000031  0.0000000000000000  0.4536163085167573
  0.0000000000000000  0.1666699969999996  0.5463836914832427
  0.3333300039999969  0.0000000000000000  0.3117741197406261
  0.5000000000000000  0.1666699969999996  0.6882259002593756
  0.3333300039999969  0.0000000000000000  0.6882244317328201
  0.5000000000000000  0.1666699969999996  0.3117655602671761
  0.5000000000000000  0.0000000000000000  0.4536163085167573
  0.3333300039999969  0.1666699969999996  0.5463836914832427
  0.6666700330000026  0.0000000000000000  0.3117741197406261
  0.8333299669999974  0.1666699969999996  0.6882259002593756
  0.6666700330000026  0.0000000000000000  0.6882244317328201
  0.8333299669999974  0.1666699969999996  0.3117655602671761
  0.8333299669999974  0.0000000000000000  0.4536163085167573
  0.6666700330000026  0.1666699969999996  0.5463836914832427
  0.0000000000000000  0.3333300030000004  0.3117741197406261
  0.1666699960000031  0.5000000000000000  0.6882259002593756
  0.0000000000000000  0.3333300030000004  0.6882244317328201
  0.1666699960000031  0.5000000000000000  0.3117655602671761
  0.1666699960000031  0.3333300030000004  0.4536163085167573
  0.0000000000000000  0.5000000000000000  0.5463836914832427
  0.3333300039999969  0.3333300030000004  0.3117741197406261
  0.5000000000000000  0.5000000000000000  0.6882259002593756
  0.3333300039999969  0.3333300030000004  0.6882244317328201
  0.5000000000000000  0.5000000000000000  0.3117655602671761
  0.5000000000000000  0.3333300030000004  0.4536163085167573
  0.3333300039999969  0.5000000000000000  0.5463836914832427
  0.6666700330000026  0.3333300030000004  0.3117741197406261
  0.8333299669999974  0.5000000000000000  0.6882259002593756
  0.6666700330000026  0.3333300030000004  0.6882244317328201
  0.8333299669999974  0.5000000000000000  0.3117655602671761
  0.8333299669999974  0.3333300030000004  0.4536163085167573
  0.6666700330000026  0.5000000000000000  0.5463836914832427
  0.0000000000000000  0.6666700330000026  0.3117741197406261
  0.1666699960000031  0.8333300030000004  0.6882259002593756
  0.0000000000000000  0.6666700330000026  0.6882244317328201
  0.1666699960000031  0.8333300030000004  0.3117655602671761
  0.1666699960000031  0.6666700330000026  0.4536163085167573
  0.0000000000000000  0.8333300030000004  0.5463836914832427
  0.3333300039999969  0.6666700330000026  0.3117741197406261
  0.5000000000000000  0.8333300030000004  0.6882259002593756
  0.3333300039999969  0.6666700330000026  0.6882244317328201
  0.5000000000000000  0.8333300030000004  0.3117655602671761
  0.5000000000000000  0.6666700330000026  0.4536163085167573
  0.3333300039999969  0.8333300030000004  0.5463836914832427
  0.6666700330000026  0.6666700330000026  0.3117741197406261
  0.8333299669999974  0.8333300030000004  0.6882259002593756
  0.6666700330000026  0.6666700330000026  0.6882244317328201
  0.8333299669999974  0.8333300030000004  0.3117655602671761
  0.8333299669999974  0.6666700330000026  0.4536163085167573
  0.6666700330000026  0.8333300030000004  0.5463836914832427
 
  0.00000000E+00  0.00000000E+00  0.00000000E+00
  0.00000000E+00  0.00000000E+00  0.00000000E+00
  0.00000000E+00  0.00000000E+00  0.00000000E+00
  0.00000000E+00  0.00000000E+00  0.00000000E+00
  0.00000000E+00  0.00000000E+00  0.00000000E+00
  0.00000000E+00  0.00000000E+00  0.00000000E+00
  0.00000000E+00  0.00000000E+00  0.00000000E+00
  0.00000000E+00  0.00000000E+00  0.00000000E+00
  0.00000000E+00  0.00000000E+00  0.00000000E+00
  0.00000000E+00  0.00000000E+00  0.00000000E+00
  0.00000000E+00  0.00000000E+00  0.00000000E+00
  0.00000000E+00  0.00000000E+00  0.00000000E+00
  0.00000000E+00  0.00000000E+00  0.00000000E+00
  0.00000000E+00  0.00000000E+00  0.00000000E+00
  0.00000000E+00  0.00000000E+00  0.00000000E+00
  0.00000000E+00  0.00000000E+00  0.00000000E+00
  0.00000000E+00  0.00000000E+00  0.00000000E+00
  0.00000000E+00  0.00000000E+00  0.00000000E+00
  0.00000000E+00  0.00000000E+00  0.00000000E+00
  0.00000000E+00  0.00000000E+00  0.00000000E+00
  0.00000000E+00  0.00000000E+00  0.00000000E+00
  0.00000000E+00  0.00000000E+00  0.00000000E+00
  0.00000000E+00  0.00000000E+00  0.00000000E+00
  0.00000000E+00  0.00000000E+00  0.00000000E+00
  0.00000000E+00  0.00000000E+00  0.00000000E+00
  0.00000000E+00  0.00000000E+00  0.00000000E+00
  0.00000000E+00  0.00000000E+00  0.00000000E+00
  0.00000000E+00  0.00000000E+00  0.00000000E+00
  0.00000000E+00  0.00000000E+00  0.00000000E+00
  0.00000000E+00  0.00000000E+00  0.00000000E+00
  0.00000000E+00  0.00000000E+00  0.00000000E+00
  0.00000000E+00  0.00000000E+00  0.00000000E+00
  0.00000000E+00  0.00000000E+00  0.00000000E+00
  0.00000000E+00  0.00000000E+00  0.00000000E+00
  0.00000000E+00  0.00000000E+00  0.00000000E+00
  0.00000000E+00  0.00000000E+00  0.00000000E+00
  0.00000000E+00  0.00000000E+00  0.00000000E+00
  0.00000000E+00  0.00000000E+00  0.00000000E+00
  0.00000000E+00  0.00000000E+00  0.00000000E+00
  0.00000000E+00  0.00000000E+00  0.00000000E+00
  0.00000000E+00  0.00000000E+00  0.00000000E+00
  0.00000000E+00  0.00000000E+00  0.00000000E+00
  0.00000000E+00  0.00000000E+00  0.00000000E+00
  0.00000000E+00  0.00000000E+00  0.00000000E+00
  0.00000000E+00  0.00000000E+00  0.00000000E+00
  0.00000000E+00  0.00000000E+00  0.00000000E+00
  0.00000000E+00  0.00000000E+00  0.00000000E+00
  0.00000000E+00  0.00000000E+00  0.00000000E+00
  0.00000000E+00  0.00000000E+00  0.00000000E+00
  0.00000000E+00  0.00000000E+00  0.00000000E+00
  0.00000000E+00  0.00000000E+00  0.00000000E+00
  0.00000000E+00  0.00000000E+00  0.00000000E+00
  0.00000000E+00  0.00000000E+00  0.00000000E+00
  0.00000000E+00  0.00000000E+00  0.00000000E+00
  0.00000000E+00  0.00000000E+00  0.00000000E+00
  0.00000000E+00  0.00000000E+00  0.00000000E+00
  0.00000000E+00  0.00000000E+00  0.00000000E+00
  0.00000000E+00  0.00000000E+00  0.00000000E+00
  0.00000000E+00  0.00000000E+00  0.00000000E+00
  0.00000000E+00  0.00000000E+00  0.00000000E+00
  0.00000000E+00  0.00000000E+00  0.00000000E+00
  0.00000000E+00  0.00000000E+00  0.00000000E+00
  0.00000000E+00  0.00000000E+00  0.00000000E+00
  0.00000000E+00  0.00000000E+00  0.00000000E+00
  0.00000000E+00  0.00000000E+00  0.00000000E+00
  0.00000000E+00  0.00000000E+00  0.00000000E+00
  0.00000000E+00  0.00000000E+00  0.00000000E+00
  0.00000000E+00  0.00000000E+00  0.00000000E+00
  0.00000000E+00  0.00000000E+00  0.00000000E+00
  0.00000000E+00  0.00000000E+00  0.00000000E+00
  0.00000000E+00  0.00000000E+00  0.00000000E+00
  0.00000000E+00  0.00000000E+00  0.00000000E+00
