CONTCAR\(2)                             
   1.00000000000000     
    11.8893995285000003    0.0000000000000000    0.0000000000000000
     0.0000000000000000   11.8893995285000003    0.0000000000000000
     0.0000000000000000    0.0000000000000000   25.3729991912999999
   Ce   Bi   S    O    H 
    18    18    36    20     1
Direct
  0.0006270879204188  0.0012924658060407  0.4503726005675887
  0.1687328337329400  0.1688500229825216  0.5498558028633722
  0.3334099671399683  0.0010246280338733  0.4495294790559674
  0.4982677456686885  0.1688217391817898  0.5496650802500493
  0.6663845780538339  0.0013103249595062  0.4501494950812439
  0.8333280117544359  0.1669155553355857  0.5492244348141633
  0.0004774934665665  0.3350568003393969  0.4512728319341504
  0.1688083987882574  0.4994576809577750  0.5527728700519855
  0.3334239658502206  0.3355035208540806  0.4519796130645222
  0.4981243667404894  0.4994261995684166  0.5526879553235933
  0.6665047667904566  0.3351313363747493  0.4511470096541228
  0.8334161129730940  0.5007814998910685  0.5503469502121142
  0.0008472110780439  0.6666106825858829  0.4517660049269917
  0.1671611581688058  0.8350293725804597  0.5494546641481919
  0.3334217082880452  0.6667976815501006  0.4517949192183225
  0.4998115279883186  0.8350648795953239  0.5492506976018663
  0.6661417434885279  0.6665968859988805  0.4515849169725078
  0.8333608301593197  0.8349824210570003  0.5494093598469184
  0.0011887987239684  0.0012957011169917  0.6998073156601702
  0.1666365576144435  0.1671190958865157  0.3009200879049173
  0.3333969224890192  0.0022210330872865  0.6996686627560889
  0.5001419021238915  0.1671688379026201  0.3009048509864270
  0.6654018008890117  0.0014939378980603  0.6998912517098917
  0.8334234520979351  0.1669561269599247  0.3009126887570862
  0.0008262208606560  0.3337617044879861  0.6990704480915072
  0.1666726733171109  0.5002820832611905  0.3010269069569533
  0.3314982022160224  0.3434522887334365  0.7063218313618007
  0.5000105221992618  0.5002534765303966  0.3009989567442514
  0.6660636796227527  0.3333276645934400  0.6990126017590039
  0.8334380441095335  0.5003216532237124  0.3010358295291419
  0.0002994288458035  0.6671662611275844  0.6993161014568524
  0.1665778041184214  0.8332731725699272  0.3009875005673948
  0.3326131584623034  0.6657394727034076  0.6989733497403937
  0.5001185552570983  0.8331935362553279  0.3010490072185581
  0.6668484063588286  0.6674981932064979  0.6991977906911090
  0.8334289668728824  0.8333648226716174  0.3010596315383888
 -0.0003801762551354  0.0009926224209249  0.5996121835829635
  0.0002585261839144  0.0005389256990491  0.2963056527556455
  0.1661667902379538  0.1688661470046998  0.4009113495914017
  0.1639264360339850  0.1649771404196641  0.7059998689890279
  0.3337785778299445  0.0010760909509939  0.5993882772710437
  0.3336283127267660  0.0004564640734685  0.2994411457927479
  0.5005924995290015  0.1691957386823070  0.4008918967626481
  0.5032782419973511  0.1647711039110329  0.7069560120048102
  0.6668073850229499  0.0008808364874460  0.5997239910429529
  0.6665786846452098  0.0003872833662293  0.2972109424292402
  0.8336926388818832  0.1682553917748117  0.4010075125497884
  0.8336216174620971  0.1700197292831451  0.7069048665848502
  0.9964812030785528  0.3294332957912482  0.5990564988473887
  0.0000456804925389  0.3337975620810687  0.2955797394039270
  0.1666409610007069  0.5012952108761382  0.4012630496707240
  0.1700345530207456  0.4993819969304656  0.6786582649405067
  0.3341600289639052  0.3287363105040159  0.5966900118838362
  0.3334220264078647  0.3340815426699052  0.2954043285314917
  0.5000546640000731  0.5011649738177092  0.4011884985439866
  0.4967605440826462  0.4995760271289408  0.6836998262300094
  0.6694767114804707  0.3299740094629362  0.5990593659500210
  0.6670279423797274  0.3340558995780900  0.2956374229036494
  0.8337153994569441  0.5013221485034688  0.4013194595531880
  0.8335449601606265  0.5001033936700503  0.7029373470011128
  0.9973575908622034  0.6716046990014908  0.5993779558180548
  0.0000769825540968  0.6673867534490580  0.2945900361550919
  0.1659462681421889  0.8326330561273704  0.4010882560323822
  0.1662175985526134  0.8343741843371481  0.7060688825908999
  0.3341715925602295  0.6755353804927262  0.5978536546650975
  0.3332745906464418  0.6669436589131443  0.2954292457108770
  0.5007198493810798  0.8326087638688392  0.4011111138752451
  0.5004280643819898  0.8336874264871553  0.7067640436986556
  0.6687012487742616  0.6712097644231957  0.5993013402703530
  0.6669112528859866  0.6670078146437237  0.2954144523208620
  0.8339194225456527  0.8331360194170351  0.4011264895010926
  0.8340060934690345  0.8275805103384158  0.7074510916400013
  0.0002018796039217  0.1673838152072724  0.4999951456568878
  0.1669211865226814  0.0012074265343515  0.4998487106816237
  0.3334448041225803  0.1662475160670570  0.4986726570013381
  0.5000444542572756  0.0012134546554013  0.4996571857539545
  0.6666975563380022  0.1673980654282628  0.4998734630212927
  0.8333871536953520  0.0009853664618595  0.4997224698272040
  0.0000951435550287  0.5007803338073966  0.5016019679023000
  0.1656699177392361  0.3344452431019380  0.5001151526678709
  0.3335503274535780  0.5018280166342919  0.5008340279323809
  0.5013442802076556  0.3345862536440897  0.4999731473596966
  0.6667580625540794  0.5008179074041986  0.5014931517711171
  0.8333876883402050  0.3344168451269355  0.5001830813237623
  0.0001284669595624  0.8348202802756401  0.5001159736297101
  0.1665424728324927  0.6676615507790615  0.5009880587872354
  0.3334247753492464  0.8353744097388182  0.4993365518085850
  0.5004343564287699  0.6675745966450091  0.5008456581278724
  0.6667951695006469  0.8348094893619340  0.4999630698924994
  0.8334056410204234  0.6674798848535378  0.5005422160722528
  0.3094007079127231  0.5359337597038347  0.7937335096674522
  0.3167977857404554  0.4122303035896593  0.7898750553738658
  0.3704086760603159  0.5499246735240854  0.8188371386278441
 
  0.00000000E+00  0.00000000E+00  0.00000000E+00
  0.00000000E+00  0.00000000E+00  0.00000000E+00
  0.00000000E+00  0.00000000E+00  0.00000000E+00
  0.00000000E+00  0.00000000E+00  0.00000000E+00
  0.00000000E+00  0.00000000E+00  0.00000000E+00
  0.00000000E+00  0.00000000E+00  0.00000000E+00
  0.00000000E+00  0.00000000E+00  0.00000000E+00
  0.00000000E+00  0.00000000E+00  0.00000000E+00
  0.00000000E+00  0.00000000E+00  0.00000000E+00
  0.00000000E+00  0.00000000E+00  0.00000000E+00
  0.00000000E+00  0.00000000E+00  0.00000000E+00
  0.00000000E+00  0.00000000E+00  0.00000000E+00
  0.00000000E+00  0.00000000E+00  0.00000000E+00
  0.00000000E+00  0.00000000E+00  0.00000000E+00
  0.00000000E+00  0.00000000E+00  0.00000000E+00
  0.00000000E+00  0.00000000E+00  0.00000000E+00
  0.00000000E+00  0.00000000E+00  0.00000000E+00
  0.00000000E+00  0.00000000E+00  0.00000000E+00
  0.00000000E+00  0.00000000E+00  0.00000000E+00
  0.00000000E+00  0.00000000E+00  0.00000000E+00
  0.00000000E+00  0.00000000E+00  0.00000000E+00
  0.00000000E+00  0.00000000E+00  0.00000000E+00
  0.00000000E+00  0.00000000E+00  0.00000000E+00
  0.00000000E+00  0.00000000E+00  0.00000000E+00
  0.00000000E+00  0.00000000E+00  0.00000000E+00
  0.00000000E+00  0.00000000E+00  0.00000000E+00
  0.00000000E+00  0.00000000E+00  0.00000000E+00
  0.00000000E+00  0.00000000E+00  0.00000000E+00
  0.00000000E+00  0.00000000E+00  0.00000000E+00
  0.00000000E+00  0.00000000E+00  0.00000000E+00
  0.00000000E+00  0.00000000E+00  0.00000000E+00
  0.00000000E+00  0.00000000E+00  0.00000000E+00
  0.00000000E+00  0.00000000E+00  0.00000000E+00
  0.00000000E+00  0.00000000E+00  0.00000000E+00
  0.00000000E+00  0.00000000E+00  0.00000000E+00
  0.00000000E+00  0.00000000E+00  0.00000000E+00
  0.00000000E+00  0.00000000E+00  0.00000000E+00
  0.00000000E+00  0.00000000E+00  0.00000000E+00
  0.00000000E+00  0.00000000E+00  0.00000000E+00
  0.00000000E+00  0.00000000E+00  0.00000000E+00
  0.00000000E+00  0.00000000E+00  0.00000000E+00
  0.00000000E+00  0.00000000E+00  0.00000000E+00
  0.00000000E+00  0.00000000E+00  0.00000000E+00
  0.00000000E+00  0.00000000E+00  0.00000000E+00
  0.00000000E+00  0.00000000E+00  0.00000000E+00
  0.00000000E+00  0.00000000E+00  0.00000000E+00
  0.00000000E+00  0.00000000E+00  0.00000000E+00
  0.00000000E+00  0.00000000E+00  0.00000000E+00
  0.00000000E+00  0.00000000E+00  0.00000000E+00
  0.00000000E+00  0.00000000E+00  0.00000000E+00
  0.00000000E+00  0.00000000E+00  0.00000000E+00
  0.00000000E+00  0.00000000E+00  0.00000000E+00
  0.00000000E+00  0.00000000E+00  0.00000000E+00
  0.00000000E+00  0.00000000E+00  0.00000000E+00
  0.00000000E+00  0.00000000E+00  0.00000000E+00
  0.00000000E+00  0.00000000E+00  0.00000000E+00
  0.00000000E+00  0.00000000E+00  0.00000000E+00
  0.00000000E+00  0.00000000E+00  0.00000000E+00
  0.00000000E+00  0.00000000E+00  0.00000000E+00
  0.00000000E+00  0.00000000E+00  0.00000000E+00
  0.00000000E+00  0.00000000E+00  0.00000000E+00
  0.00000000E+00  0.00000000E+00  0.00000000E+00
  0.00000000E+00  0.00000000E+00  0.00000000E+00
  0.00000000E+00  0.00000000E+00  0.00000000E+00
  0.00000000E+00  0.00000000E+00  0.00000000E+00
  0.00000000E+00  0.00000000E+00  0.00000000E+00
  0.00000000E+00  0.00000000E+00  0.00000000E+00
  0.00000000E+00  0.00000000E+00  0.00000000E+00
  0.00000000E+00  0.00000000E+00  0.00000000E+00
  0.00000000E+00  0.00000000E+00  0.00000000E+00
  0.00000000E+00  0.00000000E+00  0.00000000E+00
  0.00000000E+00  0.00000000E+00  0.00000000E+00
  0.00000000E+00  0.00000000E+00  0.00000000E+00
  0.00000000E+00  0.00000000E+00  0.00000000E+00
  0.00000000E+00  0.00000000E+00  0.00000000E+00
  0.00000000E+00  0.00000000E+00  0.00000000E+00
  0.00000000E+00  0.00000000E+00  0.00000000E+00
  0.00000000E+00  0.00000000E+00  0.00000000E+00
  0.00000000E+00  0.00000000E+00  0.00000000E+00
  0.00000000E+00  0.00000000E+00  0.00000000E+00
  0.00000000E+00  0.00000000E+00  0.00000000E+00
  0.00000000E+00  0.00000000E+00  0.00000000E+00
  0.00000000E+00  0.00000000E+00  0.00000000E+00
  0.00000000E+00  0.00000000E+00  0.00000000E+00
  0.00000000E+00  0.00000000E+00  0.00000000E+00
  0.00000000E+00  0.00000000E+00  0.00000000E+00
  0.00000000E+00  0.00000000E+00  0.00000000E+00
  0.00000000E+00  0.00000000E+00  0.00000000E+00
  0.00000000E+00  0.00000000E+00  0.00000000E+00
  0.00000000E+00  0.00000000E+00  0.00000000E+00
  0.00000000E+00  0.00000000E+00  0.00000000E+00
  0.00000000E+00  0.00000000E+00  0.00000000E+00
  0.00000000E+00  0.00000000E+00  0.00000000E+00
