Layer                                   
   1.00000000000000     
     3.5271000861999999    0.0000000000000000    0.0000000000000000
     1.7537552164000001    9.5587496525999995    0.0000000000000000
     0.0000000000000000    0.0000000000000000   15.5000000000000000
   H    O    Ta   Te
    16    10     3     6
Direct
  0.8205214366025397  0.7832828784362161  0.3124926820142232
  0.1862868706535279  0.6503791139619303  0.2831787363085149
  0.6073509609735654  0.0560614041050205  0.3021897910520112
  0.2495900981415214  0.9907414270300146  0.2759526272809806
  0.1116170679310400  0.7109084989383713  0.4326129804252171
  0.0557354454662109  0.6940160728170858  0.5377402631377742
  0.7051303485360875  0.2222282819988047  0.4117055380823442
  0.3008888660337625  0.2536365810467235  0.3569414500863501
  0.7850267758149652  0.4867746268075773  0.6553421051704819
  0.4165822280743083  0.4523283183640518  0.6196213077236536
  0.1919444227218953  0.8999215233002349  0.5403204823118963
  0.5455692631213699  0.9610107871938462  0.4936429039871812
  0.7056567637144379  0.5826634720578266  0.2599961601910404
  0.5613107675907804  0.4611508320305634  0.1999480770961367
  0.8685384672087736  0.3047917138294339  0.5520310725404606
  0.0636028846945485  0.1468086480211542  0.5191056739308111
  0.0100383473221626  0.6981894749153376  0.3290032177417826
  0.5104645455606601  0.9654148728636889  0.2899870684446180
  0.2181526836762673  0.7011349143695835  0.4918588284014868
  0.5793381885246655  0.2215380670715292  0.3519880239420523
  0.6834534769324561  0.4086374977168314  0.6278498150394360
  0.3411095809218835  0.9816958282468088  0.5378491578076664
  0.4865383324913573  0.5542964242632848  0.2270013792197875
  0.9260274025728512  0.2410154210762046  0.5010154227956869
  0.7233933333262397  0.3335417702635047  0.0980898825794246
  0.0818517025009841  0.6107571896005261  0.7102760525052528
  0.5901725740266924  0.6982981711433280  0.9308342139873962
  0.3470673634197646  0.2453788192376840  0.8871031758550801
  0.9632552535601733  0.9733345256412639  0.9132845396221978
  0.5172462342831685  0.8506333495857940  0.7869930046997572
  0.4076682825775013  0.1031819217814650  0.0343940325591011
  0.1760773227710083  0.5438800565207337  0.8240549478935139
  0.0332956561516608  0.7756803863578203  0.0563331700471796
  0.9097408704330651  0.1617561509920269  0.7648979777368045
  0.7603058018830917  0.4083916107433845  0.9866897378582880
 
  0.22190184E-01 -0.94229038E-02  0.66408660E-02
  0.16539591E-01 -0.17080430E-01  0.17865957E-01
 -0.42983249E-02  0.22965656E-02  0.20511036E-02
  0.70752291E-02  0.20412910E-01  0.11552970E-01
 -0.10463707E-01 -0.17004999E-03  0.12186139E-01
 -0.22054382E-01 -0.10524313E-01 -0.77842731E-02
 -0.50537855E-02 -0.12508947E-01 -0.13817391E-02
  0.45618170E-02  0.18166017E-01 -0.13461449E-01
 -0.24878031E-01  0.13558319E-01  0.16943415E-01
  0.21184846E-01 -0.46545753E-02  0.52692278E-02
  0.37798156E-03  0.38284750E-02 -0.12833435E-01
 -0.85300085E-02  0.11784432E-01  0.21528040E-01
 -0.14262657E-01  0.27115327E-01  0.18569406E-01
  0.56325310E-02  0.75372470E-02  0.59054117E-02
 -0.41612921E-01 -0.14712410E-01 -0.91389819E-02
 -0.31790347E-01  0.10973793E-02  0.24485053E-01
  0.52959552E-02  0.50076156E-02 -0.43906505E-02
  0.85860683E-03  0.31264172E-02  0.21015452E-02
  0.25152126E-02  0.56382582E-02 -0.46078455E-02
 -0.68791787E-02  0.32413494E-02 -0.33616919E-03
  0.47758033E-02 -0.67496537E-02  0.28928214E-02
  0.15111791E-02 -0.83439095E-02  0.32379363E-02
  0.75034164E-02  0.90729802E-02  0.54102386E-03
  0.76717208E-02  0.27547490E-03 -0.16726439E-02
  0.19958987E-02  0.22220150E-02  0.81462694E-02
 -0.61047429E-02 -0.25611730E-02  0.58403036E-02
 -0.68536053E-03 -0.36869494E-03  0.15712090E-02
 -0.14184908E-02 -0.85826933E-03 -0.12788762E-02
 -0.15452191E-02  0.32066829E-03 -0.32121448E-02
  0.11534471E-02 -0.26259000E-03 -0.12828939E-02
  0.16553636E-03 -0.87175106E-03 -0.10737279E-02
  0.10609122E-02  0.70117291E-03  0.63607037E-03
 -0.49326709E-03 -0.33988077E-03  0.14008637E-02
  0.32511260E-03  0.81655536E-03  0.71281445E-03
  0.12316133E-02 -0.41655178E-03  0.15026022E-02
 
           1
   1.00000000000000     
  0.24088249E+01 -0.55826199E-01  0.73044171E-18  0.00000000E+00
  0.82730293E+00  0.78229709E+00  0.31292112E+00
  0.19186464E+00  0.64859222E+00  0.28433138E+00
  0.60601284E+00  0.56301662E-01  0.30232212E+00
  0.25053423E+00  0.99287695E+00  0.27669798E+00
  0.10865925E+00  0.71089071E+00  0.43339918E+00
  0.50030058E-01  0.69291506E+00  0.53723805E+00
  0.70434819E+00  0.22091964E+00  0.41161639E+00
  0.30123728E+00  0.25553704E+00  0.35607297E+00
  0.77726811E+00  0.48819305E+00  0.65643523E+00
  0.42283065E+00  0.45184137E+00  0.61996126E+00
  0.19185244E+00  0.90032204E+00  0.53949252E+00
  0.54253785E+00  0.96224363E+00  0.49503181E+00
  0.70020256E+00  0.58550017E+00  0.26119419E+00
  0.56251563E+00  0.46193935E+00  0.20032907E+00
  0.85750572E+00  0.30325256E+00  0.55144146E+00
  0.54532633E-01  0.14692345E+00  0.52068535E+00
  0.11279367E-01  0.69871335E+00  0.32871995E+00
  0.51054535E+00  0.96574195E+00  0.29012265E+00
  0.21857251E+00  0.70172477E+00  0.49156155E+00
  0.57721920E+00  0.22187716E+00  0.35196634E+00
  0.68515861E+00  0.40793137E+00  0.62803645E+00
  0.34197206E+00  0.98082292E+00  0.53805806E+00
  0.48819374E+00  0.55524560E+00  0.22703628E+00
  0.92818815E+00  0.24104424E+00  0.50090751E+00
  0.72384362E+00  0.33377423E+00  0.98615448E-01
  0.80254118E-01  0.61048925E+00  0.71065285E+00
  0.58999744E+00  0.69825960E+00  0.93093558E+00
  0.34670984E+00  0.24528903E+00  0.88702067E+00
  0.96280047E+00  0.97336807E+00  0.91307730E+00
  0.51758692E+00  0.85060588E+00  0.78691024E+00
  0.40776056E+00  0.10309072E+00  0.34324760E-01
  0.17634164E+00  0.54395341E+00  0.82409598E+00
  0.33173485E-01  0.77564483E+00  0.56423548E-01
  0.90979057E+00  0.16184158E+00  0.76494397E+00
  0.76067666E+00  0.40834803E+00  0.98678668E+00
  0.58184766E-02 -0.79526172E-03  0.51570357E-03
  0.58456940E-02 -0.18848140E-02  0.11867640E-02
 -0.21937373E-03  0.44041819E-03  0.59890466E-04
  0.33902173E-02  0.18462015E-02  0.87987249E-03
 -0.21864565E-02  0.14665001E-03  0.77087355E-03
 -0.27448667E-02 -0.91928493E-03 -0.88788537E-03
  0.21865815E-03 -0.14852002E-02 -0.13465174E-04
 -0.20021593E-03  0.18828138E-02 -0.96724562E-03
 -0.80959873E-02  0.14616471E-02  0.11116863E-02
  0.66903555E-02 -0.47226231E-03  0.40199055E-03
 -0.21227356E-02 -0.73917461E-04 -0.62595304E-03
 -0.19199854E-02  0.13042395E-02  0.12589910E-02
 -0.48903220E-02  0.31408828E-02  0.13278139E-02
  0.97370109E-03  0.62894025E-03  0.33329417E-03
 -0.10765982E-01 -0.13659718E-02 -0.45549213E-03
 -0.90158268E-02 -0.31744298E-04  0.15323032E-02
  0.13128331E-02  0.50350183E-03 -0.28888148E-03
 -0.14232625E-03  0.33062454E-03  0.12685701E-03
  0.19455357E-03  0.56579225E-03 -0.27156481E-03
 -0.21301313E-02  0.34461435E-03 -0.20869558E-04
  0.16651034E-02 -0.70728191E-03  0.17345215E-03
  0.90035244E-03 -0.83742447E-03  0.20336700E-03
  0.15845473E-02  0.92678159E-03  0.32752442E-04
  0.21187427E-02  0.39130889E-04 -0.10326228E-03
  0.43457333E-03  0.22344120E-03  0.51951331E-03
 -0.15776733E-02 -0.26068000E-03  0.36959147E-03
 -0.17113835E-03 -0.38538228E-04  0.10057286E-03
 -0.35267967E-03 -0.89524747E-04 -0.81408692E-04
 -0.44866015E-03  0.33734351E-04 -0.20428006E-03
  0.33477518E-03 -0.28357908E-04 -0.81539884E-04
  0.90738470E-04 -0.89379231E-04 -0.69497411E-04
  0.26097805E-03  0.75159055E-04  0.40546698E-04
 -0.12594212E-03 -0.35581195E-04  0.88323923E-04
  0.54904931E-04  0.84449405E-04  0.46847780E-04
  0.36748773E-03 -0.43992047E-04  0.94534606E-04
  0.00000000E+00  0.00000000E+00  0.00000000E+00
  0.00000000E+00  0.00000000E+00  0.00000000E+00
  0.00000000E+00  0.00000000E+00  0.00000000E+00
  0.00000000E+00  0.00000000E+00  0.00000000E+00
  0.00000000E+00  0.00000000E+00  0.00000000E+00
  0.00000000E+00  0.00000000E+00  0.00000000E+00
  0.00000000E+00  0.00000000E+00  0.00000000E+00
  0.00000000E+00  0.00000000E+00  0.00000000E+00
  0.00000000E+00  0.00000000E+00  0.00000000E+00
  0.00000000E+00  0.00000000E+00  0.00000000E+00
  0.00000000E+00  0.00000000E+00  0.00000000E+00
  0.00000000E+00  0.00000000E+00  0.00000000E+00
  0.00000000E+00  0.00000000E+00  0.00000000E+00
  0.00000000E+00  0.00000000E+00  0.00000000E+00
  0.00000000E+00  0.00000000E+00  0.00000000E+00
  0.00000000E+00  0.00000000E+00  0.00000000E+00
  0.00000000E+00  0.00000000E+00  0.00000000E+00
  0.00000000E+00  0.00000000E+00  0.00000000E+00
  0.00000000E+00  0.00000000E+00  0.00000000E+00
  0.00000000E+00  0.00000000E+00  0.00000000E+00
  0.00000000E+00  0.00000000E+00  0.00000000E+00
  0.00000000E+00  0.00000000E+00  0.00000000E+00
  0.00000000E+00  0.00000000E+00  0.00000000E+00
  0.00000000E+00  0.00000000E+00  0.00000000E+00
  0.00000000E+00  0.00000000E+00  0.00000000E+00
  0.00000000E+00  0.00000000E+00  0.00000000E+00
  0.00000000E+00  0.00000000E+00  0.00000000E+00
  0.00000000E+00  0.00000000E+00  0.00000000E+00
  0.00000000E+00  0.00000000E+00  0.00000000E+00
  0.00000000E+00  0.00000000E+00  0.00000000E+00
  0.00000000E+00  0.00000000E+00  0.00000000E+00
  0.00000000E+00  0.00000000E+00  0.00000000E+00
  0.00000000E+00  0.00000000E+00  0.00000000E+00
  0.00000000E+00  0.00000000E+00  0.00000000E+00
  0.00000000E+00  0.00000000E+00  0.00000000E+00
