 Fe8 S10                                
   1.00000000000000     
     7.8796409097040288    0.0000000000000000    0.0000000000000000
     0.0000000000000000    7.8758371737296367    0.0000000000000000
     0.0000000000000000    0.0000000000000000   17.5345995325560011
   Fe   S 
     8    10
Direct
  0.8871909513660480  0.2654545356076206  0.4949920099707752
  0.7774374286439731  0.5702886540449698  0.4958854265595943
  0.6921735844249074  0.8767341581516108  0.5048620868566696
  0.5829793291165711  0.1816904884191136  0.5055033526692766
  0.0826651437407909  0.6815671034176876  0.4949932685035835
  0.1923900045476313  0.3767335642968078  0.4958677169726420
  0.2778083530336816  0.0703066596947073  0.5048702177339086
  0.3869677394810446  0.7652508083831852  0.5055417497951802
  0.9849240989200622  0.4735175002773066  0.5664984734633636
  0.7830342771585276  0.0835866809498725  0.5757858980411908
  0.6871272500967101  0.3635815461870548  0.4246919453039793
  0.5959189301930742  0.6752288948543753  0.5746771636880796
  0.4849654755637818  0.9734726846284480  0.4341455575128002
  0.0963085042439881  0.1750790504969268  0.4260909440450431
  0.1869061924589328  0.8634467326616673  0.5758020389787408
  0.2827371094108259  0.5834545361424013  0.4246911625753503
  0.3740961005192165  0.2719278361737357  0.5745839221450346
  0.8735376097765661  0.7718365656124999  0.4260457781321327
 
  0.00000000E+00  0.00000000E+00  0.00000000E+00
  0.00000000E+00  0.00000000E+00  0.00000000E+00
  0.00000000E+00  0.00000000E+00  0.00000000E+00
  0.00000000E+00  0.00000000E+00  0.00000000E+00
  0.00000000E+00  0.00000000E+00  0.00000000E+00
  0.00000000E+00  0.00000000E+00  0.00000000E+00
  0.00000000E+00  0.00000000E+00  0.00000000E+00
  0.00000000E+00  0.00000000E+00  0.00000000E+00
  0.00000000E+00  0.00000000E+00  0.00000000E+00
  0.00000000E+00  0.00000000E+00  0.00000000E+00
  0.00000000E+00  0.00000000E+00  0.00000000E+00
  0.00000000E+00  0.00000000E+00  0.00000000E+00
  0.00000000E+00  0.00000000E+00  0.00000000E+00
  0.00000000E+00  0.00000000E+00  0.00000000E+00
  0.00000000E+00  0.00000000E+00  0.00000000E+00
  0.00000000E+00  0.00000000E+00  0.00000000E+00
  0.00000000E+00  0.00000000E+00  0.00000000E+00
  0.00000000E+00  0.00000000E+00  0.00000000E+00
