CONTCAR\(12)                            
   1.00000000000000     
    12.9137001038000001    0.0000000000000000    0.0000000000000000
     0.0000000000000000   12.9135999679999998    0.0000000000000000
     0.0000000000000000    0.0000000000000000   24.0200996398999997
   Er   Te   O 
    18    54     1
Direct
  0.1653598272748619  0.0026902718637745  0.5836483930632046
 -0.0003416753397647  0.1662734788107294  0.4148670899458882
  0.4991131105559498  0.9999032343246045  0.5855052814673243
  0.3326652822129557  0.1658863135365052  0.4153881965961905
  0.8331001616536146  0.9996427786258567  0.5841713588561107
  0.6662297998643560  0.1657966395783202  0.4150641325323971
  0.1681520639361360  0.3346349577691729  0.5852642828571148
  0.9991803984909161  0.4993263072051656  0.4153191514910636
  0.5001385789114371  0.3293465327567738  0.5839343750679622
  0.3330141782559097  0.4996459313606843  0.4169402107446137
  0.8361933559227256  0.3319126020132162  0.5836923726029847
  0.6657044568323262  0.4997653222970781  0.4165503507502711
  0.1628766315435872  0.6665294627510219  0.5839568858832116
  0.9991781525513905  0.8326408460420572  0.4151079237811063
  0.5008548599915846  0.6676642464658100  0.5883175469062834
  0.3331514510616008  0.8321519065421829  0.4163617314613933
  0.8332860615627611  0.6657896557942721  0.5856171462999709
  0.6659131678681554  0.8325355984080147  0.4161719177808479
  0.9994362267434641  0.9994437099648535  0.3124138304250068
  0.1692457110073688  0.1689073760403638  0.6875198893777046
  0.9985260056382017  0.0058245893474465  0.6868398680231466
  0.1661821893196381  0.1661546172006494  0.3124394168010214
  0.1664436539191994  0.9987910317218893  0.4536142801303444
  0.0009294112540031  0.1675032747744165  0.5453151354197314
  0.3326384894090350  0.9991226816693088  0.3130996942097887
  0.4999831568247980  0.1654450622906213  0.6883774168482735
  0.3334712760115601  0.0019971793743606  0.6876302977139017
  0.4990461308501271  0.1659027420330567  0.3127258722615477
  0.4994291900891412  0.9992053901796594  0.4544439919510777
  0.3331904746304701  0.1663791716474607  0.5463912599721484
  0.6658664332889613  0.9990233209755577  0.3129550501330254
  0.8388773651052016  0.1650901246122432  0.6866830834733545
  0.6674964490519179  0.0014482877297615  0.6875002581101822
  0.8326014160917056  0.1660279905441887  0.3122104862552974
  0.8328878780172738 -0.0003733345554949  0.4536800751837389
  0.6668116217177035  0.1649593175760221  0.5457173339078135
  0.9995147401625505  0.3329116871979950  0.3125058794191737
  0.1684358680552764  0.5052789935963610  0.6882412602882131
  0.0022751284120364  0.3358688972571259  0.6874456065131487
  0.1660252619172450  0.4993218533499763  0.3133011895839083
  0.1665289024318128  0.3332582640395557  0.4544211300759474
  0.9997677684124052  0.4997492188260558  0.5463388114642667
  0.3327617471841695  0.3330608765814964  0.3135308032657497
  0.5129606991371320  0.4954418590789919  0.6981428518385931
  0.3386722880937801  0.3354263994831177  0.6881743406578541
  0.4993956756262071  0.4996387649805982  0.3141074814177804
  0.4994951302758730  0.3321117162789199  0.4541337732639494
  0.3351231533642337  0.5015200931824678  0.5488215491902756
  0.6659631271293468  0.3328454928377119  0.3132008088807531
  0.8349838747079416  0.5002542535705646  0.6877641313937920
  0.6705222216967193  0.3294391477833172  0.6827007616914557
  0.8322682017313217  0.4995212873450253  0.3131093065216137
  0.8324453844308488  0.3332213108171435  0.4536176046404748
  0.6651778863469703  0.4998818775321371  0.5482769744808552
  0.9989747825361427  0.6657678545018145  0.3126137481021929
  0.1629143895922067  0.8369586822930180  0.6823836363313245
  0.9982314861582524  0.6668985858028180  0.6883873615367069
  0.1660906353808747  0.8326309163303415  0.3131753158793607
  0.1655568750726790  0.6657243049013207  0.4541190420918852
  0.9984354766910455  0.8332325352917770  0.5457268566678832
  0.3328319374450390  0.6658411267382598  0.3138897568653744
  0.5006359267949126  0.8355469023679041  0.6908170565584962
  0.3283114489451804  0.6795391908141361  0.6988323299437064
  0.4993287642048253  0.8324751023669500  0.3136703551759151
  0.4997224957473183  0.6661411924267858  0.4562128646356053
  0.3332170437847670  0.8318410068876138  0.5479228423307945
  0.6658761596803408  0.6662460421964100  0.3138487553575035
  0.8347619122766593  0.8346779452150563  0.6875365101709380
  0.6687974537585654  0.6677691264479647  0.6908592889802464
  0.8325551777426043  0.8328315078023031  0.3131350611023808
  0.8326470001443957  0.6659252506727203  0.4546726224780607
  0.6657759285475110  0.8324455201282077  0.5474416227628021
  0.4109853102605522  0.5768964158044990  0.7447661901559023
 
  0.00000000E+00  0.00000000E+00  0.00000000E+00
  0.00000000E+00  0.00000000E+00  0.00000000E+00
  0.00000000E+00  0.00000000E+00  0.00000000E+00
  0.00000000E+00  0.00000000E+00  0.00000000E+00
  0.00000000E+00  0.00000000E+00  0.00000000E+00
  0.00000000E+00  0.00000000E+00  0.00000000E+00
  0.00000000E+00  0.00000000E+00  0.00000000E+00
  0.00000000E+00  0.00000000E+00  0.00000000E+00
  0.00000000E+00  0.00000000E+00  0.00000000E+00
  0.00000000E+00  0.00000000E+00  0.00000000E+00
  0.00000000E+00  0.00000000E+00  0.00000000E+00
  0.00000000E+00  0.00000000E+00  0.00000000E+00
  0.00000000E+00  0.00000000E+00  0.00000000E+00
  0.00000000E+00  0.00000000E+00  0.00000000E+00
  0.00000000E+00  0.00000000E+00  0.00000000E+00
  0.00000000E+00  0.00000000E+00  0.00000000E+00
  0.00000000E+00  0.00000000E+00  0.00000000E+00
  0.00000000E+00  0.00000000E+00  0.00000000E+00
  0.00000000E+00  0.00000000E+00  0.00000000E+00
  0.00000000E+00  0.00000000E+00  0.00000000E+00
  0.00000000E+00  0.00000000E+00  0.00000000E+00
  0.00000000E+00  0.00000000E+00  0.00000000E+00
  0.00000000E+00  0.00000000E+00  0.00000000E+00
  0.00000000E+00  0.00000000E+00  0.00000000E+00
  0.00000000E+00  0.00000000E+00  0.00000000E+00
  0.00000000E+00  0.00000000E+00  0.00000000E+00
  0.00000000E+00  0.00000000E+00  0.00000000E+00
  0.00000000E+00  0.00000000E+00  0.00000000E+00
  0.00000000E+00  0.00000000E+00  0.00000000E+00
  0.00000000E+00  0.00000000E+00  0.00000000E+00
  0.00000000E+00  0.00000000E+00  0.00000000E+00
  0.00000000E+00  0.00000000E+00  0.00000000E+00
  0.00000000E+00  0.00000000E+00  0.00000000E+00
  0.00000000E+00  0.00000000E+00  0.00000000E+00
  0.00000000E+00  0.00000000E+00  0.00000000E+00
  0.00000000E+00  0.00000000E+00  0.00000000E+00
  0.00000000E+00  0.00000000E+00  0.00000000E+00
  0.00000000E+00  0.00000000E+00  0.00000000E+00
  0.00000000E+00  0.00000000E+00  0.00000000E+00
  0.00000000E+00  0.00000000E+00  0.00000000E+00
  0.00000000E+00  0.00000000E+00  0.00000000E+00
  0.00000000E+00  0.00000000E+00  0.00000000E+00
  0.00000000E+00  0.00000000E+00  0.00000000E+00
  0.00000000E+00  0.00000000E+00  0.00000000E+00
  0.00000000E+00  0.00000000E+00  0.00000000E+00
  0.00000000E+00  0.00000000E+00  0.00000000E+00
  0.00000000E+00  0.00000000E+00  0.00000000E+00
  0.00000000E+00  0.00000000E+00  0.00000000E+00
  0.00000000E+00  0.00000000E+00  0.00000000E+00
  0.00000000E+00  0.00000000E+00  0.00000000E+00
  0.00000000E+00  0.00000000E+00  0.00000000E+00
  0.00000000E+00  0.00000000E+00  0.00000000E+00
  0.00000000E+00  0.00000000E+00  0.00000000E+00
  0.00000000E+00  0.00000000E+00  0.00000000E+00
  0.00000000E+00  0.00000000E+00  0.00000000E+00
  0.00000000E+00  0.00000000E+00  0.00000000E+00
  0.00000000E+00  0.00000000E+00  0.00000000E+00
  0.00000000E+00  0.00000000E+00  0.00000000E+00
  0.00000000E+00  0.00000000E+00  0.00000000E+00
  0.00000000E+00  0.00000000E+00  0.00000000E+00
  0.00000000E+00  0.00000000E+00  0.00000000E+00
  0.00000000E+00  0.00000000E+00  0.00000000E+00
  0.00000000E+00  0.00000000E+00  0.00000000E+00
  0.00000000E+00  0.00000000E+00  0.00000000E+00
  0.00000000E+00  0.00000000E+00  0.00000000E+00
  0.00000000E+00  0.00000000E+00  0.00000000E+00
  0.00000000E+00  0.00000000E+00  0.00000000E+00
  0.00000000E+00  0.00000000E+00  0.00000000E+00
  0.00000000E+00  0.00000000E+00  0.00000000E+00
  0.00000000E+00  0.00000000E+00  0.00000000E+00
  0.00000000E+00  0.00000000E+00  0.00000000E+00
  0.00000000E+00  0.00000000E+00  0.00000000E+00
  0.00000000E+00  0.00000000E+00  0.00000000E+00
