CONTCAR\(3)                             
   1.00000000000000     
    12.3503999709999999    0.0000000000000000    0.0000000000000000
    -6.1751999854999999   10.6957601217999994    0.0000000000000000
     0.0000000000000000    0.0000000000000000   23.1849002838000011
   Ce   Si   I    O 
    18    18    18     1
Direct
  0.0000864660859140  0.0000432330429535  0.5836662138551405
  0.9997958802524076  0.9998979401262007  0.4169000661096878
  0.3323214582365291  0.0018380484130637  0.5838187859007815
  0.3332154170553068  0.9992129371466890  0.4180942731882875
  0.6694083386403255  0.0017844137973498  0.5839932205193986
  0.6661428349541708  0.9992353713506918  0.4177687149744505
  0.9982426030500606  0.3305279831970275  0.5839640427453071
  0.0006044080708480  0.3338636235644713  0.4177663619247197
  0.3323214592365328  0.3304834108234693  0.5838187859007815
  0.3332154180553104  0.3340024809086220  0.4180942731882875
  0.6665436398534031  0.3332667919267048  0.5833204110735486
  0.6666976459805011  0.3333437949902466  0.4169555590582051
  0.9982425770500656  0.6677146088530357  0.5839640427453071
  0.0006043820708530  0.6667407735063798  0.4177663619247197
  0.3334608674402479  0.6667354352201273  0.6039518686048494
  0.3333613340388623  0.6666856685194310  0.4180395866788200
  0.6694083136403207  0.6676238748429716  0.5839932205193986
  0.6661428099541652  0.6669074136034751  0.4177687149744505
  0.1108171534491431  0.2213433675547148  0.5022732380167781
  0.2229847704977655  0.1114923832488790  0.4982958477952992
  0.4454734667427307  0.2227367278713666  0.5021335871268721
  0.5548445592981279  0.1100258490419102  0.4984600526774193
  0.7770701048867521  0.2227191527832911  0.5022514734775897
  0.8885971450894080  0.1114264997912275  0.4983761238931256
  0.1129684486951791  0.5564892103475868  0.5060848345844656
  0.2217108255474718  0.4432250182133418  0.5001230847424443
  0.4434978916867664  0.5563480007802275  0.5060080994532510
  0.5548445732981291  0.4448087152562182  0.4984600526774193
  0.7770701368867547  0.5543509681034694  0.5022514734775897
  0.8898271336193199  0.4449085378096631  0.4984988794248521
  0.1108171174491401  0.8894737418944321  0.5022732380167781
  0.2217108085474669  0.7784857533341326  0.5001230847424443
  0.4434978616867639  0.8871598409065301  0.5060080994532510
  0.5566314072212942  0.7783156676106516  0.5001749274379711
  0.7786189348801402  0.8893094474400718  0.5024068176885540
  0.8885971420894113  0.7771705762981855  0.4983761238931256
  0.1117242055623030  0.2228873097822183  0.3243187498743986
  0.2229634994183357  0.1114817477091677  0.6765109765687957
  0.4430172543725880  0.2215086216862953  0.3247121160621925
  0.5552391994962008  0.1105703252557007  0.6764380972074341
  0.7782225943725271  0.2216830341362224  0.3244363800901541
  0.8886413672905055  0.1114348976198157  0.6765211366389935
  0.1114514942905307  0.5557307331452657  0.3248339416455542
  0.2001959062619570  0.4002009772808506  0.6779339063319257
  0.4441584267009822  0.5554797816299575  0.3248969454457721
  0.5552392134962020  0.4446588792405005  0.6764380972074341
  0.7782226263725297  0.5565395762363057  0.3244363800901541
  0.8893330947825333  0.4446615183912662  0.6764314083922139
  0.1117241695623000  0.8888368517800885  0.3243187498743986
  0.2001958892619521  0.7999948749811021  0.6779339063319257
  0.4441583967009726  0.8886885950710243  0.3248969454457721
  0.6000650316260128  0.8000324798130098  0.6780244524282184
  0.7773129708610913  0.8886564654305480  0.3240571157240120
  0.8886413642905088  0.7772064006706950  0.6765211366389935
  0.3336776380423857  0.6667988410211853  0.6837055825363156
 
  0.00000000E+00  0.00000000E+00  0.00000000E+00
  0.00000000E+00  0.00000000E+00  0.00000000E+00
  0.00000000E+00  0.00000000E+00  0.00000000E+00
  0.00000000E+00  0.00000000E+00  0.00000000E+00
  0.00000000E+00  0.00000000E+00  0.00000000E+00
  0.00000000E+00  0.00000000E+00  0.00000000E+00
  0.00000000E+00  0.00000000E+00  0.00000000E+00
  0.00000000E+00  0.00000000E+00  0.00000000E+00
  0.00000000E+00  0.00000000E+00  0.00000000E+00
  0.00000000E+00  0.00000000E+00  0.00000000E+00
  0.00000000E+00  0.00000000E+00  0.00000000E+00
  0.00000000E+00  0.00000000E+00  0.00000000E+00
  0.00000000E+00  0.00000000E+00  0.00000000E+00
  0.00000000E+00  0.00000000E+00  0.00000000E+00
  0.00000000E+00  0.00000000E+00  0.00000000E+00
  0.00000000E+00  0.00000000E+00  0.00000000E+00
  0.00000000E+00  0.00000000E+00  0.00000000E+00
  0.00000000E+00  0.00000000E+00  0.00000000E+00
  0.00000000E+00  0.00000000E+00  0.00000000E+00
  0.00000000E+00  0.00000000E+00  0.00000000E+00
  0.00000000E+00  0.00000000E+00  0.00000000E+00
  0.00000000E+00  0.00000000E+00  0.00000000E+00
  0.00000000E+00  0.00000000E+00  0.00000000E+00
  0.00000000E+00  0.00000000E+00  0.00000000E+00
  0.00000000E+00  0.00000000E+00  0.00000000E+00
  0.00000000E+00  0.00000000E+00  0.00000000E+00
  0.00000000E+00  0.00000000E+00  0.00000000E+00
  0.00000000E+00  0.00000000E+00  0.00000000E+00
  0.00000000E+00  0.00000000E+00  0.00000000E+00
  0.00000000E+00  0.00000000E+00  0.00000000E+00
  0.00000000E+00  0.00000000E+00  0.00000000E+00
  0.00000000E+00  0.00000000E+00  0.00000000E+00
  0.00000000E+00  0.00000000E+00  0.00000000E+00
  0.00000000E+00  0.00000000E+00  0.00000000E+00
  0.00000000E+00  0.00000000E+00  0.00000000E+00
  0.00000000E+00  0.00000000E+00  0.00000000E+00
  0.00000000E+00  0.00000000E+00  0.00000000E+00
  0.00000000E+00  0.00000000E+00  0.00000000E+00
  0.00000000E+00  0.00000000E+00  0.00000000E+00
  0.00000000E+00  0.00000000E+00  0.00000000E+00
  0.00000000E+00  0.00000000E+00  0.00000000E+00
  0.00000000E+00  0.00000000E+00  0.00000000E+00
  0.00000000E+00  0.00000000E+00  0.00000000E+00
  0.00000000E+00  0.00000000E+00  0.00000000E+00
  0.00000000E+00  0.00000000E+00  0.00000000E+00
  0.00000000E+00  0.00000000E+00  0.00000000E+00
  0.00000000E+00  0.00000000E+00  0.00000000E+00
  0.00000000E+00  0.00000000E+00  0.00000000E+00
  0.00000000E+00  0.00000000E+00  0.00000000E+00
  0.00000000E+00  0.00000000E+00  0.00000000E+00
  0.00000000E+00  0.00000000E+00  0.00000000E+00
  0.00000000E+00  0.00000000E+00  0.00000000E+00
  0.00000000E+00  0.00000000E+00  0.00000000E+00
  0.00000000E+00  0.00000000E+00  0.00000000E+00
  0.00000000E+00  0.00000000E+00  0.00000000E+00
