CONTCAR\(2)                             
   1.00000000000000     
    13.2992000580000003    0.0000000000000000    0.0000000000000000
    -6.6496130274000000   11.5161678841999997    0.0000000000000000
     0.0000000000000000    0.0000000000000000   36.9292984009000023
   Bi   Te   O 
    54    54     1
Selective dynamics
Direct
  0.1144314096024814  0.2234751532432497  0.6381335691227434   F   F   F
  0.2222090378842765  0.1114046992513664  0.3624429492445174   F   F   F
  0.3338925083495567  0.3337666920265576  0.2528581573152948   F   F   F
  0.3362846613841342  0.3363896503716859  0.7474961985341366   F   F   F
  0.2230320437916333  0.1116190783425282  0.5227845496657935   F   F   F
  0.1119882789792968  0.2228871139546840  0.4774154557959776   F   F   F
  0.4474851207845205  0.2238473134049386  0.6374969117864353   F   F   F
  0.5557833447792859  0.1113138435789267  0.3627890658132813   F   F   F
  0.6665789375059248  0.3333081499343393  0.2530650194476607   F   F   F
  0.6655708129365792  0.3330596614445014  0.7469837543837343   F   F   F
  0.5569041979140223  0.1127723016659701  0.5226138179492281   F   F   F
  0.4451902212238039  0.2233019832853174  0.4772243111468981   F   F   F
  0.7797442095337956  0.2226954023583190  0.6376711569917930   F   F   F
  0.8892713958256806  0.1115035337116907  0.3624295291646931   F   F   F
  0.9998176049284453  0.3340674001355666  0.2528863649289761   F   F   F
  0.9941689458520102  0.3289430901557253  0.7473594404912944   F   F   F
  0.8906121797930737  0.1123310496507415  0.5231693142522289   F   F   F
  0.7795761478105092  0.2235772661557576  0.4774932213751555   F   F   F
  0.1133187600502907  0.5566386873413194  0.6388055217974014   F   F   F
  0.2225940943312992  0.4452060519246714  0.3627280077281014   F   F   F
  0.3332962991007307  0.6666551631799322  0.2531245625449330   F   F   F
  0.3465694133308972  0.6709092745483289  0.7513172351046009   F   F   F
  0.2231171969935133  0.4449382898214509  0.5229875225192728   F   F   F
  0.1128871482534635  0.5569260208375013  0.4775625432380224   F   F   F
  0.4446471206009051  0.5563935409037981  0.6379684778912633   F   F   F
  0.5555466370028768  0.4451126463457342  0.3627225399608420   F   F   F
  0.6657635003965368  0.6656383029440036  0.2528364411353436   F   F   F
  0.6735608447094847  0.6694803450365683  0.7464808326497518   F   F   F
  0.5561007573689523  0.4452406706067364  0.5228803575348451   F   F   F
  0.4456699848383678  0.5569389633055479  0.4776201438268899   F   F   F
  0.7796490636102646  0.5573587197814263  0.6377734963652202   F   F   F
  0.8894674013437509  0.4450579643829329  0.3627218528396128   F   F   F
  0.9998194664452598  0.6656652787234023  0.2528520339242490   F   F   F
  0.9991213533552781  0.6678101723006478  0.7467966839741820   F   F   F
  0.8908489743979686  0.4458454211697287  0.5229151928303821   F   F   F
  0.7786152688045007  0.5562989918446846  0.4775759198273235   F   F   F
  0.1165269861664413  0.8908686491107005  0.6384434409425168   F   F   F
  0.2221339166206491  0.7783417473430490  0.3626025479817798   F   F   F
  0.3342181693888904  0.0001201842628973  0.2528845396167085   F   F   F
  0.3362910963467343  0.0002174726079147  0.7475049095408650   F   F   F
  0.2233925149064859  0.7787764380882720  0.5230871383185871   F   F   F
  0.1118186557847451  0.8892624337764943  0.4775164566428458   F   F   F
  0.4474367485778998  0.8902834119270864  0.6378949323038086   F   F   F
  0.5563735517740724  0.7784459174466960  0.3625299670189648   F   F   F
  0.6657666905875033  0.0000895910565433  0.2528586488204070   F   F   F
  0.6699291933858191  0.0004519323072003  0.7464118999735163   F   F   F
  0.5568982090937453  0.7791144894160240  0.5231246381893655   F   F   F
  0.4458921085570964  0.8903484315285084  0.4775283824114283   F   F   F
  0.7814760821107285  0.8900308037779894  0.6373643059017411   F   F   F
  0.8890526001610155  0.7781726233615274  0.3624505740234056   F   F   F
  0.9999968877207124  0.0000236134275298  0.2535516214657889   F   F   F
  0.0054876617507915  0.0044281682582223  0.7475464625730126   F   F   F
  0.8901974814799800  0.7783614442676452  0.5231952952971213   F   F   F
  0.7794781645222315  0.8900844855901511  0.4777587109893986   F   F   F
  0.1133906419961477  0.2257961949107283  0.7938428186099955   F   F   F
  0.2222005063860735  0.1111567749597029  0.2071454383534146   F   F   F
  0.0003297210687947  0.0005981062900275  0.4092707691566417   F   F   F
  0.0040263132759222  0.0014902781969184  0.5911090980172702   F   F   F
  0.2271007762602437  0.1137379655939199  0.6926338341516640   F   F   F
  0.1116522675034801  0.2232776542740353  0.3081873658699195   F   F   F
  0.4453496533669039  0.2228885361906165  0.7935768495329967   F   F   F
  0.5559081399192110  0.1118604750105945  0.2065839020486706   F   F   F
  0.3332206824324047  0.0005920227934126  0.4094663565367540   F   F   F
  0.3368421357499471  0.0014346347636831  0.5908270484223763   F   F   F
  0.5573590413658209  0.1119635449790763  0.6920260797138198   F   F   F
  0.4451568483168487  0.2229444708853947  0.3082374765924456   F   F   F
  0.7751304419109388  0.2200378309947766  0.7935075968149690   F   F   F
  0.8890045803875992  0.1112458479611860  0.2071881702971012   F   F   F
  0.6676274084753828  0.0005887478395010  0.4094853617937346   F   F   F
  0.6686329609121984  0.0004778440452569  0.5908628364648010   F   F   F
  0.8908996052532316  0.1100440162659950  0.6915841019674005   F   F   F
  0.7778243473768569  0.2229391349517300  0.3082030725250320   F   F   F
  0.0588821629630871  0.5293625840045024  0.8009900363982396   F   F   F
  0.2224135004160743  0.4448741727994872  0.2069007896147141   F   F   F
  0.0002452139533204  0.3335168793121284  0.4094937197150585   F   F   F
  0.0027019566307516  0.3343891709556885  0.5914346212518069   F   F   F
  0.2232010013363563  0.4467655762447293  0.6934804947349491   F   F   F
  0.1114051467729027  0.5560281104650358  0.3083573317287076   F   F   F
  0.4584975562014648  0.5583888624754536  0.7940441018054401   F   F   F
  0.5557447745890300  0.4442291205508653  0.2065902345019239   F   F   F
  0.3333065013994485  0.3335050813568401  0.4094877092133231   F   F   F
  0.3351761671280116  0.3341541385268911  0.5909311288240815   F   F   F
  0.5572093157607512  0.4453571513890040  0.6921335441994501   F   F   F
  0.4446305507840833  0.5559984090409813  0.3083434707676602   F   F   F
  0.7799837743096489  0.5551539509358037  0.7935082336477350   F   F   F
  0.8883651221741999  0.4442586968930300  0.2065806987436574   F   F   F
  0.6670726622981533  0.3340533392740994  0.4094954614714794   F   F   F
  0.6693630265341355  0.3348679564099584  0.5908347421622437   F   F   F
  0.8891980301590792  0.4445420796897892  0.6920866643090591   F   F   F
  0.7778080868465835  0.5556519529686739  0.3081417275003702   F   F   F
  0.1133634529623677  0.8889140138407541  0.7935276752226983   F   F   F
  0.2224407826631776  0.7778138640338739  0.2069015409861450   F   F   F
  0.0002062116568240  0.6675287771248435  0.4094965215041952   F   F   F
  0.0029371027707370  0.6685023785246997  0.5915588433022236   F   F   F
  0.2255650062405934  0.7770328692229000  0.6932063194625186   F   F   F
  0.1115317430584071  0.8889361894540428  0.3081607179719938   F   F   F
  0.4546614219337854  0.8969661987598201  0.7941045848684212   F   F   F
  0.5553008322103281  0.7777813592377498  0.2068932873083114   F   F   F
  0.3339334900778752  0.6675456327384808  0.4094729709563296   F   F   F
  0.3341814495140198  0.6673353655360685  0.5912119705706900   F   F   F
  0.5589300300733555  0.7782785625016189  0.6919966450308621   F   F   F
  0.4447214720987347  0.8894287596527377  0.3083465793059688   F   F   F
  0.7814897294449281  0.8907924331686843  0.7929475921861311   F   F   F
  0.8889816767235672  0.7779525331810433  0.2071787823221598   F   F   F
  0.6674035039711015  0.6677212248865416  0.4094970890446064   F   F   F
  0.6669531241155155  0.6667180047074339  0.5909604836549889   F   F   F
  0.8934930113984407  0.7821315147595556  0.6914328252767703   F   F   F
  0.7776053551061324  0.8890769625939896  0.3081166373560364   F   F   F
  0.2271090450160926  0.6019911356508985  0.7977333955375957   T   T   T
 
  0.00000000E+00  0.00000000E+00  0.00000000E+00
  0.00000000E+00  0.00000000E+00  0.00000000E+00
  0.00000000E+00  0.00000000E+00  0.00000000E+00
  0.00000000E+00  0.00000000E+00  0.00000000E+00
  0.00000000E+00  0.00000000E+00  0.00000000E+00
  0.00000000E+00  0.00000000E+00  0.00000000E+00
  0.00000000E+00  0.00000000E+00  0.00000000E+00
  0.00000000E+00  0.00000000E+00  0.00000000E+00
  0.00000000E+00  0.00000000E+00  0.00000000E+00
  0.00000000E+00  0.00000000E+00  0.00000000E+00
  0.00000000E+00  0.00000000E+00  0.00000000E+00
  0.00000000E+00  0.00000000E+00  0.00000000E+00
  0.00000000E+00  0.00000000E+00  0.00000000E+00
  0.00000000E+00  0.00000000E+00  0.00000000E+00
  0.00000000E+00  0.00000000E+00  0.00000000E+00
  0.00000000E+00  0.00000000E+00  0.00000000E+00
  0.00000000E+00  0.00000000E+00  0.00000000E+00
  0.00000000E+00  0.00000000E+00  0.00000000E+00
  0.00000000E+00  0.00000000E+00  0.00000000E+00
  0.00000000E+00  0.00000000E+00  0.00000000E+00
  0.00000000E+00  0.00000000E+00  0.00000000E+00
  0.00000000E+00  0.00000000E+00  0.00000000E+00
  0.00000000E+00  0.00000000E+00  0.00000000E+00
  0.00000000E+00  0.00000000E+00  0.00000000E+00
  0.00000000E+00  0.00000000E+00  0.00000000E+00
  0.00000000E+00  0.00000000E+00  0.00000000E+00
  0.00000000E+00  0.00000000E+00  0.00000000E+00
  0.00000000E+00  0.00000000E+00  0.00000000E+00
  0.00000000E+00  0.00000000E+00  0.00000000E+00
  0.00000000E+00  0.00000000E+00  0.00000000E+00
  0.00000000E+00  0.00000000E+00  0.00000000E+00
  0.00000000E+00  0.00000000E+00  0.00000000E+00
  0.00000000E+00  0.00000000E+00  0.00000000E+00
  0.00000000E+00  0.00000000E+00  0.00000000E+00
  0.00000000E+00  0.00000000E+00  0.00000000E+00
  0.00000000E+00  0.00000000E+00  0.00000000E+00
  0.00000000E+00  0.00000000E+00  0.00000000E+00
  0.00000000E+00  0.00000000E+00  0.00000000E+00
  0.00000000E+00  0.00000000E+00  0.00000000E+00
  0.00000000E+00  0.00000000E+00  0.00000000E+00
  0.00000000E+00  0.00000000E+00  0.00000000E+00
  0.00000000E+00  0.00000000E+00  0.00000000E+00
  0.00000000E+00  0.00000000E+00  0.00000000E+00
  0.00000000E+00  0.00000000E+00  0.00000000E+00
  0.00000000E+00  0.00000000E+00  0.00000000E+00
  0.00000000E+00  0.00000000E+00  0.00000000E+00
  0.00000000E+00  0.00000000E+00  0.00000000E+00
  0.00000000E+00  0.00000000E+00  0.00000000E+00
  0.00000000E+00  0.00000000E+00  0.00000000E+00
  0.00000000E+00  0.00000000E+00  0.00000000E+00
  0.00000000E+00  0.00000000E+00  0.00000000E+00
  0.00000000E+00  0.00000000E+00  0.00000000E+00
  0.00000000E+00  0.00000000E+00  0.00000000E+00
  0.00000000E+00  0.00000000E+00  0.00000000E+00
  0.00000000E+00  0.00000000E+00  0.00000000E+00
  0.00000000E+00  0.00000000E+00  0.00000000E+00
  0.00000000E+00  0.00000000E+00  0.00000000E+00
  0.00000000E+00  0.00000000E+00  0.00000000E+00
  0.00000000E+00  0.00000000E+00  0.00000000E+00
  0.00000000E+00  0.00000000E+00  0.00000000E+00
  0.00000000E+00  0.00000000E+00  0.00000000E+00
  0.00000000E+00  0.00000000E+00  0.00000000E+00
  0.00000000E+00  0.00000000E+00  0.00000000E+00
  0.00000000E+00  0.00000000E+00  0.00000000E+00
  0.00000000E+00  0.00000000E+00  0.00000000E+00
  0.00000000E+00  0.00000000E+00  0.00000000E+00
  0.00000000E+00  0.00000000E+00  0.00000000E+00
  0.00000000E+00  0.00000000E+00  0.00000000E+00
  0.00000000E+00  0.00000000E+00  0.00000000E+00
  0.00000000E+00  0.00000000E+00  0.00000000E+00
  0.00000000E+00  0.00000000E+00  0.00000000E+00
  0.00000000E+00  0.00000000E+00  0.00000000E+00
  0.00000000E+00  0.00000000E+00  0.00000000E+00
  0.00000000E+00  0.00000000E+00  0.00000000E+00
  0.00000000E+00  0.00000000E+00  0.00000000E+00
  0.00000000E+00  0.00000000E+00  0.00000000E+00
  0.00000000E+00  0.00000000E+00  0.00000000E+00
  0.00000000E+00  0.00000000E+00  0.00000000E+00
  0.00000000E+00  0.00000000E+00  0.00000000E+00
  0.00000000E+00  0.00000000E+00  0.00000000E+00
  0.00000000E+00  0.00000000E+00  0.00000000E+00
  0.00000000E+00  0.00000000E+00  0.00000000E+00
  0.00000000E+00  0.00000000E+00  0.00000000E+00
  0.00000000E+00  0.00000000E+00  0.00000000E+00
  0.00000000E+00  0.00000000E+00  0.00000000E+00
  0.00000000E+00  0.00000000E+00  0.00000000E+00
  0.00000000E+00  0.00000000E+00  0.00000000E+00
  0.00000000E+00  0.00000000E+00  0.00000000E+00
  0.00000000E+00  0.00000000E+00  0.00000000E+00
  0.00000000E+00  0.00000000E+00  0.00000000E+00
  0.00000000E+00  0.00000000E+00  0.00000000E+00
  0.00000000E+00  0.00000000E+00  0.00000000E+00
  0.00000000E+00  0.00000000E+00  0.00000000E+00
  0.00000000E+00  0.00000000E+00  0.00000000E+00
  0.00000000E+00  0.00000000E+00  0.00000000E+00
  0.00000000E+00  0.00000000E+00  0.00000000E+00
  0.00000000E+00  0.00000000E+00  0.00000000E+00
  0.00000000E+00  0.00000000E+00  0.00000000E+00
  0.00000000E+00  0.00000000E+00  0.00000000E+00
  0.00000000E+00  0.00000000E+00  0.00000000E+00
  0.00000000E+00  0.00000000E+00  0.00000000E+00
  0.00000000E+00  0.00000000E+00  0.00000000E+00
  0.00000000E+00  0.00000000E+00  0.00000000E+00
  0.00000000E+00  0.00000000E+00  0.00000000E+00
  0.00000000E+00  0.00000000E+00  0.00000000E+00
  0.00000000E+00  0.00000000E+00  0.00000000E+00
  0.00000000E+00  0.00000000E+00  0.00000000E+00
  0.00000000E+00  0.00000000E+00  0.00000000E+00
  0.00000000E+00  0.00000000E+00  0.00000000E+00
