CONTCAR\(2)                             
   1.00000000000000     
    11.3408002853000003    0.0000000000000000    0.0000000000000000
    -5.6704001427000001    9.8214211463000005    0.0000000000000000
     0.0000000000000000    0.0000000000000000   18.2716007233000006
   Si   Te   O    H 
     9    18     1     1
Selective dynamics
Direct
  0.9969294819070882  0.9949574722932084  0.4999118910523492   F   F   F
  0.3309899245873922  0.9985157742565605  0.4963275723098022   F   F   F
  0.6646827682192651  0.9935191396641798  0.5003561463928534   F   F   F
  0.9967363507910960  0.3266578903743067  0.5001008815175112   F   F   F
  0.3309617918879155  0.3263186184227251  0.5087809780066692   F   F   F
  0.6650038967506617  0.3247419483330987  0.5056764879782989   F   F   F
  0.9917309954985143  0.6597919715138048  0.4971614672721429   F   F   F
  0.3171517832387707  0.6736217517757837  0.4840723980443826   F   F   F
  0.6667511844845109  0.6599410188169514  0.5101042374717721   F   F   F
  0.1041920194696004  0.2130457160036201  0.5919428094348049   F   F   F
  0.2216246358494729  0.1139424901651509  0.4120627496443205   F   F   F
  0.4391491323713979  0.2039930446552631  0.5932292515580428   F   F   F
  0.5535016631442744  0.1051047727187253  0.4112986328775960   F   F   F
  0.7769624143064462  0.2135573819838328  0.5913509598575288   F   F   F
  0.8855159825803440  0.1057033837754773  0.4112545192443946   F   F   F
  0.1134433491361406  0.5545009264620901  0.5851264429069545   F   F   F
  0.2249725549568211  0.4356754889631489  0.4138233077719136   F   F   F
  0.4375231496203114  0.5529127241279852  0.6017604708459530   F   F   F
  0.5538433940001894  0.4389695324321607  0.4201699317220999   F   F   F
  0.7858443967806750  0.5501196289406707  0.5941628364036333   F   F   F
  0.8846267686307812  0.4377659541674177  0.4115864881052786   F   F   F
  0.1100333519094008  0.8818762581337367  0.5854903052179665   F   F   F
  0.2117653000291924  0.7785441115432263  0.4011565169143196   F   F   F
  0.4370796596349606  0.8769481731936182  0.5853351368464814   F   F   F
  0.5556331581498029  0.7641475817889187  0.4146452555291873   F   F   F
  0.7794696560692955  0.8870571041350743  0.5924262742036674   F   F   F
  0.8787126215667982  0.7708151470740603  0.4123221728092616   F   F   F
  0.5102424620195620  0.4687459920404251  0.6750447708579514   T   T   T
  0.4721058874093130  0.4706584092448266  0.7220181470675179   T   T   T
 
  0.00000000E+00  0.00000000E+00  0.00000000E+00
  0.00000000E+00  0.00000000E+00  0.00000000E+00
  0.00000000E+00  0.00000000E+00  0.00000000E+00
  0.00000000E+00  0.00000000E+00  0.00000000E+00
  0.00000000E+00  0.00000000E+00  0.00000000E+00
  0.00000000E+00  0.00000000E+00  0.00000000E+00
  0.00000000E+00  0.00000000E+00  0.00000000E+00
  0.00000000E+00  0.00000000E+00  0.00000000E+00
  0.00000000E+00  0.00000000E+00  0.00000000E+00
  0.00000000E+00  0.00000000E+00  0.00000000E+00
  0.00000000E+00  0.00000000E+00  0.00000000E+00
  0.00000000E+00  0.00000000E+00  0.00000000E+00
  0.00000000E+00  0.00000000E+00  0.00000000E+00
  0.00000000E+00  0.00000000E+00  0.00000000E+00
  0.00000000E+00  0.00000000E+00  0.00000000E+00
  0.00000000E+00  0.00000000E+00  0.00000000E+00
  0.00000000E+00  0.00000000E+00  0.00000000E+00
  0.00000000E+00  0.00000000E+00  0.00000000E+00
  0.00000000E+00  0.00000000E+00  0.00000000E+00
  0.00000000E+00  0.00000000E+00  0.00000000E+00
  0.00000000E+00  0.00000000E+00  0.00000000E+00
  0.00000000E+00  0.00000000E+00  0.00000000E+00
  0.00000000E+00  0.00000000E+00  0.00000000E+00
  0.00000000E+00  0.00000000E+00  0.00000000E+00
  0.00000000E+00  0.00000000E+00  0.00000000E+00
  0.00000000E+00  0.00000000E+00  0.00000000E+00
  0.00000000E+00  0.00000000E+00  0.00000000E+00
  0.00000000E+00  0.00000000E+00  0.00000000E+00
  0.00000000E+00  0.00000000E+00  0.00000000E+00
