 Nb4 Te6                                
   1.00000000000000     
     3.5421028376465027    0.0000000000000000    0.0000000000000000
     0.0000000000000000   10.2649321599320533    0.0000000000000000
     0.0000000000000000    0.0000000000000000   19.1020764163080017
   Nb   Te
     4     6
Direct
  0.2500796331528292  0.2713299410252858  0.5487911292766654
  0.7500807321830649  0.1511691097128605  0.4512424756697371
  0.2500988430303011  0.5875549939688938  0.4987083401672407
  0.7500964751356634  0.8350792763999877  0.5012636625027582
  0.7500958322047140  0.6570525513324768  0.3924940354678625
  0.2500668156499373  0.3476763165056909  0.4095152614285453
  0.7500772771216688  0.4638160872765340  0.5994585418292928
  0.2500876721836036  0.9587263780299580  0.4004968322626397
  0.2500910012566706  0.7656462499601062  0.6074947943319131
  0.7500641517298803  0.0747740957882144  0.5905349270633380
 
  0.00000000E+00  0.00000000E+00  0.00000000E+00
  0.00000000E+00  0.00000000E+00  0.00000000E+00
  0.00000000E+00  0.00000000E+00  0.00000000E+00
  0.00000000E+00  0.00000000E+00  0.00000000E+00
  0.00000000E+00  0.00000000E+00  0.00000000E+00
  0.00000000E+00  0.00000000E+00  0.00000000E+00
  0.00000000E+00  0.00000000E+00  0.00000000E+00
  0.00000000E+00  0.00000000E+00  0.00000000E+00
  0.00000000E+00  0.00000000E+00  0.00000000E+00
  0.00000000E+00  0.00000000E+00  0.00000000E+00
