G   56   19    1    0.005     # Parameters to Generate KPOINTS (Don't Edit This Line)
     533
Reciprocal lattice
    0.000000000000    0.000000000000    0.000000000000       1
    0.017857142857    0.000000000000    0.000000000000       2
    0.035714285714    0.000000000000    0.000000000000       2
    0.053571428571    0.000000000000    0.000000000000       2
    0.071428571429    0.000000000000    0.000000000000       2
    0.089285714286    0.000000000000    0.000000000000       2
    0.107142857143    0.000000000000    0.000000000000       2
    0.125000000000    0.000000000000    0.000000000000       2
    0.142857142857    0.000000000000    0.000000000000       2
    0.160714285714    0.000000000000    0.000000000000       2
    0.178571428571    0.000000000000    0.000000000000       2
    0.196428571429    0.000000000000    0.000000000000       2
    0.214285714286    0.000000000000    0.000000000000       2
    0.232142857143    0.000000000000    0.000000000000       2
    0.250000000000    0.000000000000    0.000000000000       2
    0.267857142857    0.000000000000    0.000000000000       2
    0.285714285714    0.000000000000    0.000000000000       2
    0.303571428571    0.000000000000    0.000000000000       2
    0.321428571429    0.000000000000    0.000000000000       2
    0.339285714286    0.000000000000    0.000000000000       2
    0.357142857143    0.000000000000    0.000000000000       2
    0.375000000000    0.000000000000    0.000000000000       2
    0.392857142857    0.000000000000    0.000000000000       2
    0.410714285714    0.000000000000    0.000000000000       2
    0.428571428571    0.000000000000    0.000000000000       2
    0.446428571429    0.000000000000    0.000000000000       2
    0.464285714286    0.000000000000    0.000000000000       2
    0.482142857143    0.000000000000    0.000000000000       2
    0.500000000000    0.000000000000    0.000000000000       1
    0.000000000000    0.052631578947    0.000000000000       2
    0.017857142857    0.052631578947    0.000000000000       2
    0.035714285714    0.052631578947    0.000000000000       2
    0.053571428571    0.052631578947    0.000000000000       2
    0.071428571429    0.052631578947    0.000000000000       2
    0.089285714286    0.052631578947    0.000000000000       2
    0.107142857143    0.052631578947    0.000000000000       2
    0.125000000000    0.052631578947    0.000000000000       2
    0.142857142857    0.052631578947    0.000000000000       2
    0.160714285714    0.052631578947    0.000000000000       2
    0.178571428571    0.052631578947    0.000000000000       2
    0.196428571429    0.052631578947    0.000000000000       2
    0.214285714286    0.052631578947    0.000000000000       2
    0.232142857143    0.052631578947    0.000000000000       2
    0.250000000000    0.052631578947    0.000000000000       2
    0.267857142857    0.052631578947    0.000000000000       2
    0.285714285714    0.052631578947    0.000000000000       2
    0.303571428571    0.052631578947    0.000000000000       2
    0.321428571429    0.052631578947    0.000000000000       2
    0.339285714286    0.052631578947    0.000000000000       2
    0.357142857143    0.052631578947    0.000000000000       2
    0.375000000000    0.052631578947    0.000000000000       2
    0.392857142857    0.052631578947    0.000000000000       2
    0.410714285714    0.052631578947    0.000000000000       2
    0.428571428571    0.052631578947    0.000000000000       2
    0.446428571429    0.052631578947    0.000000000000       2
    0.464285714286    0.052631578947    0.000000000000       2
    0.482142857143    0.052631578947    0.000000000000       2
    0.500000000000    0.052631578947    0.000000000000       2
   -0.482142857143    0.052631578947    0.000000000000       2
   -0.464285714286    0.052631578947    0.000000000000       2
   -0.446428571429    0.052631578947    0.000000000000       2
   -0.428571428571    0.052631578947    0.000000000000       2
   -0.410714285714    0.052631578947    0.000000000000       2
   -0.392857142857    0.052631578947    0.000000000000       2
   -0.375000000000    0.052631578947    0.000000000000       2
   -0.357142857143    0.052631578947    0.000000000000       2
   -0.339285714286    0.052631578947    0.000000000000       2
   -0.321428571429    0.052631578947    0.000000000000       2
   -0.303571428571    0.052631578947    0.000000000000       2
   -0.285714285714    0.052631578947    0.000000000000       2
   -0.267857142857    0.052631578947    0.000000000000       2
   -0.250000000000    0.052631578947    0.000000000000       2
   -0.232142857143    0.052631578947    0.000000000000       2
   -0.214285714286    0.052631578947    0.000000000000       2
   -0.196428571429    0.052631578947    0.000000000000       2
   -0.178571428571    0.052631578947    0.000000000000       2
   -0.160714285714    0.052631578947    0.000000000000       2
   -0.142857142857    0.052631578947    0.000000000000       2
   -0.125000000000    0.052631578947    0.000000000000       2
   -0.107142857143    0.052631578947    0.000000000000       2
   -0.089285714286    0.052631578947    0.000000000000       2
   -0.071428571429    0.052631578947    0.000000000000       2
   -0.053571428571    0.052631578947    0.000000000000       2
   -0.035714285714    0.052631578947    0.000000000000       2
   -0.017857142857    0.052631578947    0.000000000000       2
    0.000000000000    0.105263157895    0.000000000000       2
    0.017857142857    0.105263157895    0.000000000000       2
    0.035714285714    0.105263157895    0.000000000000       2
    0.053571428571    0.105263157895    0.000000000000       2
    0.071428571429    0.105263157895    0.000000000000       2
    0.089285714286    0.105263157895    0.000000000000       2
    0.107142857143    0.105263157895    0.000000000000       2
    0.125000000000    0.105263157895    0.000000000000       2
    0.142857142857    0.105263157895    0.000000000000       2
    0.160714285714    0.105263157895    0.000000000000       2
    0.178571428571    0.105263157895    0.000000000000       2
    0.196428571429    0.105263157895    0.000000000000       2
    0.214285714286    0.105263157895    0.000000000000       2
    0.232142857143    0.105263157895    0.000000000000       2
    0.250000000000    0.105263157895    0.000000000000       2
    0.267857142857    0.105263157895    0.000000000000       2
    0.285714285714    0.105263157895    0.000000000000       2
    0.303571428571    0.105263157895    0.000000000000       2
    0.321428571429    0.105263157895    0.000000000000       2
    0.339285714286    0.105263157895    0.000000000000       2
    0.357142857143    0.105263157895    0.000000000000       2
    0.375000000000    0.105263157895    0.000000000000       2
    0.392857142857    0.105263157895    0.000000000000       2
    0.410714285714    0.105263157895    0.000000000000       2
    0.428571428571    0.105263157895    0.000000000000       2
    0.446428571429    0.105263157895    0.000000000000       2
    0.464285714286    0.105263157895    0.000000000000       2
    0.482142857143    0.105263157895    0.000000000000       2
    0.500000000000    0.105263157895    0.000000000000       2
   -0.482142857143    0.105263157895    0.000000000000       2
   -0.464285714286    0.105263157895    0.000000000000       2
   -0.446428571429    0.105263157895    0.000000000000       2
   -0.428571428571    0.105263157895    0.000000000000       2
   -0.410714285714    0.105263157895    0.000000000000       2
   -0.392857142857    0.105263157895    0.000000000000       2
   -0.375000000000    0.105263157895    0.000000000000       2
   -0.357142857143    0.105263157895    0.000000000000       2
   -0.339285714286    0.105263157895    0.000000000000       2
   -0.321428571429    0.105263157895    0.000000000000       2
   -0.303571428571    0.105263157895    0.000000000000       2
   -0.285714285714    0.105263157895    0.000000000000       2
   -0.267857142857    0.105263157895    0.000000000000       2
   -0.250000000000    0.105263157895    0.000000000000       2
   -0.232142857143    0.105263157895    0.000000000000       2
   -0.214285714286    0.105263157895    0.000000000000       2
   -0.196428571429    0.105263157895    0.000000000000       2
   -0.178571428571    0.105263157895    0.000000000000       2
   -0.160714285714    0.105263157895    0.000000000000       2
   -0.142857142857    0.105263157895    0.000000000000       2
   -0.125000000000    0.105263157895    0.000000000000       2
   -0.107142857143    0.105263157895    0.000000000000       2
   -0.089285714286    0.105263157895    0.000000000000       2
   -0.071428571429    0.105263157895    0.000000000000       2
   -0.053571428571    0.105263157895    0.000000000000       2
   -0.035714285714    0.105263157895    0.000000000000       2
   -0.017857142857    0.105263157895    0.000000000000       2
    0.000000000000    0.157894736842    0.000000000000       2
    0.017857142857    0.157894736842    0.000000000000       2
    0.035714285714    0.157894736842    0.000000000000       2
    0.053571428571    0.157894736842    0.000000000000       2
    0.071428571429    0.157894736842    0.000000000000       2
    0.089285714286    0.157894736842    0.000000000000       2
    0.107142857143    0.157894736842    0.000000000000       2
    0.125000000000    0.157894736842    0.000000000000       2
    0.142857142857    0.157894736842    0.000000000000       2
    0.160714285714    0.157894736842    0.000000000000       2
    0.178571428571    0.157894736842    0.000000000000       2
    0.196428571429    0.157894736842    0.000000000000       2
    0.214285714286    0.157894736842    0.000000000000       2
    0.232142857143    0.157894736842    0.000000000000       2
    0.250000000000    0.157894736842    0.000000000000       2
    0.267857142857    0.157894736842    0.000000000000       2
    0.285714285714    0.157894736842    0.000000000000       2
    0.303571428571    0.157894736842    0.000000000000       2
    0.321428571429    0.157894736842    0.000000000000       2
    0.339285714286    0.157894736842    0.000000000000       2
    0.357142857143    0.157894736842    0.000000000000       2
    0.375000000000    0.157894736842    0.000000000000       2
    0.392857142857    0.157894736842    0.000000000000       2
    0.410714285714    0.157894736842    0.000000000000       2
    0.428571428571    0.157894736842    0.000000000000       2
    0.446428571429    0.157894736842    0.000000000000       2
    0.464285714286    0.157894736842    0.000000000000       2
    0.482142857143    0.157894736842    0.000000000000       2
    0.500000000000    0.157894736842    0.000000000000       2
   -0.482142857143    0.157894736842    0.000000000000       2
   -0.464285714286    0.157894736842    0.000000000000       2
   -0.446428571429    0.157894736842    0.000000000000       2
   -0.428571428571    0.157894736842    0.000000000000       2
   -0.410714285714    0.157894736842    0.000000000000       2
   -0.392857142857    0.157894736842    0.000000000000       2
   -0.375000000000    0.157894736842    0.000000000000       2
   -0.357142857143    0.157894736842    0.000000000000       2
   -0.339285714286    0.157894736842    0.000000000000       2
   -0.321428571429    0.157894736842    0.000000000000       2
   -0.303571428571    0.157894736842    0.000000000000       2
   -0.285714285714    0.157894736842    0.000000000000       2
   -0.267857142857    0.157894736842    0.000000000000       2
   -0.250000000000    0.157894736842    0.000000000000       2
   -0.232142857143    0.157894736842    0.000000000000       2
   -0.214285714286    0.157894736842    0.000000000000       2
   -0.196428571429    0.157894736842    0.000000000000       2
   -0.178571428571    0.157894736842    0.000000000000       2
   -0.160714285714    0.157894736842    0.000000000000       2
   -0.142857142857    0.157894736842    0.000000000000       2
   -0.125000000000    0.157894736842    0.000000000000       2
   -0.107142857143    0.157894736842    0.000000000000       2
   -0.089285714286    0.157894736842    0.000000000000       2
   -0.071428571429    0.157894736842    0.000000000000       2
   -0.053571428571    0.157894736842    0.000000000000       2
   -0.035714285714    0.157894736842    0.000000000000       2
   -0.017857142857    0.157894736842    0.000000000000       2
    0.000000000000    0.210526315789    0.000000000000       2
    0.017857142857    0.210526315789    0.000000000000       2
    0.035714285714    0.210526315789    0.000000000000       2
    0.053571428571    0.210526315789    0.000000000000       2
    0.071428571429    0.210526315789    0.000000000000       2
    0.089285714286    0.210526315789    0.000000000000       2
    0.107142857143    0.210526315789    0.000000000000       2
    0.125000000000    0.210526315789    0.000000000000       2
    0.142857142857    0.210526315789    0.000000000000       2
    0.160714285714    0.210526315789    0.000000000000       2
    0.178571428571    0.210526315789    0.000000000000       2
    0.196428571429    0.210526315789    0.000000000000       2
    0.214285714286    0.210526315789    0.000000000000       2
    0.232142857143    0.210526315789    0.000000000000       2
    0.250000000000    0.210526315789    0.000000000000       2
    0.267857142857    0.210526315789    0.000000000000       2
    0.285714285714    0.210526315789    0.000000000000       2
    0.303571428571    0.210526315789    0.000000000000       2
    0.321428571429    0.210526315789    0.000000000000       2
    0.339285714286    0.210526315789    0.000000000000       2
    0.357142857143    0.210526315789    0.000000000000       2
    0.375000000000    0.210526315789    0.000000000000       2
    0.392857142857    0.210526315789    0.000000000000       2
    0.410714285714    0.210526315789    0.000000000000       2
    0.428571428571    0.210526315789    0.000000000000       2
    0.446428571429    0.210526315789    0.000000000000       2
    0.464285714286    0.210526315789    0.000000000000       2
    0.482142857143    0.210526315789    0.000000000000       2
    0.500000000000    0.210526315789    0.000000000000       2
   -0.482142857143    0.210526315789    0.000000000000       2
   -0.464285714286    0.210526315789    0.000000000000       2
   -0.446428571429    0.210526315789    0.000000000000       2
   -0.428571428571    0.210526315789    0.000000000000       2
   -0.410714285714    0.210526315789    0.000000000000       2
   -0.392857142857    0.210526315789    0.000000000000       2
   -0.375000000000    0.210526315789    0.000000000000       2
   -0.357142857143    0.210526315789    0.000000000000       2
   -0.339285714286    0.210526315789    0.000000000000       2
   -0.321428571429    0.210526315789    0.000000000000       2
   -0.303571428571    0.210526315789    0.000000000000       2
   -0.285714285714    0.210526315789    0.000000000000       2
   -0.267857142857    0.210526315789    0.000000000000       2
   -0.250000000000    0.210526315789    0.000000000000       2
   -0.232142857143    0.210526315789    0.000000000000       2
   -0.214285714286    0.210526315789    0.000000000000       2
   -0.196428571429    0.210526315789    0.000000000000       2
   -0.178571428571    0.210526315789    0.000000000000       2
   -0.160714285714    0.210526315789    0.000000000000       2
   -0.142857142857    0.210526315789    0.000000000000       2
   -0.125000000000    0.210526315789    0.000000000000       2
   -0.107142857143    0.210526315789    0.000000000000       2
   -0.089285714286    0.210526315789    0.000000000000       2
   -0.071428571429    0.210526315789    0.000000000000       2
   -0.053571428571    0.210526315789    0.000000000000       2
   -0.035714285714    0.210526315789    0.000000000000       2
   -0.017857142857    0.210526315789    0.000000000000       2
    0.000000000000    0.263157894737    0.000000000000       2
    0.017857142857    0.263157894737    0.000000000000       2
    0.035714285714    0.263157894737    0.000000000000       2
    0.053571428571    0.263157894737    0.000000000000       2
    0.071428571429    0.263157894737    0.000000000000       2
    0.089285714286    0.263157894737    0.000000000000       2
    0.107142857143    0.263157894737    0.000000000000       2
    0.125000000000    0.263157894737    0.000000000000       2
    0.142857142857    0.263157894737    0.000000000000       2
    0.160714285714    0.263157894737    0.000000000000       2
    0.178571428571    0.263157894737    0.000000000000       2
    0.196428571429    0.263157894737    0.000000000000       2
    0.214285714286    0.263157894737    0.000000000000       2
    0.232142857143    0.263157894737    0.000000000000       2
    0.250000000000    0.263157894737    0.000000000000       2
    0.267857142857    0.263157894737    0.000000000000       2
    0.285714285714    0.263157894737    0.000000000000       2
    0.303571428571    0.263157894737    0.000000000000       2
    0.321428571429    0.263157894737    0.000000000000       2
    0.339285714286    0.263157894737    0.000000000000       2
    0.357142857143    0.263157894737    0.000000000000       2
    0.375000000000    0.263157894737    0.000000000000       2
    0.392857142857    0.263157894737    0.000000000000       2
    0.410714285714    0.263157894737    0.000000000000       2
    0.428571428571    0.263157894737    0.000000000000       2
    0.446428571429    0.263157894737    0.000000000000       2
    0.464285714286    0.263157894737    0.000000000000       2
    0.482142857143    0.263157894737    0.000000000000       2
    0.500000000000    0.263157894737    0.000000000000       2
   -0.482142857143    0.263157894737    0.000000000000       2
   -0.464285714286    0.263157894737    0.000000000000       2
   -0.446428571429    0.263157894737    0.000000000000       2
   -0.428571428571    0.263157894737    0.000000000000       2
   -0.410714285714    0.263157894737    0.000000000000       2
   -0.392857142857    0.263157894737    0.000000000000       2
   -0.375000000000    0.263157894737    0.000000000000       2
   -0.357142857143    0.263157894737    0.000000000000       2
   -0.339285714286    0.263157894737    0.000000000000       2
   -0.321428571429    0.263157894737    0.000000000000       2
   -0.303571428571    0.263157894737    0.000000000000       2
   -0.285714285714    0.263157894737    0.000000000000       2
   -0.267857142857    0.263157894737    0.000000000000       2
   -0.250000000000    0.263157894737    0.000000000000       2
   -0.232142857143    0.263157894737    0.000000000000       2
   -0.214285714286    0.263157894737    0.000000000000       2
   -0.196428571429    0.263157894737    0.000000000000       2
   -0.178571428571    0.263157894737    0.000000000000       2
   -0.160714285714    0.263157894737    0.000000000000       2
   -0.142857142857    0.263157894737    0.000000000000       2
   -0.125000000000    0.263157894737    0.000000000000       2
   -0.107142857143    0.263157894737    0.000000000000       2
   -0.089285714286    0.263157894737    0.000000000000       2
   -0.071428571429    0.263157894737    0.000000000000       2
   -0.053571428571    0.263157894737    0.000000000000       2
   -0.035714285714    0.263157894737    0.000000000000       2
   -0.017857142857    0.263157894737    0.000000000000       2
    0.000000000000    0.315789473684    0.000000000000       2
    0.017857142857    0.315789473684    0.000000000000       2
    0.035714285714    0.315789473684    0.000000000000       2
    0.053571428571    0.315789473684    0.000000000000       2
    0.071428571429    0.315789473684    0.000000000000       2
    0.089285714286    0.315789473684    0.000000000000       2
    0.107142857143    0.315789473684    0.000000000000       2
    0.125000000000    0.315789473684    0.000000000000       2
    0.142857142857    0.315789473684    0.000000000000       2
    0.160714285714    0.315789473684    0.000000000000       2
    0.178571428571    0.315789473684    0.000000000000       2
    0.196428571429    0.315789473684    0.000000000000       2
    0.214285714286    0.315789473684    0.000000000000       2
    0.232142857143    0.315789473684    0.000000000000       2
    0.250000000000    0.315789473684    0.000000000000       2
    0.267857142857    0.315789473684    0.000000000000       2
    0.285714285714    0.315789473684    0.000000000000       2
    0.303571428571    0.315789473684    0.000000000000       2
    0.321428571429    0.315789473684    0.000000000000       2
    0.339285714286    0.315789473684    0.000000000000       2
    0.357142857143    0.315789473684    0.000000000000       2
    0.375000000000    0.315789473684    0.000000000000       2
    0.392857142857    0.315789473684    0.000000000000       2
    0.410714285714    0.315789473684    0.000000000000       2
    0.428571428571    0.315789473684    0.000000000000       2
    0.446428571429    0.315789473684    0.000000000000       2
    0.464285714286    0.315789473684    0.000000000000       2
    0.482142857143    0.315789473684    0.000000000000       2
    0.500000000000    0.315789473684    0.000000000000       2
   -0.482142857143    0.315789473684    0.000000000000       2
   -0.464285714286    0.315789473684    0.000000000000       2
   -0.446428571429    0.315789473684    0.000000000000       2
   -0.428571428571    0.315789473684    0.000000000000       2
   -0.410714285714    0.315789473684    0.000000000000       2
   -0.392857142857    0.315789473684    0.000000000000       2
   -0.375000000000    0.315789473684    0.000000000000       2
   -0.357142857143    0.315789473684    0.000000000000       2
   -0.339285714286    0.315789473684    0.000000000000       2
   -0.321428571429    0.315789473684    0.000000000000       2
   -0.303571428571    0.315789473684    0.000000000000       2
   -0.285714285714    0.315789473684    0.000000000000       2
   -0.267857142857    0.315789473684    0.000000000000       2
   -0.250000000000    0.315789473684    0.000000000000       2
   -0.232142857143    0.315789473684    0.000000000000       2
   -0.214285714286    0.315789473684    0.000000000000       2
   -0.196428571429    0.315789473684    0.000000000000       2
   -0.178571428571    0.315789473684    0.000000000000       2
   -0.160714285714    0.315789473684    0.000000000000       2
   -0.142857142857    0.315789473684    0.000000000000       2
   -0.125000000000    0.315789473684    0.000000000000       2
   -0.107142857143    0.315789473684    0.000000000000       2
   -0.089285714286    0.315789473684    0.000000000000       2
   -0.071428571429    0.315789473684    0.000000000000       2
   -0.053571428571    0.315789473684    0.000000000000       2
   -0.035714285714    0.315789473684    0.000000000000       2
   -0.017857142857    0.315789473684    0.000000000000       2
    0.000000000000    0.368421052632    0.000000000000       2
    0.017857142857    0.368421052632    0.000000000000       2
    0.035714285714    0.368421052632    0.000000000000       2
    0.053571428571    0.368421052632    0.000000000000       2
    0.071428571429    0.368421052632    0.000000000000       2
    0.089285714286    0.368421052632    0.000000000000       2
    0.107142857143    0.368421052632    0.000000000000       2
    0.125000000000    0.368421052632    0.000000000000       2
    0.142857142857    0.368421052632    0.000000000000       2
    0.160714285714    0.368421052632    0.000000000000       2
    0.178571428571    0.368421052632    0.000000000000       2
    0.196428571429    0.368421052632    0.000000000000       2
    0.214285714286    0.368421052632    0.000000000000       2
    0.232142857143    0.368421052632    0.000000000000       2
    0.250000000000    0.368421052632    0.000000000000       2
    0.267857142857    0.368421052632    0.000000000000       2
    0.285714285714    0.368421052632    0.000000000000       2
    0.303571428571    0.368421052632    0.000000000000       2
    0.321428571429    0.368421052632    0.000000000000       2
    0.339285714286    0.368421052632    0.000000000000       2
    0.357142857143    0.368421052632    0.000000000000       2
    0.375000000000    0.368421052632    0.000000000000       2
    0.392857142857    0.368421052632    0.000000000000       2
    0.410714285714    0.368421052632    0.000000000000       2
    0.428571428571    0.368421052632    0.000000000000       2
    0.446428571429    0.368421052632    0.000000000000       2
    0.464285714286    0.368421052632    0.000000000000       2
    0.482142857143    0.368421052632    0.000000000000       2
    0.500000000000    0.368421052632    0.000000000000       2
   -0.482142857143    0.368421052632    0.000000000000       2
   -0.464285714286    0.368421052632    0.000000000000       2
   -0.446428571429    0.368421052632    0.000000000000       2
   -0.428571428571    0.368421052632    0.000000000000       2
   -0.410714285714    0.368421052632    0.000000000000       2
   -0.392857142857    0.368421052632    0.000000000000       2
   -0.375000000000    0.368421052632    0.000000000000       2
   -0.357142857143    0.368421052632    0.000000000000       2
   -0.339285714286    0.368421052632    0.000000000000       2
   -0.321428571429    0.368421052632    0.000000000000       2
   -0.303571428571    0.368421052632    0.000000000000       2
   -0.285714285714    0.368421052632    0.000000000000       2
   -0.267857142857    0.368421052632    0.000000000000       2
   -0.250000000000    0.368421052632    0.000000000000       2
   -0.232142857143    0.368421052632    0.000000000000       2
   -0.214285714286    0.368421052632    0.000000000000       2
   -0.196428571429    0.368421052632    0.000000000000       2
   -0.178571428571    0.368421052632    0.000000000000       2
   -0.160714285714    0.368421052632    0.000000000000       2
   -0.142857142857    0.368421052632    0.000000000000       2
   -0.125000000000    0.368421052632    0.000000000000       2
   -0.107142857143    0.368421052632    0.000000000000       2
   -0.089285714286    0.368421052632    0.000000000000       2
   -0.071428571429    0.368421052632    0.000000000000       2
   -0.053571428571    0.368421052632    0.000000000000       2
   -0.035714285714    0.368421052632    0.000000000000       2
   -0.017857142857    0.368421052632    0.000000000000       2
    0.000000000000    0.421052631579    0.000000000000       2
    0.017857142857    0.421052631579    0.000000000000       2
    0.035714285714    0.421052631579    0.000000000000       2
    0.053571428571    0.421052631579    0.000000000000       2
    0.071428571429    0.421052631579    0.000000000000       2
    0.089285714286    0.421052631579    0.000000000000       2
    0.107142857143    0.421052631579    0.000000000000       2
    0.125000000000    0.421052631579    0.000000000000       2
    0.142857142857    0.421052631579    0.000000000000       2
    0.160714285714    0.421052631579    0.000000000000       2
    0.178571428571    0.421052631579    0.000000000000       2
    0.196428571429    0.421052631579    0.000000000000       2
    0.214285714286    0.421052631579    0.000000000000       2
    0.232142857143    0.421052631579    0.000000000000       2
    0.250000000000    0.421052631579    0.000000000000       2
    0.267857142857    0.421052631579    0.000000000000       2
    0.285714285714    0.421052631579    0.000000000000       2
    0.303571428571    0.421052631579    0.000000000000       2
    0.321428571429    0.421052631579    0.000000000000       2
    0.339285714286    0.421052631579    0.000000000000       2
    0.357142857143    0.421052631579    0.000000000000       2
    0.375000000000    0.421052631579    0.000000000000       2
    0.392857142857    0.421052631579    0.000000000000       2
    0.410714285714    0.421052631579    0.000000000000       2
    0.428571428571    0.421052631579    0.000000000000       2
    0.446428571429    0.421052631579    0.000000000000       2
    0.464285714286    0.421052631579    0.000000000000       2
    0.482142857143    0.421052631579    0.000000000000       2
    0.500000000000    0.421052631579    0.000000000000       2
   -0.482142857143    0.421052631579    0.000000000000       2
   -0.464285714286    0.421052631579    0.000000000000       2
   -0.446428571429    0.421052631579    0.000000000000       2
   -0.428571428571    0.421052631579    0.000000000000       2
   -0.410714285714    0.421052631579    0.000000000000       2
   -0.392857142857    0.421052631579    0.000000000000       2
   -0.375000000000    0.421052631579    0.000000000000       2
   -0.357142857143    0.421052631579    0.000000000000       2
   -0.339285714286    0.421052631579    0.000000000000       2
   -0.321428571429    0.421052631579    0.000000000000       2
   -0.303571428571    0.421052631579    0.000000000000       2
   -0.285714285714    0.421052631579    0.000000000000       2
   -0.267857142857    0.421052631579    0.000000000000       2
   -0.250000000000    0.421052631579    0.000000000000       2
   -0.232142857143    0.421052631579    0.000000000000       2
   -0.214285714286    0.421052631579    0.000000000000       2
   -0.196428571429    0.421052631579    0.000000000000       2
   -0.178571428571    0.421052631579    0.000000000000       2
   -0.160714285714    0.421052631579    0.000000000000       2
   -0.142857142857    0.421052631579    0.000000000000       2
   -0.125000000000    0.421052631579    0.000000000000       2
   -0.107142857143    0.421052631579    0.000000000000       2
   -0.089285714286    0.421052631579    0.000000000000       2
   -0.071428571429    0.421052631579    0.000000000000       2