CONTCAR\(8)                             
   1.00000000000000     
    11.2503995895000006    0.0000000000000000    0.0000000000000000
     0.0000000000000000   11.4900999068999994    0.0000000000000000
     0.0000000000000000    0.0000000000000000   19.3134994507000002
   Cr   Te   O 
     8    24     1
Direct
  0.0049701011647492  0.6750837080377650  0.5066418981857619
  0.4881176806213129  0.8402342959209348  0.4967776343792298
  0.0049539818856896  0.3249205627970384  0.5066351149408288
  0.4880996596965634  0.1597772595964370  0.4967606000562508
  0.2817911638886773  0.5000157497600649  0.5128252491755327
  0.7709270963001353 -0.0000075287401355  0.4967696908263968
  0.6902812991837225  0.4999923753544049  0.4990797265368819
  0.2331440679343168  0.0000208094414302  0.5035348150245645
  0.9421298195229199  0.5000050007282366  0.5969933594162901
  0.4050492553875865 -0.0000016778349269  0.4061530330925968
  0.0930052425953516  0.5000028678195835  0.4249768273469035
  0.5870285905815736  0.0000341069670291  0.5855908126504782
  0.3312072015124548  0.1448799902955258  0.6001042477877194
  0.8220286249046737  0.3539908831512538  0.4173164980902773
  0.6698103519061482  0.8455960384094400  0.4047971535215416
  0.1808695879433873  0.6545740936040007  0.6017650445776466
  0.1808654475027663  0.3454438420440453  0.6017522762124700
  0.6697640933299225  0.1543561756830895  0.4047814280771009
  0.8221051984474009  0.6459523074583720  0.4173251445653034
  0.3312081263680852  0.8551359474502461  0.6001030667468045
  0.6045175603790297  0.3137475984649803  0.5738769099845884
  0.1181670969455430  0.1658619086174866  0.4252972743034746
  0.3700931747285351  0.6712269924076320  0.4267318107100380
  0.8813274692509728  0.8358740547219180  0.5798130523580770
  0.4483617470859607  0.5000066939045542  0.6113604017660511
  0.9343905463594261  0.0000295535790164  0.3952243978385167
  0.5428678067772451  0.5000207109904614  0.3899759995040813
  0.0691789455958664  0.0000043827528373  0.6070012280344472
  0.6045233255475313  0.6862543970790336  0.5738736701140791
  0.1181661119613465  0.8341495646175100  0.4253012976623561
  0.3700845226451275  0.3288445229819693  0.4267363110923374
  0.8813234460442967  0.1641189873869922  0.5798078814892492
  0.7685716870016667  0.4999937835517695  0.5836960499321253
 
  0.00000000E+00  0.00000000E+00  0.00000000E+00
  0.00000000E+00  0.00000000E+00  0.00000000E+00
  0.00000000E+00  0.00000000E+00  0.00000000E+00
  0.00000000E+00  0.00000000E+00  0.00000000E+00
  0.00000000E+00  0.00000000E+00  0.00000000E+00
  0.00000000E+00  0.00000000E+00  0.00000000E+00
  0.00000000E+00  0.00000000E+00  0.00000000E+00
  0.00000000E+00  0.00000000E+00  0.00000000E+00
  0.00000000E+00  0.00000000E+00  0.00000000E+00
  0.00000000E+00  0.00000000E+00  0.00000000E+00
  0.00000000E+00  0.00000000E+00  0.00000000E+00
  0.00000000E+00  0.00000000E+00  0.00000000E+00
  0.00000000E+00  0.00000000E+00  0.00000000E+00
  0.00000000E+00  0.00000000E+00  0.00000000E+00
  0.00000000E+00  0.00000000E+00  0.00000000E+00
  0.00000000E+00  0.00000000E+00  0.00000000E+00
  0.00000000E+00  0.00000000E+00  0.00000000E+00
  0.00000000E+00  0.00000000E+00  0.00000000E+00
  0.00000000E+00  0.00000000E+00  0.00000000E+00
  0.00000000E+00  0.00000000E+00  0.00000000E+00
  0.00000000E+00  0.00000000E+00  0.00000000E+00
  0.00000000E+00  0.00000000E+00  0.00000000E+00
  0.00000000E+00  0.00000000E+00  0.00000000E+00
  0.00000000E+00  0.00000000E+00  0.00000000E+00
  0.00000000E+00  0.00000000E+00  0.00000000E+00
  0.00000000E+00  0.00000000E+00  0.00000000E+00
  0.00000000E+00  0.00000000E+00  0.00000000E+00
  0.00000000E+00  0.00000000E+00  0.00000000E+00
  0.00000000E+00  0.00000000E+00  0.00000000E+00
  0.00000000E+00  0.00000000E+00  0.00000000E+00
  0.00000000E+00  0.00000000E+00  0.00000000E+00
  0.00000000E+00  0.00000000E+00  0.00000000E+00
  0.00000000E+00  0.00000000E+00  0.00000000E+00
