CONTCAR\(7)                             
   1.00000000000000     
    14.3322000503999991    0.0000000000000000    0.0000000000000000
    -4.3750203917999997    9.5392837112999995    0.0000000000000000
     0.0000000000000000    0.0000000000000000   23.1357002258000009
   Ag   Bi   F    O 
     6    12    72     1
Direct
  0.2822884944230454  0.4394491618856796  0.4894806591063295
  0.6035536449107997  0.4547359659019192  0.4993071622559210
  0.9436315778508900  0.4577341875568515  0.4993372586197778
  0.2643725599163370  0.9250300012214645  0.5036328365514903
  0.6272426026825927  0.9837423992375016  0.4892809662797353
  0.9453677913226626  0.9631070213289192  0.4987218733962134
  0.0487957991004513  0.2723316291871427  0.6157647225538970
  0.1805931706670452  0.1358382279038747  0.3836940118733151
  0.3670570545404592  0.2392793177841244  0.6130176458632529
  0.5069798371411601  0.1563714275321572  0.3771635255895389
  0.7123345119199355  0.2689056550868075  0.6168030856641231
  0.8539231032666638  0.1588466046050151  0.3767167348572177
  0.0259656823818949  0.7595706668651606  0.6197172784290613
  0.1782842426862827  0.6426740071727464  0.3780926543994533
  0.3975215568194779  0.7383323865061292  0.6102970690040237
  0.5212875177169343  0.6629721294081889  0.3800646745868151
  0.6985152570406515  0.7821091675111443  0.6163133640613738
  0.8465576315887837  0.6511792400119545  0.3829152028112606
  0.1629506572994073  0.2849592414070398  0.4408611104775667
  0.0474108554600952  0.1146096488512600  0.5586739822030429
  0.3279308134552282  0.2741048873117464  0.3870666237215253
  0.0481377722589967  0.4444732737598414  0.6519969654614604
  0.1900512270691065  0.4799084943134139  0.3394287718132472
  0.1919682108002238  0.3831912665620711  0.5821786247659796
  0.0305954925675458  0.0277586614172547  0.4058104525402260
  0.0070388121043435  0.3271426730652429  0.5321954750451396
  0.2026638788869776  0.0640535143891213  0.4667078835749497
  0.0971992348948367  0.2145730804698256  0.6879038864629730
  0.1478625680633794  0.2036463562971904  0.3093106726033339
  0.2146221597643722  0.1330165007665925  0.6155344965553445
  0.5054365182742938  0.3121468091454448  0.4338842723415688
  0.3724485568654092  0.0741887594811020  0.5622218571154747
  0.6499600236048465  0.2859806102852331  0.3544548375092171
  0.3695416342830439  0.4081163657873764  0.6550723685340879
  0.5339613451359848  0.5009012761092997  0.3410529841253364
  0.5155595347197369  0.3549357261526589  0.5895039078133962
  0.3748737944017814  0.0351463762583603  0.4203195599237729
  0.3448291682606789  0.3065811998573203  0.5288864269937676
  0.5715618758477515  0.1247419539784449  0.4580804040467830
  0.3958523220634435  0.1526144327261798  0.6836978243173620
  0.4379732530740972  0.1956850136289770  0.3088733188570134
  0.5642288202192690  0.1340865328578329  0.6207721327511991
  0.8413257893678184  0.3049799409705340  0.4361313104022821
  0.7277841502592816  0.1270791515131153  0.5558083453997945
  0.0054156312988026  0.2728049749299865  0.3755742684486611
  0.6934775371183750  0.4254536028846982  0.6569112205421279
  0.8548043401237877  0.4860862334812514  0.3445208039338788
  0.8616684255474509  0.3858704304484101  0.5949714478235963
  0.7021781031290425  0.0515412319579725  0.3955418579051829
  0.6880120320269644  0.3483325943842803  0.5351263552447771
  0.8695450239793872  0.0795198477360842  0.4614614110359239
  0.7521075978735761  0.2065147968019040  0.6908165030690614
  0.8246134923525912  0.2345637539878056  0.3033858576546555
  0.9000136245908039  0.1508008020261975  0.6299061603897212
  0.1667290699159161  0.7861456164176645  0.4405743413761943
  0.0441910291094960  0.6158424142063369  0.5613980314719453
  0.3249269066556665  0.7783809713763029  0.3685219511279756
  0.0138969798119267  0.9228023256818648  0.6582376505129053
  0.2018733250193061  0.9787990147230822  0.3460627973383558
  0.1801984142006544  0.8610759867609656  0.6108363775679836
  0.0328721981746335  0.5301599811539741  0.4080157307401525
  0.0214581882635248  0.8464626796073776  0.5359305076691615
  0.2165087497970241  0.5757424362256435  0.4593007399015701
  0.0379090868580341  0.6714078842384491  0.6940961134088297
  0.1293921344510398  0.7021094383464280  0.3066759627313091
  0.2861600451409599  0.6011982193832777  0.6596972828304989
  0.5102908370675390  0.8152164134344866  0.4364303705817197
  0.3900001379180199  0.5905802130939312  0.5468681509006251
  0.6726696437169105  0.7805453769970280  0.3848866744184718
  0.4340192987412968  0.8748219584193642  0.6762570941176276
  0.5170870440163018  0.9897291098798371  0.3412972508265212
  0.5025440041206068  0.8880247297301423  0.5589655623908710
  0.3704386682863332  0.5508365048957152  0.3987776745714834
  0.2943426718002266  0.7676086833885222  0.5537502440540237
  0.5339554657302910  0.5810704412556692  0.4641417182660860
  0.4791290196573842  0.6195421818020203  0.7674408931269108
  0.4956474205533343  0.7388486439039660  0.3058168601016815
  0.5279074414231323  0.6869746668924800  0.6321116116641734
  0.8420908877358750  0.8040568176561700  0.4416623661985599
  0.6738736357330476  0.6043403066809661  0.5678400837099778
  0.9967828792962159  0.7706925750948044  0.3742772240310344
  0.6836841819717873  0.9465249569786189  0.6524191707525006
  0.8606216249301147  0.9914008459639970  0.3393549657385291
  0.8459506034370455  0.8857568266786517  0.5882550058792287
  0.7025300578927459  0.5367664500712820  0.4145294393244071
  0.6697856185140636  0.8377226826110207  0.5311268514138013
  0.8820855195911733  0.5905746789495960  0.4674218469362959
  0.7135660356672293  0.7022808151947150  0.6928528081734431
  0.8000512784036412  0.7132318075780296  0.3113430725016340
  0.8733147307110086  0.6488162467667375  0.6121480728144181
  0.5468584176676629  0.7544702572530484  0.7694923595228937
 
  0.00000000E+00  0.00000000E+00  0.00000000E+00
  0.00000000E+00  0.00000000E+00  0.00000000E+00
  0.00000000E+00  0.00000000E+00  0.00000000E+00
  0.00000000E+00  0.00000000E+00  0.00000000E+00
  0.00000000E+00  0.00000000E+00  0.00000000E+00
  0.00000000E+00  0.00000000E+00  0.00000000E+00
  0.00000000E+00  0.00000000E+00  0.00000000E+00
  0.00000000E+00  0.00000000E+00  0.00000000E+00
  0.00000000E+00  0.00000000E+00  0.00000000E+00
  0.00000000E+00  0.00000000E+00  0.00000000E+00
  0.00000000E+00  0.00000000E+00  0.00000000E+00
  0.00000000E+00  0.00000000E+00  0.00000000E+00
  0.00000000E+00  0.00000000E+00  0.00000000E+00
  0.00000000E+00  0.00000000E+00  0.00000000E+00
  0.00000000E+00  0.00000000E+00  0.00000000E+00
  0.00000000E+00  0.00000000E+00  0.00000000E+00
  0.00000000E+00  0.00000000E+00  0.00000000E+00
  0.00000000E+00  0.00000000E+00  0.00000000E+00
  0.00000000E+00  0.00000000E+00  0.00000000E+00
  0.00000000E+00  0.00000000E+00  0.00000000E+00
  0.00000000E+00  0.00000000E+00  0.00000000E+00
  0.00000000E+00  0.00000000E+00  0.00000000E+00
  0.00000000E+00  0.00000000E+00  0.00000000E+00
  0.00000000E+00  0.00000000E+00  0.00000000E+00
  0.00000000E+00  0.00000000E+00  0.00000000E+00
  0.00000000E+00  0.00000000E+00  0.00000000E+00
  0.00000000E+00  0.00000000E+00  0.00000000E+00
  0.00000000E+00  0.00000000E+00  0.00000000E+00
  0.00000000E+00  0.00000000E+00  0.00000000E+00
  0.00000000E+00  0.00000000E+00  0.00000000E+00
  0.00000000E+00  0.00000000E+00  0.00000000E+00
  0.00000000E+00  0.00000000E+00  0.00000000E+00
  0.00000000E+00  0.00000000E+00  0.00000000E+00
  0.00000000E+00  0.00000000E+00  0.00000000E+00
  0.00000000E+00  0.00000000E+00  0.00000000E+00
  0.00000000E+00  0.00000000E+00  0.00000000E+00
  0.00000000E+00  0.00000000E+00  0.00000000E+00
  0.00000000E+00  0.00000000E+00  0.00000000E+00
  0.00000000E+00  0.00000000E+00  0.00000000E+00
  0.00000000E+00  0.00000000E+00  0.00000000E+00
  0.00000000E+00  0.00000000E+00  0.00000000E+00
  0.00000000E+00  0.00000000E+00  0.00000000E+00
  0.00000000E+00  0.00000000E+00  0.00000000E+00
  0.00000000E+00  0.00000000E+00  0.00000000E+00
  0.00000000E+00  0.00000000E+00  0.00000000E+00
  0.00000000E+00  0.00000000E+00  0.00000000E+00
  0.00000000E+00  0.00000000E+00  0.00000000E+00
  0.00000000E+00  0.00000000E+00  0.00000000E+00
  0.00000000E+00  0.00000000E+00  0.00000000E+00
  0.00000000E+00  0.00000000E+00  0.00000000E+00
  0.00000000E+00  0.00000000E+00  0.00000000E+00
  0.00000000E+00  0.00000000E+00  0.00000000E+00
  0.00000000E+00  0.00000000E+00  0.00000000E+00
  0.00000000E+00  0.00000000E+00  0.00000000E+00
  0.00000000E+00  0.00000000E+00  0.00000000E+00
  0.00000000E+00  0.00000000E+00  0.00000000E+00
  0.00000000E+00  0.00000000E+00  0.00000000E+00
  0.00000000E+00  0.00000000E+00  0.00000000E+00
  0.00000000E+00  0.00000000E+00  0.00000000E+00
  0.00000000E+00  0.00000000E+00  0.00000000E+00
  0.00000000E+00  0.00000000E+00  0.00000000E+00
  0.00000000E+00  0.00000000E+00  0.00000000E+00
  0.00000000E+00  0.00000000E+00  0.00000000E+00
  0.00000000E+00  0.00000000E+00  0.00000000E+00
  0.00000000E+00  0.00000000E+00  0.00000000E+00
  0.00000000E+00  0.00000000E+00  0.00000000E+00
  0.00000000E+00  0.00000000E+00  0.00000000E+00
  0.00000000E+00  0.00000000E+00  0.00000000E+00
  0.00000000E+00  0.00000000E+00  0.00000000E+00
  0.00000000E+00  0.00000000E+00  0.00000000E+00
  0.00000000E+00  0.00000000E+00  0.00000000E+00
  0.00000000E+00  0.00000000E+00  0.00000000E+00
  0.00000000E+00  0.00000000E+00  0.00000000E+00
  0.00000000E+00  0.00000000E+00  0.00000000E+00
  0.00000000E+00  0.00000000E+00  0.00000000E+00
  0.00000000E+00  0.00000000E+00  0.00000000E+00
  0.00000000E+00  0.00000000E+00  0.00000000E+00
  0.00000000E+00  0.00000000E+00  0.00000000E+00
  0.00000000E+00  0.00000000E+00  0.00000000E+00
  0.00000000E+00  0.00000000E+00  0.00000000E+00
  0.00000000E+00  0.00000000E+00  0.00000000E+00
  0.00000000E+00  0.00000000E+00  0.00000000E+00
  0.00000000E+00  0.00000000E+00  0.00000000E+00
  0.00000000E+00  0.00000000E+00  0.00000000E+00
  0.00000000E+00  0.00000000E+00  0.00000000E+00
  0.00000000E+00  0.00000000E+00  0.00000000E+00
  0.00000000E+00  0.00000000E+00  0.00000000E+00
  0.00000000E+00  0.00000000E+00  0.00000000E+00
  0.00000000E+00  0.00000000E+00  0.00000000E+00
  0.00000000E+00  0.00000000E+00  0.00000000E+00
  0.00000000E+00  0.00000000E+00  0.00000000E+00
