CONTCAR\(6)                             
   1.00000000000000     
    13.7187995910999998    0.0000000000000000    0.0000000000000000
    -4.5729412920000003   17.9978325079000001    0.0000000000000000
     0.0000000000000000    0.0000000000000000   21.4340000153000005
   Ag   Te   Mo   O 
     6    36    36     1
Direct
  0.0019720912022529  0.0011883973891373  0.4999873849014123
  0.3341495441915988  0.0006333987861098  0.4998528717965132
  0.6625267194383164  0.9998024896346875  0.5006644138286701
  0.9556830708561289  0.4949883626912484  0.5099354043476269
  0.3298378491391317  0.5012389945638556  0.4997280256147100
  0.6495281439219166  0.5078426623614753  0.4912076272722530
  0.2574827721628406  0.2718668724591608  0.6503918939394904
  0.1378952455056843  0.4151966174699827  0.5647551426949834
  0.1949488139454519  0.0865106986540186  0.4345782527018531
  0.0367456869727870  0.1077857493389452  0.5971547475342328
  0.2987367573632525  0.3931962808579348  0.4041552897566580
  0.0753978437772962  0.2296076956729613  0.3513390925848039
  0.5884641045611815  0.2700986479919775  0.6509678706057930
  0.4656968347364108  0.4149510246342620  0.5650066632488796
  0.5279922465433787  0.0853610805464985  0.4348235001531854
  0.3680427175738991  0.1070687027074716  0.5967250448374454
  0.6341793175552584  0.3911847583224318  0.4028980907727163
  0.4090517552143442  0.2284702964802454  0.3511652048741357
  0.9259859273610999  0.2703223522920491  0.6528582606653253
  0.8270579363263419  0.4048399946332422  0.6027817245932388
  0.8624721184721703  0.0862398031015276  0.4366544696340787
  0.7023199204632579  0.1050512879487083  0.5974044727926746
  0.9622566318766204  0.3948973434423155  0.4094017190886758
  0.7435863690817902  0.2263977250396798  0.3525168774895837
  0.2573425194261139  0.7730670818614985  0.6503068296871227
  0.1379674713378022  0.9150253105906708  0.5657765738667923
  0.1930778961162330  0.5857202423554614  0.4376107565471043
  0.0383558103050071  0.6085330336507710  0.5975291421646756
  0.2966192363110957  0.8931040161534245  0.4039977735633004
  0.0750013077568326  0.7273066965972751  0.3513658603646552
  0.5906640502143164  0.7727448594867896  0.6496744645651619
  0.4708175443250320  0.9149134853224029  0.5663650491542048
  0.5252931997655725  0.5877940190155795  0.4309823309179277
  0.3704994800790930  0.6081069907164127  0.5965094900524032
  0.6303851367074368  0.8938539697231768  0.4038511080431230
  0.4084275553099390  0.7293596752502788  0.3507176905445941
  0.9234754123947468  0.7727836207140113  0.6501019583558798
  0.8049318756110443  0.9154638216937903  0.5650799774211115
  0.8584710458363293  0.5853354438002951  0.4349654566330445
  0.7026483203116842  0.6086362744912096  0.5956438658741720
  0.9643091458661400  0.8931902612302360  0.4040920288820759
  0.7434128987344520  0.7295057082881755  0.3505604681267597
  0.1061082657264025  0.3197871127263164  0.4580514503186444
  0.2273182198996045  0.1819929460358611  0.5432914626071783
  0.0574554691853109  0.1723208475310250  0.4737840791431281
  0.2758804225380493  0.3289809020732713  0.5279891963563415
  0.0874700087253392  0.2611070919990148  0.5719380718356106
  0.2468036046915915  0.2406251408194520  0.4294971294062564
  0.4415332983930829  0.3192284474491669  0.4579266151273805
  0.5594268409095967  0.1810189961550803  0.5434090671948013
  0.3903417511348617  0.1714510912385851  0.4734159215599745
  0.6098254369313940  0.3301900925358799  0.5287779693075481
  0.4208503491915619  0.2602898243604446  0.5716219305091176
  0.5786410597828083  0.2390949416983955  0.4300703920522886
  0.7719352371499939  0.3164471920739416  0.4594144555780294
  0.8937655118122614  0.1814568398765235  0.5444225105450106
  0.7232751609475614  0.1703280085300739  0.4742043818429584
  0.9435408715565717  0.3299888939953354  0.5306375737382976
  0.7524397711224465  0.2579762369439670  0.5738168458138387
  0.9137864620561016  0.2403218247618667  0.4310629783932116
  0.1058200624999421  0.8185461007483943  0.4578791751531857
  0.2270532560693152  0.6822410860814737  0.5437733667635309
  0.0568205809281104  0.6713249224271486  0.4739683787853756
  0.2758708883057893  0.8295948848307187  0.5277999109283574
  0.0863415128145320  0.7610035895922527  0.5719084836293274
  0.2459520467664464  0.7400268138920459  0.4297163998459138
  0.4389135826218872  0.8193981158194915  0.4576521210595626
  0.5602862504583241  0.6825847151033265  0.5423924856243796
  0.3896885413563163  0.6721946628005316  0.4730327758484643
  0.6095229687695518  0.8298621629077794  0.5274180229638888
  0.4198869822734341  0.7610393760230958  0.5715086519698154
  0.5800803589776218  0.7413879278926567  0.4288942919329845
  0.7729150467461285  0.8197994279728654  0.4573812585127155
  0.8931502862753971  0.6819290304107255  0.5435351876509954
  0.7234610372563268  0.6726579051355903  0.4729352411168848
  0.9425422028339695  0.8295417898595892  0.5277256963948871
  0.7530981993434339  0.7612737643127581  0.5714076492409420
  0.9131248146276570  0.7402024804466344  0.4298579002761995
  0.7127140516700093  0.4272509519773635  0.5529760264799336
 
  0.00000000E+00  0.00000000E+00  0.00000000E+00
  0.00000000E+00  0.00000000E+00  0.00000000E+00
  0.00000000E+00  0.00000000E+00  0.00000000E+00
  0.00000000E+00  0.00000000E+00  0.00000000E+00
  0.00000000E+00  0.00000000E+00  0.00000000E+00
  0.00000000E+00  0.00000000E+00  0.00000000E+00
  0.00000000E+00  0.00000000E+00  0.00000000E+00
  0.00000000E+00  0.00000000E+00  0.00000000E+00
  0.00000000E+00  0.00000000E+00  0.00000000E+00
  0.00000000E+00  0.00000000E+00  0.00000000E+00
  0.00000000E+00  0.00000000E+00  0.00000000E+00
  0.00000000E+00  0.00000000E+00  0.00000000E+00
  0.00000000E+00  0.00000000E+00  0.00000000E+00
  0.00000000E+00  0.00000000E+00  0.00000000E+00
  0.00000000E+00  0.00000000E+00  0.00000000E+00
  0.00000000E+00  0.00000000E+00  0.00000000E+00
  0.00000000E+00  0.00000000E+00  0.00000000E+00
  0.00000000E+00  0.00000000E+00  0.00000000E+00
  0.00000000E+00  0.00000000E+00  0.00000000E+00
  0.00000000E+00  0.00000000E+00  0.00000000E+00
  0.00000000E+00  0.00000000E+00  0.00000000E+00
  0.00000000E+00  0.00000000E+00  0.00000000E+00
  0.00000000E+00  0.00000000E+00  0.00000000E+00
  0.00000000E+00  0.00000000E+00  0.00000000E+00
  0.00000000E+00  0.00000000E+00  0.00000000E+00
  0.00000000E+00  0.00000000E+00  0.00000000E+00
  0.00000000E+00  0.00000000E+00  0.00000000E+00
  0.00000000E+00  0.00000000E+00  0.00000000E+00
  0.00000000E+00  0.00000000E+00  0.00000000E+00
  0.00000000E+00  0.00000000E+00  0.00000000E+00
  0.00000000E+00  0.00000000E+00  0.00000000E+00
  0.00000000E+00  0.00000000E+00  0.00000000E+00
  0.00000000E+00  0.00000000E+00  0.00000000E+00
  0.00000000E+00  0.00000000E+00  0.00000000E+00
  0.00000000E+00  0.00000000E+00  0.00000000E+00
  0.00000000E+00  0.00000000E+00  0.00000000E+00
  0.00000000E+00  0.00000000E+00  0.00000000E+00
  0.00000000E+00  0.00000000E+00  0.00000000E+00
  0.00000000E+00  0.00000000E+00  0.00000000E+00
  0.00000000E+00  0.00000000E+00  0.00000000E+00
  0.00000000E+00  0.00000000E+00  0.00000000E+00
  0.00000000E+00  0.00000000E+00  0.00000000E+00
  0.00000000E+00  0.00000000E+00  0.00000000E+00
  0.00000000E+00  0.00000000E+00  0.00000000E+00
  0.00000000E+00  0.00000000E+00  0.00000000E+00
  0.00000000E+00  0.00000000E+00  0.00000000E+00
  0.00000000E+00  0.00000000E+00  0.00000000E+00
  0.00000000E+00  0.00000000E+00  0.00000000E+00
  0.00000000E+00  0.00000000E+00  0.00000000E+00
  0.00000000E+00  0.00000000E+00  0.00000000E+00
  0.00000000E+00  0.00000000E+00  0.00000000E+00
  0.00000000E+00  0.00000000E+00  0.00000000E+00
  0.00000000E+00  0.00000000E+00  0.00000000E+00
  0.00000000E+00  0.00000000E+00  0.00000000E+00
  0.00000000E+00  0.00000000E+00  0.00000000E+00
  0.00000000E+00  0.00000000E+00  0.00000000E+00
  0.00000000E+00  0.00000000E+00  0.00000000E+00
  0.00000000E+00  0.00000000E+00  0.00000000E+00
  0.00000000E+00  0.00000000E+00  0.00000000E+00
  0.00000000E+00  0.00000000E+00  0.00000000E+00
  0.00000000E+00  0.00000000E+00  0.00000000E+00
  0.00000000E+00  0.00000000E+00  0.00000000E+00
  0.00000000E+00  0.00000000E+00  0.00000000E+00
  0.00000000E+00  0.00000000E+00  0.00000000E+00
  0.00000000E+00  0.00000000E+00  0.00000000E+00
  0.00000000E+00  0.00000000E+00  0.00000000E+00
  0.00000000E+00  0.00000000E+00  0.00000000E+00
  0.00000000E+00  0.00000000E+00  0.00000000E+00
  0.00000000E+00  0.00000000E+00  0.00000000E+00
  0.00000000E+00  0.00000000E+00  0.00000000E+00
  0.00000000E+00  0.00000000E+00  0.00000000E+00
  0.00000000E+00  0.00000000E+00  0.00000000E+00
  0.00000000E+00  0.00000000E+00  0.00000000E+00
  0.00000000E+00  0.00000000E+00  0.00000000E+00
  0.00000000E+00  0.00000000E+00  0.00000000E+00
  0.00000000E+00  0.00000000E+00  0.00000000E+00
  0.00000000E+00  0.00000000E+00  0.00000000E+00
  0.00000000E+00  0.00000000E+00  0.00000000E+00
  0.00000000E+00  0.00000000E+00  0.00000000E+00
