CONTCAR                                 
   1.00000000000000     
    12.9062995910999998    0.0000000000000000    0.0000000000000000
     6.4531410738000003   11.1773039768999993    0.0000000000000000
     0.0000000000000000    0.0000000000000000   25.2430000304999993
   Bi   Se   O    H 
    27    36     2     1
Selective dynamics
Direct
  0.0001470931652960  0.0003399615415489  0.4986236927898489   F   F   F
  0.1108157013373301  0.1112317844083819  0.3542053530449607   F   F   F
  0.2224158760717785  0.2223799030809914  0.6441893776007674   F   F   F
  0.3346499265029692  0.9980984974763771  0.4993261710649364   F   F   F
  0.4442250402526398  0.1117953929149564  0.3549176143890165   F   F   F
  0.5556713557433639  0.2222364808587258  0.6430071336091174   F   F   F
  0.6665006363760213  0.0011710766856794  0.4983747621847598   F   F   F
  0.7782249188046038  0.1116100638567872  0.3534806357040026   F   F   F
  0.8896042414333394  0.2215606712015230  0.6430402912891040   F   F   F
  0.9974817850223232  0.3350289713408969  0.4992994327741371   F   F   F
  0.1111845991742797  0.4448425867884183  0.3548439447916678   F   F   F
  0.2224485331108070  0.5566798938644553  0.6432201608738097   F   F   F
  0.3347900562591448  0.3361469713191525  0.4992314252547985   F   F   F
  0.4445095509449146  0.4449241143453904  0.3545982501522289   F   F   F
  0.5584629070780807  0.5597300621941912  0.6813125041053993   F   F   F
  0.6663903683776624  0.3352644438455954  0.5004446046054980   F   F   F
  0.7783158447121892  0.4451453647535502  0.3549783955772057   F   F   F
  0.8901832908654583  0.5574131683791421  0.6433316524002635   F   F   F
  0.0000841009296195  0.6672549816919897  0.4982390835376833   F   F   F
  0.1110614904652820  0.7788414458712509  0.3535589724043078   F   F   F
  0.2220634197792677  0.8888721749359192  0.6431479443752224   F   F   F
  0.3350604002208613  0.6665315714089886  0.5004389561467093   F   F   F
  0.4446995627755470  0.7786390508317709  0.3550486414822274   F   F   F
  0.5565561839715372  0.8912125930451609  0.6431348002326658   F   F   F
  0.6663131040020716  0.6663367482560503  0.5013800679497962   F   F   F
  0.7771496327874559  0.7786100633766253  0.3541951683608104   F   F   F
  0.8895550490043220  0.8898510276710070  0.6428432471705818   F   F   F
  0.0002576895883166  0.0010361846867468  0.2971884396074813   F   F   F
  0.0006668695415115  0.0006393522389487  0.6991203580970975   F   F   F
  0.1107937738656943  0.1118183294208848  0.5639198550329851   F   F   F
  0.2223160693260624  0.2233324926394502  0.4332795457596461   F   F   F
  0.3345754712500977  0.9997287625313618  0.2982048144740475   F   F   F
  0.3343623179745023  0.9994910724051138  0.6994064994007800   F   F   F
  0.4445359073284152  0.1123341147093768  0.5637402919894967   F   F   F
  0.5558348120330407  0.2238504020585594  0.4329733861840808   F   F   F
  0.6652660994099406  0.0007348896839687  0.2978465709750324   F   F   F
  0.6667785449325905  0.0018844931694346  0.6991242104415818   F   F   F
  0.7781069784258960  0.1112674204279145  0.5639935067671686   F   F   F
  0.8887059558173007  0.2226820880261542  0.4329449853774605   F   F   F
  0.9994267806896318  0.3349127265783522  0.2980681855950991   F   F   F
  0.9991292498033815  0.3344760462254825  0.6992803012587387   F   F   F
  0.1113024501268995  0.4449744663707094  0.5636287994473363   F   F   F
  0.2227966184854537  0.5567134059001830  0.4330555965359366   F   F   F
  0.3336693353624014  0.3341421228754058  0.2981345446684003   F   F   F
  0.3337533736069389  0.3338605227675231  0.6996584210941705   F   F   F
  0.4457836478823438  0.4458650956147210  0.5647813926004943   F   F   F
  0.5561868672690835  0.5563317338979985  0.4339129161779240   F   F   F
  0.6664677400236627  0.3348846609238905  0.2980800994199697   F   F   F
  0.6804020393360020  0.3055021202133545  0.7053116068123373   F   F   F
  0.7764986421763638  0.4456881657412239  0.5652941845907904   F   F   F
  0.8880362920974108  0.5561994426335701  0.4333073261161147   F   F   F
  0.0000996442742434  0.6665363300096843  0.2979989410867958   F   F   F
  0.0015997673214159  0.6669953283262444  0.6990510864563930   F   F   F
  0.1110351204748810  0.7783227852783057  0.5639512907577355   F   F   F
  0.2228551040540054  0.8894035545182106  0.4331683492750997   F   F   F
  0.3341549365180185  0.6677357138707265  0.2982387825618176   F   F   F
  0.3047065398038953  0.6815749026271760  0.7058050768930570   F   F   F
  0.4452184506674257  0.7772968759685170  0.5650790824817093   F   F   F
  0.5559739017984811  0.8886401619361806  0.4334894703138303   F   F   F
  0.6670536180619138  0.6672412403019123  0.2982040576634404   F   F   F
  0.6843960816328050  0.6860806696819424  0.7065835231274917   F   F   F
  0.7787382523128912  0.7793052696287717  0.5639325472490810   F   F   F
  0.8892380066721728  0.8900392400045973  0.4328827288464154   F   F   F
  0.5718138282421634  0.5720032445016372  0.7665250562841308   T   T   T
  0.5101745842805769  0.5180422943353733  0.7938488029111994   T   T   T
  0.5788743233640261  0.4425444063257941  0.8053088426554984   T   T   T
 
  0.00000000E+00  0.00000000E+00  0.00000000E+00
  0.00000000E+00  0.00000000E+00  0.00000000E+00
  0.00000000E+00  0.00000000E+00  0.00000000E+00
  0.00000000E+00  0.00000000E+00  0.00000000E+00
  0.00000000E+00  0.00000000E+00  0.00000000E+00
  0.00000000E+00  0.00000000E+00  0.00000000E+00
  0.00000000E+00  0.00000000E+00  0.00000000E+00
  0.00000000E+00  0.00000000E+00  0.00000000E+00
  0.00000000E+00  0.00000000E+00  0.00000000E+00
  0.00000000E+00  0.00000000E+00  0.00000000E+00
  0.00000000E+00  0.00000000E+00  0.00000000E+00
  0.00000000E+00  0.00000000E+00  0.00000000E+00
  0.00000000E+00  0.00000000E+00  0.00000000E+00
  0.00000000E+00  0.00000000E+00  0.00000000E+00
  0.00000000E+00  0.00000000E+00  0.00000000E+00
  0.00000000E+00  0.00000000E+00  0.00000000E+00
  0.00000000E+00  0.00000000E+00  0.00000000E+00
  0.00000000E+00  0.00000000E+00  0.00000000E+00
  0.00000000E+00  0.00000000E+00  0.00000000E+00
  0.00000000E+00  0.00000000E+00  0.00000000E+00
  0.00000000E+00  0.00000000E+00  0.00000000E+00
  0.00000000E+00  0.00000000E+00  0.00000000E+00
  0.00000000E+00  0.00000000E+00  0.00000000E+00
  0.00000000E+00  0.00000000E+00  0.00000000E+00
  0.00000000E+00  0.00000000E+00  0.00000000E+00
  0.00000000E+00  0.00000000E+00  0.00000000E+00
  0.00000000E+00  0.00000000E+00  0.00000000E+00
  0.00000000E+00  0.00000000E+00  0.00000000E+00
  0.00000000E+00  0.00000000E+00  0.00000000E+00
  0.00000000E+00  0.00000000E+00  0.00000000E+00
  0.00000000E+00  0.00000000E+00  0.00000000E+00
  0.00000000E+00  0.00000000E+00  0.00000000E+00
  0.00000000E+00  0.00000000E+00  0.00000000E+00
  0.00000000E+00  0.00000000E+00  0.00000000E+00
  0.00000000E+00  0.00000000E+00  0.00000000E+00
  0.00000000E+00  0.00000000E+00  0.00000000E+00
  0.00000000E+00  0.00000000E+00  0.00000000E+00
  0.00000000E+00  0.00000000E+00  0.00000000E+00
  0.00000000E+00  0.00000000E+00  0.00000000E+00
  0.00000000E+00  0.00000000E+00  0.00000000E+00
  0.00000000E+00  0.00000000E+00  0.00000000E+00
  0.00000000E+00  0.00000000E+00  0.00000000E+00
  0.00000000E+00  0.00000000E+00  0.00000000E+00
  0.00000000E+00  0.00000000E+00  0.00000000E+00
  0.00000000E+00  0.00000000E+00  0.00000000E+00
  0.00000000E+00  0.00000000E+00  0.00000000E+00
  0.00000000E+00  0.00000000E+00  0.00000000E+00
  0.00000000E+00  0.00000000E+00  0.00000000E+00
  0.00000000E+00  0.00000000E+00  0.00000000E+00
  0.00000000E+00  0.00000000E+00  0.00000000E+00
  0.00000000E+00  0.00000000E+00  0.00000000E+00
  0.00000000E+00  0.00000000E+00  0.00000000E+00
  0.00000000E+00  0.00000000E+00  0.00000000E+00
  0.00000000E+00  0.00000000E+00  0.00000000E+00
  0.00000000E+00  0.00000000E+00  0.00000000E+00
  0.00000000E+00  0.00000000E+00  0.00000000E+00
  0.00000000E+00  0.00000000E+00  0.00000000E+00
  0.00000000E+00  0.00000000E+00  0.00000000E+00
  0.00000000E+00  0.00000000E+00  0.00000000E+00
  0.00000000E+00  0.00000000E+00  0.00000000E+00
  0.00000000E+00  0.00000000E+00  0.00000000E+00
  0.00000000E+00  0.00000000E+00  0.00000000E+00
  0.00000000E+00  0.00000000E+00  0.00000000E+00
  0.00000000E+00  0.00000000E+00  0.00000000E+00
  0.00000000E+00  0.00000000E+00  0.00000000E+00
  0.00000000E+00  0.00000000E+00  0.00000000E+00
