CONTCAR\(9)                             
   1.00000000000000     
    10.6030998230000009    0.0000000000000000    0.0000000000000000
     0.0000000000000000   13.3226995467999991    0.0000000000000000
     0.0000000000000000    0.0000000000000000   20.2077999115000004
   Sc   Cl
    15    24
Direct
  0.0000100000000032 -0.0000584122204780  0.4999756580289275
  0.1666799890000021  0.3332325071950349  0.5136589681218369
  0.1666900069999997  0.6667413486094770  0.4863578542084893
  0.0000199999999992  0.5142874305128177  0.5744403064440559
  0.0000199999999993  0.4857170295545303  0.4256094312092893
  0.3333499949999990 -0.0000584122204780  0.4999756580289275
  0.5000200120000002  0.3332325071950349  0.5136589681218369
  0.5000200120000002  0.6667413486094770  0.4863578542084893
  0.3333499949999990  0.5142874305128177  0.5744403064440559
  0.3333499949999990  0.4857170295545303  0.4256094312092893
  0.6666799779999977 -0.0000584122204780  0.4999756580289275
  0.8333499729999971  0.3332325071950349  0.5136589681218369
  0.8333499729999971  0.6667413486094770  0.4863578542084893
  0.6666799779999977  0.5142874305128177  0.5744403064440559
  0.6666900069999997  0.4857170295545303  0.4256094312092893
  0.1666799890000021  0.3976631066514472  0.6316508247740505
  0.1666900069999997  0.6024500812712842  0.3684276975625389
  0.1666799890000021  0.0289058985508217  0.4145157299212145
  0.1666799890000021  0.9709856138594922  0.5854509882655727
  0.1666799890000021  0.6491535751885814  0.6108452562886576
  0.1666900069999997  0.3510133721734884  0.3891017264763921
  0.0000199999999992  0.8079030812934695  0.4713896738721695
  0.0000199999999992  0.1919754793600252  0.5285958478268057
  0.5000200120000002  0.3976631066514472  0.6316508247740505
  0.5000200120000002  0.6024500812712842  0.3684276975625389
  0.5000100290000020  0.0289058985508217  0.4145157299212145
  0.5000100290000020  0.9709856138594922  0.5854509882655727
  0.5000200120000002  0.6491535751885814  0.6108452562886576
  0.5000200120000002  0.3510133721734884  0.3891017264763921
  0.3333499949999990  0.8079030812934695  0.4713896738721695
  0.3333499949999990  0.1919754793600252  0.5285958478268057
  0.8333499729999971  0.3976631066514472  0.6316508247740505
  0.8333499729999971  0.6024500812712842  0.3684276975625389
  0.8333499729999971  0.0289058985508217  0.4145157299212145
  0.8333499729999971  0.9709856138594922  0.5854509882655727
  0.8333499729999971  0.6491535751885814  0.6108452562886576
  0.8333499729999971  0.3510133721734884  0.3891017264763921
  0.6666900069999997  0.8079030812934695  0.4713896738721695
  0.6666799779999977  0.1919754793600252  0.5285958478268057
 
  0.00000000E+00  0.00000000E+00  0.00000000E+00
  0.00000000E+00  0.00000000E+00  0.00000000E+00
  0.00000000E+00  0.00000000E+00  0.00000000E+00
  0.00000000E+00  0.00000000E+00  0.00000000E+00
  0.00000000E+00  0.00000000E+00  0.00000000E+00
  0.00000000E+00  0.00000000E+00  0.00000000E+00
  0.00000000E+00  0.00000000E+00  0.00000000E+00
  0.00000000E+00  0.00000000E+00  0.00000000E+00
  0.00000000E+00  0.00000000E+00  0.00000000E+00
  0.00000000E+00  0.00000000E+00  0.00000000E+00
  0.00000000E+00  0.00000000E+00  0.00000000E+00
  0.00000000E+00  0.00000000E+00  0.00000000E+00
  0.00000000E+00  0.00000000E+00  0.00000000E+00
  0.00000000E+00  0.00000000E+00  0.00000000E+00
  0.00000000E+00  0.00000000E+00  0.00000000E+00
  0.00000000E+00  0.00000000E+00  0.00000000E+00
  0.00000000E+00  0.00000000E+00  0.00000000E+00
  0.00000000E+00  0.00000000E+00  0.00000000E+00
  0.00000000E+00  0.00000000E+00  0.00000000E+00
  0.00000000E+00  0.00000000E+00  0.00000000E+00
  0.00000000E+00  0.00000000E+00  0.00000000E+00
  0.00000000E+00  0.00000000E+00  0.00000000E+00
  0.00000000E+00  0.00000000E+00  0.00000000E+00
  0.00000000E+00  0.00000000E+00  0.00000000E+00
  0.00000000E+00  0.00000000E+00  0.00000000E+00
  0.00000000E+00  0.00000000E+00  0.00000000E+00
  0.00000000E+00  0.00000000E+00  0.00000000E+00
  0.00000000E+00  0.00000000E+00  0.00000000E+00
  0.00000000E+00  0.00000000E+00  0.00000000E+00
  0.00000000E+00  0.00000000E+00  0.00000000E+00
  0.00000000E+00  0.00000000E+00  0.00000000E+00
  0.00000000E+00  0.00000000E+00  0.00000000E+00
  0.00000000E+00  0.00000000E+00  0.00000000E+00
  0.00000000E+00  0.00000000E+00  0.00000000E+00
  0.00000000E+00  0.00000000E+00  0.00000000E+00
  0.00000000E+00  0.00000000E+00  0.00000000E+00
  0.00000000E+00  0.00000000E+00  0.00000000E+00
  0.00000000E+00  0.00000000E+00  0.00000000E+00
  0.00000000E+00  0.00000000E+00  0.00000000E+00
