CONTCAR                                 
   1.00000000000000     
    12.2390003204000006    0.0000000000000000    0.0000000000000000
    -6.1195001602000003   10.5992851944000002    0.0000000000000000
     0.0000000000000000    0.0000000000000000   19.6623001098999985
   C    Ti
    32    48
Direct
  0.1666665316323090  0.0833334553676863  0.5665747938101191
  0.0833334746048209  0.1666665263951757  0.4334570794452475
  0.4166665506323071  0.0833334553676863  0.5665747938101191
  0.3333334836048181  0.1666665263951757  0.4334570794452475
  0.6666665506323071  0.0833334553676863  0.5665747938101191
  0.5833334446048184  0.1666665263951757  0.4334570794452475
  0.9166665506323071  0.0833334553676863  0.5665747938101191
  0.8333335226048177  0.1666665263951757  0.4334570794452475
  0.1666665366323130  0.3333334653676872  0.5665747938101191
  0.0833334786048212  0.4166665363951765  0.4334570794452475
  0.4166665366323130  0.3333334653676872  0.5665747938101191
  0.3333334886048220  0.4166665363951765  0.4334570794452475
  0.6666665366323130  0.3333334653676872  0.5665747938101191
  0.5833334306048172  0.4166665363951765  0.4334570794452475
  0.9166665756323127  0.3333334653676872  0.5665747938101191
  0.8333334696048169  0.4166665363951765  0.4334570794452475
  0.1666665436323100  0.5833334403676886  0.5665747938101191
  0.0833334876048184  0.6666665343951763  0.4334570794452475
  0.4166665436323100  0.5833334403676886  0.5665747938101191
  0.3333334876048184  0.6666665343951763  0.4334570794452475
  0.6666665436323100  0.5833334403676886  0.5665747938101191
  0.5833334486048187  0.6666665343951763  0.4334570794452475
  0.9166665826323097  0.5833334403676886  0.5665747938101191
  0.8333334876048184  0.6666665343951763  0.4334570794452475
  0.1666665006323100  0.8333333943676919  0.5665747938101191
  0.0833334896048186  0.9166665783951800  0.4334570794452475
  0.4166665006323100  0.8333333943676919  0.5665747938101191
  0.3333334896048257  0.9166665783951800  0.4334570794452475
  0.6666665006323100  0.8333333943676919  0.5665747938101191
  0.5833334516048225  0.9166665783951800  0.4334570794452475
  0.9166665396323097  0.8333333943676919  0.5665747938101191
  0.8333334896048186  0.9166665783951800  0.4334570794452475
  0.9999999935695030  0.0000000064304970  0.5000113793524790
  0.0833329143151786  0.1666670866848250  0.6188947554703077
  0.1666670658781797  0.0833329211218157  0.3811319579218448
  0.2499999935695030  0.0000000064304970  0.5000113793524790
  0.3333329233151758  0.1666670866848250  0.6188947554703077
  0.4166670848781777  0.0833329211218157  0.3811319579218448
  0.4999999935695030  0.0000000064304970  0.5000113793524790
  0.5833328843151762  0.1666670866848250  0.6188947554703077
  0.6666670848781777  0.0833329211218157  0.3811319579218448
  0.7500000325695027  0.0000000064304970  0.5000113793524790
  0.8333329623151755  0.1666670866848250  0.6188947554703077
  0.9166670848781777  0.0833329211218157  0.3811319579218448
  0.9999999925695064  0.2500000044304969  0.5000113793524790
  0.0833329183151790  0.4166670966848187  0.6188947554703077
  0.1666670708781837  0.3333329311218165  0.3811319579218448
  0.2499999925695064  0.2500000044304969  0.5000113793524790
  0.3333329283151798  0.4166670966848187  0.6188947554703077
  0.4166670708781837  0.3333329311218165  0.3811319579218448
  0.5000000125695010  0.2500000044304969  0.5000113793524790
  0.5833328703151750  0.4166670966848187  0.6188947554703077
  0.6666670708781837  0.3333329311218165  0.3811319579218448
  0.7500000515695007  0.2500000044304969  0.5000113793524790
  0.8333329093151747  0.4166670966848187  0.6188947554703077
  0.9166671098781833  0.3333329311218165  0.3811319579218448
  0.9999999915695028  0.5000000034305003  0.5000113793524790
  0.0833329273151762  0.6666670946848186  0.6188947554703077
  0.1666670778781807  0.5833329061218180  0.3811319579218448
  0.2499999915695028  0.5000000034305003  0.5000113793524790
  0.3333329273151762  0.6666670946848186  0.6188947554703077
  0.4166670778781807  0.5833329061218180  0.3811319579218448
  0.4999999915695028  0.5000000034305003  0.5000113793524790
  0.5833328883151765  0.6666670946848186  0.6188947554703077
  0.6666670778781807  0.5833329061218180  0.3811319579218448
  0.7500000305695025  0.5000000034305003  0.5000113793524790
  0.8333329273151762  0.6666670946848186  0.6188947554703077
  0.9166671168781804  0.5833329061218180  0.3811319579218448
  0.9999999715695012  0.7500000014305002  0.5000113793524790
  0.0833329293151763  0.9166671386848222  0.6188947554703077
  0.1666670348781807  0.8333328601218213  0.3811319579218448
  0.2499999715695012  0.7500000014305002  0.5000113793524790
  0.3333329293151763  0.9166671386848222  0.6188947554703077
  0.4166670348781807  0.8333328601218213  0.3811319579218448
  0.4999999715695012  0.7500000014305002  0.5000113793524790
  0.5833328913151803  0.9166671386848222  0.6188947554703077
  0.6666670348781807  0.8333328601218213  0.3811319579218448
  0.7500000105695008  0.7500000014305002  0.5000113793524790
  0.8333329293151763  0.9166671386848222  0.6188947554703077
  0.9166670738781804  0.8333328601218213  0.3811319579218448
 
  0.00000000E+00  0.00000000E+00  0.00000000E+00
  0.00000000E+00  0.00000000E+00  0.00000000E+00
  0.00000000E+00  0.00000000E+00  0.00000000E+00
  0.00000000E+00  0.00000000E+00  0.00000000E+00
  0.00000000E+00  0.00000000E+00  0.00000000E+00
  0.00000000E+00  0.00000000E+00  0.00000000E+00
  0.00000000E+00  0.00000000E+00  0.00000000E+00
  0.00000000E+00  0.00000000E+00  0.00000000E+00
  0.00000000E+00  0.00000000E+00  0.00000000E+00
  0.00000000E+00  0.00000000E+00  0.00000000E+00
  0.00000000E+00  0.00000000E+00  0.00000000E+00
  0.00000000E+00  0.00000000E+00  0.00000000E+00
  0.00000000E+00  0.00000000E+00  0.00000000E+00
  0.00000000E+00  0.00000000E+00  0.00000000E+00
  0.00000000E+00  0.00000000E+00  0.00000000E+00
  0.00000000E+00  0.00000000E+00  0.00000000E+00
  0.00000000E+00  0.00000000E+00  0.00000000E+00
  0.00000000E+00  0.00000000E+00  0.00000000E+00
  0.00000000E+00  0.00000000E+00  0.00000000E+00
  0.00000000E+00  0.00000000E+00  0.00000000E+00
  0.00000000E+00  0.00000000E+00  0.00000000E+00
  0.00000000E+00  0.00000000E+00  0.00000000E+00
  0.00000000E+00  0.00000000E+00  0.00000000E+00
  0.00000000E+00  0.00000000E+00  0.00000000E+00
  0.00000000E+00  0.00000000E+00  0.00000000E+00
  0.00000000E+00  0.00000000E+00  0.00000000E+00
  0.00000000E+00  0.00000000E+00  0.00000000E+00
  0.00000000E+00  0.00000000E+00  0.00000000E+00
  0.00000000E+00  0.00000000E+00  0.00000000E+00
  0.00000000E+00  0.00000000E+00  0.00000000E+00
  0.00000000E+00  0.00000000E+00  0.00000000E+00
  0.00000000E+00  0.00000000E+00  0.00000000E+00
  0.00000000E+00  0.00000000E+00  0.00000000E+00
  0.00000000E+00  0.00000000E+00  0.00000000E+00
  0.00000000E+00  0.00000000E+00  0.00000000E+00
  0.00000000E+00  0.00000000E+00  0.00000000E+00
  0.00000000E+00  0.00000000E+00  0.00000000E+00
  0.00000000E+00  0.00000000E+00  0.00000000E+00
  0.00000000E+00  0.00000000E+00  0.00000000E+00
  0.00000000E+00  0.00000000E+00  0.00000000E+00
  0.00000000E+00  0.00000000E+00  0.00000000E+00
  0.00000000E+00  0.00000000E+00  0.00000000E+00
  0.00000000E+00  0.00000000E+00  0.00000000E+00
  0.00000000E+00  0.00000000E+00  0.00000000E+00
  0.00000000E+00  0.00000000E+00  0.00000000E+00
  0.00000000E+00  0.00000000E+00  0.00000000E+00
  0.00000000E+00  0.00000000E+00  0.00000000E+00
  0.00000000E+00  0.00000000E+00  0.00000000E+00
  0.00000000E+00  0.00000000E+00  0.00000000E+00
  0.00000000E+00  0.00000000E+00  0.00000000E+00
  0.00000000E+00  0.00000000E+00  0.00000000E+00
  0.00000000E+00  0.00000000E+00  0.00000000E+00
  0.00000000E+00  0.00000000E+00  0.00000000E+00
  0.00000000E+00  0.00000000E+00  0.00000000E+00
  0.00000000E+00  0.00000000E+00  0.00000000E+00
  0.00000000E+00  0.00000000E+00  0.00000000E+00
  0.00000000E+00  0.00000000E+00  0.00000000E+00
  0.00000000E+00  0.00000000E+00  0.00000000E+00
  0.00000000E+00  0.00000000E+00  0.00000000E+00
  0.00000000E+00  0.00000000E+00  0.00000000E+00
  0.00000000E+00  0.00000000E+00  0.00000000E+00
  0.00000000E+00  0.00000000E+00  0.00000000E+00
  0.00000000E+00  0.00000000E+00  0.00000000E+00
  0.00000000E+00  0.00000000E+00  0.00000000E+00
  0.00000000E+00  0.00000000E+00  0.00000000E+00
  0.00000000E+00  0.00000000E+00  0.00000000E+00
  0.00000000E+00  0.00000000E+00  0.00000000E+00
  0.00000000E+00  0.00000000E+00  0.00000000E+00
  0.00000000E+00  0.00000000E+00  0.00000000E+00
  0.00000000E+00  0.00000000E+00  0.00000000E+00
  0.00000000E+00  0.00000000E+00  0.00000000E+00
  0.00000000E+00  0.00000000E+00  0.00000000E+00
  0.00000000E+00  0.00000000E+00  0.00000000E+00
  0.00000000E+00  0.00000000E+00  0.00000000E+00
  0.00000000E+00  0.00000000E+00  0.00000000E+00
  0.00000000E+00  0.00000000E+00  0.00000000E+00
  0.00000000E+00  0.00000000E+00  0.00000000E+00
  0.00000000E+00  0.00000000E+00  0.00000000E+00
  0.00000000E+00  0.00000000E+00  0.00000000E+00
  0.00000000E+00  0.00000000E+00  0.00000000E+00
