CONTCAR\(3)                             
   1.00000000000000     
    12.5341997146999997    0.0000000000000000    0.0000000000000000
    -6.2670998572999999   10.8549353689999997    0.0000000000000000
     0.0000000000000000    0.0000000000000000   23.0692996979000000
   Tb   Ga   I    O 
    18    18    18     1
Direct
  0.9999903777674317  0.9999931821604192  0.5879449970812834
  0.0000408550262544 -0.0000035575078735  0.4139988293514045
  0.3345415057292201  0.0021840576494569  0.5872134377296460
  0.3336516825969137  0.9991059222706368  0.4126175463170961
  0.6676850558034659  0.0021594947898947  0.5872153984653565
  0.6655029690913432  0.9991314844720519  0.4126159528617293
  0.9980228383028572  0.3325348247701561  0.5872653942228664
  0.0009409723331284  0.3345660458903146  0.4126291304506497
  0.3345255744412628  0.3325125121102389  0.5872498448120326
  0.3336549211765706  0.3345648153309875  0.4126197362372490
  0.6666573835755676  0.3332910569923595  0.5864048658856307
  0.6666511387310093  0.3333015985428426  0.4111765699136392
  0.9979973138510595  0.6654625139590822  0.5872939363149712
  0.0008878545575181  0.6663545179842689  0.4126432045231310
  0.3336240135790267  0.6670875397562183  0.6217953719486679
  0.3333184601405272  0.6666250849623873  0.4153544134883019
  0.6675631676136873  0.6654815192284712  0.5872617833977944
  0.6654882071481593  0.6663677780509533  0.4126407136219981
  0.2203958878749914  0.1102369780064141  0.5130487904466895
  0.1133448185447639  0.2266629234209162  0.4861015015239096
  0.5560619900284631  0.1120810300815296  0.5119942362435804
  0.4436675675881803  0.2218287957694132  0.4848187491107595
  0.8898720744611968  0.1102468719207118  0.5130485394880554
  0.7782007864645067  0.2218534269383450  0.4848199869138171
  0.2255328034425601  0.4510543413646917  0.5183238654407974
  0.1096649020248038  0.5548443199335410  0.4860857932219675
  0.5560324445974103  0.4439764010520246  0.5120731097086619
  0.4452019225226224  0.5548551346251205  0.4860807533067046
  0.8879628504027600  0.4439877949442018  0.5121027555611959
  0.7781628821795147  0.5563094074411450  0.4848202341419686
  0.2255189417289615  0.7745399705543370  0.5183316983840656
  0.1133292629501509  0.8866885166997089  0.4861185177017471
  0.5490623629410213  0.7745512163730187  0.5183341718272901
  0.4451679403916837  0.8903055128377870  0.4860586233610139
  0.8898286819782435  0.7796003964978194  0.5130838830741304
  0.7734017412587084  0.8866915673223142  0.4861182982367532
  0.2227434592063176  0.1113394827890351  0.3270514261940599
  0.1117348980399861  0.2234507828250660  0.6731143851070902
  0.5553071883538959  0.1106061121396552  0.3257573502120560
  0.4448623465710098  0.2225226393273197  0.6721595994124306
  0.8887510290925924  0.1113805612701210  0.3271038345131237
  0.7777010828098172  0.2225117219465491  0.6721566191008246
  0.2230172567199218  0.4460228267131831  0.3272655787553004
  0.0721663613315091  0.5360390129851421  0.6751798343817530
  0.5553294490657659  0.4447255757117145  0.3258137450642903
  0.4640093703682912  0.5359995298963839  0.6751398171749113
  0.8893845787274803  0.4446978478909217  0.3258304315019853
  0.7775689360734905  0.5550859763459950  0.6721549767389887
  0.2230404731131738  0.7769455095716727  0.3272987939631199
  0.1117703489224205  0.8882694874862668  0.6731217699157749
  0.5539142007763307  0.7769453225788857  0.3272963532401673
  0.4643392969233204  0.9285994004058495  0.6750210598946327
  0.8886699921844066  0.7773283370538736  0.3270760563221762
  0.7764933291767859  0.8882618352167720  0.6731344919834655
  0.3342126366979347  0.6679536376496463  0.7056096082072973
 
  0.00000000E+00  0.00000000E+00  0.00000000E+00
  0.00000000E+00  0.00000000E+00  0.00000000E+00
  0.00000000E+00  0.00000000E+00  0.00000000E+00
  0.00000000E+00  0.00000000E+00  0.00000000E+00
  0.00000000E+00  0.00000000E+00  0.00000000E+00
  0.00000000E+00  0.00000000E+00  0.00000000E+00
  0.00000000E+00  0.00000000E+00  0.00000000E+00
  0.00000000E+00  0.00000000E+00  0.00000000E+00
  0.00000000E+00  0.00000000E+00  0.00000000E+00
  0.00000000E+00  0.00000000E+00  0.00000000E+00
  0.00000000E+00  0.00000000E+00  0.00000000E+00
  0.00000000E+00  0.00000000E+00  0.00000000E+00
  0.00000000E+00  0.00000000E+00  0.00000000E+00
  0.00000000E+00  0.00000000E+00  0.00000000E+00
  0.00000000E+00  0.00000000E+00  0.00000000E+00
  0.00000000E+00  0.00000000E+00  0.00000000E+00
  0.00000000E+00  0.00000000E+00  0.00000000E+00
  0.00000000E+00  0.00000000E+00  0.00000000E+00
  0.00000000E+00  0.00000000E+00  0.00000000E+00
  0.00000000E+00  0.00000000E+00  0.00000000E+00
  0.00000000E+00  0.00000000E+00  0.00000000E+00
  0.00000000E+00  0.00000000E+00  0.00000000E+00
  0.00000000E+00  0.00000000E+00  0.00000000E+00
  0.00000000E+00  0.00000000E+00  0.00000000E+00
  0.00000000E+00  0.00000000E+00  0.00000000E+00
  0.00000000E+00  0.00000000E+00  0.00000000E+00
  0.00000000E+00  0.00000000E+00  0.00000000E+00
  0.00000000E+00  0.00000000E+00  0.00000000E+00
  0.00000000E+00  0.00000000E+00  0.00000000E+00
  0.00000000E+00  0.00000000E+00  0.00000000E+00
  0.00000000E+00  0.00000000E+00  0.00000000E+00
  0.00000000E+00  0.00000000E+00  0.00000000E+00
  0.00000000E+00  0.00000000E+00  0.00000000E+00
  0.00000000E+00  0.00000000E+00  0.00000000E+00
  0.00000000E+00  0.00000000E+00  0.00000000E+00
  0.00000000E+00  0.00000000E+00  0.00000000E+00
  0.00000000E+00  0.00000000E+00  0.00000000E+00
  0.00000000E+00  0.00000000E+00  0.00000000E+00
  0.00000000E+00  0.00000000E+00  0.00000000E+00
  0.00000000E+00  0.00000000E+00  0.00000000E+00
  0.00000000E+00  0.00000000E+00  0.00000000E+00
  0.00000000E+00  0.00000000E+00  0.00000000E+00
  0.00000000E+00  0.00000000E+00  0.00000000E+00
  0.00000000E+00  0.00000000E+00  0.00000000E+00
  0.00000000E+00  0.00000000E+00  0.00000000E+00
  0.00000000E+00  0.00000000E+00  0.00000000E+00
  0.00000000E+00  0.00000000E+00  0.00000000E+00
  0.00000000E+00  0.00000000E+00  0.00000000E+00
  0.00000000E+00  0.00000000E+00  0.00000000E+00
  0.00000000E+00  0.00000000E+00  0.00000000E+00
  0.00000000E+00  0.00000000E+00  0.00000000E+00
  0.00000000E+00  0.00000000E+00  0.00000000E+00
  0.00000000E+00  0.00000000E+00  0.00000000E+00
  0.00000000E+00  0.00000000E+00  0.00000000E+00
  0.00000000E+00  0.00000000E+00  0.00000000E+00
