CONTCAR\(3)                             
   1.00000000000000     
    15.2456998825000003    0.0000000000000000    0.0000000000000000
     7.6228095670000000   13.2074592144000000    0.0000000000000000
     0.0000000000000000    0.0000000000000000   19.0911998748999991
   Nb   I    O 
    12    32     1
Direct
  0.2029518775263864  0.3960705834348952  0.4948502778391381
  0.3965885853147516  0.3964284763299817  0.4945451504233783
  0.4013999619728509  0.1988976299834908  0.4947954797001061
  0.7069145777815876  0.3964655250349844  0.4945827704015185
  0.9009188353005462  0.3961046638099379  0.4948534141733655
  0.8997353879063267  0.1988943584877702  0.4948305070261702
  0.2029944426948883  0.8969552806339713  0.4933915985183409
  0.4000382947389647  0.8969856385744263  0.4933577718993560
  0.3997521722920929  0.7005055658789874  0.4937276717984350
  0.7020874906225315  0.8979139895057391  0.4930610492447240
  0.9000234756607629  0.8979098100416314  0.4930745547011726
  0.9002988725298072  0.6993540195646825  0.4938594696577385
  0.5005909137556486  0.2492705850356078  0.3947715436150387
  0.2525504206077125  0.2472491788805285  0.3946096464694602
  0.2501435696900766  0.4966608836005129  0.3935918879492720
  0.3319192983451970  0.0819683849304196  0.5744537052227884
  0.0861120538548592  0.0819565138365735  0.5744860052632385
  0.0863004882988925  0.3272774871450176  0.5756881073012859
  0.0015882102155008  0.4967987266718583  0.4177960381500273
  0.3342480708464904  0.3298341378527894  0.6075724980517948
  0.0002028872020083  0.2472729857123085  0.3946536988944132
  0.7500595279693164  0.2491426289743299  0.3949222028533659
  0.7530655500546439  0.4966312567275730  0.3935539401543430
  0.8300731703043139  0.0827414996693824  0.5729855350617130
  0.5873607133284852  0.0828183882379574  0.5729197022335373
  0.5728633585246566  0.3542925649449030  0.5867901735738172
  0.5019772808100612  0.4960410359063691  0.4203010626558704
  0.8358833600840595  0.3298517788150607  0.6075802729810020
  0.5000828351376502  0.7481442109861527  0.3930625979999445
  0.2517611397860010  0.7481344552838177  0.3930809442337899
  0.2513957230892618  0.9971348345919827  0.3933405806361347
  0.3277527693281591  0.5852397406096840  0.5738077467726925
  0.0853390833110736  0.5824844694357030  0.5749583056444867
  0.0850675158096386  0.8293455444244373  0.5738578016451656
  0.0010822779969155  0.9978438913015816  0.4165431914109138
  0.3341244798022017  0.8317921061420244  0.6057837927787191
  0.0008712988441573  0.7476608941873605  0.3940421789088213
  0.7514574635152567  0.7476626363210706  0.3940296394285864
  0.7517968658404726  0.9964118400889568  0.3922858663256575
  0.8320922111843759  0.5825450269657040  0.5749241568260447
  0.5869537584654722  0.5852938196397016  0.5738428666832638
  0.5855815019290556  0.8293983890579475  0.5738110013804292
  0.5010795470018210  0.9978673622757049  0.4164537792188398
  0.8337489068436371  0.8324996390133289  0.6052091557563241
  0.6308888968814146  0.2384279884531920  0.6436705605357744
 
  0.00000000E+00  0.00000000E+00  0.00000000E+00
  0.00000000E+00  0.00000000E+00  0.00000000E+00
  0.00000000E+00  0.00000000E+00  0.00000000E+00
  0.00000000E+00  0.00000000E+00  0.00000000E+00
  0.00000000E+00  0.00000000E+00  0.00000000E+00
  0.00000000E+00  0.00000000E+00  0.00000000E+00
  0.00000000E+00  0.00000000E+00  0.00000000E+00
  0.00000000E+00  0.00000000E+00  0.00000000E+00
  0.00000000E+00  0.00000000E+00  0.00000000E+00
  0.00000000E+00  0.00000000E+00  0.00000000E+00
  0.00000000E+00  0.00000000E+00  0.00000000E+00
  0.00000000E+00  0.00000000E+00  0.00000000E+00
  0.00000000E+00  0.00000000E+00  0.00000000E+00
  0.00000000E+00  0.00000000E+00  0.00000000E+00
  0.00000000E+00  0.00000000E+00  0.00000000E+00
  0.00000000E+00  0.00000000E+00  0.00000000E+00
  0.00000000E+00  0.00000000E+00  0.00000000E+00
  0.00000000E+00  0.00000000E+00  0.00000000E+00
  0.00000000E+00  0.00000000E+00  0.00000000E+00
  0.00000000E+00  0.00000000E+00  0.00000000E+00
  0.00000000E+00  0.00000000E+00  0.00000000E+00
  0.00000000E+00  0.00000000E+00  0.00000000E+00
  0.00000000E+00  0.00000000E+00  0.00000000E+00
  0.00000000E+00  0.00000000E+00  0.00000000E+00
  0.00000000E+00  0.00000000E+00  0.00000000E+00
  0.00000000E+00  0.00000000E+00  0.00000000E+00
  0.00000000E+00  0.00000000E+00  0.00000000E+00
  0.00000000E+00  0.00000000E+00  0.00000000E+00
  0.00000000E+00  0.00000000E+00  0.00000000E+00
  0.00000000E+00  0.00000000E+00  0.00000000E+00
  0.00000000E+00  0.00000000E+00  0.00000000E+00
  0.00000000E+00  0.00000000E+00  0.00000000E+00
  0.00000000E+00  0.00000000E+00  0.00000000E+00
  0.00000000E+00  0.00000000E+00  0.00000000E+00
  0.00000000E+00  0.00000000E+00  0.00000000E+00
  0.00000000E+00  0.00000000E+00  0.00000000E+00
  0.00000000E+00  0.00000000E+00  0.00000000E+00
  0.00000000E+00  0.00000000E+00  0.00000000E+00
  0.00000000E+00  0.00000000E+00  0.00000000E+00
  0.00000000E+00  0.00000000E+00  0.00000000E+00
  0.00000000E+00  0.00000000E+00  0.00000000E+00
  0.00000000E+00  0.00000000E+00  0.00000000E+00
  0.00000000E+00  0.00000000E+00  0.00000000E+00
  0.00000000E+00  0.00000000E+00  0.00000000E+00
  0.00000000E+00  0.00000000E+00  0.00000000E+00
