CONTCAR\(6)                             
   1.00000000000000     
    13.4492998122999996    0.0000000000000000    0.0000000000000000
     0.0000000000000000   13.4492998122999996    0.0000000000000000
     0.0000000000000000    0.0000000000000000   22.2562007904000012
   Ta   Se   O 
    64    32     1
Selective dynamics
Direct
  0.1240251026862538  0.0000000000000000  0.6068807020605291   F   F   F
  0.0004789177284863  0.1255511399338900  0.3927335759079753   F   F   F
  0.9995420242661055  0.1245545538526684  0.5335965964566682   F   F   F
  0.1249360289845427  0.0000000000000000  0.4654015159448264   F   F   F
  0.3749836311474226  0.0000000000000000  0.6068712110219110   F   F   F
  0.2500930975319378  0.1252511678721504  0.3930710384086282   F   F   F
  0.2501242129513770  0.1249271892814576  0.5342224174708647   F   F   F
  0.3749528181086390  0.0000000000000000  0.4658004163119500   F   F   F
  0.6259101196041144  0.0000000000000000  0.6068752648280977   F   F   F
  0.4998480590001151  0.1252659270490355  0.3930780568957246   F   F   F
  0.4998141505586133  0.1249103580653994  0.5342114974919170   F   F   F
  0.6249733501185375  0.0000000000000000  0.4654084792054007   F   F   F
  0.8751284975430664  0.0000000000000000  0.6068595829416381   F   F   F
  0.7494590186981611  0.1255230648508743  0.3927426558020173   F   F   F
  0.7504830186344336  0.1245245231067500  0.5335880965282414   F   F   F
  0.8750021995543307  0.0000000000000000  0.4654148972080208   F   F   F
  0.1214975553489950  0.2465477376350336  0.6064374424450349   F   F   F
  0.0002947729343035  0.3751633626405777  0.3930757237930891   F   F   F
  0.9999298030165136  0.3751944850922371  0.5342314937991048   F   F   F
  0.1247186917630998  0.2497533492298913  0.4658030932601704   F   F   F
  0.3750570089477918  0.2511096539081237  0.6084453480986980   F   F   F
  0.2496088214692094  0.3746109928428680  0.3945990985195493   F   F   F
  0.2504057404289881  0.3754400528812667  0.5358841780805150   F   F   F
  0.3749606008503790  0.2506673605351892  0.4666192349299081   F   F   F
  0.6285738714400182  0.2464867287477972  0.6063837834342962   F   F   F
  0.5003406391440137  0.3746224256848407  0.3946237223766005   F   F   F
  0.4995472117119633  0.3754420465575592  0.5358814331588775   F   F   F
  0.6252515167195369  0.2497399870792023  0.4658032509368795   F   F   F
  0.8750757671567229  0.2491277527294287  0.6068914159742249   F   F   F
  0.7496665179329440  0.3751655458929264  0.3930760118009999   F   F   F
  0.7500870677753610  0.3751677131030817  0.5342269132226463   F   F   F
  0.8749931219600953  0.2500188832931869  0.4654077833656345   F   F   F
  0.1261582288598646  0.5000000000000000  0.6085038689096649   F   F   F
  0.0002947729343035  0.6248366373594223  0.3930757237930891   F   F   F
  0.9999298030165136  0.6248055149077629  0.5342314937991048   F   F   F
  0.1256654042262255  0.5000000000000000  0.4666088016161183   F   F   F
  0.3750564602572197  0.5000000000000000  0.6226213985305762   F   F   F
  0.2496088214692094  0.6253890071571320  0.3945990985195493   F   F   F
  0.2504057404289881  0.6245599471187404  0.5358841780805150   F   F   F
  0.3749635734787446  0.5000000000000000  0.4676774183862520   F   F   F
  0.6239859683983937  0.5000000000000000  0.6084605334617876   F   F   F
  0.5003406391440137  0.6253775743151593  0.3946237223766005   F   F   F
  0.4995472117119633  0.6245579534424408  0.5358814331588775   F   F   F
  0.6242886169190740  0.5000000000000000  0.4666283472624286   F   F   F
  0.8750381253253607  0.5000000000000000  0.6069054832013023   F   F   F
  0.7496665179329440  0.6248344541070736  0.3930760118009999   F   F   F
  0.7500870677753610  0.6248322868969183  0.5342269132226463   F   F   F
  0.8750007419928636  0.5000000000000000  0.4658084003588741   F   F   F
  0.1214975553489950  0.7534522803649679  0.6064374424450349   F   F   F
  0.0004789177284863  0.8744488330661113  0.3927335759079753   F   F   F
  0.9995420242661055  0.8754454191473329  0.5335965964566682   F   F   F
  0.1247186917630998  0.7502466687701101  0.4658030932601704   F   F   F
  0.3750570089477918  0.7488903640918778  0.6084453480986980   F   F   F
  0.2500930975319378  0.8747488051278509  0.3930710384086282   F   F   F
  0.2501242129513770  0.8750727837185437  0.5342224174708647   F   F   F
  0.3749606008503790  0.7493326574648123  0.4666192349299081   F   F   F
  0.6285738714400182  0.7535132892522043  0.6063837834342962   F   F   F
  0.4998480590001151  0.8747340459509658  0.3930780568957246   F   F   F
  0.4998141505586133  0.8750896149346019  0.5342114974919170   F   F   F
  0.6252515167195369  0.7502600309207992  0.4658032509368795   F   F   F
  0.8750757671567229  0.7508722652705728  0.6068914159742249   F   F   F
  0.7494590186981611  0.8744769081491270  0.3927426558020173   F   F   F
  0.7504830186344336  0.8754754498932513  0.5335880965282414   F   F   F
  0.8749931219600953  0.7499811347068146  0.4654077833656345   F   F   F
  0.9989598890038778  0.1239821538172095  0.6642123012976597   F   F   F
  0.1254647954346453  0.0000000000000000  0.3363695349438132   F   F   F
  0.2496429569649905  0.1237485221340577  0.6631898137107086   F   F   F
  0.3749369331100567  0.0000000000000000  0.3365534422019181   F   F   F
  0.5003384196841125  0.1237712614494058  0.6632809978382284   F   F   F
  0.6244716529731065  0.0000000000000000  0.3363806166402838   F   F   F
  0.7512346990411274  0.1238987675236274  0.6640531872290865   F   F   F
  0.8749580298173143  0.0000000000000000  0.3365741349413085   F   F   F
  0.9987154163348677  0.3746706934291240  0.6633271819723703   F   F   F
  0.1250701443642228  0.2500384057078833  0.3364100836456387   F   F   F
  0.2395705961333192  0.3644085798804753  0.6641857393992652   F   F   F
  0.3750000888698253  0.2501850104950236  0.3371147564370318   F   F   F
  0.5107912739447613  0.3644325084353923  0.6641414913794321   F   F   F
  0.6249522095425064  0.2500522435468824  0.3364071085800759   F   F   F
  0.7513807365431688  0.3746036998335143  0.6632775377112807   F   F   F
  0.8749457728702339  0.2505946148925702  0.3364461819104889   F   F   F
  0.9987154163348677  0.6253293065708760  0.6633271819723703   F   F   F
  0.1251954135664093  0.5000000000000000  0.3370363577736768   F   F   F
  0.2395705961333192  0.6355914201195247  0.6641857393992652   F   F   F
  0.3749589984425157  0.5000000000000000  0.3387010260592405   F   F   F
  0.5107912739447613  0.6355674915646077  0.6641414913794321   F   F   F
  0.6247240602057005  0.5000000000000000  0.3370492836360199   F   F   F
  0.7513807365431688  0.6253963001664857  0.6632775377112807   F   F   F
  0.8749477619803869  0.5000000000000000  0.3365609562997847   F   F   F
  0.9989598890038778  0.8760178191827919  0.6642123012976597   F   F   F
  0.1250701443642228  0.7499616122921182  0.3364100836456387   F   F   F
  0.2496429569649905  0.8762514508659436  0.6631898137107086   F   F   F
  0.3750000888698253  0.7498150075049779  0.3371147564370318   F   F   F
  0.5003384196841125  0.8762287115505956  0.6632809978382284   F   F   F
  0.6249522095425064  0.7499477744531191  0.3364071085800759   F   F   F
  0.7512346990411274  0.8761012054763739  0.6640531872290865   F   F   F
  0.8749457728702339  0.7494054031074313  0.3364461819104889   F   F   F
  0.3751865557329311  0.5000000000000000  0.7039521272388731   T   T   T
 
  0.00000000E+00  0.00000000E+00  0.00000000E+00
  0.00000000E+00  0.00000000E+00  0.00000000E+00
  0.00000000E+00  0.00000000E+00  0.00000000E+00
  0.00000000E+00  0.00000000E+00  0.00000000E+00
  0.00000000E+00  0.00000000E+00  0.00000000E+00
  0.00000000E+00  0.00000000E+00  0.00000000E+00
  0.00000000E+00  0.00000000E+00  0.00000000E+00
  0.00000000E+00  0.00000000E+00  0.00000000E+00
  0.00000000E+00  0.00000000E+00  0.00000000E+00
  0.00000000E+00  0.00000000E+00  0.00000000E+00
  0.00000000E+00  0.00000000E+00  0.00000000E+00
  0.00000000E+00  0.00000000E+00  0.00000000E+00
  0.00000000E+00  0.00000000E+00  0.00000000E+00
  0.00000000E+00  0.00000000E+00  0.00000000E+00
  0.00000000E+00  0.00000000E+00  0.00000000E+00
  0.00000000E+00  0.00000000E+00  0.00000000E+00
  0.00000000E+00  0.00000000E+00  0.00000000E+00
  0.00000000E+00  0.00000000E+00  0.00000000E+00
  0.00000000E+00  0.00000000E+00  0.00000000E+00
  0.00000000E+00  0.00000000E+00  0.00000000E+00
  0.00000000E+00  0.00000000E+00  0.00000000E+00
  0.00000000E+00  0.00000000E+00  0.00000000E+00
  0.00000000E+00  0.00000000E+00  0.00000000E+00
  0.00000000E+00  0.00000000E+00  0.00000000E+00
  0.00000000E+00  0.00000000E+00  0.00000000E+00
  0.00000000E+00  0.00000000E+00  0.00000000E+00
  0.00000000E+00  0.00000000E+00  0.00000000E+00
  0.00000000E+00  0.00000000E+00  0.00000000E+00
  0.00000000E+00  0.00000000E+00  0.00000000E+00
  0.00000000E+00  0.00000000E+00  0.00000000E+00
  0.00000000E+00  0.00000000E+00  0.00000000E+00
  0.00000000E+00  0.00000000E+00  0.00000000E+00
  0.00000000E+00  0.00000000E+00  0.00000000E+00
  0.00000000E+00  0.00000000E+00  0.00000000E+00
  0.00000000E+00  0.00000000E+00  0.00000000E+00
  0.00000000E+00  0.00000000E+00  0.00000000E+00
  0.00000000E+00  0.00000000E+00  0.00000000E+00
  0.00000000E+00  0.00000000E+00  0.00000000E+00
  0.00000000E+00  0.00000000E+00  0.00000000E+00
  0.00000000E+00  0.00000000E+00  0.00000000E+00
  0.00000000E+00  0.00000000E+00  0.00000000E+00
  0.00000000E+00  0.00000000E+00  0.00000000E+00
  0.00000000E+00  0.00000000E+00  0.00000000E+00
  0.00000000E+00  0.00000000E+00  0.00000000E+00
  0.00000000E+00  0.00000000E+00  0.00000000E+00
  0.00000000E+00  0.00000000E+00  0.00000000E+00
  0.00000000E+00  0.00000000E+00  0.00000000E+00
  0.00000000E+00  0.00000000E+00  0.00000000E+00
  0.00000000E+00  0.00000000E+00  0.00000000E+00
  0.00000000E+00  0.00000000E+00  0.00000000E+00
  0.00000000E+00  0.00000000E+00  0.00000000E+00
  0.00000000E+00  0.00000000E+00  0.00000000E+00
  0.00000000E+00  0.00000000E+00  0.00000000E+00
  0.00000000E+00  0.00000000E+00  0.00000000E+00
  0.00000000E+00  0.00000000E+00  0.00000000E+00
  0.00000000E+00  0.00000000E+00  0.00000000E+00
  0.00000000E+00  0.00000000E+00  0.00000000E+00
  0.00000000E+00  0.00000000E+00  0.00000000E+00
  0.00000000E+00  0.00000000E+00  0.00000000E+00
  0.00000000E+00  0.00000000E+00  0.00000000E+00
  0.00000000E+00  0.00000000E+00  0.00000000E+00
  0.00000000E+00  0.00000000E+00  0.00000000E+00
  0.00000000E+00  0.00000000E+00  0.00000000E+00
  0.00000000E+00  0.00000000E+00  0.00000000E+00
  0.00000000E+00  0.00000000E+00  0.00000000E+00
  0.00000000E+00  0.00000000E+00  0.00000000E+00
  0.00000000E+00  0.00000000E+00  0.00000000E+00
  0.00000000E+00  0.00000000E+00  0.00000000E+00
  0.00000000E+00  0.00000000E+00  0.00000000E+00
  0.00000000E+00  0.00000000E+00  0.00000000E+00
  0.00000000E+00  0.00000000E+00  0.00000000E+00
  0.00000000E+00  0.00000000E+00  0.00000000E+00
  0.00000000E+00  0.00000000E+00  0.00000000E+00
  0.00000000E+00  0.00000000E+00  0.00000000E+00
  0.00000000E+00  0.00000000E+00  0.00000000E+00
  0.00000000E+00  0.00000000E+00  0.00000000E+00
  0.00000000E+00  0.00000000E+00  0.00000000E+00
  0.00000000E+00  0.00000000E+00  0.00000000E+00
  0.00000000E+00  0.00000000E+00  0.00000000E+00
  0.00000000E+00  0.00000000E+00  0.00000000E+00
  0.00000000E+00  0.00000000E+00  0.00000000E+00
  0.00000000E+00  0.00000000E+00  0.00000000E+00
  0.00000000E+00  0.00000000E+00  0.00000000E+00
  0.00000000E+00  0.00000000E+00  0.00000000E+00
  0.00000000E+00  0.00000000E+00  0.00000000E+00
  0.00000000E+00  0.00000000E+00  0.00000000E+00
  0.00000000E+00  0.00000000E+00  0.00000000E+00
  0.00000000E+00  0.00000000E+00  0.00000000E+00
  0.00000000E+00  0.00000000E+00  0.00000000E+00
  0.00000000E+00  0.00000000E+00  0.00000000E+00
  0.00000000E+00  0.00000000E+00  0.00000000E+00
  0.00000000E+00  0.00000000E+00  0.00000000E+00
  0.00000000E+00  0.00000000E+00  0.00000000E+00
  0.00000000E+00  0.00000000E+00  0.00000000E+00
  0.00000000E+00  0.00000000E+00  0.00000000E+00
  0.00000000E+00  0.00000000E+00  0.00000000E+00
  0.00000000E+00  0.00000000E+00  0.00000000E+00
