CONTCAR\(32)                            
   1.00000000000000     
    12.5420999526999992    0.0000000000000000    0.0000000000000000
     0.0000000000000000   15.8683996200999999    0.0000000000000000
     0.0000000000000000    0.0000000000000000   20.3181991577000005
   La   Br
    12    30
Direct
  0.2500000000000000  0.8431223322558226  0.4799076670738779
  0.0833299940000032  0.1188111040250315  0.5199351552370023
  0.2500000000000000  0.3459655910503481  0.4715684503281090
  0.0833299940000032  0.6160891136251482  0.5285972790076876
  0.5833299940000032  0.8431223322558226  0.4799076670738779
  0.4166700059999968  0.1188111040250315  0.5199351552370023
  0.5833299940000032  0.3459655910503481  0.4715684503281090
  0.4166700059999968  0.6160891136251482  0.5285972790076876
  0.9166700440000000  0.8431223322558226  0.4799076670738779
  0.7500000189999980  0.1188111040250315  0.5199351552370023
  0.9166700440000000  0.3459655910503481  0.4715684503281090
  0.7500000189999980  0.6160891136251482  0.5285972790076876
  0.2500000000000000  0.6048928273598945  0.6304089345464290
  0.0833299940000032  0.3571849907844996  0.3696929802615502
  0.2500000000000000  0.9972945609646141  0.5775774605449572
  0.0833299940000032  0.9645512738247977  0.4222380862342575
  0.0833299940000032  0.4219820219792731  0.5632217447180544
  0.2500000000000000  0.5401560870333114  0.4369401927782899
  0.0833299940000032  0.7372288750620579  0.4077431964356886
  0.2500000000000000  0.2247822940816615  0.5922736182083203
  0.0833299940000032  0.7987008884253869  0.5816359176875046
  0.2500000000000000  0.1634480315281497  0.4182493439382745
  0.5833299940000032  0.6048928273598945  0.6304089345464290
  0.4166700059999968  0.3571849907844996  0.3696929802615502
  0.5833299940000032  0.9972945609646141  0.5775774605449572
  0.4166700059999968  0.9645512738247977  0.4222380862342575
  0.4166700059999968  0.4219820219792731  0.5632217447180544
  0.5833299940000032  0.5401560870333114  0.4369401927782899
  0.4166700059999968  0.7372288750620579  0.4077431964356886
  0.5833299940000032  0.2247822940816615  0.5922736182083203
  0.4166700059999968  0.7987008884253869  0.5816359176875046
  0.5833299940000032  0.1634480315281497  0.4182493439382745
  0.9166700440000000  0.6048928273598945  0.6304089345464290
  0.7500000189999980  0.3571849907844996  0.3696929802615502
  0.9166700440000000  0.9972945609646141  0.5775774605449572
  0.7500000189999980  0.9645512738247977  0.4222380862342575
  0.7500000189999980  0.4219820219792731  0.5632217447180544
  0.9166700440000000  0.5401560870333114  0.4369401927782899
  0.7500000189999980  0.7372288750620579  0.4077431964356886
  0.9166700440000000  0.2247822940816615  0.5922736182083203
  0.7500000189999980  0.7987008884253869  0.5816359176875046
  0.9166700440000000  0.1634480315281497  0.4182493439382745
 
  0.00000000E+00  0.00000000E+00  0.00000000E+00
  0.00000000E+00  0.00000000E+00  0.00000000E+00
  0.00000000E+00  0.00000000E+00  0.00000000E+00
  0.00000000E+00  0.00000000E+00  0.00000000E+00
  0.00000000E+00  0.00000000E+00  0.00000000E+00
  0.00000000E+00  0.00000000E+00  0.00000000E+00
  0.00000000E+00  0.00000000E+00  0.00000000E+00
  0.00000000E+00  0.00000000E+00  0.00000000E+00
  0.00000000E+00  0.00000000E+00  0.00000000E+00
  0.00000000E+00  0.00000000E+00  0.00000000E+00
  0.00000000E+00  0.00000000E+00  0.00000000E+00
  0.00000000E+00  0.00000000E+00  0.00000000E+00
  0.00000000E+00  0.00000000E+00  0.00000000E+00
  0.00000000E+00  0.00000000E+00  0.00000000E+00
  0.00000000E+00  0.00000000E+00  0.00000000E+00
  0.00000000E+00  0.00000000E+00  0.00000000E+00
  0.00000000E+00  0.00000000E+00  0.00000000E+00
  0.00000000E+00  0.00000000E+00  0.00000000E+00
  0.00000000E+00  0.00000000E+00  0.00000000E+00
  0.00000000E+00  0.00000000E+00  0.00000000E+00
  0.00000000E+00  0.00000000E+00  0.00000000E+00
  0.00000000E+00  0.00000000E+00  0.00000000E+00
  0.00000000E+00  0.00000000E+00  0.00000000E+00
  0.00000000E+00  0.00000000E+00  0.00000000E+00
  0.00000000E+00  0.00000000E+00  0.00000000E+00
  0.00000000E+00  0.00000000E+00  0.00000000E+00
  0.00000000E+00  0.00000000E+00  0.00000000E+00
  0.00000000E+00  0.00000000E+00  0.00000000E+00
  0.00000000E+00  0.00000000E+00  0.00000000E+00
  0.00000000E+00  0.00000000E+00  0.00000000E+00
  0.00000000E+00  0.00000000E+00  0.00000000E+00
  0.00000000E+00  0.00000000E+00  0.00000000E+00
  0.00000000E+00  0.00000000E+00  0.00000000E+00
  0.00000000E+00  0.00000000E+00  0.00000000E+00
  0.00000000E+00  0.00000000E+00  0.00000000E+00
  0.00000000E+00  0.00000000E+00  0.00000000E+00
  0.00000000E+00  0.00000000E+00  0.00000000E+00
  0.00000000E+00  0.00000000E+00  0.00000000E+00
  0.00000000E+00  0.00000000E+00  0.00000000E+00
  0.00000000E+00  0.00000000E+00  0.00000000E+00
  0.00000000E+00  0.00000000E+00  0.00000000E+00
  0.00000000E+00  0.00000000E+00  0.00000000E+00
