CONTCAR                                 
   1.00000000000000     
    10.4815998077000003    0.0000000000000000    0.0000000000000000
     0.0000000000000000   10.4815998077000003    0.0000000000000000
     0.0000000000000000    0.0000000000000000   21.6266002654999987
   Hf   Si   Se   O    H 
    18    18    18     1     1
Direct
  0.1652815132383213  0.9996773097096621  0.6006474699651754
  0.9996634967131530  0.1665303541690499  0.4019247672707081
  0.5011290020692030  0.0018588898485466  0.5991180288156521
  0.3319841847095300  0.1665115501890085  0.4019929489688625
  0.8302610517191712  0.0019552917668508  0.5990201649035559
  0.6657748529365524  0.1665216165435424  0.4011973676081749
  0.1654665037946499  0.3334822994813166  0.6006505750471719
  0.9997706278343103  0.5005362999921961  0.4032044419617593
  0.5012271354083488  0.3311570128783218  0.5990876408160063
  0.3317644847924433  0.5004375179912711  0.4032856500849884
  0.8303156828923526  0.3312404112450316  0.5990243024741653
  0.6658228098132084  0.5003863949889944  0.4019825875740031
  0.1661338410063104  0.6665088877617280  0.6129736772777634
  0.9997447725794648  0.8325550453862756  0.4032026449006872
  0.4990075785976243  0.6663613357583729  0.6006608216897178
  0.3317444249712809  0.8325663960425231  0.4033202996759281
  0.8330267174371142  0.6665949507502416  0.6007611730138593
  0.6658008962226106  0.8326798618051257  0.4020008957960000
  0.9994380966773568  0.9999308164799510  0.5010636072930840
  0.1658306596375189  0.1665344288238086  0.5012213210361592
  0.3321549668001074  0.9998231551054220  0.5011907040700359
  0.4990711707741088  0.1665279948193219  0.5001098756593801
  0.6658388930490822  0.9996965222198234  0.5000609835266783
  0.8326820995331137  0.1665930936345893  0.5000239230829124
  0.9994829828328401  0.3332219138448025  0.5010664956915686
  0.1657053585777504  0.5007415913462643  0.5032417337122668
  0.3321772733541161  0.3331881398847900  0.5011593212540786
  0.4991095617523392  0.5002671561196326  0.5011692453787415
  0.6658724325449532  0.3334335629927042  0.5000477071941695
  0.8325980654646981  0.5003116654198723  0.5011235926653356
  0.0003443343458165  0.6665610663558845  0.5033662518790561
  0.1656491995626304  0.8323355698625874  0.5032838192158148
  0.3309805586160127  0.6665238845172053  0.5036107925782100
  0.4990972720548559  0.8327973610408428  0.5012015130832147
  0.6658436181621525  0.6665346400481172  0.5012892952070978
  0.8325634470744983  0.8328378035971262  0.5011290758634103
  0.9989656358563741  0.1666208704926968  0.6544256650703172
  0.1658852329532364  0.9991384072675173  0.3472467293634778
  0.3323601205032639  0.1664680184502565  0.6545197052198541
  0.4986311816200240  0.9992175242619619  0.3470578699580064
  0.6657315850382189  0.1665610004047842  0.6561123745731884
  0.8330817515351465  0.9994003512083220  0.3470180776248610
  0.9899546698632340  0.4905709497091333  0.6543904301727989
  0.1658752880546479  0.3339002955491780  0.3472411949378049
  0.3410926299456749  0.4907802903795396  0.6546135703067768
  0.4986817161296538  0.3337857001217768  0.3470566716641207
  0.6657622707821249  0.4999569850829815  0.6545569416332925
  0.8330812620780327  0.3337277222679372  0.3470193685093854
  0.9898469956265549  0.8426817971779206  0.6544228463532312
  0.1659754403057552  0.6665475188529484  0.3476961380660682
  0.3408379540870501  0.8419823548757930  0.6546902483225734
  0.4984901087451504  0.6665409426925347  0.3473516026947457
  0.6655331080888992  0.8331885114172097  0.6544881754892444
  0.8331396455363225  0.6665635551336371  0.3472456199806250
  0.1582097159609069  0.6648959098379877  0.7070131464087143
  0.2285640077401181  0.6758294053950517  0.7356697064154408
 
  0.00000000E+00  0.00000000E+00  0.00000000E+00
  0.00000000E+00  0.00000000E+00  0.00000000E+00
  0.00000000E+00  0.00000000E+00  0.00000000E+00
  0.00000000E+00  0.00000000E+00  0.00000000E+00
  0.00000000E+00  0.00000000E+00  0.00000000E+00
  0.00000000E+00  0.00000000E+00  0.00000000E+00
  0.00000000E+00  0.00000000E+00  0.00000000E+00
  0.00000000E+00  0.00000000E+00  0.00000000E+00
  0.00000000E+00  0.00000000E+00  0.00000000E+00
  0.00000000E+00  0.00000000E+00  0.00000000E+00
  0.00000000E+00  0.00000000E+00  0.00000000E+00
  0.00000000E+00  0.00000000E+00  0.00000000E+00
  0.00000000E+00  0.00000000E+00  0.00000000E+00
  0.00000000E+00  0.00000000E+00  0.00000000E+00
  0.00000000E+00  0.00000000E+00  0.00000000E+00
  0.00000000E+00  0.00000000E+00  0.00000000E+00
  0.00000000E+00  0.00000000E+00  0.00000000E+00
  0.00000000E+00  0.00000000E+00  0.00000000E+00
  0.00000000E+00  0.00000000E+00  0.00000000E+00
  0.00000000E+00  0.00000000E+00  0.00000000E+00
  0.00000000E+00  0.00000000E+00  0.00000000E+00
  0.00000000E+00  0.00000000E+00  0.00000000E+00
  0.00000000E+00  0.00000000E+00  0.00000000E+00
  0.00000000E+00  0.00000000E+00  0.00000000E+00
  0.00000000E+00  0.00000000E+00  0.00000000E+00
  0.00000000E+00  0.00000000E+00  0.00000000E+00
  0.00000000E+00  0.00000000E+00  0.00000000E+00
  0.00000000E+00  0.00000000E+00  0.00000000E+00
  0.00000000E+00  0.00000000E+00  0.00000000E+00
  0.00000000E+00  0.00000000E+00  0.00000000E+00
  0.00000000E+00  0.00000000E+00  0.00000000E+00
  0.00000000E+00  0.00000000E+00  0.00000000E+00
  0.00000000E+00  0.00000000E+00  0.00000000E+00
  0.00000000E+00  0.00000000E+00  0.00000000E+00
  0.00000000E+00  0.00000000E+00  0.00000000E+00
  0.00000000E+00  0.00000000E+00  0.00000000E+00
  0.00000000E+00  0.00000000E+00  0.00000000E+00
  0.00000000E+00  0.00000000E+00  0.00000000E+00
  0.00000000E+00  0.00000000E+00  0.00000000E+00
  0.00000000E+00  0.00000000E+00  0.00000000E+00
  0.00000000E+00  0.00000000E+00  0.00000000E+00
  0.00000000E+00  0.00000000E+00  0.00000000E+00
  0.00000000E+00  0.00000000E+00  0.00000000E+00
  0.00000000E+00  0.00000000E+00  0.00000000E+00
  0.00000000E+00  0.00000000E+00  0.00000000E+00
  0.00000000E+00  0.00000000E+00  0.00000000E+00
  0.00000000E+00  0.00000000E+00  0.00000000E+00
  0.00000000E+00  0.00000000E+00  0.00000000E+00
  0.00000000E+00  0.00000000E+00  0.00000000E+00
  0.00000000E+00  0.00000000E+00  0.00000000E+00
  0.00000000E+00  0.00000000E+00  0.00000000E+00
  0.00000000E+00  0.00000000E+00  0.00000000E+00
  0.00000000E+00  0.00000000E+00  0.00000000E+00
  0.00000000E+00  0.00000000E+00  0.00000000E+00
  0.00000000E+00  0.00000000E+00  0.00000000E+00
  0.00000000E+00  0.00000000E+00  0.00000000E+00
