CONTCAR\(8)                             
   1.00000000000000     
    12.4687995910999998    0.0000000000000000    0.0000000000000000
     0.0000000000000000   15.4259996414000007    0.0000000000000000
     0.0000000000000000    0.0000000000000000   19.6597995758000010
   Ta   Co   Te   O 
    16    16    32     1
Selective dynamics
Direct
  0.4888176594935274  0.0542646055546712  0.5060880908131722   F   F   F
  0.2372940571734645  0.1062397284900172  0.4931174372462479   F   F   F
  0.0082659295922127  0.3567641950221443  0.4920221836237388   F   F   F
  0.2549019620447694  0.2991819326794669  0.5041617499159869   F   F   F
  0.9878632728539500  0.0535913462251827  0.5048978317271917   F   F   F
  0.7379305479892508  0.1080648772980126  0.4928433973137274   F   F   F
  0.5084018215398913  0.3561067194492225  0.4956934075970594   F   F   F
  0.7576977705677308  0.3048237116520411  0.5068307843758291   F   F   F
  0.4896291578009411  0.5517115666218046  0.5224173035287549   F   F   F
  0.2417839771825498  0.6085094385321881  0.4982937267334862   F   F   F
  0.0087973773506747  0.8577062650087228  0.4930392733134070   F   F   F
  0.2567010487682708  0.8061927562658866  0.5065655604750177   F   F   F
  0.9894708651063127  0.5529241821531841  0.5070198583403140   F   F   F
  0.7373179840398763  0.6084179470523878  0.4915568435054212   F   F   F
  0.5096547115245187  0.8583629423032022  0.4960716919514425   F   F   F
  0.7607709368964635  0.8056857574062519  0.5066900928690714   F   F   F
  0.4230981112659791  0.2091968396978530  0.4602629252273971   F   F   F
  0.0713899307636794  0.1998222406549530  0.5389415231080861   F   F   F
  0.3315889049367016  0.4630280589531424  0.4687333351702208   F   F   F
  0.1713218776168333  0.4494807016394802  0.5404095154068358   F   F   F
  0.9212276716783805  0.2097390129897079  0.4595274856436831   F   F   F
  0.5721586763165334  0.2018066786310868  0.5404599588409695   F   F   F
  0.8251388149725827  0.4592970144283512  0.4612467936744764   F   F   F
  0.6788993779376895  0.4550266979646977  0.5437607362196815   F   F   F
  0.4283920672665644  0.7081475143029010  0.4653886827739839   F   F   F
  0.0735170015744231  0.6999308817044394  0.5408137915011864   F   F   F
  0.3244410846297399  0.9600093505701324  0.4609110639034668   F   F   F
  0.1732626574856795  0.9522623575046012  0.5399556997685764   F   F   F
  0.9223605215670290  0.7094613702629644  0.4611325005147648   F   F   F
  0.5817462021027424  0.7021828193898472  0.5423079488923364   F   F   F
  0.8233563739970577  0.9601015366732213  0.4592761624840804   F   F   F
  0.6749302841842848  0.9529277534923821  0.5397322840758179   F   F   F
  0.1314608815608480  0.4755548017944662  0.4136129263816599   F   F   F
  0.1153098298126096  0.2225367507184757  0.4096650427501203   F   F   F
  0.3753175292200837  0.1823452370292102  0.5884746129997609   F   F   F
  0.3594473716287254  0.4141096979377039  0.5929961714805998   F   F   F
  0.1162676452164177  0.3229557650850978  0.6179632691692660   F   F   F
  0.3685150801602006  0.3385025931399568  0.3839583639359461   F   F   F
  0.3749060975318415  0.0855689402352482  0.3808874800829614   F   F   F
  0.1225364261690274  0.0750841075625601  0.6186918276944411   F   F   F
  0.6262576181989488  0.4768854065595463  0.4169556769598159   F   F   F
  0.6186589521547248  0.2269285449300043  0.4116723344513744   F   F   F
  0.8758876397642013  0.1853584387647942  0.5882897557552482   F   F   F
  0.8745137663904288  0.4334664342727663  0.5900022446232711   F   F   F
  0.6219202869313563  0.3268083557357855  0.6198372114347492   F   F   F
  0.8697503440326528  0.3364722351172986  0.3806947547572079   F   F   F
  0.8738721223469881  0.0861051774365649  0.3799600657410380   F   F   F
  0.6262136979157304  0.0761807993058738  0.6188475320909674   F   F   F
  0.1276392422991179  0.9741935280730090  0.4107308028974614   F   F   F
  0.1197844837514026  0.7232928993016259  0.4132396468863178   F   F   F
  0.3744030256243036  0.6968660933964799  0.5909307231109793   F   F   F
  0.3697596517795390  0.9374379609419279  0.5895679526356687   F   F   F
  0.1184540134742704  0.8260114208275198  0.6189937775598437   F   F   F
  0.3724705766441190  0.8329300380490139  0.3837512565907062   F   F   F
  0.3801516978736004  0.5860289355017443  0.3875611415923359   F   F   F
  0.1260016460501134  0.5732272617522085  0.6204101201871595   F   F   F
  0.6271740639700667  0.9758144215479803  0.4113019705669103   F   F   F
  0.6201874459873409  0.7285465674046918  0.4118508759230792   F   F   F
  0.8774024490181347  0.6858913807440246  0.5891192859348706   F   F   F
  0.8706792815026603  0.9365027373722867  0.5884596492411234   F   F   F
  0.6238183814707483  0.8288917299259353  0.6201552992365009   F   F   F
  0.8730140318795563  0.8359731066118314  0.3807919637915020   F   F   F
  0.8758791005289055  0.5852755362380435  0.3813298988983149   F   F   F
  0.6534684284185133  0.5849243839303639  0.6242997508930657   F   F   F
  0.4926685994724877  0.5429797641818439  0.6213547369337031   T   T   T
 
  0.00000000E+00  0.00000000E+00  0.00000000E+00
  0.00000000E+00  0.00000000E+00  0.00000000E+00
  0.00000000E+00  0.00000000E+00  0.00000000E+00
  0.00000000E+00  0.00000000E+00  0.00000000E+00
  0.00000000E+00  0.00000000E+00  0.00000000E+00
  0.00000000E+00  0.00000000E+00  0.00000000E+00
  0.00000000E+00  0.00000000E+00  0.00000000E+00
  0.00000000E+00  0.00000000E+00  0.00000000E+00
  0.00000000E+00  0.00000000E+00  0.00000000E+00
  0.00000000E+00  0.00000000E+00  0.00000000E+00
  0.00000000E+00  0.00000000E+00  0.00000000E+00
  0.00000000E+00  0.00000000E+00  0.00000000E+00
  0.00000000E+00  0.00000000E+00  0.00000000E+00
  0.00000000E+00  0.00000000E+00  0.00000000E+00
  0.00000000E+00  0.00000000E+00  0.00000000E+00
  0.00000000E+00  0.00000000E+00  0.00000000E+00
  0.00000000E+00  0.00000000E+00  0.00000000E+00
  0.00000000E+00  0.00000000E+00  0.00000000E+00
  0.00000000E+00  0.00000000E+00  0.00000000E+00
  0.00000000E+00  0.00000000E+00  0.00000000E+00
  0.00000000E+00  0.00000000E+00  0.00000000E+00
  0.00000000E+00  0.00000000E+00  0.00000000E+00
  0.00000000E+00  0.00000000E+00  0.00000000E+00
  0.00000000E+00  0.00000000E+00  0.00000000E+00
  0.00000000E+00  0.00000000E+00  0.00000000E+00
  0.00000000E+00  0.00000000E+00  0.00000000E+00
  0.00000000E+00  0.00000000E+00  0.00000000E+00
  0.00000000E+00  0.00000000E+00  0.00000000E+00
  0.00000000E+00  0.00000000E+00  0.00000000E+00
  0.00000000E+00  0.00000000E+00  0.00000000E+00
  0.00000000E+00  0.00000000E+00  0.00000000E+00
  0.00000000E+00  0.00000000E+00  0.00000000E+00
  0.00000000E+00  0.00000000E+00  0.00000000E+00
  0.00000000E+00  0.00000000E+00  0.00000000E+00
  0.00000000E+00  0.00000000E+00  0.00000000E+00
  0.00000000E+00  0.00000000E+00  0.00000000E+00
  0.00000000E+00  0.00000000E+00  0.00000000E+00
  0.00000000E+00  0.00000000E+00  0.00000000E+00
  0.00000000E+00  0.00000000E+00  0.00000000E+00
  0.00000000E+00  0.00000000E+00  0.00000000E+00
  0.00000000E+00  0.00000000E+00  0.00000000E+00
  0.00000000E+00  0.00000000E+00  0.00000000E+00
  0.00000000E+00  0.00000000E+00  0.00000000E+00
  0.00000000E+00  0.00000000E+00  0.00000000E+00
  0.00000000E+00  0.00000000E+00  0.00000000E+00
  0.00000000E+00  0.00000000E+00  0.00000000E+00
  0.00000000E+00  0.00000000E+00  0.00000000E+00
  0.00000000E+00  0.00000000E+00  0.00000000E+00
  0.00000000E+00  0.00000000E+00  0.00000000E+00
  0.00000000E+00  0.00000000E+00  0.00000000E+00
  0.00000000E+00  0.00000000E+00  0.00000000E+00
  0.00000000E+00  0.00000000E+00  0.00000000E+00
  0.00000000E+00  0.00000000E+00  0.00000000E+00
  0.00000000E+00  0.00000000E+00  0.00000000E+00
  0.00000000E+00  0.00000000E+00  0.00000000E+00
  0.00000000E+00  0.00000000E+00  0.00000000E+00
  0.00000000E+00  0.00000000E+00  0.00000000E+00
  0.00000000E+00  0.00000000E+00  0.00000000E+00
  0.00000000E+00  0.00000000E+00  0.00000000E+00
  0.00000000E+00  0.00000000E+00  0.00000000E+00
  0.00000000E+00  0.00000000E+00  0.00000000E+00
  0.00000000E+00  0.00000000E+00  0.00000000E+00
  0.00000000E+00  0.00000000E+00  0.00000000E+00
  0.00000000E+00  0.00000000E+00  0.00000000E+00
  0.00000000E+00  0.00000000E+00  0.00000000E+00
