CONTCAR                                 
   1.00000000000000     
    14.0840997695999999    0.0000000000000000    0.0000000000000000
     0.0000000000000000   11.8172998428000007    0.0000000000000000
     0.0000000000000000    0.0000000000000000   21.4158000946000016
   Zr   H    Br   O 
    32    16    32     1
Direct
  0.1873631178497885  0.2450500227145855  0.4411660104318869
  0.0625365296141728  0.2549959688587819  0.5591409734829091
  0.1873645135569537  0.0040514091630610  0.5606862437648178
  0.0623782973403103  0.4961468574335047  0.4397669933314814
  0.4374982056559489  0.2451735431099867  0.4410014558045753
  0.3126463421062435  0.2556004331379420  0.5589021187419850
  0.4374996279252485  0.0046116346785782  0.5604174257623129
  0.3122745527447019  0.4960594234428051  0.4393732642640971
  0.6876391410057854  0.2450469112888444  0.4411666996090289
  0.5623540575368554  0.2556001717663243  0.5589019855830718
  0.6876418186634620  0.0040604146747680  0.5606857076721826
  0.5627247685150909  0.4960542145182281  0.4393738920981876
  0.9375042630003136  0.2451470922887441  0.4412630036667388
  0.8124696785930020  0.2550022530781064  0.5591384969340090
  0.9375085502712679  0.0038651527120678  0.5608843499685257
  0.8126260574640930  0.4961415059386273  0.4397674851824147
  0.1873845547190263  0.7450435188190278  0.4410788357331770
  0.0626015581278321  0.7551205296097498  0.5590933097789526
  0.1881399317279297  0.5046512535612674  0.5605101386085253
  0.0623904348725764  0.9963182550418175  0.4397097764665283
  0.4374987826461805  0.7450027174933502  0.4408201847557104
  0.3125233071567742  0.7551495014055387  0.5588405979518865
  0.4374995704450839  0.5051685226289703  0.5604067467581613
  0.3122760822567798  0.9959784199210534  0.4394991593293957
  0.6876168080436337  0.7450423997625856  0.4410801004402360
  0.5624758808611422  0.7551499358062781  0.5588406008464315
  0.6868617277853011  0.5046585124968782  0.5605088065889249
  0.5627234263059935  0.9959744012124591  0.4394994023786244
  0.9375033526849847  0.7450447350328123  0.4412595599698875
  0.8124039486881203  0.7551222453573792  0.5590929362459045
  0.9375028214883230  0.5036354893557955  0.5607641809661934
  0.8126148251296637  0.9963136704526470  0.4397113626840785
  0.1874626701151873  0.0704215823458265  0.4701598078318178
  0.0626082337460460  0.4297759436753737  0.5303425148567181
  0.4375004630695045  0.0703994514034584  0.4697527607083623
  0.3126062667812206  0.4301104836905979  0.5297405488329630
  0.6875390607099744  0.0704180284520215  0.4701596831066205
  0.5623934314529636  0.4301108703451108  0.5297399179524773
  0.9375028932385092  0.0705470275109850  0.4704551957476276
  0.8123956931685269  0.4297798794381294  0.5303428961416027
  0.1875297344261041  0.5705760032887340  0.4699958963168555
  0.0624385091520340  0.9297715316996248  0.5301778572481287
  0.4374993036165975  0.5703855798185459  0.4696695038326447
  0.3123311902401475  0.9300372860888514  0.5298803944146676
  0.6874724325332512  0.5705737366930549  0.4699951264476454
  0.5626698508185334  0.9300380747949545  0.5298814360834135
  0.9375025491236286  0.5705185966418038  0.4704261678885335
  0.8125703187444101  0.9297750968548643  0.5301783497497771
  0.1871622767107595  0.4120205624269496  0.3536276697086040
  0.0626253768760017  0.0880353790662659  0.6467302928643736
  0.1876880020843269  0.3383085411340901  0.6486552250561066
  0.0624178514512195  0.1623214456362576  0.3513923950050881
  0.4375005275821238  0.4122134198611904  0.3535069493710448
  0.3126749623222505  0.0883243730791036  0.6462808486337503
  0.4375015862409768  0.3385805346755922  0.6483159678801806
  0.3124338600256470  0.1623756441637011  0.3513187881352261
  0.6878396720786725  0.4120210950641302  0.3536278688777616
  0.5623297665913018  0.0883240332293339  0.6462809515919541
  0.6873150523895664  0.3383085911811820  0.6486526289075163
  0.5625659611567023  0.1623851010793002  0.3513219915435380
  0.9375004788381887  0.4121569922644069  0.3537348772747068
  0.8123735723894661  0.0880340207847502  0.6467305505935218
  0.9375003376384328  0.3375218587037657  0.6489254796527033
  0.8125831162198296  0.1623200044050948  0.3513927915719847
  0.1871989574973652  0.9121468876876910  0.3536386180410125
  0.0626827546385081  0.5880310562984602  0.6464310711034701
  0.1877809729792180  0.8379276652986201  0.6486621827514857
  0.0625052607412262  0.6622157333259459  0.3513991369673486
  0.4375011524859147  0.9124752301433914  0.3535397332587710
  0.3133051490149488  0.5888646615061712  0.6458914162885756
  0.4375014040317708  0.8373617741664816  0.6474728434680035
  0.3123488043777516  0.6624254128193872  0.3511469607930656
  0.6878029590869872  0.9121469398166802  0.3536390935339020
  0.5616972703663403  0.5888668177467191  0.6458912694077392
  0.6872220013613709  0.8379302890034503  0.6486607434061104
  0.5626534669868203  0.6624252271855429  0.3511484621079709
  0.9375005919145849  0.9122686329623926  0.3536996804602303
  0.8123182963886330  0.5880312954113461  0.6464305995691207
  0.9375009016030660  0.8375022235306497  0.6488903259197012
  0.8124953280813183  0.6622148688127488  0.3514006569436215
  0.4375127261294836  0.6505931900246822  0.7468413503511633
 
  0.00000000E+00  0.00000000E+00  0.00000000E+00
  0.00000000E+00  0.00000000E+00  0.00000000E+00
  0.00000000E+00  0.00000000E+00  0.00000000E+00
  0.00000000E+00  0.00000000E+00  0.00000000E+00
  0.00000000E+00  0.00000000E+00  0.00000000E+00
  0.00000000E+00  0.00000000E+00  0.00000000E+00
  0.00000000E+00  0.00000000E+00  0.00000000E+00
  0.00000000E+00  0.00000000E+00  0.00000000E+00
  0.00000000E+00  0.00000000E+00  0.00000000E+00
  0.00000000E+00  0.00000000E+00  0.00000000E+00
  0.00000000E+00  0.00000000E+00  0.00000000E+00
  0.00000000E+00  0.00000000E+00  0.00000000E+00
  0.00000000E+00  0.00000000E+00  0.00000000E+00
  0.00000000E+00  0.00000000E+00  0.00000000E+00
  0.00000000E+00  0.00000000E+00  0.00000000E+00
  0.00000000E+00  0.00000000E+00  0.00000000E+00
  0.00000000E+00  0.00000000E+00  0.00000000E+00
  0.00000000E+00  0.00000000E+00  0.00000000E+00
  0.00000000E+00  0.00000000E+00  0.00000000E+00
  0.00000000E+00  0.00000000E+00  0.00000000E+00
  0.00000000E+00  0.00000000E+00  0.00000000E+00
  0.00000000E+00  0.00000000E+00  0.00000000E+00
  0.00000000E+00  0.00000000E+00  0.00000000E+00
  0.00000000E+00  0.00000000E+00  0.00000000E+00
  0.00000000E+00  0.00000000E+00  0.00000000E+00
  0.00000000E+00  0.00000000E+00  0.00000000E+00
  0.00000000E+00  0.00000000E+00  0.00000000E+00
  0.00000000E+00  0.00000000E+00  0.00000000E+00
  0.00000000E+00  0.00000000E+00  0.00000000E+00
  0.00000000E+00  0.00000000E+00  0.00000000E+00
  0.00000000E+00  0.00000000E+00  0.00000000E+00
  0.00000000E+00  0.00000000E+00  0.00000000E+00
  0.00000000E+00  0.00000000E+00  0.00000000E+00
  0.00000000E+00  0.00000000E+00  0.00000000E+00
  0.00000000E+00  0.00000000E+00  0.00000000E+00
  0.00000000E+00  0.00000000E+00  0.00000000E+00
  0.00000000E+00  0.00000000E+00  0.00000000E+00
  0.00000000E+00  0.00000000E+00  0.00000000E+00
  0.00000000E+00  0.00000000E+00  0.00000000E+00
  0.00000000E+00  0.00000000E+00  0.00000000E+00
  0.00000000E+00  0.00000000E+00  0.00000000E+00
  0.00000000E+00  0.00000000E+00  0.00000000E+00
  0.00000000E+00  0.00000000E+00  0.00000000E+00
  0.00000000E+00  0.00000000E+00  0.00000000E+00
  0.00000000E+00  0.00000000E+00  0.00000000E+00
  0.00000000E+00  0.00000000E+00  0.00000000E+00
  0.00000000E+00  0.00000000E+00  0.00000000E+00
  0.00000000E+00  0.00000000E+00  0.00000000E+00
  0.00000000E+00  0.00000000E+00  0.00000000E+00
  0.00000000E+00  0.00000000E+00  0.00000000E+00
  0.00000000E+00  0.00000000E+00  0.00000000E+00
  0.00000000E+00  0.00000000E+00  0.00000000E+00
  0.00000000E+00  0.00000000E+00  0.00000000E+00
  0.00000000E+00  0.00000000E+00  0.00000000E+00
  0.00000000E+00  0.00000000E+00  0.00000000E+00
  0.00000000E+00  0.00000000E+00  0.00000000E+00
  0.00000000E+00  0.00000000E+00  0.00000000E+00
  0.00000000E+00  0.00000000E+00  0.00000000E+00
  0.00000000E+00  0.00000000E+00  0.00000000E+00
  0.00000000E+00  0.00000000E+00  0.00000000E+00
  0.00000000E+00  0.00000000E+00  0.00000000E+00
  0.00000000E+00  0.00000000E+00  0.00000000E+00
  0.00000000E+00  0.00000000E+00  0.00000000E+00
  0.00000000E+00  0.00000000E+00  0.00000000E+00
  0.00000000E+00  0.00000000E+00  0.00000000E+00
  0.00000000E+00  0.00000000E+00  0.00000000E+00
  0.00000000E+00  0.00000000E+00  0.00000000E+00
  0.00000000E+00  0.00000000E+00  0.00000000E+00
  0.00000000E+00  0.00000000E+00  0.00000000E+00
  0.00000000E+00  0.00000000E+00  0.00000000E+00
  0.00000000E+00  0.00000000E+00  0.00000000E+00
  0.00000000E+00  0.00000000E+00  0.00000000E+00
  0.00000000E+00  0.00000000E+00  0.00000000E+00
  0.00000000E+00  0.00000000E+00  0.00000000E+00
  0.00000000E+00  0.00000000E+00  0.00000000E+00
  0.00000000E+00  0.00000000E+00  0.00000000E+00
  0.00000000E+00  0.00000000E+00  0.00000000E+00
  0.00000000E+00  0.00000000E+00  0.00000000E+00
  0.00000000E+00  0.00000000E+00  0.00000000E+00
  0.00000000E+00  0.00000000E+00  0.00000000E+00
  0.00000000E+00  0.00000000E+00  0.00000000E+00
