CONTCAR\(18)                            
   1.00000000000000     
    13.8212003707999997    0.0000000000000000    0.0000000000000000
     2.2957132678000001   11.9646463987999994    0.0000000000000000
     0.0000000000000000    0.0000000000000000   19.5161991119000007
   Li   Cr   C    O 
     6     9    18    55
Direct
  0.0031639539848438  0.0000854387295239  0.6000438008313038
  0.2576339550688313  0.4490678012827119  0.4099995453827830
  0.3379271888469998  0.9934093391665052  0.6004010756195467
  0.5927112603847886  0.4449665317273142  0.4009616027943554
  0.6729957832568293  0.9964124666291329  0.5985883348873222
  0.9283144506173784  0.4463254315471621  0.4016406273311204
  0.1896113531807964  0.8889749161553774  0.5021686982882806
  0.3009076271198442  0.2273694487115930  0.5043337739675265
  0.0742729806987808  0.5590244395142164  0.4994351420073257
  0.5245708088704771  0.8845997006613234  0.4989237967292812
  0.6320908843038261  0.2205503259870129  0.4986366224076788
  0.4060191441467481  0.5588867415238222  0.4991170947579079
  0.8562346005674460  0.8869908864784916  0.5012903255265042
  0.9647756708712366  0.2229653372849044  0.5009075116713436
  0.7411287664663102  0.5560135359348763  0.4974228839529856
  0.1512300360610729  0.1148843680898073  0.5631332452176021
  0.2353136534927738  0.5073532528513298  0.5921720547196588
  0.1146202261784909  0.3290107122559567  0.4409244956257623
  0.0399209014629755  0.7775753497291568  0.5605810072928183
  0.2225852420116166  0.6731836355541900  0.4392995486798134
  0.0040161622300704 -0.0000601277760635  0.4465670489628914
  0.4856717411033554  0.1082751389905117  0.5597903822083202
  0.5926491575045313  0.4442446500621318  0.5534723122864105
  0.4458204211786466  0.3294379204150977  0.4372919593561508
  0.3751720727815825  0.7751164072263191  0.5588947050962004
  0.5562263383119700  0.6675808069161705  0.4385615516869009
  0.3402971961007046  0.9991104564655746  0.4455614497124933
  0.8166913028942641  0.1144464341942731  0.5623109887516510
  0.9265806988863307  0.4468885213507999  0.5537312247736513
  0.7805516366427364  0.3294091932373736  0.4372204369405832
  0.7074112390162038  0.7728534543666268  0.5588070516848360
  0.8902130954505649  0.6697816123140456  0.4390128024728557
  0.6716047991979777  0.9974860869483424  0.4443449731741481
  0.1656730853638982  0.4714990587834840  0.5547170611162013
  0.0985601660513466  0.9930761031385027  0.4483186916376727
  0.0772216606168967  0.2419468332040185  0.4428932455934628
  0.0612459945784610  0.4288866087394570  0.4347985759039261
  0.2061379345487857  0.0160016772836276  0.5686088153453344
  0.3285791268478366  0.3179075965006067  0.5541711744694545
  0.1893389717507598  0.2026201517426602  0.5587883351497743
  0.3029599723319208  0.5384402554436724  0.5536455220446840
  0.2809069427704969  0.7871314891780042  0.5613423472816914
  0.2105417612339607  0.3212913479938279  0.4411500160263165
  0.1798054827590158  0.5860045913241602  0.4343028587723993
  0.2990856635438860  0.9127578141018128  0.4466846775722534
  0.1679754626729335  0.7700931189628323  0.4433551969300744
  0.2875805773905162  0.0987597129995114  0.4479348886575324
  0.0959128217484683  0.6815917692917424  0.5556278427945907
  0.0810198621596320  0.8658394407856241  0.5663551711565731
  0.0562585311132279  0.1239873976036025  0.5655311121069888
  0.3171681524956466  0.6586426857258554  0.4377002321674856
  0.4980088693010553  0.4530588389748608  0.5523391442494839
  0.4349545848344147  0.9876844656054705  0.4429778993349056
  0.4071521470832713  0.2415786903512386  0.4398991505281080
  0.3910592700115835  0.4285957713746937  0.4343222615410011
  0.5422770719155204  0.0100984688237880  0.5652567564594723
  0.6484164078700444  0.3463293029086171  0.5545847596956422
  0.5205434513126759  0.1972925647655879  0.5561284871662003
  0.6316500418381920  0.5326340097826900  0.5529159122005901
  0.6130186635206252  0.7847527447229596  0.5590564696776704
  0.5408034669125525  0.3201642316939223  0.4342919439573653
  0.5145018082544972  0.5789573950562041  0.4351923357514155
  0.6345337394335988  0.9077220026219022  0.4441518979071793
  0.5012336028250941  0.7643482074710004  0.4412230345290597
  0.6146311566944194  0.0945285145828259  0.4428617775112552
  0.4320040515187105  0.6793289624484875  0.5539836896703536
  0.4162129407299865  0.8634385536660477  0.5636901911129965
  0.3906950424489063  0.1115115794463137  0.5607666939985486
  0.6505904334004151  0.6541236085676195  0.4368207801124338
  0.8323144743623537  0.4533208709307687  0.5523413567458277
  0.7660479982267304  0.9906213383351065  0.4468641966313702
  0.7431741751965415  0.2418974451861077  0.4409128370774811
  0.7252724729523217  0.4287166685051338  0.4317633682769947
  0.8715359761329857  0.0148091927938022  0.5675500116139003
  0.9843520003935508  0.3504660419341273  0.5554121925721577
  0.8544302952119072  0.2018330547844058  0.5592237562139916
  0.9630511821341728  0.5374198909010849  0.5524050422070661
  0.9457394889799648  0.7890370653956665  0.5621577759885898
  0.8758231430208451  0.3222550952676382  0.4358304931181449
  0.8492221129196840  0.5811948008478262  0.4334563489693978
  0.9666238475835859  0.9104191444592510  0.4467239448029710
  0.8346089006542975  0.7661642151501235  0.4435363075468421
  0.9470390893187765  0.0969598809626680  0.4454759666070424
  0.7632492213182576  0.6766416069719131  0.5549801965489344
  0.7480356356961207  0.8615516191391336  0.5647569587571879
  0.7214583059943668  0.1219938426032853  0.5635773497295585
  0.9845974834691091  0.6572736450934495  0.4377634832817780
  0.2351007296601302  0.5080186425456493  0.6547412503827055
 
  0.00000000E+00  0.00000000E+00  0.00000000E+00
  0.00000000E+00  0.00000000E+00  0.00000000E+00
  0.00000000E+00  0.00000000E+00  0.00000000E+00
  0.00000000E+00  0.00000000E+00  0.00000000E+00
  0.00000000E+00  0.00000000E+00  0.00000000E+00
  0.00000000E+00  0.00000000E+00  0.00000000E+00
  0.00000000E+00  0.00000000E+00  0.00000000E+00
  0.00000000E+00  0.00000000E+00  0.00000000E+00
  0.00000000E+00  0.00000000E+00  0.00000000E+00
  0.00000000E+00  0.00000000E+00  0.00000000E+00
  0.00000000E+00  0.00000000E+00  0.00000000E+00
  0.00000000E+00  0.00000000E+00  0.00000000E+00
  0.00000000E+00  0.00000000E+00  0.00000000E+00
  0.00000000E+00  0.00000000E+00  0.00000000E+00
  0.00000000E+00  0.00000000E+00  0.00000000E+00
  0.00000000E+00  0.00000000E+00  0.00000000E+00
  0.00000000E+00  0.00000000E+00  0.00000000E+00
  0.00000000E+00  0.00000000E+00  0.00000000E+00
  0.00000000E+00  0.00000000E+00  0.00000000E+00
  0.00000000E+00  0.00000000E+00  0.00000000E+00
  0.00000000E+00  0.00000000E+00  0.00000000E+00
  0.00000000E+00  0.00000000E+00  0.00000000E+00
  0.00000000E+00  0.00000000E+00  0.00000000E+00
  0.00000000E+00  0.00000000E+00  0.00000000E+00
  0.00000000E+00  0.00000000E+00  0.00000000E+00
  0.00000000E+00  0.00000000E+00  0.00000000E+00
  0.00000000E+00  0.00000000E+00  0.00000000E+00
  0.00000000E+00  0.00000000E+00  0.00000000E+00
  0.00000000E+00  0.00000000E+00  0.00000000E+00
  0.00000000E+00  0.00000000E+00  0.00000000E+00
  0.00000000E+00  0.00000000E+00  0.00000000E+00
  0.00000000E+00  0.00000000E+00  0.00000000E+00
  0.00000000E+00  0.00000000E+00  0.00000000E+00
  0.00000000E+00  0.00000000E+00  0.00000000E+00
  0.00000000E+00  0.00000000E+00  0.00000000E+00
  0.00000000E+00  0.00000000E+00  0.00000000E+00
  0.00000000E+00  0.00000000E+00  0.00000000E+00
  0.00000000E+00  0.00000000E+00  0.00000000E+00
  0.00000000E+00  0.00000000E+00  0.00000000E+00
  0.00000000E+00  0.00000000E+00  0.00000000E+00
  0.00000000E+00  0.00000000E+00  0.00000000E+00
  0.00000000E+00  0.00000000E+00  0.00000000E+00
  0.00000000E+00  0.00000000E+00  0.00000000E+00
  0.00000000E+00  0.00000000E+00  0.00000000E+00
  0.00000000E+00  0.00000000E+00  0.00000000E+00
  0.00000000E+00  0.00000000E+00  0.00000000E+00
  0.00000000E+00  0.00000000E+00  0.00000000E+00
  0.00000000E+00  0.00000000E+00  0.00000000E+00
  0.00000000E+00  0.00000000E+00  0.00000000E+00
  0.00000000E+00  0.00000000E+00  0.00000000E+00
  0.00000000E+00  0.00000000E+00  0.00000000E+00
  0.00000000E+00  0.00000000E+00  0.00000000E+00
  0.00000000E+00  0.00000000E+00  0.00000000E+00
  0.00000000E+00  0.00000000E+00  0.00000000E+00
  0.00000000E+00  0.00000000E+00  0.00000000E+00
  0.00000000E+00  0.00000000E+00  0.00000000E+00
  0.00000000E+00  0.00000000E+00  0.00000000E+00
  0.00000000E+00  0.00000000E+00  0.00000000E+00
  0.00000000E+00  0.00000000E+00  0.00000000E+00
  0.00000000E+00  0.00000000E+00  0.00000000E+00
  0.00000000E+00  0.00000000E+00  0.00000000E+00
  0.00000000E+00  0.00000000E+00  0.00000000E+00
  0.00000000E+00  0.00000000E+00  0.00000000E+00
  0.00000000E+00  0.00000000E+00  0.00000000E+00
  0.00000000E+00  0.00000000E+00  0.00000000E+00
  0.00000000E+00  0.00000000E+00  0.00000000E+00
  0.00000000E+00  0.00000000E+00  0.00000000E+00
  0.00000000E+00  0.00000000E+00  0.00000000E+00
  0.00000000E+00  0.00000000E+00  0.00000000E+00
  0.00000000E+00  0.00000000E+00  0.00000000E+00
  0.00000000E+00  0.00000000E+00  0.00000000E+00
  0.00000000E+00  0.00000000E+00  0.00000000E+00
  0.00000000E+00  0.00000000E+00  0.00000000E+00
  0.00000000E+00  0.00000000E+00  0.00000000E+00
  0.00000000E+00  0.00000000E+00  0.00000000E+00
  0.00000000E+00  0.00000000E+00  0.00000000E+00
  0.00000000E+00  0.00000000E+00  0.00000000E+00
  0.00000000E+00  0.00000000E+00  0.00000000E+00
  0.00000000E+00  0.00000000E+00  0.00000000E+00
  0.00000000E+00  0.00000000E+00  0.00000000E+00
  0.00000000E+00  0.00000000E+00  0.00000000E+00
  0.00000000E+00  0.00000000E+00  0.00000000E+00
  0.00000000E+00  0.00000000E+00  0.00000000E+00
  0.00000000E+00  0.00000000E+00  0.00000000E+00
  0.00000000E+00  0.00000000E+00  0.00000000E+00
  0.00000000E+00  0.00000000E+00  0.00000000E+00
  0.00000000E+00  0.00000000E+00  0.00000000E+00
  0.00000000E+00  0.00000000E+00  0.00000000E+00
