CONTCAR\(16)                            
   1.00000000000000     
    12.3274002075000002    0.0000000000000000    0.0000000000000000
     0.0000000000000000   15.7540998459000008    0.0000000000000000
     0.0000000000000000    0.0000000000000000   20.2700004577999984
   Pr   Br   O 
    12    30     1
Direct
  0.2542323886841675  0.6459870125501991  0.4848307350900181
  0.0844827086446671  0.3603449779484471  0.4687980941353007
  0.2467842856304163  0.1375407377171758  0.5285679476828844
  0.0707728930944250  0.8735383578377773  0.4730414515350917
  0.5788972196578713  0.6459708694983158  0.4853812407530429
  0.4167427355273793  0.3612986733339686  0.4610167949512270
  0.5866526747958718  0.1376652189008188  0.5288529528755099
  0.4169701639638217  0.9118563584361643  0.6383307927502301
  0.9163949563859124  0.6372092012848241  0.5077284905472033
  0.7488157295895466  0.3603425182825296  0.4692269542215865
  0.9166927643441661  0.1455565872041822  0.5273684512246020
  0.7622941019350077  0.8735529842922177  0.4735380977853376
  0.2800483434116710  0.8254789317819898  0.4340136184525072
  0.0782285479701733  0.1511908617149172  0.6318434685165737
  0.2405927443031385  0.4734163455854677  0.3996277485523870
  0.0973493527898703  0.5225418307142666  0.5556007801251680
  0.0840010558219590  0.0601638445487270  0.4350614821990663
  0.2011973806858244  0.9580796777049772  0.5816119689932149
  0.0887246296354903  0.7399565615601899  0.5781191355322400
  0.2499584447443689  0.2458911776668984  0.4007758218910743
  0.0651405282056801  0.6849772697855366  0.4000235933280984
  0.2572960466692316  0.3226854337919299  0.5697121550436476
  0.5526623504798743  0.8259806250217774  0.4352421863034109
  0.4165738936794808  0.1215088212754871  0.6344627944633046
  0.5933367065666849  0.4734470168222343  0.3998911469656793
  0.4165392131211939  0.5188524538558348  0.5458684759376560
  0.4168776699408222  0.0490813681292071  0.4530495106024035
  0.6331512291039104  0.9585139220138866  0.5825511782557665
  0.4160820776732017  0.7260390762524156  0.5788651441237751
  0.5834895007559985  0.2457576180772687  0.4010032662270658
  0.4170981232819327  0.6438489310948894  0.3806444684887095
  0.5757542732762037  0.3227188670037537  0.5699209360686671
  0.9161587161596244  0.8901886499865452  0.3649546118272322
  0.7555200961828613  0.1520278088267751  0.6319539650032305
  0.9163673691146529  0.4799852159264165  0.4107719952798520
  0.7360783013185439  0.5224393718538569  0.5561228722540604
  0.7492033729521382  0.0601715066017945  0.4353231190268069
  0.9169512983096811  0.9515391151032274  0.5688223806485143
  0.7445471910024166  0.7400215866272664  0.5786442042206902
  0.9164718928746139  0.2525000248592665  0.4004701309824897
  0.7673875130835195  0.6852292603820153  0.4003097218508433
  0.9171570583281748  0.3316720801765448  0.5719864515756378
  0.4169127433038661  0.8804608519679973  0.7301294707081869
 
  0.00000000E+00  0.00000000E+00  0.00000000E+00
  0.00000000E+00  0.00000000E+00  0.00000000E+00
  0.00000000E+00  0.00000000E+00  0.00000000E+00
  0.00000000E+00  0.00000000E+00  0.00000000E+00
  0.00000000E+00  0.00000000E+00  0.00000000E+00
  0.00000000E+00  0.00000000E+00  0.00000000E+00
  0.00000000E+00  0.00000000E+00  0.00000000E+00
  0.00000000E+00  0.00000000E+00  0.00000000E+00
  0.00000000E+00  0.00000000E+00  0.00000000E+00
  0.00000000E+00  0.00000000E+00  0.00000000E+00
  0.00000000E+00  0.00000000E+00  0.00000000E+00
  0.00000000E+00  0.00000000E+00  0.00000000E+00
  0.00000000E+00  0.00000000E+00  0.00000000E+00
  0.00000000E+00  0.00000000E+00  0.00000000E+00
  0.00000000E+00  0.00000000E+00  0.00000000E+00
  0.00000000E+00  0.00000000E+00  0.00000000E+00
  0.00000000E+00  0.00000000E+00  0.00000000E+00
  0.00000000E+00  0.00000000E+00  0.00000000E+00
  0.00000000E+00  0.00000000E+00  0.00000000E+00
  0.00000000E+00  0.00000000E+00  0.00000000E+00
  0.00000000E+00  0.00000000E+00  0.00000000E+00
  0.00000000E+00  0.00000000E+00  0.00000000E+00
  0.00000000E+00  0.00000000E+00  0.00000000E+00
  0.00000000E+00  0.00000000E+00  0.00000000E+00
  0.00000000E+00  0.00000000E+00  0.00000000E+00
  0.00000000E+00  0.00000000E+00  0.00000000E+00
  0.00000000E+00  0.00000000E+00  0.00000000E+00
  0.00000000E+00  0.00000000E+00  0.00000000E+00
  0.00000000E+00  0.00000000E+00  0.00000000E+00
  0.00000000E+00  0.00000000E+00  0.00000000E+00
  0.00000000E+00  0.00000000E+00  0.00000000E+00
  0.00000000E+00  0.00000000E+00  0.00000000E+00
  0.00000000E+00  0.00000000E+00  0.00000000E+00
  0.00000000E+00  0.00000000E+00  0.00000000E+00
  0.00000000E+00  0.00000000E+00  0.00000000E+00
  0.00000000E+00  0.00000000E+00  0.00000000E+00
  0.00000000E+00  0.00000000E+00  0.00000000E+00
  0.00000000E+00  0.00000000E+00  0.00000000E+00
  0.00000000E+00  0.00000000E+00  0.00000000E+00
  0.00000000E+00  0.00000000E+00  0.00000000E+00
  0.00000000E+00  0.00000000E+00  0.00000000E+00
  0.00000000E+00  0.00000000E+00  0.00000000E+00
  0.00000000E+00  0.00000000E+00  0.00000000E+00
