CONTCAR                                 
   1.00000000000000     
    12.3756999968999999    0.0000000000000000    0.0000000000000000
     0.0000000000000000   15.7599000931000006    0.0000000000000000
     0.0000000000000000    0.0000000000000000   19.7080001831000011
   Ta   Ni   Te   O 
    16    16    32     1
Direct
  0.3816115213992591  0.4765131699982679  0.4891791752137277
  0.1315092250089420  0.0262134376703262  0.5075200196601863
  0.1183028458961973  0.2283277464006746  0.4941370201904260
  0.3691718010692817  0.2817159748394158  0.5075864075569557
  0.8795536408483955  0.4762464718370696  0.4942324130019588
  0.6298158294002346  0.0227840621235102  0.5045932041131492
  0.6211673101235341  0.2279444183155569  0.4976280601935346
  0.8707088532875535  0.2708525169657304  0.5018627811787374
  0.3795144313262008  0.9787265906171461  0.4980008945100510
  0.1305389875010932  0.5223102233952025  0.5055186831597279
  0.1149767115379717  0.7283311454338254  0.4966088515826889
  0.3669316097065232  0.7746274612076558  0.5054920386078906
  0.8772408583109311  0.9757286467187624  0.4987627183072138
  0.6223304521714812  0.5212737220909011  0.4930479899090957
  0.6158184525865340  0.7255545271784009  0.4963654262159372
  0.8667081730677760  0.7722248934736314  0.5030000135929863
  0.0504359935466103  0.3769846481667153  0.5412797172963680
  0.4501194596835368  0.1290661477897225  0.5435435015722286
  0.3028777005763693  0.1269016487039137  0.4591982657979419
  0.1986611810672507  0.3764392407532153  0.4577242666432695
  0.5542772441685703  0.3821699873194033  0.5451187045249068
  0.9473516796004138  0.1255028922199747  0.5438567107785058
  0.8014352664709433  0.1230852852060612  0.4576243024248746
  0.6992578321897829  0.3734110933350326  0.4557053022927728
  0.0498235253198908  0.8762533515669504  0.5447159373912979
  0.4432942382962929  0.6204028939831494  0.5443302096436188
  0.2972485548039730  0.6260463522547385  0.4583794723547258
  0.1956120569980649  0.8762759880523160  0.4594304137673969
  0.5495549253561171  0.8754573637496251  0.5440054481362416
  0.9424806507938508  0.6244376285465533  0.5430615493571092
  0.7985330749164831  0.6231414339497586  0.4557114139319573
  0.6946816174446692  0.8739518768145605  0.4578589169977933
  0.2607220038572313  0.3987799108662434  0.5915621488262808
  0.0053908525358631  0.2529714996742628  0.6175771007163717
  0.0004712592920118  0.1137197037513097  0.4150246699359691
  0.5025759648363696  0.3631801001240202  0.4124089866540120
  0.2552191988167734  0.2498100813365049  0.3820334698221721
  0.2469183771628128  0.0014615495212389  0.3836433036374529
  0.9974141973550490  0.0016612280994041  0.6210753663466863
  0.2513651296908621  0.1412055990830432  0.5865406579388156
  0.7530931079114261  0.3815156065873175  0.5844530297283762
  0.5042783316131024  0.2538516702110951  0.6199433936311185
  0.5013143248291188  0.1166406040071904  0.4154795239651359
  0.0007469643055098  0.3662077579203696  0.4124088751562608
  0.7530011598876262  0.2468581030633840  0.3806851942946188
  0.7488099491757522  0.9973743793966562  0.3819837982958298
  0.4981642126202006  0.0031050632695898  0.6198032583387155
  0.7498697018500117  0.1328928150169734  0.5870528841395466
  0.2485188246519920  0.8866616781759618  0.5879152463550852
  0.9946081505674865  0.7499514907175014  0.6192521430423246
  0.9982248681414059  0.6154075244604118  0.4148228054744548
  0.4961666144729515  0.8676099689119389  0.4151842404284276
  0.2467697647877852  0.7517790721740250  0.3825037769747404
  0.2462230978899797  0.5017777798829546  0.3797405777935307
  0.9956289539059806  0.4995771979091584  0.6182043953543290
  0.2462604291070910  0.6386813918962151  0.5868722706177869
  0.7477077595633551  0.8807126078447387  0.5870550082279482
  0.4984897897715306  0.7497643550968355  0.6191591587061903
  0.4928069048011342  0.6215074993563949  0.4112425596757830
  0.9971173393393097  0.8666049832662392  0.4156778356603618
  0.7478017637261130  0.7492169006046949  0.3808730412930218
  0.7474923867142425  0.4981417162030887  0.3776203440026555
  0.5004231870828252  0.5035598669250303  0.6243792935391449
  0.7403232886544022  0.6253257719718868  0.5831550728057509
  0.3696263176079170  0.4548315729965645  0.6667667957157889
 
  0.00000000E+00  0.00000000E+00  0.00000000E+00
  0.00000000E+00  0.00000000E+00  0.00000000E+00
  0.00000000E+00  0.00000000E+00  0.00000000E+00
  0.00000000E+00  0.00000000E+00  0.00000000E+00
  0.00000000E+00  0.00000000E+00  0.00000000E+00
  0.00000000E+00  0.00000000E+00  0.00000000E+00
  0.00000000E+00  0.00000000E+00  0.00000000E+00
  0.00000000E+00  0.00000000E+00  0.00000000E+00
  0.00000000E+00  0.00000000E+00  0.00000000E+00
  0.00000000E+00  0.00000000E+00  0.00000000E+00
  0.00000000E+00  0.00000000E+00  0.00000000E+00
  0.00000000E+00  0.00000000E+00  0.00000000E+00
  0.00000000E+00  0.00000000E+00  0.00000000E+00
  0.00000000E+00  0.00000000E+00  0.00000000E+00
  0.00000000E+00  0.00000000E+00  0.00000000E+00
  0.00000000E+00  0.00000000E+00  0.00000000E+00
  0.00000000E+00  0.00000000E+00  0.00000000E+00
  0.00000000E+00  0.00000000E+00  0.00000000E+00
  0.00000000E+00  0.00000000E+00  0.00000000E+00
  0.00000000E+00  0.00000000E+00  0.00000000E+00
  0.00000000E+00  0.00000000E+00  0.00000000E+00
  0.00000000E+00  0.00000000E+00  0.00000000E+00
  0.00000000E+00  0.00000000E+00  0.00000000E+00
  0.00000000E+00  0.00000000E+00  0.00000000E+00
  0.00000000E+00  0.00000000E+00  0.00000000E+00
  0.00000000E+00  0.00000000E+00  0.00000000E+00
  0.00000000E+00  0.00000000E+00  0.00000000E+00
  0.00000000E+00  0.00000000E+00  0.00000000E+00
  0.00000000E+00  0.00000000E+00  0.00000000E+00
  0.00000000E+00  0.00000000E+00  0.00000000E+00
  0.00000000E+00  0.00000000E+00  0.00000000E+00
  0.00000000E+00  0.00000000E+00  0.00000000E+00
  0.00000000E+00  0.00000000E+00  0.00000000E+00
  0.00000000E+00  0.00000000E+00  0.00000000E+00
  0.00000000E+00  0.00000000E+00  0.00000000E+00
  0.00000000E+00  0.00000000E+00  0.00000000E+00
  0.00000000E+00  0.00000000E+00  0.00000000E+00
  0.00000000E+00  0.00000000E+00  0.00000000E+00
  0.00000000E+00  0.00000000E+00  0.00000000E+00
  0.00000000E+00  0.00000000E+00  0.00000000E+00
  0.00000000E+00  0.00000000E+00  0.00000000E+00
  0.00000000E+00  0.00000000E+00  0.00000000E+00
  0.00000000E+00  0.00000000E+00  0.00000000E+00
  0.00000000E+00  0.00000000E+00  0.00000000E+00
  0.00000000E+00  0.00000000E+00  0.00000000E+00
  0.00000000E+00  0.00000000E+00  0.00000000E+00
  0.00000000E+00  0.00000000E+00  0.00000000E+00
  0.00000000E+00  0.00000000E+00  0.00000000E+00
  0.00000000E+00  0.00000000E+00  0.00000000E+00
  0.00000000E+00  0.00000000E+00  0.00000000E+00
  0.00000000E+00  0.00000000E+00  0.00000000E+00
  0.00000000E+00  0.00000000E+00  0.00000000E+00
  0.00000000E+00  0.00000000E+00  0.00000000E+00
  0.00000000E+00  0.00000000E+00  0.00000000E+00
  0.00000000E+00  0.00000000E+00  0.00000000E+00
  0.00000000E+00  0.00000000E+00  0.00000000E+00
  0.00000000E+00  0.00000000E+00  0.00000000E+00
  0.00000000E+00  0.00000000E+00  0.00000000E+00
  0.00000000E+00  0.00000000E+00  0.00000000E+00
  0.00000000E+00  0.00000000E+00  0.00000000E+00
  0.00000000E+00  0.00000000E+00  0.00000000E+00
  0.00000000E+00  0.00000000E+00  0.00000000E+00
  0.00000000E+00  0.00000000E+00  0.00000000E+00
  0.00000000E+00  0.00000000E+00  0.00000000E+00
  0.00000000E+00  0.00000000E+00  0.00000000E+00
