CONTCAR\(4)                             
   1.00000000000000     
    14.6900997162000007    0.0000000000000000    0.0000000000000000
     7.3450498581000003   12.7219995383000004    0.0000000000000000
     0.0000000000000000    0.0000000000000000   21.0473995209000009
   Er   H    Cl   O 
    32    32    32     1
Direct
  0.9997271906311761  0.9997271906311761  0.4368390745484891
  0.0831755486783110  0.0831755396783138  0.5621241403369915
  0.2503189830672420  0.9993744091390047  0.4354520574567577
  0.3336580853648577  0.0831704400676573  0.5621291294115345
  0.5005674866392165  0.9997266813854597  0.4368554607434794
  0.5834250792971256  0.0843976817883381  0.5646250858568692
  0.7494500347093012  0.0011225880362738  0.4375539485187349
  0.8322071572138269  0.0843882515449259  0.5646146495048076
  0.9993744131390050  0.2503189760672450  0.4354520574567577
  0.0831704520676583  0.3336580863648614  0.5621291294115345
  0.2503199468928575  0.2503199528928580  0.4354576726536484
  0.3317625609412752  0.3317625419412771  0.5649453319410932
  0.5003287073090188  0.2517628203968416  0.4395453248145375
  0.5756962496705794  0.3486322572748901  0.5751506352381546
  0.7479293294387015  0.2517584616220863  0.4395436836581195
  0.8364905636548429  0.3317541167377836  0.5649383748984969
  0.9997266883854568  0.5005674716392188  0.4368554607434794
  0.0843976907883353  0.5834250212971279  0.5646250858568692
  0.2517628343968357  0.5003286723090195  0.4395453248145375
  0.3486322412748887  0.5756962366705819  0.5751506352381546
  0.5000095319854431  0.5000095419854439  0.4309717164541269
  0.5756940896602545  0.5756940476602581  0.5751420212693853
  0.7479360656639874  0.5003224610753526  0.4395386368297961
  0.8321846237364856  0.5834289956744613  0.5646185844817512
  0.0011225920362741  0.7494500257093040  0.4375539485187349
  0.0843882385449284  0.8322071432138257  0.5646146495048076
  0.2517585056220829  0.7479293014386992  0.4395436836581195
  0.3317541107377831  0.8364905946548419  0.5649383748984969
  0.5003224800753506  0.7479360176639905  0.4395386368297961
  0.5834289836744603  0.8321846897364840  0.5646185844817512
  0.7494528851764538  0.7494528721764563  0.4375448450215880
  0.8333390284222807  0.8333390194222764  0.5639595233494304
  0.9992702943522596  0.9992702943522596  0.5384881213694902
  0.0833604054634944  0.0833603964634972  0.4600955980746986
  0.2490775780605721  0.0018432273599282  0.5373114943046959
  0.3332995341194772  0.0833575432299867  0.4601023200516428
  0.5014876506314426  0.9992593089965199  0.5385050256538318
  0.5832816608216868  0.0838123459460941  0.4626194485171669
  0.7499787867118602  0.0000614434236045  0.5394715259488896
  0.8329331595868916  0.0838097640774701  0.4626116594631374
  0.0018432313599285  0.2490775710605751  0.5373114943046959
  0.0833575552299877  0.3332995351194808  0.4601023200516428
  0.2490785142046916  0.2490785202046921  0.5373193497632325
  0.3333447662990026  0.3333447472990046  0.4622153418007209
  0.5005210782444179  0.2524995285602183  0.5416401109782170
  0.5822808143689564  0.3354509433727798  0.4654841712185273
  0.7470056162936998  0.2524791897892181  0.5416367038337094
  0.8333298794413848  0.3333417703040548  0.4622075539106426
  0.9992593159965170  0.5014876356314449  0.5385050256538318
  0.0838123549460913  0.5832816028216891  0.4626194485171669
  0.2524995425602123  0.5005210432444186  0.5416401109782170
  0.3354509273727784  0.5822808013689589  0.4654841712185273
  0.4999932690378669  0.4999932790378677  0.5206008295233795
  0.5822901942864016  0.5822901522864052  0.4654819225776662
  0.7470041622124074  0.5005143002694187  0.5416343528798803
  0.8329202268597817  0.5832892645378587  0.4626107012451252
  0.0000614474236048  0.7499787777118631  0.5394715259488896
  0.0838097510774726  0.8329331455868905  0.4626116594631374
  0.2524792337892147  0.7470055882936975  0.5416367038337094
  0.3333417643040543  0.8333299104413838  0.4622075539106426
  0.5005143192694167  0.7470041142124105  0.5416343528798803
  0.5832892525378577  0.8329202928597801  0.4626107012451252
  0.7499791082671591  0.7499790952671616  0.5394606111038208
  0.8333400057444471  0.8333399967444428  0.4621933160565227
  0.1666673867866084  0.1666673847866083  0.6419478722313801
  0.1666746693811824  0.1666746673811823  0.3550814409351537
  0.4162830783174842  0.1612238549163562  0.6436117988651017
  0.4185087013464037  0.1666248838381585  0.3570505104305309
  0.6669244520095989  0.1661806404866160  0.6456888787009860
  0.6658787033403986  0.1682596703903539  0.3581392685236846
  0.9225040006402365  0.1612205329371423  0.6436108004254349
  0.9148757007656826  0.1666271568919968  0.3570409487222493
  0.1612238539163525  0.4162830503174819  0.6436117988651017
  0.1666248828381549  0.4185086733464014  0.3570505104305309
  0.3979018756074857  0.3979018186074845  0.6564509140643393
  0.4143070105021693  0.4143069535021682  0.3558459881434675
  0.7042134994023409  0.3978847489922948  0.6564629443582073
  0.6714089428104366  0.4143028211726283  0.3558421422518298
  0.9224867325837123  0.4162915629862640  0.6436090732567370
  0.9149028264024129  0.4185045785975956  0.3570434157456043
  0.1661806314866118  0.6669244410096016  0.6456888787009860
  0.1682596613903496  0.6658786923404012  0.3581392685236846
  0.3978847979922953  0.7042134584023411  0.6564629443582073
  0.4143028701726288  0.6714089018104368  0.3558421422518298
  0.6669134969584763  0.6669134649584808  0.6456953289157796
  0.6658794812520893  0.6658794492520937  0.3581342191520452
  0.9165746628506248  0.6668542358145275  0.6441279830980501
  0.9164333573646462  0.6671722272282028  0.3570748771475460
  0.1612205339371389  0.9225040326402321  0.6436108004254349
  0.1666271578919933  0.9148757327656781  0.3570409487222493
  0.4162915579862601  0.9224867355837090  0.6436090732567370
  0.4185045735975916  0.9149028294024096  0.3570434157456043
  0.6668542138145257  0.9165747388506240  0.6441279830980501
  0.6671722052282010  0.9164334333646453  0.3570748771475460
  0.9165792803633193  0.9165792813633158  0.6441302522263566
  0.9164188885842821  0.9164188895842786  0.3570743180110016
  0.5000282737069619  0.5000082667069586  0.6160133185873941
 
  0.00000000E+00  0.00000000E+00  0.00000000E+00
  0.00000000E+00  0.00000000E+00  0.00000000E+00
  0.00000000E+00  0.00000000E+00  0.00000000E+00
  0.00000000E+00  0.00000000E+00  0.00000000E+00
  0.00000000E+00  0.00000000E+00  0.00000000E+00
  0.00000000E+00  0.00000000E+00  0.00000000E+00
  0.00000000E+00  0.00000000E+00  0.00000000E+00
  0.00000000E+00  0.00000000E+00  0.00000000E+00
  0.00000000E+00  0.00000000E+00  0.00000000E+00
  0.00000000E+00  0.00000000E+00  0.00000000E+00
  0.00000000E+00  0.00000000E+00  0.00000000E+00
  0.00000000E+00  0.00000000E+00  0.00000000E+00
  0.00000000E+00  0.00000000E+00  0.00000000E+00
  0.00000000E+00  0.00000000E+00  0.00000000E+00
  0.00000000E+00  0.00000000E+00  0.00000000E+00
  0.00000000E+00  0.00000000E+00  0.00000000E+00
  0.00000000E+00  0.00000000E+00  0.00000000E+00
  0.00000000E+00  0.00000000E+00  0.00000000E+00
  0.00000000E+00  0.00000000E+00  0.00000000E+00
  0.00000000E+00  0.00000000E+00  0.00000000E+00
  0.00000000E+00  0.00000000E+00  0.00000000E+00
  0.00000000E+00  0.00000000E+00  0.00000000E+00
  0.00000000E+00  0.00000000E+00  0.00000000E+00
  0.00000000E+00  0.00000000E+00  0.00000000E+00
  0.00000000E+00  0.00000000E+00  0.00000000E+00
  0.00000000E+00  0.00000000E+00  0.00000000E+00
  0.00000000E+00  0.00000000E+00  0.00000000E+00
  0.00000000E+00  0.00000000E+00  0.00000000E+00
  0.00000000E+00  0.00000000E+00  0.00000000E+00
  0.00000000E+00  0.00000000E+00  0.00000000E+00
  0.00000000E+00  0.00000000E+00  0.00000000E+00
  0.00000000E+00  0.00000000E+00  0.00000000E+00
  0.00000000E+00  0.00000000E+00  0.00000000E+00
  0.00000000E+00  0.00000000E+00  0.00000000E+00
  0.00000000E+00  0.00000000E+00  0.00000000E+00
  0.00000000E+00  0.00000000E+00  0.00000000E+00
  0.00000000E+00  0.00000000E+00  0.00000000E+00
  0.00000000E+00  0.00000000E+00  0.00000000E+00
  0.00000000E+00  0.00000000E+00  0.00000000E+00
  0.00000000E+00  0.00000000E+00  0.00000000E+00
  0.00000000E+00  0.00000000E+00  0.00000000E+00
  0.00000000E+00  0.00000000E+00  0.00000000E+00
  0.00000000E+00  0.00000000E+00  0.00000000E+00
  0.00000000E+00  0.00000000E+00  0.00000000E+00
  0.00000000E+00  0.00000000E+00  0.00000000E+00
  0.00000000E+00  0.00000000E+00  0.00000000E+00
  0.00000000E+00  0.00000000E+00  0.00000000E+00
  0.00000000E+00  0.00000000E+00  0.00000000E+00
  0.00000000E+00  0.00000000E+00  0.00000000E+00
  0.00000000E+00  0.00000000E+00  0.00000000E+00
  0.00000000E+00  0.00000000E+00  0.00000000E+00
  0.00000000E+00  0.00000000E+00  0.00000000E+00
  0.00000000E+00  0.00000000E+00  0.00000000E+00
  0.00000000E+00  0.00000000E+00  0.00000000E+00
  0.00000000E+00  0.00000000E+00  0.00000000E+00
  0.00000000E+00  0.00000000E+00  0.00000000E+00
  0.00000000E+00  0.00000000E+00  0.00000000E+00
  0.00000000E+00  0.00000000E+00  0.00000000E+00
  0.00000000E+00  0.00000000E+00  0.00000000E+00
  0.00000000E+00  0.00000000E+00  0.00000000E+00
  0.00000000E+00  0.00000000E+00  0.00000000E+00
  0.00000000E+00  0.00000000E+00  0.00000000E+00
  0.00000000E+00  0.00000000E+00  0.00000000E+00
  0.00000000E+00  0.00000000E+00  0.00000000E+00
  0.00000000E+00  0.00000000E+00  0.00000000E+00
  0.00000000E+00  0.00000000E+00  0.00000000E+00
  0.00000000E+00  0.00000000E+00  0.00000000E+00
  0.00000000E+00  0.00000000E+00  0.00000000E+00
  0.00000000E+00  0.00000000E+00  0.00000000E+00
  0.00000000E+00  0.00000000E+00  0.00000000E+00
  0.00000000E+00  0.00000000E+00  0.00000000E+00
  0.00000000E+00  0.00000000E+00  0.00000000E+00
  0.00000000E+00  0.00000000E+00  0.00000000E+00
  0.00000000E+00  0.00000000E+00  0.00000000E+00
  0.00000000E+00  0.00000000E+00  0.00000000E+00
  0.00000000E+00  0.00000000E+00  0.00000000E+00
  0.00000000E+00  0.00000000E+00  0.00000000E+00
  0.00000000E+00  0.00000000E+00  0.00000000E+00
  0.00000000E+00  0.00000000E+00  0.00000000E+00
  0.00000000E+00  0.00000000E+00  0.00000000E+00
  0.00000000E+00  0.00000000E+00  0.00000000E+00
  0.00000000E+00  0.00000000E+00  0.00000000E+00
  0.00000000E+00  0.00000000E+00  0.00000000E+00
  0.00000000E+00  0.00000000E+00  0.00000000E+00
  0.00000000E+00  0.00000000E+00  0.00000000E+00
  0.00000000E+00  0.00000000E+00  0.00000000E+00
  0.00000000E+00  0.00000000E+00  0.00000000E+00
  0.00000000E+00  0.00000000E+00  0.00000000E+00
  0.00000000E+00  0.00000000E+00  0.00000000E+00
  0.00000000E+00  0.00000000E+00  0.00000000E+00
  0.00000000E+00  0.00000000E+00  0.00000000E+00
  0.00000000E+00  0.00000000E+00  0.00000000E+00
  0.00000000E+00  0.00000000E+00  0.00000000E+00
  0.00000000E+00  0.00000000E+00  0.00000000E+00
  0.00000000E+00  0.00000000E+00  0.00000000E+00
  0.00000000E+00  0.00000000E+00  0.00000000E+00
  0.00000000E+00  0.00000000E+00  0.00000000E+00
