CONTCAR\(7)                             
   1.00000000000000     
    11.9160003662000005    0.0000000000000000    0.0000000000000000
    -5.9580032889999996   10.3494530515999994    0.0000000000000000
     0.0000000000000000    0.0000000000000000   17.8166999817000011
   Hf   Fe   Cl
     4     4    24
Direct
  0.1672679094007208  0.3334867528822727  0.5000899327510240
  0.6672679194007145  0.3334867528822727  0.5000899327510240
  0.1672678644007206  0.8334867028822686  0.5000899327510240
  0.6672679044007168  0.8334867028822686  0.5000899327510240
  0.4996806938304061  0.4998786319215967  0.4999900744407739
  0.9996807338304095  0.4998786319215967  0.4999900744407739
  0.4996806618304035  0.9998786279215963  0.4999900744407739
  0.9996807018304068  0.9998786279215963  0.4999900744407739
  0.1549580549541645  0.4970469155891379  0.5781356103662603
  0.3422965241991704  0.3451751741397899  0.5786856890838479
  0.0022252534439957  0.1579606681889487  0.5777464040940288
  0.1551022255350176  0.1577982449578883  0.4220000532510042
  0.0031796591053279  0.3451721741813643  0.4218581888008188
  0.3419596455312046  0.4968214521390024  0.4214941012122466
  0.6549580749541590  0.4970469155891379  0.5781356103662603
  0.8422964441991709  0.3451751741397899  0.5786856890838479
  0.5022252584439997  0.1579606681889487  0.5777464040940288
  0.6551022305350145  0.1577982449578883  0.4220000532510042
  0.5031796591053279  0.3451721741813643  0.4218581888008188
  0.8419596255312101  0.4968214521390024  0.4214941012122466
  0.1549580029541602  0.9970469115891376  0.5781356103662603
  0.3422964981991683  0.8451751011397945  0.5786856890838479
  0.0022252324439975  0.6579606761889494  0.5777464040940288
  0.1551022335350183  0.6577982299578906  0.4220000532510042
  0.0031796911053235  0.8451722161813677  0.4218581888008188
  0.3419596335312036  0.9968214491389986  0.4214941012122466
  0.6549580439541600  0.9970469115891376  0.5781356103662603
  0.8422964181991688  0.8451751011397945  0.5786856890838479
  0.5022252324439975  0.6579606761889494  0.5777464040940288
  0.6551022135350166  0.6577982299578906  0.4220000532510042
  0.5031796911053235  0.8451722161813677  0.4218581888008188
  0.8419595935312074  0.9968214491389986  0.4214941012122466
 
  0.00000000E+00  0.00000000E+00  0.00000000E+00
  0.00000000E+00  0.00000000E+00  0.00000000E+00
  0.00000000E+00  0.00000000E+00  0.00000000E+00
  0.00000000E+00  0.00000000E+00  0.00000000E+00
  0.00000000E+00  0.00000000E+00  0.00000000E+00
  0.00000000E+00  0.00000000E+00  0.00000000E+00
  0.00000000E+00  0.00000000E+00  0.00000000E+00
  0.00000000E+00  0.00000000E+00  0.00000000E+00
  0.00000000E+00  0.00000000E+00  0.00000000E+00
  0.00000000E+00  0.00000000E+00  0.00000000E+00
  0.00000000E+00  0.00000000E+00  0.00000000E+00
  0.00000000E+00  0.00000000E+00  0.00000000E+00
  0.00000000E+00  0.00000000E+00  0.00000000E+00
  0.00000000E+00  0.00000000E+00  0.00000000E+00
  0.00000000E+00  0.00000000E+00  0.00000000E+00
  0.00000000E+00  0.00000000E+00  0.00000000E+00
  0.00000000E+00  0.00000000E+00  0.00000000E+00
  0.00000000E+00  0.00000000E+00  0.00000000E+00
  0.00000000E+00  0.00000000E+00  0.00000000E+00
  0.00000000E+00  0.00000000E+00  0.00000000E+00
  0.00000000E+00  0.00000000E+00  0.00000000E+00
  0.00000000E+00  0.00000000E+00  0.00000000E+00
  0.00000000E+00  0.00000000E+00  0.00000000E+00
  0.00000000E+00  0.00000000E+00  0.00000000E+00
  0.00000000E+00  0.00000000E+00  0.00000000E+00
  0.00000000E+00  0.00000000E+00  0.00000000E+00
  0.00000000E+00  0.00000000E+00  0.00000000E+00
  0.00000000E+00  0.00000000E+00  0.00000000E+00
  0.00000000E+00  0.00000000E+00  0.00000000E+00
  0.00000000E+00  0.00000000E+00  0.00000000E+00
  0.00000000E+00  0.00000000E+00  0.00000000E+00
  0.00000000E+00  0.00000000E+00  0.00000000E+00
