CONTCAR\(4)                             
   1.00000000000000     
    11.6593999863000004    0.0000000000000000    0.0000000000000000
    -5.8296999931000002   10.0973365810000004    0.0000000000000000
     0.0000000000000000    0.0000000000000000   24.5373001098999985
   Zn   In   S    O    H 
     9    18    36     2     1
Direct
  0.1126779381224459  0.2235055633922053  0.3243176054525237
  0.4457693722987790  0.2235051901177920  0.3217957001343977
  0.7795909221853002  0.2236928421880937  0.3218311709357540
  0.1127431710809682  0.5566426271413821  0.3244038274301339
  0.4457422677748140  0.5566046636649449  0.3240767343417781
  0.7764166413151049  0.5515333430594049  0.3248941211778096
  0.1182736518889820  0.8929728084260163  0.3260241675898272
  0.4457589400491501  0.8899328773820211  0.3221632177974411
  0.7762123607020718  0.8928732522415853  0.3256507537755924
  0.0037284299809456  0.0025894409227814  0.4834835200202703
  0.2230743885034288  0.1113675350496873  0.6471881235065244
  0.3376216788958654  0.0023624947291703  0.4831196191884588
  0.5563449778443151  0.1119270885972686  0.6471992012742255
  0.6697235023905393  0.0023616209242053  0.4830528721338739
  0.8897214093326270  0.1117780541544543  0.6471282828945533
  0.0029486852750785  0.3349323252460785  0.4827515434295016
  0.2230351699006787  0.4449817820543356  0.6465133674452385
  0.3367796878912793  0.3351075981620315  0.4830599372637253
  0.5564826040219536  0.4452124020696925  0.6471284562612425
  0.6694339431701359  0.3347067353771510  0.4827509376487879
  0.8896767989281754  0.4451471651653608  0.6465884299402909
  0.0032820248424761  0.6683435459081740  0.4832883596525220
  0.2230480519959611  0.7783217095582579  0.6466206074141773
  0.3368989147248959  0.6686745316986814  0.4827928655518949
  0.5566148950148613  0.7787459095287456  0.6470422030862766
  0.6697682539420116  0.6685798194522762  0.4833429383817654
  0.8896570955610272  0.7784541026506979  0.6471481522540374
  0.2232365542149909  0.1124098161797262  0.3064648994765759
  0.2251834560195652  0.1125627474346010  0.5486106046727848
  0.1141852199848162  0.2237121482924312  0.4327981709830956
  0.1121289928473744  0.2230380133969700  0.6935432336772478
  0.5570855743812922  0.1123457105488219  0.3072705625166065
  0.5581327538464911  0.1127431422462843  0.5486150425798303
  0.4471701746257115  0.2238895710501700  0.4325934586335982
  0.4453154079273350  0.2230224310953728  0.6938820689995813
  0.8909609140753202  0.1124945355609131  0.3065376796956442
  0.8912472372321835  0.1126362153096557  0.5485257761145313
  0.7806521573250145  0.2238845015601426  0.4325241143231854
  0.7787960929097484  0.2232326878743247  0.6936602902210002
  0.2235470723148995  0.4455196891443973  0.3084393841582609
  0.2247850080216791  0.4459120135439245  0.5480620965580043
  0.1139859379354021  0.5573864402726445  0.4327589138304552
  0.1119874470568636  0.5560207575945574  0.6932899273847996
  0.5566423862584132  0.4459120367880057  0.3062999960343564
  0.5583554314548370  0.4458053764761623  0.5485127961302878
  0.4481456162437905  0.5574468260107485  0.4328401989895098
  0.4450494113395998  0.5562780097551131  0.6934998278190549
  0.8910654460697032  0.4461765435987196  0.3063452253281330
  0.8910543040206350  0.4454855191373039  0.5481404482024347
  0.7808319490119630  0.5575967124456853  0.4327974218668645
  0.7787843624825441  0.5561449651728035  0.6936848473039450
  0.2232109142054700  0.7783750818347588  0.3066321351888366
  0.2248849070934338  0.7793660101742313  0.5481946488439294
  0.1141836704954018  0.8907725053895490  0.4330793830737037
  0.1119916472833597  0.8890729113969693  0.6937169820450516
  0.5566545274676095  0.7783862593636388  0.3067981772187346
  0.5581919767280922  0.7795751102120603  0.5484685772578025
  0.4474942079327768  0.8906370337018489  0.4326761659997802
  0.4449859066148910  0.8893961113814525  0.6936173626204620
  0.8907243427828846  0.7795819375320878  0.3111913770414163
  0.8915387198032255  0.7793448075718767  0.5485194586404537
  0.7811795552143105  0.8909238079232193  0.4330846101498294
  0.7786515938743064  0.8895915044615774  0.6938700757409116
  0.7650973355650109  0.7515932007442783  0.1771719097441022
  0.8891839071345163  0.7993131860221693  0.1915607849151390
  0.8909228205706632  0.7914880179382895  0.2356345390375404
 
  0.00000000E+00  0.00000000E+00  0.00000000E+00
  0.00000000E+00  0.00000000E+00  0.00000000E+00
  0.00000000E+00  0.00000000E+00  0.00000000E+00
  0.00000000E+00  0.00000000E+00  0.00000000E+00
  0.00000000E+00  0.00000000E+00  0.00000000E+00
  0.00000000E+00  0.00000000E+00  0.00000000E+00
  0.00000000E+00  0.00000000E+00  0.00000000E+00
  0.00000000E+00  0.00000000E+00  0.00000000E+00
  0.00000000E+00  0.00000000E+00  0.00000000E+00
  0.00000000E+00  0.00000000E+00  0.00000000E+00
  0.00000000E+00  0.00000000E+00  0.00000000E+00
  0.00000000E+00  0.00000000E+00  0.00000000E+00
  0.00000000E+00  0.00000000E+00  0.00000000E+00
  0.00000000E+00  0.00000000E+00  0.00000000E+00
  0.00000000E+00  0.00000000E+00  0.00000000E+00
  0.00000000E+00  0.00000000E+00  0.00000000E+00
  0.00000000E+00  0.00000000E+00  0.00000000E+00
  0.00000000E+00  0.00000000E+00  0.00000000E+00
  0.00000000E+00  0.00000000E+00  0.00000000E+00
  0.00000000E+00  0.00000000E+00  0.00000000E+00
  0.00000000E+00  0.00000000E+00  0.00000000E+00
  0.00000000E+00  0.00000000E+00  0.00000000E+00
  0.00000000E+00  0.00000000E+00  0.00000000E+00
  0.00000000E+00  0.00000000E+00  0.00000000E+00
  0.00000000E+00  0.00000000E+00  0.00000000E+00
  0.00000000E+00  0.00000000E+00  0.00000000E+00
  0.00000000E+00  0.00000000E+00  0.00000000E+00
  0.00000000E+00  0.00000000E+00  0.00000000E+00
  0.00000000E+00  0.00000000E+00  0.00000000E+00
  0.00000000E+00  0.00000000E+00  0.00000000E+00
  0.00000000E+00  0.00000000E+00  0.00000000E+00
  0.00000000E+00  0.00000000E+00  0.00000000E+00
  0.00000000E+00  0.00000000E+00  0.00000000E+00
  0.00000000E+00  0.00000000E+00  0.00000000E+00
  0.00000000E+00  0.00000000E+00  0.00000000E+00
  0.00000000E+00  0.00000000E+00  0.00000000E+00
  0.00000000E+00  0.00000000E+00  0.00000000E+00
  0.00000000E+00  0.00000000E+00  0.00000000E+00
  0.00000000E+00  0.00000000E+00  0.00000000E+00
  0.00000000E+00  0.00000000E+00  0.00000000E+00
  0.00000000E+00  0.00000000E+00  0.00000000E+00
  0.00000000E+00  0.00000000E+00  0.00000000E+00
  0.00000000E+00  0.00000000E+00  0.00000000E+00
  0.00000000E+00  0.00000000E+00  0.00000000E+00
  0.00000000E+00  0.00000000E+00  0.00000000E+00
  0.00000000E+00  0.00000000E+00  0.00000000E+00
  0.00000000E+00  0.00000000E+00  0.00000000E+00
  0.00000000E+00  0.00000000E+00  0.00000000E+00
  0.00000000E+00  0.00000000E+00  0.00000000E+00
  0.00000000E+00  0.00000000E+00  0.00000000E+00
  0.00000000E+00  0.00000000E+00  0.00000000E+00
  0.00000000E+00  0.00000000E+00  0.00000000E+00
  0.00000000E+00  0.00000000E+00  0.00000000E+00
  0.00000000E+00  0.00000000E+00  0.00000000E+00
  0.00000000E+00  0.00000000E+00  0.00000000E+00
  0.00000000E+00  0.00000000E+00  0.00000000E+00
  0.00000000E+00  0.00000000E+00  0.00000000E+00
  0.00000000E+00  0.00000000E+00  0.00000000E+00
  0.00000000E+00  0.00000000E+00  0.00000000E+00
  0.00000000E+00  0.00000000E+00  0.00000000E+00
  0.00000000E+00  0.00000000E+00  0.00000000E+00
  0.00000000E+00  0.00000000E+00  0.00000000E+00
  0.00000000E+00  0.00000000E+00  0.00000000E+00
  0.00000000E+00  0.00000000E+00  0.00000000E+00
  0.00000000E+00  0.00000000E+00  0.00000000E+00
  0.00000000E+00  0.00000000E+00  0.00000000E+00
