 Ru1 Cl2 O1                             
   1.00000000000000     
     3.5011559516865094    0.0000000000000000    0.0000000000000000
     0.0000000000000000    3.6616198567162472    0.0000000000000000
     0.0000000000000000    0.0000000000000000   18.2711943927504095
   Ru   Cl   O 
     1     2     1
Direct
  0.0000000005377414  0.0003525241833783  0.4999960803685731
  0.4999999982910692  0.0003808108900727  0.5895123434514489
  0.5000000005097667  0.0004509134681625  0.4104812999393118
  0.0000000006614227  0.5004529885140193  0.4999970587139521
 
  0.00000000E+00  0.00000000E+00  0.00000000E+00
  0.00000000E+00  0.00000000E+00  0.00000000E+00
  0.00000000E+00  0.00000000E+00  0.00000000E+00
  0.00000000E+00  0.00000000E+00  0.00000000E+00
