CONTCAR\(8)                             
   1.00000000000000     
    11.0881996155000007    0.0000000000000000    0.0000000000000000
     0.0000000000000000   11.7503995895000006    0.0000000000000000
     0.0000000000000000    0.0000000000000000   16.5046005248999990
   Cu   Ag   O 
     8     8    17
Direct
  0.9995776332278303  0.4283264126225801  0.4987295009133863
  0.2500000884498871  0.4360525734934346  0.5085298320999692
  0.5004202222068829  0.4283240810223261  0.4987109043893607
  0.7499968225435523  0.4258572563962509  0.4927182669468728
  0.9993643723724874  0.9282009084352718  0.5022682261659588
  0.2500072395765274  0.9285048079566635  0.5102576057895994
  0.5006477679270089  0.9281944011291238  0.5022555496760979
  0.7500039724550548  0.9248388345934141  0.4941175090159568
  0.1252108205164529  0.1804070743046095  0.5065297772825057
  0.3747990130819064  0.1804063556048260  0.5065028828529458
  0.6247973606500048  0.1755979526297736  0.4931141549768892
  0.8752145134478828  0.1755980713732304  0.4931188465671122
  0.1145398191085420  0.6770994747113014  0.5215815463510804
  0.3854739052734446  0.6771285535273051  0.5215697757309555
  0.6255709528242546  0.6767324558918585  0.4895869355728734
  0.8744440799045088  0.6767332001497507  0.4896005254699935
  0.1238080152153601  0.3451329875505803  0.5445816183557057
  0.1265412443085423  0.0162085220967965  0.4669881388904805
  0.3761996221961872  0.3451255926422706  0.5445571506671447
  0.3734608727972791  0.0161961827638192  0.4669669540505027
  0.6259871852054288  0.3385100676642945  0.5349129431715178
  0.6237447356338357  0.0112067049887491  0.4536043919002484
  0.8740086379846291  0.3385058683590284  0.5349276903876038
  0.8762742132038983  0.0112066318855463  0.4536159578908515
  0.1203214330728507  0.8456841941031014  0.5518210826314337
  0.1228635369762614  0.5217065825031142  0.4656092237277986
  0.3796940919872944  0.8456657182911935  0.5518058633767737
  0.3771337973539099  0.5216915458756700  0.4655827010866813
  0.6268459432947477  0.8367675438881093  0.5363678959880999
  0.6238459227796762  0.5121557185748249  0.4513641212308896
  0.8731588975945946  0.8367697635382203  0.5363728955568641
  0.8761685187458281  0.5121601432177423  0.4513753159909953
  0.2500150270834400  0.6233835602152322  0.5990041932948970
 
  0.00000000E+00  0.00000000E+00  0.00000000E+00
  0.00000000E+00  0.00000000E+00  0.00000000E+00
  0.00000000E+00  0.00000000E+00  0.00000000E+00
  0.00000000E+00  0.00000000E+00  0.00000000E+00
  0.00000000E+00  0.00000000E+00  0.00000000E+00
  0.00000000E+00  0.00000000E+00  0.00000000E+00
  0.00000000E+00  0.00000000E+00  0.00000000E+00
  0.00000000E+00  0.00000000E+00  0.00000000E+00
  0.00000000E+00  0.00000000E+00  0.00000000E+00
  0.00000000E+00  0.00000000E+00  0.00000000E+00
  0.00000000E+00  0.00000000E+00  0.00000000E+00
  0.00000000E+00  0.00000000E+00  0.00000000E+00
  0.00000000E+00  0.00000000E+00  0.00000000E+00
  0.00000000E+00  0.00000000E+00  0.00000000E+00
  0.00000000E+00  0.00000000E+00  0.00000000E+00
  0.00000000E+00  0.00000000E+00  0.00000000E+00
  0.00000000E+00  0.00000000E+00  0.00000000E+00
  0.00000000E+00  0.00000000E+00  0.00000000E+00
  0.00000000E+00  0.00000000E+00  0.00000000E+00
  0.00000000E+00  0.00000000E+00  0.00000000E+00
  0.00000000E+00  0.00000000E+00  0.00000000E+00
  0.00000000E+00  0.00000000E+00  0.00000000E+00
  0.00000000E+00  0.00000000E+00  0.00000000E+00
  0.00000000E+00  0.00000000E+00  0.00000000E+00
  0.00000000E+00  0.00000000E+00  0.00000000E+00
  0.00000000E+00  0.00000000E+00  0.00000000E+00
  0.00000000E+00  0.00000000E+00  0.00000000E+00
  0.00000000E+00  0.00000000E+00  0.00000000E+00
  0.00000000E+00  0.00000000E+00  0.00000000E+00
  0.00000000E+00  0.00000000E+00  0.00000000E+00
  0.00000000E+00  0.00000000E+00  0.00000000E+00
  0.00000000E+00  0.00000000E+00  0.00000000E+00
  0.00000000E+00  0.00000000E+00  0.00000000E+00
