CONTCAR                                 
   1.00000000000000     
     4.2196002007000004    0.0000000000000000    0.0000000000000000
    -2.1098352194999999    3.6546070191000002    0.0000000000000000
     0.0000000000000000    0.0000000000000000   35.9861984253000031
   Bi   Se   O 
     6     6     2
Direct
  0.7561344600712319  0.3752413877729701  0.5251889703977128
  0.4230532349911161  0.7086376205411145  0.4749589524036699
  0.7498129270883352  0.3280193083376284  0.3584125285149899
  0.4433702613554862  0.7358672346704065  0.6411820564272909
  0.0630758110437896 -0.0270932437497639  0.2505266234802704
  0.1016549289672569  0.0486268029398696  0.7490611888950354
  0.0940506612600509  0.0047353614360768  0.4018698408278304
  0.1114120906774595  0.0783375598539960  0.5977385444261625
  0.7816737193855020  0.4154867521733563  0.6931757799736212
  0.4322865658065007  0.6700760836207366  0.3063497743738745
  0.6207251595043609  0.4366857062727215  0.1990726376722548
  0.1939037888807846  0.6039658086689995  0.8004770460670141
  0.6025585425970644  0.5853830488275660  0.7822600186220824
  0.6002178363710629  0.0092205206343217  0.2172061019181783
 
  0.00000000E+00  0.00000000E+00  0.00000000E+00
  0.00000000E+00  0.00000000E+00  0.00000000E+00
  0.00000000E+00  0.00000000E+00  0.00000000E+00
  0.00000000E+00  0.00000000E+00  0.00000000E+00
  0.00000000E+00  0.00000000E+00  0.00000000E+00
  0.00000000E+00  0.00000000E+00  0.00000000E+00
  0.00000000E+00  0.00000000E+00  0.00000000E+00
  0.00000000E+00  0.00000000E+00  0.00000000E+00
  0.00000000E+00  0.00000000E+00  0.00000000E+00
  0.00000000E+00  0.00000000E+00  0.00000000E+00
  0.00000000E+00  0.00000000E+00  0.00000000E+00
  0.00000000E+00  0.00000000E+00  0.00000000E+00
  0.00000000E+00  0.00000000E+00  0.00000000E+00
  0.00000000E+00  0.00000000E+00  0.00000000E+00
