CONTCAR\(7)                             
   1.00000000000000     
    13.6564998627000005    0.0000000000000000    0.0000000000000000
     0.0000000000000000   10.3198995589999996    0.0000000000000000
     0.0000000000000000    0.0000000000000000   19.5949993133999989
   Ta   Fe   Te
     8     8    24
Direct
  0.0625000000000000  0.2490692295562127  0.4874199240638291
  0.1874999910000028  0.6394571729735716  0.5125830033052097
  0.3125000089999972  0.2490692295562127  0.4874199240638291
  0.4374999910000028  0.6394571729735716  0.5125830033052097
  0.5625000089999972  0.2490692295562127  0.4874199240638291
  0.6874999910000028  0.6394571729735716  0.5125830033052097
  0.8125000089999972  0.2490692295562127  0.4874199240638291
  0.9375000260000022  0.6394571729735716  0.5125830033052097
  0.1874999910000028  0.0393341560199190  0.4901104524501179
  0.0625000000000000  0.8491125013797713  0.5099197298232454
  0.4374999910000028  0.0393341560199190  0.4901104524501179
  0.3125000089999972  0.8491125013797713  0.5099197298232454
  0.6874999910000028  0.0393341560199190  0.4901104524501179
  0.5625000089999972  0.8491125013797713  0.5099197298232454
  0.9375000260000022  0.0393341560199190  0.4901104524501179
  0.8125000089999972  0.8491125013797713  0.5099197298232454
  0.1874999910000028  0.3849326167179896  0.5797286760297879
  0.0625000000000000  0.5035627972324761  0.4201739520192618
  0.1874999910000028  0.8347196337024201  0.4118645191187014
  0.0625000000000000  0.0536293351021797  0.5881699001296425
  0.0625000000000000  0.7066857079212241  0.6178039845361170
  0.1874999910000028  0.1819568513942329  0.3822259295240755
  0.4374999910000028  0.3849326167179896  0.5797286760297879
  0.3125000089999972  0.5035627972324761  0.4201739520192618
  0.4374999910000028  0.8347196337024201  0.4118645191187014
  0.3125000089999972  0.0536293351021797  0.5881699001296425
  0.3125000089999972  0.7066857079212241  0.6178039845361170
  0.4374999910000028  0.1819568513942329  0.3822259295240755
  0.6874999910000028  0.3849326167179896  0.5797286760297879
  0.5625000089999972  0.5035627972324761  0.4201739520192618
  0.6874999910000028  0.8347196337024201  0.4118645191187014
  0.5625000089999972  0.0536293351021797  0.5881699001296425
  0.5625000089999972  0.7066857079212241  0.6178039845361170
  0.6874999910000028  0.1819568513942329  0.3822259295240755
  0.9375000260000022  0.3849326167179896  0.5797286760297879
  0.8125000089999972  0.5035627972324761  0.4201739520192618
  0.9375000260000022  0.8347196337024201  0.4118645191187014
  0.8125000089999972  0.0536293351021797  0.5881699001296425
  0.8125000089999972  0.7066857079212241  0.6178039845361170
  0.9375000260000022  0.1819568513942329  0.3822259295240755
 
  0.00000000E+00  0.00000000E+00  0.00000000E+00
  0.00000000E+00  0.00000000E+00  0.00000000E+00
  0.00000000E+00  0.00000000E+00  0.00000000E+00
  0.00000000E+00  0.00000000E+00  0.00000000E+00
  0.00000000E+00  0.00000000E+00  0.00000000E+00
  0.00000000E+00  0.00000000E+00  0.00000000E+00
  0.00000000E+00  0.00000000E+00  0.00000000E+00
  0.00000000E+00  0.00000000E+00  0.00000000E+00
  0.00000000E+00  0.00000000E+00  0.00000000E+00
  0.00000000E+00  0.00000000E+00  0.00000000E+00
  0.00000000E+00  0.00000000E+00  0.00000000E+00
  0.00000000E+00  0.00000000E+00  0.00000000E+00
  0.00000000E+00  0.00000000E+00  0.00000000E+00
  0.00000000E+00  0.00000000E+00  0.00000000E+00
  0.00000000E+00  0.00000000E+00  0.00000000E+00
  0.00000000E+00  0.00000000E+00  0.00000000E+00
  0.00000000E+00  0.00000000E+00  0.00000000E+00
  0.00000000E+00  0.00000000E+00  0.00000000E+00
  0.00000000E+00  0.00000000E+00  0.00000000E+00
  0.00000000E+00  0.00000000E+00  0.00000000E+00
  0.00000000E+00  0.00000000E+00  0.00000000E+00
  0.00000000E+00  0.00000000E+00  0.00000000E+00
  0.00000000E+00  0.00000000E+00  0.00000000E+00
  0.00000000E+00  0.00000000E+00  0.00000000E+00
  0.00000000E+00  0.00000000E+00  0.00000000E+00
  0.00000000E+00  0.00000000E+00  0.00000000E+00
  0.00000000E+00  0.00000000E+00  0.00000000E+00
  0.00000000E+00  0.00000000E+00  0.00000000E+00
  0.00000000E+00  0.00000000E+00  0.00000000E+00
  0.00000000E+00  0.00000000E+00  0.00000000E+00
  0.00000000E+00  0.00000000E+00  0.00000000E+00
  0.00000000E+00  0.00000000E+00  0.00000000E+00
  0.00000000E+00  0.00000000E+00  0.00000000E+00
  0.00000000E+00  0.00000000E+00  0.00000000E+00
  0.00000000E+00  0.00000000E+00  0.00000000E+00
  0.00000000E+00  0.00000000E+00  0.00000000E+00
  0.00000000E+00  0.00000000E+00  0.00000000E+00
  0.00000000E+00  0.00000000E+00  0.00000000E+00
  0.00000000E+00  0.00000000E+00  0.00000000E+00
  0.00000000E+00  0.00000000E+00  0.00000000E+00
