CONTCAR\(6)                             
   1.00000000000000     
    12.9184999466000008    0.0000000000000000    0.0000000000000000
     0.0000000000000000   12.9184999466000008    0.0000000000000000
     0.0000000000000000    0.0000000000000000   24.0865993500000002
   Ho   Te   O    H 
    18    54     2     1
Selective dynamics
Direct
  0.1633587860592769  0.0030115713878729  0.5861182750610610   F   F   F
  0.9987153927610706  0.1695421447006424  0.4160707294836996   F   F   F
  0.4978323350105214  0.0028264171362409  0.5853214388160595   F   F   F
  0.3313646725528017  0.1687299761106829  0.4151677840593209   F   F   F
  0.8327441850426851  0.0031407547117155  0.5859438776534489   F   F   F
  0.6657942946635700  0.1685392710317259  0.4150236683367012   F   F   F
  0.1645522761437945  0.3364742169166917  0.5866883806639507   F   F   F
  0.9987184556150055  0.5026454295124481  0.4163343065630158   F   F   F
  0.4995973226003301  0.3266986716927534  0.5817483836045199   F   F   F
  0.3325861950165105  0.5026638019847667  0.4156893997425115   F   F   F
  0.8322415623826132  0.3366945743201128  0.5861797682240990   F   F   F
  0.6651801561756159  0.5026061596904654  0.4154793648270498   F   F   F
  0.1639130537885976  0.6692571253480040  0.5864598139226658   F   F   F
  0.9987657142395534  0.8357410485913093  0.4160619746264302   F   F   F
  0.4996165567334430  0.6787182578459010  0.5821683801593309   F   F   F
  0.3314474668788279  0.8365267263177714  0.4152380660399189   F   F   F
  0.8321647073048339  0.6691553580412020  0.5862221934554199   F   F   F
  0.6659033961730714  0.8365307728154434  0.4150632351816981   F   F   F
  0.9987026836257940  0.0022828426985129  0.3129422794821650   F   F   F
  0.1652053961013991  0.1698392239178190  0.6895018004877755   F   F   F
  0.9963495788368490  0.0036300232484336  0.6894228819453119   F   F   F
  0.1647693821621701  0.1692318007602225  0.3129994072233231   F   F   F
  0.1644501245074110  0.0028742082986568  0.4545201652537258   F   F   F
  0.9984862796190725  0.1703309692542589  0.5475292512305359   F   F   F
  0.3317745592849661  0.0028700342004271  0.3123732017463325   F   F   F
  0.4987961152646889  0.1696117315935624  0.6874366162380028   F   F   F
  0.3301065233126792  0.0035956758588824  0.6889423432584891   F   F   F
  0.4987148666098093  0.1693350547717429  0.3123023494084620   F   F   F
  0.4984738975145362  0.0023797926214613  0.4540368898569298   F   F   F
  0.3300346530829898  0.1681485049603282  0.5466554894655502   F   F   F
  0.6654176556128846  0.0025883839489396  0.3121833854146843   F   F   F
  0.8314240595772020  0.1704834601704164  0.6893028274977340   F   F   F
  0.6645645692418825  0.0035264799398362  0.6886784692411396   F   F   F
  0.8322539757647576  0.1689930974149831  0.3129698320868144   F   F   F
  0.8328930576280626  0.0027311885083563  0.4543783231565968   F   F   F
  0.6667901524813686  0.1673649592111062  0.5463390477020056   F   F   F
  0.9984731580579478  0.3362441153638329  0.3135423369264672   F   F   F
  0.1638267591308278  0.5028069496965699  0.6897459927849781   F   F   F
  0.9982278981691408  0.3363209326753775  0.6900018449764715   F   F   F
  0.1655731954202295  0.5025342127100103  0.3133462306466726   F   F   F
  0.1664509860422001  0.3370871861981897  0.4551390555445352   F   F   F
  0.9985504506862313  0.5026541972642633  0.5478100636513403   F   F   F
  0.3318437266735330  0.3358257598342860  0.3126529512200804   F   F   F
  0.4946118166196172  0.5036585278189847  0.6779483316507537   F   F   F
  0.3320698138537210  0.3361166724417757  0.6892807566565722   F   F   F
  0.4987284924138891  0.5022444651921205  0.3127604019204853   F   F   F
  0.4985324059299643  0.3346900171109155  0.4528238682238168   F   F   F
  0.3346457231503805  0.5026903422142865  0.5489028490335102   F   F   F
  0.6656593125064063  0.3357626893189192  0.3124659037027300   F   F   F
  0.8296758803827728  0.5032328870447387  0.6892174798621298   F   F   F
  0.6645283711990189  0.3370172986902134  0.6879929135716196   F   F   F
  0.8320036657019401  0.5027930915873213  0.3132183007467972   F   F   F
  0.8312578018919581  0.3364209068982973  0.4547567410326181   F   F   F
  0.6630785216438184  0.5028691479140832  0.5477700328932968   F   F   F
  0.9988461344409956  0.6691832595482552  0.3135774579053745   F   F   F
  0.1640078512265433  0.8377808904544750  0.6895063760062214   F   F   F
  0.9981868823395814  0.6695752526093486  0.6896393296129162   F   F   F
  0.1653515174884959  0.8358226560135762  0.3131454100297759   F   F   F
  0.1664941489775629  0.6682922459771703  0.4551614734048144   F   F   F
  0.9982707294942443  0.8356123520850289  0.5473983170532364   F   F   F
  0.3320131387876941  0.6690355011634281  0.3127098445560961   F   F   F
  0.4987932032318412  0.8371938587646923  0.6875779631704546   F   F   F
  0.3306313098642732  0.6717782732693891  0.6881188724476459   F   F   F
  0.4982815680577062  0.8362252504758700  0.3123664624039932   F   F   F
  0.4988469140166742  0.6705971510842446  0.4530040282203842   F   F   F
  0.3300122861354566  0.8374345417101594  0.5467142770178057   F   F   F
  0.6650604226950634  0.6691869385292080  0.3125548404792582   F   F   F
  0.8321927372335907  0.8372468646280353  0.6892322917515727   F   F   F
  0.6648480621443795  0.6699496583675639  0.6881393185537021   F   F   F
  0.8321742598709250  0.8357259687640877  0.3129312595851346   F   F   F
  0.8313153810521570  0.6686038183013991  0.4548596407900689   F   F   F
  0.6668853315998575  0.8381037362407824  0.5464646868296583   F   F   F
  0.4197734073323502  0.5007657988466505  0.7987366397159334   T   T   T
  0.5125962101950563  0.5180542557068222  0.7678566775277318   T   T   T
  0.3883960039712946  0.5703821929519108  0.7985313068602088   T   T   T
 
  0.00000000E+00  0.00000000E+00  0.00000000E+00
  0.00000000E+00  0.00000000E+00  0.00000000E+00
  0.00000000E+00  0.00000000E+00  0.00000000E+00
  0.00000000E+00  0.00000000E+00  0.00000000E+00
  0.00000000E+00  0.00000000E+00  0.00000000E+00
  0.00000000E+00  0.00000000E+00  0.00000000E+00
  0.00000000E+00  0.00000000E+00  0.00000000E+00
  0.00000000E+00  0.00000000E+00  0.00000000E+00
  0.00000000E+00  0.00000000E+00  0.00000000E+00
  0.00000000E+00  0.00000000E+00  0.00000000E+00
  0.00000000E+00  0.00000000E+00  0.00000000E+00
  0.00000000E+00  0.00000000E+00  0.00000000E+00
  0.00000000E+00  0.00000000E+00  0.00000000E+00
  0.00000000E+00  0.00000000E+00  0.00000000E+00
  0.00000000E+00  0.00000000E+00  0.00000000E+00
  0.00000000E+00  0.00000000E+00  0.00000000E+00
  0.00000000E+00  0.00000000E+00  0.00000000E+00
  0.00000000E+00  0.00000000E+00  0.00000000E+00
  0.00000000E+00  0.00000000E+00  0.00000000E+00
  0.00000000E+00  0.00000000E+00  0.00000000E+00
  0.00000000E+00  0.00000000E+00  0.00000000E+00
  0.00000000E+00  0.00000000E+00  0.00000000E+00
  0.00000000E+00  0.00000000E+00  0.00000000E+00
  0.00000000E+00  0.00000000E+00  0.00000000E+00
  0.00000000E+00  0.00000000E+00  0.00000000E+00
  0.00000000E+00  0.00000000E+00  0.00000000E+00
  0.00000000E+00  0.00000000E+00  0.00000000E+00
  0.00000000E+00  0.00000000E+00  0.00000000E+00
  0.00000000E+00  0.00000000E+00  0.00000000E+00
  0.00000000E+00  0.00000000E+00  0.00000000E+00
  0.00000000E+00  0.00000000E+00  0.00000000E+00
  0.00000000E+00  0.00000000E+00  0.00000000E+00
  0.00000000E+00  0.00000000E+00  0.00000000E+00
  0.00000000E+00  0.00000000E+00  0.00000000E+00
  0.00000000E+00  0.00000000E+00  0.00000000E+00
  0.00000000E+00  0.00000000E+00  0.00000000E+00
  0.00000000E+00  0.00000000E+00  0.00000000E+00
  0.00000000E+00  0.00000000E+00  0.00000000E+00
  0.00000000E+00  0.00000000E+00  0.00000000E+00
  0.00000000E+00  0.00000000E+00  0.00000000E+00
  0.00000000E+00  0.00000000E+00  0.00000000E+00
  0.00000000E+00  0.00000000E+00  0.00000000E+00
  0.00000000E+00  0.00000000E+00  0.00000000E+00
  0.00000000E+00  0.00000000E+00  0.00000000E+00
  0.00000000E+00  0.00000000E+00  0.00000000E+00
  0.00000000E+00  0.00000000E+00  0.00000000E+00
  0.00000000E+00  0.00000000E+00  0.00000000E+00
  0.00000000E+00  0.00000000E+00  0.00000000E+00
  0.00000000E+00  0.00000000E+00  0.00000000E+00
  0.00000000E+00  0.00000000E+00  0.00000000E+00
  0.00000000E+00  0.00000000E+00  0.00000000E+00
  0.00000000E+00  0.00000000E+00  0.00000000E+00
  0.00000000E+00  0.00000000E+00  0.00000000E+00
  0.00000000E+00  0.00000000E+00  0.00000000E+00
  0.00000000E+00  0.00000000E+00  0.00000000E+00
  0.00000000E+00  0.00000000E+00  0.00000000E+00
  0.00000000E+00  0.00000000E+00  0.00000000E+00
  0.00000000E+00  0.00000000E+00  0.00000000E+00
  0.00000000E+00  0.00000000E+00  0.00000000E+00
  0.00000000E+00  0.00000000E+00  0.00000000E+00
  0.00000000E+00  0.00000000E+00  0.00000000E+00
  0.00000000E+00  0.00000000E+00  0.00000000E+00
  0.00000000E+00  0.00000000E+00  0.00000000E+00
  0.00000000E+00  0.00000000E+00  0.00000000E+00
  0.00000000E+00  0.00000000E+00  0.00000000E+00
  0.00000000E+00  0.00000000E+00  0.00000000E+00
  0.00000000E+00  0.00000000E+00  0.00000000E+00
  0.00000000E+00  0.00000000E+00  0.00000000E+00
  0.00000000E+00  0.00000000E+00  0.00000000E+00
  0.00000000E+00  0.00000000E+00  0.00000000E+00
  0.00000000E+00  0.00000000E+00  0.00000000E+00
  0.00000000E+00  0.00000000E+00  0.00000000E+00
  0.00000000E+00  0.00000000E+00  0.00000000E+00
  0.00000000E+00  0.00000000E+00  0.00000000E+00
  0.00000000E+00  0.00000000E+00  0.00000000E+00
