SC221 file generated by VASPKIT         
   1.00000000000000     
     8.5986003875999995    0.0000000000000000    0.0000000000000000
    -4.2993001937999997    7.4466063725999998    0.0000000000000000
     0.0000000000000000    0.0000000000000000   21.0000000000000000
   H    O    La   P    I 
    48    32     8     4     8
Direct
  0.2745179628650944  0.1174745373604510  0.1914805420647188
  0.2796440458200179  0.7041975088804219  0.2176199586223134
  0.8080204036658104  0.2739136302482369  0.1617011289512392
  0.7871985458086864  0.6525159086763561  0.1704364700426886
  0.2003964296984871  0.1478501556010812  0.1239651144510055
  0.0872290473437839  0.5590023432584091  0.2086074091218701
  0.6114970734871361  0.2017906726170512  0.1910500902579911
  0.6783447296695573  0.4221571735727603  0.1499618116319290
  0.1173413304720783  0.3382202217862066  0.4570197994962278
  0.0993854912881648  0.8462879252975131  0.4523347616447501
  0.5882594174477929  0.3301103550496752  0.4537558058848746
  0.5504072080178619  0.8883822226873604  0.4537254354694196
  0.0829830535589268  0.1513238769222520  0.4489267221084697
  0.0820186977669916  0.6479434141142946  0.4713543867978626
  0.5763102183484989  0.1878545798315568  0.4061134320191302
  0.5469936643222238  0.7490736020036448  0.3999032923401774
  0.2747096664693331  0.3382484801368855  0.2909919244327869
  0.3772400071437588  0.8932756637791586  0.3661682873699837
  0.8431432313043288  0.1831286620696048  0.3823982200709788
  0.6914858526429586  0.6250600484813978  0.4164938801749071
  0.1300820919614342  0.3491246406370075  0.3293274143673049
  0.2260597610038607  0.7958940654367135  0.3207899526872549
  0.8193500625069998  0.3143885004494631  0.3416755982758563
  0.7644949250361875  0.7666071987873039  0.3545529341077803
  0.3872154378957193  0.0584662297149516  0.2861192928436216
  0.4735199270718687  0.6944463009244208  0.1647921911181457
  0.0345975415356221  0.2953369549921272  0.2273571539732555
  0.0266287425912234  0.9422093609263390  0.1906768840234439
  0.0751475486934551  0.3166530259388388  0.1545313955429480
  0.0424037616759512  0.7754168015425303  0.2165380294504123
  0.4595551568644286  0.2640759779585494  0.2583956581115154
  0.5565934537993259  0.8396329496874031  0.2329062360642906
  0.9301433760284773  0.8753814295570015  0.2701593830105390
  0.0319625112226527  0.5830559059221552  0.2957659782368325
  0.7679372726249808  0.9439605950885851  0.2781498894667229
  0.5298144747248216  0.5212845957529738  0.3259086526318904
  0.9967497760818177  0.0468516902317393  0.3183090709432843
  0.9815153792564696  0.5791794482285798  0.3689154359339972
  0.6665588533897159  0.0349955699391186  0.3016590166759778
  0.4881313540932689  0.5622142665677922  0.2546424583094547
  0.2684735537743466  0.5891231041697510  0.5236358699971329
  0.1998611947678264  0.0329492385635889  0.5152988656971877
  0.7020503074378163  0.5623928054006092  0.5345653067408865
  0.6370084106745821  0.0514479307378628  0.5285065386520129
  0.3328662366919368  0.1030786642798202  0.4504947829453662
  0.3191528944160251  0.6604954567968239  0.4556062445145485
  0.8192803055697191  0.1221786725213205  0.4933584496847707
  0.8471462728841074  0.6071298130676358  0.4829590833536955
  0.1914754953431360  0.1443367255876139  0.1703653501586600
  0.1480795648075203  0.6779528035958886  0.2276583279257404
  0.6826408309050388  0.2588791776025546  0.1518099539678381
  0.7049990700877270  0.5559656776331392  0.1403160891227454
  0.5030004820088025  0.2173517942624144  0.4336961970773059
  0.4810242383232052  0.8156594077375157  0.4156913867553257
  0.0221053961012927  0.2192738427560383  0.4437116690351377
  0.0252516474806046  0.7073004020385160  0.4454643874741552
  0.1378625978353404  0.2774255732741576  0.2932785142463697
  0.2900376418224710  0.9118488089868942  0.3407589763056603
  0.7483682407978176  0.1878492958066739  0.3577249281167831
  0.6598622911908536  0.6675553010231441  0.3785907609303619
  0.4272617866194855  0.1436771603495344  0.2468159876830064
  0.4471041042103351  0.7054388145381537  0.2097093544725128
  0.9965357874218621  0.3278930240392299  0.1846744871823884
  0.9567613945879185  0.8193985000544177  0.2088573880636542
  0.9010673124148887  0.9188855430578070  0.3131361727003062
  0.9895744027857237  0.5112987563370485  0.3336531708292847
  0.6877731351528323  0.9916545055150300  0.2576219991862093
  0.4757970102154930  0.4667502056992191  0.2830806894248256
  0.2129940719286310  0.5823925433221920  0.4829333794563114
  0.1953764740649769  0.0405081286473680  0.4684759410850680
  0.7195219013285211  0.5173252054022683  0.4940994178198561
  0.7137510047603539  0.0117892378448315  0.5098983616263090
  0.9860678078273128  0.3183573899396475  0.8722999890128837
  0.9774380729270622  0.6812461706423105  0.9568830511166195
  0.5697220288367492  0.4952713977748694  0.9229528276160733
  0.4453781348034369  0.7260938419446330  0.8694815268564982
  0.1415294254978145  0.0807604547367697  0.7493319069344350
  0.2686912996285246  0.4544558529284507  0.7747382947584082
  0.7510169703456450  0.9661465123303598  0.7598035685351943
  0.6716010037913388  0.5779064768452785  0.7639572982957032
  0.2971144794634091  0.3952778913917294  0.8876037389530667
  0.2978104161008699  0.8243467523661241  0.9293524495500631
  0.7873653372848026  0.3720592884385695  0.9322952255712692
  0.7541921191005437  0.7674155648728371  0.9124844648581762
  0.4001716905374554  0.3283649356734628  0.7121060246853486
  0.4537214305048775  0.7783749182738112  0.7638140817749963
  0.9258234083654622  0.2580046911697374  0.7696424736057943
  0.9017854663073688  0.8153547786678257  0.6983823892218300
  0.2074742105591248  0.0503505383655880  0.8176837985725476
  0.0825258091381698  0.7370129325661287  0.8059755337194544
  0.4942795241247612  0.1201821453293927  0.8163815326815566
  0.7943916230298410  0.5283736675878756  0.8109229470216097
  0.2611790408908738  0.1444941459863753  0.0080092679016853
  0.2311976926160330  0.5475689243661883  0.0333807561629100
  0.6497144653689737  0.0425457803321052  0.0161095190922690
  0.8743877633148551  0.6515265554031433  0.0488937653917700
  0.0468612170147711  0.1614672525172243  0.6116376277374662
  0.3022630318778776  0.9011258344713764  0.6413463946871703
  0.8105426768973368  0.4174055496168739  0.6486818423314161
  0.5176916292489521  0.6639784042784056  0.6169107248306097
 
  0.28675804E-01  0.59919216E-02 -0.17613827E-01
  0.24241610E-01  0.23157989E-01  0.15692597E-01
 -0.36287398E-01 -0.32094990E-02 -0.12739649E-01
  0.13695391E-01  0.20503003E-01 -0.59629754E-02
  0.12275061E-01  0.49056899E-02 -0.33824962E-02
 -0.53849062E-02 -0.12770520E-01  0.26957851E-01
 -0.66418809E-02 -0.13569692E-01  0.62132959E-02
  0.47296480E-02  0.13647579E-01  0.77977706E-02
  0.68645278E-02 -0.16493044E-01  0.17418287E-01
  0.35478968E-02 -0.90630126E-02  0.21345955E-01
 -0.57398536E-02  0.12486834E-01 -0.26107815E-01
  0.17810237E-01  0.18544541E-02  0.70321356E-02
  0.75666419E-02 -0.15797238E-01 -0.23569849E-02
 -0.23688464E-02 -0.32920990E-01  0.14776414E-01
 -0.89536638E-02 -0.96687110E-02 -0.16786196E-01
  0.10831720E-01  0.90137880E-02  0.41196815E-02
 -0.77814652E-02  0.34832263E-01 -0.26071176E-01
  0.20141088E-02  0.18505712E-01 -0.25383910E-02
 -0.42278866E-02 -0.12904778E-01  0.27293174E-02
  0.62843926E-02  0.28604074E-01  0.22815116E-02
 -0.21716803E-01  0.15737504E-01 -0.90416572E-02
 -0.25619304E-01 -0.69904142E-02  0.22004708E-01
  0.25557330E-05  0.22275437E-01  0.13400199E-01
  0.48643271E-02 -0.18954296E-02  0.65910311E-02
 -0.89401388E-02  0.22804808E-01  0.51696675E-02
 -0.35144694E-01  0.74197594E-02 -0.16263997E-01
  0.20108982E-01 -0.86008356E-02 -0.17451435E-01
  0.12768520E-01  0.68028381E-02 -0.55808223E-02
  0.35131309E-02  0.76287650E-02 -0.22559265E-02
 -0.11267753E-01  0.56253631E-02  0.83277686E-02
 -0.68873997E-02 -0.37306054E-02  0.13101360E-02
  0.47248015E-02  0.88766633E-02 -0.37337616E-01
 -0.17076682E-01 -0.10326451E-01 -0.90931553E-02
  0.10136475E-01  0.62746598E-02 -0.20076907E-01
  0.10828643E-01 -0.56101182E-02 -0.10649364E-03
  0.53445676E-02 -0.17754356E-01  0.39191867E-01
  0.48339096E-02 -0.72482938E-02 -0.84715398E-02
 -0.61501171E-04  0.13289553E-01 -0.56205623E-02
 -0.95417019E-02 -0.27355554E-01 -0.22215648E-01
 -0.11277580E-01 -0.11274143E-02 -0.17236787E-02
 -0.17309942E-02  0.73374819E-03  0.77878470E-03
  0.79221652E-02 -0.13915881E-01 -0.73892105E-02
  0.46486427E-02  0.11240098E-01 -0.42969444E-02
 -0.33450629E-02  0.74658914E-02  0.79520188E-02
  0.24036153E-01  0.20643072E-02  0.71540413E-02
  0.14258931E-01  0.88035210E-02  0.38489683E-01
 -0.88462241E-02  0.38697914E-01 -0.21827142E-02
 -0.47010943E-03  0.26786064E-02 -0.10244502E-01
 -0.46335053E-02 -0.24622370E-02 -0.68533112E-03
  0.14574589E-02  0.11786354E-02 -0.33731763E-02
 -0.38362634E-02  0.47600995E-02 -0.43981604E-02
 -0.55618167E-02  0.76048548E-02 -0.24874731E-02
  0.18350429E-02 -0.34529949E-03 -0.49819124E-02
  0.52484439E-03 -0.36580074E-02 -0.56697590E-02
 -0.21611580E-02 -0.11140757E-02 -0.59582904E-02
 -0.45449864E-02  0.83733804E-02 -0.41624219E-02
 -0.84192724E-02  0.17141607E-02  0.23457414E-02
 -0.15043611E-02 -0.68225232E-02 -0.38477628E-02
  0.73759917E-02 -0.12765191E-02 -0.12531965E-02
 -0.50719982E-02  0.38298461E-02  0.35477945E-03
  0.85663832E-02  0.44972875E-02 -0.53700368E-02
 -0.33538194E-02 -0.37961170E-02 -0.76335150E-03
  0.18918086E-02  0.38140442E-02 -0.43265090E-02
 -0.11458863E-01 -0.41717311E-03  0.66785387E-02
 -0.49538219E-02 -0.31450368E-02 -0.58393628E-02
  0.72171528E-02  0.15473207E-02  0.36403371E-02
  0.11928156E-02  0.13264941E-02 -0.26506617E-02
  0.47476400E-02 -0.15640953E-02  0.36690158E-02
 -0.52794986E-02 -0.81615953E-02 -0.46869922E-02
  0.69547877E-02 -0.34836108E-02  0.42007446E-02
 -0.13874878E-02  0.21382239E-02  0.43154931E-02
 -0.12725380E-03 -0.38221028E-02  0.12885677E-01
 -0.40474417E-02 -0.26407862E-02 -0.50505622E-02
  0.45576434E-02  0.18643189E-02  0.40514796E-02
  0.17241391E-02  0.61243161E-02  0.84482711E-02
  0.45780885E-02 -0.48392807E-02  0.68100419E-02
 -0.20967021E-02  0.34588785E-02 -0.13603325E-02
 -0.41923407E-02 -0.52242741E-02 -0.27650281E-02
 -0.31409196E-02 -0.11164259E-01 -0.25672040E-02
 -0.26985627E-02  0.21326126E-02  0.46133112E-02
 -0.26708037E-02 -0.15874169E-02 -0.12946058E-02
  0.11488660E-02  0.25041682E-02 -0.13826799E-02
  0.30003629E-02 -0.92570183E-04  0.21295826E-02
  0.16642038E-02 -0.17253886E-03 -0.15988983E-03
  0.49807523E-03 -0.27318663E-02 -0.19309165E-02
 -0.39957859E-03 -0.86120267E-03  0.56248207E-03
  0.61279371E-03 -0.40384390E-03  0.24648810E-04
  0.98038190E-03 -0.86552154E-03  0.53160270E-03
  0.93354374E-03  0.64229534E-02  0.16402065E-02
  0.19018147E-02 -0.28750190E-02  0.52032600E-02
 -0.29789724E-02  0.19772140E-02  0.26604523E-02
 -0.57506563E-02 -0.11152277E-02  0.43341577E-02
 -0.75465720E-03  0.35325271E-02  0.17562078E-02
 -0.23440755E-03  0.19378083E-02  0.89900931E-03
 -0.51543053E-02  0.13479317E-02  0.70219902E-03
  0.13771869E-02  0.21210114E-03 -0.54144390E-03
 -0.16942733E-02 -0.38491042E-02  0.20048221E-02
  0.34680625E-02  0.11149391E-02  0.35144422E-03
  0.11718864E-02  0.16705625E-03 -0.30232065E-02
  0.10120862E-02 -0.75591712E-03 -0.24516277E-02
 
           1
   1.00000000000000     
  0.87277072E+07 -0.20783400E+05  0.14020218E-17  0.00000000E+00
  0.27825523E+00  0.11827919E+00  0.19064179E+00
  0.28401823E+00  0.70730738E+00  0.21836723E+00
  0.80358475E+00  0.27348263E+00  0.16109448E+00
  0.79016796E+00  0.65526924E+00  0.17015252E+00
  0.20215339E+00  0.14850894E+00  0.12380404E+00
  0.85745321E-01  0.55728740E+00  0.20989112E+00
  0.60981350E+00  0.19996841E+00  0.19134596E+00
  0.67981114E+00  0.42398990E+00  0.15033313E+00
  0.11703224E+00  0.33600538E+00  0.45784924E+00
  0.99189572E-01  0.84507086E+00  0.45335124E+00
  0.58843031E+00  0.33178720E+00  0.45251258E+00
  0.55260302E+00  0.88863126E+00  0.45406030E+00
  0.82802338E-01  0.14920248E+00  0.44881448E+00
  0.79532736E-01  0.64352248E+00  0.47205803E+00
  0.57461972E+00  0.18655617E+00  0.40531409E+00
  0.54885860E+00  0.75028406E+00  0.40009947E+00
  0.27614350E+00  0.34292608E+00  0.28975044E+00
  0.37871680E+00  0.89576078E+00  0.36604741E+00
  0.84178505E+00  0.18139569E+00  0.38252819E+00
  0.69413733E+00  0.62890127E+00  0.41660252E+00
  0.12861316E+00  0.35123802E+00  0.32889686E+00
  0.22261092E+00  0.79495533E+00  0.32183780E+00
  0.82084604E+00  0.31737985E+00  0.34231370E+00
  0.76493337E+00  0.76635266E+00  0.35486679E+00
  0.38770694E+00  0.61528673E-01  0.28636547E+00
  0.46993087E+00  0.69544270E+00  0.16401772E+00
  0.36358676E-01  0.29418195E+00  0.22652613E+00
  0.28570470E-01  0.94312291E+00  0.19041113E+00
  0.76068350E-01  0.31767749E+00  0.15442397E+00
  0.41471058E-01  0.77617223E+00  0.21693459E+00
  0.45850368E+00  0.26357500E+00  0.25845805E+00
  0.55773896E+00  0.84082499E+00  0.23112825E+00
  0.92746403E+00  0.87399470E+00  0.26972638E+00
  0.33562673E-01  0.58389853E+00  0.29480994E+00
  0.76881993E+00  0.94320722E+00  0.27814482E+00
  0.52924393E+00  0.51890037E+00  0.32777493E+00
  0.99682527E+00  0.45878321E-01  0.31790566E+00
  0.98240055E+00  0.58096409E+00  0.36864779E+00
  0.66361239E+00  0.31322010E-01  0.30060113E+00
  0.48674409E+00  0.56206287E+00  0.25456038E+00
  0.26832151E+00  0.58922164E+00  0.52367295E+00
  0.19984815E+00  0.31080484E-01  0.51494700E+00
  0.70334565E+00  0.56390223E+00  0.53436069E+00
  0.63712068E+00  0.52450521E-01  0.52888521E+00
  0.33580020E+00  0.10335588E+00  0.45083545E+00
  0.32140229E+00  0.66167768E+00  0.45743909E+00
  0.82084987E+00  0.12737539E+00  0.49325451E+00
  0.84727145E+00  0.60748952E+00  0.48247125E+00
  0.19077130E+00  0.14400607E+00  0.17033272E+00
  0.14832820E+00  0.67811108E+00  0.22749770E+00
  0.68251430E+00  0.25951841E+00  0.15160052E+00
  0.70486287E+00  0.55698693E+00  0.14019764E+00
  0.50319071E+00  0.21730542E+00  0.43345896E+00
  0.48083966E+00  0.81516818E+00  0.41542140E+00
  0.21779253E-01  0.21912423E+00  0.44342794E+00
  0.25285303E-01  0.70842486E+00  0.44526618E+00
  0.13699855E+00  0.27765577E+00  0.29339022E+00
  0.28940459E+00  0.91093262E+00  0.34057575E+00
  0.74914034E+00  0.18767787E+00  0.35766525E+00
  0.65952958E+00  0.66806961E+00  0.37860766E+00
  0.42856001E+00  0.14428110E+00  0.24656027E+00
  0.44645917E+00  0.70492904E+00  0.20967300E+00
  0.99701189E+00  0.32840521E+00  0.18446846E+00
  0.95540074E+00  0.81934248E+00  0.20917541E+00
  0.90028002E+00  0.91846320E+00  0.31285811E+00
  0.99051764E+00  0.51150655E+00  0.33382652E+00
  0.68800092E+00  0.99183264E+00  0.25749578E+00
  0.47624413E+00  0.46654016E+00  0.28325540E+00
  0.21183207E+00  0.58129653E+00  0.48271019E+00
  0.19595140E+00  0.40040317E-01  0.46867598E+00
  0.71950411E+00  0.51761235E+00  0.49430492E+00
  0.71347957E+00  0.11275970E-01  0.51051197E+00
  0.98541978E+00  0.31800276E+00  0.87205949E+00
  0.97809330E+00  0.68149653E+00  0.95707598E+00
  0.57033376E+00  0.49609383E+00  0.92335513E+00
  0.44558563E+00  0.72544398E+00  0.86980581E+00
  0.14151783E+00  0.81224945E-01  0.74926713E+00
  0.26785296E+00  0.45375429E+00  0.77460663E+00
  0.74990207E+00  0.96464727E+00  0.75968132E+00
  0.67143036E+00  0.57819286E+00  0.76417698E+00
  0.29669728E+00  0.39506472E+00  0.88754209E+00
  0.29811217E+00  0.82468304E+00  0.92928661E+00
  0.78770806E+00  0.37204686E+00  0.93239663E+00
  0.75437408E+00  0.76739239E+00  0.91247685E+00
  0.40004619E+00  0.32799808E+00  0.71201408E+00
  0.45361714E+00  0.77825927E+00  0.76384087E+00
  0.92586756E+00  0.25795046E+00  0.76964365E+00
  0.90184137E+00  0.81523855E+00  0.69840770E+00
  0.20801405E+00  0.51213073E-01  0.81776190E+00
  0.82553944E-01  0.73662685E+00  0.80622331E+00
  0.49406583E+00  0.12044766E+00  0.81650822E+00
  0.79364795E+00  0.52822390E+00  0.81112934E+00
  0.26132847E+00  0.14496853E+00  0.80928968E-02
  0.23130055E+00  0.54782915E+00  0.33423566E-01
  0.64920554E+00  0.42726793E-01  0.16142957E-01
  0.87456217E+00  0.65155504E+00  0.48867982E-01
  0.46405730E-01  0.16095036E+00  0.61173310E+00
  0.30274122E+00  0.90127556E+00  0.64136313E+00
  0.81069018E+00  0.41742798E+00  0.64853788E+00
  0.51775858E+00  0.66387689E+00  0.61679398E+00
  0.26893961E-02  0.69670424E-03 -0.97119388E-03
  0.42163263E-02  0.29180260E-02  0.69246877E-03
 -0.39662204E-02 -0.45486356E-03 -0.61246965E-03
  0.29469091E-02  0.29012321E-02 -0.35514596E-03
  0.14524471E-02  0.75692149E-03 -0.15216706E-03
 -0.96607986E-03 -0.10888002E-02  0.13919528E-02
 -0.15543125E-02 -0.16539945E-02  0.34386960E-03
  0.95025139E-03  0.17741633E-02  0.38475185E-03
 -0.15982001E-03 -0.25839361E-02  0.81642487E-03
 -0.31473367E-04 -0.86872872E-03  0.10505077E-02
 -0.40325917E-04  0.11710180E-02 -0.14485007E-02
  0.19080391E-02  0.20954310E-03  0.46051005E-03
 -0.38217791E-03 -0.13429135E-02 -0.14271873E-03
 -0.26644660E-02 -0.48510957E-02  0.84409794E-03
 -0.18840525E-02 -0.11581405E-02 -0.70213993E-03
  0.18297918E-02  0.83595604E-03  0.14113645E-03
  0.13940010E-02  0.46340840E-02 -0.11248814E-02
  0.14188164E-02  0.24024179E-02 -0.20590400E-03
 -0.12989070E-02 -0.15627614E-02  0.47189800E-04
  0.23576633E-02  0.38351163E-02 -0.95002061E-05
 -0.11550473E-02  0.24750881E-02 -0.26940282E-03
 -0.31387318E-02 -0.67502009E-03  0.11585608E-02
  0.14406124E-02  0.28983914E-02  0.71490557E-03
  0.53200560E-04 -0.41557992E-03  0.22455105E-03
  0.44827539E-03  0.26829299E-02  0.37121669E-03
 -0.36369638E-02  0.84196780E-03 -0.89181906E-03
  0.19048027E-02 -0.12068306E-02 -0.67936333E-03
  0.16277651E-02  0.53485873E-03 -0.14978069E-03
  0.76047127E-03  0.10542989E-02 -0.51196549E-04
 -0.13827200E-02  0.94778267E-03  0.43515504E-03
 -0.12197099E-02 -0.11671117E-02 -0.10683501E-03
  0.12288672E-02  0.11606216E-02 -0.16659583E-02
 -0.27057933E-02 -0.13282272E-02 -0.51620662E-03
  0.12907727E-02  0.41135854E-03 -0.72605527E-03
  0.88285371E-03 -0.11420894E-02  0.10216311E-03
 -0.72089947E-03 -0.24753173E-02  0.19938579E-02
  0.99776379E-05 -0.95291713E-03 -0.39777393E-03
  0.69821673E-03  0.11828650E-02 -0.45452614E-03
 -0.30861716E-02 -0.38510499E-02 -0.74565858E-03
 -0.12514754E-02 -0.48728315E-03  0.37854849E-04
 -0.13059295E-03  0.16892610E-03 -0.11485316E-03
 -0.90433136E-04 -0.20028262E-02 -0.24999518E-03
  0.15989712E-02  0.17306284E-02 -0.20319865E-03
  0.20922748E-03  0.82718226E-03  0.27236391E-03
  0.33964858E-02  0.25721958E-03  0.20635766E-03
  0.20382576E-02  0.79006358E-03  0.19751756E-02
  0.15052868E-02  0.53620874E-02 -0.71094149E-04
 -0.41937635E-03  0.13225809E-03 -0.32003174E-03
 -0.62356221E-03 -0.32799802E-03 -0.22193710E-04
  0.23623111E-03  0.14258369E-03 -0.16099643E-03
 -0.13120054E-03  0.64269724E-03 -0.21856904E-03
 -0.12583498E-03  0.98946946E-03 -0.11268857E-03
  0.17898648E-03 -0.35065155E-04 -0.22585756E-03
 -0.17707869E-03 -0.46988829E-03 -0.27278272E-03
 -0.31195044E-03 -0.17648719E-03 -0.27829898E-03
  0.57934080E-04  0.11334467E-02 -0.20259581E-03
 -0.85004087E-03  0.21623527E-03  0.95034376E-04
 -0.66740761E-03 -0.94045237E-03 -0.18432882E-03
  0.78256727E-03 -0.16627136E-03 -0.63500328E-04
 -0.29104229E-03  0.52867095E-03  0.23653979E-04
  0.13098967E-02  0.67293368E-03 -0.25192732E-03
 -0.66931850E-03 -0.52449523E-03 -0.35758951E-04
  0.45774592E-03  0.50448179E-03 -0.22232121E-03
 -0.13152393E-02 -0.49769646E-04  0.31488588E-03
 -0.79444876E-03 -0.41910772E-03 -0.27589492E-03
  0.96980922E-03  0.26564047E-03  0.16401275E-03
  0.25335486E-03  0.21546333E-03 -0.14376699E-03
  0.44088523E-03 -0.18098647E-03  0.16110663E-03
 -0.11600536E-02 -0.10570554E-02 -0.22750457E-03
  0.57446908E-03 -0.45825976E-03  0.19477261E-03
  0.66823693E-05  0.28769057E-03  0.20127308E-03
 -0.25937667E-03 -0.50880895E-03  0.61648981E-03
 -0.62176316E-03 -0.34884942E-03 -0.25151532E-03
  0.65544432E-03  0.23365690E-03  0.20387713E-03
  0.56362419E-03  0.79850724E-03  0.39317665E-03
  0.17825658E-03 -0.64127021E-03  0.30898060E-03
  0.86501390E-05  0.47148496E-03 -0.58518089E-04
 -0.83990250E-03 -0.68076572E-03 -0.12588707E-03
 -0.11265267E-02 -0.14653076E-02 -0.12022171E-03
 -0.15805029E-03  0.28033457E-03  0.21909974E-03
 -0.41074738E-03 -0.21089659E-03 -0.61445552E-04
  0.30311335E-03  0.33250266E-03 -0.66057358E-04
  0.34149756E-03 -0.12767290E-04  0.10180014E-03
  0.18047255E-03 -0.25203435E-04 -0.73588440E-05
 -0.12735302E-03 -0.36714507E-03 -0.90438664E-04
 -0.10298678E-03 -0.11427295E-03  0.28050406E-04
  0.40596981E-04 -0.57345524E-04  0.22318453E-05
  0.55657036E-04 -0.11789929E-03  0.25350536E-04
  0.53479163E-03  0.87427547E-03  0.68394090E-04
  0.28858732E-04 -0.38682055E-03  0.24711199E-03
 -0.20075655E-03  0.25310316E-03  0.12417663E-03
 -0.74972683E-03 -0.15241605E-03  0.20395211E-03
  0.15028391E-03  0.47595479E-03  0.83975935E-04
  0.10201661E-03  0.26136909E-03  0.42445725E-04
 -0.50870918E-03  0.18550406E-03  0.32904638E-04
  0.17807582E-03  0.30719061E-04 -0.27137431E-04
 -0.45614909E-03 -0.51805374E-03  0.95345273E-04
  0.47807823E-03  0.14674333E-03  0.16981847E-04
  0.14824023E-03  0.22851163E-04 -0.14336243E-03
  0.64622031E-04 -0.99722682E-04 -0.11609094E-03
  0.00000000E+00  0.00000000E+00  0.00000000E+00
  0.00000000E+00  0.00000000E+00  0.00000000E+00
  0.00000000E+00  0.00000000E+00  0.00000000E+00
  0.00000000E+00  0.00000000E+00  0.00000000E+00
  0.00000000E+00  0.00000000E+00  0.00000000E+00
  0.00000000E+00  0.00000000E+00  0.00000000E+00
  0.00000000E+00  0.00000000E+00  0.00000000E+00
  0.00000000E+00  0.00000000E+00  0.00000000E+00
  0.00000000E+00  0.00000000E+00  0.00000000E+00
  0.00000000E+00  0.00000000E+00  0.00000000E+00
  0.00000000E+00  0.00000000E+00  0.00000000E+00
  0.00000000E+00  0.00000000E+00  0.00000000E+00
  0.00000000E+00  0.00000000E+00  0.00000000E+00
  0.00000000E+00  0.00000000E+00  0.00000000E+00
  0.00000000E+00  0.00000000E+00  0.00000000E+00
  0.00000000E+00  0.00000000E+00  0.00000000E+00
  0.00000000E+00  0.00000000E+00  0.00000000E+00
  0.00000000E+00  0.00000000E+00  0.00000000E+00
  0.00000000E+00  0.00000000E+00  0.00000000E+00
  0.00000000E+00  0.00000000E+00  0.00000000E+00
  0.00000000E+00  0.00000000E+00  0.00000000E+00
  0.00000000E+00  0.00000000E+00  0.00000000E+00
  0.00000000E+00  0.00000000E+00  0.00000000E+00
  0.00000000E+00  0.00000000E+00  0.00000000E+00
  0.00000000E+00  0.00000000E+00  0.00000000E+00
  0.00000000E+00  0.00000000E+00  0.00000000E+00
  0.00000000E+00  0.00000000E+00  0.00000000E+00
  0.00000000E+00  0.00000000E+00  0.00000000E+00
  0.00000000E+00  0.00000000E+00  0.00000000E+00
  0.00000000E+00  0.00000000E+00  0.00000000E+00
  0.00000000E+00  0.00000000E+00  0.00000000E+00
  0.00000000E+00  0.00000000E+00  0.00000000E+00
  0.00000000E+00  0.00000000E+00  0.00000000E+00
  0.00000000E+00  0.00000000E+00  0.00000000E+00
  0.00000000E+00  0.00000000E+00  0.00000000E+00
  0.00000000E+00  0.00000000E+00  0.00000000E+00
  0.00000000E+00  0.00000000E+00  0.00000000E+00
  0.00000000E+00  0.00000000E+00  0.00000000E+00
  0.00000000E+00  0.00000000E+00  0.00000000E+00
  0.00000000E+00  0.00000000E+00  0.00000000E+00
  0.00000000E+00  0.00000000E+00  0.00000000E+00
  0.00000000E+00  0.00000000E+00  0.00000000E+00
  0.00000000E+00  0.00000000E+00  0.00000000E+00
  0.00000000E+00  0.00000000E+00  0.00000000E+00
  0.00000000E+00  0.00000000E+00  0.00000000E+00
  0.00000000E+00  0.00000000E+00  0.00000000E+00
  0.00000000E+00  0.00000000E+00  0.00000000E+00
  0.00000000E+00  0.00000000E+00  0.00000000E+00
  0.00000000E+00  0.00000000E+00  0.00000000E+00
  0.00000000E+00  0.00000000E+00  0.00000000E+00
  0.00000000E+00  0.00000000E+00  0.00000000E+00
  0.00000000E+00  0.00000000E+00  0.00000000E+00
  0.00000000E+00  0.00000000E+00  0.00000000E+00
  0.00000000E+00  0.00000000E+00  0.00000000E+00
  0.00000000E+00  0.00000000E+00  0.00000000E+00
  0.00000000E+00  0.00000000E+00  0.00000000E+00
  0.00000000E+00  0.00000000E+00  0.00000000E+00
  0.00000000E+00  0.00000000E+00  0.00000000E+00
  0.00000000E+00  0.00000000E+00  0.00000000E+00
  0.00000000E+00  0.00000000E+00  0.00000000E+00
  0.00000000E+00  0.00000000E+00  0.00000000E+00
  0.00000000E+00  0.00000000E+00  0.00000000E+00
  0.00000000E+00  0.00000000E+00  0.00000000E+00
  0.00000000E+00  0.00000000E+00  0.00000000E+00
  0.00000000E+00  0.00000000E+00  0.00000000E+00
  0.00000000E+00  0.00000000E+00  0.00000000E+00
  0.00000000E+00  0.00000000E+00  0.00000000E+00
  0.00000000E+00  0.00000000E+00  0.00000000E+00
  0.00000000E+00  0.00000000E+00  0.00000000E+00
  0.00000000E+00  0.00000000E+00  0.00000000E+00
  0.00000000E+00  0.00000000E+00  0.00000000E+00
  0.00000000E+00  0.00000000E+00  0.00000000E+00
  0.00000000E+00  0.00000000E+00  0.00000000E+00
  0.00000000E+00  0.00000000E+00  0.00000000E+00
  0.00000000E+00  0.00000000E+00  0.00000000E+00
  0.00000000E+00  0.00000000E+00  0.00000000E+00
  0.00000000E+00  0.00000000E+00  0.00000000E+00
  0.00000000E+00  0.00000000E+00  0.00000000E+00
  0.00000000E+00  0.00000000E+00  0.00000000E+00
  0.00000000E+00  0.00000000E+00  0.00000000E+00
  0.00000000E+00  0.00000000E+00  0.00000000E+00
  0.00000000E+00  0.00000000E+00  0.00000000E+00
  0.00000000E+00  0.00000000E+00  0.00000000E+00
  0.00000000E+00  0.00000000E+00  0.00000000E+00
  0.00000000E+00  0.00000000E+00  0.00000000E+00
  0.00000000E+00  0.00000000E+00  0.00000000E+00
  0.00000000E+00  0.00000000E+00  0.00000000E+00
  0.00000000E+00  0.00000000E+00  0.00000000E+00
  0.00000000E+00  0.00000000E+00  0.00000000E+00
  0.00000000E+00  0.00000000E+00  0.00000000E+00
  0.00000000E+00  0.00000000E+00  0.00000000E+00
  0.00000000E+00  0.00000000E+00  0.00000000E+00
  0.00000000E+00  0.00000000E+00  0.00000000E+00
  0.00000000E+00  0.00000000E+00  0.00000000E+00
  0.00000000E+00  0.00000000E+00  0.00000000E+00
  0.00000000E+00  0.00000000E+00  0.00000000E+00
  0.00000000E+00  0.00000000E+00  0.00000000E+00
  0.00000000E+00  0.00000000E+00  0.00000000E+00
  0.00000000E+00  0.00000000E+00  0.00000000E+00
  0.00000000E+00  0.00000000E+00  0.00000000E+00
