SYSTEM =geo_opt
PREC=Normal
ENCUT = 300
ISTART = 0
ICHARG = 2
EDIFF = 1E-04
LREAL = Auto
EDIFFG = -5E-02
NSW =5000
IBRION =0
ISIF = 2
ISMEAR = 0
POTIM=1
SMASS=0
TEBEG=300
TEEND=300
Nwrite =  0
#MAGMOM = 71*2 4
#SYMPREC=1E-04
ISYM=0
SIGMA =0.2
GGA = PE
ALGO=Fast
#ISPIN = 2
#NCORE=4
NELM=150
#LWAVE=.FALSE.
#LCHARG=.FALSE.
IVDW=11
ADDGRID = .TRUE. 
LMAXMIN=6
AMIX=0.1
BMIX=0.0001
#LSOL = .TRUE.
#EB_K = 80
#LAMBDA_D_K=3.04
