CONTCAR                                 
   1.00000000000000     
    13.2834997176999998    0.0000000000000000    0.0000000000000000
     0.0000000000000000   13.2517004013000008    0.0000000000000000
     0.0000000000000000    0.0000000000000000   28.4766006470000015
   Bi   I    O    H 
    48    12     2     1
Selective dynamics
Direct
  0.9999454637668705  0.9383943088885687  0.5990997085239087   F   F   F
  0.0001200803288484  0.0613755325920806  0.4008609503469458   F   F   F
  0.1672034388329280  0.7952733110937729  0.3586097855066015   F   F   F
  0.1656897282531204  0.3394294553965906  0.4434523000560020   F   F   F
  0.9998686827826191  0.1609148245266496  0.5689508837274104   F   F   F
  0.9999520992537825  0.6151449335442081  0.4873027378835104   F   F   F
  0.9999924808641936  0.8384316863217123  0.4300078940417364   F   F   F
  0.0000029096276393  0.5226367386592941  0.3129908973103497   F   F   F
  0.1663577478332030  0.1143946921723753  0.4704262215152397   F   F   F
  0.1664634197859272  0.6606555965500149  0.5578392151397367   F   F   F
  0.9999808966665356  0.3900563519375524  0.5151720020842490   F   F   F
  0.1666299747855078  0.8855824456631041  0.5297606850882488   F   F   F
  0.1665830862359741  0.2065735762335095  0.6400970035036337   F   F   F
  0.1672418330578296  0.4283223683265831  0.6134653047069705   F   F   F
  0.1668059140191431  0.5717208720718148  0.3844744510805782   F   F   F
  0.0000864648780734  0.4769689728502939  0.6844201541770829   F   F   F
  0.3335467144873903  0.9408854913096434  0.5987761283014734   F   F   F
  0.3332041701817872  0.0587237991069856  0.4012848364379380   F   F   F
  0.4999948573308117  0.7951360358888735  0.3585365294198724   F   F   F
  0.5000012745957463  0.3379652371797803  0.4416242285200340   F   F   F
  0.3347761845967199  0.1632113746874637  0.5687860736870647   F   F   F
  0.3339650446329543  0.6129305739122515  0.4879144803376860   F   F   F
  0.3335381551749350  0.8361829590744918  0.4310255469879110   F   F   F
  0.3332150889992107  0.5221449157689761  0.3125148826880846   F   F   F
  0.4999833587204634  0.1139427178091523  0.4705058173427972   F   F   F
  0.5000115974795847  0.6617699755991779  0.5585286492883412   F   F   F
  0.3336575140981495  0.3860498119276485  0.5125548878165276   F   F   F
  0.5000485219203483  0.8858048213828340  0.5294803405779334   F   F   F
  0.4998849556169560  0.2059443721094496  0.6418605878255761   F   F   F
  0.4996805981433923  0.4293429986338353  0.6158582402851422   F   F   F
  0.4999960117948987  0.5717854982675732  0.3841301589270003   F   F   F
  0.3388261172025864  0.4821312974848198  0.6908790252496786   F   F   F
  0.6665567120899425  0.9408029134741511  0.5988319655790946   F   F   F
  0.6668425091976431  0.0586784724969505  0.4013148439955359   F   F   F
  0.8326211618494241  0.7952470713970214  0.3586194487403489   F   F   F
  0.8342724108780075  0.3392132735223754  0.4434313144406232   F   F   F
  0.6651562564184488  0.1631072523203585  0.5688276017754106   F   F   F
  0.6659932105137898  0.6128784099383964  0.4879380421626038   F   F   F
  0.6664304733400996  0.8361614973468150  0.4310562735033017   F   F   F
  0.6667772356041795  0.5221939408005127  0.3125063400893566   F   F   F
  0.8338472016797240  0.1143421709759167  0.4703709633822157   F   F   F
  0.8334809049104308  0.6605796953007328  0.5578975248421401   F   F   F
  0.6663568885288313  0.3860244656077754  0.5125693873295418   F   F   F
  0.8333351531805349  0.8854723874898056  0.5297512430192199   F   F   F
  0.8333791284430774  0.2066166570349850  0.6401819127466339   F   F   F
  0.8317172601259273  0.4286242704651499  0.6141553347544502   F   F   F
  0.8331967627360157  0.5716828943286032  0.3844555282097986   F   F   F
  0.6597603129619642  0.4814917462406996  0.6912965297300673   F   F   F
  0.0001792569186136  0.2666402615999388  0.7314233148502254   F   F   F
  0.9999721070053837  0.7341932267369060  0.2670677245344066   F   F   F
  0.9999634274001252  0.2964882769563317  0.3426402934284454   F   F   F
  0.9999176842651565  0.7049354098817560  0.6570067265808177   F   F   F
  0.3347086907822003  0.2694720486862465  0.7351214153720846   F   F   F
  0.3336381824538179  0.7333865385712031  0.2665863878819650   F   F   F
  0.3335833277348357  0.2959522781630852  0.3436347419094474   F   F   F
  0.3340099492667221  0.7061632365268053  0.6569551603781179   F   F   F
  0.6651776561554215  0.2683254715010506  0.7347928063986586   F   F   F
  0.6663406072100386  0.7333703267260390  0.2665864974796435   F   F   F
  0.6664203231033667  0.2959669816245736  0.3436461423192441   F   F   F
  0.6656312273815317  0.7052010324659079  0.6568335934998615   F   F   F
  0.4985486253244531  0.4979096894465158  0.7284487558139219   T   T   T
  0.4971959272929496  0.5090652084880674  0.7794107180140557   T   T   T
  0.4955350642992329  0.4378154419142533  0.7887644635879584   T   T   T
 
  0.00000000E+00  0.00000000E+00  0.00000000E+00
  0.00000000E+00  0.00000000E+00  0.00000000E+00
  0.00000000E+00  0.00000000E+00  0.00000000E+00
  0.00000000E+00  0.00000000E+00  0.00000000E+00
  0.00000000E+00  0.00000000E+00  0.00000000E+00
  0.00000000E+00  0.00000000E+00  0.00000000E+00
  0.00000000E+00  0.00000000E+00  0.00000000E+00
  0.00000000E+00  0.00000000E+00  0.00000000E+00
  0.00000000E+00  0.00000000E+00  0.00000000E+00
  0.00000000E+00  0.00000000E+00  0.00000000E+00
  0.00000000E+00  0.00000000E+00  0.00000000E+00
  0.00000000E+00  0.00000000E+00  0.00000000E+00
  0.00000000E+00  0.00000000E+00  0.00000000E+00
  0.00000000E+00  0.00000000E+00  0.00000000E+00
  0.00000000E+00  0.00000000E+00  0.00000000E+00
  0.00000000E+00  0.00000000E+00  0.00000000E+00
  0.00000000E+00  0.00000000E+00  0.00000000E+00
  0.00000000E+00  0.00000000E+00  0.00000000E+00
  0.00000000E+00  0.00000000E+00  0.00000000E+00
  0.00000000E+00  0.00000000E+00  0.00000000E+00
  0.00000000E+00  0.00000000E+00  0.00000000E+00
  0.00000000E+00  0.00000000E+00  0.00000000E+00
  0.00000000E+00  0.00000000E+00  0.00000000E+00
  0.00000000E+00  0.00000000E+00  0.00000000E+00
  0.00000000E+00  0.00000000E+00  0.00000000E+00
  0.00000000E+00  0.00000000E+00  0.00000000E+00
  0.00000000E+00  0.00000000E+00  0.00000000E+00
  0.00000000E+00  0.00000000E+00  0.00000000E+00
  0.00000000E+00  0.00000000E+00  0.00000000E+00
  0.00000000E+00  0.00000000E+00  0.00000000E+00
  0.00000000E+00  0.00000000E+00  0.00000000E+00
  0.00000000E+00  0.00000000E+00  0.00000000E+00
  0.00000000E+00  0.00000000E+00  0.00000000E+00
  0.00000000E+00  0.00000000E+00  0.00000000E+00
  0.00000000E+00  0.00000000E+00  0.00000000E+00
  0.00000000E+00  0.00000000E+00  0.00000000E+00
  0.00000000E+00  0.00000000E+00  0.00000000E+00
  0.00000000E+00  0.00000000E+00  0.00000000E+00
  0.00000000E+00  0.00000000E+00  0.00000000E+00
  0.00000000E+00  0.00000000E+00  0.00000000E+00
  0.00000000E+00  0.00000000E+00  0.00000000E+00
  0.00000000E+00  0.00000000E+00  0.00000000E+00
  0.00000000E+00  0.00000000E+00  0.00000000E+00
  0.00000000E+00  0.00000000E+00  0.00000000E+00
  0.00000000E+00  0.00000000E+00  0.00000000E+00
  0.00000000E+00  0.00000000E+00  0.00000000E+00
  0.00000000E+00  0.00000000E+00  0.00000000E+00
  0.00000000E+00  0.00000000E+00  0.00000000E+00
  0.00000000E+00  0.00000000E+00  0.00000000E+00
  0.00000000E+00  0.00000000E+00  0.00000000E+00
  0.00000000E+00  0.00000000E+00  0.00000000E+00
  0.00000000E+00  0.00000000E+00  0.00000000E+00
  0.00000000E+00  0.00000000E+00  0.00000000E+00
  0.00000000E+00  0.00000000E+00  0.00000000E+00
  0.00000000E+00  0.00000000E+00  0.00000000E+00
  0.00000000E+00  0.00000000E+00  0.00000000E+00
  0.00000000E+00  0.00000000E+00  0.00000000E+00
  0.00000000E+00  0.00000000E+00  0.00000000E+00
  0.00000000E+00  0.00000000E+00  0.00000000E+00
  0.00000000E+00  0.00000000E+00  0.00000000E+00
  0.00000000E+00  0.00000000E+00  0.00000000E+00
  0.00000000E+00  0.00000000E+00  0.00000000E+00
  0.00000000E+00  0.00000000E+00  0.00000000E+00
