CONTCAR                                 
   1.00000000000000     
    13.9573001861999995    0.0000000000000000    0.0000000000000000
     0.0000000000000000   20.3449993133999989    0.0000000000000000
     0.0000000000000000    0.0000000000000000   22.8059997559000003
   Nb   Cr   Se   O 
    16    16    80     1
Direct
  0.1875983567640123  0.2302632510806471  0.5840609610121573
  0.0629079375158824  0.2736959047070271  0.4140633785260593
  0.4363881672019412  0.2301322451913679  0.5837774119896506
  0.3125213088627491  0.2731320659019200  0.4133226621581079
  0.6852515008211461  0.2306111580597479  0.5837004224047730
  0.5599327378663136  0.2741454883536059  0.4132539664723284
  0.9367406861358032  0.2311450476518884  0.5838644377571039
  0.8100019308947687  0.2741659787961520  0.4140346207209783
  0.1769064245237414  0.7309464861001287  0.5859021128846837
  0.0627465539105355  0.7724431179941822  0.4154103476698525
  0.4483155712945285  0.7219767482010636  0.6042004899249270
  0.3137442783166959  0.7711783753434452  0.4196232373936031
  0.6881476426952202  0.7288660198313184  0.5909822290770903
  0.5606926796681567  0.7711639858085011  0.4196737266277854
  0.9380366443551779  0.7311201973671578  0.5857282847478910
  0.8128827934135801  0.7721545121859478  0.4151887708484110
  0.0607152488714516  0.0676723548151099  0.5256632087494615
  0.1927757971823260  0.4355585102186220  0.4741695724415499
  0.3106894087677738  0.0657213600285577  0.5250259802556044
  0.4357407805858852  0.4375717745210585  0.4753043863360071
  0.5624786912301996  0.0672653362492524  0.5217068841820466
  0.6787474674423605  0.4360102991490994  0.4738609232386593
  0.8130745689265515  0.0676858506138998  0.5248246054010741
  0.9380865582942801  0.4361428186514905  0.4728562316264913
  0.0621306387061607  0.5647954735486659  0.5248687227125927
  0.1870673886084013  0.9361114691680265  0.4740708505185395
  0.3057854082434742  0.5683362694875976  0.5282288012860922
  0.4390374592939130  0.9351225831996947  0.4759268105277855
  0.5605056802768379  0.5642318023119904  0.5271482333855695
  0.6849819061164256  0.9357055127348513  0.4744334749119170
  0.8243902386390251  0.5681332679881241  0.5240984977552886
  0.9373087525518273  0.9359289949114067  0.4720872542426089
  0.1880956915704071  0.3155378027068989  0.4922731846095063
  0.0632963958287903  0.4462789925604643  0.5514766485617231
  0.0615682409453013  0.1881042098203927  0.5058162644682640
  0.1866553791173890  0.1840955679976503  0.3717024335513275
  0.0622429724243257  0.3202309879229914  0.6250353558520706
  0.0616553148834415  0.2132728688573133  0.6695834827024936
  0.0647579946733906  0.4072714667162498  0.3986337641830424
  0.1865301067765080  0.2905028396175895  0.3278789950682574
  0.1867330961016068  0.0964971147273426  0.6001639427148203
  0.1855333825351514  0.0530457821897096  0.4471301417142547
  0.4359740460244454  0.3164246179492731  0.4922030678082635
  0.3115774910107170  0.4499142502377780  0.5550887157580265
  0.3117225505921291  0.1871537971706978  0.5054084558643718
  0.4364387346063721  0.1840207705968783  0.3711658296501357
  0.3118119252087357  0.3190085633415164  0.6266955153229624
  0.3118832625298965  0.2120339846282323  0.6698549324688970
  0.3136715643089802  0.4071224808733008  0.3969085711787673
  0.4361638716310682  0.2902619199170302  0.3270791786453978
  0.4373812936069157  0.0962404710490876  0.5986162791053478
  0.4351441551925774  0.0524351828589703  0.4460720363151204
  0.6851882438264938  0.3160657469710920  0.4921918326418150
  0.5603759018764594  0.4474056929597668  0.5550153576763953
  0.5610619099521388  0.1885914840043632  0.5048099837450081
  0.6857347628354449  0.1851406606800703  0.3713413109880682
  0.5608287713378193  0.3188535428536657  0.6272705821910829
  0.5612188215606002  0.2114974992544696  0.6694914612217481
  0.5581466157997561  0.4082199643845418  0.3966113390351537
  0.6861486403529948  0.2919360153292292  0.3281408254213184
  0.6862689891413288  0.0968056284819870  0.5988692296863859
  0.6890105502360653  0.0530013821206264  0.4455625948355252
  0.9367032254877581  0.3161949237474285  0.4917913432316763
  0.8108162517399358  0.4499289666703138  0.5490560168399118
  0.8113511675301460  0.1883739431729328  0.5056268836983299
  0.9359715657652538  0.1855646759325257  0.3714728405171139
  0.8110778291313181  0.3204565189530666  0.6246688755415157
  0.8111385856744445  0.2143957224849756  0.6694968032485056
  0.8088190483581187  0.4078818143330706  0.3993639461320219
  0.9364992844351350  0.2926838649151920  0.3292190284129214
  0.9360453277020890  0.0973565277648483  0.6005598123029565
  0.9373740796021824  0.0534252356004289  0.4465227171757527
  0.1865711901785745  0.8159638096808448  0.4950735371353876
  0.0608607395834703  0.9505647234927517  0.5511761795538005
  0.0611648088799005  0.6862602706739523  0.5065425481784093
  0.1892911686818149  0.6823094655731533  0.3771625019843012
  0.0600048097481806  0.8221864772463170  0.6281723392270632
  0.0575075360356183  0.7159520385678323  0.6732008077544216
  0.0636548061000885  0.9060439908809484  0.3980858297099438
  0.1910418447159021  0.7882008691465858  0.3316908724271417
  0.1814770145894744  0.5952336443096085  0.6041802608028886
  0.1890660171207904  0.5533766373490783  0.4467860286343003
  0.4386001334126817  0.8144537102825041  0.4989808409953068
  0.3114262229635222  0.9501224955744524  0.5530206134961499
  0.3159346756109697  0.6890408132426903  0.5157231367326865
  0.4372783382767030  0.6813165378451755  0.3778498022361920
  0.3149165138353858  0.8117813372164787  0.6355119508291542
  0.2917721954541969  0.7030541060392899  0.6701130658040254
  0.3137483288273989  0.9045496009503751  0.4011176137015933
  0.4373316319663133  0.7885299276657799  0.3335765283277827
  0.4361654311763806  0.5877954382743432  0.6045992331842674
  0.4335569843466258  0.5562500628024448  0.4504864342520563
  0.6890792916902643  0.8150004204207872  0.4944776323283056
  0.5632432445729629  0.9535861497763932  0.5533068459114251
  0.5601208113148214  0.6854192572267744  0.5130102531391609
  0.6860755545187149  0.6820118697233557  0.3768036114085623
  0.5707041888945508  0.8175743908100416  0.6185915873710888
  0.5860608446429854  0.6685068889704250  0.6717832412392932
  0.5610930419422585  0.9042592241583759  0.4003713868952756
  0.6843385065447973  0.7876690455247699  0.3315773265106030
  0.6940482569739992  0.5906363180754750  0.5992369396286534
  0.6885572700669539  0.5535612399827372  0.4509386918288597
  0.9375111104539174  0.8159227608104778  0.4931237569368455
  0.8130066031852666  0.9506091875310548  0.5508047092264237
  0.8122368609229105  0.6881671617692503  0.5081446789779788
  0.9378119837695369  0.6836600795552962  0.3731046175111338
  0.8132614008212696  0.8195962176802446  0.6278612260611385
  0.8177871401262318  0.7141830044990394  0.6733787900808511
  0.8106412640324360  0.9059039894233956  0.3987364089481270
  0.9378554310888106  0.7903386511563046  0.3294612081469495
  0.9401041089080563  0.5961968728403738  0.6032941166758063
  0.9394646503216547  0.5524980906136437  0.4431387214128775
  0.4783594488127660  0.7163156671117390  0.6903925209207638
 
  0.00000000E+00  0.00000000E+00  0.00000000E+00
  0.00000000E+00  0.00000000E+00  0.00000000E+00
  0.00000000E+00  0.00000000E+00  0.00000000E+00
  0.00000000E+00  0.00000000E+00  0.00000000E+00
  0.00000000E+00  0.00000000E+00  0.00000000E+00
  0.00000000E+00  0.00000000E+00  0.00000000E+00
  0.00000000E+00  0.00000000E+00  0.00000000E+00
  0.00000000E+00  0.00000000E+00  0.00000000E+00
  0.00000000E+00  0.00000000E+00  0.00000000E+00
  0.00000000E+00  0.00000000E+00  0.00000000E+00
  0.00000000E+00  0.00000000E+00  0.00000000E+00
  0.00000000E+00  0.00000000E+00  0.00000000E+00
  0.00000000E+00  0.00000000E+00  0.00000000E+00
  0.00000000E+00  0.00000000E+00  0.00000000E+00
  0.00000000E+00  0.00000000E+00  0.00000000E+00
  0.00000000E+00  0.00000000E+00  0.00000000E+00
  0.00000000E+00  0.00000000E+00  0.00000000E+00
  0.00000000E+00  0.00000000E+00  0.00000000E+00
  0.00000000E+00  0.00000000E+00  0.00000000E+00
  0.00000000E+00  0.00000000E+00  0.00000000E+00
  0.00000000E+00  0.00000000E+00  0.00000000E+00
  0.00000000E+00  0.00000000E+00  0.00000000E+00
  0.00000000E+00  0.00000000E+00  0.00000000E+00
  0.00000000E+00  0.00000000E+00  0.00000000E+00
  0.00000000E+00  0.00000000E+00  0.00000000E+00
  0.00000000E+00  0.00000000E+00  0.00000000E+00
  0.00000000E+00  0.00000000E+00  0.00000000E+00
  0.00000000E+00  0.00000000E+00  0.00000000E+00
  0.00000000E+00  0.00000000E+00  0.00000000E+00
  0.00000000E+00  0.00000000E+00  0.00000000E+00
  0.00000000E+00  0.00000000E+00  0.00000000E+00
  0.00000000E+00  0.00000000E+00  0.00000000E+00
  0.00000000E+00  0.00000000E+00  0.00000000E+00
  0.00000000E+00  0.00000000E+00  0.00000000E+00
  0.00000000E+00  0.00000000E+00  0.00000000E+00
  0.00000000E+00  0.00000000E+00  0.00000000E+00
  0.00000000E+00  0.00000000E+00  0.00000000E+00
  0.00000000E+00  0.00000000E+00  0.00000000E+00
  0.00000000E+00  0.00000000E+00  0.00000000E+00
  0.00000000E+00  0.00000000E+00  0.00000000E+00
  0.00000000E+00  0.00000000E+00  0.00000000E+00
  0.00000000E+00  0.00000000E+00  0.00000000E+00
  0.00000000E+00  0.00000000E+00  0.00000000E+00
  0.00000000E+00  0.00000000E+00  0.00000000E+00
  0.00000000E+00  0.00000000E+00  0.00000000E+00
  0.00000000E+00  0.00000000E+00  0.00000000E+00
  0.00000000E+00  0.00000000E+00  0.00000000E+00
  0.00000000E+00  0.00000000E+00  0.00000000E+00
  0.00000000E+00  0.00000000E+00  0.00000000E+00
  0.00000000E+00  0.00000000E+00  0.00000000E+00
  0.00000000E+00  0.00000000E+00  0.00000000E+00
  0.00000000E+00  0.00000000E+00  0.00000000E+00
  0.00000000E+00  0.00000000E+00  0.00000000E+00
  0.00000000E+00  0.00000000E+00  0.00000000E+00
  0.00000000E+00  0.00000000E+00  0.00000000E+00
  0.00000000E+00  0.00000000E+00  0.00000000E+00
  0.00000000E+00  0.00000000E+00  0.00000000E+00
  0.00000000E+00  0.00000000E+00  0.00000000E+00
  0.00000000E+00  0.00000000E+00  0.00000000E+00
  0.00000000E+00  0.00000000E+00  0.00000000E+00
  0.00000000E+00  0.00000000E+00  0.00000000E+00
  0.00000000E+00  0.00000000E+00  0.00000000E+00
  0.00000000E+00  0.00000000E+00  0.00000000E+00
  0.00000000E+00  0.00000000E+00  0.00000000E+00
  0.00000000E+00  0.00000000E+00  0.00000000E+00
  0.00000000E+00  0.00000000E+00  0.00000000E+00
  0.00000000E+00  0.00000000E+00  0.00000000E+00
  0.00000000E+00  0.00000000E+00  0.00000000E+00
  0.00000000E+00  0.00000000E+00  0.00000000E+00
  0.00000000E+00  0.00000000E+00  0.00000000E+00
  0.00000000E+00  0.00000000E+00  0.00000000E+00
  0.00000000E+00  0.00000000E+00  0.00000000E+00
  0.00000000E+00  0.00000000E+00  0.00000000E+00
  0.00000000E+00  0.00000000E+00  0.00000000E+00
  0.00000000E+00  0.00000000E+00  0.00000000E+00
  0.00000000E+00  0.00000000E+00  0.00000000E+00
  0.00000000E+00  0.00000000E+00  0.00000000E+00
  0.00000000E+00  0.00000000E+00  0.00000000E+00
  0.00000000E+00  0.00000000E+00  0.00000000E+00
  0.00000000E+00  0.00000000E+00  0.00000000E+00
  0.00000000E+00  0.00000000E+00  0.00000000E+00
  0.00000000E+00  0.00000000E+00  0.00000000E+00
  0.00000000E+00  0.00000000E+00  0.00000000E+00
  0.00000000E+00  0.00000000E+00  0.00000000E+00
  0.00000000E+00  0.00000000E+00  0.00000000E+00
  0.00000000E+00  0.00000000E+00  0.00000000E+00
  0.00000000E+00  0.00000000E+00  0.00000000E+00
  0.00000000E+00  0.00000000E+00  0.00000000E+00
  0.00000000E+00  0.00000000E+00  0.00000000E+00
  0.00000000E+00  0.00000000E+00  0.00000000E+00
  0.00000000E+00  0.00000000E+00  0.00000000E+00
  0.00000000E+00  0.00000000E+00  0.00000000E+00
  0.00000000E+00  0.00000000E+00  0.00000000E+00
  0.00000000E+00  0.00000000E+00  0.00000000E+00
  0.00000000E+00  0.00000000E+00  0.00000000E+00
  0.00000000E+00  0.00000000E+00  0.00000000E+00
  0.00000000E+00  0.00000000E+00  0.00000000E+00
  0.00000000E+00  0.00000000E+00  0.00000000E+00
  0.00000000E+00  0.00000000E+00  0.00000000E+00
  0.00000000E+00  0.00000000E+00  0.00000000E+00
  0.00000000E+00  0.00000000E+00  0.00000000E+00
  0.00000000E+00  0.00000000E+00  0.00000000E+00
  0.00000000E+00  0.00000000E+00  0.00000000E+00
  0.00000000E+00  0.00000000E+00  0.00000000E+00
  0.00000000E+00  0.00000000E+00  0.00000000E+00
  0.00000000E+00  0.00000000E+00  0.00000000E+00
  0.00000000E+00  0.00000000E+00  0.00000000E+00
  0.00000000E+00  0.00000000E+00  0.00000000E+00
  0.00000000E+00  0.00000000E+00  0.00000000E+00
  0.00000000E+00  0.00000000E+00  0.00000000E+00
  0.00000000E+00  0.00000000E+00  0.00000000E+00
  0.00000000E+00  0.00000000E+00  0.00000000E+00
  0.00000000E+00  0.00000000E+00  0.00000000E+00
