CONTCAR\(5)                             
   1.00000000000000     
    13.9937000274999992    0.0000000000000000    0.0000000000000000
     0.0000000000000000   12.1743001938000006    0.0000000000000000
     0.0000000000000000    0.0000000000000000   22.0200004577999984
   Ta   Se   O 
    16    48     1
Direct
  0.0617603713188615  0.9957645251843914  0.4175811700195169
  0.1820931241514714  0.8574300231242162  0.5820253922703174
  0.0611395190240458  0.5881709103926838  0.4755007035633838
  0.1874172703739063  0.2634498068001463  0.5250346715427199
  0.3124583265488141  0.9944892414386217  0.4192002665155812
  0.4409590284443539  0.8508888579936809  0.5919323817034865
  0.3107181130657040  0.5889949867101762  0.4775825103189320
  0.4352800979260891  0.2616385223547439  0.5250483669888766
  0.5610502066879590  0.9946908604079070  0.4187400113562560
  0.6885028657707508  0.8616979577936092  0.5844542869340117
  0.5605377379786702  0.5884721313292545  0.4788027281371612
  0.6890742194920705  0.2631548751913542  0.5233487329875004
  0.8116532631555771  0.9961229800943343  0.4170888314398411
  0.9359543248227169  0.8587616433939829  0.5826076033216125
  0.8126861093326809  0.5893029251492194  0.4758680387767384
  0.9377824586497496  0.2643085296094938  0.5238122207259366
  0.0599748687450798  0.8159261415756092  0.4932839982746060
  0.1867283360311589  0.0367553657738497  0.5067867256464496
  0.0607109015042866  0.9883610417724711  0.6392021469746965
  0.1875513326026663  0.8652544556152364  0.3625929191675894
  0.1870593510009826  0.4375355245802695  0.4409131379335989
  0.0620340472047971  0.4151033436512535  0.5594845161418434
  0.1840703817907112  0.6327832011510495  0.5645505439795571
  0.0627105290320955  0.2197844974537730  0.4358237500661630
  0.1882362029406508  0.0780419756643838  0.3428762692354752
  0.0579368856023876  0.7747874126246188  0.6584582672755843
  0.1873299628879721  0.6572671979669664  0.3948680065066910
  0.0618918662459009  0.1961101592741841  0.6064789400939574
  0.3129939164833289  0.8165895654933237  0.4975601256158839
  0.4369513833043115  0.0342537003649497  0.5083253026973438
  0.3097289416748126  0.9809602792968946  0.6419452022694188
  0.4366393846216710  0.8642685227283309  0.3626985639641873
  0.4367255127694563  0.4372532249989973  0.4429243240651672
  0.3112370270448537  0.4142532975663684  0.5604627772302422
  0.4355404782559447  0.6304009014054373  0.5673416447435713
  0.3122740866355613  0.2184771115533479  0.4363673409624624
  0.4367416982738703  0.0772110687350676  0.3429692555940562
  0.2951327485782187  0.7712405741868338  0.6589077573778965
  0.4371281810035867  0.6570577412780736  0.3965264753357047
  0.3130206800321247  0.1935054805219707  0.6072486501304084
  0.5600495804000118  0.8162802942967886  0.4972274066559521
  0.6876188116609185  0.0379789019647276  0.5058337263403700
  0.5655351066460952  0.9975649857943480  0.6372834184981571
  0.6856841551259052  0.8648808618129635  0.3626788386128652
  0.6854925403452512  0.4383607018986240  0.4417208044667618
  0.5618885178918589  0.4081653360823907  0.5646313397103455
  0.6885483419449940  0.6337986421793360  0.5655363974158405
  0.5613098484847185  0.2185170532194149  0.4368630484493963
  0.6857556509806599  0.0778832787825579  0.3419959827966537
  0.5823420605958347  0.7420886313367561  0.6559140501674960
  0.6847629890970239  0.6581694287486215  0.3963609575192706
  0.5654124701223040  0.1958334991998001  0.6071485766824480
  0.8111061385468119  0.8178634046836066  0.4944778827795204
  0.9368383542416439  0.0374618917284764  0.5058674163177912
  0.8136584290343549  0.9909540412513493  0.6396372635023297
  0.9363184376153697  0.8661337558966764  0.3610233522600907
  0.9365331152157026  0.4376917208755273  0.4400121611975152
  0.8128158291799323  0.4154553108568564  0.5588844385679579
  0.9366190959299701  0.6340308126743892  0.5640959812926027
  0.8126752591926873  0.2198456902484622  0.4346661095607232
  0.9374855623746896  0.0786797231872285  0.3415354202137948
  0.8150729286107392  0.7776841112869022  0.6596937085034895
  0.9355175750417857  0.6575127760134976  0.3936017581268274
  0.8130781793891515  0.1971470291634034  0.6062239664514166
  0.4765253523217439  0.8199675956162409  0.6806419370259889
 
  0.00000000E+00  0.00000000E+00  0.00000000E+00
  0.00000000E+00  0.00000000E+00  0.00000000E+00
  0.00000000E+00  0.00000000E+00  0.00000000E+00
  0.00000000E+00  0.00000000E+00  0.00000000E+00
  0.00000000E+00  0.00000000E+00  0.00000000E+00
  0.00000000E+00  0.00000000E+00  0.00000000E+00
  0.00000000E+00  0.00000000E+00  0.00000000E+00
  0.00000000E+00  0.00000000E+00  0.00000000E+00
  0.00000000E+00  0.00000000E+00  0.00000000E+00
  0.00000000E+00  0.00000000E+00  0.00000000E+00
  0.00000000E+00  0.00000000E+00  0.00000000E+00
  0.00000000E+00  0.00000000E+00  0.00000000E+00
  0.00000000E+00  0.00000000E+00  0.00000000E+00
  0.00000000E+00  0.00000000E+00  0.00000000E+00
  0.00000000E+00  0.00000000E+00  0.00000000E+00
  0.00000000E+00  0.00000000E+00  0.00000000E+00
  0.00000000E+00  0.00000000E+00  0.00000000E+00
  0.00000000E+00  0.00000000E+00  0.00000000E+00
  0.00000000E+00  0.00000000E+00  0.00000000E+00
  0.00000000E+00  0.00000000E+00  0.00000000E+00
  0.00000000E+00  0.00000000E+00  0.00000000E+00
  0.00000000E+00  0.00000000E+00  0.00000000E+00
  0.00000000E+00  0.00000000E+00  0.00000000E+00
  0.00000000E+00  0.00000000E+00  0.00000000E+00
  0.00000000E+00  0.00000000E+00  0.00000000E+00
  0.00000000E+00  0.00000000E+00  0.00000000E+00
  0.00000000E+00  0.00000000E+00  0.00000000E+00
  0.00000000E+00  0.00000000E+00  0.00000000E+00
  0.00000000E+00  0.00000000E+00  0.00000000E+00
  0.00000000E+00  0.00000000E+00  0.00000000E+00
  0.00000000E+00  0.00000000E+00  0.00000000E+00
  0.00000000E+00  0.00000000E+00  0.00000000E+00
  0.00000000E+00  0.00000000E+00  0.00000000E+00
  0.00000000E+00  0.00000000E+00  0.00000000E+00
  0.00000000E+00  0.00000000E+00  0.00000000E+00
  0.00000000E+00  0.00000000E+00  0.00000000E+00
  0.00000000E+00  0.00000000E+00  0.00000000E+00
  0.00000000E+00  0.00000000E+00  0.00000000E+00
  0.00000000E+00  0.00000000E+00  0.00000000E+00
  0.00000000E+00  0.00000000E+00  0.00000000E+00
  0.00000000E+00  0.00000000E+00  0.00000000E+00
  0.00000000E+00  0.00000000E+00  0.00000000E+00
  0.00000000E+00  0.00000000E+00  0.00000000E+00
  0.00000000E+00  0.00000000E+00  0.00000000E+00
  0.00000000E+00  0.00000000E+00  0.00000000E+00
  0.00000000E+00  0.00000000E+00  0.00000000E+00
  0.00000000E+00  0.00000000E+00  0.00000000E+00
  0.00000000E+00  0.00000000E+00  0.00000000E+00
  0.00000000E+00  0.00000000E+00  0.00000000E+00
  0.00000000E+00  0.00000000E+00  0.00000000E+00
  0.00000000E+00  0.00000000E+00  0.00000000E+00
  0.00000000E+00  0.00000000E+00  0.00000000E+00
  0.00000000E+00  0.00000000E+00  0.00000000E+00
  0.00000000E+00  0.00000000E+00  0.00000000E+00
  0.00000000E+00  0.00000000E+00  0.00000000E+00
  0.00000000E+00  0.00000000E+00  0.00000000E+00
  0.00000000E+00  0.00000000E+00  0.00000000E+00
  0.00000000E+00  0.00000000E+00  0.00000000E+00
  0.00000000E+00  0.00000000E+00  0.00000000E+00
  0.00000000E+00  0.00000000E+00  0.00000000E+00
  0.00000000E+00  0.00000000E+00  0.00000000E+00
  0.00000000E+00  0.00000000E+00  0.00000000E+00
  0.00000000E+00  0.00000000E+00  0.00000000E+00
  0.00000000E+00  0.00000000E+00  0.00000000E+00
  0.00000000E+00  0.00000000E+00  0.00000000E+00
