 Au4 Se4                                
   1.00000000000000     
     3.7771700560286767    0.0000000000000000    0.0000000000000000
     1.8885850280143384    6.0167741796916951    0.0000000000000000
     0.0000000000000000    0.0000000000000000   20.2071628102080041
   Au   Se
     4     4
Direct
  0.9908611964382879  0.0179886792351792  0.6212821283037804
  0.0091388036480945  0.9820113207027271  0.3787178717407035
  0.3516087883493176  0.2964896923415940  0.4935400585820603
  0.6483912113927265  0.7035103077760227  0.5064599413903644
  0.3532063645105665  0.2939080728274265  0.6145054689063945
  0.6290526092512234  0.7412402024014852  0.6274771983711821
  0.3709473908213030  0.2587597975810559  0.3725228016353896
  0.6467936355884804  0.7060919271345109  0.3854945310701259
 
  0.00000000E+00  0.00000000E+00  0.00000000E+00
  0.00000000E+00  0.00000000E+00  0.00000000E+00
  0.00000000E+00  0.00000000E+00  0.00000000E+00
  0.00000000E+00  0.00000000E+00  0.00000000E+00
  0.00000000E+00  0.00000000E+00  0.00000000E+00
  0.00000000E+00  0.00000000E+00  0.00000000E+00
  0.00000000E+00  0.00000000E+00  0.00000000E+00
  0.00000000E+00  0.00000000E+00  0.00000000E+00
