CONTCAR\(3)                             
   1.00000000000000     
    15.1086997986000000    0.0000000000000000    0.0000000000000000
     3.7771669926999998   12.0335217063000002    0.0000000000000000
     0.0000000000000000    0.0000000000000000   20.2071990966999984
   Au   Se
    32    32
Direct
  0.2497057486119622  0.0039626979724151  0.6217003301047239
  0.0002942663880355  0.9960373270275837  0.3782996698952763
  0.0882183447334809  0.1484967652761353  0.4983674193353075
  0.1617816712665205  0.8514932837238690  0.5016325806646923
  0.4997057336119645  0.0039626979724151  0.6217003301047239
  0.2502942503880342  0.9960373270275837  0.3782996698952763
  0.3382183757334801  0.1484967652761353  0.4983674193353075
  0.4117816082665186  0.8514932837238690  0.5016325806646923
  0.7497057336119645  0.0039626979724151  0.6217003301047239
  0.5002942823880369  0.9960373270275837  0.3782996698952763
  0.5882183127334784  0.1484967652761353  0.4983674193353075
  0.6617816712665203  0.8514932837238690  0.5016325806646923
  0.9997057336119645  0.0039626979724151  0.6217003301047239
  0.7502942193880352  0.9960373270275837  0.3782996698952763
  0.8382183127334784  0.1484967652761353  0.4983674193353075
  0.9117817342665220  0.8514932837238690  0.5016325806646923
  0.2497057516119660  0.5039626659724192  0.6217003301047239
  0.0002942633880388  0.4960373300275802  0.3782996698952763
  0.0882183497334777  0.6484967242761356  0.4983674193353075
  0.1617816642665235  0.3514932067238664  0.5016325806646923
  0.4997057206119669  0.5039626659724192  0.6217003301047239
  0.2502942393880369  0.4960373300275802  0.3782996698952763
  0.3382183657334792  0.6484967242761356  0.4983674193353075
  0.4117816482665219  0.3514932067238664  0.5016325806646923
  0.7497057836119615  0.5039626659724192  0.6217003301047239
  0.5002942393880369  0.4960373300275802  0.3782996698952763
  0.5882183657334792  0.6484967242761356  0.4983674193353075
  0.6617816482665220  0.3514932067238664  0.5016325806646923
  0.9997057206119669  0.5039626659724192  0.6217003301047239
  0.7502942393880369  0.4960373300275802  0.3782996698952763
  0.8382183027334775  0.6484967242761356  0.4983674193353075
  0.9117817112665165  0.3514932067238664  0.5016325806646923
  0.0901087856940109  0.1428159878526939  0.6193904693520988
  0.1592196946172127  0.8650664841271668  0.6225824782231791
  0.0907803383827935  0.1349335008728283  0.3774175217768209
  0.1598911853059904  0.8571840271473037  0.3805995016478995
  0.3401087696940094  0.1428159878526939  0.6193904693520988
  0.4092196946172128  0.8650664841271668  0.6225824782231791
  0.3407803303827928  0.1349335008728283  0.3774175217768209
  0.4098912483059921  0.8571840271473037  0.3805995016478995
  0.5901087696940096  0.1428159878526939  0.6193904693520988
  0.6592196316172110  0.8650664841271668  0.6225824782231791
  0.5907803933827875  0.1349335008728283  0.3774175217768209
  0.6598912483059919  0.8571840271473037  0.3805995016478995
  0.8401087696940096  0.1428159878526939  0.6193904693520988
  0.9092196946172126  0.8650664841271668  0.6225824782231791
  0.8407803303827930  0.1349335008728283  0.3774175217768209
  0.9098911853059902  0.8571840271473037  0.3805995016478995
  0.0901087916940043  0.6428160058526955  0.6193904693520988
  0.1592196736172075  0.3650665261271702  0.6225824782231791
  0.0907803493827908  0.6349334698728294  0.3774175217768209
  0.1598911993059915  0.3571839901473041  0.3805995016478995
  0.3401087756940099  0.6428160058526955  0.6193904693520988
  0.4092196736172075  0.3650665261271702  0.6225824782231791
  0.3407803173827882  0.6349334698728294  0.3774175217768209
  0.4098912153059929  0.3571839901473041  0.3805995016478995
  0.5901088076940056  0.6428160058526955  0.6193904693520988
  0.6592196416172118  0.3650665261271702  0.6225824782231791
  0.5907803813827937  0.6349334698728294  0.3774175217768209
  0.6598912153059927  0.3571839901473041  0.3805995016478995
  0.8401087446940111  0.6428160058526955  0.6193904693520988
  0.9092196416172118  0.3650665261271702  0.6225824782231791
  0.8407803813827937  0.6349334698728294  0.3774175217768209
  0.9098912153059927  0.3571839901473041  0.3805995016478995
 
  0.00000000E+00  0.00000000E+00  0.00000000E+00
  0.00000000E+00  0.00000000E+00  0.00000000E+00
  0.00000000E+00  0.00000000E+00  0.00000000E+00
  0.00000000E+00  0.00000000E+00  0.00000000E+00
  0.00000000E+00  0.00000000E+00  0.00000000E+00
  0.00000000E+00  0.00000000E+00  0.00000000E+00
  0.00000000E+00  0.00000000E+00  0.00000000E+00
  0.00000000E+00  0.00000000E+00  0.00000000E+00
  0.00000000E+00  0.00000000E+00  0.00000000E+00
  0.00000000E+00  0.00000000E+00  0.00000000E+00
  0.00000000E+00  0.00000000E+00  0.00000000E+00
  0.00000000E+00  0.00000000E+00  0.00000000E+00
  0.00000000E+00  0.00000000E+00  0.00000000E+00
  0.00000000E+00  0.00000000E+00  0.00000000E+00
  0.00000000E+00  0.00000000E+00  0.00000000E+00
  0.00000000E+00  0.00000000E+00  0.00000000E+00
  0.00000000E+00  0.00000000E+00  0.00000000E+00
  0.00000000E+00  0.00000000E+00  0.00000000E+00
  0.00000000E+00  0.00000000E+00  0.00000000E+00
  0.00000000E+00  0.00000000E+00  0.00000000E+00
  0.00000000E+00  0.00000000E+00  0.00000000E+00
  0.00000000E+00  0.00000000E+00  0.00000000E+00
  0.00000000E+00  0.00000000E+00  0.00000000E+00
  0.00000000E+00  0.00000000E+00  0.00000000E+00
  0.00000000E+00  0.00000000E+00  0.00000000E+00
  0.00000000E+00  0.00000000E+00  0.00000000E+00
  0.00000000E+00  0.00000000E+00  0.00000000E+00
  0.00000000E+00  0.00000000E+00  0.00000000E+00
  0.00000000E+00  0.00000000E+00  0.00000000E+00
  0.00000000E+00  0.00000000E+00  0.00000000E+00
  0.00000000E+00  0.00000000E+00  0.00000000E+00
  0.00000000E+00  0.00000000E+00  0.00000000E+00
  0.00000000E+00  0.00000000E+00  0.00000000E+00
  0.00000000E+00  0.00000000E+00  0.00000000E+00
  0.00000000E+00  0.00000000E+00  0.00000000E+00
  0.00000000E+00  0.00000000E+00  0.00000000E+00
  0.00000000E+00  0.00000000E+00  0.00000000E+00
  0.00000000E+00  0.00000000E+00  0.00000000E+00
  0.00000000E+00  0.00000000E+00  0.00000000E+00
  0.00000000E+00  0.00000000E+00  0.00000000E+00
  0.00000000E+00  0.00000000E+00  0.00000000E+00
  0.00000000E+00  0.00000000E+00  0.00000000E+00
  0.00000000E+00  0.00000000E+00  0.00000000E+00
  0.00000000E+00  0.00000000E+00  0.00000000E+00
  0.00000000E+00  0.00000000E+00  0.00000000E+00
  0.00000000E+00  0.00000000E+00  0.00000000E+00
  0.00000000E+00  0.00000000E+00  0.00000000E+00
  0.00000000E+00  0.00000000E+00  0.00000000E+00
  0.00000000E+00  0.00000000E+00  0.00000000E+00
  0.00000000E+00  0.00000000E+00  0.00000000E+00
  0.00000000E+00  0.00000000E+00  0.00000000E+00
  0.00000000E+00  0.00000000E+00  0.00000000E+00
  0.00000000E+00  0.00000000E+00  0.00000000E+00
  0.00000000E+00  0.00000000E+00  0.00000000E+00
  0.00000000E+00  0.00000000E+00  0.00000000E+00
  0.00000000E+00  0.00000000E+00  0.00000000E+00
  0.00000000E+00  0.00000000E+00  0.00000000E+00
  0.00000000E+00  0.00000000E+00  0.00000000E+00
  0.00000000E+00  0.00000000E+00  0.00000000E+00
  0.00000000E+00  0.00000000E+00  0.00000000E+00
  0.00000000E+00  0.00000000E+00  0.00000000E+00
  0.00000000E+00  0.00000000E+00  0.00000000E+00
  0.00000000E+00  0.00000000E+00  0.00000000E+00
  0.00000000E+00  0.00000000E+00  0.00000000E+00
