CONTCAR                                 
   1.00000000000000     
    11.6387996674000007    0.0000000000000000    0.0000000000000000
     5.8194217944000002   10.1357943405000004    0.0000000000000000
     0.0000000000000000    0.0000000000000000   18.1699008942000013
   Li   Ni   P    S    O    H 
     4     4     8    24     1     1
Direct
  0.3290589649159439  0.3254176655629193  0.5014267358044334
  0.8322392612221164  0.3291974304660151  0.4994537317717394
  0.3283720939555416  0.8323279514901142  0.5031790218309951
  0.8295350425559992  0.8309843777106064  0.4845150844890463
  0.1610228033636156  0.1635358385461781  0.4934844611328954
  0.6702749275872796  0.1453044084952305  0.4894576041306811
  0.1583431093771154  0.6697266369081457  0.4979826926054691
  0.6678733578516149  0.6588178404561642  0.5003807041524964
  0.4940781902437976  0.5102380881427525  0.5762628749332688
 -0.0054548451698963  0.4964567926885828  0.4332690440538053
 -0.0048311978910258  0.4998913098132652  0.5532522352945252
  0.4957322811391954  0.4920835412626965  0.4550361121268551
  0.4962233733165369  0.9959807697441411  0.5535276029846181
  0.0010757885760567  0.9914889748372994  0.4295457281722226
  0.9908329365305498  0.9977255567963170  0.5493992897787523
  0.4962865617052212 -0.0053279106018575  0.4336552757906624
  0.0116622955469968  0.3243086932560581  0.5833091447039594
  0.3187073762296029  0.1556390410915944  0.5819992088870064
  0.0139539688629433  0.1560468385274396  0.4060261680115158
  0.1575065937147791  0.3193648863370274  0.4082579359506303
  0.3192044520393826  0.0111662501905911  0.4070155419726474
  0.1471492484459921  0.0183649198399708  0.5820047265443978
  0.4949142983125590  0.3381577271544142  0.6197329690999724
  0.8097001830546594  0.1575179201168564  0.5742905909827586
  0.5108938126201967  0.1614459334018209  0.4130924769335068
  0.6538480275560672  0.3182052901785468  0.4217014492707190
  0.8338858752017712  0.0012856474278647  0.3933705857966243
  0.6581526149450508  0.0155248351603240  0.5770615375906725
  0.0036684944303165  0.8218098584668720  0.5772343443551402
  0.3203271296583656  0.6712248355037196  0.5987838924924499
  0.0080818810430017  0.6547732227864806  0.4013807488692671
  0.1717635636918856  0.8128354129548435  0.4138933349146497
  0.3187050342989290  0.5102131892787357  0.4238889676468321
  0.1536622245856593  0.5199195870088432  0.5820342236018313
  0.5152706052989399  0.8202249616531078  0.5846278148700641
  0.8188012522766702  0.6656514936082516  0.5784242562440384
  0.5126774336526249  0.6519932046287508  0.4234087735562844
  0.6551812854715329  0.8219377317914209  0.4038619165603207
  0.8152981607877942  0.5073973382986131  0.4131783955659645
  0.6663355557218509  0.5074090138399509  0.5962001717690123
  0.3906271209327515  0.4021419244472772  0.6909010773154523
  0.4439785483400078  0.3948118667321004  0.7342615744418199
 
  0.00000000E+00  0.00000000E+00  0.00000000E+00
  0.00000000E+00  0.00000000E+00  0.00000000E+00
  0.00000000E+00  0.00000000E+00  0.00000000E+00
  0.00000000E+00  0.00000000E+00  0.00000000E+00
  0.00000000E+00  0.00000000E+00  0.00000000E+00
  0.00000000E+00  0.00000000E+00  0.00000000E+00
  0.00000000E+00  0.00000000E+00  0.00000000E+00
  0.00000000E+00  0.00000000E+00  0.00000000E+00
  0.00000000E+00  0.00000000E+00  0.00000000E+00
  0.00000000E+00  0.00000000E+00  0.00000000E+00
  0.00000000E+00  0.00000000E+00  0.00000000E+00
  0.00000000E+00  0.00000000E+00  0.00000000E+00
  0.00000000E+00  0.00000000E+00  0.00000000E+00
  0.00000000E+00  0.00000000E+00  0.00000000E+00
  0.00000000E+00  0.00000000E+00  0.00000000E+00
  0.00000000E+00  0.00000000E+00  0.00000000E+00
  0.00000000E+00  0.00000000E+00  0.00000000E+00
  0.00000000E+00  0.00000000E+00  0.00000000E+00
  0.00000000E+00  0.00000000E+00  0.00000000E+00
  0.00000000E+00  0.00000000E+00  0.00000000E+00
  0.00000000E+00  0.00000000E+00  0.00000000E+00
  0.00000000E+00  0.00000000E+00  0.00000000E+00
  0.00000000E+00  0.00000000E+00  0.00000000E+00
  0.00000000E+00  0.00000000E+00  0.00000000E+00
  0.00000000E+00  0.00000000E+00  0.00000000E+00
  0.00000000E+00  0.00000000E+00  0.00000000E+00
  0.00000000E+00  0.00000000E+00  0.00000000E+00
  0.00000000E+00  0.00000000E+00  0.00000000E+00
  0.00000000E+00  0.00000000E+00  0.00000000E+00
  0.00000000E+00  0.00000000E+00  0.00000000E+00
  0.00000000E+00  0.00000000E+00  0.00000000E+00
  0.00000000E+00  0.00000000E+00  0.00000000E+00
  0.00000000E+00  0.00000000E+00  0.00000000E+00
  0.00000000E+00  0.00000000E+00  0.00000000E+00
  0.00000000E+00  0.00000000E+00  0.00000000E+00
  0.00000000E+00  0.00000000E+00  0.00000000E+00
  0.00000000E+00  0.00000000E+00  0.00000000E+00
  0.00000000E+00  0.00000000E+00  0.00000000E+00
  0.00000000E+00  0.00000000E+00  0.00000000E+00
  0.00000000E+00  0.00000000E+00  0.00000000E+00
  0.00000000E+00  0.00000000E+00  0.00000000E+00
  0.00000000E+00  0.00000000E+00  0.00000000E+00
