CONTCAR\(4)                             
   1.00000000000000     
    11.6593999863000004    0.0000000000000000    0.0000000000000000
    -5.8296999931000002   10.0973365810000004    0.0000000000000000
     0.0000000000000000    0.0000000000000000   24.5373001098999985
   Zn   In   S    O    H 
     9    18    36     1     1
Direct
  0.1150619670343907  0.2252405686845263  0.3250249755146830
  0.4487893733323886  0.2253918060952930  0.3208767143941582
  0.7820674268607418  0.2245553017093804  0.3214792157757208
  0.1150890769974024  0.5566937422028022  0.3250623820743016
  0.4477423341698030  0.5572787220991465  0.3253133411007362
  0.7740141165830077  0.5401897064703928  0.3325785302169218
  0.1323090857690972  0.8996340407810681  0.3287686500791220
  0.4488039342842524  0.8904312107319339  0.3208808511363899
  0.7740152559523351  0.9007773357085479  0.3326914135171484
  0.0022825873821423  0.0029109560361859  0.4845406093853964
  0.2224302557371093  0.1101530830471151  0.6469103179924504
  0.3356529592415712  0.0016817383414536  0.4822589369076296
  0.5560235918046209  0.1107858292258610  0.6475322367581596
  0.6658289293364467  0.0022120712704708  0.4830342700529632
  0.8889003677423241  0.1103471972916177  0.6471577975864775
  0.0001392397152877  0.3334527784318311  0.4831153024928536
  0.2224154809471128  0.4436926218000115  0.6461816107095550
  0.3336497690072842  0.3335074143679629  0.4821075305770384
  0.5557850072090657  0.4442590752714090  0.6466099281906579
  0.6657675441509553  0.3306731608780986  0.4832458447023015
  0.8886679103966981  0.4436684305784995  0.6471081047543218
  0.0024316989585831  0.6666570078681356  0.4840483090410951
  0.2223103516320818  0.7773051101156774  0.6465403272725793
  0.3340325054942896  0.6679271973943971  0.4822567255188348
  0.5557532307184888  0.7773193639036006  0.6465944350945516
  0.6646207841963626  0.6659658337130917  0.4842913051437774
  0.8889111761757217  0.7773057085606775  0.6468993457125256
  0.2258012234291740  0.1146069881304104  0.3046435625519299
  0.2240583138047085  0.1114902919063782  0.5475209263727151
  0.1109955604630482  0.2220522364486177  0.4321026696039109
  0.1116713226250302  0.2219364938528420  0.6928684108615233
  0.5594453008219543  0.1132514955493859  0.3060477998025868
  0.5552808549307882  0.1111176741601115  0.5482335099763950
  0.4454614991808285  0.2232065685337974  0.4313842496924979
  0.4446250223209266  0.2222881322695524  0.6931218652245190
  0.8937152527287092  0.1134514589433854  0.3049432456657365
  0.8881345796926082  0.1111345860807150  0.5478922932294225
  0.7788842218566560  0.2230740479501533  0.4317920560788957
  0.7782364375631302  0.2217929387465592  0.6935675167796154
  0.2264603774335419  0.4466700408061969  0.3068089388245948
  0.2230454840895816  0.4448969365640169  0.5471681075033110
  0.1113467788957493  0.5558730760350872  0.4321185839470404
  0.1116637504269864  0.5550419247428141  0.6926396283565018
  0.5609654382045108  0.4489877683087096  0.3041408389656745
  0.5556517134687757  0.4438457775788736  0.5474072257188146
  0.4457720975844422  0.5566033656430380  0.4318235289292258
  0.4443047920738012  0.5549938456434674  0.6927802523325134
  0.8938102562651272  0.4472388343637986  0.3048742987002142
  0.8882523732417791  0.4440299951867609  0.5478304727536064
  0.7788527360768093  0.5567109150804341  0.4334765511272166
  0.7775625445718315  0.5550381669233693  0.6931955630735259
  0.2257843519182586  0.7780862105151304  0.3046485615281558
  0.2238564829391048  0.7796355976287864  0.5472436908519082
  0.1098345490582755  0.8887261561716003  0.4323286860216665
  0.1110617813420719  0.8880141366603773  0.6931480289852729
  0.5610240363626677  0.7788953436101651  0.3042445964230199
  0.5557064149231361  0.7791265999502734  0.5474367953988839
  0.4453271506456108  0.8894570223456784  0.4314214878706815
  0.4442795335711213  0.8879408079964285  0.6930904284080648
  0.8904389389418809  0.7786607834222730  0.3146314768599593
  0.8893362314228649  0.7780682671358662  0.5475410012731241
  0.7790705811270059  0.8892683041278985  0.4335230408523023
  0.7774917889727517  0.8880158693307245  0.6932582496436543
  0.8891827847329177  0.7783948076874373  0.2461150424928590
  0.7958821664623121  0.7325904203896988  0.2349176946162107
 
  0.00000000E+00  0.00000000E+00  0.00000000E+00
  0.00000000E+00  0.00000000E+00  0.00000000E+00
  0.00000000E+00  0.00000000E+00  0.00000000E+00
  0.00000000E+00  0.00000000E+00  0.00000000E+00
  0.00000000E+00  0.00000000E+00  0.00000000E+00
  0.00000000E+00  0.00000000E+00  0.00000000E+00
  0.00000000E+00  0.00000000E+00  0.00000000E+00
  0.00000000E+00  0.00000000E+00  0.00000000E+00
  0.00000000E+00  0.00000000E+00  0.00000000E+00
  0.00000000E+00  0.00000000E+00  0.00000000E+00
  0.00000000E+00  0.00000000E+00  0.00000000E+00
  0.00000000E+00  0.00000000E+00  0.00000000E+00
  0.00000000E+00  0.00000000E+00  0.00000000E+00
  0.00000000E+00  0.00000000E+00  0.00000000E+00
  0.00000000E+00  0.00000000E+00  0.00000000E+00
  0.00000000E+00  0.00000000E+00  0.00000000E+00
  0.00000000E+00  0.00000000E+00  0.00000000E+00
  0.00000000E+00  0.00000000E+00  0.00000000E+00
  0.00000000E+00  0.00000000E+00  0.00000000E+00
  0.00000000E+00  0.00000000E+00  0.00000000E+00
  0.00000000E+00  0.00000000E+00  0.00000000E+00
  0.00000000E+00  0.00000000E+00  0.00000000E+00
  0.00000000E+00  0.00000000E+00  0.00000000E+00
  0.00000000E+00  0.00000000E+00  0.00000000E+00
  0.00000000E+00  0.00000000E+00  0.00000000E+00
  0.00000000E+00  0.00000000E+00  0.00000000E+00
  0.00000000E+00  0.00000000E+00  0.00000000E+00
  0.00000000E+00  0.00000000E+00  0.00000000E+00
  0.00000000E+00  0.00000000E+00  0.00000000E+00
  0.00000000E+00  0.00000000E+00  0.00000000E+00
  0.00000000E+00  0.00000000E+00  0.00000000E+00
  0.00000000E+00  0.00000000E+00  0.00000000E+00
  0.00000000E+00  0.00000000E+00  0.00000000E+00
  0.00000000E+00  0.00000000E+00  0.00000000E+00
  0.00000000E+00  0.00000000E+00  0.00000000E+00
  0.00000000E+00  0.00000000E+00  0.00000000E+00
  0.00000000E+00  0.00000000E+00  0.00000000E+00
  0.00000000E+00  0.00000000E+00  0.00000000E+00
  0.00000000E+00  0.00000000E+00  0.00000000E+00
  0.00000000E+00  0.00000000E+00  0.00000000E+00
  0.00000000E+00  0.00000000E+00  0.00000000E+00
  0.00000000E+00  0.00000000E+00  0.00000000E+00
  0.00000000E+00  0.00000000E+00  0.00000000E+00
  0.00000000E+00  0.00000000E+00  0.00000000E+00
  0.00000000E+00  0.00000000E+00  0.00000000E+00
  0.00000000E+00  0.00000000E+00  0.00000000E+00
  0.00000000E+00  0.00000000E+00  0.00000000E+00
  0.00000000E+00  0.00000000E+00  0.00000000E+00
  0.00000000E+00  0.00000000E+00  0.00000000E+00
  0.00000000E+00  0.00000000E+00  0.00000000E+00
  0.00000000E+00  0.00000000E+00  0.00000000E+00
  0.00000000E+00  0.00000000E+00  0.00000000E+00
  0.00000000E+00  0.00000000E+00  0.00000000E+00
  0.00000000E+00  0.00000000E+00  0.00000000E+00
  0.00000000E+00  0.00000000E+00  0.00000000E+00
  0.00000000E+00  0.00000000E+00  0.00000000E+00
  0.00000000E+00  0.00000000E+00  0.00000000E+00
  0.00000000E+00  0.00000000E+00  0.00000000E+00
  0.00000000E+00  0.00000000E+00  0.00000000E+00
  0.00000000E+00  0.00000000E+00  0.00000000E+00
  0.00000000E+00  0.00000000E+00  0.00000000E+00
  0.00000000E+00  0.00000000E+00  0.00000000E+00
  0.00000000E+00  0.00000000E+00  0.00000000E+00
  0.00000000E+00  0.00000000E+00  0.00000000E+00
  0.00000000E+00  0.00000000E+00  0.00000000E+00
