CONTCAR\(2)                             
   1.00000000000000     
    14.8558998108000004    0.0000000000000000    0.0000000000000000
     0.0000000000000000   13.4555997849000004    0.0000000000000000
     0.0000000000000000    0.0000000000000000   21.2884006499999998
   Nb   S    O    H 
    24    72     2     1
Direct
  0.2330953589376819  0.4268955706981217  0.4359387149476035
  0.2328444467901249  0.2018519171742312  0.4321478641220011
  0.0662888112479223  0.0753230098324593  0.5626833155323610
  0.0663363194473732  0.3003790254082261  0.5663711335659229
  0.5665504613839261  0.4269549300523536  0.4359022166748332
  0.5664194709997545  0.2018869048502907  0.4321003651381048
  0.3996472081599975  0.0752571647705125  0.5624067794946441
  0.3997760557236063  0.2998654965719538  0.5660496935780941
  0.8998019563465007  0.4269527425042554  0.4360277429610875
  0.8996680305357003  0.2019174087236166  0.4323932542069073
  0.7330597336574343  0.0752437949142077  0.5626564492259121
  0.7329857661886408  0.3002690364725211  0.5663431483806463
  0.2329349236242138  0.9269077797150018  0.4358098995426118
  0.2328741373748286  0.7019226524245710  0.4322160512306183
  0.0664828235397934  0.5753383133431740  0.5627161709769268
  0.0663868079015586  0.8003264585638874  0.5663932434836809
  0.5665175832206586  0.9269478718029163  0.4358165731362362
  0.5665137354909149  0.7019833353125122  0.4321730303070268
  0.3997719767831853  0.5760348767280590  0.5625182661350934
  0.3995750440404819  0.8005486239158586  0.5660233351467880
  0.8998004177695549  0.9269100149151299  0.4360224155309425
  0.8997452892431994  0.7018997617639258  0.4324251434279063
  0.7329465724290642  0.5754280474856088  0.5627433593964355
  0.7328838688164012  0.8003462711910885  0.5664186753906222
  0.3336096503533383  0.1853600283566692  0.6469260081405466
  0.2329645240789020  0.0679510455612373  0.5178415045496507
  0.2329948321872308  0.3085197788568266  0.5257482336894981
  0.0662341178384480  0.1936256816453792  0.4727842892469099
  0.1653168068668904  0.3169673368920556  0.3524392121438495
  0.0664723202650706  0.4342980925884561  0.4806226345277693
  0.3307852185953237  0.4394483677683922  0.6329785848118732
  0.3007062760863803  0.0627619676736657  0.3640166426895277
  0.3011940697620759  0.3168565166217547  0.3529115125483031
  0.1360996022887875  0.1854318635503489  0.6447093752340436
  0.1335532266791404  0.4394555444382746  0.6351358845305199
  0.1648990123874938  0.0627167267890698  0.3641509691349682
  0.6668778142683038  0.1854055166464050  0.6470909423365825
  0.5663835521107004  0.0679770539853450  0.5178380240346740
  0.5663699072790820  0.3084566984449637  0.5257406705415946
  0.3995795269301823  0.1934272129098247  0.4723849593027438
  0.4988825358780176  0.3170320411669110  0.3524379190178024
  0.3999432116416344  0.4342954514433046  0.4806139495536357
  0.6639532807416089  0.4394321514911610  0.6334277004718984
  0.6343718847015012  0.0628227981830065  0.3640027399896937
  0.6347373924033803  0.3168455341804801  0.3527987450153631
  0.4695154991403712  0.1852654585906919  0.6444681827106393
  0.4668061099940175  0.4391742054179204  0.6345993570323074
  0.4985631339522172  0.0628310550714843  0.3641192672476521
  0.0002606250201538  0.1853625796833143  0.6471036956486671
  0.8996427868447014  0.0679543225948862  0.5181079668718098
  0.8996545745066911  0.3087799957442883  0.5259533265089686
  0.7330527378083289  0.1935829884718103  0.4726857781420222
  0.8320965949140700  0.3167933746221721  0.3526353162384552
  0.7332018341237969  0.4342930743644615  0.4806304526975822
  0.9977596404867839  0.4395052734908163  0.6336915103154155
  0.9676881269188371  0.0628125930971990  0.3643140155981612
  0.9679991275484809  0.3166622519649280  0.3530290688670874
  0.8027709170400215  0.1854168974188966  0.6446597587333116
  0.7998164487971238  0.4393617996472301  0.6353879967538631
  0.8318585819168121  0.0628147702692772  0.3643167516302555
  0.3329383842843114  0.6860222357654777  0.6463340190723272
  0.2330613076507504  0.5680440391687611  0.5179428570187810
  0.2329172891671121  0.8087332709670179  0.5257435301931395
  0.0662937288064072  0.6936114838952747  0.4727976026334844
  0.1653463495247323  0.8167195446607494  0.3523800789349778
  0.0663764999339236  0.9342312862908670  0.4806057693410608
  0.3309891002155894  0.9396110926197423  0.6335412423537008
  0.3007985077879951  0.5628154326277652  0.3642037368022102
  0.3012197771621814  0.8167592036593661  0.3528478007644082
  0.1354675818193769  0.6853951943121288  0.6452313387972879
  0.1337074956094852  0.9395396491269494  0.6349290585478187
  0.1649874151962294  0.5627413962234158  0.3642873886341178
  0.6661827410084271  0.6853652707898519  0.6468461660595111
  0.5664043747133576  0.5682067557346713  0.5179679432738666
  0.5663466034054991  0.8087191925307238  0.5257551802610578
  0.3996939853591783  0.6938393679539203  0.4724617171734735
  0.4989841893263218  0.8168763637825975  0.3523652880828152
  0.3997160485146551  0.9345001818579064  0.4802626889166248
  0.6642931639702638  0.9394722943658778  0.6337709515628305
  0.6342807402491673  0.5628542046625853  0.3640337306996599
  0.6348536150807860  0.8168037078207462  0.3528416272905233
  0.4684332126694244  0.6860302248567365  0.6449926346875685
  0.4667723478237136  0.9395758579381948  0.6347082831385080
  0.4984742800582822  0.5627808245741619  0.3643506305461557
  0.9996612742063178  0.6853858425748101  0.6466953353229954
  0.8997030761621616  0.5679365833470058  0.5181583542201338
  0.8996369100744488  0.8087617440973460  0.5259744471909684
  0.7331185116535153  0.6936184953860760  0.4727826922952829
  0.8321533557723129  0.8167536923636476  0.3526084437957309
  0.7331944906706340  0.9342061708048561  0.4805963786544325
  0.9979149483607728  0.9394366047109983  0.6338747099891222
  0.9676135938876058  0.5628100632115292  0.3642330985295530
  0.9680482177282954  0.8167128950476368  0.3530919286252825
  0.8020486356003715  0.6854726647927976  0.6451427773306975
  0.8000877176370835  0.9394154229188061  0.6351268740197398
  0.8317922741855952  0.5628321797289502  0.3644257470941739
  0.4740466765369789  0.4876888248920963  0.7836878988959626
  0.4088669321548721  0.5555748780631404  0.7726527692219847
  0.4870524940234020  0.4585967050974062  0.7412476839873605
 
  0.00000000E+00  0.00000000E+00  0.00000000E+00
  0.00000000E+00  0.00000000E+00  0.00000000E+00
  0.00000000E+00  0.00000000E+00  0.00000000E+00
  0.00000000E+00  0.00000000E+00  0.00000000E+00
  0.00000000E+00  0.00000000E+00  0.00000000E+00
  0.00000000E+00  0.00000000E+00  0.00000000E+00
  0.00000000E+00  0.00000000E+00  0.00000000E+00
  0.00000000E+00  0.00000000E+00  0.00000000E+00
  0.00000000E+00  0.00000000E+00  0.00000000E+00
  0.00000000E+00  0.00000000E+00  0.00000000E+00
  0.00000000E+00  0.00000000E+00  0.00000000E+00
  0.00000000E+00  0.00000000E+00  0.00000000E+00
  0.00000000E+00  0.00000000E+00  0.00000000E+00
  0.00000000E+00  0.00000000E+00  0.00000000E+00
  0.00000000E+00  0.00000000E+00  0.00000000E+00
  0.00000000E+00  0.00000000E+00  0.00000000E+00
  0.00000000E+00  0.00000000E+00  0.00000000E+00
  0.00000000E+00  0.00000000E+00  0.00000000E+00
  0.00000000E+00  0.00000000E+00  0.00000000E+00
  0.00000000E+00  0.00000000E+00  0.00000000E+00
  0.00000000E+00  0.00000000E+00  0.00000000E+00
  0.00000000E+00  0.00000000E+00  0.00000000E+00
  0.00000000E+00  0.00000000E+00  0.00000000E+00
  0.00000000E+00  0.00000000E+00  0.00000000E+00
  0.00000000E+00  0.00000000E+00  0.00000000E+00
  0.00000000E+00  0.00000000E+00  0.00000000E+00
  0.00000000E+00  0.00000000E+00  0.00000000E+00
  0.00000000E+00  0.00000000E+00  0.00000000E+00
  0.00000000E+00  0.00000000E+00  0.00000000E+00
  0.00000000E+00  0.00000000E+00  0.00000000E+00
  0.00000000E+00  0.00000000E+00  0.00000000E+00
  0.00000000E+00  0.00000000E+00  0.00000000E+00
  0.00000000E+00  0.00000000E+00  0.00000000E+00
  0.00000000E+00  0.00000000E+00  0.00000000E+00
  0.00000000E+00  0.00000000E+00  0.00000000E+00
  0.00000000E+00  0.00000000E+00  0.00000000E+00
  0.00000000E+00  0.00000000E+00  0.00000000E+00
  0.00000000E+00  0.00000000E+00  0.00000000E+00
  0.00000000E+00  0.00000000E+00  0.00000000E+00
  0.00000000E+00  0.00000000E+00  0.00000000E+00
  0.00000000E+00  0.00000000E+00  0.00000000E+00
  0.00000000E+00  0.00000000E+00  0.00000000E+00
  0.00000000E+00  0.00000000E+00  0.00000000E+00
  0.00000000E+00  0.00000000E+00  0.00000000E+00
  0.00000000E+00  0.00000000E+00  0.00000000E+00
  0.00000000E+00  0.00000000E+00  0.00000000E+00
  0.00000000E+00  0.00000000E+00  0.00000000E+00
  0.00000000E+00  0.00000000E+00  0.00000000E+00
  0.00000000E+00  0.00000000E+00  0.00000000E+00
  0.00000000E+00  0.00000000E+00  0.00000000E+00
  0.00000000E+00  0.00000000E+00  0.00000000E+00
  0.00000000E+00  0.00000000E+00  0.00000000E+00
  0.00000000E+00  0.00000000E+00  0.00000000E+00
  0.00000000E+00  0.00000000E+00  0.00000000E+00
  0.00000000E+00  0.00000000E+00  0.00000000E+00
  0.00000000E+00  0.00000000E+00  0.00000000E+00
  0.00000000E+00  0.00000000E+00  0.00000000E+00
  0.00000000E+00  0.00000000E+00  0.00000000E+00
  0.00000000E+00  0.00000000E+00  0.00000000E+00
  0.00000000E+00  0.00000000E+00  0.00000000E+00
  0.00000000E+00  0.00000000E+00  0.00000000E+00
  0.00000000E+00  0.00000000E+00  0.00000000E+00
  0.00000000E+00  0.00000000E+00  0.00000000E+00
  0.00000000E+00  0.00000000E+00  0.00000000E+00
  0.00000000E+00  0.00000000E+00  0.00000000E+00
  0.00000000E+00  0.00000000E+00  0.00000000E+00
  0.00000000E+00  0.00000000E+00  0.00000000E+00
  0.00000000E+00  0.00000000E+00  0.00000000E+00
  0.00000000E+00  0.00000000E+00  0.00000000E+00
  0.00000000E+00  0.00000000E+00  0.00000000E+00
  0.00000000E+00  0.00000000E+00  0.00000000E+00
  0.00000000E+00  0.00000000E+00  0.00000000E+00
  0.00000000E+00  0.00000000E+00  0.00000000E+00
  0.00000000E+00  0.00000000E+00  0.00000000E+00
  0.00000000E+00  0.00000000E+00  0.00000000E+00
  0.00000000E+00  0.00000000E+00  0.00000000E+00
  0.00000000E+00  0.00000000E+00  0.00000000E+00
  0.00000000E+00  0.00000000E+00  0.00000000E+00
  0.00000000E+00  0.00000000E+00  0.00000000E+00
  0.00000000E+00  0.00000000E+00  0.00000000E+00
  0.00000000E+00  0.00000000E+00  0.00000000E+00
  0.00000000E+00  0.00000000E+00  0.00000000E+00
  0.00000000E+00  0.00000000E+00  0.00000000E+00
  0.00000000E+00  0.00000000E+00  0.00000000E+00
  0.00000000E+00  0.00000000E+00  0.00000000E+00
  0.00000000E+00  0.00000000E+00  0.00000000E+00
  0.00000000E+00  0.00000000E+00  0.00000000E+00
  0.00000000E+00  0.00000000E+00  0.00000000E+00
  0.00000000E+00  0.00000000E+00  0.00000000E+00
  0.00000000E+00  0.00000000E+00  0.00000000E+00
  0.00000000E+00  0.00000000E+00  0.00000000E+00
  0.00000000E+00  0.00000000E+00  0.00000000E+00
  0.00000000E+00  0.00000000E+00  0.00000000E+00
  0.00000000E+00  0.00000000E+00  0.00000000E+00
  0.00000000E+00  0.00000000E+00  0.00000000E+00
  0.00000000E+00  0.00000000E+00  0.00000000E+00
  0.00000000E+00  0.00000000E+00  0.00000000E+00
  0.00000000E+00  0.00000000E+00  0.00000000E+00
  0.00000000E+00  0.00000000E+00  0.00000000E+00
