CONTCAR\(12)                            
   1.00000000000000     
    12.9137001038000001    0.0000000000000000    0.0000000000000000
     0.0000000000000000   12.9135999679999998    0.0000000000000000
     0.0000000000000000    0.0000000000000000   24.0200996398999997
   Er   Te   O 
    18    54     1
Selective dynamics
Direct
  0.1653598272748624  0.0026902718637771  0.5836483930632070   F   F   F
  0.9996583246602384  0.1662734788107301  0.4148670899458864   F   F   F
  0.4991131105559532  0.9999032343246057  0.5855052814673272   F   F   F
  0.3326652822129574  0.1658863135365038  0.4153881965961901   F   F   F
  0.8331001616536113  0.9996427786258550  0.5841713588561106   F   F   F
  0.6662297998643538  0.1657966395783177  0.4150641325324003   F   F   F
  0.1681520639361338  0.3346349577691754  0.5852642828571177   F   F   F
  0.9991803984909140  0.4993263072051661  0.4153191514910617   F   F   F
  0.5001385789114394  0.3293465327567731  0.5839343750679618   F   F   F
  0.3330141782559082  0.4996459313606820  0.4169402107446132   F   F   F
  0.8361933559227239  0.3319126020132188  0.5836923726029823   F   F   F
  0.6657044568323229  0.4997653222970797  0.4165503507502706   F   F   F
  0.1628766315435897  0.6665294627510221  0.5839568858832109   F   F   F
  0.9991781525513872  0.8326408460420538  0.4151079237811075   F   F   F
  0.5008548599915841  0.6676642464658116  0.5883175469062820   F   F   F
  0.3331514510616032  0.8321519065421796  0.4163617314613930   F   F   F
  0.8332860615627595  0.6657896557942706  0.5856171462999740   F   F   F
  0.6659131678681547  0.8325355984080147  0.4161719177808507   F   F   F
  0.9994362267434624  0.9994437099648508  0.3124138304250081   F   F   F
  0.1692457110073704  0.1689073760403659  0.6875198893777039   F   F   F
  0.9985260056382046  0.0058245893474478  0.6868398680231493   F   F   F
  0.1661821893196347  0.1661546172006467  0.3124394168010198   F   F   F
  0.1664436539192025  0.9987910317218862  0.4536142801303455   F   F   F
  0.0009294112540061  0.1675032747744183  0.5453151354197345   F   F   F
  0.3326384894090353  0.9991226816693057  0.3130996942097894   F   F   F
  0.4999831568247970  0.1654450622906225  0.6883774168482759   F   F   F
  0.3334712760115579  0.0019971793743636  0.6876302977139019   F   F   F
  0.4990461308501253  0.1659027420330546  0.3127258722615451   F   F   F
  0.4994291900891383  0.9992053901796609  0.4544439919510808   F   F   F
  0.3331904746304701  0.1663791716474634  0.5463912599721468   F   F   F
  0.6658664332889614  0.9990233209755601  0.3129550501330272   F   F   F
  0.8388773651052048  0.1650901246122416  0.6866830834733548   F   F   F
  0.6674964490519173  0.0014482877297581  0.6875002581101839   F   F   F
  0.8326014160917055  0.1660279905441868  0.3122104862552959   F   F   F
  0.8328878780172744  0.9996266654445023  0.4536800751837404   F   F   F
  0.6668116217177058  0.1649593175760202  0.5457173339078167   F   F   F
  0.9995147401625530  0.3329116871979920  0.3125058794191702   F   F   F
  0.1684358680552762  0.5052789935963631  0.6882412602882155   F   F   F
  0.0022751284120375  0.3358688972571287  0.6874456065131511   F   F   F
  0.1660252619172482  0.4993218533499757  0.3133011895839104   F   F   F
  0.1665289024318142  0.3332582640395572  0.4544211300759500   F   F   F
  0.9997677684124042  0.4997492188260537  0.5463388114642669   F   F   F
  0.3327617471841720  0.3330608765814986  0.3135308032657491   F   F   F
  0.5129606991371318  0.4954418590789942  0.6981428518385897   F   F   F
  0.3386722880937825  0.3354263994831186  0.6881743406578522   F   F   F
  0.4993956756262037  0.4996387649805953  0.3141074814177784   F   F   F
  0.4994951302758750  0.3321117162789164  0.4541337732639477   F   F   F
  0.3351231533642363  0.5015200931824708  0.5488215491902722   F   F   F
  0.6659631271293449  0.3328454928377127  0.3132008088807510   F   F   F
  0.8349838747079446  0.5002542535705672  0.6877641313937914   F   F   F
  0.6705222216967215  0.3294391477833187  0.6827007616914571   F   F   F
  0.8322682017313241  0.4995212873450257  0.3131093065216106   F   F   F
  0.8324453844308479  0.3332213108171445  0.4536176046404776   F   F   F
  0.6651778863469673  0.4998818775321396  0.5482769744808564   F   F   F
  0.9989747825361448  0.6657678545018157  0.3126137481021942   F   F   F
  0.1629143895922098  0.8369586822930160  0.6823836363313234   F   F   F
  0.9982314861582537  0.6668985858028194  0.6883873615367051   F   F   F
  0.1660906353808755  0.8326309163303449  0.3131753158793629   F   F   F
  0.1655568750726815  0.6657243049013175  0.4541190420918824   F   F   F
  0.9984354766910428  0.8332325352917778  0.5457268566678835   F   F   F
  0.3328319374450359  0.6658411267382576  0.3138897568653718   F   F   F
  0.5006359267949136  0.8355469023679021  0.6908170565584939   F   F   F
  0.3283114489451791  0.6795391908141326  0.6988323299437056   F   F   F
  0.4993287642048259  0.8324751023669492  0.3136703551759155   F   F   F
  0.4997224957473207  0.6661411924267853  0.4562128646356030   F   F   F
  0.3332170437847637  0.8318410068876148  0.5479228423307916   F   F   F
  0.6658761596803373  0.6662460421964127  0.3138487553575047   F   F   F
  0.8347619122766616  0.8346779452150557  0.6875365101709363   F   F   F
  0.6687974537585646  0.6677691264479648  0.6908592889802492   F   F   F
  0.8325551777426057  0.8328315078023039  0.3131350611023791   F   F   F
  0.8326470001443980  0.6659252506727213  0.4546726224780642   F   F   F
  0.6657759285475109  0.8324455201282106  0.5474416227628041   F   F   F
  0.4109853102605499  0.5768964158044980  0.7441417131460262   T   T   T
 
  0.00000000E+00  0.00000000E+00  0.00000000E+00
  0.00000000E+00  0.00000000E+00  0.00000000E+00
  0.00000000E+00  0.00000000E+00  0.00000000E+00
  0.00000000E+00  0.00000000E+00  0.00000000E+00
  0.00000000E+00  0.00000000E+00  0.00000000E+00
  0.00000000E+00  0.00000000E+00  0.00000000E+00
  0.00000000E+00  0.00000000E+00  0.00000000E+00
  0.00000000E+00  0.00000000E+00  0.00000000E+00
  0.00000000E+00  0.00000000E+00  0.00000000E+00
  0.00000000E+00  0.00000000E+00  0.00000000E+00
  0.00000000E+00  0.00000000E+00  0.00000000E+00
  0.00000000E+00  0.00000000E+00  0.00000000E+00
  0.00000000E+00  0.00000000E+00  0.00000000E+00
  0.00000000E+00  0.00000000E+00  0.00000000E+00
  0.00000000E+00  0.00000000E+00  0.00000000E+00
  0.00000000E+00  0.00000000E+00  0.00000000E+00
  0.00000000E+00  0.00000000E+00  0.00000000E+00
  0.00000000E+00  0.00000000E+00  0.00000000E+00
  0.00000000E+00  0.00000000E+00  0.00000000E+00
  0.00000000E+00  0.00000000E+00  0.00000000E+00
  0.00000000E+00  0.00000000E+00  0.00000000E+00
  0.00000000E+00  0.00000000E+00  0.00000000E+00
  0.00000000E+00  0.00000000E+00  0.00000000E+00
  0.00000000E+00  0.00000000E+00  0.00000000E+00
  0.00000000E+00  0.00000000E+00  0.00000000E+00
  0.00000000E+00  0.00000000E+00  0.00000000E+00
  0.00000000E+00  0.00000000E+00  0.00000000E+00
  0.00000000E+00  0.00000000E+00  0.00000000E+00
  0.00000000E+00  0.00000000E+00  0.00000000E+00
  0.00000000E+00  0.00000000E+00  0.00000000E+00
  0.00000000E+00  0.00000000E+00  0.00000000E+00
  0.00000000E+00  0.00000000E+00  0.00000000E+00
  0.00000000E+00  0.00000000E+00  0.00000000E+00
  0.00000000E+00  0.00000000E+00  0.00000000E+00
  0.00000000E+00  0.00000000E+00  0.00000000E+00
  0.00000000E+00  0.00000000E+00  0.00000000E+00
  0.00000000E+00  0.00000000E+00  0.00000000E+00
  0.00000000E+00  0.00000000E+00  0.00000000E+00
  0.00000000E+00  0.00000000E+00  0.00000000E+00
  0.00000000E+00  0.00000000E+00  0.00000000E+00
  0.00000000E+00  0.00000000E+00  0.00000000E+00
  0.00000000E+00  0.00000000E+00  0.00000000E+00
  0.00000000E+00  0.00000000E+00  0.00000000E+00
  0.00000000E+00  0.00000000E+00  0.00000000E+00
  0.00000000E+00  0.00000000E+00  0.00000000E+00
  0.00000000E+00  0.00000000E+00  0.00000000E+00
  0.00000000E+00  0.00000000E+00  0.00000000E+00
  0.00000000E+00  0.00000000E+00  0.00000000E+00
  0.00000000E+00  0.00000000E+00  0.00000000E+00
  0.00000000E+00  0.00000000E+00  0.00000000E+00
  0.00000000E+00  0.00000000E+00  0.00000000E+00
  0.00000000E+00  0.00000000E+00  0.00000000E+00
  0.00000000E+00  0.00000000E+00  0.00000000E+00
  0.00000000E+00  0.00000000E+00  0.00000000E+00
  0.00000000E+00  0.00000000E+00  0.00000000E+00
  0.00000000E+00  0.00000000E+00  0.00000000E+00
  0.00000000E+00  0.00000000E+00  0.00000000E+00
  0.00000000E+00  0.00000000E+00  0.00000000E+00
  0.00000000E+00  0.00000000E+00  0.00000000E+00
  0.00000000E+00  0.00000000E+00  0.00000000E+00
  0.00000000E+00  0.00000000E+00  0.00000000E+00
  0.00000000E+00  0.00000000E+00  0.00000000E+00
  0.00000000E+00  0.00000000E+00  0.00000000E+00
  0.00000000E+00  0.00000000E+00  0.00000000E+00
  0.00000000E+00  0.00000000E+00  0.00000000E+00
  0.00000000E+00  0.00000000E+00  0.00000000E+00
  0.00000000E+00  0.00000000E+00  0.00000000E+00
  0.00000000E+00  0.00000000E+00  0.00000000E+00
  0.00000000E+00  0.00000000E+00  0.00000000E+00
  0.00000000E+00  0.00000000E+00  0.00000000E+00
  0.00000000E+00  0.00000000E+00  0.00000000E+00
  0.00000000E+00  0.00000000E+00  0.00000000E+00
  0.00000000E+00  0.00000000E+00  0.00000000E+00
