CONTCAR\(4)                             
   1.00000000000000     
    11.0504999160999997    0.0000000000000000    0.0000000000000000
     0.0000000000000000   15.0270004272000008    0.0000000000000000
     0.0000000000000000    0.0000000000000000   19.5720996856999996
   Ta   Ni   Te   O 
     6     6    30     1
Direct
  0.9965773712083564  0.7472287322050711  0.4954496281444949
  0.0019500533549299  0.2488903614827981  0.5045494336706658
  0.3444032383476914  0.7503405394635365  0.5063538970204734
  0.3340668360959469  0.2458755924794719  0.5051977373288484
  0.6751109360246174  0.7462100469656100  0.4944813345617696
  0.6679332378229503  0.2495545042193351  0.5043214559334664
  0.1677014786066845  0.4966742971647322  0.4980750973013426
  0.1571122353988395  0.9946398109430147  0.5069032605409169
  0.5015807757891430  0.4988420393781626  0.5015215223591246
  0.5081344089151238  0.9995033742864120  0.5016335139659750
  0.8365516850108193  0.4980611881495177  0.5001697649824959
  0.8320161824663739  0.0003295032470327  0.4993232989378034
  0.0022938334638773  0.4217395423255666  0.5723547194846350
  0.1695880363051014  0.3515216507886215  0.4267364127320649
  0.0010463976494445  0.5743211641353672  0.4274309701766826
  0.9984765633756825  0.9208234456245763  0.4272782756460527
  0.9943296025021584  0.0783807220342932  0.5745880179322063
  0.1757502713321238  0.7523470327376723  0.3919194906869058
  0.1164488610397214  0.8630541079416928  0.5904966658874290
  0.1677363440908794  0.2468036487157111  0.6168454354701286
  0.1669417298902479  0.1365634072203172  0.4321381180020627
  0.1657376801914332  0.6371030617013065  0.5699893501938932
  0.3337504794158502  0.4204090126239083  0.5716415471274687
  0.4996874035716779  0.3543423635894459  0.4292556740738159
  0.3366940536251808  0.5775158276725632  0.4304528086519500
  0.3313386480508438  0.9232543414191001  0.4385430365796508
  0.3342513173663815  0.0700635692828028  0.5727050081536394
  0.5024624003227900  0.7496950174672201  0.3871633246588970
  0.5255209442587512  0.8562482303360608  0.5730167797020599
  0.5008544011246855  0.2489659982250759  0.6162470900149776
  0.5016349877196190  0.1436323574353003  0.4277842854044031
  0.5098625468052478  0.6425809898516863  0.5763618511762821
  0.6691990266409635  0.4227088064345747  0.5714399416996445
  0.8353115187046358  0.3543842769629513  0.4277199072825431
  0.6687342316212213  0.5725451160659707  0.4279731946337779
  0.6686677199926936  0.9202065731504507  0.4272508609167431
  0.6692303772546013  0.0783195404688604  0.5737953727028845
  0.8371112801793140  0.7465747373007708  0.3821798543385569
  0.8333314540790775  0.8578996158262019  0.5722058015151471
  0.8343872933421542  0.2533547541241369  0.6157876086844162
  0.8343223220958348  0.1440491151121800  0.4275434978494523
  0.8374657530853060  0.6413223230511070  0.5736465287607783
  0.2864036598610328  0.8138996373897915  0.5875485161134615
 
  0.00000000E+00  0.00000000E+00  0.00000000E+00
  0.00000000E+00  0.00000000E+00  0.00000000E+00
  0.00000000E+00  0.00000000E+00  0.00000000E+00
  0.00000000E+00  0.00000000E+00  0.00000000E+00
  0.00000000E+00  0.00000000E+00  0.00000000E+00
  0.00000000E+00  0.00000000E+00  0.00000000E+00
  0.00000000E+00  0.00000000E+00  0.00000000E+00
  0.00000000E+00  0.00000000E+00  0.00000000E+00
  0.00000000E+00  0.00000000E+00  0.00000000E+00
  0.00000000E+00  0.00000000E+00  0.00000000E+00
  0.00000000E+00  0.00000000E+00  0.00000000E+00
  0.00000000E+00  0.00000000E+00  0.00000000E+00
  0.00000000E+00  0.00000000E+00  0.00000000E+00
  0.00000000E+00  0.00000000E+00  0.00000000E+00
  0.00000000E+00  0.00000000E+00  0.00000000E+00
  0.00000000E+00  0.00000000E+00  0.00000000E+00
  0.00000000E+00  0.00000000E+00  0.00000000E+00
  0.00000000E+00  0.00000000E+00  0.00000000E+00
  0.00000000E+00  0.00000000E+00  0.00000000E+00
  0.00000000E+00  0.00000000E+00  0.00000000E+00
  0.00000000E+00  0.00000000E+00  0.00000000E+00
  0.00000000E+00  0.00000000E+00  0.00000000E+00
  0.00000000E+00  0.00000000E+00  0.00000000E+00
  0.00000000E+00  0.00000000E+00  0.00000000E+00
  0.00000000E+00  0.00000000E+00  0.00000000E+00
  0.00000000E+00  0.00000000E+00  0.00000000E+00
  0.00000000E+00  0.00000000E+00  0.00000000E+00
  0.00000000E+00  0.00000000E+00  0.00000000E+00
  0.00000000E+00  0.00000000E+00  0.00000000E+00
  0.00000000E+00  0.00000000E+00  0.00000000E+00
  0.00000000E+00  0.00000000E+00  0.00000000E+00
  0.00000000E+00  0.00000000E+00  0.00000000E+00
  0.00000000E+00  0.00000000E+00  0.00000000E+00
  0.00000000E+00  0.00000000E+00  0.00000000E+00
  0.00000000E+00  0.00000000E+00  0.00000000E+00
  0.00000000E+00  0.00000000E+00  0.00000000E+00
  0.00000000E+00  0.00000000E+00  0.00000000E+00
  0.00000000E+00  0.00000000E+00  0.00000000E+00
  0.00000000E+00  0.00000000E+00  0.00000000E+00
  0.00000000E+00  0.00000000E+00  0.00000000E+00
  0.00000000E+00  0.00000000E+00  0.00000000E+00
  0.00000000E+00  0.00000000E+00  0.00000000E+00
  0.00000000E+00  0.00000000E+00  0.00000000E+00
