CONTCAR\(9)                             
   1.00000000000000     
    14.6316995620999997    0.0000000000000000    0.0000000000000000
     1.3931428470000000    9.7016840157999997    0.0000000000000000
     0.0000000000000000    0.0000000000000000   19.0858993529999985
   Cu   H    Se   O 
     6    12     6    30
Direct
  0.3333363113498983  0.0000038151916038  0.4999944253519488
  0.1666654086750400  0.5000085829287901  0.4999967803454262
  0.6666663103498912  0.0000038151916038  0.4999944253519488
  0.5000054116750436  0.5000085829287901  0.4999967803454262
 -0.0000037246501045  0.0000038151916038  0.4999944253519488
  0.8333353776750375  0.5000085829287901  0.4999967803454262
  0.0734405325392939  0.6937479350669712  0.5562719801369133
  0.2598719782233586  0.3062390525717939  0.4437238653603546
  0.0223159068188433  0.5664569574086651  0.5697327920179839
  0.3110502944974737  0.4334810879339077  0.4302989160934205
  0.4067805035392948  0.6937479350669712  0.5562719801369133
  0.5932019442233591  0.3062390525717939  0.4437238653603546
  0.3556559098188468  0.5664569574086651  0.5697327920179839
  0.6443802934974737  0.4334810879339077  0.4302989160934205
  0.7401105665393000  0.6937479350669712  0.5562719801369133
  0.9265319102233600  0.3062390525717939  0.4437238653603546
  0.6889859408188423  0.5664569574086651  0.5697327920179839
  0.9777202964974702  0.4334810879339077  0.4302989160934205
  0.1354216022100370  0.1921086108249324  0.5229726968308019
  0.1979066858575798  0.8079089629497135  0.4770244505654236
  0.4687516332100398  0.1921086108249324  0.5229726968308019
  0.5312367168575826  0.8079089629497135  0.4770244505654236
  0.8020916362100360  0.1921086108249324  0.5229726968308019
  0.8645666828575763  0.8079089629497135  0.4770244505654236
  0.0918811778018945  0.0961622567450516  0.4603702797944235
  0.2414509263310547  0.9038667901717939  0.5396242769363565
  0.2509163868415467  0.1801232305275571  0.5040899313223010
  0.0824088773577186  0.8198819738496156  0.4959064184155169
  0.1095383025566403  0.1553459870082945  0.6027890371059808
  0.2237889709995923  0.8446693539806095  0.3972136916325732
  0.0912448696992808  0.3576422702889671  0.4997982593590808
  0.2420975695965248  0.6423758224404087  0.5001891889913885
  0.2498204903459565  0.4042003449380998  0.4266514228752554
  0.0835237012982757  0.5957869731732143  0.5733516388648620
  0.4252111848018951  0.0961622567450516  0.4603702797944235
  0.5747809253310547  0.9038667901717939  0.5396242769363565
  0.5842463528415474  0.1801232305275571  0.5040899313223010
  0.4157489133577213  0.8198819738496156  0.4959064184155169
  0.4428683015566404  0.1553459870082945  0.6027890371059808
  0.5571189369995866  0.8446693539806095  0.3972136916325732
  0.4245748766992815  0.3576422702889671  0.4997982593590808
  0.5754275675965285  0.6423758224404087  0.5001891889913885
  0.5831604283459579  0.4042003449380998  0.4266514228752554
  0.4168537322982713  0.5957869731732143  0.5733516388648620
  0.7585412148018945  0.0961622567450516  0.4603702797944235
  0.9081109563310574  0.9038667901717939  0.5396242769363565
  0.9175763838415500  0.1801232305275571  0.5040899313223010
  0.7490788133577237  0.8198819738496156  0.4959064184155169
  0.7761983325566358  0.1553459870082945  0.6027890371059808
  0.8904490329995911  0.8446693539806095  0.3972136916325732
  0.7579048746992777  0.3576422702889671  0.4997982593590808
  0.9087575335965293  0.6423758224404087  0.5001891889913885
  0.9164904593459535  0.4042003449380998  0.4266514228752554
  0.7501937352982748  0.5957869731732143  0.5733516388648620
 
  0.00000000E+00  0.00000000E+00  0.00000000E+00
  0.00000000E+00  0.00000000E+00  0.00000000E+00
  0.00000000E+00  0.00000000E+00  0.00000000E+00
  0.00000000E+00  0.00000000E+00  0.00000000E+00
  0.00000000E+00  0.00000000E+00  0.00000000E+00
  0.00000000E+00  0.00000000E+00  0.00000000E+00
  0.00000000E+00  0.00000000E+00  0.00000000E+00
  0.00000000E+00  0.00000000E+00  0.00000000E+00
  0.00000000E+00  0.00000000E+00  0.00000000E+00
  0.00000000E+00  0.00000000E+00  0.00000000E+00
  0.00000000E+00  0.00000000E+00  0.00000000E+00
  0.00000000E+00  0.00000000E+00  0.00000000E+00
  0.00000000E+00  0.00000000E+00  0.00000000E+00
  0.00000000E+00  0.00000000E+00  0.00000000E+00
  0.00000000E+00  0.00000000E+00  0.00000000E+00
  0.00000000E+00  0.00000000E+00  0.00000000E+00
  0.00000000E+00  0.00000000E+00  0.00000000E+00
  0.00000000E+00  0.00000000E+00  0.00000000E+00
  0.00000000E+00  0.00000000E+00  0.00000000E+00
  0.00000000E+00  0.00000000E+00  0.00000000E+00
  0.00000000E+00  0.00000000E+00  0.00000000E+00
  0.00000000E+00  0.00000000E+00  0.00000000E+00
  0.00000000E+00  0.00000000E+00  0.00000000E+00
  0.00000000E+00  0.00000000E+00  0.00000000E+00
  0.00000000E+00  0.00000000E+00  0.00000000E+00
  0.00000000E+00  0.00000000E+00  0.00000000E+00
  0.00000000E+00  0.00000000E+00  0.00000000E+00
  0.00000000E+00  0.00000000E+00  0.00000000E+00
  0.00000000E+00  0.00000000E+00  0.00000000E+00
  0.00000000E+00  0.00000000E+00  0.00000000E+00
  0.00000000E+00  0.00000000E+00  0.00000000E+00
  0.00000000E+00  0.00000000E+00  0.00000000E+00
  0.00000000E+00  0.00000000E+00  0.00000000E+00
  0.00000000E+00  0.00000000E+00  0.00000000E+00
  0.00000000E+00  0.00000000E+00  0.00000000E+00
  0.00000000E+00  0.00000000E+00  0.00000000E+00
  0.00000000E+00  0.00000000E+00  0.00000000E+00
  0.00000000E+00  0.00000000E+00  0.00000000E+00
  0.00000000E+00  0.00000000E+00  0.00000000E+00
  0.00000000E+00  0.00000000E+00  0.00000000E+00
  0.00000000E+00  0.00000000E+00  0.00000000E+00
  0.00000000E+00  0.00000000E+00  0.00000000E+00
  0.00000000E+00  0.00000000E+00  0.00000000E+00
  0.00000000E+00  0.00000000E+00  0.00000000E+00
  0.00000000E+00  0.00000000E+00  0.00000000E+00
  0.00000000E+00  0.00000000E+00  0.00000000E+00
  0.00000000E+00  0.00000000E+00  0.00000000E+00
  0.00000000E+00  0.00000000E+00  0.00000000E+00
  0.00000000E+00  0.00000000E+00  0.00000000E+00
  0.00000000E+00  0.00000000E+00  0.00000000E+00
  0.00000000E+00  0.00000000E+00  0.00000000E+00
  0.00000000E+00  0.00000000E+00  0.00000000E+00
  0.00000000E+00  0.00000000E+00  0.00000000E+00
  0.00000000E+00  0.00000000E+00  0.00000000E+00
