CONTCAR\(5)                             
   1.00000000000000     
    10.0733995438000008    0.0000000000000000    0.0000000000000000
     0.0000000000000000    9.7955999374000005    0.0000000000000000
     0.0000000000000000    0.0000000000000000   18.6921005248999990
   Ta   Se
    12    18
Direct
  0.0833299999999966  0.5522674380368002  0.5002273974158840
  0.2500000000000000  0.3033351608690609  0.4996858539872946
  0.0833299999999966  0.8649596090940221  0.5504543201384564
  0.2500000000000000  0.9906355003757596  0.4496723074088749
  0.4166699880000024  0.5522674380368002  0.5002273974158840
  0.5833299649999972  0.3033351608690609  0.4996858539872946
  0.4166699880000024  0.8649596090940221  0.5504543201384564
  0.5833299649999972  0.9906355003757596  0.4496723074088749
  0.7500000240000020  0.5522674380368002  0.5002273974158840
  0.9166699880000024  0.3033351608690609  0.4996858539872946
  0.7500000240000020  0.8649596090940221  0.5504543201384564
  0.9166699880000024  0.9906355003757596  0.4496723074088749
  0.0833299999999966  0.3683779084135068  0.5995681331804832
  0.2500000000000000  0.4871516043764288  0.4003020905694044
  0.0833299999999966  0.1794268118698170  0.4051389250663746
  0.2500000000000000  0.6760665468441829  0.5948282337315760
  0.2500000000000000  0.0586236257441968  0.5843399599664494
  0.0833299999999966  0.7969858393762195  0.4157926775352010
  0.4166699880000024  0.3683779084135068  0.5995681331804832
  0.5833299649999972  0.4871516043764288  0.4003020905694044
  0.4166699880000024  0.1794268118698170  0.4051389250663746
  0.5833299649999972  0.6760665468441829  0.5948282337315760
  0.5833299649999972  0.0586236257441968  0.5843399599664494
  0.4166699880000024  0.7969858393762195  0.4157926775352010
  0.7500000240000020  0.3683779084135068  0.5995681331804832
  0.9166699880000024  0.4871516043764288  0.4003020905694044
  0.7500000240000020  0.1794268118698170  0.4051389250663746
  0.9166699880000024  0.6760665468441829  0.5948282337315760
  0.9166699880000024  0.0586236257441968  0.5843399599664494
  0.7500000240000020  0.7969858393762195  0.4157926775352010
 
  0.00000000E+00  0.00000000E+00  0.00000000E+00
  0.00000000E+00  0.00000000E+00  0.00000000E+00
  0.00000000E+00  0.00000000E+00  0.00000000E+00
  0.00000000E+00  0.00000000E+00  0.00000000E+00
  0.00000000E+00  0.00000000E+00  0.00000000E+00
  0.00000000E+00  0.00000000E+00  0.00000000E+00
  0.00000000E+00  0.00000000E+00  0.00000000E+00
  0.00000000E+00  0.00000000E+00  0.00000000E+00
  0.00000000E+00  0.00000000E+00  0.00000000E+00
  0.00000000E+00  0.00000000E+00  0.00000000E+00
  0.00000000E+00  0.00000000E+00  0.00000000E+00
  0.00000000E+00  0.00000000E+00  0.00000000E+00
  0.00000000E+00  0.00000000E+00  0.00000000E+00
  0.00000000E+00  0.00000000E+00  0.00000000E+00
  0.00000000E+00  0.00000000E+00  0.00000000E+00
  0.00000000E+00  0.00000000E+00  0.00000000E+00
  0.00000000E+00  0.00000000E+00  0.00000000E+00
  0.00000000E+00  0.00000000E+00  0.00000000E+00
  0.00000000E+00  0.00000000E+00  0.00000000E+00
  0.00000000E+00  0.00000000E+00  0.00000000E+00
  0.00000000E+00  0.00000000E+00  0.00000000E+00
  0.00000000E+00  0.00000000E+00  0.00000000E+00
  0.00000000E+00  0.00000000E+00  0.00000000E+00
  0.00000000E+00  0.00000000E+00  0.00000000E+00
  0.00000000E+00  0.00000000E+00  0.00000000E+00
  0.00000000E+00  0.00000000E+00  0.00000000E+00
  0.00000000E+00  0.00000000E+00  0.00000000E+00
  0.00000000E+00  0.00000000E+00  0.00000000E+00
  0.00000000E+00  0.00000000E+00  0.00000000E+00
  0.00000000E+00  0.00000000E+00  0.00000000E+00
