CONTCAR\(3)                             
   1.00000000000000     
    10.7180004120000003    0.0000000000000000    0.0000000000000000
     0.0000000000000000   11.1470003127999995    0.0000000000000000
     0.0000000000000000    0.0000000000000000   18.2015991210999992
   Os   Cl   O 
     9    18    10
Direct
  0.9956004722552042  0.9984730718920725  0.5024775099715113
  0.3295594175880425  0.9983034250804371  0.5024952656242918
  0.6617469528760355  0.9983366255592340  0.5025627411623498
  0.9954716412898101  0.3319457627050219  0.5013962590766365
  0.3284287938692019  0.3313319146535138  0.5010658372257757
  0.6625829378799101  0.3313965409709186  0.5010673449092804
  0.9954145969104157  0.6652647250197821  0.5020385490145969
  0.3295368134338259  0.6651624015732585  0.5022307358179288
  0.6612351030560615  0.6651856010437026  0.5022961263956990
  0.1621887220225942  0.3318729530266172  0.5893513562690503
  0.1622357422005066  0.9972993409357356  0.4144009729286665
  0.4955232256471889  0.3307254494030791  0.5889972362480257
  0.4957415128382264  0.9982132400442613  0.4140471863137203
  0.8288297619948601  0.3318226484872808  0.5893649613685500
  0.8289594626335668  0.9973721683409492  0.4144480317079318
  0.1621087832775870  0.6652250228605178  0.5899072052927551
  0.1618643235042552  0.3316453908640198  0.4133695959721458
  0.4952522979214796  0.6495532964565096  0.5896234594931162
  0.4955402577450094  0.3313269728632153  0.4132084263124235
  0.8286947516195827  0.6653816773456374  0.5899465655289217
  0.8291283047136866  0.3316270370926462  0.4133652045072240
  0.1626414288879186  0.9984545994821099  0.5902147915511261
  0.1605088410601796  0.6664159716241578  0.4131361975140495
  0.4956203408593213  0.0015826367363795  0.5895914108052819
  0.4953996149646858  0.6648601608754338  0.4138081002010168
  0.8287167548923691  0.9985889927896483  0.5903241990542732
  0.8302287941479205  0.6665708703525538  0.4131936734674275
  0.9955546183101313  0.1651437168650740  0.5017810954866818
  0.3281847469109154  0.1648733920330056  0.5011396773033361
  0.6631215749526399  0.1649138444684692  0.5012493913038145
  0.9953683636534832  0.4986996537323286  0.5014299956854864
  0.3283353004199201  0.4977649596647463  0.5013440502418703
  0.6624104188736584  0.4978125087622521  0.5013719052961243
  0.9955074613049487  0.8318288701459409  0.5026251924480695
  0.3313708493897709  0.8318867856582232  0.5032882918805816
  0.6596860152011839  0.8318985508257252  0.5033178922466830
  0.4950810108939152  0.7402689847655679  0.6534039763736156
 
  0.00000000E+00  0.00000000E+00  0.00000000E+00
  0.00000000E+00  0.00000000E+00  0.00000000E+00
  0.00000000E+00  0.00000000E+00  0.00000000E+00
  0.00000000E+00  0.00000000E+00  0.00000000E+00
  0.00000000E+00  0.00000000E+00  0.00000000E+00
  0.00000000E+00  0.00000000E+00  0.00000000E+00
  0.00000000E+00  0.00000000E+00  0.00000000E+00
  0.00000000E+00  0.00000000E+00  0.00000000E+00
  0.00000000E+00  0.00000000E+00  0.00000000E+00
  0.00000000E+00  0.00000000E+00  0.00000000E+00
  0.00000000E+00  0.00000000E+00  0.00000000E+00
  0.00000000E+00  0.00000000E+00  0.00000000E+00
  0.00000000E+00  0.00000000E+00  0.00000000E+00
  0.00000000E+00  0.00000000E+00  0.00000000E+00
  0.00000000E+00  0.00000000E+00  0.00000000E+00
  0.00000000E+00  0.00000000E+00  0.00000000E+00
  0.00000000E+00  0.00000000E+00  0.00000000E+00
  0.00000000E+00  0.00000000E+00  0.00000000E+00
  0.00000000E+00  0.00000000E+00  0.00000000E+00
  0.00000000E+00  0.00000000E+00  0.00000000E+00
  0.00000000E+00  0.00000000E+00  0.00000000E+00
  0.00000000E+00  0.00000000E+00  0.00000000E+00
  0.00000000E+00  0.00000000E+00  0.00000000E+00
  0.00000000E+00  0.00000000E+00  0.00000000E+00
  0.00000000E+00  0.00000000E+00  0.00000000E+00
  0.00000000E+00  0.00000000E+00  0.00000000E+00
  0.00000000E+00  0.00000000E+00  0.00000000E+00
  0.00000000E+00  0.00000000E+00  0.00000000E+00
  0.00000000E+00  0.00000000E+00  0.00000000E+00
  0.00000000E+00  0.00000000E+00  0.00000000E+00
  0.00000000E+00  0.00000000E+00  0.00000000E+00
  0.00000000E+00  0.00000000E+00  0.00000000E+00
  0.00000000E+00  0.00000000E+00  0.00000000E+00
  0.00000000E+00  0.00000000E+00  0.00000000E+00
  0.00000000E+00  0.00000000E+00  0.00000000E+00
  0.00000000E+00  0.00000000E+00  0.00000000E+00
  0.00000000E+00  0.00000000E+00  0.00000000E+00
