 Ta4 Te6                                
   1.00000000000000     
     3.4115644248993267    0.0000000000000000    0.0000000000000000
     1.7063466186331195   10.2395897112368974    0.0000000000000000
     0.0000000000000000    0.0000000000000000   19.9378194925499983
   Ta   Te
     4     6
Direct
  0.5736056744309860  0.8527572340353827  0.4915537221565137
  0.4263945856172729  0.1472425253667624  0.5084464370060999
  0.8043737322517953  0.3914198308438195  0.5220913953390894
  0.1956264377870739  0.6085800724303485  0.4779087270462261
  0.6757283362291672  0.6480149984808988  0.5875516802867080
  0.3242720229160856  0.3519847176590510  0.4124484304249851
  0.6508417359115608  0.6982671622302324  0.3749601708373749
  0.3491585977475201  0.3017325714220395  0.6250399370586363
  0.0096308840959972  0.9807350488231115  0.5877504916686475
  0.9903658039803894  0.0192702153245427  0.4122490081757199
 
  0.00000000E+00  0.00000000E+00  0.00000000E+00
  0.00000000E+00  0.00000000E+00  0.00000000E+00
  0.00000000E+00  0.00000000E+00  0.00000000E+00
  0.00000000E+00  0.00000000E+00  0.00000000E+00
  0.00000000E+00  0.00000000E+00  0.00000000E+00
  0.00000000E+00  0.00000000E+00  0.00000000E+00
  0.00000000E+00  0.00000000E+00  0.00000000E+00
  0.00000000E+00  0.00000000E+00  0.00000000E+00
  0.00000000E+00  0.00000000E+00  0.00000000E+00
  0.00000000E+00  0.00000000E+00  0.00000000E+00
