CONTCAR                                 
   1.00000000000000     
    12.2054004669000005    0.0000000000000000    0.0000000000000000
    -6.1026684629999997   10.5700895834999997    0.0000000000000000
     0.0000000000000000    0.0000000000000000   19.4676990508999985
   Mo   C    O 
    32    16    32
Direct
  0.1666699980000033  0.0833299990000000  0.5579900070000008
  0.0833299999999966  0.1666699900000026  0.4420000000000002
  0.4166699980000033  0.0833299990000000  0.5579900070000008
  0.3333299900000029  0.1666699900000026  0.4420000000000002
  0.6666699980000033  0.0833299990000000  0.5579900070000008
  0.5833299510000032  0.1666699900000026  0.4420000000000002
  0.9166700370000029  0.0833299990000000  0.5579900070000008
  0.8333299900000029  0.1666699900000026  0.4420000000000002
  0.1666700059999968  0.3333299869999991  0.5579900070000008
  0.0833300059999971  0.4166699949999995  0.4420000000000002
  0.4166700059999968  0.3333299869999991  0.5579900070000008
  0.3333300059999971  0.4166699949999995  0.4420000000000002
  0.6666699860000023  0.3333299869999991  0.5579900070000008
  0.5833299479999994  0.4166699949999995  0.4420000000000002
  0.9166700250000019  0.3333299869999991  0.5579900070000008
  0.8333299869999991  0.4166699949999995  0.4420000000000002
  0.1666700159999976  0.5833299820000022  0.5579900070000008
  0.0833299780000019  0.6666699900000026  0.4420000000000002
  0.4166700159999976  0.5833299820000022  0.5579900070000008
  0.3333299780000019  0.6666699900000026  0.4420000000000002
  0.6666700159999976  0.5833299820000022  0.5579900070000008
  0.5833299390000022  0.6666699900000026  0.4420000000000002
  0.9166700549999973  0.5833299820000022  0.5579900070000008
  0.8333299780000019  0.6666699900000026  0.4420000000000002
  0.1666700070000005  0.8333299760000017  0.5579900070000008
  0.0833300299999991  0.9166700290000023  0.4420000000000002
  0.4166700070000005  0.8333299760000017  0.5579900070000008
  0.3333300299999991  0.9166700290000023  0.4420000000000002
  0.6666700070000005  0.8333299760000017  0.5579900070000008
  0.5833299909999994  0.9166700290000023  0.4420000000000002
  0.9166700460000001  0.8333299760000017  0.5579900070000008
  0.8333300299999991  0.9166700290000023  0.4420000000000002
  0.0000000000000000  0.0000000000000000  0.4999900070000010
  0.2500000000000000  0.0000000000000000  0.4999900070000010
  0.5000000000000000  0.0000000000000000  0.4999900070000010
  0.7500000389999997  0.0000000000000000  0.4999900070000010
  0.0000000009999965  0.2499999939999995  0.4999900070000010
  0.2500000009999965  0.2499999939999995  0.4999900070000010
  0.4999999910000028  0.2499999939999995  0.4999900070000010
  0.7500000300000025  0.2499999939999995  0.4999900070000010
  0.0000000020000002  0.4999999879999990  0.4999900070000010
  0.2500000020000002  0.4999999879999990  0.4999900070000010
  0.5000000020000002  0.4999999879999990  0.4999900070000010
  0.7500000209999982  0.4999999879999990  0.4999900070000010
  0.0000000120000010  0.7499999830000021  0.4999900070000010
  0.2500000120000010  0.7499999830000021  0.4999900070000010
  0.5000000120000010  0.7499999830000021  0.4999900070000010
  0.7500000510000007  0.7499999830000021  0.4999900070000010
  0.0833299999999966  0.1666699900000026  0.6161400069999985
  0.1666699980000033  0.0833299990000000  0.3838400059999998
  0.3333299900000029  0.1666699900000026  0.6161400069999985
  0.4166699980000033  0.0833299990000000  0.3838400059999998
  0.5833299510000032  0.1666699900000026  0.6161400069999985
  0.6666699980000033  0.0833299990000000  0.3838400059999998
  0.8333299900000029  0.1666699900000026  0.6161400069999985
  0.9166700370000029  0.0833299990000000  0.3838400059999998
  0.0833300059999971  0.4166699949999995  0.6161400069999985
  0.1666700059999968  0.3333299869999991  0.3838400059999998
  0.3333300059999971  0.4166699949999995  0.6161400069999985
  0.4166700059999968  0.3333299869999991  0.3838400059999998
  0.5833299479999994  0.4166699949999995  0.6161400069999985
  0.6666699860000023  0.3333299869999991  0.3838400059999998
  0.8333299869999991  0.4166699949999995  0.6161400069999985
  0.9166700250000019  0.3333299869999991  0.3838400059999998
  0.0833299780000019  0.6666699900000026  0.6161400069999985
  0.1666700159999976  0.5833299820000022  0.3838400059999998
  0.3333299780000019  0.6666699900000026  0.6161400069999985
  0.4166700159999976  0.5833299820000022  0.3838400059999998
  0.5833299390000022  0.6666699900000026  0.6161400069999985
  0.6666700159999976  0.5833299820000022  0.3838400059999998
  0.8333299780000019  0.6666699900000026  0.6161400069999985
  0.9166700549999973  0.5833299820000022  0.3838400059999998
  0.0833300299999991  0.9166700290000023  0.6161400069999985
  0.1666700070000005  0.8333299760000017  0.3838400059999998
  0.3333300299999991  0.9166700290000023  0.6161400069999985
  0.4166700070000005  0.8333299760000017  0.3838400059999998
  0.5833299909999994  0.9166700290000023  0.6161400069999985
  0.6666700070000005  0.8333299760000017  0.3838400059999998
  0.8333300299999991  0.9166700290000023  0.6161400069999985
  0.9166700460000001  0.8333299760000017  0.3838400059999998
 
  0.00000000E+00  0.00000000E+00  0.00000000E+00
  0.00000000E+00  0.00000000E+00  0.00000000E+00
  0.00000000E+00  0.00000000E+00  0.00000000E+00
  0.00000000E+00  0.00000000E+00  0.00000000E+00
  0.00000000E+00  0.00000000E+00  0.00000000E+00
  0.00000000E+00  0.00000000E+00  0.00000000E+00
  0.00000000E+00  0.00000000E+00  0.00000000E+00
  0.00000000E+00  0.00000000E+00  0.00000000E+00
  0.00000000E+00  0.00000000E+00  0.00000000E+00
  0.00000000E+00  0.00000000E+00  0.00000000E+00
  0.00000000E+00  0.00000000E+00  0.00000000E+00
  0.00000000E+00  0.00000000E+00  0.00000000E+00
  0.00000000E+00  0.00000000E+00  0.00000000E+00
  0.00000000E+00  0.00000000E+00  0.00000000E+00
  0.00000000E+00  0.00000000E+00  0.00000000E+00
  0.00000000E+00  0.00000000E+00  0.00000000E+00
  0.00000000E+00  0.00000000E+00  0.00000000E+00
  0.00000000E+00  0.00000000E+00  0.00000000E+00
  0.00000000E+00  0.00000000E+00  0.00000000E+00
  0.00000000E+00  0.00000000E+00  0.00000000E+00
  0.00000000E+00  0.00000000E+00  0.00000000E+00
  0.00000000E+00  0.00000000E+00  0.00000000E+00
  0.00000000E+00  0.00000000E+00  0.00000000E+00
  0.00000000E+00  0.00000000E+00  0.00000000E+00
  0.00000000E+00  0.00000000E+00  0.00000000E+00
  0.00000000E+00  0.00000000E+00  0.00000000E+00
  0.00000000E+00  0.00000000E+00  0.00000000E+00
  0.00000000E+00  0.00000000E+00  0.00000000E+00
  0.00000000E+00  0.00000000E+00  0.00000000E+00
  0.00000000E+00  0.00000000E+00  0.00000000E+00
  0.00000000E+00  0.00000000E+00  0.00000000E+00
  0.00000000E+00  0.00000000E+00  0.00000000E+00
  0.00000000E+00  0.00000000E+00  0.00000000E+00
  0.00000000E+00  0.00000000E+00  0.00000000E+00
  0.00000000E+00  0.00000000E+00  0.00000000E+00
  0.00000000E+00  0.00000000E+00  0.00000000E+00
  0.00000000E+00  0.00000000E+00  0.00000000E+00
  0.00000000E+00  0.00000000E+00  0.00000000E+00
  0.00000000E+00  0.00000000E+00  0.00000000E+00
  0.00000000E+00  0.00000000E+00  0.00000000E+00
  0.00000000E+00  0.00000000E+00  0.00000000E+00
  0.00000000E+00  0.00000000E+00  0.00000000E+00
  0.00000000E+00  0.00000000E+00  0.00000000E+00
  0.00000000E+00  0.00000000E+00  0.00000000E+00
  0.00000000E+00  0.00000000E+00  0.00000000E+00
  0.00000000E+00  0.00000000E+00  0.00000000E+00
  0.00000000E+00  0.00000000E+00  0.00000000E+00
  0.00000000E+00  0.00000000E+00  0.00000000E+00
  0.00000000E+00  0.00000000E+00  0.00000000E+00
  0.00000000E+00  0.00000000E+00  0.00000000E+00
  0.00000000E+00  0.00000000E+00  0.00000000E+00
  0.00000000E+00  0.00000000E+00  0.00000000E+00
  0.00000000E+00  0.00000000E+00  0.00000000E+00
  0.00000000E+00  0.00000000E+00  0.00000000E+00
  0.00000000E+00  0.00000000E+00  0.00000000E+00
  0.00000000E+00  0.00000000E+00  0.00000000E+00
  0.00000000E+00  0.00000000E+00  0.00000000E+00
  0.00000000E+00  0.00000000E+00  0.00000000E+00
  0.00000000E+00  0.00000000E+00  0.00000000E+00
  0.00000000E+00  0.00000000E+00  0.00000000E+00
  0.00000000E+00  0.00000000E+00  0.00000000E+00
  0.00000000E+00  0.00000000E+00  0.00000000E+00
  0.00000000E+00  0.00000000E+00  0.00000000E+00
  0.00000000E+00  0.00000000E+00  0.00000000E+00
  0.00000000E+00  0.00000000E+00  0.00000000E+00
  0.00000000E+00  0.00000000E+00  0.00000000E+00
  0.00000000E+00  0.00000000E+00  0.00000000E+00
  0.00000000E+00  0.00000000E+00  0.00000000E+00
  0.00000000E+00  0.00000000E+00  0.00000000E+00
  0.00000000E+00  0.00000000E+00  0.00000000E+00
  0.00000000E+00  0.00000000E+00  0.00000000E+00
  0.00000000E+00  0.00000000E+00  0.00000000E+00
  0.00000000E+00  0.00000000E+00  0.00000000E+00
  0.00000000E+00  0.00000000E+00  0.00000000E+00
  0.00000000E+00  0.00000000E+00  0.00000000E+00
  0.00000000E+00  0.00000000E+00  0.00000000E+00
  0.00000000E+00  0.00000000E+00  0.00000000E+00
  0.00000000E+00  0.00000000E+00  0.00000000E+00
  0.00000000E+00  0.00000000E+00  0.00000000E+00
  0.00000000E+00  0.00000000E+00  0.00000000E+00
