 CoTe2\(4)                              
   1.00000000000000     
     3.6054744748862886    0.0000000000000000    0.0000000000000000
    -1.8027372374431443    3.1224317330527525    0.0000000000000000
     0.0000000000000000    0.0000000000000000   14.6574001200000001
   Co   Te
     1     2
Direct
  0.0000000207508677  0.0000000185739282  0.5000000000321236
  0.6666667193542253  0.3333333805215517  0.4000631988615169
  0.3333333168949082  0.6666666519045208  0.5999368011063595
 
  0.00000000E+00  0.00000000E+00  0.00000000E+00
  0.00000000E+00  0.00000000E+00  0.00000000E+00
  0.00000000E+00  0.00000000E+00  0.00000000E+00
