CONTCAR\(5)                             
   1.00000000000000     
    10.9293003082000002    0.0000000000000000    0.0000000000000000
     0.0000000000000000   10.9293003082000002    0.0000000000000000
     0.0000000000000000    0.0000000000000000   18.0813007355000011
   Cu   Se
    18    18
Direct
 -0.0000000000000000  0.0000000000000000  0.5000000000000000
  0.1666699900000026  0.1666699900000026  0.5000000000000000
  0.3333300099999974 -0.0000000000000000  0.5000000000000000
  0.5000000000000000  0.1666699900000026  0.5000000000000000
  0.6666700119999973 -0.0000000000000000  0.5000000000000000
  0.8333299880000027  0.1666699900000026  0.5000000000000000
 -0.0000000000000000  0.3333300099999974  0.5000000000000000
  0.1666699900000026  0.5000000000000000  0.5000000000000000
  0.3333300099999974  0.3333300099999974  0.5000000000000000
  0.5000000000000000  0.5000000000000000  0.5000000000000000
  0.6666700119999973  0.3333300099999974  0.5000000000000000
  0.8333299880000027  0.5000000000000000  0.5000000000000000
 -0.0000000000000000  0.6666700119999973  0.5000000000000000
  0.1666699900000026  0.8333299880000027  0.5000000000000000
  0.3333300099999974  0.6666700119999973  0.5000000000000000
  0.5000000000000000  0.8333299880000027  0.5000000000000000
  0.6666700119999973  0.6666700119999973  0.5000000000000000
  0.8333299880000027  0.8333299880000027  0.5000000000000000
 -0.0000000000000000  0.1666699900000026  0.5901247738187663
  0.1666699900000026 -0.0000000000000000  0.4098751731812329
  0.3333300099999974  0.1666699900000026  0.5901247738187663
  0.5000000000000000  0.0000000000000000  0.4098751731812329
  0.6666700119999973  0.1666699900000026  0.5901247738187663
  0.8333299880000027  0.0000000000000000  0.4098751731812329
 -0.0000000000000000  0.5000000000000000  0.5901247738187663
  0.1666699900000026  0.3333300099999974  0.4098751731812329
  0.3333300099999974  0.5000000000000000  0.5901247738187663
  0.5000000000000000  0.3333300099999974  0.4098751731812329
  0.6666700119999973  0.5000000000000000  0.5901247738187663
  0.8333299880000027  0.3333300099999974  0.4098751731812329
 -0.0000000000000000  0.8333299880000027  0.5901247738187663
  0.1666699900000026  0.6666700119999973  0.4098751731812329
  0.3333300099999974  0.8333299880000027  0.5901247738187663
  0.5000000000000000  0.6666700119999973  0.4098751731812329
  0.6666700119999973  0.8333299880000027  0.5901247738187663
  0.8333299880000027  0.6666700119999973  0.4098751731812329
 
  0.00000000E+00  0.00000000E+00  0.00000000E+00
  0.00000000E+00  0.00000000E+00  0.00000000E+00
  0.00000000E+00  0.00000000E+00  0.00000000E+00
  0.00000000E+00  0.00000000E+00  0.00000000E+00
  0.00000000E+00  0.00000000E+00  0.00000000E+00
  0.00000000E+00  0.00000000E+00  0.00000000E+00
  0.00000000E+00  0.00000000E+00  0.00000000E+00
  0.00000000E+00  0.00000000E+00  0.00000000E+00
  0.00000000E+00  0.00000000E+00  0.00000000E+00
  0.00000000E+00  0.00000000E+00  0.00000000E+00
  0.00000000E+00  0.00000000E+00  0.00000000E+00
  0.00000000E+00  0.00000000E+00  0.00000000E+00
  0.00000000E+00  0.00000000E+00  0.00000000E+00
  0.00000000E+00  0.00000000E+00  0.00000000E+00
  0.00000000E+00  0.00000000E+00  0.00000000E+00
  0.00000000E+00  0.00000000E+00  0.00000000E+00
  0.00000000E+00  0.00000000E+00  0.00000000E+00
  0.00000000E+00  0.00000000E+00  0.00000000E+00
  0.00000000E+00  0.00000000E+00  0.00000000E+00
  0.00000000E+00  0.00000000E+00  0.00000000E+00
  0.00000000E+00  0.00000000E+00  0.00000000E+00
  0.00000000E+00  0.00000000E+00  0.00000000E+00
  0.00000000E+00  0.00000000E+00  0.00000000E+00
  0.00000000E+00  0.00000000E+00  0.00000000E+00
  0.00000000E+00  0.00000000E+00  0.00000000E+00
  0.00000000E+00  0.00000000E+00  0.00000000E+00
  0.00000000E+00  0.00000000E+00  0.00000000E+00
  0.00000000E+00  0.00000000E+00  0.00000000E+00
  0.00000000E+00  0.00000000E+00  0.00000000E+00
  0.00000000E+00  0.00000000E+00  0.00000000E+00
  0.00000000E+00  0.00000000E+00  0.00000000E+00
  0.00000000E+00  0.00000000E+00  0.00000000E+00
  0.00000000E+00  0.00000000E+00  0.00000000E+00
  0.00000000E+00  0.00000000E+00  0.00000000E+00
  0.00000000E+00  0.00000000E+00  0.00000000E+00
  0.00000000E+00  0.00000000E+00  0.00000000E+00
