CONTCAR\(2)                             
   1.00000000000000     
    14.8558998108000004    0.0000000000000000    0.0000000000000000
     0.0000000000000000   13.4555997849000004    0.0000000000000000
     0.0000000000000000    0.0000000000000000   21.2884006499999998
   Nb   S    O    H 
    24    72     2     1
Direct
  0.2330953589376827  0.4268955706981192  0.4359387149476038
  0.2328444467901266  0.2018519171742337  0.4321478641220046
  0.0662888112479228  0.0753230098324628  0.5626833155323617
  0.0663363194473750  0.3003790254082248  0.5663711335659209
  0.5665504613839238  0.4269549300523524  0.4359022166748362
  0.5664194709997541  0.2018869048502929  0.4321003651381067
  0.3996472081599981  0.0752571647705105  0.5624067794946451
  0.3997760557236060  0.2998654965719564  0.5660496935780908
  0.8998019563464977  0.4269527425042525  0.4360277429610888
  0.8996680305356988  0.2019174087236171  0.4323932542069070
  0.7330597336574354  0.0752437949142049  0.5626564492259144
  0.7329857661886373  0.3002690364725183  0.5663431483806448
  0.2329349236242159  0.9269077797150029  0.4358098995426138
  0.2328741373748286  0.7019226524245690  0.4322160512306201
  0.0664828235397940  0.5753383133431746  0.5627161709769236
  0.0663868079015563  0.8003264585638852  0.5663932434836785
  0.5665175832206572  0.9269478718029168  0.4358165731362382
  0.5665137354909179  0.7019833353125137  0.4321730303070298
  0.3997719767831882  0.5760348767280563  0.5625182661350907
  0.3995750440404838  0.8005486239158592  0.5660233351467892
  0.8998004177695554  0.9269100149151268  0.4360224155309428
  0.8997452892431992  0.7018997617639231  0.4324251434279053
  0.7329465724290630  0.5754280474856115  0.5627433593964374
  0.7328838688164045  0.8003462711910896  0.5664186753906251
  0.3336096503533402  0.1853600283566672  0.6469260081405456
  0.2329645240789046  0.0679510455612405  0.5178415045496513
  0.2329948321872336  0.3085197788568281  0.5257482336894965
  0.0662341178384473  0.1936256816453781  0.4727842892469111
  0.1653168068668875  0.3169673368920588  0.3524392121438502
  0.0664723202650692  0.4342980925884529  0.4806226345277694
  0.3307852185953256  0.4394483677683890  0.6329785848118723
  0.3007062760863807  0.0627619676736625  0.3640166426895306
  0.3011940697620745  0.3168565166217583  0.3529115125483029
  0.1360996022887847  0.1854318635503517  0.6447093752340464
  0.1335532266791391  0.4394555444382766  0.6351358845305196
  0.1648990123874969  0.0627167267890665  0.3641509691349670
  0.6668778142683022  0.1854055166464070  0.6470909423365856
  0.5663835521107019  0.0679770539853465  0.5178380240346747
  0.5663699072790831  0.3084566984449647  0.5257406705415961
  0.3995795269301814  0.1934272129098252  0.4723849593027454
  0.4988825358780163  0.3170320411669094  0.3524379190177990
  0.3999432116416329  0.4342954514433039  0.4806139495536389
  0.6639532807416053  0.4394321514911614  0.6334277004718977
  0.6343718847015011  0.0628227981830094  0.3640027399896935
  0.6347373924033819  0.3168455341804798  0.3527987450153615
  0.4695154991403739  0.1852654585906891  0.6444681827106395
  0.4668061099940197  0.4391742054179207  0.6345993570323043
  0.4985631339522176  0.0628310550714865  0.3641192672476533
  0.0002606250201559  0.1853625796833173  0.6471036956486698
  0.8996427868447034  0.0679543225948857  0.5181079668718067
  0.8996545745066916  0.3087799957442912  0.5259533265089686
  0.7330527378083276  0.1935829884718098  0.4726857781420231
  0.8320965949140715  0.3167933746221737  0.3526353162384532
  0.7332018341237945  0.4342930743644642  0.4806304526975841
  0.9977596404867856  0.4395052734908177  0.6336915103154147
  0.9676881269188362  0.0628125930972007  0.3643140155981637
  0.9679991275484803  0.3166622519649259  0.3530290688670889
  0.8027709170400200  0.1854168974188940  0.6446597587333149
  0.7998164487971205  0.4393617996472288  0.6353879967538648
  0.8318585819168139  0.0628147702692776  0.3643167516302544
  0.3329383842843128  0.6860222357654799  0.6463340190723303
  0.2330613076507478  0.5680440391687583  0.5179428570187805
  0.2329172891671100  0.8087332709670173  0.5257435301931371
  0.0662937288064046  0.6936114838952718  0.4727976026334819
  0.1653463495247343  0.8167195446607463  0.3523800789349766
  0.0663764999339243  0.9342312862908664  0.4806057693410643
  0.3309891002155926  0.9396110926197452  0.6335412423536980
  0.3007985077879929  0.5628154326277668  0.3642037368022102
  0.3012197771621841  0.8167592036593689  0.3528478007644076
  0.1354675818193748  0.6853951943121267  0.6452313387972859
  0.1337074956094882  0.9395396491269512  0.6349290585478196
  0.1649874151962320  0.5627413962234133  0.3642873886341155
  0.6661827410084279  0.6853652707898524  0.6468461660595133
  0.5664043747133604  0.5682067557346687  0.5179679432738683
  0.5663466034055018  0.8087191925307244  0.5257551802610579
  0.3996939853591764  0.6938393679539172  0.4724617171734725
  0.4989841893263203  0.8168763637825995  0.3523652880828163
  0.3997160485146572  0.9345001818579080  0.4802626889166246
  0.6642931639702661  0.9394722943658769  0.6337709515628300
  0.6342807402491677  0.5628542046625834  0.3640337306996594
  0.6348536150807872  0.8168037078207435  0.3528416272905261
  0.4684332126694248  0.6860302248567340  0.6449926346875686
  0.4667723478237110  0.9395758579381954  0.6347082831385060
  0.4984742800582853  0.5627808245741605  0.3643506305461565
 -0.0003387257936842  0.6853858425748076  0.6466953353229933
  0.8997030761621650  0.5679365833470036  0.5181583542201303
  0.8996369100744506  0.8087617440973432  0.5259744471909670
  0.7331185116535139  0.6936184953860784  0.4727826922952809
  0.8321533557723139  0.8167536923636470  0.3526084437957321
  0.7331944906706335  0.9342061708048593  0.4805963786544333
 -0.0020850516392255  0.9394366047109993  0.6338747099891217
  0.9676135938876050  0.5628100632115296  0.3642330985295543
  0.9680482177282987  0.8167128950476402  0.3530919286252832
  0.8020486356003695  0.6854726647928011  0.6451427773306955
  0.8000877176370826  0.9394154229188030  0.6351268740197378
  0.8317922741855927  0.5628321797289498  0.3644257470941765
  0.4740466765369801  0.4876888248920934  0.7836878988959640
  0.4088669321548735  0.5555748780631375  0.7726527692219873
  0.4870524940234010  0.4585967050974041  0.7412476839873587
 
  0.00000000E+00  0.00000000E+00  0.00000000E+00
  0.00000000E+00  0.00000000E+00  0.00000000E+00
  0.00000000E+00  0.00000000E+00  0.00000000E+00
  0.00000000E+00  0.00000000E+00  0.00000000E+00
  0.00000000E+00  0.00000000E+00  0.00000000E+00
  0.00000000E+00  0.00000000E+00  0.00000000E+00
  0.00000000E+00  0.00000000E+00  0.00000000E+00
  0.00000000E+00  0.00000000E+00  0.00000000E+00
  0.00000000E+00  0.00000000E+00  0.00000000E+00
  0.00000000E+00  0.00000000E+00  0.00000000E+00
  0.00000000E+00  0.00000000E+00  0.00000000E+00
  0.00000000E+00  0.00000000E+00  0.00000000E+00
  0.00000000E+00  0.00000000E+00  0.00000000E+00
  0.00000000E+00  0.00000000E+00  0.00000000E+00
  0.00000000E+00  0.00000000E+00  0.00000000E+00
  0.00000000E+00  0.00000000E+00  0.00000000E+00
  0.00000000E+00  0.00000000E+00  0.00000000E+00
  0.00000000E+00  0.00000000E+00  0.00000000E+00
  0.00000000E+00  0.00000000E+00  0.00000000E+00
  0.00000000E+00  0.00000000E+00  0.00000000E+00
  0.00000000E+00  0.00000000E+00  0.00000000E+00
  0.00000000E+00  0.00000000E+00  0.00000000E+00
  0.00000000E+00  0.00000000E+00  0.00000000E+00
  0.00000000E+00  0.00000000E+00  0.00000000E+00
  0.00000000E+00  0.00000000E+00  0.00000000E+00
  0.00000000E+00  0.00000000E+00  0.00000000E+00
  0.00000000E+00  0.00000000E+00  0.00000000E+00
  0.00000000E+00  0.00000000E+00  0.00000000E+00
  0.00000000E+00  0.00000000E+00  0.00000000E+00
  0.00000000E+00  0.00000000E+00  0.00000000E+00
  0.00000000E+00  0.00000000E+00  0.00000000E+00
  0.00000000E+00  0.00000000E+00  0.00000000E+00
  0.00000000E+00  0.00000000E+00  0.00000000E+00
  0.00000000E+00  0.00000000E+00  0.00000000E+00
  0.00000000E+00  0.00000000E+00  0.00000000E+00
  0.00000000E+00  0.00000000E+00  0.00000000E+00
  0.00000000E+00  0.00000000E+00  0.00000000E+00
  0.00000000E+00  0.00000000E+00  0.00000000E+00
  0.00000000E+00  0.00000000E+00  0.00000000E+00
  0.00000000E+00  0.00000000E+00  0.00000000E+00
  0.00000000E+00  0.00000000E+00  0.00000000E+00
  0.00000000E+00  0.00000000E+00  0.00000000E+00
  0.00000000E+00  0.00000000E+00  0.00000000E+00
  0.00000000E+00  0.00000000E+00  0.00000000E+00
  0.00000000E+00  0.00000000E+00  0.00000000E+00
  0.00000000E+00  0.00000000E+00  0.00000000E+00
  0.00000000E+00  0.00000000E+00  0.00000000E+00
  0.00000000E+00  0.00000000E+00  0.00000000E+00
  0.00000000E+00  0.00000000E+00  0.00000000E+00
  0.00000000E+00  0.00000000E+00  0.00000000E+00
  0.00000000E+00  0.00000000E+00  0.00000000E+00
  0.00000000E+00  0.00000000E+00  0.00000000E+00
  0.00000000E+00  0.00000000E+00  0.00000000E+00
  0.00000000E+00  0.00000000E+00  0.00000000E+00
  0.00000000E+00  0.00000000E+00  0.00000000E+00
  0.00000000E+00  0.00000000E+00  0.00000000E+00
  0.00000000E+00  0.00000000E+00  0.00000000E+00
  0.00000000E+00  0.00000000E+00  0.00000000E+00
  0.00000000E+00  0.00000000E+00  0.00000000E+00
  0.00000000E+00  0.00000000E+00  0.00000000E+00
  0.00000000E+00  0.00000000E+00  0.00000000E+00
  0.00000000E+00  0.00000000E+00  0.00000000E+00
  0.00000000E+00  0.00000000E+00  0.00000000E+00
  0.00000000E+00  0.00000000E+00  0.00000000E+00
  0.00000000E+00  0.00000000E+00  0.00000000E+00
  0.00000000E+00  0.00000000E+00  0.00000000E+00
  0.00000000E+00  0.00000000E+00  0.00000000E+00
  0.00000000E+00  0.00000000E+00  0.00000000E+00
  0.00000000E+00  0.00000000E+00  0.00000000E+00
  0.00000000E+00  0.00000000E+00  0.00000000E+00
  0.00000000E+00  0.00000000E+00  0.00000000E+00
  0.00000000E+00  0.00000000E+00  0.00000000E+00
  0.00000000E+00  0.00000000E+00  0.00000000E+00
  0.00000000E+00  0.00000000E+00  0.00000000E+00
  0.00000000E+00  0.00000000E+00  0.00000000E+00
  0.00000000E+00  0.00000000E+00  0.00000000E+00
  0.00000000E+00  0.00000000E+00  0.00000000E+00
  0.00000000E+00  0.00000000E+00  0.00000000E+00
  0.00000000E+00  0.00000000E+00  0.00000000E+00
  0.00000000E+00  0.00000000E+00  0.00000000E+00
  0.00000000E+00  0.00000000E+00  0.00000000E+00
  0.00000000E+00  0.00000000E+00  0.00000000E+00
  0.00000000E+00  0.00000000E+00  0.00000000E+00
  0.00000000E+00  0.00000000E+00  0.00000000E+00
  0.00000000E+00  0.00000000E+00  0.00000000E+00
  0.00000000E+00  0.00000000E+00  0.00000000E+00
  0.00000000E+00  0.00000000E+00  0.00000000E+00
  0.00000000E+00  0.00000000E+00  0.00000000E+00
  0.00000000E+00  0.00000000E+00  0.00000000E+00
  0.00000000E+00  0.00000000E+00  0.00000000E+00
  0.00000000E+00  0.00000000E+00  0.00000000E+00
  0.00000000E+00  0.00000000E+00  0.00000000E+00
  0.00000000E+00  0.00000000E+00  0.00000000E+00
  0.00000000E+00  0.00000000E+00  0.00000000E+00
  0.00000000E+00  0.00000000E+00  0.00000000E+00
  0.00000000E+00  0.00000000E+00  0.00000000E+00
  0.00000000E+00  0.00000000E+00  0.00000000E+00
  0.00000000E+00  0.00000000E+00  0.00000000E+00
  0.00000000E+00  0.00000000E+00  0.00000000E+00
