CONTCAR\(3)                             
   1.00000000000000     
    12.5569000244000009    0.0000000000000000    0.0000000000000000
     0.0000000000000000   12.5685997009000001    0.0000000000000000
     0.0000000000000000    0.0000000000000000   19.2248001098999985
   Cu   Ag   Te   O 
    12    12    24     1
Selective dynamics
Direct
  0.1121048587287561  0.0074591061981835  0.5769383857735022   F   F   F
  0.3886041011456243  0.9955227272422107  0.5793463067549993   F   F   F
  0.6113958988543757  0.9955227272422107  0.5793463067549993   F   F   F
  0.8878951412712439  0.0074591061981835  0.5769383857735022   F   F   F
  0.1402036958820858  0.3396160480003445  0.5153622736776811   F   F   F
  0.3823563142839461  0.3233116524740538  0.5130544798541763   F   F   F
  0.6176436857160539  0.3233116524740538  0.5130544798541763   F   F   F
  0.8597963041179142  0.3396160480003445  0.5153622736776811   F   F   F
  0.1382635977493294  0.6786538866311389  0.5138065424193030   F   F   F
  0.3647179283674689  0.6677318698500159  0.5103944406038536   F   F   F
  0.6352820716325311  0.6677318698500159  0.5103944406038536   F   F   F
  0.8617364022506706  0.6786538866311389  0.5138065424193030   F   F   F
  0.0000000000000000  0.1423162806317819  0.4881686722700564   F   F   F
  0.2517037575543313  0.1310546053323733  0.4928586783534641   F   F   F
  0.5000000000000000  0.1291934099023138  0.4877063986264858   F   F   F
  0.7482962424456687  0.1310546053323733  0.4928586783534641   F   F   F
  0.0000000000000000  0.5090290191654816  0.4654228507070641   F   F   F
  0.2359300990302486  0.5093017774970150  0.4457554678275955   F   F   F
  0.5000000000000000  0.4977284755886302  0.4596269856695017   F   F   F
  0.7640699009697514  0.5093017774970150  0.4457554678275955   F   F   F
  0.0000000000000000  0.8658795814518072  0.4896567274633910   F   F   F
  0.2511367877970585  0.8819419179903960  0.4906965862228532   F   F   F
  0.5000000000000000  0.8564899785661453  0.4882164822080384   F   F   F
  0.7488632122029415  0.8819419179903960  0.4906965862228532   F   F   F
  0.0000000000000000  0.0019355049799046  0.3796439325271095   F   F   F
  0.1260431306990952  0.1970869078102950  0.6163525875305069   F   F   F
  0.2495963906149541  0.0104550815555697  0.3757013388671311   F   F   F
  0.3749878093124082  0.1842315890700448  0.6183972804554614   F   F   F
  0.5000000000000000  0.9918898798869265  0.3778199475091739   F   F   F
  0.6250121906875918  0.1842315890700448  0.6183972804554614   F   F   F
  0.7504036093850459  0.0104550815555697  0.3757013388671311   F   F   F
  0.8739568693009048  0.1970869078102950  0.6163525875305069   F   F   F
  0.0000000000000000  0.3177003184856630  0.3996886044911392   F   F   F
  0.1170275427031768  0.5110739833767255  0.5993466196230912   F   F   F
  0.2542704664367790  0.3095476421923138  0.3959885694682583   F   F   F
  0.3633045180324643  0.4959239589409137  0.5888318254472580   F   F   F
  0.5000000000000000  0.3037764852597107  0.3927421000406000   F   F   F
  0.6366954819675357  0.4959239589409137  0.5888318254472580   F   F   F
  0.7457295335632139  0.3095476421923138  0.3959885694682583   F   F   F
  0.8829724572968232  0.5110739833767255  0.5993466196230912   F   F   F
  0.0000000000000000  0.6966055810143885  0.3948991333595231   F   F   F
  0.1258221379063258  0.8187341040595797  0.6167985660319175   F   F   F
  0.2514780009320532  0.7083561892720240  0.3919073400523629   F   F   F
  0.3748795902732667  0.8047170735498526  0.6152836450940882   F   F   F
  0.5000000000000000  0.6867144956608939  0.3913023323611355   F   F   F
  0.6251204097267333  0.8047170735498526  0.6152836450940882   F   F   F
  0.7485219990679468  0.7083561892720240  0.3919073400523629   F   F   F
  0.8741778620936742  0.8187341040595797  0.6167985660319175   F   F   F
  0.5000799729999983  0.5179205973202841  0.6426532264690712   T   T   T
 
  0.00000000E+00  0.00000000E+00  0.00000000E+00
  0.00000000E+00  0.00000000E+00  0.00000000E+00
  0.00000000E+00  0.00000000E+00  0.00000000E+00
  0.00000000E+00  0.00000000E+00  0.00000000E+00
  0.00000000E+00  0.00000000E+00  0.00000000E+00
  0.00000000E+00  0.00000000E+00  0.00000000E+00
  0.00000000E+00  0.00000000E+00  0.00000000E+00
  0.00000000E+00  0.00000000E+00  0.00000000E+00
  0.00000000E+00  0.00000000E+00  0.00000000E+00
  0.00000000E+00  0.00000000E+00  0.00000000E+00
  0.00000000E+00  0.00000000E+00  0.00000000E+00
  0.00000000E+00  0.00000000E+00  0.00000000E+00
  0.00000000E+00  0.00000000E+00  0.00000000E+00
  0.00000000E+00  0.00000000E+00  0.00000000E+00
  0.00000000E+00  0.00000000E+00  0.00000000E+00
  0.00000000E+00  0.00000000E+00  0.00000000E+00
  0.00000000E+00  0.00000000E+00  0.00000000E+00
  0.00000000E+00  0.00000000E+00  0.00000000E+00
  0.00000000E+00  0.00000000E+00  0.00000000E+00
  0.00000000E+00  0.00000000E+00  0.00000000E+00
  0.00000000E+00  0.00000000E+00  0.00000000E+00
  0.00000000E+00  0.00000000E+00  0.00000000E+00
  0.00000000E+00  0.00000000E+00  0.00000000E+00
  0.00000000E+00  0.00000000E+00  0.00000000E+00
  0.00000000E+00  0.00000000E+00  0.00000000E+00
  0.00000000E+00  0.00000000E+00  0.00000000E+00
  0.00000000E+00  0.00000000E+00  0.00000000E+00
  0.00000000E+00  0.00000000E+00  0.00000000E+00
  0.00000000E+00  0.00000000E+00  0.00000000E+00
  0.00000000E+00  0.00000000E+00  0.00000000E+00
  0.00000000E+00  0.00000000E+00  0.00000000E+00
  0.00000000E+00  0.00000000E+00  0.00000000E+00
  0.00000000E+00  0.00000000E+00  0.00000000E+00
  0.00000000E+00  0.00000000E+00  0.00000000E+00
  0.00000000E+00  0.00000000E+00  0.00000000E+00
  0.00000000E+00  0.00000000E+00  0.00000000E+00
  0.00000000E+00  0.00000000E+00  0.00000000E+00
  0.00000000E+00  0.00000000E+00  0.00000000E+00
  0.00000000E+00  0.00000000E+00  0.00000000E+00
  0.00000000E+00  0.00000000E+00  0.00000000E+00
  0.00000000E+00  0.00000000E+00  0.00000000E+00
  0.00000000E+00  0.00000000E+00  0.00000000E+00
  0.00000000E+00  0.00000000E+00  0.00000000E+00
  0.00000000E+00  0.00000000E+00  0.00000000E+00
  0.00000000E+00  0.00000000E+00  0.00000000E+00
  0.00000000E+00  0.00000000E+00  0.00000000E+00
  0.00000000E+00  0.00000000E+00  0.00000000E+00
  0.00000000E+00  0.00000000E+00  0.00000000E+00
  0.00000000E+00  0.00000000E+00  0.00000000E+00
