CONTCAR                                 
   1.00000000000000     
    10.2665004730000007    0.0000000000000000    0.0000000000000000
     0.0000000000000000   17.1711997986000000    0.0000000000000000
     0.0000000000000000    0.0000000000000000   18.9181995391999997
   K    Fe   S    O    H 
     8    16    24     1     1
Direct
  0.1245637767186594  0.2500309399339997  0.4095732970345622
  0.3749642298926688  0.2500943706073002  0.5895321647714482
  0.6246254902278423  0.2499530582238094  0.4093508407092514
  0.8754559816645227  0.2500822092086779  0.5893894209660147
  0.1249055198816293  0.7499824115822662  0.4137782442122742
  0.4063502850106744  0.7497946756809100  0.6218300734130011
  0.6255594712157020  0.7499469497442632  0.4078224898612035
  0.8436396129651840  0.7497294068662796  0.6215309894257857
  0.9999673380301459  0.0730921262079676  0.4996177355486964
  0.2500384009956065  0.9249563923069388  0.4981139307432230
  0.0001798380536968  0.9250025328884917  0.4982392373901092
  0.2498173453585721  0.0730116473743010  0.4997225070167985
  0.4998988263702486  0.0744196414408975  0.4988454585355129
  0.7501330323068984  0.9271012877200988  0.4944136762096676
  0.4998958743203445  0.9269296091540440  0.4944885887472097
  0.7498136121074523  0.0743922579393725  0.4987359507683067
  0.0001712929638487  0.5749080396439794  0.4980533690416920
  0.2498646360173993  0.4269375381106286  0.4995557018642884
  0.0000199933937850  0.4268813081749201  0.4995302931359120
  0.2500394972938338  0.5749556047023319  0.4979180836004176
  0.4998652386008473  0.5729728069605784  0.4942310035932138
  0.7498544915126928  0.4255631171660923  0.4985670388162404
  0.4999480981122701  0.4255618351768859  0.4985980550262354
  0.7501854450377152  0.5728188218360586  0.4941985495912675
  0.3737193077556853  0.8590961489201874  0.4313536154201643
  0.1248870433341551  0.1410388880469711  0.5646215312589931
  0.1252459053661852  0.8551026710827756  0.5607288063412668
  0.3765303579405170  0.9984676565619139  0.5622926993051607
  0.1250671761841033  0.0000176334749256  0.4346231010160224
  0.3732706405808983  0.1436082362235567  0.4361500941733993
  0.8765224816602952  0.8592530876823830  0.4314084799064517
  0.6250638139219404  0.1421554837566177  0.5639462667075819
  0.6251921861396639  0.8576285320492971  0.5550947426024635
  0.8733521376007545  0.9985535539864685  0.5622478769799528
  0.6247089215032204  0.0033815657862277  0.4316941076288856
  0.8762704502432896  0.1435795631227350  0.4359457097851660
  0.3732820304104294  0.3563384511803420  0.4359679072537403
  0.1252493516968300  0.6447265720042381  0.5606298640373737
  0.1249984650070459  0.3590613283917037  0.5646097460250274
  0.3765990335953333  0.5014878058674626  0.5620908526830917
  0.1250508098998893  0.4998739017723324  0.4344420208469231
  0.3736460006992388  0.6408234352521092  0.4311206751106695
  0.8763710457605214  0.3563569998853637  0.4358522839664118
  0.6251719027266560  0.6422223836371828  0.5549202012944434
  0.6250105946405569  0.3578731079389144  0.5638035612340175
  0.8733311928999186  0.5014120535957005  0.5621103159485017
  0.6248057693677538  0.4965357444495027  0.4314571788749433
  0.8765441077585550  0.6407044341871213  0.4312110910360687
  0.6252170632248450  0.7512762871051777  0.6878905303995211
  0.6254349000294894  0.7548656513876892  0.7392602181414460
 
  0.00000000E+00  0.00000000E+00  0.00000000E+00
  0.00000000E+00  0.00000000E+00  0.00000000E+00
  0.00000000E+00  0.00000000E+00  0.00000000E+00
  0.00000000E+00  0.00000000E+00  0.00000000E+00
  0.00000000E+00  0.00000000E+00  0.00000000E+00
  0.00000000E+00  0.00000000E+00  0.00000000E+00
  0.00000000E+00  0.00000000E+00  0.00000000E+00
  0.00000000E+00  0.00000000E+00  0.00000000E+00
  0.00000000E+00  0.00000000E+00  0.00000000E+00
  0.00000000E+00  0.00000000E+00  0.00000000E+00
  0.00000000E+00  0.00000000E+00  0.00000000E+00
  0.00000000E+00  0.00000000E+00  0.00000000E+00
  0.00000000E+00  0.00000000E+00  0.00000000E+00
  0.00000000E+00  0.00000000E+00  0.00000000E+00
  0.00000000E+00  0.00000000E+00  0.00000000E+00
  0.00000000E+00  0.00000000E+00  0.00000000E+00
  0.00000000E+00  0.00000000E+00  0.00000000E+00
  0.00000000E+00  0.00000000E+00  0.00000000E+00
  0.00000000E+00  0.00000000E+00  0.00000000E+00
  0.00000000E+00  0.00000000E+00  0.00000000E+00
  0.00000000E+00  0.00000000E+00  0.00000000E+00
  0.00000000E+00  0.00000000E+00  0.00000000E+00
  0.00000000E+00  0.00000000E+00  0.00000000E+00
  0.00000000E+00  0.00000000E+00  0.00000000E+00
  0.00000000E+00  0.00000000E+00  0.00000000E+00
  0.00000000E+00  0.00000000E+00  0.00000000E+00
  0.00000000E+00  0.00000000E+00  0.00000000E+00
  0.00000000E+00  0.00000000E+00  0.00000000E+00
  0.00000000E+00  0.00000000E+00  0.00000000E+00
  0.00000000E+00  0.00000000E+00  0.00000000E+00
  0.00000000E+00  0.00000000E+00  0.00000000E+00
  0.00000000E+00  0.00000000E+00  0.00000000E+00
  0.00000000E+00  0.00000000E+00  0.00000000E+00
  0.00000000E+00  0.00000000E+00  0.00000000E+00
  0.00000000E+00  0.00000000E+00  0.00000000E+00
  0.00000000E+00  0.00000000E+00  0.00000000E+00
  0.00000000E+00  0.00000000E+00  0.00000000E+00
  0.00000000E+00  0.00000000E+00  0.00000000E+00
  0.00000000E+00  0.00000000E+00  0.00000000E+00
  0.00000000E+00  0.00000000E+00  0.00000000E+00
  0.00000000E+00  0.00000000E+00  0.00000000E+00
  0.00000000E+00  0.00000000E+00  0.00000000E+00
  0.00000000E+00  0.00000000E+00  0.00000000E+00
  0.00000000E+00  0.00000000E+00  0.00000000E+00
  0.00000000E+00  0.00000000E+00  0.00000000E+00
  0.00000000E+00  0.00000000E+00  0.00000000E+00
  0.00000000E+00  0.00000000E+00  0.00000000E+00
  0.00000000E+00  0.00000000E+00  0.00000000E+00
  0.00000000E+00  0.00000000E+00  0.00000000E+00
  0.00000000E+00  0.00000000E+00  0.00000000E+00
