CONTCAR\(8)                             
   1.00000000000000     
    11.2503995895000006    0.0000000000000000    0.0000000000000000
     0.0000000000000000   11.4902000426999997    0.0000000000000000
     0.0000000000000000    0.0000000000000000   19.3134994507000002
   Cr   Te   O    H 
     8    24     2     1
Direct
  0.9878916244548278  0.6724513831228486  0.5026716008573775
  0.4910565262864784  0.8351077908466573  0.4986217075999868
  0.9862452674871370  0.3529771696879750  0.5034756701316619
  0.4927534247397215  0.1714772504688248  0.4966875862215083
  0.2821900918918923  0.5114652685381772  0.5148765261487672
  0.7826163582817610  0.0050803543809581  0.4895008244694291
  0.7449503090428946  0.4989512551405083  0.4921458662917329
  0.2434950582117293  0.0115712277468645  0.5074587920696276
  0.9009494010874101  0.5082463339942541  0.5913979366055989
  0.4028794010065695  0.0048785047282045  0.4113473382052483
  0.0976225288084845  0.5089211835705379  0.4223157345479068
  0.5948823471679883  0.0044097713035280  0.5777063791642604
  0.3301402964046793  0.1629011941325493  0.5977012483520433
  0.8368774208162143  0.3526108876809956  0.4006658214349462
  0.6688694610367825  0.8543030199902540  0.4037094124934856
  0.1635275350009920  0.6634833837637744  0.5964057863735682
  0.1635321690209434  0.3578152739439233  0.5977590006492194
  0.6707285160299702  0.1526469196994494  0.3999965042435015
  0.8282715916669613  0.6553284597539062  0.4018419626436824
  0.3274942901770869  0.8600975047603805  0.5973251503725365
  0.6408220998327623  0.3248341724749236  0.5557664354889005
  0.1186258853241733  0.1835009089464939  0.4412978120064928
  0.3832970588289314  0.6680241212099844  0.4245890355178375
  0.8821853586148661  0.8447993649879944  0.5766404374704475
  0.4568032745957996  0.5026748688135373  0.6153880371842640
  0.9525474570243307  0.0096345602361481  0.3913431519729846
  0.5731700658958366  0.5025250313986089  0.3978638757405714
  0.0684794034616563  0.0104768156490612  0.6030448649648598
  0.6265430958309360  0.6695259601452487  0.5682841588493721
  0.1230773739324416  0.8403987602083386  0.4356146822430744
  0.3806643199175913  0.3444418853173101  0.4296493915688588
  0.8762406436560827  0.1798685038511476  0.5712783584580107
  0.3649687957983641  0.6841363129747909  0.7246155167864600
  0.4086023392303695  0.5661403397200713  0.7136400233050180
  0.2784591134353112  0.6708641558117575  0.7264636205667334
 
  0.00000000E+00  0.00000000E+00  0.00000000E+00
  0.00000000E+00  0.00000000E+00  0.00000000E+00
  0.00000000E+00  0.00000000E+00  0.00000000E+00
  0.00000000E+00  0.00000000E+00  0.00000000E+00
  0.00000000E+00  0.00000000E+00  0.00000000E+00
  0.00000000E+00  0.00000000E+00  0.00000000E+00
  0.00000000E+00  0.00000000E+00  0.00000000E+00
  0.00000000E+00  0.00000000E+00  0.00000000E+00
  0.00000000E+00  0.00000000E+00  0.00000000E+00
  0.00000000E+00  0.00000000E+00  0.00000000E+00
  0.00000000E+00  0.00000000E+00  0.00000000E+00
  0.00000000E+00  0.00000000E+00  0.00000000E+00
  0.00000000E+00  0.00000000E+00  0.00000000E+00
  0.00000000E+00  0.00000000E+00  0.00000000E+00
  0.00000000E+00  0.00000000E+00  0.00000000E+00
  0.00000000E+00  0.00000000E+00  0.00000000E+00
  0.00000000E+00  0.00000000E+00  0.00000000E+00
  0.00000000E+00  0.00000000E+00  0.00000000E+00
  0.00000000E+00  0.00000000E+00  0.00000000E+00
  0.00000000E+00  0.00000000E+00  0.00000000E+00
  0.00000000E+00  0.00000000E+00  0.00000000E+00
  0.00000000E+00  0.00000000E+00  0.00000000E+00
  0.00000000E+00  0.00000000E+00  0.00000000E+00
  0.00000000E+00  0.00000000E+00  0.00000000E+00
  0.00000000E+00  0.00000000E+00  0.00000000E+00
  0.00000000E+00  0.00000000E+00  0.00000000E+00
  0.00000000E+00  0.00000000E+00  0.00000000E+00
  0.00000000E+00  0.00000000E+00  0.00000000E+00
  0.00000000E+00  0.00000000E+00  0.00000000E+00
  0.00000000E+00  0.00000000E+00  0.00000000E+00
  0.00000000E+00  0.00000000E+00  0.00000000E+00
  0.00000000E+00  0.00000000E+00  0.00000000E+00
  0.00000000E+00  0.00000000E+00  0.00000000E+00
  0.00000000E+00  0.00000000E+00  0.00000000E+00
  0.00000000E+00  0.00000000E+00  0.00000000E+00
