CONTCAR\(2)                             
   1.00000000000000     
    11.8893995285000003    0.0000000000000000    0.0000000000000000
     0.0000000000000000   11.8893995285000003    0.0000000000000000
     0.0000000000000000    0.0000000000000000   25.3729991912999999
   Ce   Bi   S    O    H 
    18    18    36    20     1
Direct
  0.0006270879204209  0.0012924658060385  0.4503726005675901
  0.1687328337329390  0.1688500229825252  0.5498558028633695
  0.3334099671399713  0.0010246280338748  0.4495294790559683
  0.4982677456686915  0.1688217391817872  0.5496650802500511
  0.6663845780538367  0.0013103249595048  0.4501494950812415
  0.8333280117544390  0.1669155553355850  0.5492244348141639
  0.0004774934665690  0.3350568003393946  0.4512728319341477
  0.1688083987882578  0.4994576809577751  0.5527728700519887
  0.3334239658502227  0.3355035208540826  0.4519796130645233
  0.4981243667404911  0.4994261995684184  0.5526879553235915
  0.6665047667904531  0.3351313363747508  0.4511470096541217
  0.8334161129730973  0.5007814998910689  0.5503469502121163
  0.0008472110780460  0.6666106825858833  0.4517660049269949
  0.1671611581688026  0.8350293725804576  0.5494546641481932
  0.3334217082880429  0.6667976815501007  0.4517949192183224
  0.4998115279883208  0.8350648795953219  0.5492506976018632
  0.6661417434885308  0.6665968859988780  0.4515849169725072
  0.8333608301593216  0.8349824210569992  0.5494093598469192
  0.0011887987239660  0.0012957011169945  0.6998073156601734
  0.1666365576144457  0.1671190958865125  0.3009200879049203
  0.3333969224890225  0.0022210330872880  0.6996686627560891
  0.5001419021238931  0.1671688379026222  0.3009048509864272
  0.6654018008890148  0.0014939378980614  0.6998912517098930
  0.8334234520979322  0.1669561269599242  0.3009126887570872
  0.0008262208606595  0.3337617044879835  0.6990704480915042
  0.1666726733171089  0.5002820832611903  0.3010269069569560
  0.3314982022160251  0.3434522887334381  0.7063218313617980
  0.5000105221992612  0.5002534765303963  0.3009989567442517
  0.6660636796227521  0.3333276645934404  0.6990126017590015
  0.8334380441095348  0.5003216532237147  0.3010358295291411
  0.0002994288458069  0.6671662611275835  0.6993161014568514
  0.1665778041184183  0.8332731725699247  0.3009875005673948
  0.3326131584623013  0.6657394727034074  0.6989733497403918
  0.5001185552570959  0.8331935362553295  0.3010490072185590
  0.6668484063588309  0.6674981932064981  0.6991977906911089
  0.8334289668728800  0.8333648226716193  0.3010596315383864
  0.9996198237448652  0.0009926224209238  0.5996121835829626
  0.0002585261839130  0.0005389256990469  0.2963056527556489
  0.1661667902379520  0.1688661470046995  0.4009113495914036
  0.1639264360339823  0.1649771404196656  0.7059998689890250
  0.3337785778299462  0.0010760909509955  0.5993882772710464
  0.3336283127267663  0.0004564640734657  0.2994411457927484
  0.5005924995289988  0.1691957386823049  0.4008918967626514
  0.5032782419973501  0.1647711039110362  0.7069560120048095
  0.6668073850229490  0.0008808364874469  0.5997239910429499
  0.6665786846452093  0.0003872833662300  0.2972109424292384
  0.8336926388818853  0.1682553917748137  0.4010075125497892
  0.8336216174621001  0.1700197292831476  0.7069048665848499
  0.9964812030785524  0.3294332957912474  0.5990564988473892
  0.0000456804925406  0.3337975620810667  0.2955797394039266
  0.1666409610007094  0.5012952108761368  0.4012630496707246
  0.1700345530207485  0.4993819969304667  0.6786582649405091
  0.3341600289639075  0.3287363105040129  0.5966900118838367
  0.3334220264078667  0.3340815426699066  0.2954043285314896
  0.5000546640000749  0.5011649738177084  0.4011884985439877
  0.4967605440826475  0.4995760271289384  0.6836998262300114
  0.6694767114804705  0.3299740094629371  0.5990593659500192
  0.6670279423797254  0.3340558995780896  0.2956374229036527
  0.8337153994569420  0.5013221485034691  0.4013194595531857
  0.8335449601606300  0.5001033936700523  0.7029373470011109
  0.9973575908622010  0.6716046990014917  0.5993779558180563
  0.0000769825540985  0.6673867534490583  0.2945900361550926
  0.1659462681421857  0.8326330561273707  0.4010882560323807
  0.1662175985526133  0.8343741843371504  0.7060688825908983
  0.3341715925602315  0.6755353804927253  0.5978536546650943
  0.3332745906464396  0.6669436589131408  0.2954292457108778
  0.5007198493810776  0.8326087638688406  0.4011111138752455
  0.5004280643819925  0.8336874264871525  0.7067640436986551
  0.6687012487742621  0.6712097644231960  0.5993013402703511
  0.6669112528859884  0.6670078146437248  0.2954144523208626
  0.8339194225456552  0.8331360194170330  0.4011264895010953
  0.8340060934690356  0.8275805103384144  0.7074510916400030
  0.0002018796039209  0.1673838152072733  0.4999951456568894
  0.1669211865226785  0.0012074265343500  0.4998487106816256
  0.3334448041225784  0.1662475160670596  0.4986726570013360
  0.5000444542572779  0.0012134546553995  0.4996571857539536
  0.6666975563380007  0.1673980654282659  0.4998734630212951
  0.8333871536953552  0.0009853664618618  0.4997224698272049
  0.0000951435550292  0.5007803338073984  0.5016019679023032
  0.1656699177392369  0.3344452431019391  0.5001151526678740
  0.3335503274535796  0.5018280166342919  0.5008340279323775
  0.5013442802076540  0.3345862536440904  0.4999731473596967
  0.6667580625540808  0.5008179074041976  0.5014931517711148
  0.8333876883402027  0.3344168451269383  0.5001830813237618
  0.0001284669595591  0.8348202802756433  0.5001159736297112
  0.1665424728324894  0.6676615507790586  0.5009880587872360
  0.3334247753492434  0.8353744097388187  0.4993365518085824
  0.5004343564287694  0.6675745966450108  0.5008456581278722
  0.6667951695006451  0.8348094893619304  0.4999630698925017
  0.8334056410204198  0.6674798848535346  0.5005422160722546
  0.3094007079127223  0.5359337597038376  0.7937335096674545
  0.3167977857404551  0.4122303035896593  0.7898750553738694
  0.3704086760603147  0.5499246735240888  0.8188371386278419
 
  0.00000000E+00  0.00000000E+00  0.00000000E+00
  0.00000000E+00  0.00000000E+00  0.00000000E+00
  0.00000000E+00  0.00000000E+00  0.00000000E+00
  0.00000000E+00  0.00000000E+00  0.00000000E+00
  0.00000000E+00  0.00000000E+00  0.00000000E+00
  0.00000000E+00  0.00000000E+00  0.00000000E+00
  0.00000000E+00  0.00000000E+00  0.00000000E+00
  0.00000000E+00  0.00000000E+00  0.00000000E+00
  0.00000000E+00  0.00000000E+00  0.00000000E+00
  0.00000000E+00  0.00000000E+00  0.00000000E+00
  0.00000000E+00  0.00000000E+00  0.00000000E+00
  0.00000000E+00  0.00000000E+00  0.00000000E+00
  0.00000000E+00  0.00000000E+00  0.00000000E+00
  0.00000000E+00  0.00000000E+00  0.00000000E+00
  0.00000000E+00  0.00000000E+00  0.00000000E+00
  0.00000000E+00  0.00000000E+00  0.00000000E+00
  0.00000000E+00  0.00000000E+00  0.00000000E+00
  0.00000000E+00  0.00000000E+00  0.00000000E+00
  0.00000000E+00  0.00000000E+00  0.00000000E+00
  0.00000000E+00  0.00000000E+00  0.00000000E+00
  0.00000000E+00  0.00000000E+00  0.00000000E+00
  0.00000000E+00  0.00000000E+00  0.00000000E+00
  0.00000000E+00  0.00000000E+00  0.00000000E+00
  0.00000000E+00  0.00000000E+00  0.00000000E+00
  0.00000000E+00  0.00000000E+00  0.00000000E+00
  0.00000000E+00  0.00000000E+00  0.00000000E+00
  0.00000000E+00  0.00000000E+00  0.00000000E+00
  0.00000000E+00  0.00000000E+00  0.00000000E+00
  0.00000000E+00  0.00000000E+00  0.00000000E+00
  0.00000000E+00  0.00000000E+00  0.00000000E+00
  0.00000000E+00  0.00000000E+00  0.00000000E+00
  0.00000000E+00  0.00000000E+00  0.00000000E+00
  0.00000000E+00  0.00000000E+00  0.00000000E+00
  0.00000000E+00  0.00000000E+00  0.00000000E+00
  0.00000000E+00  0.00000000E+00  0.00000000E+00
  0.00000000E+00  0.00000000E+00  0.00000000E+00
  0.00000000E+00  0.00000000E+00  0.00000000E+00
  0.00000000E+00  0.00000000E+00  0.00000000E+00
  0.00000000E+00  0.00000000E+00  0.00000000E+00
  0.00000000E+00  0.00000000E+00  0.00000000E+00
  0.00000000E+00  0.00000000E+00  0.00000000E+00
  0.00000000E+00  0.00000000E+00  0.00000000E+00
  0.00000000E+00  0.00000000E+00  0.00000000E+00
  0.00000000E+00  0.00000000E+00  0.00000000E+00
  0.00000000E+00  0.00000000E+00  0.00000000E+00
  0.00000000E+00  0.00000000E+00  0.00000000E+00
  0.00000000E+00  0.00000000E+00  0.00000000E+00
  0.00000000E+00  0.00000000E+00  0.00000000E+00
  0.00000000E+00  0.00000000E+00  0.00000000E+00
  0.00000000E+00  0.00000000E+00  0.00000000E+00
  0.00000000E+00  0.00000000E+00  0.00000000E+00
  0.00000000E+00  0.00000000E+00  0.00000000E+00
  0.00000000E+00  0.00000000E+00  0.00000000E+00
  0.00000000E+00  0.00000000E+00  0.00000000E+00
  0.00000000E+00  0.00000000E+00  0.00000000E+00
  0.00000000E+00  0.00000000E+00  0.00000000E+00
  0.00000000E+00  0.00000000E+00  0.00000000E+00
  0.00000000E+00  0.00000000E+00  0.00000000E+00
  0.00000000E+00  0.00000000E+00  0.00000000E+00
  0.00000000E+00  0.00000000E+00  0.00000000E+00
  0.00000000E+00  0.00000000E+00  0.00000000E+00
  0.00000000E+00  0.00000000E+00  0.00000000E+00
  0.00000000E+00  0.00000000E+00  0.00000000E+00
  0.00000000E+00  0.00000000E+00  0.00000000E+00
  0.00000000E+00  0.00000000E+00  0.00000000E+00
  0.00000000E+00  0.00000000E+00  0.00000000E+00
  0.00000000E+00  0.00000000E+00  0.00000000E+00
  0.00000000E+00  0.00000000E+00  0.00000000E+00
  0.00000000E+00  0.00000000E+00  0.00000000E+00
  0.00000000E+00  0.00000000E+00  0.00000000E+00
  0.00000000E+00  0.00000000E+00  0.00000000E+00
  0.00000000E+00  0.00000000E+00  0.00000000E+00
  0.00000000E+00  0.00000000E+00  0.00000000E+00
  0.00000000E+00  0.00000000E+00  0.00000000E+00
  0.00000000E+00  0.00000000E+00  0.00000000E+00
  0.00000000E+00  0.00000000E+00  0.00000000E+00
  0.00000000E+00  0.00000000E+00  0.00000000E+00
  0.00000000E+00  0.00000000E+00  0.00000000E+00
  0.00000000E+00  0.00000000E+00  0.00000000E+00
  0.00000000E+00  0.00000000E+00  0.00000000E+00
  0.00000000E+00  0.00000000E+00  0.00000000E+00
  0.00000000E+00  0.00000000E+00  0.00000000E+00
  0.00000000E+00  0.00000000E+00  0.00000000E+00
  0.00000000E+00  0.00000000E+00  0.00000000E+00
  0.00000000E+00  0.00000000E+00  0.00000000E+00
  0.00000000E+00  0.00000000E+00  0.00000000E+00
  0.00000000E+00  0.00000000E+00  0.00000000E+00
  0.00000000E+00  0.00000000E+00  0.00000000E+00
  0.00000000E+00  0.00000000E+00  0.00000000E+00
  0.00000000E+00  0.00000000E+00  0.00000000E+00
  0.00000000E+00  0.00000000E+00  0.00000000E+00
  0.00000000E+00  0.00000000E+00  0.00000000E+00
  0.00000000E+00  0.00000000E+00  0.00000000E+00
