CONTCAR                                 
   1.00000000000000     
    13.9656000136999996    0.0000000000000000    0.0000000000000000
     0.0000000000000000   11.8057003021000000    0.0000000000000000
     0.0000000000000000    0.0000000000000000   25.8033008574999982
   Ti   I    N    O    H 
    24    24    24     2     1
Selective dynamics
Direct
  0.1241200855497482  0.1649705175011960  0.4699596773665462   F   F   F
  0.9993256442651060  0.9986320345671373  0.5249484823741000   F   F   F
  0.3741314000089204  0.1649588870936967  0.4699668163100768   F   F   F
  0.2492485361890289  0.9982566273650235  0.5249228461889146   F   F   F
  0.6240665147530606  0.1652475635743897  0.4702739751356475   F   F   F
  0.4991543677935795  0.9985049287591323  0.5249806124736907   F   F   F
  0.8742943769115854  0.1647658636746669  0.4699931903868588   F   F   F
  0.7491357869004318  0.9981588209518506  0.5250039289147779   F   F   F
  0.1241665812118242  0.4987276771415097  0.4699883453339240   F   F   F
  0.9994415873057392  0.3320410947033849  0.5248030103823282   F   F   F
  0.3742093138236555  0.4985610559067979  0.4700730632572387   F   F   F
  0.2489983347792943  0.3316827733088061  0.5248347276658194   F   F   F
  0.6239905709794513  0.4980817295191855  0.4704149831886895   F   F   F
  0.4983382518713952  0.3317417410318626  0.5249796831670039   F   F   F
  0.8743596955100017  0.4989061263743295  0.4699939984509669   F   F   F
  0.7504434776056073  0.3316341069815962  0.5247384570328464   F   F   F
  0.1241504449325177  0.8316560589490649  0.4699972732902182   F   F   F
  0.9993605854432630  0.6654559506372166  0.5249810995265918   F   F   F
  0.3742631322180827  0.8318585419776738  0.4699539219184956   F   F   F
  0.2495790653647560  0.6650542279874330  0.5250032225403700   F   F   F
  0.6240342438137816  0.8314494737089291  0.4701352758945845   F   F   F
  0.4988509436239497  0.6652356717003869  0.5251891149300221   F   F   F
  0.8741553307904297  0.8317741276172228  0.4700244187626055   F   F   F
  0.7491364458342034  0.6648738167414052  0.5250710504344269   F   F   F
  0.9989791737614766  0.1668951544922663  0.3843756451263971   F   F   F
  0.1242091601321960  0.9982093902701266  0.6104414796666902   F   F   F
  0.2490152472716787  0.1626671317942865  0.3844516564052043   F   F   F
  0.3741337071404303  0.9995475093635662  0.6104781834197937   F   F   F
  0.4991124017041031  0.1670246083189539  0.3845363229123819   F   F   F
  0.6241743861176445  0.9968937622941212  0.6104547952769366   F   F   F
  0.7488850095498307  0.1621473606232229  0.3846818334278836   F   F   F
  0.8742057865423263  0.0000181769346526  0.6105273492309635   F   F   F
  0.9990420374044788  0.5005125170329023  0.3844074823467594   F   F   F
  0.1241166805290419  0.3316115671516613  0.6103196075254331   F   F   F
  0.2491258604884905  0.4960002213750272  0.3845265643729192   F   F   F
  0.3738989016188938  0.3328796045175721  0.6105136820697865   F   F   F
  0.4991005813980536  0.5003651094568866  0.3847585367606356   F   F   F
  0.6242722442227020  0.3270565961774139  0.6110424479364127   F   F   F
  0.7489080810845721  0.4954598220284154  0.3847136608703323   F   F   F
  0.8742917045559153  0.3334897284232099  0.6103865105763404   F   F   F
  0.9990790769103555  0.8335907203167423  0.3844321409300662   F   F   F
  0.1242194052947738  0.6648950468872883  0.6104688582668061   F   F   F
  0.2490346071746430  0.8294896984125799  0.3844532249973867   F   F   F
  0.3738914566524940  0.6663769362005496  0.6104722916881826   F   F   F
  0.4990821051442325  0.8336743965777131  0.3844845573635993   F   F   F
  0.6243682936306243  0.6650368242547344  0.6107952425391687   F   F   F
  0.7490801715908830  0.8287563367422237  0.3845998615000568   F   F   F
  0.8743277153076505  0.6666844469078868  0.6105432131757595   F   F   F
  0.1241587712114054  0.9985234444734559  0.4845977568829412   F   F   F
  0.9991831994472946  0.1652469148410987  0.5102501847702499   F   F   F
  0.3742103710520510  0.9984511288563880  0.4845332454225897   F   F   F
  0.2491851764800543  0.1651935072178716  0.5102237689240638   F   F   F
  0.6241034234768179  0.9984264840555568  0.4847602006842209   F   F   F
  0.4989795404194339  0.1651296918207663  0.5104122404759721   F   F   F
  0.8742233539752675  0.9984209211929382  0.4846374986757453   F   F   F
  0.7493511754567308  0.1651223831436184  0.5104064963138271   F   F   F
  0.1241356023322240  0.3318707343171852  0.4845556866037697   F   F   F
  0.9991880371426234  0.4985781482980727  0.5102656253158457   F   F   F
  0.3743145430074932  0.3317880286839738  0.4846202103364305   F   F   F
  0.2492480999454187  0.4985322230520026  0.5102504978255666   F   F   F
  0.6240998025710596  0.3317409733316552  0.4851090675772909   F   F   F
  0.4989961775609686  0.4983742659246317  0.5107299189906698   F   F   F
  0.8741850901193189  0.3318214097968593  0.4844988336199947   F   F   F
  0.7493551785310686  0.4984520903334726  0.5104744928014426   F   F   F
  0.1241034645936168  0.6652032919312560  0.4846097286189348   F   F   F
  0.9991946421286926  0.8319022858468372  0.5103321319337795   F   F   F
  0.3743626544449441  0.6651071775252930  0.4845656740200255   F   F   F
  0.2492737014693347  0.8318563644098802  0.5102419312406212   F   F   F
  0.6240488083803157  0.6649993816697659  0.4849130998107256   F   F   F
  0.4990673119697107  0.8317567039176339  0.5104028466705728   F   F   F
  0.8742559926771207  0.6651664580105816  0.4846490236653977   F   F   F
  0.7491814923335980  0.8317396457930357  0.5103443593841703   F   F   F
  0.5188628131487008  0.4747455860216121  0.7204171220004056   T   T   T
  0.4901240177752371  0.5832346726559834  0.7230653617832203   T   T   T
  0.5537096406425163  0.4674540865506955  0.6860657133643747   T   T   T
 
  0.00000000E+00  0.00000000E+00  0.00000000E+00
  0.00000000E+00  0.00000000E+00  0.00000000E+00
  0.00000000E+00  0.00000000E+00  0.00000000E+00
  0.00000000E+00  0.00000000E+00  0.00000000E+00
  0.00000000E+00  0.00000000E+00  0.00000000E+00
  0.00000000E+00  0.00000000E+00  0.00000000E+00
  0.00000000E+00  0.00000000E+00  0.00000000E+00
  0.00000000E+00  0.00000000E+00  0.00000000E+00
  0.00000000E+00  0.00000000E+00  0.00000000E+00
  0.00000000E+00  0.00000000E+00  0.00000000E+00
  0.00000000E+00  0.00000000E+00  0.00000000E+00
  0.00000000E+00  0.00000000E+00  0.00000000E+00
  0.00000000E+00  0.00000000E+00  0.00000000E+00
  0.00000000E+00  0.00000000E+00  0.00000000E+00
  0.00000000E+00  0.00000000E+00  0.00000000E+00
  0.00000000E+00  0.00000000E+00  0.00000000E+00
  0.00000000E+00  0.00000000E+00  0.00000000E+00
  0.00000000E+00  0.00000000E+00  0.00000000E+00
  0.00000000E+00  0.00000000E+00  0.00000000E+00
  0.00000000E+00  0.00000000E+00  0.00000000E+00
  0.00000000E+00  0.00000000E+00  0.00000000E+00
  0.00000000E+00  0.00000000E+00  0.00000000E+00
  0.00000000E+00  0.00000000E+00  0.00000000E+00
  0.00000000E+00  0.00000000E+00  0.00000000E+00
  0.00000000E+00  0.00000000E+00  0.00000000E+00
  0.00000000E+00  0.00000000E+00  0.00000000E+00
  0.00000000E+00  0.00000000E+00  0.00000000E+00
  0.00000000E+00  0.00000000E+00  0.00000000E+00
  0.00000000E+00  0.00000000E+00  0.00000000E+00
  0.00000000E+00  0.00000000E+00  0.00000000E+00
  0.00000000E+00  0.00000000E+00  0.00000000E+00
  0.00000000E+00  0.00000000E+00  0.00000000E+00
  0.00000000E+00  0.00000000E+00  0.00000000E+00
  0.00000000E+00  0.00000000E+00  0.00000000E+00
  0.00000000E+00  0.00000000E+00  0.00000000E+00
  0.00000000E+00  0.00000000E+00  0.00000000E+00
  0.00000000E+00  0.00000000E+00  0.00000000E+00
  0.00000000E+00  0.00000000E+00  0.00000000E+00
  0.00000000E+00  0.00000000E+00  0.00000000E+00
  0.00000000E+00  0.00000000E+00  0.00000000E+00
  0.00000000E+00  0.00000000E+00  0.00000000E+00
  0.00000000E+00  0.00000000E+00  0.00000000E+00
  0.00000000E+00  0.00000000E+00  0.00000000E+00
  0.00000000E+00  0.00000000E+00  0.00000000E+00
  0.00000000E+00  0.00000000E+00  0.00000000E+00
  0.00000000E+00  0.00000000E+00  0.00000000E+00
  0.00000000E+00  0.00000000E+00  0.00000000E+00
  0.00000000E+00  0.00000000E+00  0.00000000E+00
  0.00000000E+00  0.00000000E+00  0.00000000E+00
  0.00000000E+00  0.00000000E+00  0.00000000E+00
  0.00000000E+00  0.00000000E+00  0.00000000E+00
  0.00000000E+00  0.00000000E+00  0.00000000E+00
  0.00000000E+00  0.00000000E+00  0.00000000E+00
  0.00000000E+00  0.00000000E+00  0.00000000E+00
  0.00000000E+00  0.00000000E+00  0.00000000E+00
  0.00000000E+00  0.00000000E+00  0.00000000E+00
  0.00000000E+00  0.00000000E+00  0.00000000E+00
  0.00000000E+00  0.00000000E+00  0.00000000E+00
  0.00000000E+00  0.00000000E+00  0.00000000E+00
  0.00000000E+00  0.00000000E+00  0.00000000E+00
  0.00000000E+00  0.00000000E+00  0.00000000E+00
  0.00000000E+00  0.00000000E+00  0.00000000E+00
  0.00000000E+00  0.00000000E+00  0.00000000E+00
  0.00000000E+00  0.00000000E+00  0.00000000E+00
  0.00000000E+00  0.00000000E+00  0.00000000E+00
  0.00000000E+00  0.00000000E+00  0.00000000E+00
  0.00000000E+00  0.00000000E+00  0.00000000E+00
  0.00000000E+00  0.00000000E+00  0.00000000E+00
  0.00000000E+00  0.00000000E+00  0.00000000E+00
  0.00000000E+00  0.00000000E+00  0.00000000E+00
  0.00000000E+00  0.00000000E+00  0.00000000E+00
  0.00000000E+00  0.00000000E+00  0.00000000E+00
  0.00000000E+00  0.00000000E+00  0.00000000E+00
  0.00000000E+00  0.00000000E+00  0.00000000E+00
  0.00000000E+00  0.00000000E+00  0.00000000E+00
