G   55   19    1    0.005     # Parameters to Generate KPOINTS (Don't Edit This Line)
     280
Reciprocal lattice
    0.000000000000    0.000000000000    0.000000000000       1
    0.018181818182    0.000000000000    0.000000000000       2
    0.036363636364    0.000000000000    0.000000000000       2
    0.054545454545    0.000000000000    0.000000000000       2
    0.072727272727    0.000000000000    0.000000000000       2
    0.090909090909    0.000000000000    0.000000000000       2
    0.109090909091    0.000000000000    0.000000000000       2
    0.127272727273    0.000000000000    0.000000000000       2
    0.145454545455    0.000000000000    0.000000000000       2
    0.163636363636    0.000000000000    0.000000000000       2
    0.181818181818    0.000000000000    0.000000000000       2
    0.200000000000    0.000000000000    0.000000000000       2
    0.218181818182    0.000000000000    0.000000000000       2
    0.236363636364    0.000000000000    0.000000000000       2
    0.254545454545    0.000000000000    0.000000000000       2
    0.272727272727    0.000000000000    0.000000000000       2
    0.290909090909    0.000000000000    0.000000000000       2
    0.309090909091    0.000000000000    0.000000000000       2
    0.327272727273    0.000000000000    0.000000000000       2
    0.345454545455    0.000000000000    0.000000000000       2
    0.363636363636    0.000000000000    0.000000000000       2
    0.381818181818    0.000000000000    0.000000000000       2
    0.400000000000    0.000000000000    0.000000000000       2
    0.418181818182    0.000000000000    0.000000000000       2
    0.436363636364    0.000000000000    0.000000000000       2
    0.454545454545    0.000000000000    0.000000000000       2
    0.472727272727    0.000000000000    0.000000000000       2
    0.490909090909    0.000000000000    0.000000000000       2
    0.000000000000    0.052631578947    0.000000000000       2
    0.018181818182    0.052631578947    0.000000000000       4
    0.036363636364    0.052631578947    0.000000000000       4
    0.054545454545    0.052631578947    0.000000000000       4
    0.072727272727    0.052631578947    0.000000000000       4
    0.090909090909    0.052631578947    0.000000000000       4
    0.109090909091    0.052631578947    0.000000000000       4
    0.127272727273    0.052631578947    0.000000000000       4
    0.145454545455    0.052631578947    0.000000000000       4
    0.163636363636    0.052631578947    0.000000000000       4
    0.181818181818    0.052631578947    0.000000000000       4
    0.200000000000    0.052631578947    0.000000000000       4
    0.218181818182    0.052631578947    0.000000000000       4
    0.236363636364    0.052631578947    0.000000000000       4
    0.254545454545    0.052631578947    0.000000000000       4
    0.272727272727    0.052631578947    0.000000000000       4
    0.290909090909    0.052631578947    0.000000000000       4
    0.309090909091    0.052631578947    0.000000000000       4
    0.327272727273    0.052631578947    0.000000000000       4
    0.345454545455    0.052631578947    0.000000000000       4
    0.363636363636    0.052631578947    0.000000000000       4
    0.381818181818    0.052631578947    0.000000000000       4
    0.400000000000    0.052631578947    0.000000000000       4
    0.418181818182    0.052631578947    0.000000000000       4
    0.436363636364    0.052631578947    0.000000000000       4
    0.454545454545    0.052631578947    0.000000000000       4
    0.472727272727    0.052631578947    0.000000000000       4
    0.490909090909    0.052631578947    0.000000000000       4
    0.000000000000    0.105263157895    0.000000000000       2
    0.018181818182    0.105263157895    0.000000000000       4
    0.036363636364    0.105263157895    0.000000000000       4
    0.054545454545    0.105263157895    0.000000000000       4
    0.072727272727    0.105263157895    0.000000000000       4
    0.090909090909    0.105263157895    0.000000000000       4
    0.109090909091    0.105263157895    0.000000000000       4
    0.127272727273    0.105263157895    0.000000000000       4
    0.145454545455    0.105263157895    0.000000000000       4
    0.163636363636    0.105263157895    0.000000000000       4
    0.181818181818    0.105263157895    0.000000000000       4
    0.200000000000    0.105263157895    0.000000000000       4
    0.218181818182    0.105263157895    0.000000000000       4
    0.236363636364    0.105263157895    0.000000000000       4
    0.254545454545    0.105263157895    0.000000000000       4
    0.272727272727    0.105263157895    0.000000000000       4
    0.290909090909    0.105263157895    0.000000000000       4
    0.309090909091    0.105263157895    0.000000000000       4
    0.327272727273    0.105263157895    0.000000000000       4
    0.345454545455    0.105263157895    0.000000000000       4
    0.363636363636    0.105263157895    0.000000000000       4
    0.381818181818    0.105263157895    0.000000000000       4
    0.400000000000    0.105263157895    0.000000000000       4
    0.418181818182    0.105263157895    0.000000000000       4
    0.436363636364    0.105263157895    0.000000000000       4
    0.454545454545    0.105263157895    0.000000000000       4
    0.472727272727    0.105263157895    0.000000000000       4
    0.490909090909    0.105263157895    0.000000000000       4
    0.000000000000    0.157894736842    0.000000000000       2
    0.018181818182    0.157894736842    0.000000000000       4
    0.036363636364    0.157894736842    0.000000000000       4
    0.054545454545    0.157894736842    0.000000000000       4
    0.072727272727    0.157894736842    0.000000000000       4
    0.090909090909    0.157894736842    0.000000000000       4
    0.109090909091    0.157894736842    0.000000000000       4
    0.127272727273    0.157894736842    0.000000000000       4
    0.145454545455    0.157894736842    0.000000000000       4
    0.163636363636    0.157894736842    0.000000000000       4
    0.181818181818    0.157894736842    0.000000000000       4
    0.200000000000    0.157894736842    0.000000000000       4
    0.218181818182    0.157894736842    0.000000000000       4
    0.236363636364    0.157894736842    0.000000000000       4
    0.254545454545    0.157894736842    0.000000000000       4
    0.272727272727    0.157894736842    0.000000000000       4
    0.290909090909    0.157894736842    0.000000000000       4
    0.309090909091    0.157894736842    0.000000000000       4
    0.327272727273    0.157894736842    0.000000000000       4
    0.345454545455    0.157894736842    0.000000000000       4
    0.363636363636    0.157894736842    0.000000000000       4
    0.381818181818    0.157894736842    0.000000000000       4
    0.400000000000    0.157894736842    0.000000000000       4
    0.418181818182    0.157894736842    0.000000000000       4
    0.436363636364    0.157894736842    0.000000000000       4
    0.454545454545    0.157894736842    0.000000000000       4
    0.472727272727    0.157894736842    0.000000000000       4
    0.490909090909    0.157894736842    0.000000000000       4
    0.000000000000    0.210526315789    0.000000000000       2
    0.018181818182    0.210526315789    0.000000000000       4
    0.036363636364    0.210526315789    0.000000000000       4
    0.054545454545    0.210526315789    0.000000000000       4
    0.072727272727    0.210526315789    0.000000000000       4
    0.090909090909    0.210526315789    0.000000000000       4
    0.109090909091    0.210526315789    0.000000000000       4
    0.127272727273    0.210526315789    0.000000000000       4
    0.145454545455    0.210526315789    0.000000000000       4
    0.163636363636    0.210526315789    0.000000000000       4
    0.181818181818    0.210526315789    0.000000000000       4
    0.200000000000    0.210526315789    0.000000000000       4
    0.218181818182    0.210526315789    0.000000000000       4
    0.236363636364    0.210526315789    0.000000000000       4
    0.254545454545    0.210526315789    0.000000000000       4
    0.272727272727    0.210526315789    0.000000000000       4
    0.290909090909    0.210526315789    0.000000000000       4
    0.309090909091    0.210526315789    0.000000000000       4
    0.327272727273    0.210526315789    0.000000000000       4
    0.345454545455    0.210526315789    0.000000000000       4
    0.363636363636    0.210526315789    0.000000000000       4
    0.381818181818    0.210526315789    0.000000000000       4
    0.400000000000    0.210526315789    0.000000000000       4
    0.418181818182    0.210526315789    0.000000000000       4
    0.436363636364    0.210526315789    0.000000000000       4
    0.454545454545    0.210526315789    0.000000000000       4
    0.472727272727    0.210526315789    0.000000000000       4
    0.490909090909    0.210526315789    0.000000000000       4
    0.000000000000    0.263157894737    0.000000000000       2
    0.018181818182    0.263157894737    0.000000000000       4
    0.036363636364    0.263157894737    0.000000000000       4
    0.054545454545    0.263157894737    0.000000000000       4
    0.072727272727    0.263157894737    0.000000000000       4
    0.090909090909    0.263157894737    0.000000000000       4
    0.109090909091    0.263157894737    0.000000000000       4
    0.127272727273    0.263157894737    0.000000000000       4
    0.145454545455    0.263157894737    0.000000000000       4
    0.163636363636    0.263157894737    0.000000000000       4
    0.181818181818    0.263157894737    0.000000000000       4
    0.200000000000    0.263157894737    0.000000000000       4
    0.218181818182    0.263157894737    0.000000000000       4
    0.236363636364    0.263157894737    0.000000000000       4
    0.254545454545    0.263157894737    0.000000000000       4
    0.272727272727    0.263157894737    0.000000000000       4
    0.290909090909    0.263157894737    0.000000000000       4
    0.309090909091    0.263157894737    0.000000000000       4
    0.327272727273    0.263157894737    0.000000000000       4
    0.345454545455    0.263157894737    0.000000000000       4
    0.363636363636    0.263157894737    0.000000000000       4
    0.381818181818    0.263157894737    0.000000000000       4
    0.400000000000    0.263157894737    0.000000000000       4
    0.418181818182    0.263157894737    0.000000000000       4
    0.436363636364    0.263157894737    0.000000000000       4
    0.454545454545    0.263157894737    0.000000000000       4
    0.472727272727    0.263157894737    0.000000000000       4
    0.490909090909    0.263157894737    0.000000000000       4
    0.000000000000    0.315789473684    0.000000000000       2
    0.018181818182    0.315789473684    0.000000000000       4
    0.036363636364    0.315789473684    0.000000000000       4
    0.054545454545    0.315789473684    0.000000000000       4
    0.072727272727    0.315789473684    0.000000000000       4
    0.090909090909    0.315789473684    0.000000000000       4
    0.109090909091    0.315789473684    0.000000000000       4
    0.127272727273    0.315789473684    0.000000000000       4
    0.145454545455    0.315789473684    0.000000000000       4
    0.163636363636    0.315789473684    0.000000000000       4
    0.181818181818    0.315789473684    0.000000000000       4
    0.200000000000    0.315789473684    0.000000000000       4
    0.218181818182    0.315789473684    0.000000000000       4
    0.236363636364    0.315789473684    0.000000000000       4
    0.254545454545    0.315789473684    0.000000000000       4
    0.272727272727    0.315789473684    0.000000000000       4
    0.290909090909    0.315789473684    0.000000000000       4
    0.309090909091    0.315789473684    0.000000000000       4
    0.327272727273    0.315789473684    0.000000000000       4
    0.345454545455    0.315789473684    0.000000000000       4
    0.363636363636    0.315789473684    0.000000000000       4
    0.381818181818    0.315789473684    0.000000000000       4
    0.400000000000    0.315789473684    0.000000000000       4
    0.418181818182    0.315789473684    0.000000000000       4
    0.436363636364    0.315789473684    0.000000000000       4
    0.454545454545    0.315789473684    0.000000000000       4
    0.472727272727    0.315789473684    0.000000000000       4
    0.490909090909    0.315789473684    0.000000000000       4
    0.000000000000    0.368421052632    0.000000000000       2
    0.018181818182    0.368421052632    0.000000000000       4
    0.036363636364    0.368421052632    0.000000000000       4
    0.054545454545    0.368421052632    0.000000000000       4
    0.072727272727    0.368421052632    0.000000000000       4
    0.090909090909    0.368421052632    0.000000000000       4
    0.109090909091    0.368421052632    0.000000000000       4
    0.127272727273    0.368421052632    0.000000000000       4
    0.145454545455    0.368421052632    0.000000000000       4
    0.163636363636    0.368421052632    0.000000000000       4
    0.181818181818    0.368421052632    0.000000000000       4
    0.200000000000    0.368421052632    0.000000000000       4
    0.218181818182    0.368421052632    0.000000000000       4
    0.236363636364    0.368421052632    0.000000000000       4
    0.254545454545    0.368421052632    0.000000000000       4
    0.272727272727    0.368421052632    0.000000000000       4
    0.290909090909    0.368421052632    0.000000000000       4
    0.309090909091    0.368421052632    0.000000000000       4
    0.327272727273    0.368421052632    0.000000000000       4
    0.345454545455    0.368421052632    0.000000000000       4
    0.363636363636    0.368421052632    0.000000000000       4
    0.381818181818    0.368421052632    0.000000000000       4
    0.400000000000    0.368421052632    0.000000000000       4
    0.418181818182    0.368421052632    0.000000000000       4
    0.436363636364    0.368421052632    0.000000000000       4
    0.454545454545    0.368421052632    0.000000000000       4
    0.472727272727    0.368421052632    0.000000000000       4
    0.490909090909    0.368421052632    0.000000000000       4
    0.000000000000    0.421052631579    0.000000000000       2
    0.018181818182    0.421052631579    0.000000000000       4
    0.036363636364    0.421052631579    0.000000000000       4
    0.054545454545    0.421052631579    0.000000000000       4
    0.072727272727    0.421052631579    0.000000000000       4
    0.090909090909    0.421052631579    0.000000000000       4
    0.109090909091    0.421052631579    0.000000000000       4
    0.127272727273    0.421052631579    0.000000000000       4
    0.145454545455    0.421052631579    0.000000000000       4
    0.163636363636    0.421052631579    0.000000000000       4
    0.181818181818    0.421052631579    0.000000000000       4
    0.200000000000    0.421052631579    0.000000000000       4
    0.218181818182    0.421052631579    0.000000000000       4
    0.236363636364    0.421052631579    0.000000000000       4
    0.254545454545    0.421052631579    0.000000000000       4
    0.272727272727    0.421052631579    0.000000000000       4
    0.290909090909    0.421052631579    0.000000000000       4
    0.309090909091    0.421052631579    0.000000000000       4
    0.327272727273    0.421052631579    0.000000000000       4
    0.345454545455    0.421052631579    0.000000000000       4
    0.363636363636    0.421052631579    0.000000000000       4
    0.381818181818    0.421052631579    0.000000000000       4
    0.400000000000    0.421052631579    0.000000000000       4
    0.418181818182    0.421052631579    0.000000000000       4
    0.436363636364    0.421052631579    0.000000000000       4
    0.454545454545    0.421052631579    0.000000000000       4
    0.472727272727    0.421052631579    0.000000000000       4
    0.490909090909    0.421052631579    0.000000000000       4
    0.000000000000    0.473684210526    0.000000000000       2
    0.018181818182    0.473684210526    0.000000000000       4
    0.036363636364    0.473684210526    0.000000000000       4
    0.054545454545    0.473684210526    0.000000000000       4
    0.072727272727    0.473684210526    0.000000000000       4
    0.090909090909    0.473684210526    0.000000000000       4
    0.109090909091    0.473684210526    0.000000000000       4
    0.127272727273    0.473684210526    0.000000000000       4
    0.145454545455    0.473684210526    0.000000000000       4
    0.163636363636    0.473684210526    0.000000000000       4
    0.181818181818    0.473684210526    0.000000000000       4
    0.200000000000    0.473684210526    0.000000000000       4
    0.218181818182    0.473684210526    0.000000000000       4
    0.236363636364    0.473684210526    0.000000000000       4
    0.254545454545    0.473684210526    0.000000000000       4
    0.272727272727    0.473684210526    0.000000000000       4
    0.290909090909    0.473684210526    0.000000000000       4
    0.309090909091    0.473684210526    0.000000000000       4
    0.327272727273    0.473684210526    0.000000000000       4
    0.345454545455    0.473684210526    0.000000000000       4
    0.363636363636    0.473684210526    0.000000000000       4
    0.381818181818    0.473684210526    0.000000000000       4
    0.400000000000    0.473684210526    0.000000000000       4
    0.418181818182    0.473684210526    0.000000000000       4
    0.436363636364    0.473684210526    0.000000000000       4
    0.454545454545    0.473684210526    0.000000000000       4
    0.472727272727    0.473684210526    0.000000000000       4
    0.490909090909    0.473684210526    0.000000000000       4
