CONTCAR\(20)                            
   1.00000000000000     
    12.7578001021999992    0.0000000000000000    0.0000000000000000
    -6.3789000510999996   11.0485789849000007    0.0000000000000000
     0.0000000000000000    0.0000000000000000   17.9787006377999994
   Cr   Se
    16    32
Direct
  0.0000000000000000  0.0000000000000000  0.5000000000000000
  0.2500000000000000  0.0000000000000000  0.5000000000000000
  0.5000000000000000  0.0000000000000000  0.5000000000000000
  0.7499999810000020  0.0000000000000000  0.5000000000000000
  0.0000000029999967  0.2500000049999969  0.5000000000000000
  0.2500000029999967  0.2500000049999969  0.5000000000000000
  0.4999999930000030  0.2500000049999969  0.5000000000000000
  0.7499999750000015  0.2500000049999969  0.5000000000000000
  0.0000000049999969  0.5000000100000008  0.5000000000000000
  0.2500000049999969  0.5000000100000008  0.5000000000000000
  0.5000000049999969  0.5000000100000008  0.5000000000000000
  0.7499999679999974  0.5000000100000008  0.5000000000000000
  0.0000000060000005  0.7499999939999995  0.5000000000000000
  0.2500000060000005  0.7499999939999995  0.5000000000000000
  0.5000000060000005  0.7499999939999995  0.5000000000000000
  0.7499999879999990  0.7499999939999995  0.5000000000000000
  0.1666699989999998  0.0833299990000000  0.4114700040000017
  0.0833300010000002  0.1666700010000000  0.5885300229999970
  0.4166699989999998  0.0833299990000000  0.4114700040000017
  0.3333300110000010  0.1666700010000000  0.5885300229999970
  0.6666700549999973  0.0833299990000000  0.4114700040000017
  0.5833299539999999  0.1666700010000000  0.5885300229999970
  0.9166700359999993  0.0833299990000000  0.4114700040000017
  0.8333299729999979  0.1666700010000000  0.5885300229999970
  0.1666699949999995  0.3333300099999974  0.4114700040000017
  0.0833300039999969  0.4166700059999968  0.5885300229999970
  0.4166699949999995  0.3333300099999974  0.4114700040000017
  0.3333300230000020  0.4166700059999968  0.5885300229999970
  0.6666700509999970  0.3333300099999974  0.4114700040000017
  0.5833299849999989  0.4166700059999968  0.5885300229999970
  0.9166699949999995  0.3333300099999974  0.4114700040000017
  0.8333300039999969  0.4166700059999968  0.5885300229999970
  0.1666700039999967  0.5833299720000014  0.4114700040000017
  0.0833299889999992  0.6666700330000026  0.5885300229999970
  0.4166700039999967  0.5833299720000014  0.4114700040000017
  0.3333300079999972  0.6666700330000026  0.5885300229999970
  0.6666700600000013  0.5833299720000014  0.4114700040000017
  0.5833299519999997  0.6666700330000026  0.5885300229999970
  0.9166700039999967  0.5833299720000014  0.4114700040000017
  0.8333299709999977  0.6666700330000026  0.5885300229999970
  0.1666700079999970  0.8333299990000000  0.4114700040000017
  0.0833300090000009  0.9166700159999976  0.5885300229999970
  0.4166700079999970  0.8333299990000000  0.4114700040000017
  0.3333300279999989  0.9166700159999976  0.5885300229999970
  0.6666700640000016  0.8333299990000000  0.4114700040000017
  0.5833299720000014  0.9166700159999976  0.5885300229999970
  0.9166700079999970  0.8333299990000000  0.4114700040000017
  0.8333299900000029  0.9166700159999976  0.5885300229999970
 
  0.00000000E+00  0.00000000E+00  0.00000000E+00
  0.00000000E+00  0.00000000E+00  0.00000000E+00
  0.00000000E+00  0.00000000E+00  0.00000000E+00
  0.00000000E+00  0.00000000E+00  0.00000000E+00
  0.00000000E+00  0.00000000E+00  0.00000000E+00
  0.00000000E+00  0.00000000E+00  0.00000000E+00
  0.00000000E+00  0.00000000E+00  0.00000000E+00
  0.00000000E+00  0.00000000E+00  0.00000000E+00
  0.00000000E+00  0.00000000E+00  0.00000000E+00
  0.00000000E+00  0.00000000E+00  0.00000000E+00
  0.00000000E+00  0.00000000E+00  0.00000000E+00
  0.00000000E+00  0.00000000E+00  0.00000000E+00
  0.00000000E+00  0.00000000E+00  0.00000000E+00
  0.00000000E+00  0.00000000E+00  0.00000000E+00
  0.00000000E+00  0.00000000E+00  0.00000000E+00
  0.00000000E+00  0.00000000E+00  0.00000000E+00
  0.00000000E+00  0.00000000E+00  0.00000000E+00
  0.00000000E+00  0.00000000E+00  0.00000000E+00
  0.00000000E+00  0.00000000E+00  0.00000000E+00
  0.00000000E+00  0.00000000E+00  0.00000000E+00
  0.00000000E+00  0.00000000E+00  0.00000000E+00
  0.00000000E+00  0.00000000E+00  0.00000000E+00
  0.00000000E+00  0.00000000E+00  0.00000000E+00
  0.00000000E+00  0.00000000E+00  0.00000000E+00
  0.00000000E+00  0.00000000E+00  0.00000000E+00
  0.00000000E+00  0.00000000E+00  0.00000000E+00
  0.00000000E+00  0.00000000E+00  0.00000000E+00
  0.00000000E+00  0.00000000E+00  0.00000000E+00
  0.00000000E+00  0.00000000E+00  0.00000000E+00
  0.00000000E+00  0.00000000E+00  0.00000000E+00
  0.00000000E+00  0.00000000E+00  0.00000000E+00
  0.00000000E+00  0.00000000E+00  0.00000000E+00
  0.00000000E+00  0.00000000E+00  0.00000000E+00
  0.00000000E+00  0.00000000E+00  0.00000000E+00
  0.00000000E+00  0.00000000E+00  0.00000000E+00
  0.00000000E+00  0.00000000E+00  0.00000000E+00
  0.00000000E+00  0.00000000E+00  0.00000000E+00
  0.00000000E+00  0.00000000E+00  0.00000000E+00
  0.00000000E+00  0.00000000E+00  0.00000000E+00
  0.00000000E+00  0.00000000E+00  0.00000000E+00
  0.00000000E+00  0.00000000E+00  0.00000000E+00
  0.00000000E+00  0.00000000E+00  0.00000000E+00
  0.00000000E+00  0.00000000E+00  0.00000000E+00
  0.00000000E+00  0.00000000E+00  0.00000000E+00
  0.00000000E+00  0.00000000E+00  0.00000000E+00
  0.00000000E+00  0.00000000E+00  0.00000000E+00
  0.00000000E+00  0.00000000E+00  0.00000000E+00
  0.00000000E+00  0.00000000E+00  0.00000000E+00
