CONTCAR\(3)                             
   1.00000000000000     
    13.5844001769999991    0.0000000000000000    0.0000000000000000
    -6.7922094263000004   11.7645458840000003    0.0000000000000000
     0.0000000000000000    0.0000000000000000   17.8367004394999995
   Ti   S    O 
    16    32     1
Direct
  0.0027512356328214  0.0006563583919802  0.5029238432979920
  0.2498880591137732  0.9952629444422202  0.5022454785228557
  0.4995849828948017  0.0055510482492009  0.5052873321118767
  0.7530832121985135  0.9969167878014865  0.5064251344726072
  0.9815403179514199  0.2439049239975192  0.4920719206931458
  0.2553446148716614  0.2464575347644353  0.4996884021640483
  0.4994336800032473  0.2505663029967549  0.5012535818555774
  0.7444489437507983  0.2504150081052011  0.5052873321118767
  0.0024604039948565  0.5015274061802686  0.4999644301642977
  0.2525660169312706  0.4974339470687335  0.4891976916119143
  0.5035424392355695  0.4946553581283399  0.4996884021640483
  0.7547370385577820  0.5001119218862287  0.5022454785228557
  0.9993444109855605  0.7506555360144387  0.5022135626139652
  0.2484725498197349  0.7475395510051431  0.4999644301642977
  0.5060950420024850  0.7684596460485771  0.4920719206931458
  0.7493436166080212  0.7472487363671765  0.5029238432979920
  0.0864906947884410  0.1700695955897537  0.4252692449639017
  0.1679318202258779  0.0846745902698696  0.5821317668335836
  0.3368176882996502  0.1650497126853182  0.4207538621207844
  0.4150000954221782  0.0812157891227703  0.5841298977069679
  0.5855208732985324  0.1644790617014656  0.4218449454624605
  0.6658922333466364  0.0841077626533630  0.5834781847667778
  0.8258045177830325  0.1620042568910929  0.4187283998158173
  0.9192972876722900  0.0891011124286886  0.5814156413598863
  0.0803546171887777  0.4128491906889435  0.4181569293423182
  0.1930724355075725  0.3490515587431046  0.5887843630008983
  0.3362094479286146  0.4137905380713914  0.4167247922244809
  0.4207028334643025  0.3292971275356978  0.5825857880856955
  0.5849502543146825  0.4131822827003581  0.4207538621207844
  0.6687841988772287  0.3349998915778243  0.5841298977069679
  0.8312753432565696  0.4161189673661454  0.4214161225410228
  0.9203577831941702  0.3319998655279074  0.5797518792114610
  0.0832431424571789  0.6667568685428257  0.4198978744759930
  0.1691942238513688  0.5808056761486301  0.5769031807257621
  0.3371507893110619  0.6696453998112271  0.4181569293423182
  0.4009483912568984  0.5569274754924239  0.5887843630008983
  0.5799303484102415  0.6635093162115633  0.4252692449639017
  0.6653254037301297  0.5820681167741203  0.5821317668335836
  0.8334624291615054  0.6674347023106637  0.4218261481035977
  0.9186140387467934  0.5826186969110426  0.5820991426924581
  0.0825653006893399  0.9165375378384883  0.4218261481035977
  0.1673811950889556  0.8313858512532046  0.5820991426924581
  0.3338810046338594  0.9187246467434296  0.4214161225410228
  0.4180000764720949  0.8296421358058267  0.5797518792114610
  0.5879956781089051  0.9241954752169633  0.4187283998158173
  0.6608988735713103  0.8307026393277075  0.5814156413598863
  0.8331772062627695  0.9168227517372270  0.4234101650183305
  0.9171201594052989  0.8328797575946978  0.5829641295389248
  0.3032421987214398  0.4467577492785559  0.6443213418536896
 
  0.00000000E+00  0.00000000E+00  0.00000000E+00
  0.00000000E+00  0.00000000E+00  0.00000000E+00
  0.00000000E+00  0.00000000E+00  0.00000000E+00
  0.00000000E+00  0.00000000E+00  0.00000000E+00
  0.00000000E+00  0.00000000E+00  0.00000000E+00
  0.00000000E+00  0.00000000E+00  0.00000000E+00
  0.00000000E+00  0.00000000E+00  0.00000000E+00
  0.00000000E+00  0.00000000E+00  0.00000000E+00
  0.00000000E+00  0.00000000E+00  0.00000000E+00
  0.00000000E+00  0.00000000E+00  0.00000000E+00
  0.00000000E+00  0.00000000E+00  0.00000000E+00
  0.00000000E+00  0.00000000E+00  0.00000000E+00
  0.00000000E+00  0.00000000E+00  0.00000000E+00
  0.00000000E+00  0.00000000E+00  0.00000000E+00
  0.00000000E+00  0.00000000E+00  0.00000000E+00
  0.00000000E+00  0.00000000E+00  0.00000000E+00
  0.00000000E+00  0.00000000E+00  0.00000000E+00
  0.00000000E+00  0.00000000E+00  0.00000000E+00
  0.00000000E+00  0.00000000E+00  0.00000000E+00
  0.00000000E+00  0.00000000E+00  0.00000000E+00
  0.00000000E+00  0.00000000E+00  0.00000000E+00
  0.00000000E+00  0.00000000E+00  0.00000000E+00
  0.00000000E+00  0.00000000E+00  0.00000000E+00
  0.00000000E+00  0.00000000E+00  0.00000000E+00
  0.00000000E+00  0.00000000E+00  0.00000000E+00
  0.00000000E+00  0.00000000E+00  0.00000000E+00
  0.00000000E+00  0.00000000E+00  0.00000000E+00
  0.00000000E+00  0.00000000E+00  0.00000000E+00
  0.00000000E+00  0.00000000E+00  0.00000000E+00
  0.00000000E+00  0.00000000E+00  0.00000000E+00
  0.00000000E+00  0.00000000E+00  0.00000000E+00
  0.00000000E+00  0.00000000E+00  0.00000000E+00
  0.00000000E+00  0.00000000E+00  0.00000000E+00
  0.00000000E+00  0.00000000E+00  0.00000000E+00
  0.00000000E+00  0.00000000E+00  0.00000000E+00
  0.00000000E+00  0.00000000E+00  0.00000000E+00
  0.00000000E+00  0.00000000E+00  0.00000000E+00
  0.00000000E+00  0.00000000E+00  0.00000000E+00
  0.00000000E+00  0.00000000E+00  0.00000000E+00
  0.00000000E+00  0.00000000E+00  0.00000000E+00
  0.00000000E+00  0.00000000E+00  0.00000000E+00
  0.00000000E+00  0.00000000E+00  0.00000000E+00
  0.00000000E+00  0.00000000E+00  0.00000000E+00
  0.00000000E+00  0.00000000E+00  0.00000000E+00
  0.00000000E+00  0.00000000E+00  0.00000000E+00
  0.00000000E+00  0.00000000E+00  0.00000000E+00
  0.00000000E+00  0.00000000E+00  0.00000000E+00
  0.00000000E+00  0.00000000E+00  0.00000000E+00
  0.00000000E+00  0.00000000E+00  0.00000000E+00
