CONTCAR\(3)                             
   1.00000000000000     
    12.5569000244000009    0.0000000000000000    0.0000000000000000
     0.0000000000000000   12.5685997009000001    0.0000000000000000
     0.0000000000000000    0.0000000000000000   19.2248001098999985
   Cu   Ag   Te
    12    12    24
Direct
  0.1250000000000000  0.0000000000000000  0.5299029791721424
  0.3750000000000000  0.0000000000000000  0.5299029791721424
  0.6250000000000000  0.0000000000000000  0.5299029791721424
  0.8750000000000000  0.0000000000000000  0.5299029791721424
  0.1250000000000000  0.3333299949999997  0.5299029791721424
  0.3750000000000000  0.3333299949999997  0.5299029791721424
  0.6250000000000000  0.3333299949999997  0.5299029791721424
  0.8750000000000000  0.3333299949999997  0.5299029791721424
  0.1250000000000000  0.6666700050000003  0.5299029791721424
  0.3750000000000000  0.6666700050000003  0.5299029791721424
  0.6250000000000000  0.6666700050000003  0.5299029791721424
  0.8750000000000000  0.6666700050000003  0.5299029791721424
  0.0000000000000000  0.1666699860000023  0.4790721042211388
  0.2500000000000000  0.1666699860000023  0.4790721042211388
  0.5000000000000000  0.1666699860000023  0.4790721042211388
  0.7500000000000000  0.1666699860000023  0.4790721042211388
  0.0000000000000000  0.5000000000000000  0.4790721042211388
  0.2500000000000000  0.5000000000000000  0.4790721042211388
  0.5000000000000000  0.5000000000000000  0.4790721042211388
  0.7500000000000000  0.5000000000000000  0.4790721042211388
  0.0000000000000000  0.8333299949999997  0.4790721042211388
  0.2500000000000000  0.8333299949999997  0.4790721042211388
  0.5000000000000000  0.8333299949999997  0.4790721042211388
  0.7500000000000000  0.8333299949999997  0.4790721042211388
  0.0000000000000000  0.0000000000000000  0.3884008061503295
  0.1250000000000000  0.1666699860000023  0.6099440394563871
  0.2500000000000000  0.0000000000000000  0.3884008061503295
  0.3750000000000000  0.1666699860000023  0.6099440394563871
  0.5000000000000000  0.0000000000000000  0.3884008061503295
  0.6250000000000000  0.1666699860000023  0.6099440394563871
  0.7500000000000000  0.0000000000000000  0.3884008061503295
  0.8750000000000000  0.1666699860000023  0.6099440394563871
  0.0000000000000000  0.3333299949999997  0.3884008061503295
  0.1250000000000000  0.5000000000000000  0.6099440394563871
  0.2500000000000000  0.3333299949999997  0.3884008061503295
  0.3750000000000000  0.5000000000000000  0.6099440394563871
  0.5000000000000000  0.3333299949999997  0.3884008061503295
  0.6250000000000000  0.5000000000000000  0.6099440394563871
  0.7500000000000000  0.3333299949999997  0.3884008061503295
  0.8750000000000000  0.5000000000000000  0.6099440394563871
  0.0000000000000000  0.6666700050000003  0.3884008061503295
  0.1250000000000000  0.8333299949999997  0.6099440394563871
  0.2500000000000000  0.6666700050000003  0.3884008061503295
  0.3750000000000000  0.8333299949999997  0.6099440394563871
  0.5000000000000000  0.6666700050000003  0.3884008061503295
  0.6250000000000000  0.8333299949999997  0.6099440394563871
  0.7500000000000000  0.6666700050000003  0.3884008061503295
  0.8750000000000000  0.8333299949999997  0.6099440394563871
 
  0.00000000E+00  0.00000000E+00  0.00000000E+00
  0.00000000E+00  0.00000000E+00  0.00000000E+00
  0.00000000E+00  0.00000000E+00  0.00000000E+00
  0.00000000E+00  0.00000000E+00  0.00000000E+00
  0.00000000E+00  0.00000000E+00  0.00000000E+00
  0.00000000E+00  0.00000000E+00  0.00000000E+00
  0.00000000E+00  0.00000000E+00  0.00000000E+00
  0.00000000E+00  0.00000000E+00  0.00000000E+00
  0.00000000E+00  0.00000000E+00  0.00000000E+00
  0.00000000E+00  0.00000000E+00  0.00000000E+00
  0.00000000E+00  0.00000000E+00  0.00000000E+00
  0.00000000E+00  0.00000000E+00  0.00000000E+00
  0.00000000E+00  0.00000000E+00  0.00000000E+00
  0.00000000E+00  0.00000000E+00  0.00000000E+00
  0.00000000E+00  0.00000000E+00  0.00000000E+00
  0.00000000E+00  0.00000000E+00  0.00000000E+00
  0.00000000E+00  0.00000000E+00  0.00000000E+00
  0.00000000E+00  0.00000000E+00  0.00000000E+00
  0.00000000E+00  0.00000000E+00  0.00000000E+00
  0.00000000E+00  0.00000000E+00  0.00000000E+00
  0.00000000E+00  0.00000000E+00  0.00000000E+00
  0.00000000E+00  0.00000000E+00  0.00000000E+00
  0.00000000E+00  0.00000000E+00  0.00000000E+00
  0.00000000E+00  0.00000000E+00  0.00000000E+00
  0.00000000E+00  0.00000000E+00  0.00000000E+00
  0.00000000E+00  0.00000000E+00  0.00000000E+00
  0.00000000E+00  0.00000000E+00  0.00000000E+00
  0.00000000E+00  0.00000000E+00  0.00000000E+00
  0.00000000E+00  0.00000000E+00  0.00000000E+00
  0.00000000E+00  0.00000000E+00  0.00000000E+00
  0.00000000E+00  0.00000000E+00  0.00000000E+00
  0.00000000E+00  0.00000000E+00  0.00000000E+00
  0.00000000E+00  0.00000000E+00  0.00000000E+00
  0.00000000E+00  0.00000000E+00  0.00000000E+00
  0.00000000E+00  0.00000000E+00  0.00000000E+00
  0.00000000E+00  0.00000000E+00  0.00000000E+00
  0.00000000E+00  0.00000000E+00  0.00000000E+00
  0.00000000E+00  0.00000000E+00  0.00000000E+00
  0.00000000E+00  0.00000000E+00  0.00000000E+00
  0.00000000E+00  0.00000000E+00  0.00000000E+00
  0.00000000E+00  0.00000000E+00  0.00000000E+00
  0.00000000E+00  0.00000000E+00  0.00000000E+00
  0.00000000E+00  0.00000000E+00  0.00000000E+00
  0.00000000E+00  0.00000000E+00  0.00000000E+00
  0.00000000E+00  0.00000000E+00  0.00000000E+00
  0.00000000E+00  0.00000000E+00  0.00000000E+00
  0.00000000E+00  0.00000000E+00  0.00000000E+00
  0.00000000E+00  0.00000000E+00  0.00000000E+00
