CONTCAR\(6)                             
   1.00000000000000     
    14.0796003342000002    0.0000000000000000    0.0000000000000000
    -7.0398001671000001   12.1932915645000008    0.0000000000000000
     0.0000000000000000    0.0000000000000000   18.0872001647999987
   Ti   Se   O    H 
    16    32     2     1
Direct
  0.9956553668587489  0.9997327090822381  0.4974923451552726
  0.2510106736200939  0.0021366944366292  0.4975614561454407
  0.4957757734298553  0.9996722970079617  0.4975649409185792
  0.7508265417302269  0.0018654288657487  0.4975506620337669
  0.0059062263328897  0.2548153674241007  0.4977894602159978
  0.2510308515628878  0.2471721186154383  0.4977926358780778
  0.5059236360729926  0.2549599680368573  0.4979293123073205
  0.7507389276567622  0.2469714029049754  0.4976526371827390
  0.9956872364330138  0.4997164864860295  0.4977949854514634
  0.2511242986492377  0.5019022094304191  0.4978857280428599
  0.4960706681185343  0.4997847054398861  0.4984260938579013
  0.7507987015905400  0.5021938173172771  0.4979375743578345
  0.0057839452078596  0.7548116335658364  0.4977277562372251
  0.2508264275281391  0.7468850864517975  0.4977091715822581
  0.5058102384985901  0.7544587845939290  0.4978715411144350
  0.7506189273598523  0.7465797729038215  0.4978258478531217
  0.0842979701991311  0.1680902177214421  0.4114045636550117
  0.1695621746044580  0.0854544998616902  0.5840473812975873
  0.3324168752923669  0.1672101513902859  0.4111321976284756
  0.4174753432724430  0.0826280421301817  0.5841657103067774
  0.5842140002456517  0.1681076566878872  0.4114266133979996
  0.6696236513771012  0.0854419902697359  0.5840430796359399
  0.8323601521748429  0.1671243893455454  0.4111360298817175
  0.9174191429937792  0.0826629045624259  0.5841065817425104
  0.0843226987530201  0.4162472369021799  0.4113536813631882
  0.1661525049306647  0.3338886683672513  0.5842672307215437
  0.3360161721431538  0.4192278657199182  0.4114219455238484
  0.4176502254577201  0.3345152855505447  0.5841297580532583
  0.5842608959109299  0.4163184513162221  0.4114355084562789
  0.6661485916312202  0.3338826133566499  0.5842737300776761
  0.8356622772962226  0.4190686482907395  0.4112478996137696
  0.9177227944770365  0.3347120342589065  0.5840608487806449
  0.0841460224697030  0.6678925822597961  0.4114733106158823
  0.1696894109861589  0.5856269478741467  0.5841922925763114
  0.3322852112187888  0.6669210316741427  0.4112204681386729
  0.4175603276875819  0.5829706024749726  0.5843626571047622
  0.5841256345648418  0.6677726434527145  0.4115436871533475
  0.6697395477107690  0.5856203901944781  0.5842808594475812
  0.8322878623339847  0.6669723613735670  0.4111519264098789
  0.9175319561153472  0.5828518103030973  0.5842865109070488
  0.0842701670105868  0.9162109376770147  0.4111528652234142
  0.1661531937620140  0.8340666704279158  0.5840130582098766
  0.3356654658253788  0.9189155060297125  0.4110597471219819
  0.4177760909390287  0.8348463136232596  0.5839848728146393
  0.5841521426259177  0.9159967188853813  0.4112530982094569
  0.6661891693644932  0.8339825408360468  0.5841915722065778
  0.8354988056923602  0.9187402274381569  0.4110223772172290
  0.9177849077180724  0.8348396472692130  0.5839554176270028
  0.5225038859521476  0.5055530704107341  0.7963411002301228
  0.4781401629599245  0.4863793369995975  0.7277520681426353
  0.4587365216529307  0.4725420265015430  0.8302563311730609
 
  0.00000000E+00  0.00000000E+00  0.00000000E+00
  0.00000000E+00  0.00000000E+00  0.00000000E+00
  0.00000000E+00  0.00000000E+00  0.00000000E+00
  0.00000000E+00  0.00000000E+00  0.00000000E+00
  0.00000000E+00  0.00000000E+00  0.00000000E+00
  0.00000000E+00  0.00000000E+00  0.00000000E+00
  0.00000000E+00  0.00000000E+00  0.00000000E+00
  0.00000000E+00  0.00000000E+00  0.00000000E+00
  0.00000000E+00  0.00000000E+00  0.00000000E+00
  0.00000000E+00  0.00000000E+00  0.00000000E+00
  0.00000000E+00  0.00000000E+00  0.00000000E+00
  0.00000000E+00  0.00000000E+00  0.00000000E+00
  0.00000000E+00  0.00000000E+00  0.00000000E+00
  0.00000000E+00  0.00000000E+00  0.00000000E+00
  0.00000000E+00  0.00000000E+00  0.00000000E+00
  0.00000000E+00  0.00000000E+00  0.00000000E+00
  0.00000000E+00  0.00000000E+00  0.00000000E+00
  0.00000000E+00  0.00000000E+00  0.00000000E+00
  0.00000000E+00  0.00000000E+00  0.00000000E+00
  0.00000000E+00  0.00000000E+00  0.00000000E+00
  0.00000000E+00  0.00000000E+00  0.00000000E+00
  0.00000000E+00  0.00000000E+00  0.00000000E+00
  0.00000000E+00  0.00000000E+00  0.00000000E+00
  0.00000000E+00  0.00000000E+00  0.00000000E+00
  0.00000000E+00  0.00000000E+00  0.00000000E+00
  0.00000000E+00  0.00000000E+00  0.00000000E+00
  0.00000000E+00  0.00000000E+00  0.00000000E+00
  0.00000000E+00  0.00000000E+00  0.00000000E+00
  0.00000000E+00  0.00000000E+00  0.00000000E+00
  0.00000000E+00  0.00000000E+00  0.00000000E+00
  0.00000000E+00  0.00000000E+00  0.00000000E+00
  0.00000000E+00  0.00000000E+00  0.00000000E+00
  0.00000000E+00  0.00000000E+00  0.00000000E+00
  0.00000000E+00  0.00000000E+00  0.00000000E+00
  0.00000000E+00  0.00000000E+00  0.00000000E+00
  0.00000000E+00  0.00000000E+00  0.00000000E+00
  0.00000000E+00  0.00000000E+00  0.00000000E+00
  0.00000000E+00  0.00000000E+00  0.00000000E+00
  0.00000000E+00  0.00000000E+00  0.00000000E+00
  0.00000000E+00  0.00000000E+00  0.00000000E+00
  0.00000000E+00  0.00000000E+00  0.00000000E+00
  0.00000000E+00  0.00000000E+00  0.00000000E+00
  0.00000000E+00  0.00000000E+00  0.00000000E+00
  0.00000000E+00  0.00000000E+00  0.00000000E+00
  0.00000000E+00  0.00000000E+00  0.00000000E+00
  0.00000000E+00  0.00000000E+00  0.00000000E+00
  0.00000000E+00  0.00000000E+00  0.00000000E+00
  0.00000000E+00  0.00000000E+00  0.00000000E+00
  0.00000000E+00  0.00000000E+00  0.00000000E+00
  0.00000000E+00  0.00000000E+00  0.00000000E+00
  0.00000000E+00  0.00000000E+00  0.00000000E+00
