CONTCAR\(11)                            
   1.00000000000000     
    13.2923002242999999    0.0000000000000000    0.0000000000000000
     6.5701190447000002   11.5675693128999999    0.0000000000000000
     0.0000000000000000    0.0000000000000000   18.3850994109999988
   Nb   Ir   S    O    H 
    12     4    32     2     1
Direct
  0.2409097381940543  0.0230278075751293  0.5038266894543667
  0.4816740514351496  0.0005793737523062  0.5058378158783049
  0.4877164876693200  0.2375489251215469  0.5031480590363414
  0.7645243061118112  0.0141200966616573  0.5072551225973190
  0.0007267862251354  0.0227595240943158  0.5050382057999770
  0.9794623676940214  0.2630691285241690  0.5061589175925107
  0.2614924958518200  0.5164066427571583  0.5040531399045031
  0.4954533520805693  0.5241637350579883  0.5061986020052625
  0.4784774447620110  0.7618946859193290  0.5063587215022787
  0.7364420543173821  0.5239851946737407  0.5024687633547681
  0.9837249366668899  0.5010703537163427  0.5052556156760984
  0.9907280711052311  0.7364821276201180  0.5034713832515637
  0.2718847837492538  0.2297706022808536  0.5029159802314588
  0.7716928429757640  0.2317644068726523  0.5075102431698677
  0.2703145779764609  0.7337675259326016  0.5072673281352340
  0.7719065466035906  0.7291477131276884  0.5028998252005473
  0.3381385909909322  0.0792184575520272  0.4112712940925840
  0.0788338098175649  0.0983949293350926  0.4162714851537278
  0.0968285871973548  0.3257891553539329  0.4303470996892503
  0.3297185051733891  0.3342352213625683  0.4212998975228595
  0.1638976775605299  0.1800387259784113  0.5871329153367802
  0.4194607520981322  0.1596876274478879  0.5963050371245319
  0.4249698666200052  0.4181465745444894  0.5803594741408875
  0.1768455312877293  0.4071011256387477  0.5713789191050060
  0.8418359437360498  0.0836805056852314  0.4147979083895081
  0.5854431785081088  0.0817255037254006  0.4238207862633503
  0.5933535624279608  0.3281560341033031  0.4393455238094941
  0.8223884926123541  0.3382054375379075  0.4226369373129096
  0.6677590307698019  0.1719612874666220  0.5883666037384265
  0.9221524720871520  0.1669192829376674  0.5991761805998310
  0.9053510575037460  0.4253104641157892  0.5931255658077200
  0.6783168394494599  0.4079088636279093  0.5785325578804906
  0.3414015470032984  0.5880058979635928  0.4130404350079680
  0.0853701678810218  0.5821795352071085  0.4215570606901621
  0.0939081506796419  0.8286816398390511  0.4377215398101323
  0.3220770890151327  0.8397136325003886  0.4227110867901553
  0.1682883994747404  0.6720990005808593  0.5881877893969628
  0.4193692596896564  0.6690464823012580  0.5997614338813646
  0.4039469124909644  0.9240485532238104  0.5943475318088275
  0.1751180049601754  0.9083354859118307  0.5800004872615059
  0.8389988567680982  0.5779741722368142  0.4115603333707604
  0.5783797453909220  0.5999834462683044  0.4160639769780815
  0.5960226130331772  0.8269399321205936  0.4308538545361537
  0.8306503111988810  0.8348150129147446  0.4231103508395808
  0.6636546982269881  0.6788607645240020  0.5868995068683341
  0.9203603321667044  0.6595636475202983  0.5958421651654789
  0.9215587889708114  0.9170654864323873  0.5861523731794576
  0.6763911138874560  0.9059845665861930  0.5725488119564133
  0.4361915066001277  0.4187442485206588  0.6752792803377082
  0.3489235192224489  0.4008123314579354  0.7104516347618078
  0.3877832730810273  0.3157199507895886  0.7127378286014024
 
  0.00000000E+00  0.00000000E+00  0.00000000E+00
  0.00000000E+00  0.00000000E+00  0.00000000E+00
  0.00000000E+00  0.00000000E+00  0.00000000E+00
  0.00000000E+00  0.00000000E+00  0.00000000E+00
  0.00000000E+00  0.00000000E+00  0.00000000E+00
  0.00000000E+00  0.00000000E+00  0.00000000E+00
  0.00000000E+00  0.00000000E+00  0.00000000E+00
  0.00000000E+00  0.00000000E+00  0.00000000E+00
  0.00000000E+00  0.00000000E+00  0.00000000E+00
  0.00000000E+00  0.00000000E+00  0.00000000E+00
  0.00000000E+00  0.00000000E+00  0.00000000E+00
  0.00000000E+00  0.00000000E+00  0.00000000E+00
  0.00000000E+00  0.00000000E+00  0.00000000E+00
  0.00000000E+00  0.00000000E+00  0.00000000E+00
  0.00000000E+00  0.00000000E+00  0.00000000E+00
  0.00000000E+00  0.00000000E+00  0.00000000E+00
  0.00000000E+00  0.00000000E+00  0.00000000E+00
  0.00000000E+00  0.00000000E+00  0.00000000E+00
  0.00000000E+00  0.00000000E+00  0.00000000E+00
  0.00000000E+00  0.00000000E+00  0.00000000E+00
  0.00000000E+00  0.00000000E+00  0.00000000E+00
  0.00000000E+00  0.00000000E+00  0.00000000E+00
  0.00000000E+00  0.00000000E+00  0.00000000E+00
  0.00000000E+00  0.00000000E+00  0.00000000E+00
  0.00000000E+00  0.00000000E+00  0.00000000E+00
  0.00000000E+00  0.00000000E+00  0.00000000E+00
  0.00000000E+00  0.00000000E+00  0.00000000E+00
  0.00000000E+00  0.00000000E+00  0.00000000E+00
  0.00000000E+00  0.00000000E+00  0.00000000E+00
  0.00000000E+00  0.00000000E+00  0.00000000E+00
  0.00000000E+00  0.00000000E+00  0.00000000E+00
  0.00000000E+00  0.00000000E+00  0.00000000E+00
  0.00000000E+00  0.00000000E+00  0.00000000E+00
  0.00000000E+00  0.00000000E+00  0.00000000E+00
  0.00000000E+00  0.00000000E+00  0.00000000E+00
  0.00000000E+00  0.00000000E+00  0.00000000E+00
  0.00000000E+00  0.00000000E+00  0.00000000E+00
  0.00000000E+00  0.00000000E+00  0.00000000E+00
  0.00000000E+00  0.00000000E+00  0.00000000E+00
  0.00000000E+00  0.00000000E+00  0.00000000E+00
  0.00000000E+00  0.00000000E+00  0.00000000E+00
  0.00000000E+00  0.00000000E+00  0.00000000E+00
  0.00000000E+00  0.00000000E+00  0.00000000E+00
  0.00000000E+00  0.00000000E+00  0.00000000E+00
  0.00000000E+00  0.00000000E+00  0.00000000E+00
  0.00000000E+00  0.00000000E+00  0.00000000E+00
  0.00000000E+00  0.00000000E+00  0.00000000E+00
  0.00000000E+00  0.00000000E+00  0.00000000E+00
  0.00000000E+00  0.00000000E+00  0.00000000E+00
  0.00000000E+00  0.00000000E+00  0.00000000E+00
  0.00000000E+00  0.00000000E+00  0.00000000E+00
