CONTCAR\(12)                            
   1.00000000000000     
    10.9576997757000001    0.0000000000000000    0.0000000000000000
     0.0000000000000000   18.6480007171999986    0.0000000000000000
     0.0000000000000000    0.0000000000000000   19.2721004485999998
   Ta   Te   Pd   O 
    12    30    18     1
Direct
 -0.0000221586161428  0.9192401613144409  0.4908001398105555
  0.1678561875227254  0.4155547045491125  0.5036197514375356
  0.0000650877201442  0.1673167008377671  0.4919359472630187
  0.1651289959417286  0.6697675208232803  0.5087867275523158
  0.3322078214639989  0.9174585345129711  0.4981475759749492
  0.5000570173071357  0.4089289428075674  0.5026624757366380
  0.3330073187514977  0.1668517661655656  0.4933752712401722
  0.5000732802984654  0.6692291076143689  0.5265363324558794
  0.6677401604261705  0.9174622794459624  0.4981404350867047
  0.8321412046791521  0.4154814995367562  0.5036695879568610
  0.6670804851301037  0.1668622049020382  0.4933973090216370
  0.8346723847662261  0.6698277199085969  0.5088412252039993
 -0.0000048176435251  0.7165028137902554  0.6133716595125576
  0.1685480458713222  0.8636123481074642  0.3930840341680725
  0.1660656938454920  0.2196742691668629  0.3897993296935933
  0.0000635468433402  0.3614748676646206  0.6056489642130112
 -0.0000668042207631  0.6414535576431439  0.3960519298168745
  0.1664629820197104  0.1442511726707243  0.6054710413149569
  0.1715296638368889  0.5402802186851786  0.5895333121904341
  0.0000515078026652  0.0433957929285838  0.4071593708994084
  0.0000380332122087  0.4412900890242524  0.3927496795747222
  0.1631338489992111  0.9432817990553719  0.6069424041864732
  0.3159559915992516  0.7386067574034675  0.6124385425647422
  0.5000129355271201  0.8598532790307125  0.3979317955593714
  0.5001003824759440  0.2190610043544076  0.3900147941935585
  0.3298086849315843  0.3554265036399222  0.6053281225269399
  0.3371396486850730  0.6444622472066367  0.4028918385598546
  0.5000836208149325  0.1430048423446138  0.6059815934569349
  0.4999777320222020  0.5081057140265065  0.6045629201426208
  0.3343949186238269  0.0408564272717134  0.4110387017455294
  0.3337861119110252  0.4414297380765222  0.3943367884964341
  0.4999583298607338  0.9432474146794348  0.6100674843116893
  0.6840903608182816  0.7386650931243695  0.6125356757236955
  0.8313479930077065  0.8636376808302362  0.3930651828445972
  0.8339697924205457  0.2196649565923537  0.3898467405135014
  0.6702613139393335  0.3553268763466400  0.6053629025048123
  0.6628177378590135  0.6444324498903673  0.4028490104320513
  0.8339004691836031  0.1441300188897104  0.6054570532896819
  0.8281539495438608  0.5403343991416563  0.5895244268278114
  0.6654536398607249  0.0409157581532312  0.4110368427168831
  0.6663833856487409  0.4413433226588510  0.3943050210388330
  0.8368041985399773  0.9433297668426431  0.6069664303970038
  0.0000188508186839  0.3117268349486471  0.4483485289850776
 -0.0001307999892653  0.7713091191121986  0.4480432544882466
  0.1632267608646289  0.2713161642970522  0.5439560746212831
  0.1495956549897186  0.8150070608768509  0.5478769292296546
 -0.0000678956170827  0.5408024210251787  0.4908856623273012
  0.1645390157582342  0.0430501173758269  0.5100886200015861
  0.3322182003831261  0.3089214123281901  0.4486787504747599
  0.3296009674160158  0.7742669561133627  0.4595359174157233
  0.4999895644151596  0.2703705866511845  0.5450506454952685
  0.5000798495684093  0.8134812450525879  0.5538604525418301
  0.3535069858790069  0.5416299760655647  0.4976090938557317
  0.4999842479624788  0.0411808365657859  0.5120941887003683
  0.6678638348278448  0.3089072008852011  0.4487481662509044
  0.6703939950599895  0.7742103142504175  0.4595656744238775
  0.8369022699767530  0.2712156822552433  0.5440171943174863
  0.8503023475781344  0.8150674063454875  0.5479112061190405
  0.6463356832583329  0.5415503771148390  0.4975388231086362
  0.8354554188785636  0.0429874691270189  0.5100545124194243
  0.5003149237399589  0.6338168549505184  0.6149998430668633
 
  0.00000000E+00  0.00000000E+00  0.00000000E+00
  0.00000000E+00  0.00000000E+00  0.00000000E+00
  0.00000000E+00  0.00000000E+00  0.00000000E+00
  0.00000000E+00  0.00000000E+00  0.00000000E+00
  0.00000000E+00  0.00000000E+00  0.00000000E+00
  0.00000000E+00  0.00000000E+00  0.00000000E+00
  0.00000000E+00  0.00000000E+00  0.00000000E+00
  0.00000000E+00  0.00000000E+00  0.00000000E+00
  0.00000000E+00  0.00000000E+00  0.00000000E+00
  0.00000000E+00  0.00000000E+00  0.00000000E+00
  0.00000000E+00  0.00000000E+00  0.00000000E+00
  0.00000000E+00  0.00000000E+00  0.00000000E+00
  0.00000000E+00  0.00000000E+00  0.00000000E+00
  0.00000000E+00  0.00000000E+00  0.00000000E+00
  0.00000000E+00  0.00000000E+00  0.00000000E+00
  0.00000000E+00  0.00000000E+00  0.00000000E+00
  0.00000000E+00  0.00000000E+00  0.00000000E+00
  0.00000000E+00  0.00000000E+00  0.00000000E+00
  0.00000000E+00  0.00000000E+00  0.00000000E+00
  0.00000000E+00  0.00000000E+00  0.00000000E+00
  0.00000000E+00  0.00000000E+00  0.00000000E+00
  0.00000000E+00  0.00000000E+00  0.00000000E+00
  0.00000000E+00  0.00000000E+00  0.00000000E+00
  0.00000000E+00  0.00000000E+00  0.00000000E+00
  0.00000000E+00  0.00000000E+00  0.00000000E+00
  0.00000000E+00  0.00000000E+00  0.00000000E+00
  0.00000000E+00  0.00000000E+00  0.00000000E+00
  0.00000000E+00  0.00000000E+00  0.00000000E+00
  0.00000000E+00  0.00000000E+00  0.00000000E+00
  0.00000000E+00  0.00000000E+00  0.00000000E+00
  0.00000000E+00  0.00000000E+00  0.00000000E+00
  0.00000000E+00  0.00000000E+00  0.00000000E+00
  0.00000000E+00  0.00000000E+00  0.00000000E+00
  0.00000000E+00  0.00000000E+00  0.00000000E+00
  0.00000000E+00  0.00000000E+00  0.00000000E+00
  0.00000000E+00  0.00000000E+00  0.00000000E+00
  0.00000000E+00  0.00000000E+00  0.00000000E+00
  0.00000000E+00  0.00000000E+00  0.00000000E+00
  0.00000000E+00  0.00000000E+00  0.00000000E+00
  0.00000000E+00  0.00000000E+00  0.00000000E+00
  0.00000000E+00  0.00000000E+00  0.00000000E+00
  0.00000000E+00  0.00000000E+00  0.00000000E+00
  0.00000000E+00  0.00000000E+00  0.00000000E+00
  0.00000000E+00  0.00000000E+00  0.00000000E+00
  0.00000000E+00  0.00000000E+00  0.00000000E+00
  0.00000000E+00  0.00000000E+00  0.00000000E+00
  0.00000000E+00  0.00000000E+00  0.00000000E+00
  0.00000000E+00  0.00000000E+00  0.00000000E+00
  0.00000000E+00  0.00000000E+00  0.00000000E+00
  0.00000000E+00  0.00000000E+00  0.00000000E+00
  0.00000000E+00  0.00000000E+00  0.00000000E+00
  0.00000000E+00  0.00000000E+00  0.00000000E+00
  0.00000000E+00  0.00000000E+00  0.00000000E+00
  0.00000000E+00  0.00000000E+00  0.00000000E+00
  0.00000000E+00  0.00000000E+00  0.00000000E+00
  0.00000000E+00  0.00000000E+00  0.00000000E+00
  0.00000000E+00  0.00000000E+00  0.00000000E+00
  0.00000000E+00  0.00000000E+00  0.00000000E+00
  0.00000000E+00  0.00000000E+00  0.00000000E+00
  0.00000000E+00  0.00000000E+00  0.00000000E+00
  0.00000000E+00  0.00000000E+00  0.00000000E+00
