Repeated-UnitCell:     2    2    1      
   1.00000000000000     
     8.3560903995956739    0.0000000000000000    0.0000000000000000
    -4.1780461971500840    7.2365917484966671    0.0000000000000000
     0.0000000000000000    0.0000000000000000   23.0693124054480023
   Tb   Ga   I 
     8     8     8
Direct
  0.0000000176298798  0.0000000058759895  0.5875745445865896
  0.5000000176298798  0.0000000058759895  0.5875745445865896
  0.0000000176298798  0.5000000058759895  0.5875745445865896
  0.5000000176298798  0.5000000058759895  0.5875745445865896
  0.9999999550096490  0.9999999875094332  0.4124258693812357
  0.4999999550096490  0.9999999875094332  0.4124258693812357
  0.9999999550096490  0.4999999875094332  0.4124258693812357
  0.4999999550096490  0.4999999875094332  0.4124258693812357
  0.3333333426103096  0.1666666468811044  0.5146620900379952
  0.8333333426103096  0.1666666468811044  0.5146620900379952
  0.3333333426103096  0.6666666468811044  0.5146620900379952
  0.8333333426103096  0.6666666468811044  0.5146620900379952
  0.1666666609630738  0.3333333536528755  0.4853383433568288
  0.6666666609630738  0.3333333536528755  0.4853383433568288
  0.1666666609630738  0.8333333536528755  0.4853383433568288
  0.6666666609630738  0.8333333536528755  0.4853383433568288
  0.3333333779159560  0.1666666411618039  0.3258436513086503
  0.8333333779159560  0.1666666411618039  0.3258436513086503
  0.3333333779159560  0.6666666411618039  0.3258436513086503
  0.8333333779159560  0.6666666411618039  0.3258436513086503
  0.1666666458711319  0.3333333649187864  0.6741567181942348
  0.6666666458711319  0.3333333649187864  0.6741567181942348
  0.1666666458711319  0.8333333649187864  0.6741567181942348
  0.6666666458711319  0.8333333649187864  0.6741567181942348
 
  0.00000000E+00  0.00000000E+00  0.00000000E+00
  0.00000000E+00  0.00000000E+00  0.00000000E+00
  0.00000000E+00  0.00000000E+00  0.00000000E+00
  0.00000000E+00  0.00000000E+00  0.00000000E+00
  0.00000000E+00  0.00000000E+00  0.00000000E+00
  0.00000000E+00  0.00000000E+00  0.00000000E+00
  0.00000000E+00  0.00000000E+00  0.00000000E+00
  0.00000000E+00  0.00000000E+00  0.00000000E+00
  0.00000000E+00  0.00000000E+00  0.00000000E+00
  0.00000000E+00  0.00000000E+00  0.00000000E+00
  0.00000000E+00  0.00000000E+00  0.00000000E+00
  0.00000000E+00  0.00000000E+00  0.00000000E+00
  0.00000000E+00  0.00000000E+00  0.00000000E+00
  0.00000000E+00  0.00000000E+00  0.00000000E+00
  0.00000000E+00  0.00000000E+00  0.00000000E+00
  0.00000000E+00  0.00000000E+00  0.00000000E+00
  0.00000000E+00  0.00000000E+00  0.00000000E+00
  0.00000000E+00  0.00000000E+00  0.00000000E+00
  0.00000000E+00  0.00000000E+00  0.00000000E+00
  0.00000000E+00  0.00000000E+00  0.00000000E+00
  0.00000000E+00  0.00000000E+00  0.00000000E+00
  0.00000000E+00  0.00000000E+00  0.00000000E+00
  0.00000000E+00  0.00000000E+00  0.00000000E+00
  0.00000000E+00  0.00000000E+00  0.00000000E+00
