 CONTCAR\(2)                            
   1.00000000000000     
     3.0513381443347827    0.0000000000000000    0.0000000000000000
    -1.5256690599499232    2.6425317032198827    0.0000000000000000
     0.0000000000000000    0.0000000000000000   19.4676747272327226
   Mo   C    O 
     2     1     2
Direct
  0.6666665604630454  0.3333327427065399  0.5579882133793138
  0.3333334843552964  0.6666672754437269  0.4419951792361821
  0.0000000281200014  0.0000000048200731  0.4999942607516702
  0.3333334567254260  0.6666660893552647  0.6161425770490445
  0.6666665573362272  0.3333339566743900  0.3838431877295145
 
  0.00000000E+00  0.00000000E+00  0.00000000E+00
  0.00000000E+00  0.00000000E+00  0.00000000E+00
  0.00000000E+00  0.00000000E+00  0.00000000E+00
  0.00000000E+00  0.00000000E+00  0.00000000E+00
  0.00000000E+00  0.00000000E+00  0.00000000E+00
