CONTCAR\(12)                            
   1.00000000000000     
    13.2992000580000003    0.0000000000000000    0.0000000000000000
    -6.6496130274000000   11.5161678841999997    0.0000000000000000
     0.0000000000000000    0.0000000000000000   36.9292984009000023
   Bi   Te   O    H 
    54    54     1     1
Direct
  0.1124741059276098  0.2247750521825765  0.6379387855225779
  0.2221004045534986  0.1111058171898984  0.3621393780772887
  0.3342917860277536  0.3341555591277068  0.2526086138693945
  0.3353704277445567  0.3342043207597198  0.7455336115969345
  0.2208868176129561  0.1103387554628414  0.5226196401211707
  0.1105147630278459  0.2216523982001084  0.4770769322559508
  0.4433035751985204  0.2214069957474941  0.6360372895382151
  0.5554284405404775  0.1110483541554159  0.3625128566899257
  0.6667200766169745  0.3333445534370808  0.2526093792273145
  0.6675375845453111  0.3324865624693804  0.7460600947034591
  0.5548234554832746  0.1100904831077894  0.5218447552744819
  0.4429975004314530  0.2213258567936680  0.4769585943130574
  0.7782833667195367  0.2216303135674842  0.6359776529910238
  0.8890084779861621  0.1110348107414253  0.3621266310036615
  0.9999084138181868  0.3341434833712035  0.2526134618176866
  0.0009946781964005  0.3343137810213149  0.7455510253589097
  0.8890145944949094  0.1105338668364717  0.5227605804915104
  0.7779524514423450  0.2211610849561516  0.4769387071894811
  0.1133546602824036  0.5559478271804361  0.6372665875495066
  0.2220389304616989  0.4442117149717669  0.3622238197908749
  0.3334523808555753  0.6667519297385810  0.2527202943883869
  0.3370998733276481  0.6651942046278890  0.7786464277867747
  0.2218597156023674  0.4442338786136392  0.5221991792923939
  0.1097758125440372  0.5548443518338739  0.4770571738149701
  0.4435182761503532  0.5555623949234659  0.6377753608906401
  0.5554949424414006  0.4445538743895127  0.3624756364588141
  0.6659377346292029  0.6657711400489295  0.2526027307624013
  0.6659308897633019  0.6643958458581896  0.7455990753265849
  0.5547440207781297  0.4445908845900328  0.5217904902785543
  0.4437159017342958  0.5558066087548602  0.4766847094084914
  0.7785781921454157  0.5563043208617332  0.6360504235685031
  0.8890864431924315  0.4444689219304096  0.3624884399711167
  0.9999003051120959  0.6657985070920222  0.2526009687581745
  0.0011998522189992  0.6657254188859004  0.7453005659201166
  0.8876393900645778  0.4437693831400841  0.5221084099115165
  0.7780294086088434  0.5567250441693830  0.4769769731173660
  0.1128750025406526  0.8864394482046618  0.6379935644243474
  0.2217728460882538  0.7782800044221690  0.3620945338911455
  0.3342715522988011  0.0001540648648129  0.2525995517150006
  0.3339635977460091  0.9996531918757205  0.7450222476024916
  0.2219171354534542  0.7775503311535547  0.5222278744267633
  0.1104952557229413  0.8886646813881416  0.4770869857626989
  0.4436170976205873  0.8864855416503594  0.6372353472008796
  0.5561505483906668  0.7782743229557229  0.3621946656335553
  0.6658976172317284  0.0001363761851588  0.2526119771237139
  0.6662429713412232  0.9994862991846045  0.7453630324718906
  0.5555952188555610  0.7777806938393274  0.5221530064167939
  0.4437739139867336  0.8879252200978279  0.4766894091277203
  0.7737712441122608  0.8860803630284838  0.6380877831680091
  0.8889498079265584  0.7779109443419254  0.3621416980143125
  0.0000265738295123  0.0001400975188131  0.2530247996039947
 -0.0000023865432004 -0.0000794421495720  0.7462053601236477
  0.8890929951191614  0.7783746347309970  0.5228065265684503
  0.7782914443611892  0.8889393556991234  0.4771032565171743
  0.1122099293058629  0.2230649760669632  0.7918384608071961
  0.2223631299677799  0.1112080808036026  0.2067551605870611
  0.0000258663486050 -0.0000008800156171  0.4089276547279835
  0.9992555377603350  0.9991535580719410  0.5911943479191800
  0.2208664973503512  0.1101395497912199  0.6900733504602806
  0.1113099347481742  0.2225892698513066  0.3077427002801174
  0.4422980579114809  0.2199055268777502  0.7909612595248310
  0.5557830594526791  0.1115207742342142  0.2061779883409366
  0.3327978132555138  0.0000736279601951  0.4091298873707910
  0.3335867600091139  0.9988476421876548  0.5898157818582851
  0.5561388087696434  0.1117272037892321  0.6902132182343741
  0.4449825796709229  0.2224570592596259  0.3077923196781912
  0.7794902561590898  0.2208558611794249  0.7913028707750783
  0.8887187977541864  0.1111975111019054  0.2067490841809131
  0.6672597769783929  0.0001117507959211  0.4091394268425783
  0.6661230164103535  0.9987460374916386  0.5899111609715837
  0.8886168658182698  0.1110095930752578  0.6906989469370822
  0.7775750818309177  0.2224131466706645  0.3077827406765367
  0.0780144662603318  0.5398914989135702  0.7967713631467536
  0.2224419140508908  0.4447908831983278  0.2065553626338819
 -0.0000093290510576  0.3327827308044884  0.4091199837207239
  0.0007130242878532  0.3336469828407401  0.5898195100420581
  0.2244833476391955  0.4485645573477767  0.6913548802922214
  0.1109757032648234  0.5555474002019458  0.3079282293387965
  0.4649000627306734  0.5340973228522494  0.7972755699169478
  0.5558144203959003  0.4442002397695300  0.2061812965310986
  0.3328191176177493  0.3328881359857450  0.4091196425417770
  0.3328531876554581  0.3337256937694675  0.5899531100107515
  0.5562700427278232  0.4434767625194536  0.6902702554070910
  0.4445985158066582  0.5555648010470035  0.3079624507173227
  0.7804437886534777  0.5573114092537218  0.7910449746969449
  0.8885579073115976  0.4442750393794129  0.2061903352873187
  0.6667613779949686  0.3334511959031651  0.4092692272456759
  0.6663825539122508  0.3329441795239909  0.5894698029325083
  0.8882535026908092  0.4437022528694171  0.6902932282569972
  0.7776004501149301  0.5550732226696856  0.3077838414782258
  0.1118457694687561  0.8883011423352889  0.7916989931397390
  0.2224149893662536  0.7776589139981535  0.2065435670463155
 -0.0000412761624747  0.6671881745513646  0.4091067207288184
  0.0008165740796075  0.6658614445111580  0.5897928419632280
  0.2248141697191747  0.7750638335509320  0.6909518702577139
  0.1111479834691630  0.8888786076281295  0.3077342629532848
  0.4609654146145825  0.9250519987881450  0.7965559240433234
  0.5552991235785321  0.7776392511051178  0.2065407521083449
  0.3330659058747199  0.6670119287302902  0.4088494709290906
  0.3338140559347074  0.6659384690340682  0.5896351500812300
  0.5509178879944456  0.7749372845353985  0.6915485410417254
  0.4444747461911390  0.8892300590874004  0.3079892868218273
  0.7766060632110062  0.8876152734613401  0.7917966506274455
  0.8888447382607523  0.7776715068827271  0.2067588234866955
  0.6671675039257029  0.6672185936696704  0.4091264791209316
  0.6654910679575445  0.6660773277247277  0.5899859411253771
  0.8893580427745114  0.7777585435138030  0.6902327463515699
  0.7774399049094121  0.8887156325576075  0.3077345930454962
  0.3477136039666666  0.6579756226278664  0.8364235519576798
  0.3196379059371420  0.7059861099339664  0.8476477169702215
 
  0.00000000E+00  0.00000000E+00  0.00000000E+00
  0.00000000E+00  0.00000000E+00  0.00000000E+00
  0.00000000E+00  0.00000000E+00  0.00000000E+00
  0.00000000E+00  0.00000000E+00  0.00000000E+00
  0.00000000E+00  0.00000000E+00  0.00000000E+00
  0.00000000E+00  0.00000000E+00  0.00000000E+00
  0.00000000E+00  0.00000000E+00  0.00000000E+00
  0.00000000E+00  0.00000000E+00  0.00000000E+00
  0.00000000E+00  0.00000000E+00  0.00000000E+00
  0.00000000E+00  0.00000000E+00  0.00000000E+00
  0.00000000E+00  0.00000000E+00  0.00000000E+00
  0.00000000E+00  0.00000000E+00  0.00000000E+00
  0.00000000E+00  0.00000000E+00  0.00000000E+00
  0.00000000E+00  0.00000000E+00  0.00000000E+00
  0.00000000E+00  0.00000000E+00  0.00000000E+00
  0.00000000E+00  0.00000000E+00  0.00000000E+00
  0.00000000E+00  0.00000000E+00  0.00000000E+00
  0.00000000E+00  0.00000000E+00  0.00000000E+00
  0.00000000E+00  0.00000000E+00  0.00000000E+00
  0.00000000E+00  0.00000000E+00  0.00000000E+00
  0.00000000E+00  0.00000000E+00  0.00000000E+00
  0.00000000E+00  0.00000000E+00  0.00000000E+00
  0.00000000E+00  0.00000000E+00  0.00000000E+00
  0.00000000E+00  0.00000000E+00  0.00000000E+00
  0.00000000E+00  0.00000000E+00  0.00000000E+00
  0.00000000E+00  0.00000000E+00  0.00000000E+00
  0.00000000E+00  0.00000000E+00  0.00000000E+00
  0.00000000E+00  0.00000000E+00  0.00000000E+00
  0.00000000E+00  0.00000000E+00  0.00000000E+00
  0.00000000E+00  0.00000000E+00  0.00000000E+00
  0.00000000E+00  0.00000000E+00  0.00000000E+00
  0.00000000E+00  0.00000000E+00  0.00000000E+00
  0.00000000E+00  0.00000000E+00  0.00000000E+00
  0.00000000E+00  0.00000000E+00  0.00000000E+00
  0.00000000E+00  0.00000000E+00  0.00000000E+00
  0.00000000E+00  0.00000000E+00  0.00000000E+00
  0.00000000E+00  0.00000000E+00  0.00000000E+00
  0.00000000E+00  0.00000000E+00  0.00000000E+00
  0.00000000E+00  0.00000000E+00  0.00000000E+00
  0.00000000E+00  0.00000000E+00  0.00000000E+00
  0.00000000E+00  0.00000000E+00  0.00000000E+00
  0.00000000E+00  0.00000000E+00  0.00000000E+00
  0.00000000E+00  0.00000000E+00  0.00000000E+00
  0.00000000E+00  0.00000000E+00  0.00000000E+00
  0.00000000E+00  0.00000000E+00  0.00000000E+00
  0.00000000E+00  0.00000000E+00  0.00000000E+00
  0.00000000E+00  0.00000000E+00  0.00000000E+00
  0.00000000E+00  0.00000000E+00  0.00000000E+00
  0.00000000E+00  0.00000000E+00  0.00000000E+00
  0.00000000E+00  0.00000000E+00  0.00000000E+00
  0.00000000E+00  0.00000000E+00  0.00000000E+00
  0.00000000E+00  0.00000000E+00  0.00000000E+00
  0.00000000E+00  0.00000000E+00  0.00000000E+00
  0.00000000E+00  0.00000000E+00  0.00000000E+00
  0.00000000E+00  0.00000000E+00  0.00000000E+00
  0.00000000E+00  0.00000000E+00  0.00000000E+00
  0.00000000E+00  0.00000000E+00  0.00000000E+00
  0.00000000E+00  0.00000000E+00  0.00000000E+00
  0.00000000E+00  0.00000000E+00  0.00000000E+00
  0.00000000E+00  0.00000000E+00  0.00000000E+00
  0.00000000E+00  0.00000000E+00  0.00000000E+00
  0.00000000E+00  0.00000000E+00  0.00000000E+00
  0.00000000E+00  0.00000000E+00  0.00000000E+00
  0.00000000E+00  0.00000000E+00  0.00000000E+00
  0.00000000E+00  0.00000000E+00  0.00000000E+00
  0.00000000E+00  0.00000000E+00  0.00000000E+00
  0.00000000E+00  0.00000000E+00  0.00000000E+00
  0.00000000E+00  0.00000000E+00  0.00000000E+00
  0.00000000E+00  0.00000000E+00  0.00000000E+00
  0.00000000E+00  0.00000000E+00  0.00000000E+00
  0.00000000E+00  0.00000000E+00  0.00000000E+00
  0.00000000E+00  0.00000000E+00  0.00000000E+00
  0.00000000E+00  0.00000000E+00  0.00000000E+00
  0.00000000E+00  0.00000000E+00  0.00000000E+00
  0.00000000E+00  0.00000000E+00  0.00000000E+00
  0.00000000E+00  0.00000000E+00  0.00000000E+00
  0.00000000E+00  0.00000000E+00  0.00000000E+00
  0.00000000E+00  0.00000000E+00  0.00000000E+00
  0.00000000E+00  0.00000000E+00  0.00000000E+00
  0.00000000E+00  0.00000000E+00  0.00000000E+00
  0.00000000E+00  0.00000000E+00  0.00000000E+00
  0.00000000E+00  0.00000000E+00  0.00000000E+00
  0.00000000E+00  0.00000000E+00  0.00000000E+00
  0.00000000E+00  0.00000000E+00  0.00000000E+00
  0.00000000E+00  0.00000000E+00  0.00000000E+00
  0.00000000E+00  0.00000000E+00  0.00000000E+00
  0.00000000E+00  0.00000000E+00  0.00000000E+00
  0.00000000E+00  0.00000000E+00  0.00000000E+00
  0.00000000E+00  0.00000000E+00  0.00000000E+00
  0.00000000E+00  0.00000000E+00  0.00000000E+00
  0.00000000E+00  0.00000000E+00  0.00000000E+00
  0.00000000E+00  0.00000000E+00  0.00000000E+00
  0.00000000E+00  0.00000000E+00  0.00000000E+00
  0.00000000E+00  0.00000000E+00  0.00000000E+00
  0.00000000E+00  0.00000000E+00  0.00000000E+00
  0.00000000E+00  0.00000000E+00  0.00000000E+00
  0.00000000E+00  0.00000000E+00  0.00000000E+00
  0.00000000E+00  0.00000000E+00  0.00000000E+00
  0.00000000E+00  0.00000000E+00  0.00000000E+00
  0.00000000E+00  0.00000000E+00  0.00000000E+00
  0.00000000E+00  0.00000000E+00  0.00000000E+00
  0.00000000E+00  0.00000000E+00  0.00000000E+00
  0.00000000E+00  0.00000000E+00  0.00000000E+00
  0.00000000E+00  0.00000000E+00  0.00000000E+00
  0.00000000E+00  0.00000000E+00  0.00000000E+00
  0.00000000E+00  0.00000000E+00  0.00000000E+00
  0.00000000E+00  0.00000000E+00  0.00000000E+00
  0.00000000E+00  0.00000000E+00  0.00000000E+00
  0.00000000E+00  0.00000000E+00  0.00000000E+00
  0.00000000E+00  0.00000000E+00  0.00000000E+00
