CONTCAR\(2)                             
   1.00000000000000     
    13.8733997344999995    0.0000000000000000    0.0000000000000000
    -5.2025367581999999   10.8861146155000004    0.0000000000000000
     0.0000000000000000    0.0000000000000000   17.9979991912999999
   Cu   Br   O 
    12    24     1
Direct
  0.0025992633863763 -0.0020190330262205  0.5052639069190300
  0.2522308452365837  0.9986848072632887  0.5043791869186389
  0.5040987419379035  0.0010508655164378  0.5018830524781204
  0.7532596309371523  0.0012842074115098  0.5024724501941383
  0.9941171312876487  0.3398541580615896  0.4962308630875368
  0.2655027427246872  0.3322366135905291  0.5003534183092105
  0.5042891581248559  0.3341781255531102  0.4992275227649332
  0.7546447744243369  0.3355028178081519  0.4974012477901426
  0.0029777914731775  0.6683783966482558  0.4997641983917628
  0.2576836768713389  0.6773103219905083  0.4955651517017328
  0.5041673483047967  0.6708079470439724  0.4989044510683621
  0.7537215937415777  0.6678491775450978  0.5003389803851528
  0.1036163248578536  0.9355051563550101  0.4186300903500214
  0.1544063438220267  0.0691277418496182  0.5889905993993881
  0.3507100394564542  0.9283126932555898  0.4191936642952139
  0.4053073947307085  0.0705030880328613  0.5863535188476542
  0.6033014661637114  0.9327551347513640  0.4173014871733643
  0.6551492057213324  0.0723661600622055  0.5857345921005670
  0.8554304866420585  0.9373588343025953  0.4178275254834680
  0.9028969228985955  0.0689127528357742  0.5880278757817777
  0.1086197613381244  0.2782558515510355  0.4293364631552564
  0.1525950386217240  0.3956903064856845  0.5848457538273866
  0.3565773125271729  0.2630145812007785  0.4115777189723692
  0.4072778332122025  0.4031909125709691  0.5864989387271771
  0.6024534401122860  0.2648805794321347  0.4144893629045679
  0.6562900725418617  0.4050951697769763  0.5824403793220011
  0.8484386377456378  0.2638386227915257  0.4093101718683629
  0.9039414607280440  0.4051159470092514  0.5844287295408731
  0.1020760917860538  0.5991592052094465  0.4147978121263023
  0.1537513316544551  0.7335540071951459  0.5838999869621149
  0.3539456453558005  0.5999187705040174  0.4143091049149557
  0.4031728870579759  0.7348617018847051  0.5839558809907652
  0.6035935604370563  0.6007343837749703  0.4154555207845951
  0.6541002164643080  0.7378530297795509  0.5840071180723388
  0.8525464448204613  0.5996275405016480  0.4154802885568277
  0.9048318880919368  0.7386450553593293  0.5843088399769427
  0.1794479797617211  0.4609756771216130  0.6721937428569388
 
  0.00000000E+00  0.00000000E+00  0.00000000E+00
  0.00000000E+00  0.00000000E+00  0.00000000E+00
  0.00000000E+00  0.00000000E+00  0.00000000E+00
  0.00000000E+00  0.00000000E+00  0.00000000E+00
  0.00000000E+00  0.00000000E+00  0.00000000E+00
  0.00000000E+00  0.00000000E+00  0.00000000E+00
  0.00000000E+00  0.00000000E+00  0.00000000E+00
  0.00000000E+00  0.00000000E+00  0.00000000E+00
  0.00000000E+00  0.00000000E+00  0.00000000E+00
  0.00000000E+00  0.00000000E+00  0.00000000E+00
  0.00000000E+00  0.00000000E+00  0.00000000E+00
  0.00000000E+00  0.00000000E+00  0.00000000E+00
  0.00000000E+00  0.00000000E+00  0.00000000E+00
  0.00000000E+00  0.00000000E+00  0.00000000E+00
  0.00000000E+00  0.00000000E+00  0.00000000E+00
  0.00000000E+00  0.00000000E+00  0.00000000E+00
  0.00000000E+00  0.00000000E+00  0.00000000E+00
  0.00000000E+00  0.00000000E+00  0.00000000E+00
  0.00000000E+00  0.00000000E+00  0.00000000E+00
  0.00000000E+00  0.00000000E+00  0.00000000E+00
  0.00000000E+00  0.00000000E+00  0.00000000E+00
  0.00000000E+00  0.00000000E+00  0.00000000E+00
  0.00000000E+00  0.00000000E+00  0.00000000E+00
  0.00000000E+00  0.00000000E+00  0.00000000E+00
  0.00000000E+00  0.00000000E+00  0.00000000E+00
  0.00000000E+00  0.00000000E+00  0.00000000E+00
  0.00000000E+00  0.00000000E+00  0.00000000E+00
  0.00000000E+00  0.00000000E+00  0.00000000E+00
  0.00000000E+00  0.00000000E+00  0.00000000E+00
  0.00000000E+00  0.00000000E+00  0.00000000E+00
  0.00000000E+00  0.00000000E+00  0.00000000E+00
  0.00000000E+00  0.00000000E+00  0.00000000E+00
  0.00000000E+00  0.00000000E+00  0.00000000E+00
  0.00000000E+00  0.00000000E+00  0.00000000E+00
  0.00000000E+00  0.00000000E+00  0.00000000E+00
  0.00000000E+00  0.00000000E+00  0.00000000E+00
  0.00000000E+00  0.00000000E+00  0.00000000E+00
