 V2 Ag2 P4 S12                          
   1.00000000000000     
     5.8961512753213245    0.0000000000000000    0.0000000000000000
     0.0000000000000000   10.6548753430034591    0.0000000000000000
     0.0000000000000000    0.0000000000000000   18.7763323409839984
   V    Ag   P    S 
     2     2     4    12
Direct
  0.2497718398006052  0.9276742980322179  0.5000063147382885
  0.7502310400696367  0.0723233390347782  0.4999938131045344
  0.7500468527017081  0.4302970789806714  0.5000359640119270
  0.2499509096781465  0.5697034274210859  0.4999638638011841
  0.2423045977526805  0.2503981746663141  0.5595150310960550
  0.7421892990640729  0.7495975092900022  0.5595349206827632
  0.7576966888615064  0.7496008571242569  0.4404850273366899
  0.2578089963626038  0.2504015326227985  0.4404648627480857
  0.9192523501392394  0.9197497331196903  0.5799664249892088
  0.6092943380304496  0.6001882016507293  0.3996818365364950
  0.9076967288301419  0.2301819302649571  0.5829849369651887
  0.5924086023987153  0.2301658355076159  0.4170042074710267
  0.1093099892887736  0.3997584580247463  0.3996383285914311
  0.4075797971521578  0.7698332273835106  0.5829962245300826
  0.0923150317597979  0.7698154194915077  0.4170150020829774
  0.5806832196136518  0.9197345099948435  0.4200793557736706
  0.0807481934382392  0.0802517896184896  0.4200336920046622
  0.4193185201248947  0.0802676978510940  0.5799203084299218
  0.3906940868392417  0.3998138937026197  0.6003189319517145
  0.8906989180937382  0.6002430862180689  0.6003609531540903
 
  0.00000000E+00  0.00000000E+00  0.00000000E+00
  0.00000000E+00  0.00000000E+00  0.00000000E+00
  0.00000000E+00  0.00000000E+00  0.00000000E+00
  0.00000000E+00  0.00000000E+00  0.00000000E+00
  0.00000000E+00  0.00000000E+00  0.00000000E+00
  0.00000000E+00  0.00000000E+00  0.00000000E+00
  0.00000000E+00  0.00000000E+00  0.00000000E+00
  0.00000000E+00  0.00000000E+00  0.00000000E+00
  0.00000000E+00  0.00000000E+00  0.00000000E+00
  0.00000000E+00  0.00000000E+00  0.00000000E+00
  0.00000000E+00  0.00000000E+00  0.00000000E+00
  0.00000000E+00  0.00000000E+00  0.00000000E+00
  0.00000000E+00  0.00000000E+00  0.00000000E+00
  0.00000000E+00  0.00000000E+00  0.00000000E+00
  0.00000000E+00  0.00000000E+00  0.00000000E+00
  0.00000000E+00  0.00000000E+00  0.00000000E+00
  0.00000000E+00  0.00000000E+00  0.00000000E+00
  0.00000000E+00  0.00000000E+00  0.00000000E+00
  0.00000000E+00  0.00000000E+00  0.00000000E+00
  0.00000000E+00  0.00000000E+00  0.00000000E+00
