CONTCAR                                 
   1.00000000000000     
    13.3114004134999995    0.0000000000000000    0.0000000000000000
     0.0000000000000000   13.2841997146999997    0.0000000000000000
     0.0000000000000000    0.0000000000000000   29.9494991301999995
   Bi   I 
    54    12
Direct
  0.2500000000000000  0.6582138777102742  0.6537603731382404
  0.0833299990000000  0.3417861582897288  0.3462496578617618
  0.2500000000000000  0.2988984980227372  0.4146809216565615
  0.0833299990000000  0.7011015019772628  0.5853190783434385
  0.2500000000000000  0.0775273727757337  0.3852823417850786
  0.0833299990000000  0.9224726452242678  0.6147176262149188
  0.2500000000000000  0.9768908875100664  0.5489896336939637
  0.0833299990000000  0.0231091064899331  0.4510103663060363
  0.2500000000000000  0.2012586687174220  0.5754961948966724
  0.0833299990000000  0.7987412772825806  0.4245137711033280
  0.2500000000000000  0.7510636995098068  0.4916626103703052
  0.0833299990000000  0.2489363004901932  0.5083473876296978
  0.2500000000000000  0.5259849726737045  0.4669023466143400
  0.0833299990000000  0.4740149913262925  0.5331076523856595
  0.0833299990000000  0.5650901862585513  0.3699757436177009
  0.2500000000000000  0.4349098137414487  0.6300242243822964
  0.0833299990000000  0.3845855534949152  0.6982847875002491
  0.2500000000000000  0.6154144825050878  0.3017151804997553
  0.5833299720000014  0.6582138777102742  0.6537603731382404
  0.4166699920000028  0.3417861582897288  0.3462496578617618
  0.5833299720000014  0.2988984980227372  0.4146809216565615
  0.4166699920000028  0.7011015019772628  0.5853190783434385
  0.5833299720000014  0.0775273727757337  0.3852823417850786
  0.4166699920000028  0.9224726452242678  0.6147176262149188
  0.5833299720000014  0.9768908875100664  0.5489896336939637
  0.4166699920000028  0.0231091064899331  0.4510103663060363
  0.5833299720000014  0.2012586687174220  0.5754961948966724
  0.4166699920000028  0.7987412772825806  0.4245137711033280
  0.5833299720000014  0.7510636995098068  0.4916626103703052
  0.4166699920000028  0.2489363004901932  0.5083473876296978
  0.5833299720000014  0.5259849726737045  0.4669023466143400
  0.4166699920000028  0.4740149913262925  0.5331076523856595
  0.4166699920000028  0.5650901862585513  0.3699757436177009
  0.5833299720000014  0.4349098137414487  0.6300242243822964
  0.4166699920000028  0.3845855534949152  0.6982847875002491
  0.5833299720000014  0.6154144825050878  0.3017151804997553
  0.9166700279999986  0.6582138777102742  0.6537603731382404
  0.7499999819999985  0.3417861582897288  0.3462496578617618
  0.9166700279999986  0.2988984980227372  0.4146809216565615
  0.7499999819999985  0.7011015019772628  0.5853190783434385
  0.9166700279999986  0.0775273727757337  0.3852823417850786
  0.7499999819999985  0.9224726452242678  0.6147176262149188
  0.9166700279999986  0.9768908875100664  0.5489896336939637
  0.7499999819999985  0.0231091064899331  0.4510103663060363
  0.9166700279999986  0.2012586687174220  0.5754961948966724
  0.7499999819999985  0.7987412772825806  0.4245137711033280
  0.9166700279999986  0.7510636995098068  0.4916626103703052
  0.7499999819999985  0.2489363004901932  0.5083473876296978
  0.9166700279999986  0.5259849726737045  0.4669023466143400
  0.7499999819999985  0.4740149913262925  0.5331076523856595
  0.7499999819999985  0.5650901862585513  0.3699757436177009
  0.9166700279999986  0.4349098137414487  0.6300242243822964
  0.7499999819999985  0.3845855534949152  0.6982847875002491
  0.9166700279999986  0.6154144825050878  0.3017151804997553
  0.0833299990000000  0.5950133929794106  0.7413007457681999
  0.2500000000000000  0.4049866070205894  0.2586892552318005
  0.0833299990000000  0.1591328752048042  0.6691290907387710
  0.2500000000000000  0.8408671427951973  0.3308509122612264
  0.4166699920000028  0.5950133929794106  0.7413007457681999
  0.5833299720000014  0.4049866070205894  0.2586892552318005
  0.4166699920000028  0.1591328752048042  0.6691290907387710
  0.5833299720000014  0.8408671427951973  0.3308509122612264
  0.7499999819999985  0.5950133929794106  0.7413007457681999
  0.9166700279999986  0.4049866070205894  0.2586892552318005
  0.7499999819999985  0.1591328752048042  0.6691290907387710
  0.9166700279999986  0.8408671427951973  0.3308509122612264
 
  0.00000000E+00  0.00000000E+00  0.00000000E+00
  0.00000000E+00  0.00000000E+00  0.00000000E+00
  0.00000000E+00  0.00000000E+00  0.00000000E+00
  0.00000000E+00  0.00000000E+00  0.00000000E+00
  0.00000000E+00  0.00000000E+00  0.00000000E+00
  0.00000000E+00  0.00000000E+00  0.00000000E+00
  0.00000000E+00  0.00000000E+00  0.00000000E+00
  0.00000000E+00  0.00000000E+00  0.00000000E+00
  0.00000000E+00  0.00000000E+00  0.00000000E+00
  0.00000000E+00  0.00000000E+00  0.00000000E+00
  0.00000000E+00  0.00000000E+00  0.00000000E+00
  0.00000000E+00  0.00000000E+00  0.00000000E+00
  0.00000000E+00  0.00000000E+00  0.00000000E+00
  0.00000000E+00  0.00000000E+00  0.00000000E+00
  0.00000000E+00  0.00000000E+00  0.00000000E+00
  0.00000000E+00  0.00000000E+00  0.00000000E+00
  0.00000000E+00  0.00000000E+00  0.00000000E+00
  0.00000000E+00  0.00000000E+00  0.00000000E+00
  0.00000000E+00  0.00000000E+00  0.00000000E+00
  0.00000000E+00  0.00000000E+00  0.00000000E+00
  0.00000000E+00  0.00000000E+00  0.00000000E+00
  0.00000000E+00  0.00000000E+00  0.00000000E+00
  0.00000000E+00  0.00000000E+00  0.00000000E+00
  0.00000000E+00  0.00000000E+00  0.00000000E+00
  0.00000000E+00  0.00000000E+00  0.00000000E+00
  0.00000000E+00  0.00000000E+00  0.00000000E+00
  0.00000000E+00  0.00000000E+00  0.00000000E+00
  0.00000000E+00  0.00000000E+00  0.00000000E+00
  0.00000000E+00  0.00000000E+00  0.00000000E+00
  0.00000000E+00  0.00000000E+00  0.00000000E+00
  0.00000000E+00  0.00000000E+00  0.00000000E+00
  0.00000000E+00  0.00000000E+00  0.00000000E+00
  0.00000000E+00  0.00000000E+00  0.00000000E+00
  0.00000000E+00  0.00000000E+00  0.00000000E+00
  0.00000000E+00  0.00000000E+00  0.00000000E+00
  0.00000000E+00  0.00000000E+00  0.00000000E+00
  0.00000000E+00  0.00000000E+00  0.00000000E+00
  0.00000000E+00  0.00000000E+00  0.00000000E+00
  0.00000000E+00  0.00000000E+00  0.00000000E+00
  0.00000000E+00  0.00000000E+00  0.00000000E+00
  0.00000000E+00  0.00000000E+00  0.00000000E+00
  0.00000000E+00  0.00000000E+00  0.00000000E+00
  0.00000000E+00  0.00000000E+00  0.00000000E+00
  0.00000000E+00  0.00000000E+00  0.00000000E+00
  0.00000000E+00  0.00000000E+00  0.00000000E+00
  0.00000000E+00  0.00000000E+00  0.00000000E+00
  0.00000000E+00  0.00000000E+00  0.00000000E+00
  0.00000000E+00  0.00000000E+00  0.00000000E+00
  0.00000000E+00  0.00000000E+00  0.00000000E+00
  0.00000000E+00  0.00000000E+00  0.00000000E+00
  0.00000000E+00  0.00000000E+00  0.00000000E+00
  0.00000000E+00  0.00000000E+00  0.00000000E+00
  0.00000000E+00  0.00000000E+00  0.00000000E+00
  0.00000000E+00  0.00000000E+00  0.00000000E+00
  0.00000000E+00  0.00000000E+00  0.00000000E+00
  0.00000000E+00  0.00000000E+00  0.00000000E+00
  0.00000000E+00  0.00000000E+00  0.00000000E+00
  0.00000000E+00  0.00000000E+00  0.00000000E+00
  0.00000000E+00  0.00000000E+00  0.00000000E+00
  0.00000000E+00  0.00000000E+00  0.00000000E+00
  0.00000000E+00  0.00000000E+00  0.00000000E+00
  0.00000000E+00  0.00000000E+00  0.00000000E+00
  0.00000000E+00  0.00000000E+00  0.00000000E+00
  0.00000000E+00  0.00000000E+00  0.00000000E+00
  0.00000000E+00  0.00000000E+00  0.00000000E+00
  0.00000000E+00  0.00000000E+00  0.00000000E+00
