 Te2 Pt2                                
   1.00000000000000     
     3.9222745842813653    0.0000000000000000    0.0000000000000000
     1.9611372921406827    3.3967912867863252    0.0000000000000000
     0.0000000000000000    0.0000000000000000   18.9503211789199995
   Te   Pt
     2     2
Direct
  0.6666667117354897  0.6666667910692986  0.6090509051238094
  0.6666667664980520  0.6666666864299822  0.3909337192232033
  0.3333334331637203  0.3333334094566107  0.5408094700206416
  0.0000000886027354  0.0000001130441052  0.4592059056323460
 
  0.00000000E+00  0.00000000E+00  0.00000000E+00
  0.00000000E+00  0.00000000E+00  0.00000000E+00
  0.00000000E+00  0.00000000E+00  0.00000000E+00
  0.00000000E+00  0.00000000E+00  0.00000000E+00
