CONTCAR                                 
   1.00000000000000     
    12.9361000061000002    0.0000000000000000    0.0000000000000000
     0.0000000000000000   12.9357995986999992    0.0000000000000000
     0.0000000000000000    0.0000000000000000   24.1072998046999984
   Dy   Te   O    H 
    18    54     1     1
Direct
  0.1677552370505571  0.0004211885436077  0.5836152821287705
  0.0011852343898745  0.1673984088366354  0.4138532854808347
  0.5020903529740443  0.0008937419775118  0.5842988700780160
  0.3342900271195107  0.1667540782070659  0.4133370922961053
  0.8364247110313339  0.0004548486130014  0.5840174220269720
  0.6678397827436177  0.1669415633367979  0.4137942293308083
  0.1665540650682528  0.3334704812220273  0.5835723807181662
  0.0011808977691902  0.5004981538337481  0.4139408713205407
  0.4991337238571985  0.3268604103458765  0.5819396943863375
  0.3348146618380870  0.5006766052553629  0.4146706599847472
  0.8342209875193051  0.3339594527716795  0.5837818357898029
  0.6672895214582906  0.5004723548757120  0.4148814102513716
  0.1665429524960763  0.6668546795705980  0.5835953910383893
  0.0009812078106698  0.8336779670358129  0.4138059279316831
  0.5008509906047822  0.6748789712845287  0.5826430830582332
  0.3341589809485570  0.8340198800585820  0.4136105015441849
  0.8350504670987989  0.6661953746146413  0.5834805781228790
  0.6679563756747294  0.8341638289391404  0.4137624227419136
  0.0010179620679093  0.0002539535468259  0.3104274458555314
  0.1661836940018040  0.1667648203603038  0.6866238126132305
  0.0041346604364576  0.0047057252955061  0.6865525129648654
  0.1678094869285924  0.1670299779437651  0.3105911188044516
  0.1674383693507798  0.0003781201619288  0.4522650696256197
  0.0006900493292815  0.1678283864395415  0.5449298720806087
  0.3342990198697788  0.0002521626031404  0.3101890279046310
  0.4990646493010578  0.1689257578925826  0.6885950111316450
  0.3354974615923877  0.9981921441874103  0.6870203488044506
  0.5012441260299398  0.1669497677170478  0.3103443477342883
  0.5008038579277478  0.0003100686956442  0.4526612286043603
  0.3335708229424436  0.1655222569009085  0.5446228475541970
  0.6678125801820661  0.0003129437499801  0.3103850817370201
  0.8324098357781202  0.1685694303943573  0.6864221300238184
  0.6706355384098758  0.0021523955233158  0.6872322048227807
  0.8347180447769836  0.1670865199533850  0.3108659395917185
  0.8345061565267637  0.0007492275353842  0.4525845885812846
  0.6682091571628308  0.1666691902369723  0.5455895117579378
  0.0015599547129782  0.3338719159475511  0.3107960435607199
  0.1722179860082818  0.5015121283872519  0.6873789110785510
  0.9986518520635775  0.3368251948114280  0.6871641928121377
  0.1677823172699753  0.5003878060229873  0.3111002722235503
  0.1684367450567493  0.3342029247965762  0.4526750722651027
  0.0010450043374977  0.5002846505223024  0.5453871765200980
  0.3346717392030119  0.3338581507793391  0.3108469707692911
  0.5068105931373793  0.5075900437356733  0.7274991095610199
  0.3384130957522069  0.3371761169663097  0.6837471551789768
  0.5011260684732451  0.5003064308215042  0.3115424814435614
  0.5009548415588164  0.3327442262225467  0.4519104588143600
  0.3378704820145244  0.5015503479450953  0.5470859378782288
  0.6680700299790375  0.3336777862014199  0.3110233806043628
  0.8347276957041132  0.4989457336015788  0.6868975738733389
  0.6559093946996937  0.3377044362724645  0.6894102257119791
  0.8343048946369489  0.5003265040371456  0.3112541765294904
  0.8341796050909001  0.3343981075205223  0.4528229682530295
  0.6630434146120402  0.5003929829540937  0.5475847422029073
  0.0011175435757193  0.6668674797926462  0.3106977578815296
  0.1660414433087438  0.8322098300406495  0.6867760859715246
  0.0011116525590001  0.6687110182414379  0.6871451494491917
  0.1680062309063174  0.8334938479664137  0.3105764888315564
  0.1679765053767312  0.6669182587802410  0.4526813602062809
  0.0010987013846178  0.8335714304375662  0.5451613240744713
  0.3346931470718538  0.6668361183600047  0.3110041074134884
  0.4993780376177594  0.8367753937746918  0.6882972496834837
  0.3390800361916777  0.6632975469660700  0.6890845617484324
  0.5014055487554564  0.8336681395636011  0.3105224235426571
  0.5012885900401441  0.6683213884341863  0.4524447082709397
  0.3338148658140711  0.8344622238359202  0.5453499594084853
  0.6678473627668680  0.6668496915022064  0.3109681402331511
  0.8308934997329189  0.8307085848227671  0.6864895034620827
  0.6662636477453874  0.6681236487880939  0.6869943759346000
  0.8345956039188797  0.8337436504696496  0.3108210683790752
  0.8341425120181726  0.6665570969828184  0.4527731264815804
  0.6685268197863650  0.8352207093559461  0.5452098518897357
  0.5643773924369593  0.5717070328906012  0.7984527085502858
  0.5271995806136547  0.5407369449884039  0.8297093968846005
 
  0.00000000E+00  0.00000000E+00  0.00000000E+00
  0.00000000E+00  0.00000000E+00  0.00000000E+00
  0.00000000E+00  0.00000000E+00  0.00000000E+00
  0.00000000E+00  0.00000000E+00  0.00000000E+00
  0.00000000E+00  0.00000000E+00  0.00000000E+00
  0.00000000E+00  0.00000000E+00  0.00000000E+00
  0.00000000E+00  0.00000000E+00  0.00000000E+00
  0.00000000E+00  0.00000000E+00  0.00000000E+00
  0.00000000E+00  0.00000000E+00  0.00000000E+00
  0.00000000E+00  0.00000000E+00  0.00000000E+00
  0.00000000E+00  0.00000000E+00  0.00000000E+00
  0.00000000E+00  0.00000000E+00  0.00000000E+00
  0.00000000E+00  0.00000000E+00  0.00000000E+00
  0.00000000E+00  0.00000000E+00  0.00000000E+00
  0.00000000E+00  0.00000000E+00  0.00000000E+00
  0.00000000E+00  0.00000000E+00  0.00000000E+00
  0.00000000E+00  0.00000000E+00  0.00000000E+00
  0.00000000E+00  0.00000000E+00  0.00000000E+00
  0.00000000E+00  0.00000000E+00  0.00000000E+00
  0.00000000E+00  0.00000000E+00  0.00000000E+00
  0.00000000E+00  0.00000000E+00  0.00000000E+00
  0.00000000E+00  0.00000000E+00  0.00000000E+00
  0.00000000E+00  0.00000000E+00  0.00000000E+00
  0.00000000E+00  0.00000000E+00  0.00000000E+00
  0.00000000E+00  0.00000000E+00  0.00000000E+00
  0.00000000E+00  0.00000000E+00  0.00000000E+00
  0.00000000E+00  0.00000000E+00  0.00000000E+00
  0.00000000E+00  0.00000000E+00  0.00000000E+00
  0.00000000E+00  0.00000000E+00  0.00000000E+00
  0.00000000E+00  0.00000000E+00  0.00000000E+00
  0.00000000E+00  0.00000000E+00  0.00000000E+00
  0.00000000E+00  0.00000000E+00  0.00000000E+00
  0.00000000E+00  0.00000000E+00  0.00000000E+00
  0.00000000E+00  0.00000000E+00  0.00000000E+00
  0.00000000E+00  0.00000000E+00  0.00000000E+00
  0.00000000E+00  0.00000000E+00  0.00000000E+00
  0.00000000E+00  0.00000000E+00  0.00000000E+00
  0.00000000E+00  0.00000000E+00  0.00000000E+00
  0.00000000E+00  0.00000000E+00  0.00000000E+00
  0.00000000E+00  0.00000000E+00  0.00000000E+00
  0.00000000E+00  0.00000000E+00  0.00000000E+00
  0.00000000E+00  0.00000000E+00  0.00000000E+00
  0.00000000E+00  0.00000000E+00  0.00000000E+00
  0.00000000E+00  0.00000000E+00  0.00000000E+00
  0.00000000E+00  0.00000000E+00  0.00000000E+00
  0.00000000E+00  0.00000000E+00  0.00000000E+00
  0.00000000E+00  0.00000000E+00  0.00000000E+00
  0.00000000E+00  0.00000000E+00  0.00000000E+00
  0.00000000E+00  0.00000000E+00  0.00000000E+00
  0.00000000E+00  0.00000000E+00  0.00000000E+00
  0.00000000E+00  0.00000000E+00  0.00000000E+00
  0.00000000E+00  0.00000000E+00  0.00000000E+00
  0.00000000E+00  0.00000000E+00  0.00000000E+00
  0.00000000E+00  0.00000000E+00  0.00000000E+00
  0.00000000E+00  0.00000000E+00  0.00000000E+00
  0.00000000E+00  0.00000000E+00  0.00000000E+00
  0.00000000E+00  0.00000000E+00  0.00000000E+00
  0.00000000E+00  0.00000000E+00  0.00000000E+00
  0.00000000E+00  0.00000000E+00  0.00000000E+00
  0.00000000E+00  0.00000000E+00  0.00000000E+00
  0.00000000E+00  0.00000000E+00  0.00000000E+00
  0.00000000E+00  0.00000000E+00  0.00000000E+00
  0.00000000E+00  0.00000000E+00  0.00000000E+00
  0.00000000E+00  0.00000000E+00  0.00000000E+00
  0.00000000E+00  0.00000000E+00  0.00000000E+00
  0.00000000E+00  0.00000000E+00  0.00000000E+00
  0.00000000E+00  0.00000000E+00  0.00000000E+00
  0.00000000E+00  0.00000000E+00  0.00000000E+00
  0.00000000E+00  0.00000000E+00  0.00000000E+00
  0.00000000E+00  0.00000000E+00  0.00000000E+00
  0.00000000E+00  0.00000000E+00  0.00000000E+00
  0.00000000E+00  0.00000000E+00  0.00000000E+00
  0.00000000E+00  0.00000000E+00  0.00000000E+00
  0.00000000E+00  0.00000000E+00  0.00000000E+00
