CONTCAR\(2)                             
   1.00000000000000     
    14.1827001571999993    0.0000000000000000    0.0000000000000000
     0.0000000000000000   18.7943000793000010    0.0000000000000000
     0.0000000000000000    0.0000000000000000   21.0296001433999997
   Ta   Pt   Se   O    H 
    16     8    56     1     1
Selective dynamics
Direct
  0.1860968308838409  0.4200505975444742  0.5659401220531137   F   F   F
  0.0620817701756167  0.5763875897156581  0.4370659331784310   F   F   F
  0.0628985772427697  0.9028321115924030  0.4872315820886115   F   F   F
  0.1864717207375577  0.0950605909505242  0.5087009695809783   F   F   F
  0.4373683046598345  0.4219855712357941  0.5785006922043721   F   F   F
  0.3126809156116579  0.5763638752091111  0.4401865985045674   F   F   F
  0.3130347146702874  0.9033047024177066  0.4881551892441109   F   F   F
  0.4378308538416178  0.0954519342559976  0.5105573027639139   F   F   F
  0.6886784200486105  0.4203920555354870  0.5658320081546435   F   F   F
  0.5622299796735888  0.5764615079231064  0.4401150958534927   F   F   F
  0.5623072289182502  0.9031519752522001  0.4884157225036958   F   F   F
  0.6888575782380784  0.0950096459834882  0.5088377322033253   F   F   F
  0.9374519429000401  0.4203752737082880  0.5632324806857767   F   F   F
  0.8127727939065892  0.5765479415504231  0.4369141937338838   F   F   F
  0.8125500820101408  0.9030498801348159  0.4874068640500369   F   F   F
  0.9376020572240691  0.0950565607073202  0.5076443102998098   F   F   F
  0.0624257561985928  0.2246161183204478  0.5341953911292876   F   F   F
  0.1879184595777446  0.7726660936468122  0.4637275454676981   F   F   F
  0.3118602497771334  0.2274779638826274  0.5367114413704854   F   F   F
  0.4377797344980792  0.7737960283157364  0.4650184625351912   F   F   F
  0.5631911977378579  0.2276120274003901  0.5368648121777468   F   F   F
  0.6876184578545903  0.7727948046278499  0.4638395492930556   F   F   F
  0.8125703385855942  0.2246084459943489  0.5340351371195666   F   F   F
  0.9378191738229731  0.7726699334669291  0.4633660866015674   F   F   F
  0.0631835490806054  0.6953700722576457  0.5136549670226813   F   F   F
  0.1864141256457046  0.3038330357331205  0.4857882936366309   F   F   F
  0.0634027245861688  0.4338055072780946  0.4699686015093363   F   F   F
  0.1864882716669314  0.5658922911685309  0.5342062298964265   F   F   F
  0.1891436286360602  0.5209794509235124  0.3612401942803913   F   F   F
  0.0593825479460790  0.4717270335956059  0.6443898180875607   F   F   F
  0.1881377011439582  0.9829575991483566  0.4278310714863380   F   F   F
  0.0621417018600496  0.0150897187108328  0.5677798043637452   F   F   F
  0.0603544823716362  0.3333536128402130  0.6156906824521684   F   F   F
  0.1884444209434690  0.6617727549038506  0.3857247242058222   F   F   F
  0.1855501256952365  0.1692271655664825  0.6072823647695742   F   F   F
  0.0631904405976442  0.8256269639948215  0.3900502973774564   F   F   F
  0.0629355229657520  0.1458029722026879  0.4312396756422743   F   F   F
  0.1876768630960015  0.8537173483520633  0.5649069956939172   F   F   F
  0.3131013311470809  0.6964636764046546  0.5149998419595150   F   F   F
  0.4375831386303020  0.3085229516895538  0.4913950965701872   F   F   F
  0.3156615050526881  0.4347945547595629  0.4762327730606657   F   F   F
  0.4375466890591966  0.5650791382142373  0.5345842377306695   F   F   F
  0.4373644645960155  0.5238018923039007  0.3602409681284442   F   F   F
  0.2965796698266132  0.4882458945863206  0.6402457092926923   F   F   F
  0.4377429686058321  0.9837083443598544  0.4286874137071450   F   F   F
  0.3122385832483232  0.0158262869136152  0.5686505329295173   F   F   F
  0.3059530375006432  0.3278106425724729  0.6170511009487853   F   F   F
  0.4373617047745313  0.6612726510876286  0.3864471123757411   F   F   F
  0.4375233211584799  0.1701922611222741  0.6086244733775956   F   F   F
  0.3134716109958475  0.8259964734943708  0.3909726976007590   F   F   F
  0.3136321209332280  0.1498401423850808  0.4348373806512953   F   F   F
  0.4374667105950323  0.8551526436611780  0.5662876642946486   F   F   F
  0.5623409225059106  0.6964608135674837  0.5150688404250303   F   F   F
  0.6884667130649404  0.3038751343257289  0.4858045935946365   F   F   F
  0.5590422454505273  0.4348824854835556  0.4761318868116717   F   F   F
  0.6890083094478427  0.5660833339962039  0.5336700752550882   F   F   F
  0.6857203841578539  0.5212182014040891  0.3610991265609300   F   F   F
  0.5779539763194350  0.4886518406058116  0.6399000409171265   F   F   F
  0.6869689388120577  0.9828870195951254  0.4280447861435093   F   F   F
  0.5636348386721508  0.0157577694800182  0.5688976529895697   F   F   F
  0.5688337455961303  0.3284264706776909  0.6172396298121612   F   F   F
  0.6863963795095742  0.6620632800563087  0.3856341315689562   F   F   F
  0.6896425218397155  0.1693685318369376  0.6073003334733684   F   F   F
  0.5622148090180872  0.8259869721652393  0.3910781196004436   F   F   F
  0.5621249828474930  0.1497745215031685  0.4348453438190560   F   F   F
  0.6880045475305181  0.8536946709383599  0.5650801280076649   F   F   F
  0.8124510316608635  0.6954845562589469  0.5135478832841542   F   F   F
  0.9374934690541536  0.3025857098609919  0.4852464071201652   F   F   F
  0.8115320713794034  0.4338648144278281  0.4700143757739923   F   F   F
  0.9375990423664717  0.5640243196600991  0.5316433007860510   F   F   F
  0.9374888417713336  0.5224353042224266  0.3583106163306411   F   F   F
  0.8151945416400324  0.4718948144492643  0.6443141216902504   F   F   F
  0.9376202585563860  0.9824097106810399  0.4273656521066940   F   F   F
  0.8135580485342189  0.0152164232448015  0.5680480374758972   F   F   F
  0.8142654095103552  0.3336001815752070  0.6156139007602448   F   F   F
  0.9375390662894247  0.6628326037048566  0.3850257957510337   F   F   F
  0.9373643133258867  0.1699940772887274  0.6063135881054507   F   F   F
  0.8123800091609112  0.8259536724051983  0.3902081936309969   F   F   F
  0.8124435119638136  0.1455814874510395  0.4311897700132903   F   F   F
  0.9377119283291933  0.8533446110616012  0.5644846610288994   F   F   F
  0.4353795816103272  0.4008654897948887  0.6789929759265121   T   T   T
  0.4411958789207517  0.4428050606748783  0.7056965100633257   T   T   T
 
  0.00000000E+00  0.00000000E+00  0.00000000E+00
  0.00000000E+00  0.00000000E+00  0.00000000E+00
  0.00000000E+00  0.00000000E+00  0.00000000E+00
  0.00000000E+00  0.00000000E+00  0.00000000E+00
  0.00000000E+00  0.00000000E+00  0.00000000E+00
  0.00000000E+00  0.00000000E+00  0.00000000E+00
  0.00000000E+00  0.00000000E+00  0.00000000E+00
  0.00000000E+00  0.00000000E+00  0.00000000E+00
  0.00000000E+00  0.00000000E+00  0.00000000E+00
  0.00000000E+00  0.00000000E+00  0.00000000E+00
  0.00000000E+00  0.00000000E+00  0.00000000E+00
  0.00000000E+00  0.00000000E+00  0.00000000E+00
  0.00000000E+00  0.00000000E+00  0.00000000E+00
  0.00000000E+00  0.00000000E+00  0.00000000E+00
  0.00000000E+00  0.00000000E+00  0.00000000E+00
  0.00000000E+00  0.00000000E+00  0.00000000E+00
  0.00000000E+00  0.00000000E+00  0.00000000E+00
  0.00000000E+00  0.00000000E+00  0.00000000E+00
  0.00000000E+00  0.00000000E+00  0.00000000E+00
  0.00000000E+00  0.00000000E+00  0.00000000E+00
  0.00000000E+00  0.00000000E+00  0.00000000E+00
  0.00000000E+00  0.00000000E+00  0.00000000E+00
  0.00000000E+00  0.00000000E+00  0.00000000E+00
  0.00000000E+00  0.00000000E+00  0.00000000E+00
  0.00000000E+00  0.00000000E+00  0.00000000E+00
  0.00000000E+00  0.00000000E+00  0.00000000E+00
  0.00000000E+00  0.00000000E+00  0.00000000E+00
  0.00000000E+00  0.00000000E+00  0.00000000E+00
  0.00000000E+00  0.00000000E+00  0.00000000E+00
  0.00000000E+00  0.00000000E+00  0.00000000E+00
  0.00000000E+00  0.00000000E+00  0.00000000E+00
  0.00000000E+00  0.00000000E+00  0.00000000E+00
  0.00000000E+00  0.00000000E+00  0.00000000E+00
  0.00000000E+00  0.00000000E+00  0.00000000E+00
  0.00000000E+00  0.00000000E+00  0.00000000E+00
  0.00000000E+00  0.00000000E+00  0.00000000E+00
  0.00000000E+00  0.00000000E+00  0.00000000E+00
  0.00000000E+00  0.00000000E+00  0.00000000E+00
  0.00000000E+00  0.00000000E+00  0.00000000E+00
  0.00000000E+00  0.00000000E+00  0.00000000E+00
  0.00000000E+00  0.00000000E+00  0.00000000E+00
  0.00000000E+00  0.00000000E+00  0.00000000E+00
  0.00000000E+00  0.00000000E+00  0.00000000E+00
  0.00000000E+00  0.00000000E+00  0.00000000E+00
  0.00000000E+00  0.00000000E+00  0.00000000E+00
  0.00000000E+00  0.00000000E+00  0.00000000E+00
  0.00000000E+00  0.00000000E+00  0.00000000E+00
  0.00000000E+00  0.00000000E+00  0.00000000E+00
  0.00000000E+00  0.00000000E+00  0.00000000E+00
  0.00000000E+00  0.00000000E+00  0.00000000E+00
  0.00000000E+00  0.00000000E+00  0.00000000E+00
  0.00000000E+00  0.00000000E+00  0.00000000E+00
  0.00000000E+00  0.00000000E+00  0.00000000E+00
  0.00000000E+00  0.00000000E+00  0.00000000E+00
  0.00000000E+00  0.00000000E+00  0.00000000E+00
  0.00000000E+00  0.00000000E+00  0.00000000E+00
  0.00000000E+00  0.00000000E+00  0.00000000E+00
  0.00000000E+00  0.00000000E+00  0.00000000E+00
  0.00000000E+00  0.00000000E+00  0.00000000E+00
  0.00000000E+00  0.00000000E+00  0.00000000E+00
  0.00000000E+00  0.00000000E+00  0.00000000E+00
  0.00000000E+00  0.00000000E+00  0.00000000E+00
  0.00000000E+00  0.00000000E+00  0.00000000E+00
  0.00000000E+00  0.00000000E+00  0.00000000E+00
  0.00000000E+00  0.00000000E+00  0.00000000E+00
  0.00000000E+00  0.00000000E+00  0.00000000E+00
  0.00000000E+00  0.00000000E+00  0.00000000E+00
  0.00000000E+00  0.00000000E+00  0.00000000E+00
  0.00000000E+00  0.00000000E+00  0.00000000E+00
  0.00000000E+00  0.00000000E+00  0.00000000E+00
  0.00000000E+00  0.00000000E+00  0.00000000E+00
  0.00000000E+00  0.00000000E+00  0.00000000E+00
  0.00000000E+00  0.00000000E+00  0.00000000E+00
  0.00000000E+00  0.00000000E+00  0.00000000E+00
  0.00000000E+00  0.00000000E+00  0.00000000E+00
  0.00000000E+00  0.00000000E+00  0.00000000E+00
  0.00000000E+00  0.00000000E+00  0.00000000E+00
  0.00000000E+00  0.00000000E+00  0.00000000E+00
  0.00000000E+00  0.00000000E+00  0.00000000E+00
  0.00000000E+00  0.00000000E+00  0.00000000E+00
  0.00000000E+00  0.00000000E+00  0.00000000E+00
  0.00000000E+00  0.00000000E+00  0.00000000E+00
