CONTCAR\(14)                            
   1.00000000000000     
    11.8042001723999999    0.0000000000000000    0.0000000000000000
     0.0000000000000000   11.8042001723999999    0.0000000000000000
     0.0000000000000000    0.0000000000000000   18.3845996856999996
   Li   H    Pd
    32    32    16
Direct
  0.0000000000000000  0.0000000000000000  0.4146797688516335
 -0.0000000000000000 -0.0000000000000000  0.5853202831483638
  0.2500000000000000 -0.0000000000000000  0.4146797688516335
  0.2500000000000000  0.0000000000000000  0.5853202831483638
  0.5000000000000000 -0.0000000000000000  0.4146797688516335
  0.5000000000000000  0.0000000000000000  0.5853202831483638
  0.7500000200000017  0.0000000000000000  0.4146797688516335
  0.7500000200000017 -0.0000000000000000  0.5853202831483638
 -0.0000000000000000  0.2500000000000000  0.4146797688516335
 -0.0000000000000000  0.2500000000000000  0.5853202831483638
  0.2500000000000000  0.2500000000000000  0.4146797688516335
  0.2500000000000000  0.2500000000000000  0.5853202831483638
  0.5000000000000000  0.2500000000000000  0.4146797688516335
  0.5000000000000000  0.2500000000000000  0.5853202831483638
  0.7500000200000017  0.2500000000000000  0.4146797688516335
  0.7500000200000017  0.2500000000000000  0.5853202831483638
 -0.0000000000000000  0.5000000000000000  0.4146797688516335
  0.0000000000000000  0.5000000000000000  0.5853202831483638
  0.2500000000000000  0.5000000000000000  0.4146797688516335
  0.2500000000000000  0.5000000000000000  0.5853202831483638
  0.5000000000000000  0.5000000000000000  0.4146797688516335
  0.5000000000000000  0.5000000000000000  0.5853202831483638
  0.7500000200000017  0.5000000000000000  0.4146797688516335
  0.7500000200000017  0.5000000000000000  0.5853202831483638
  0.0000000000000000  0.7500000200000017  0.4146797688516335
 -0.0000000000000000  0.7500000200000017  0.5853202831483638
  0.2500000000000000  0.7500000200000017  0.4146797688516335
  0.2500000000000000  0.7500000200000017  0.5853202831483638
  0.5000000000000000  0.7500000200000017  0.4146797688516335
  0.5000000000000000  0.7500000200000017  0.5853202831483638
  0.7500000200000017  0.7500000200000017  0.4146797688516335
  0.7500000200000017  0.7500000200000017  0.5853202831483638
  0.1250000000000000  0.1250000000000000  0.5924531852562345
  0.1250000000000000  0.1250000000000000  0.4075468147437656
  0.3750000100000008  0.1250000000000000  0.5924531852562345
  0.3750000100000008  0.1250000000000000  0.4075468147437656
  0.6249999899999992  0.1250000000000000  0.5924531852562345
  0.6249999899999992  0.1250000000000000  0.4075468147437656
  0.8750000100000008  0.1250000000000000  0.5924531852562345
  0.8750000100000008  0.1250000000000000  0.4075468147437656
  0.1250000000000000  0.3750000100000008  0.5924531852562345
  0.1250000000000000  0.3750000100000008  0.4075468147437656
  0.3750000100000008  0.3750000100000008  0.5924531852562345
  0.3750000100000008  0.3750000100000008  0.4075468147437656
  0.6249999899999992  0.3750000100000008  0.5924531852562345
  0.6249999899999992  0.3750000100000008  0.4075468147437656
  0.8750000100000008  0.3750000100000008  0.5924531852562345
  0.8750000100000008  0.3750000100000008  0.4075468147437656
  0.1250000000000000  0.6249999899999992  0.5924531852562345
  0.1250000000000000  0.6249999899999992  0.4075468147437656
  0.3750000100000008  0.6249999899999992  0.5924531852562345
  0.3750000100000008  0.6249999899999992  0.4075468147437656
  0.6249999899999992  0.6249999899999992  0.5924531852562345
  0.6249999899999992  0.6249999899999992  0.4075468147437656
  0.8750000100000008  0.6249999899999992  0.5924531852562345
  0.8750000100000008  0.6249999899999992  0.4075468147437656
  0.1250000000000000  0.8750000100000008  0.5924531852562345
  0.1250000000000000  0.8750000100000008  0.4075468147437656
  0.3750000100000008  0.8750000100000008  0.5924531852562345
  0.3750000100000008  0.8750000100000008  0.4075468147437656
  0.6249999899999992  0.8750000100000008  0.5924531852562345
  0.6249999899999992  0.8750000100000008  0.4075468147437656
  0.8750000100000008  0.8750000100000008  0.5924531852562345
  0.8750000100000008  0.8750000100000008  0.4075468147437656
  0.1250000000000000  0.1250000000000000  0.5000000000000000
  0.3750000100000008  0.1250000000000000  0.5000000000000000
  0.6249999899999992  0.1250000000000000  0.5000000000000000
  0.8750000100000008  0.1250000000000000  0.5000000000000000
  0.1250000000000000  0.3750000100000008  0.5000000000000000
  0.3750000100000008  0.3750000100000008  0.5000000000000000
  0.6249999899999992  0.3750000100000008  0.5000000000000000
  0.8750000100000008  0.3750000100000008  0.5000000000000000
  0.1250000000000000  0.6249999899999992  0.5000000000000000
  0.3750000100000008  0.6249999899999992  0.5000000000000000
  0.6249999899999992  0.6249999899999992  0.5000000000000000
  0.8750000100000008  0.6249999899999992  0.5000000000000000
  0.1250000000000000  0.8750000100000008  0.5000000000000000
  0.3750000100000008  0.8750000100000008  0.5000000000000000
  0.6249999899999992  0.8750000100000008  0.5000000000000000
  0.8750000100000008  0.8750000100000008  0.5000000000000000
 
  0.00000000E+00  0.00000000E+00  0.00000000E+00
  0.00000000E+00  0.00000000E+00  0.00000000E+00
  0.00000000E+00  0.00000000E+00  0.00000000E+00
  0.00000000E+00  0.00000000E+00  0.00000000E+00
  0.00000000E+00  0.00000000E+00  0.00000000E+00
  0.00000000E+00  0.00000000E+00  0.00000000E+00
  0.00000000E+00  0.00000000E+00  0.00000000E+00
  0.00000000E+00  0.00000000E+00  0.00000000E+00
  0.00000000E+00  0.00000000E+00  0.00000000E+00
  0.00000000E+00  0.00000000E+00  0.00000000E+00
  0.00000000E+00  0.00000000E+00  0.00000000E+00
  0.00000000E+00  0.00000000E+00  0.00000000E+00
  0.00000000E+00  0.00000000E+00  0.00000000E+00
  0.00000000E+00  0.00000000E+00  0.00000000E+00
  0.00000000E+00  0.00000000E+00  0.00000000E+00
  0.00000000E+00  0.00000000E+00  0.00000000E+00
  0.00000000E+00  0.00000000E+00  0.00000000E+00
  0.00000000E+00  0.00000000E+00  0.00000000E+00
  0.00000000E+00  0.00000000E+00  0.00000000E+00
  0.00000000E+00  0.00000000E+00  0.00000000E+00
  0.00000000E+00  0.00000000E+00  0.00000000E+00
  0.00000000E+00  0.00000000E+00  0.00000000E+00
  0.00000000E+00  0.00000000E+00  0.00000000E+00
  0.00000000E+00  0.00000000E+00  0.00000000E+00
  0.00000000E+00  0.00000000E+00  0.00000000E+00
  0.00000000E+00  0.00000000E+00  0.00000000E+00
  0.00000000E+00  0.00000000E+00  0.00000000E+00
  0.00000000E+00  0.00000000E+00  0.00000000E+00
  0.00000000E+00  0.00000000E+00  0.00000000E+00
  0.00000000E+00  0.00000000E+00  0.00000000E+00
  0.00000000E+00  0.00000000E+00  0.00000000E+00
  0.00000000E+00  0.00000000E+00  0.00000000E+00
  0.00000000E+00  0.00000000E+00  0.00000000E+00
  0.00000000E+00  0.00000000E+00  0.00000000E+00
  0.00000000E+00  0.00000000E+00  0.00000000E+00
  0.00000000E+00  0.00000000E+00  0.00000000E+00
  0.00000000E+00  0.00000000E+00  0.00000000E+00
  0.00000000E+00  0.00000000E+00  0.00000000E+00
  0.00000000E+00  0.00000000E+00  0.00000000E+00
  0.00000000E+00  0.00000000E+00  0.00000000E+00
  0.00000000E+00  0.00000000E+00  0.00000000E+00
  0.00000000E+00  0.00000000E+00  0.00000000E+00
  0.00000000E+00  0.00000000E+00  0.00000000E+00
  0.00000000E+00  0.00000000E+00  0.00000000E+00
  0.00000000E+00  0.00000000E+00  0.00000000E+00
  0.00000000E+00  0.00000000E+00  0.00000000E+00
  0.00000000E+00  0.00000000E+00  0.00000000E+00
  0.00000000E+00  0.00000000E+00  0.00000000E+00
  0.00000000E+00  0.00000000E+00  0.00000000E+00
  0.00000000E+00  0.00000000E+00  0.00000000E+00
  0.00000000E+00  0.00000000E+00  0.00000000E+00
  0.00000000E+00  0.00000000E+00  0.00000000E+00
  0.00000000E+00  0.00000000E+00  0.00000000E+00
  0.00000000E+00  0.00000000E+00  0.00000000E+00
  0.00000000E+00  0.00000000E+00  0.00000000E+00
  0.00000000E+00  0.00000000E+00  0.00000000E+00
  0.00000000E+00  0.00000000E+00  0.00000000E+00
  0.00000000E+00  0.00000000E+00  0.00000000E+00
  0.00000000E+00  0.00000000E+00  0.00000000E+00
  0.00000000E+00  0.00000000E+00  0.00000000E+00
  0.00000000E+00  0.00000000E+00  0.00000000E+00
  0.00000000E+00  0.00000000E+00  0.00000000E+00
  0.00000000E+00  0.00000000E+00  0.00000000E+00
  0.00000000E+00  0.00000000E+00  0.00000000E+00
  0.00000000E+00  0.00000000E+00  0.00000000E+00
  0.00000000E+00  0.00000000E+00  0.00000000E+00
  0.00000000E+00  0.00000000E+00  0.00000000E+00
  0.00000000E+00  0.00000000E+00  0.00000000E+00
  0.00000000E+00  0.00000000E+00  0.00000000E+00
  0.00000000E+00  0.00000000E+00  0.00000000E+00
  0.00000000E+00  0.00000000E+00  0.00000000E+00
  0.00000000E+00  0.00000000E+00  0.00000000E+00
  0.00000000E+00  0.00000000E+00  0.00000000E+00
  0.00000000E+00  0.00000000E+00  0.00000000E+00
  0.00000000E+00  0.00000000E+00  0.00000000E+00
  0.00000000E+00  0.00000000E+00  0.00000000E+00
  0.00000000E+00  0.00000000E+00  0.00000000E+00
  0.00000000E+00  0.00000000E+00  0.00000000E+00
  0.00000000E+00  0.00000000E+00  0.00000000E+00
  0.00000000E+00  0.00000000E+00  0.00000000E+00
