CONTCAR\(3)                             
   1.00000000000000     
    13.2600002288999992    0.0000000000000000    0.0000000000000000
    -6.6300199930000003   11.4834855754999996    0.0000000000000000
     0.0000000000000000    0.0000000000000000   20.2117004394999995
   Na   Zr   N    O    H 
    32    16    32     2     1
Direct
  0.1681100646151615  0.0840489806142280  0.3746920982474219
  0.0857718449279393  0.1690552164364884  0.6272533256069975
  0.4188869022298612  0.0844941931550056  0.3745759497634003
  0.3347032240894462  0.1683024470500782  0.6273533974913537
  0.6687083968801002  0.0851556162117984  0.3745248952394726
  0.5843821678749622  0.1671601814508550  0.6282853645744587
  0.9174370507595297  0.0841975850051717  0.3747782736072515
  0.8351622110707351  0.1678209473432540  0.6284130966426670
  0.1661086297545983  0.3324034584225051  0.3738980413147651
  0.0934254383724802  0.4217866406907492  0.6290868992328074
  0.4182445620513777  0.3325988703395812  0.3738884359651224
  0.3396313723701375  0.4278056723517281  0.6304038565950082
  0.6685609840093456  0.3334955236735849  0.3745640021927885
  0.5831746024992651  0.4184181991819630  0.6276605144038075
  0.9162317816657188  0.3331276604599407  0.3745564758694390
  0.8351296727581079  0.4173207624597557  0.6283818780895636
  0.1661517281650478  0.5838307088254570  0.3738284845390440
  0.0857793238742617  0.6667687050274985  0.6273340040187032
  0.4181944402762180  0.5841393230543477  0.3729761780292855
  0.3395561678220474  0.6618360026089981  0.6303583367800519
  0.6693326387023441  0.5838952912000953  0.3741612255116982
  0.5699395361415415  0.6600115168581143  0.6302423915853239
  0.9173962940371105  0.5833348839235759  0.3747981330132792
  0.8332458550309435  0.6670769581038760  0.6278238371437291
  0.1679072133538474  0.8340139753851629  0.3747031795233226
  0.0846597719051515  0.9174503164338506  0.6278974201160078
  0.4182736766130025  0.8356995201450108  0.3738468170354632
  0.3347037772351408  0.9164337115292738  0.6273040247338482
  0.6693834533945968  0.8354859582284687  0.3741157319116431
  0.5830416533534399  0.9147863313382959  0.6275981417884824
  0.9175289432286217  0.8337348639838643  0.3749041369652082
  0.8333136720952407  0.9163058704478829  0.6277266351272790
  0.0011332033558862  0.0006892293559218  0.5012247723366029
  0.2513620087223316  0.0006876377212800  0.5010460821777120
  0.5011989609859345  0.0002238243404921  0.5011698115604230
  0.7509767859462120  0.0004385290680166  0.5014035743325651
  0.0019859410611534  0.2513880810222360  0.5014900927924733
  0.2516393917542014  0.2517889761482490  0.5013676651181990
  0.5011581438126038  0.2509902359249389  0.5012338144713849
  0.7512814112558261  0.2506530894691134  0.5018318853878951
  0.0020151787317732  0.5006482516349428  0.5014468426412960
  0.2520316076603897  0.5010412471471488  0.4993122837518443
  0.5006365037104810  0.5009712563250139  0.4996530847668432
  0.7509661978060063  0.5005719311599118  0.5014290953746189
  0.0010804163056273  0.7504567483904725  0.5012999500910582
  0.2516470986993850  0.7499041702200028  0.5013445268360950
  0.5006136522777503  0.7497217512137141  0.4996431334316350
  0.7499833313501455  0.7500043429320162  0.5018970902362078
  0.1680530221094323  0.0843289681403625  0.5590388102489925
  0.0838208953233188  0.1665681590048367  0.4434138748659063
  0.4179004411825974  0.0839682115056266  0.5592449212859512
  0.3349472302410488  0.1668503743908946  0.4434390093550348
  0.6676786267064807  0.0834639297288629  0.5596636222805321
  0.5852024718161567  0.1676113430171576  0.4440769758369942
  0.9179235097663110  0.0840026053856082  0.5594164016017948
  0.8342269528035937  0.1673626268428631  0.4441690772088780
  0.1693997381973832  0.3352211214591566  0.5575803127666020
  0.0826690003569345  0.4163783465645425  0.4421900136816899
  0.4177909986632835  0.3352353255434274  0.5584599009664893
  0.3338328992547910  0.4154823275513482  0.4406973834680146
  0.6676746277112869  0.3342302541614712  0.5596881606213385
  0.5853743175718840  0.4165880944876265  0.4426279774912403
  0.9196197987085130  0.3348310320726497  0.5598807391726210
  0.8341794508748496  0.4168885413212142  0.4441742647797310
  0.1693811190610593  0.5842424422827606  0.5575723336621340
  0.0837793073837001  0.6672859576076454  0.4434125300340047
  0.4172317195796231  0.5836487857458248  0.5511971461104846
  0.3338257177145571  0.6684031905392325  0.4406832063392298
  0.6660569093567115  0.5838857048414045  0.5588844693605418
  0.5864710670988431  0.6682657976397309  0.4412275955208641
  0.9179083252028118  0.5839851288333455  0.5594488506058222
  0.8347008172065097  0.6669984583180756  0.4438943696763709
  0.1680444804411984  0.8337850340566332  0.5590563860636513
  0.0844469636714013  0.9172566066699922  0.4437270599916310
  0.4177777597037971  0.8325834028261754  0.5584162627255035
  0.3349204897076507  0.9181383319304303  0.4434154111267387
  0.6660535259168840  0.8322305879046810  0.5588732055137591
  0.5854152625688730  0.9188486235365915  0.4425935276942983
  0.9175773662070308  0.8338112261602060  0.5592324526600704
  0.8347310166649867  0.9177494862276355  0.4438583705765898
  0.2882561416470595  0.5190192039204568  0.7175884259263291
  0.4199313506840717  0.5852417587256213  0.7109180906002363
  0.2813883233023423  0.5156126130419626  0.7656911102144495
 
  0.00000000E+00  0.00000000E+00  0.00000000E+00
  0.00000000E+00  0.00000000E+00  0.00000000E+00
  0.00000000E+00  0.00000000E+00  0.00000000E+00
  0.00000000E+00  0.00000000E+00  0.00000000E+00
  0.00000000E+00  0.00000000E+00  0.00000000E+00
  0.00000000E+00  0.00000000E+00  0.00000000E+00
  0.00000000E+00  0.00000000E+00  0.00000000E+00
  0.00000000E+00  0.00000000E+00  0.00000000E+00
  0.00000000E+00  0.00000000E+00  0.00000000E+00
  0.00000000E+00  0.00000000E+00  0.00000000E+00
  0.00000000E+00  0.00000000E+00  0.00000000E+00
  0.00000000E+00  0.00000000E+00  0.00000000E+00
  0.00000000E+00  0.00000000E+00  0.00000000E+00
  0.00000000E+00  0.00000000E+00  0.00000000E+00
  0.00000000E+00  0.00000000E+00  0.00000000E+00
  0.00000000E+00  0.00000000E+00  0.00000000E+00
  0.00000000E+00  0.00000000E+00  0.00000000E+00
  0.00000000E+00  0.00000000E+00  0.00000000E+00
  0.00000000E+00  0.00000000E+00  0.00000000E+00
  0.00000000E+00  0.00000000E+00  0.00000000E+00
  0.00000000E+00  0.00000000E+00  0.00000000E+00
  0.00000000E+00  0.00000000E+00  0.00000000E+00
  0.00000000E+00  0.00000000E+00  0.00000000E+00
  0.00000000E+00  0.00000000E+00  0.00000000E+00
  0.00000000E+00  0.00000000E+00  0.00000000E+00
  0.00000000E+00  0.00000000E+00  0.00000000E+00
  0.00000000E+00  0.00000000E+00  0.00000000E+00
  0.00000000E+00  0.00000000E+00  0.00000000E+00
  0.00000000E+00  0.00000000E+00  0.00000000E+00
  0.00000000E+00  0.00000000E+00  0.00000000E+00
  0.00000000E+00  0.00000000E+00  0.00000000E+00
  0.00000000E+00  0.00000000E+00  0.00000000E+00
  0.00000000E+00  0.00000000E+00  0.00000000E+00
  0.00000000E+00  0.00000000E+00  0.00000000E+00
  0.00000000E+00  0.00000000E+00  0.00000000E+00
  0.00000000E+00  0.00000000E+00  0.00000000E+00
  0.00000000E+00  0.00000000E+00  0.00000000E+00
  0.00000000E+00  0.00000000E+00  0.00000000E+00
  0.00000000E+00  0.00000000E+00  0.00000000E+00
  0.00000000E+00  0.00000000E+00  0.00000000E+00
  0.00000000E+00  0.00000000E+00  0.00000000E+00
  0.00000000E+00  0.00000000E+00  0.00000000E+00
  0.00000000E+00  0.00000000E+00  0.00000000E+00
  0.00000000E+00  0.00000000E+00  0.00000000E+00
  0.00000000E+00  0.00000000E+00  0.00000000E+00
  0.00000000E+00  0.00000000E+00  0.00000000E+00
  0.00000000E+00  0.00000000E+00  0.00000000E+00
  0.00000000E+00  0.00000000E+00  0.00000000E+00
  0.00000000E+00  0.00000000E+00  0.00000000E+00
  0.00000000E+00  0.00000000E+00  0.00000000E+00
  0.00000000E+00  0.00000000E+00  0.00000000E+00
  0.00000000E+00  0.00000000E+00  0.00000000E+00
  0.00000000E+00  0.00000000E+00  0.00000000E+00
  0.00000000E+00  0.00000000E+00  0.00000000E+00
  0.00000000E+00  0.00000000E+00  0.00000000E+00
  0.00000000E+00  0.00000000E+00  0.00000000E+00
  0.00000000E+00  0.00000000E+00  0.00000000E+00
  0.00000000E+00  0.00000000E+00  0.00000000E+00
  0.00000000E+00  0.00000000E+00  0.00000000E+00
  0.00000000E+00  0.00000000E+00  0.00000000E+00
  0.00000000E+00  0.00000000E+00  0.00000000E+00
  0.00000000E+00  0.00000000E+00  0.00000000E+00
  0.00000000E+00  0.00000000E+00  0.00000000E+00
  0.00000000E+00  0.00000000E+00  0.00000000E+00
  0.00000000E+00  0.00000000E+00  0.00000000E+00
  0.00000000E+00  0.00000000E+00  0.00000000E+00
  0.00000000E+00  0.00000000E+00  0.00000000E+00
  0.00000000E+00  0.00000000E+00  0.00000000E+00
  0.00000000E+00  0.00000000E+00  0.00000000E+00
  0.00000000E+00  0.00000000E+00  0.00000000E+00
  0.00000000E+00  0.00000000E+00  0.00000000E+00
  0.00000000E+00  0.00000000E+00  0.00000000E+00
  0.00000000E+00  0.00000000E+00  0.00000000E+00
  0.00000000E+00  0.00000000E+00  0.00000000E+00
  0.00000000E+00  0.00000000E+00  0.00000000E+00
  0.00000000E+00  0.00000000E+00  0.00000000E+00
  0.00000000E+00  0.00000000E+00  0.00000000E+00
  0.00000000E+00  0.00000000E+00  0.00000000E+00
  0.00000000E+00  0.00000000E+00  0.00000000E+00
  0.00000000E+00  0.00000000E+00  0.00000000E+00
  0.00000000E+00  0.00000000E+00  0.00000000E+00
  0.00000000E+00  0.00000000E+00  0.00000000E+00
  0.00000000E+00  0.00000000E+00  0.00000000E+00
