CONTCAR\(3)                             
   1.00000000000000     
    12.0853004455999997    0.0000000000000000    0.0000000000000000
     0.0000000000000000   13.7131004332999993    0.0000000000000000
     0.0000000000000000    0.0000000000000000   20.3784999846999995
   Zr   Te   O    H 
     6    30     2     1
Direct
  0.9997954766112297  0.4965876065137919  0.4473629693311006
  0.1670549857277331  0.9964899456131361  0.5488935384862084
  0.3367131583021460  0.4964273987314690  0.4466724029233284
  0.5003464744798651  0.9972123961426200  0.5511847640856058
  0.6640814878913845  0.4965650336569602  0.4473593275785813
  0.8335161811251239  0.9965602773018916  0.5490924948231546
  0.1666809490925810  0.4998985429496416  0.5577768963015463
 -0.0000558103383036  0.0022962327166770  0.4388933879007423
  0.1675160906502957  0.5941729140441014  0.3631081786758049
  0.0002344737295260  0.8921020576567945  0.6294525023988341
  0.0004341470475345  0.0944137535596135  0.6330048090454465
  0.1670566326930718  0.3922828983244470  0.3668984026989658
  0.0000230942017564  0.3174322114170403  0.5299766128920550
  0.1670153684642077  0.1830660692789299  0.4734175478827164
  0.1670566014132299  0.8155024889877117  0.4671964958917931
  0.0006392316344104  0.6820379991840537  0.5238336991547438
  0.4998672099539714  0.5025094742548212  0.5598199181803918
  0.3347720806482395  0.0004731035315094  0.4395527499486347
  0.5020706611237827  0.6054512747352353  0.3683951635622255
  0.3325514110967531  0.8926153506864107  0.6304354380813489
  0.3325512258914377  0.0951869534437826  0.6334977093343777
  0.5009394025239879  0.3898236470500133  0.3706456385308858
  0.3334569775256021  0.3171748185825409  0.5307377271628598
  0.5003363671082373  0.1823683172143415  0.4752787817701317
  0.5005300770654614  0.8184573308481646  0.4693438420895359
  0.3348140470881810  0.6811707900429008  0.5236941633808889
  0.8339463213697813  0.5002694771677247  0.5582238692240068
  0.6656876785834127  0.0001831777100861  0.4397426239707362
  0.8327383473047854  0.5940795391078948  0.3631185464514234
  0.6676310610311164  0.8930568724578615  0.6308876336701508
  0.6683018606489730  0.0955842569783902  0.6337021963964373
  0.8326565282420070  0.3924976873891915  0.3671259577377180
  0.6666870741545401  0.3167967640805395  0.5308413881266962
  0.8336956935999368  0.1828762211661839  0.4734401941542524
  0.8333860827123618  0.8155650132189826  0.4674459586786882
  0.6667552547841031  0.6815888182019538  0.5244868827018765
  0.5164333437984471  0.5834560289070946  0.2607893899070975
  0.5302931088927173  0.4862645897539676  0.2362239860085618
  0.4539996451263860  0.4682426563915276  0.2246363368604676
 
  0.00000000E+00  0.00000000E+00  0.00000000E+00
  0.00000000E+00  0.00000000E+00  0.00000000E+00
  0.00000000E+00  0.00000000E+00  0.00000000E+00
  0.00000000E+00  0.00000000E+00  0.00000000E+00
  0.00000000E+00  0.00000000E+00  0.00000000E+00
  0.00000000E+00  0.00000000E+00  0.00000000E+00
  0.00000000E+00  0.00000000E+00  0.00000000E+00
  0.00000000E+00  0.00000000E+00  0.00000000E+00
  0.00000000E+00  0.00000000E+00  0.00000000E+00
  0.00000000E+00  0.00000000E+00  0.00000000E+00
  0.00000000E+00  0.00000000E+00  0.00000000E+00
  0.00000000E+00  0.00000000E+00  0.00000000E+00
  0.00000000E+00  0.00000000E+00  0.00000000E+00
  0.00000000E+00  0.00000000E+00  0.00000000E+00
  0.00000000E+00  0.00000000E+00  0.00000000E+00
  0.00000000E+00  0.00000000E+00  0.00000000E+00
  0.00000000E+00  0.00000000E+00  0.00000000E+00
  0.00000000E+00  0.00000000E+00  0.00000000E+00
  0.00000000E+00  0.00000000E+00  0.00000000E+00
  0.00000000E+00  0.00000000E+00  0.00000000E+00
  0.00000000E+00  0.00000000E+00  0.00000000E+00
  0.00000000E+00  0.00000000E+00  0.00000000E+00
  0.00000000E+00  0.00000000E+00  0.00000000E+00
  0.00000000E+00  0.00000000E+00  0.00000000E+00
  0.00000000E+00  0.00000000E+00  0.00000000E+00
  0.00000000E+00  0.00000000E+00  0.00000000E+00
  0.00000000E+00  0.00000000E+00  0.00000000E+00
  0.00000000E+00  0.00000000E+00  0.00000000E+00
  0.00000000E+00  0.00000000E+00  0.00000000E+00
  0.00000000E+00  0.00000000E+00  0.00000000E+00
  0.00000000E+00  0.00000000E+00  0.00000000E+00
  0.00000000E+00  0.00000000E+00  0.00000000E+00
  0.00000000E+00  0.00000000E+00  0.00000000E+00
  0.00000000E+00  0.00000000E+00  0.00000000E+00
  0.00000000E+00  0.00000000E+00  0.00000000E+00
  0.00000000E+00  0.00000000E+00  0.00000000E+00
  0.00000000E+00  0.00000000E+00  0.00000000E+00
  0.00000000E+00  0.00000000E+00  0.00000000E+00
  0.00000000E+00  0.00000000E+00  0.00000000E+00
