CONTCAR\(11)                            
   1.00000000000000     
    10.9011001587000003    0.0000000000000000    0.0000000000000000
     0.0000000000000000   13.0549001693999998    0.0000000000000000
     0.0000000000000000    0.0000000000000000   23.6392002105999985
   Li   Cu   F    O 
     6    18    60     1
Direct
  0.1827161990909685  0.4315301193655188  0.5750810622972355
  0.1695016566181728  0.9150916738876476  0.4070762651035743
  0.5298647220265985  0.3944455210462355  0.5703484112426566
  0.4609135604139791  0.8951029966984096  0.4171022597306569
  0.8751627217389379  0.4336662867136561  0.5680542213205793
  0.8310064226928862  0.9011880400283954  0.4238904693457898
  0.0090821506219478  0.0562844176906229  0.5385554181668496
  0.0258866668469267  0.2987423210997927  0.4758403003209185
  0.3697098994557220  0.0951003735880295  0.3895102981282010
 -0.0081481160015727  0.5589290405352032  0.4439767107081510
  0.9868554665352846  0.7951594757539991  0.5074330215131490
  0.2979459769675885  0.6179473265674315  0.6264586526564804
  0.3346420623575309  0.0546474059369197  0.5470537728648724
  0.3553821497940122  0.2907082737408901  0.4915577601998354
  0.6992711758219902  0.0736424051325203  0.3881291034672850
  0.3526428067554712  0.5410063765250940  0.4666710788358390
  0.3094131652752108  0.7913989049473834  0.5225447350831938
  0.6173615653157841  0.5859641065828024  0.6104319248246597
  0.6808027894313379  0.0404804815305802  0.5460426280553075
  0.6920872364320313  0.2911158245666211  0.4819405280877863
  0.0395972663545597  0.1145975707656540  0.3735256206283318
  0.6506725436569682  0.5340955244058313  0.4582636744087529
  0.6464958332911622  0.7958556454674517  0.5169051446255116
  0.9544409246597690  0.6162220274976724  0.6125752842129114
  0.0313430351742566  0.3741940054479044  0.5444180966408672
  0.9761526218443246  0.1913997774249629  0.5317519298788027
  0.0264645168098883  0.2484158984900392  0.3991911838929794
  0.3324525625953075  0.9601870053361843  0.3654211350552148
  0.3158119465412950  0.0558590565319959  0.4613798569060508
  0.4236019909214098  0.1365155217451877  0.3215958009012743
  0.0107943639785382  0.8685785269556915  0.4389649384106720
  0.0461235526703663  0.4291851295968381  0.4337180063894991
  0.9385049264746578  0.6886243438554520  0.4499610288449106
  0.3217480829425203  0.7475911048523757  0.6018689635575821
  0.2712498853818226  0.4865019092777692  0.6430438954299175
  0.2368763359433189  0.5375225577333177  0.5215624798074789
  0.4942024911199219  0.7721598920154558  0.7336106590431039
  0.0358071151904864  0.9191909885140425  0.5479997442475252
  0.1699770928338975  0.0874138204856651  0.5641158011717806
  0.1895260179216100  0.2536114818082399  0.4845195299014735
  0.2130766562382483  0.1405174870134145  0.3697405261383572
  0.1379113747259201  0.6012622475641592  0.4191834578770774
  0.1465796673223180  0.7412594562970638  0.5167055346835719
  0.1365794694767677  0.6397270921316194  0.6279551485050823
  0.3440392548407145  0.3730520718831625  0.5578337049661187
  0.3718695457800731  0.1894982058977553  0.5523762892752232
  0.4039555443468312  0.2261991943248635  0.4214699168706338
  0.7335855866845654  0.9438171588992547  0.3606849428443670
  0.7504722225956739  0.0269496079864115  0.4591106433829110
  0.6564487202568559  0.1195426824264449  0.3199132705840901
  0.3029336776824637  0.8480690247719689  0.4492123101150697
  0.3261203605060639  0.4109572057938739  0.4435931163227507
  0.3791711064602211  0.6717962514370925  0.4846442874635369
  0.6398348142359170  0.7193593688659864  0.5897245265639053
  0.6002409667112932  0.4571482298909263  0.6359332516156223
  0.5409416469769178  0.5191310202435591  0.5262874604774054
  0.6817460489241213  0.7016237236353178  0.7224129175297000
  0.2879492999107492  0.9223547776388669  0.5590091025457921
  0.5079378275578810  0.0355367268479414  0.5416916951372865
  0.5255990433423166  0.3055962720784505  0.5038581407120809
  0.5276646599272392  0.0356041848514767  0.4096842907298635
  0.4822599341505787  0.5513039380325697  0.4176928698783514
  0.4775225976230861  0.8205010231930974  0.5282130049989470
  0.4650930486321874  0.6126621373137942  0.6425452189773027
  0.7218891626096062  0.3758711037528437  0.5454073775659066
  0.6948976554884725  0.1792344965817276  0.5366937414562345
  0.6633989440876549  0.2042705508316149  0.4190476605802614
  0.0611445735269459 -0.0174935862134579  0.3508953699332018
  0.0497597784263820  0.0689489599690822  0.4484129781885127
  0.0292840424539023  0.1592372790707024  0.3024364783605534
  0.6181011652726566  0.8547366451433884  0.4455255455933990
  0.6519526171095494  0.4029735398880029  0.4297645926417528
  0.6599832683817223  0.6706440896567583  0.4747362377489323
  0.9367315190086555  0.7451559404456961  0.5824096478717971
 -0.0340252258217871  0.4851766537721389  0.6371990100876732
 -0.0096581961739131  0.5685253548521988  0.5422757501402476
  0.9078730604891765  0.6615427883545940  0.6795801977112353
  0.6688331182075864  0.9079502049687228  0.5706687680670226
  0.8479751817621226  0.0355251154483574  0.5657223243763392
  0.8565216605711778  0.3063989374472409  0.4633163612975483
  0.8659413763736751  0.1061224925505903  0.3751681242424956
  0.8308903232158629  0.5180462906434231  0.4588018266745316
  0.8179193159473357  0.8287788570195436  0.4986783607306989
  0.7733974720730584  0.5631830385884891  0.5881728757015260
  0.5788727015842561  0.7037595300638468  0.7594296809274311
 
  0.00000000E+00  0.00000000E+00  0.00000000E+00
  0.00000000E+00  0.00000000E+00  0.00000000E+00
  0.00000000E+00  0.00000000E+00  0.00000000E+00
  0.00000000E+00  0.00000000E+00  0.00000000E+00
  0.00000000E+00  0.00000000E+00  0.00000000E+00
  0.00000000E+00  0.00000000E+00  0.00000000E+00
  0.00000000E+00  0.00000000E+00  0.00000000E+00
  0.00000000E+00  0.00000000E+00  0.00000000E+00
  0.00000000E+00  0.00000000E+00  0.00000000E+00
  0.00000000E+00  0.00000000E+00  0.00000000E+00
  0.00000000E+00  0.00000000E+00  0.00000000E+00
  0.00000000E+00  0.00000000E+00  0.00000000E+00
  0.00000000E+00  0.00000000E+00  0.00000000E+00
  0.00000000E+00  0.00000000E+00  0.00000000E+00
  0.00000000E+00  0.00000000E+00  0.00000000E+00
  0.00000000E+00  0.00000000E+00  0.00000000E+00
  0.00000000E+00  0.00000000E+00  0.00000000E+00
  0.00000000E+00  0.00000000E+00  0.00000000E+00
  0.00000000E+00  0.00000000E+00  0.00000000E+00
  0.00000000E+00  0.00000000E+00  0.00000000E+00
  0.00000000E+00  0.00000000E+00  0.00000000E+00
  0.00000000E+00  0.00000000E+00  0.00000000E+00
  0.00000000E+00  0.00000000E+00  0.00000000E+00
  0.00000000E+00  0.00000000E+00  0.00000000E+00
  0.00000000E+00  0.00000000E+00  0.00000000E+00
  0.00000000E+00  0.00000000E+00  0.00000000E+00
  0.00000000E+00  0.00000000E+00  0.00000000E+00
  0.00000000E+00  0.00000000E+00  0.00000000E+00
  0.00000000E+00  0.00000000E+00  0.00000000E+00
  0.00000000E+00  0.00000000E+00  0.00000000E+00
  0.00000000E+00  0.00000000E+00  0.00000000E+00
  0.00000000E+00  0.00000000E+00  0.00000000E+00
  0.00000000E+00  0.00000000E+00  0.00000000E+00
  0.00000000E+00  0.00000000E+00  0.00000000E+00
  0.00000000E+00  0.00000000E+00  0.00000000E+00
  0.00000000E+00  0.00000000E+00  0.00000000E+00
  0.00000000E+00  0.00000000E+00  0.00000000E+00
  0.00000000E+00  0.00000000E+00  0.00000000E+00
  0.00000000E+00  0.00000000E+00  0.00000000E+00
  0.00000000E+00  0.00000000E+00  0.00000000E+00
  0.00000000E+00  0.00000000E+00  0.00000000E+00
  0.00000000E+00  0.00000000E+00  0.00000000E+00
  0.00000000E+00  0.00000000E+00  0.00000000E+00
  0.00000000E+00  0.00000000E+00  0.00000000E+00
  0.00000000E+00  0.00000000E+00  0.00000000E+00
  0.00000000E+00  0.00000000E+00  0.00000000E+00
  0.00000000E+00  0.00000000E+00  0.00000000E+00
  0.00000000E+00  0.00000000E+00  0.00000000E+00
  0.00000000E+00  0.00000000E+00  0.00000000E+00
  0.00000000E+00  0.00000000E+00  0.00000000E+00
  0.00000000E+00  0.00000000E+00  0.00000000E+00
  0.00000000E+00  0.00000000E+00  0.00000000E+00
  0.00000000E+00  0.00000000E+00  0.00000000E+00
  0.00000000E+00  0.00000000E+00  0.00000000E+00
  0.00000000E+00  0.00000000E+00  0.00000000E+00
  0.00000000E+00  0.00000000E+00  0.00000000E+00
  0.00000000E+00  0.00000000E+00  0.00000000E+00
  0.00000000E+00  0.00000000E+00  0.00000000E+00
  0.00000000E+00  0.00000000E+00  0.00000000E+00
  0.00000000E+00  0.00000000E+00  0.00000000E+00
  0.00000000E+00  0.00000000E+00  0.00000000E+00
  0.00000000E+00  0.00000000E+00  0.00000000E+00
  0.00000000E+00  0.00000000E+00  0.00000000E+00
  0.00000000E+00  0.00000000E+00  0.00000000E+00
  0.00000000E+00  0.00000000E+00  0.00000000E+00
  0.00000000E+00  0.00000000E+00  0.00000000E+00
  0.00000000E+00  0.00000000E+00  0.00000000E+00
  0.00000000E+00  0.00000000E+00  0.00000000E+00
  0.00000000E+00  0.00000000E+00  0.00000000E+00
  0.00000000E+00  0.00000000E+00  0.00000000E+00
  0.00000000E+00  0.00000000E+00  0.00000000E+00
  0.00000000E+00  0.00000000E+00  0.00000000E+00
  0.00000000E+00  0.00000000E+00  0.00000000E+00
  0.00000000E+00  0.00000000E+00  0.00000000E+00
  0.00000000E+00  0.00000000E+00  0.00000000E+00
  0.00000000E+00  0.00000000E+00  0.00000000E+00
  0.00000000E+00  0.00000000E+00  0.00000000E+00
  0.00000000E+00  0.00000000E+00  0.00000000E+00
  0.00000000E+00  0.00000000E+00  0.00000000E+00
  0.00000000E+00  0.00000000E+00  0.00000000E+00
  0.00000000E+00  0.00000000E+00  0.00000000E+00
  0.00000000E+00  0.00000000E+00  0.00000000E+00
  0.00000000E+00  0.00000000E+00  0.00000000E+00
  0.00000000E+00  0.00000000E+00  0.00000000E+00
  0.00000000E+00  0.00000000E+00  0.00000000E+00
