CONTCAR\(10)                            
   1.00000000000000     
    13.2530002594000003    0.0000000000000000    0.0000000000000000
    -6.6264500618000000   11.4773481809000000    0.0000000000000000
     0.0000000000000000    0.0000000000000000   18.1429996490000001
   V    Se   O    H 
    16    32     2     1
Direct
  0.9980895502643073  0.0019142858632484  0.4952048980883073
  0.2473252468967050  0.0006211404418055  0.4953775377445200
  0.4992406220204205 -0.0001376043975321  0.4950599625293171
  0.7501319873561710  0.0015625061265107  0.4951616452955617
  0.9984312773995104  0.2498762370351714  0.4951279723868429
  0.2453786344051423  0.2499184803985644  0.4951722228611968
  0.4970863591556095  0.2509212681276105  0.4958801279330462
  0.7503517307987728  0.2495682234437896  0.4953384563592226
  0.0001760717200008  0.5007168983159208  0.4950585459462958
  0.2481833454798505  0.5004911606969801  0.4952530002030399
  0.4976287416712455  0.5021434744644271  0.4963752276933290
  0.7489197797975752  0.5027263880593386  0.4958950293212926
  0.9994261893818116  0.7526608492017636  0.4953883441840133
  0.2493917446248859  0.7506389067028445  0.4952957452351222
  0.4994437232437290  0.7517630837584577  0.4952596119431706
  0.7499702696911098  0.7545061733680589  0.4952237778972425
  0.1648503135794125  0.0843192093908676  0.5831455223708986
  0.0817551748950700  0.1676106837126428  0.4065223114953072
  0.4151295245548777  0.0841181203785646  0.5826331800878412
  0.3315436315565709  0.1678173452925334  0.4078435694026666
  0.6655494778506695  0.0841039182746520  0.5830528527898792
  0.5818569733999314  0.1680696174524695  0.4084032971147799
  0.9153322180148911  0.0846249911457742  0.5833935213312893
  0.8321804656914228  0.1677476998066461  0.4067706798003830
  0.1648717904317273  0.3341615337669003  0.5832575994382844
  0.0822574639741104  0.4176640489054799  0.4073001192823877
  0.4139625474976616  0.3338873071548416  0.5824669795594118
  0.3319725339494864  0.4176852896546279  0.4078296620678908
  0.6654080010168791  0.3344745059676195  0.5823497425416260
  0.5818083465507833  0.4181852582207342  0.4087725169492741
  0.9158378890870669  0.3343981823160592  0.5830450853567778
  0.8318979652425342  0.4181406497839129  0.4084384698769992
  0.1657974912936613  0.5844152244118388  0.5832578009223398
  0.0824056830525014  0.6681951593025020  0.4079644974164540
  0.4150824524933107  0.5848538121490789  0.5832939690782220
  0.3322382896138376  0.6677286045683608  0.4076238119073760
  0.6659612596600744  0.5858855241444373  0.5824791768287120
  0.5822583655677596  0.6679338460040130  0.4078653579660214
  0.9158555291887998  0.5848237126940168  0.5826335593800377
  0.8321659528619294  0.6684284090371997  0.4079181582096045
  0.1656495999847216  0.8343710217686614  0.5831204804050304
  0.0819833960250510  0.9179611257232945  0.4073415321965651
  0.4155218122328621  0.8341827625888421  0.5832532063334884
  0.3318014125233852  0.9175936584617125  0.4079389339126278
  0.6657547306136511  0.8350789030738823  0.5832618592051660
  0.5823024950422243  0.9177032309350830  0.4073061367215815
  0.9156309318045487  0.8350581261374743  0.5831255040477317
  0.8322951710774376  0.9181383209326226  0.4065690627469294
  0.5197875202082984  0.4818564624011245  0.7132514263353334
  0.5255469193442024  0.4802686943040950  0.7884597392532036
  0.5664017642117826  0.4365238745304894  0.7985089730463685
 
  0.00000000E+00  0.00000000E+00  0.00000000E+00
  0.00000000E+00  0.00000000E+00  0.00000000E+00
  0.00000000E+00  0.00000000E+00  0.00000000E+00
  0.00000000E+00  0.00000000E+00  0.00000000E+00
  0.00000000E+00  0.00000000E+00  0.00000000E+00
  0.00000000E+00  0.00000000E+00  0.00000000E+00
  0.00000000E+00  0.00000000E+00  0.00000000E+00
  0.00000000E+00  0.00000000E+00  0.00000000E+00
  0.00000000E+00  0.00000000E+00  0.00000000E+00
  0.00000000E+00  0.00000000E+00  0.00000000E+00
  0.00000000E+00  0.00000000E+00  0.00000000E+00
  0.00000000E+00  0.00000000E+00  0.00000000E+00
  0.00000000E+00  0.00000000E+00  0.00000000E+00
  0.00000000E+00  0.00000000E+00  0.00000000E+00
  0.00000000E+00  0.00000000E+00  0.00000000E+00
  0.00000000E+00  0.00000000E+00  0.00000000E+00
  0.00000000E+00  0.00000000E+00  0.00000000E+00
  0.00000000E+00  0.00000000E+00  0.00000000E+00
  0.00000000E+00  0.00000000E+00  0.00000000E+00
  0.00000000E+00  0.00000000E+00  0.00000000E+00
  0.00000000E+00  0.00000000E+00  0.00000000E+00
  0.00000000E+00  0.00000000E+00  0.00000000E+00
  0.00000000E+00  0.00000000E+00  0.00000000E+00
  0.00000000E+00  0.00000000E+00  0.00000000E+00
  0.00000000E+00  0.00000000E+00  0.00000000E+00
  0.00000000E+00  0.00000000E+00  0.00000000E+00
  0.00000000E+00  0.00000000E+00  0.00000000E+00
  0.00000000E+00  0.00000000E+00  0.00000000E+00
  0.00000000E+00  0.00000000E+00  0.00000000E+00
  0.00000000E+00  0.00000000E+00  0.00000000E+00
  0.00000000E+00  0.00000000E+00  0.00000000E+00
  0.00000000E+00  0.00000000E+00  0.00000000E+00
  0.00000000E+00  0.00000000E+00  0.00000000E+00
  0.00000000E+00  0.00000000E+00  0.00000000E+00
  0.00000000E+00  0.00000000E+00  0.00000000E+00
  0.00000000E+00  0.00000000E+00  0.00000000E+00
  0.00000000E+00  0.00000000E+00  0.00000000E+00
  0.00000000E+00  0.00000000E+00  0.00000000E+00
  0.00000000E+00  0.00000000E+00  0.00000000E+00
  0.00000000E+00  0.00000000E+00  0.00000000E+00
  0.00000000E+00  0.00000000E+00  0.00000000E+00
  0.00000000E+00  0.00000000E+00  0.00000000E+00
  0.00000000E+00  0.00000000E+00  0.00000000E+00
  0.00000000E+00  0.00000000E+00  0.00000000E+00
  0.00000000E+00  0.00000000E+00  0.00000000E+00
  0.00000000E+00  0.00000000E+00  0.00000000E+00
  0.00000000E+00  0.00000000E+00  0.00000000E+00
  0.00000000E+00  0.00000000E+00  0.00000000E+00
  0.00000000E+00  0.00000000E+00  0.00000000E+00
  0.00000000E+00  0.00000000E+00  0.00000000E+00
  0.00000000E+00  0.00000000E+00  0.00000000E+00
