CONTCAR\(2)                             
   1.00000000000000     
    14.1827001571999993    0.0000000000000000    0.0000000000000000
     0.0000000000000000   18.7943000793000010    0.0000000000000000
     0.0000000000000000    0.0000000000000000   21.0296001433999997
   Ta   Pt   Se   O    H 
    16     8    56     2     1
Selective dynamics
Direct
  0.1867649494157888  0.4223269373946508  0.5620243457477230   F   F   F
  0.0616036260800712  0.5782495351030832  0.4366178356876347   F   F   F
  0.0618401012531038  0.9042646234706453  0.4883211154484144   F   F   F
  0.1867293836216959  0.0966990669773438  0.5090251804579324   F   F   F
  0.4365664622781367  0.4223546340948374  0.5617772195653004   F   F   F
  0.3114101712951012  0.5782836110621403  0.4367578765151947   F   F   F
  0.3118939176029301  0.9043418591509749  0.4881238666502412   F   F   F
  0.4364820754966132  0.0964915219731779  0.5090976237007254   F   F   F
  0.6871453835321901  0.4226249887903961  0.5617764984207057   F   F   F
  0.5615744586041558  0.5783174869817387  0.4369066300792213   F   F   F
  0.5618541488688606  0.9041386647265028  0.4884458674253764   F   F   F
  0.6869496272349735  0.0965476374487864  0.5090778662999753   F   F   F
  0.9370058288441072  0.4223942362242070  0.5620519700935986   F   F   F
  0.8115479666398286  0.5783478829380755  0.4366366724532753   F   F   F
  0.8118616047215426  0.9043368269688372  0.4881727432888709   F   F   F
  0.9367783488323340  0.0967548394328830  0.5092006143282859   F   F   F
  0.0615724573511898  0.2260880484547840  0.5343003253036258   F   F   F
  0.1866872701167424  0.7746708076223214  0.4637113897350034   F   F   F
  0.3115710421097972  0.2257891794886149  0.5338494104020128   F   F   F
  0.4366366500389063  0.7748331267381232  0.4638989952570611   F   F   F
  0.5615186970109107  0.2260940346585585  0.5337862829540114   F   F   F
  0.6867035925775582  0.7747043345317692  0.4639391653358800   F   F   F
  0.8117081029056834  0.2260483869600876  0.5340898267406970   F   F   F
  0.9366916108066903  0.7748613916385736  0.4637835918630628   F   F   F
  0.0615062468658394  0.6973840910664251  0.5133277716426718   F   F   F
  0.1865333116479135  0.3035366156138934  0.4848873620828726   F   F   F
  0.0617270132387091  0.4351396087677983  0.4677676350740043   F   F   F
  0.1865231899585780  0.5656271973045293  0.5310445612763104   F   F   F
  0.1864836599542130  0.5254944011111817  0.3572986960855147   F   F   F
  0.0620552495667255  0.4748872423204915  0.6415399383145868   F   F   F
  0.1868019868926893  0.9838181868892946  0.4284646750267243   F   F   F
  0.0620175469585575  0.0171684573833275  0.5688124417511773   F   F   F
  0.0618638095396591  0.3362464812171737  0.6140628850151586   F   F   F
  0.1865907428174651  0.6642413445060740  0.3844308215300885   F   F   F
  0.1867347248822142  0.1727792441233404  0.6070179662083106   F   F   F
  0.0617131240098701  0.8277370407440117  0.3906394620113502   F   F   F
  0.0617775363982389  0.1463928096822329  0.4320093501264139   F   F   F
  0.1871380854622871  0.8549710008931015  0.5655389498140053   F   F   F
  0.3116072127388989  0.6973686256038505  0.5134636514858926   F   F   F
  0.4361771197514770  0.3035216346754837  0.4842429851558947   F   F   F
  0.3116944480822852  0.4351449467832111  0.4677892846349252   F   F   F
  0.4364350243926509  0.5656269562940608  0.5310656689885960   F   F   F
  0.4363945740382036  0.5255436799980799  0.3575417315521179   F   F   F
  0.3122576690457350  0.4739704050451294  0.6419064770233547   F   F   F
  0.4369543533487104  0.9838065902238000  0.4284499017371601   F   F   F
  0.3118891256443916  0.0170840027015444  0.5688461483664753   F   F   F
  0.3119173400679429  0.3363294542410529  0.6139895574894041   F   F   F
  0.4365369203258211  0.6640129785439370  0.3844849745295846   F   F   F
  0.4364164919623832  0.1728100431471233  0.6069239049068642   F   F   F
  0.3117753058843036  0.8276367920660803  0.3905333506248638   F   F   F
  0.3118330809191079  0.1458653502854759  0.4316384049702293   F   F   F
  0.4367448629941038  0.8552618953861568  0.5657001259243088   F   F   F
  0.5614727848415484  0.6975035092875217  0.5136138739241431   F   F   F
  0.6869784745146461  0.3036927001302843  0.4845301028142330   F   F   F
  0.5617301740409744  0.4349792292888353  0.4675974173516977   F   F   F
  0.6866185369336932  0.5658820857814533  0.5310674620942137   F   F   F
  0.6863125619103769  0.5257516911162057  0.3573040531027161   F   F   F
  0.5619748606977666  0.4749858317798683  0.6411082740819438   F   F   F
  0.6867344813395349  0.9837771786236758  0.4284174401376717   F   F   F
  0.5619825313518305  0.0171346313821985  0.5687544983941706   F   F   F
  0.5622626535685953  0.3352389564118710  0.6127046417591444   F   F   F
  0.6864496831680214  0.6643265499317863  0.3845432851482329   F   F   F
  0.6865087050782606  0.1727065324094923  0.6069212352699722   F   F   F
  0.5617220374422942  0.8275569354146413  0.3907876498230038   F   F   F
  0.5618475110705958  0.1462976368568860  0.4320292733749795   F   F   F
  0.6871819184478980  0.8550241221283130  0.5656821053793308   F   F   F
  0.8118331491299884  0.6973379465499789  0.5134529592397499   F   F   F
  0.9367873974785965  0.3036941972331775  0.4848703119705675   F   F   F
  0.8118246441103452  0.4352929870061502  0.4677365844386685   F   F   F
  0.9365869588783440  0.5656484880066444  0.5308279525442146   F   F   F
  0.9364155366101841  0.5258321953715850  0.3570083666136412   F   F   F
  0.8120647325695600  0.4748785183257880  0.6414939706832428   F   F   F
  0.9368440308638100  0.9839768042636763  0.4285274771415004   F   F   F
  0.8120165570081284  0.0171102284924700  0.5689004597276153   F   F   F
  0.8119511317904511  0.3364238880817396  0.6139916227813842   F   F   F
  0.9365286350504292  0.6641110065700957  0.3842605993363719   F   F   F
  0.9364403347656420  0.1728456496113537  0.6072234985120417   F   F   F
  0.8116290740726768  0.8275735218129583  0.3905908731736503   F   F   F
  0.8119578874262245  0.1461054021587174  0.4318483193397071   F   F   F
  0.9367795013355149  0.8552031633984214  0.5656116437174532   F   F   F
  0.4353976546698064  0.4017568830605143  0.7698679409955034   T   T   T
  0.4596308442787702  0.3337046503777046  0.7590801827607123   T   T   T
  0.4958682609275583  0.3344163536870254  0.7172607539419352   T   T   T
 
  0.00000000E+00  0.00000000E+00  0.00000000E+00
  0.00000000E+00  0.00000000E+00  0.00000000E+00
  0.00000000E+00  0.00000000E+00  0.00000000E+00
  0.00000000E+00  0.00000000E+00  0.00000000E+00
  0.00000000E+00  0.00000000E+00  0.00000000E+00
  0.00000000E+00  0.00000000E+00  0.00000000E+00
  0.00000000E+00  0.00000000E+00  0.00000000E+00
  0.00000000E+00  0.00000000E+00  0.00000000E+00
  0.00000000E+00  0.00000000E+00  0.00000000E+00
  0.00000000E+00  0.00000000E+00  0.00000000E+00
  0.00000000E+00  0.00000000E+00  0.00000000E+00
  0.00000000E+00  0.00000000E+00  0.00000000E+00
  0.00000000E+00  0.00000000E+00  0.00000000E+00
  0.00000000E+00  0.00000000E+00  0.00000000E+00
  0.00000000E+00  0.00000000E+00  0.00000000E+00
  0.00000000E+00  0.00000000E+00  0.00000000E+00
  0.00000000E+00  0.00000000E+00  0.00000000E+00
  0.00000000E+00  0.00000000E+00  0.00000000E+00
  0.00000000E+00  0.00000000E+00  0.00000000E+00
  0.00000000E+00  0.00000000E+00  0.00000000E+00
  0.00000000E+00  0.00000000E+00  0.00000000E+00
  0.00000000E+00  0.00000000E+00  0.00000000E+00
  0.00000000E+00  0.00000000E+00  0.00000000E+00
  0.00000000E+00  0.00000000E+00  0.00000000E+00
  0.00000000E+00  0.00000000E+00  0.00000000E+00
  0.00000000E+00  0.00000000E+00  0.00000000E+00
  0.00000000E+00  0.00000000E+00  0.00000000E+00
  0.00000000E+00  0.00000000E+00  0.00000000E+00
  0.00000000E+00  0.00000000E+00  0.00000000E+00
  0.00000000E+00  0.00000000E+00  0.00000000E+00
  0.00000000E+00  0.00000000E+00  0.00000000E+00
  0.00000000E+00  0.00000000E+00  0.00000000E+00
  0.00000000E+00  0.00000000E+00  0.00000000E+00
  0.00000000E+00  0.00000000E+00  0.00000000E+00
  0.00000000E+00  0.00000000E+00  0.00000000E+00
  0.00000000E+00  0.00000000E+00  0.00000000E+00
  0.00000000E+00  0.00000000E+00  0.00000000E+00
  0.00000000E+00  0.00000000E+00  0.00000000E+00
  0.00000000E+00  0.00000000E+00  0.00000000E+00
  0.00000000E+00  0.00000000E+00  0.00000000E+00
  0.00000000E+00  0.00000000E+00  0.00000000E+00
  0.00000000E+00  0.00000000E+00  0.00000000E+00
  0.00000000E+00  0.00000000E+00  0.00000000E+00
  0.00000000E+00  0.00000000E+00  0.00000000E+00
  0.00000000E+00  0.00000000E+00  0.00000000E+00
  0.00000000E+00  0.00000000E+00  0.00000000E+00
  0.00000000E+00  0.00000000E+00  0.00000000E+00
  0.00000000E+00  0.00000000E+00  0.00000000E+00
  0.00000000E+00  0.00000000E+00  0.00000000E+00
  0.00000000E+00  0.00000000E+00  0.00000000E+00
  0.00000000E+00  0.00000000E+00  0.00000000E+00
  0.00000000E+00  0.00000000E+00  0.00000000E+00
  0.00000000E+00  0.00000000E+00  0.00000000E+00
  0.00000000E+00  0.00000000E+00  0.00000000E+00
  0.00000000E+00  0.00000000E+00  0.00000000E+00
  0.00000000E+00  0.00000000E+00  0.00000000E+00
  0.00000000E+00  0.00000000E+00  0.00000000E+00
  0.00000000E+00  0.00000000E+00  0.00000000E+00
  0.00000000E+00  0.00000000E+00  0.00000000E+00
  0.00000000E+00  0.00000000E+00  0.00000000E+00
  0.00000000E+00  0.00000000E+00  0.00000000E+00
  0.00000000E+00  0.00000000E+00  0.00000000E+00
  0.00000000E+00  0.00000000E+00  0.00000000E+00
  0.00000000E+00  0.00000000E+00  0.00000000E+00
  0.00000000E+00  0.00000000E+00  0.00000000E+00
  0.00000000E+00  0.00000000E+00  0.00000000E+00
  0.00000000E+00  0.00000000E+00  0.00000000E+00
  0.00000000E+00  0.00000000E+00  0.00000000E+00
  0.00000000E+00  0.00000000E+00  0.00000000E+00
  0.00000000E+00  0.00000000E+00  0.00000000E+00
  0.00000000E+00  0.00000000E+00  0.00000000E+00
  0.00000000E+00  0.00000000E+00  0.00000000E+00
  0.00000000E+00  0.00000000E+00  0.00000000E+00
  0.00000000E+00  0.00000000E+00  0.00000000E+00
  0.00000000E+00  0.00000000E+00  0.00000000E+00
  0.00000000E+00  0.00000000E+00  0.00000000E+00
  0.00000000E+00  0.00000000E+00  0.00000000E+00
  0.00000000E+00  0.00000000E+00  0.00000000E+00
  0.00000000E+00  0.00000000E+00  0.00000000E+00
  0.00000000E+00  0.00000000E+00  0.00000000E+00
  0.00000000E+00  0.00000000E+00  0.00000000E+00
  0.00000000E+00  0.00000000E+00  0.00000000E+00
  0.00000000E+00  0.00000000E+00  0.00000000E+00
