CONTCAR\(2)                             
   1.00000000000000     
    12.6485004424999996    0.0000000000000000    0.0000000000000000
    -1.2670761195000000   12.5961316350000008    0.0000000000000000
     0.0000000000000000    0.0000000000000000   18.5200004577999984
   Cr   P    S    O    H 
     4     8    28     2     1
Direct
  0.2537200067158819  0.2458436857620063  0.4991077637434628
  0.7536335327029159  0.2463751547307334  0.4992874656992888
  0.2534773849460146  0.7462340709166608  0.4991184353979638
  0.7542089452496681  0.7465154670676237  0.4994456995752730
  0.4812256793443150  0.3310954336437488  0.4720594930245615
  0.1694053176722699  0.0183563333263350  0.5265185295675018
  0.9813451743703365  0.3300426914851654  0.4710729485162092
  0.6695634624439717  0.0187570736966365  0.5274463979907256
  0.4813752929026585  0.8311358986377645  0.4729462745092300
  0.1690994323046773  0.5186911578481153  0.5250256144292761
  0.9816820776735944  0.8308675510432824  0.4716124326015744
  0.6692492810765689  0.5190810069222525  0.5264429189501619
  0.4203983725686255  0.2458458080680080  0.5584360615936055
  0.2231859318013999  0.3927623865085570  0.5759763921054470
  0.3543945920905018  0.3283194966192658  0.4039395547765423
  0.0053901959788230  0.4945906888877525  0.4963747144053556
  0.1716361579942371  0.1452425309594890  0.5944184454282692
  0.1066346077252601  0.2731133320384848  0.4211823717746225
  0.2552432680076624  0.0792980335369538  0.4403284292902275
  0.9206875139221884  0.2461834852506601  0.5581780784572387
  0.7249492837099396  0.3934522613429259  0.5766012176889568
  0.8541142712910770  0.3268262559096729  0.4033525608840792
  0.5049898492293455  0.4951467794387430  0.4994103216974494
  0.6724034062457649  0.1460707351440017  0.5950978380390679
  0.6070766665406754  0.2759224180261883  0.4217542937588453
  0.7536902527665743  0.0794865142833673  0.4405016246923546
  0.4199315393581027  0.7449800719072388  0.5587645909151582
  0.2237878325438509  0.8924555723822400  0.5769880950589359
  0.3550884320513648  0.8290107629926284  0.4044457074854749
  0.0054930363111269  0.9949361465115654  0.4983161233550983
  0.1708336029297854  0.6448079999602011  0.5935363554628468
  0.1075808286071489  0.7757112023554017  0.4211892162442231
  0.2555027395275087  0.5799818435881623  0.4392740422150320
  0.9213098269259510  0.7455729173551193  0.5581707646661141
  0.7263362523983657  0.8934843881300608  0.5772835918251268
  0.8546249300074268  0.8281180155304386  0.4037490644783953
  0.5049748940505701  0.9947048546264410  0.5017716733389550
  0.6719133689875973  0.6458436543512261  0.5945250969217514
  0.6075411045526814  0.7770250412883594  0.4223123047056327
  0.7543018176796837  0.5800127003312531  0.4400020363298938
  0.1264840270682747  0.6677312548965018  0.7593721174203433
  0.2042048395299935  0.6346458667847535  0.8008743037127862
  0.1754813031956253  0.5636312369140186  0.8186487302669305
 
  0.00000000E+00  0.00000000E+00  0.00000000E+00
  0.00000000E+00  0.00000000E+00  0.00000000E+00
  0.00000000E+00  0.00000000E+00  0.00000000E+00
  0.00000000E+00  0.00000000E+00  0.00000000E+00
  0.00000000E+00  0.00000000E+00  0.00000000E+00
  0.00000000E+00  0.00000000E+00  0.00000000E+00
  0.00000000E+00  0.00000000E+00  0.00000000E+00
  0.00000000E+00  0.00000000E+00  0.00000000E+00
  0.00000000E+00  0.00000000E+00  0.00000000E+00
  0.00000000E+00  0.00000000E+00  0.00000000E+00
  0.00000000E+00  0.00000000E+00  0.00000000E+00
  0.00000000E+00  0.00000000E+00  0.00000000E+00
  0.00000000E+00  0.00000000E+00  0.00000000E+00
  0.00000000E+00  0.00000000E+00  0.00000000E+00
  0.00000000E+00  0.00000000E+00  0.00000000E+00
  0.00000000E+00  0.00000000E+00  0.00000000E+00
  0.00000000E+00  0.00000000E+00  0.00000000E+00
  0.00000000E+00  0.00000000E+00  0.00000000E+00
  0.00000000E+00  0.00000000E+00  0.00000000E+00
  0.00000000E+00  0.00000000E+00  0.00000000E+00
  0.00000000E+00  0.00000000E+00  0.00000000E+00
  0.00000000E+00  0.00000000E+00  0.00000000E+00
  0.00000000E+00  0.00000000E+00  0.00000000E+00
  0.00000000E+00  0.00000000E+00  0.00000000E+00
  0.00000000E+00  0.00000000E+00  0.00000000E+00
  0.00000000E+00  0.00000000E+00  0.00000000E+00
  0.00000000E+00  0.00000000E+00  0.00000000E+00
  0.00000000E+00  0.00000000E+00  0.00000000E+00
  0.00000000E+00  0.00000000E+00  0.00000000E+00
  0.00000000E+00  0.00000000E+00  0.00000000E+00
  0.00000000E+00  0.00000000E+00  0.00000000E+00
  0.00000000E+00  0.00000000E+00  0.00000000E+00
  0.00000000E+00  0.00000000E+00  0.00000000E+00
  0.00000000E+00  0.00000000E+00  0.00000000E+00
  0.00000000E+00  0.00000000E+00  0.00000000E+00
  0.00000000E+00  0.00000000E+00  0.00000000E+00
  0.00000000E+00  0.00000000E+00  0.00000000E+00
  0.00000000E+00  0.00000000E+00  0.00000000E+00
  0.00000000E+00  0.00000000E+00  0.00000000E+00
  0.00000000E+00  0.00000000E+00  0.00000000E+00
  0.00000000E+00  0.00000000E+00  0.00000000E+00
  0.00000000E+00  0.00000000E+00  0.00000000E+00
  0.00000000E+00  0.00000000E+00  0.00000000E+00
