CONTCAR\(4)                             
   1.00000000000000     
    12.9882001877000004    0.0000000000000000    0.0000000000000000
     0.0000000000000000   20.1457004546999983    0.0000000000000000
     0.0000000000000000    0.0000000000000000   19.8038997650000006
   Ce   I    O    H 
    12    36     1     1
Selective dynamics
Direct
  0.1649558231429893  0.9993613306011397  0.5067890302018441   F   F   F
  0.0007402809820363  0.2500138408282524  0.4914991688613242   F   F   F
  0.5016453558321814  0.9996396870860238  0.5072547731979142   F   F   F
  0.3330006933983185  0.2497961271685938  0.4925352571294681   F   F   F
  0.8335673750210546  0.0004933844747939  0.5024040105160594   F   F   F
  0.6663030574177640  0.2499244080355254  0.4914668924616663   F   F   F
  0.1656425541934468  0.5005729911670329  0.5066123381306653   F   F   F
  0.9994232174131525  0.7499165645613601  0.4895340848408694   F   F   F
  0.5015004610966969  0.5002072488713480  0.5069914831748363   F   F   F
  0.3340451615425692  0.7500021457667572  0.5251780206144616   F   F   F
  0.8334109022298648  0.4993443162232367  0.5022636139777390   F   F   F
  0.6683233782865230  0.7499341638260546  0.4898522103632459   F   F   F
  0.0013204424427897  0.4071105289439743  0.4232927835152580   F   F   F
  0.1670514798848828  0.3412736000093091  0.5743143918097360   F   F   F
  0.1666448332502810  0.1587178594151482  0.5746608142152567   F   F   F
  0.0011747813360614  0.0928961909026711  0.4234422621318288   F   F   F
  0.9952969124513515  0.0034144564800513  0.6205667697361008   F   F   F
  0.1684930989237046  0.2499750431595018  0.3762313656982812   F   F   F
  0.3334461581164447  0.4096946926024003  0.4246345831007332   F   F   F
  0.4996289579327140  0.3409912484250057  0.5741952431527650   F   F   F
  0.4996917768235392  0.1588296997454819  0.5744398921763079   F   F   F
  0.3330714134202211  0.0904261494903622  0.4251173117550664   F   F   F
  0.3331385003818355  0.9985737283849829  0.6227181771373509   F   F   F
  0.4986394294019334  0.2498183597977643  0.3762732538727320   F   F   F
  0.6653221660073285  0.4071346878499611  0.4233595055213755   F   F   F
  0.8333576932076809  0.3404875426078746  0.5722431653477571   F   F   F
  0.8333385899644341  0.1594991149332827  0.5723016453631899   F   F   F
  0.6653713089779316  0.0927218451405309  0.4234256533815071   F   F   F
  0.6716007626171745  0.0039666897995474  0.6211682584094191   F   F   F
  0.8333173675554519  0.2499345702436955  0.3757259774459456   F   F   F
  0.9996338698165772  0.9108130037428879  0.4191178652259211   F   F   F
  0.1454912933010277  0.8459755679560388  0.5769291615443777   F   F   F
  0.1455796425407812  0.6539243402290609  0.5768867820519077   F   F   F
  0.9996821713284376  0.5890867411656657  0.4191189274386105   F   F   F
  0.9956539763018384  0.4964443085534427  0.6203776305820057   F   F   F
  0.1764607281430841  0.7500019847043191  0.3879147237124911   F   F   F
  0.3341931954363773  0.9068805597411469  0.4334733041236802   F   F   F
  0.5230333088411072  0.8458620354506579  0.5772511064735397   F   F   F
  0.5229726476108425  0.6540417795103437  0.5771376712523519   F   F   F
  0.3342381408009416  0.5932147150022331  0.4333866880508310   F   F   F
  0.3334775857158760  0.5011848791856082  0.6225580645489899   F   F   F
  0.4921969337154835  0.7500080174859605  0.3881593422378700   F   F   F
  0.6675367413402640  0.9108017968563544  0.4197551196705120   F   F   F
  0.8334917147066605  0.8419468588237820  0.5702967354774628   F   F   F
  0.8334671998354324  0.6576659039454498  0.5701729298318696   F   F   F
  0.6674034580895594  0.5890732194809090  0.4195877202723750   F   F   F
  0.6714528693498423  0.4958651631230779  0.6209077613296330   F   F   F
  0.8329140153127526  0.7499524882520774  0.3735439667407405   F   F   F
  0.3344428402404631  0.7499129891902712  0.6279431612848683   T   T   T
  0.3369038983203225  0.7496416290590773  0.6761719723327483   T   T   T
 
  0.00000000E+00  0.00000000E+00  0.00000000E+00
  0.00000000E+00  0.00000000E+00  0.00000000E+00
  0.00000000E+00  0.00000000E+00  0.00000000E+00
  0.00000000E+00  0.00000000E+00  0.00000000E+00
  0.00000000E+00  0.00000000E+00  0.00000000E+00
  0.00000000E+00  0.00000000E+00  0.00000000E+00
  0.00000000E+00  0.00000000E+00  0.00000000E+00
  0.00000000E+00  0.00000000E+00  0.00000000E+00
  0.00000000E+00  0.00000000E+00  0.00000000E+00
  0.00000000E+00  0.00000000E+00  0.00000000E+00
  0.00000000E+00  0.00000000E+00  0.00000000E+00
  0.00000000E+00  0.00000000E+00  0.00000000E+00
  0.00000000E+00  0.00000000E+00  0.00000000E+00
  0.00000000E+00  0.00000000E+00  0.00000000E+00
  0.00000000E+00  0.00000000E+00  0.00000000E+00
  0.00000000E+00  0.00000000E+00  0.00000000E+00
  0.00000000E+00  0.00000000E+00  0.00000000E+00
  0.00000000E+00  0.00000000E+00  0.00000000E+00
  0.00000000E+00  0.00000000E+00  0.00000000E+00
  0.00000000E+00  0.00000000E+00  0.00000000E+00
  0.00000000E+00  0.00000000E+00  0.00000000E+00
  0.00000000E+00  0.00000000E+00  0.00000000E+00
  0.00000000E+00  0.00000000E+00  0.00000000E+00
  0.00000000E+00  0.00000000E+00  0.00000000E+00
  0.00000000E+00  0.00000000E+00  0.00000000E+00
  0.00000000E+00  0.00000000E+00  0.00000000E+00
  0.00000000E+00  0.00000000E+00  0.00000000E+00
  0.00000000E+00  0.00000000E+00  0.00000000E+00
  0.00000000E+00  0.00000000E+00  0.00000000E+00
  0.00000000E+00  0.00000000E+00  0.00000000E+00
  0.00000000E+00  0.00000000E+00  0.00000000E+00
  0.00000000E+00  0.00000000E+00  0.00000000E+00
  0.00000000E+00  0.00000000E+00  0.00000000E+00
  0.00000000E+00  0.00000000E+00  0.00000000E+00
  0.00000000E+00  0.00000000E+00  0.00000000E+00
  0.00000000E+00  0.00000000E+00  0.00000000E+00
  0.00000000E+00  0.00000000E+00  0.00000000E+00
  0.00000000E+00  0.00000000E+00  0.00000000E+00
  0.00000000E+00  0.00000000E+00  0.00000000E+00
  0.00000000E+00  0.00000000E+00  0.00000000E+00
  0.00000000E+00  0.00000000E+00  0.00000000E+00
  0.00000000E+00  0.00000000E+00  0.00000000E+00
  0.00000000E+00  0.00000000E+00  0.00000000E+00
  0.00000000E+00  0.00000000E+00  0.00000000E+00
  0.00000000E+00  0.00000000E+00  0.00000000E+00
  0.00000000E+00  0.00000000E+00  0.00000000E+00
  0.00000000E+00  0.00000000E+00  0.00000000E+00
  0.00000000E+00  0.00000000E+00  0.00000000E+00
  0.00000000E+00  0.00000000E+00  0.00000000E+00
  0.00000000E+00  0.00000000E+00  0.00000000E+00
