CONTCAR\(4)                             
   1.00000000000000     
    13.0656995773000002    0.0000000000000000    0.0000000000000000
     6.5328497887000001   11.3152277522000002    0.0000000000000000
     0.0000000000000000    0.0000000000000000   20.6284008026000016
   Ta   C    S    O 
    32    16    32     1
Direct
  0.1655835966980249  0.1688372298857291  0.5580547829153233
  0.0823187951823425  0.0853785042583639  0.4428824402388158
  0.4154242239509472  0.1685660670857973  0.5579933584113722
  0.3323033293273394  0.0853838043763766  0.4428785144655982
  0.6659737353128374  0.1680584657178432  0.5578685322673304
  0.5816750187712981  0.0854998134648748  0.4427689803494775
  0.9160047046937890  0.1685647457108005  0.5579929260258801
  0.8328185364258766  0.0855008751509197  0.4427638538929241
  0.1653783333685650  0.4185508073545737  0.5581343169960274
  0.0822649352084927  0.3354822720865232  0.4428706632884145
  0.4148844311347255  0.4190533175326456  0.5576547252754039
  0.3323982286508646  0.3347002222137739  0.4426900217423952
  0.6660611255474688  0.4190532584682025  0.5576500610885090
  0.5823208289697913  0.3353533415051730  0.4430374766417895
  0.9160610563964293  0.4185550811677751  0.5581257609923101
  0.8328995033036651  0.3346946183470308  0.4426836536463625
  0.1653861498779211  0.6690862826879566  0.5581484717621813
  0.0814567044896327  0.5858529319799414  0.4430764390559964
  0.4155113664558998  0.6689734142836308  0.5579435962070037
  0.3323565240954069  0.5859676871906100  0.4427031202606532
  0.6655242713293373  0.6690813385126985  0.5581473799013257
  0.5816721362753980  0.5859646770434458  0.4426995327587613
  0.9156485182773400  0.6687013043284337  0.5583141818419184
  0.8326867348292402  0.5858530636309469  0.4430685579497159
  0.1655623149676142  0.9186066069947206  0.5580640510460781
  0.0822120976282046  0.8353599856245683  0.4428963312184859
  0.4158251177288610  0.9186106024490036  0.5580605147587574
  0.3322827940847222  0.8354203172512564  0.4428755462490231
  0.6655338153853377  0.9183860832966936  0.5582096709479146
  0.5824290355228046  0.8353612113847800  0.4428931975870526
  0.9160792553976201  0.9183888058240675  0.5582094960371674
  0.8326817725138027  0.8346359672787963  0.4431275322369627
 -0.0009782461232743  0.0020252519566904  0.5005090687251369
  0.2489797314744526  0.0020365139796052  0.5005355703940585
  0.4989512566262757  0.0020250140541947  0.5005099598762719
  0.7488597233151540  0.0022838033876849  0.5004497782055901
 -0.0009501798013049  0.2520380337665721  0.5004592676990374
  0.2489113506065102  0.2520416137598838  0.5004594033701929
  0.4986268815140500  0.2516842963087806  0.5002149482859959
  0.7496878813129124  0.2516806324405301  0.5002113653967472
 -0.0010065517987673  0.5020143771855164  0.5007616633578431
  0.2490729341785002  0.5019828461993726  0.5003105323925908
  0.4986134484597780  0.5027621422529385  0.5001344707813213
  0.7489431524213445  0.5019794554202198  0.5003034761396711
 -0.0010163678242515  0.7521004848639028  0.5008015966848991
  0.2489337727885473  0.7521197349525640  0.5004614962205088
  0.4989383458127323  0.7521226557145217  0.5004591860212348
  0.7489166966880639  0.7520971086529167  0.5008004636928852
  0.1656575770562683  0.1686866751406806  0.3638725897988885
  0.0823671319831054  0.0853181201787199  0.6371874396604154
  0.4154808623828633  0.1684266520897355  0.3635192088685021
  0.3323106373011371  0.0853152338402174  0.6371903611980008
  0.6656032850708596  0.1687780020099855  0.3639785980374280
  0.5821600542276079  0.0859873457453138  0.6371412433318744
  0.9160986589171116  0.1684198465743688  0.3635173414167158
  0.8318484512710123  0.0859882422875927  0.6371449752514602
  0.1654674584290523  0.4189262568312602  0.3638670269733996
  0.0823689930675993  0.3352149188983175  0.6373458464396305
  0.4158120583344107  0.4185849714089220  0.3639434788817209
  0.3329805832036351  0.3352138504419180  0.6370792437631324
  0.6655928769018988  0.4185785081566146  0.3639406695132789
  0.5820684143300385  0.3358955157473625  0.6361377362893451
  0.9156101253620368  0.4189196825512523  0.3638650766422674
  0.8317952797808663  0.3352159397793908  0.6370736642540357
  0.1654934332229142  0.6686689175730658  0.3638760282484359
  0.0826013636340216  0.5851771904718185  0.6372046071126027
  0.4154444336651088  0.6690931285788907  0.3634792409926061
  0.3330472589083512  0.5846878022713470  0.6370746037225603
  0.6658315779542466  0.6686653320493471  0.3638766556622903
  0.5822680141337103  0.5846971422669093  0.6370671175127510
  0.9156217255640811  0.6687643538349364  0.3637262424248862
  0.8322204845523551  0.5851761759719226  0.6372019807605973
  0.1656017322231390  0.9186290830423335  0.3638806158717538
  0.0825022273858287  0.8353117013025927  0.6373880334046254
  0.4157605343815829  0.9186289352319595  0.3638826110584322
  0.3323522145728214  0.8352854064016246  0.6371570327473607
  0.6659114248102317  0.9185545804301276  0.3639167668428773
  0.5821780682504166  0.8353200051209442  0.6373812254838829
  0.9155343286310679  0.9185499641839250  0.3639166633848632
  0.8322488271850662  0.8355012142454986  0.6372592843623749
  0.5813472128532811  0.3373919673573712  0.7085168597860865
 
  0.00000000E+00  0.00000000E+00  0.00000000E+00
  0.00000000E+00  0.00000000E+00  0.00000000E+00
  0.00000000E+00  0.00000000E+00  0.00000000E+00
  0.00000000E+00  0.00000000E+00  0.00000000E+00
  0.00000000E+00  0.00000000E+00  0.00000000E+00
  0.00000000E+00  0.00000000E+00  0.00000000E+00
  0.00000000E+00  0.00000000E+00  0.00000000E+00
  0.00000000E+00  0.00000000E+00  0.00000000E+00
  0.00000000E+00  0.00000000E+00  0.00000000E+00
  0.00000000E+00  0.00000000E+00  0.00000000E+00
  0.00000000E+00  0.00000000E+00  0.00000000E+00
  0.00000000E+00  0.00000000E+00  0.00000000E+00
  0.00000000E+00  0.00000000E+00  0.00000000E+00
  0.00000000E+00  0.00000000E+00  0.00000000E+00
  0.00000000E+00  0.00000000E+00  0.00000000E+00
  0.00000000E+00  0.00000000E+00  0.00000000E+00
  0.00000000E+00  0.00000000E+00  0.00000000E+00
  0.00000000E+00  0.00000000E+00  0.00000000E+00
  0.00000000E+00  0.00000000E+00  0.00000000E+00
  0.00000000E+00  0.00000000E+00  0.00000000E+00
  0.00000000E+00  0.00000000E+00  0.00000000E+00
  0.00000000E+00  0.00000000E+00  0.00000000E+00
  0.00000000E+00  0.00000000E+00  0.00000000E+00
  0.00000000E+00  0.00000000E+00  0.00000000E+00
  0.00000000E+00  0.00000000E+00  0.00000000E+00
  0.00000000E+00  0.00000000E+00  0.00000000E+00
  0.00000000E+00  0.00000000E+00  0.00000000E+00
  0.00000000E+00  0.00000000E+00  0.00000000E+00
  0.00000000E+00  0.00000000E+00  0.00000000E+00
  0.00000000E+00  0.00000000E+00  0.00000000E+00
  0.00000000E+00  0.00000000E+00  0.00000000E+00
  0.00000000E+00  0.00000000E+00  0.00000000E+00
  0.00000000E+00  0.00000000E+00  0.00000000E+00
  0.00000000E+00  0.00000000E+00  0.00000000E+00
  0.00000000E+00  0.00000000E+00  0.00000000E+00
  0.00000000E+00  0.00000000E+00  0.00000000E+00
  0.00000000E+00  0.00000000E+00  0.00000000E+00
  0.00000000E+00  0.00000000E+00  0.00000000E+00
  0.00000000E+00  0.00000000E+00  0.00000000E+00
  0.00000000E+00  0.00000000E+00  0.00000000E+00
  0.00000000E+00  0.00000000E+00  0.00000000E+00
  0.00000000E+00  0.00000000E+00  0.00000000E+00
  0.00000000E+00  0.00000000E+00  0.00000000E+00
  0.00000000E+00  0.00000000E+00  0.00000000E+00
  0.00000000E+00  0.00000000E+00  0.00000000E+00
  0.00000000E+00  0.00000000E+00  0.00000000E+00
  0.00000000E+00  0.00000000E+00  0.00000000E+00
  0.00000000E+00  0.00000000E+00  0.00000000E+00
  0.00000000E+00  0.00000000E+00  0.00000000E+00
  0.00000000E+00  0.00000000E+00  0.00000000E+00
  0.00000000E+00  0.00000000E+00  0.00000000E+00
  0.00000000E+00  0.00000000E+00  0.00000000E+00
  0.00000000E+00  0.00000000E+00  0.00000000E+00
  0.00000000E+00  0.00000000E+00  0.00000000E+00
  0.00000000E+00  0.00000000E+00  0.00000000E+00
  0.00000000E+00  0.00000000E+00  0.00000000E+00
  0.00000000E+00  0.00000000E+00  0.00000000E+00
  0.00000000E+00  0.00000000E+00  0.00000000E+00
  0.00000000E+00  0.00000000E+00  0.00000000E+00
  0.00000000E+00  0.00000000E+00  0.00000000E+00
  0.00000000E+00  0.00000000E+00  0.00000000E+00
  0.00000000E+00  0.00000000E+00  0.00000000E+00
  0.00000000E+00  0.00000000E+00  0.00000000E+00
  0.00000000E+00  0.00000000E+00  0.00000000E+00
  0.00000000E+00  0.00000000E+00  0.00000000E+00
  0.00000000E+00  0.00000000E+00  0.00000000E+00
  0.00000000E+00  0.00000000E+00  0.00000000E+00
  0.00000000E+00  0.00000000E+00  0.00000000E+00
  0.00000000E+00  0.00000000E+00  0.00000000E+00
  0.00000000E+00  0.00000000E+00  0.00000000E+00
  0.00000000E+00  0.00000000E+00  0.00000000E+00
  0.00000000E+00  0.00000000E+00  0.00000000E+00
  0.00000000E+00  0.00000000E+00  0.00000000E+00
  0.00000000E+00  0.00000000E+00  0.00000000E+00
  0.00000000E+00  0.00000000E+00  0.00000000E+00
  0.00000000E+00  0.00000000E+00  0.00000000E+00
  0.00000000E+00  0.00000000E+00  0.00000000E+00
  0.00000000E+00  0.00000000E+00  0.00000000E+00
  0.00000000E+00  0.00000000E+00  0.00000000E+00
  0.00000000E+00  0.00000000E+00  0.00000000E+00
  0.00000000E+00  0.00000000E+00  0.00000000E+00
