CONTCAR\(2)                             
   1.00000000000000     
    10.7850999832000003    0.0000000000000000    0.0000000000000000
     0.0000000000000000   11.5594997405999997    0.0000000000000000
     0.0000000000000000    0.0000000000000000   23.1807994842999996
   V    O 
    36    79
Selective dynamics
Direct
  0.0003115160976819  0.3520593807709886  0.6567025881000532   F   F   F
  0.1681713860306218  0.8510321225242450  0.3414596511600223   F   F   F
  0.1680687303840145  0.8500051769516901  0.6569173982881580   F   F   F
  0.0005856293434690  0.6474049062318628  0.3429306259703324   F   F   F
  0.1667976355697434  0.1471164440259685  0.3424301895631885   F   F   F
  0.1670840914348588  0.1456872747184974  0.6561809221084900   F   F   F
  0.9997173375984190  0.3520978815766327  0.3426434519170343   F   F   F
  0.0007658680371350  0.6478673092558651  0.6577390447284088   F   F   F
  0.1675443757286459  0.8499266964169863  0.4970874586609213   F   F   F
  0.0015906397508303  0.6489971574709728  0.5007396289749906   F   F   F
  0.0003975451216931  0.3512979394843825  0.4996991700725815   F   F   F
  0.1677844621636311  0.1483180645713844  0.4996464584943183   F   F   F
  0.3333542416061377  0.3544067229211478  0.6569598124726426   F   F   F
  0.4985171798026897  0.8510416128105476  0.3414547519159328   F   F   F
  0.4987248752055109  0.8499816972394711  0.6568993925233286   F   F   F
  0.3333476520322378  0.6441511099062893  0.3376639860251984   F   F   F
  0.4998050165930579  0.1471277779884588  0.3423973039552948   F   F   F
  0.4996334490756951  0.1456702854101763  0.6561304753799533   F   F   F
  0.3332758005185426  0.3522135998020133  0.3417855440449173   F   F   F
  0.3334234020423494  0.6496394603931464  0.7004005538716314   F   F   F
  0.4992666587893453  0.8499178054929857  0.4971089009897227   F   F   F
  0.3333982862407368  0.6515473939859859  0.5230856836044140   F   F   F
  0.3333097787962984  0.3587559410065779  0.4996514868355817   F   F   F
  0.4987615520357735  0.1483116790541956  0.4995811997526118   F   F   F
  0.6664150477306876  0.3520633276670466  0.6566963888077524   F   F   F
  0.8333492288833497  0.8521495037422468  0.3429474804883839   F   F   F
  0.8333775600214750  0.8530411760708319  0.6563895178797665   F   F   F
  0.6660868823729302  0.6474181946385116  0.3429175620559093   F   F   F
  0.8333096450041779  0.1469922963402155  0.3423236158177332   F   F   F
  0.8333518217663851  0.1474196331517845  0.6563011109971768   F   F   F
  0.6668382054018736  0.3520938713414239  0.3426390513000612   F   F   F
  0.6660427832918216  0.6478402725352055  0.6577302855813585   F   F   F
  0.8334178313614515  0.8505234960538957  0.5003707208575392   F   F   F
  0.6652452712811083  0.6489882015852970  0.5007115596358389   F   F   F
  0.6662192316520645  0.3512853205043385  0.4997103160174987   F   F   F
  0.8332832855962309  0.1485183047145497  0.4991317954945913   F   F   F
  0.1719468437317033  0.8520471149882880  0.4131407162241700   F   F   F
  0.1672309698940353  0.8540430367481733  0.5860440341255568   F   F   F
  0.9995701570625855  0.3545336323815462  0.4138774661131990   F   F   F
  0.9999186154315396  0.3541985118885904  0.5854448255069471   F   F   F
  0.0007840987468697  0.6460091228599651  0.5862423764731588   F   F   F
  0.0025372766198188  0.6448939034924877  0.4141779529142156   F   F   F
  0.1671007233695079  0.1435542992294074  0.5848855004630451   F   F   F
  0.1676581789860734  0.1449810764163075  0.4136208691358334   F   F   F
  0.0010201418269986  0.1758385335758774  0.4994490696459479   F   F   F
  0.0015120184309794  0.8240186526531659  0.4986222468165948   F   F   F
  0.1698327477151622  0.6759215120711772  0.5010221103483303   F   F   F
  0.1674256982445428  0.3252586352317692  0.4992888018807520   F   F   F
  0.9999703259288140  0.1810076186648075  0.3223635608174007   F   F   F
  0.1649574332295600  0.6805822616415256  0.3194686118272543   F   F   F
  0.1662912108228625  0.3177487047913630  0.3227180890350567   F   F   F
  0.0002412419037938  0.8183235486127458  0.3234370080298987   F   F   F
  0.9992688960018157  0.8205031140964678  0.6757459107252402   F   F   F
  0.0004152580280845  0.1806535533141016  0.6761045371299943   F   F   F
  0.1669168932345784  0.3162202986104816  0.6759357471341332   F   F   F
  0.1629057168150965  0.6829623079716995  0.6810170935153366   F   F   F
  0.1670256205550658  0.9989293250046032  0.3195116474402369   F   F   F
  0.1666757360579894  0.9992606366710817  0.6795914892804475   F   F   F
  0.0002910529892119  0.4991494386478834  0.6798014642709518   F   F   F
  0.9996732225059759  0.4994058513049140  0.3197862928261017   F   F   F
  0.1714920300402980  0.9991914579685286  0.4985596128357486   F   F   F
  0.9994306680687544  0.4997949848850993  0.5002705381534014   F   F   F
  0.4948231793596491  0.8520367277280556  0.4131335341363283   F   F   F
  0.4996150430853845  0.8540039627496583  0.5860207260416743   F   F   F
  0.3332640173448738  0.3587331265881275  0.4130499779325731   F   F   F
  0.3333115761394367  0.3601294213642561  0.5851226752781074   F   F   F
  0.3333588742997691  0.6403159667270657  0.5923323713978661   F   F   F
  0.3334245276786163  0.6381003692173621  0.4063801034919479   F   F   F
  0.4995503367320424  0.1435294133750560  0.5848412056907080   F   F   F
  0.4988925481142630  0.1450233232849243  0.4135967234827902   F   F   F
  0.3332823745144253  0.1828198707990722  0.4997411332142860   F   F   F
  0.3333964004239718  0.8185933556581801  0.5036889490370839   F   F   F
  0.4969909655532661  0.6759135676712660  0.5010503649927998   F   F   F
  0.4991889998224295  0.3252482718141323  0.4992831283264962   F   F   F
  0.3332830007389589  0.1817102571374249  0.3217202431332851   F   F   F
  0.5017127949733435  0.6806160874495433  0.3194378726578435   F   F   F
  0.5002646715720900  0.3177541211763497  0.3227173354724258   F   F   F
  0.3333270866947871  0.8168259869207830  0.3196448287024936   F   F   F
  0.3333923814058437  0.8214273154533132  0.6800110612290595   F   F   F
  0.3333812948660508  0.1803801612109268  0.6757881721514849   F   F   F
  0.4998145274006589  0.3162190547755870  0.6758942160675403   F   F   F
  0.5038658555680584  0.6829322486443345  0.6809529006433692   F   F   F
  0.4995879643022718  0.9989420376879110  0.3194942379405177   F   F   F
  0.5000994449697558  0.9992480040841514  0.6795241516607362   F   F   F
  0.3333648855484057  0.4929962184623804  0.6854784656057120   F   F   F
  0.3332874285395562  0.4952576840242600  0.3135028072329504   F   F   F
  0.4951445886880563  0.9991833960163419  0.4985221337289119   F   F   F
  0.3333686010799255  0.5057752163270379  0.4987415048595594   F   F   F
  0.8333830183073232  0.8546286020263949  0.4139885939743664   F   F   F
  0.8333603297612981  0.8550577316297492  0.5850127331273427   F   F   F
  0.6670185166967997  0.3545025468068843  0.4138718816848055   F   F   F
  0.6667698310204813  0.3542046832420738  0.5854447815855295   F   F   F
  0.6660857257925628  0.6460024515713201  0.5862425284234618   F   F   F
  0.6641768383251971  0.6449116571192022  0.4141699469538267   F   F   F
  0.8333086112838899  0.1447544318879039  0.5851270089658129   F   F   F
  0.8332879012874130  0.1450524274660197  0.4136086804420884   F   F   F
  0.6655620232635755  0.1757997148716370  0.4994221759917465   F   F   F
  0.6653067068808909  0.8240463720615878  0.4985927175286378   F   F   F
  0.8334096451758697  0.6749492832424480  0.5001513682495684   F   F   F
  0.8333133279990008  0.3237076560813250  0.4995393632424907   F   F   F
  0.6666437550951727  0.1810266772154350  0.3223442248374155   F   F   F
  0.8333305519321925  0.6814081289633833  0.3232813853406782   F   F   F
  0.8332808868696944  0.3176731809713047  0.3222467492245613   F   F   F
  0.6664439386757550  0.8183444313145358  0.3234186637192806   F   F   F
  0.6674995455045405  0.8204702277772782  0.6757675619172190   F   F   F
  0.6662917968232094  0.1806398149204753  0.6760803642194944   F   F   F
  0.8333563589080910  0.3171412127328139  0.6768076008570461   F   F   F
  0.8333914219954082  0.6820109615178822  0.6772228352111611   F   F   F
  0.8333344547419017  0.9995412318966856  0.3192366296204483   F   F   F
  0.8333576440091477  0.0001551950026908  0.6797672214286692   F   F   F
  0.6664762464046134  0.4991371962957345  0.6798186913113540   F   F   F
  0.6669681626153334  0.4994187424486114  0.3197870459198313   F   F   F
  0.8334184299653060  0.9998429348145308  0.4993620806043140   F   F   F
  0.6672537197187864  0.4997779693989202  0.5002599879150509   F   F   F
  0.3335301389263421  0.6526994442977951  0.7684062283240388   T   T   T
 
  0.00000000E+00  0.00000000E+00  0.00000000E+00
  0.00000000E+00  0.00000000E+00  0.00000000E+00
  0.00000000E+00  0.00000000E+00  0.00000000E+00
  0.00000000E+00  0.00000000E+00  0.00000000E+00
  0.00000000E+00  0.00000000E+00  0.00000000E+00
  0.00000000E+00  0.00000000E+00  0.00000000E+00
  0.00000000E+00  0.00000000E+00  0.00000000E+00
  0.00000000E+00  0.00000000E+00  0.00000000E+00
  0.00000000E+00  0.00000000E+00  0.00000000E+00
  0.00000000E+00  0.00000000E+00  0.00000000E+00
  0.00000000E+00  0.00000000E+00  0.00000000E+00
  0.00000000E+00  0.00000000E+00  0.00000000E+00
  0.00000000E+00  0.00000000E+00  0.00000000E+00
  0.00000000E+00  0.00000000E+00  0.00000000E+00
  0.00000000E+00  0.00000000E+00  0.00000000E+00
  0.00000000E+00  0.00000000E+00  0.00000000E+00
  0.00000000E+00  0.00000000E+00  0.00000000E+00
  0.00000000E+00  0.00000000E+00  0.00000000E+00
  0.00000000E+00  0.00000000E+00  0.00000000E+00
  0.00000000E+00  0.00000000E+00  0.00000000E+00
  0.00000000E+00  0.00000000E+00  0.00000000E+00
  0.00000000E+00  0.00000000E+00  0.00000000E+00
  0.00000000E+00  0.00000000E+00  0.00000000E+00
  0.00000000E+00  0.00000000E+00  0.00000000E+00
  0.00000000E+00  0.00000000E+00  0.00000000E+00
  0.00000000E+00  0.00000000E+00  0.00000000E+00
  0.00000000E+00  0.00000000E+00  0.00000000E+00
  0.00000000E+00  0.00000000E+00  0.00000000E+00
  0.00000000E+00  0.00000000E+00  0.00000000E+00
  0.00000000E+00  0.00000000E+00  0.00000000E+00
  0.00000000E+00  0.00000000E+00  0.00000000E+00
  0.00000000E+00  0.00000000E+00  0.00000000E+00
  0.00000000E+00  0.00000000E+00  0.00000000E+00
  0.00000000E+00  0.00000000E+00  0.00000000E+00
  0.00000000E+00  0.00000000E+00  0.00000000E+00
  0.00000000E+00  0.00000000E+00  0.00000000E+00
  0.00000000E+00  0.00000000E+00  0.00000000E+00
  0.00000000E+00  0.00000000E+00  0.00000000E+00
  0.00000000E+00  0.00000000E+00  0.00000000E+00
  0.00000000E+00  0.00000000E+00  0.00000000E+00
  0.00000000E+00  0.00000000E+00  0.00000000E+00
  0.00000000E+00  0.00000000E+00  0.00000000E+00
  0.00000000E+00  0.00000000E+00  0.00000000E+00
  0.00000000E+00  0.00000000E+00  0.00000000E+00
  0.00000000E+00  0.00000000E+00  0.00000000E+00
  0.00000000E+00  0.00000000E+00  0.00000000E+00
  0.00000000E+00  0.00000000E+00  0.00000000E+00
  0.00000000E+00  0.00000000E+00  0.00000000E+00
  0.00000000E+00  0.00000000E+00  0.00000000E+00
  0.00000000E+00  0.00000000E+00  0.00000000E+00
  0.00000000E+00  0.00000000E+00  0.00000000E+00
  0.00000000E+00  0.00000000E+00  0.00000000E+00
  0.00000000E+00  0.00000000E+00  0.00000000E+00
  0.00000000E+00  0.00000000E+00  0.00000000E+00
  0.00000000E+00  0.00000000E+00  0.00000000E+00
  0.00000000E+00  0.00000000E+00  0.00000000E+00
  0.00000000E+00  0.00000000E+00  0.00000000E+00
  0.00000000E+00  0.00000000E+00  0.00000000E+00
  0.00000000E+00  0.00000000E+00  0.00000000E+00
  0.00000000E+00  0.00000000E+00  0.00000000E+00
  0.00000000E+00  0.00000000E+00  0.00000000E+00
  0.00000000E+00  0.00000000E+00  0.00000000E+00
  0.00000000E+00  0.00000000E+00  0.00000000E+00
  0.00000000E+00  0.00000000E+00  0.00000000E+00
  0.00000000E+00  0.00000000E+00  0.00000000E+00
  0.00000000E+00  0.00000000E+00  0.00000000E+00
  0.00000000E+00  0.00000000E+00  0.00000000E+00
  0.00000000E+00  0.00000000E+00  0.00000000E+00
  0.00000000E+00  0.00000000E+00  0.00000000E+00
  0.00000000E+00  0.00000000E+00  0.00000000E+00
  0.00000000E+00  0.00000000E+00  0.00000000E+00
  0.00000000E+00  0.00000000E+00  0.00000000E+00
  0.00000000E+00  0.00000000E+00  0.00000000E+00
  0.00000000E+00  0.00000000E+00  0.00000000E+00
  0.00000000E+00  0.00000000E+00  0.00000000E+00
  0.00000000E+00  0.00000000E+00  0.00000000E+00
  0.00000000E+00  0.00000000E+00  0.00000000E+00
  0.00000000E+00  0.00000000E+00  0.00000000E+00
  0.00000000E+00  0.00000000E+00  0.00000000E+00
  0.00000000E+00  0.00000000E+00  0.00000000E+00
  0.00000000E+00  0.00000000E+00  0.00000000E+00
  0.00000000E+00  0.00000000E+00  0.00000000E+00
  0.00000000E+00  0.00000000E+00  0.00000000E+00
  0.00000000E+00  0.00000000E+00  0.00000000E+00
  0.00000000E+00  0.00000000E+00  0.00000000E+00
  0.00000000E+00  0.00000000E+00  0.00000000E+00
  0.00000000E+00  0.00000000E+00  0.00000000E+00
  0.00000000E+00  0.00000000E+00  0.00000000E+00
  0.00000000E+00  0.00000000E+00  0.00000000E+00
  0.00000000E+00  0.00000000E+00  0.00000000E+00
  0.00000000E+00  0.00000000E+00  0.00000000E+00
  0.00000000E+00  0.00000000E+00  0.00000000E+00
  0.00000000E+00  0.00000000E+00  0.00000000E+00
  0.00000000E+00  0.00000000E+00  0.00000000E+00
  0.00000000E+00  0.00000000E+00  0.00000000E+00
  0.00000000E+00  0.00000000E+00  0.00000000E+00
  0.00000000E+00  0.00000000E+00  0.00000000E+00
  0.00000000E+00  0.00000000E+00  0.00000000E+00
  0.00000000E+00  0.00000000E+00  0.00000000E+00
  0.00000000E+00  0.00000000E+00  0.00000000E+00
  0.00000000E+00  0.00000000E+00  0.00000000E+00
  0.00000000E+00  0.00000000E+00  0.00000000E+00
  0.00000000E+00  0.00000000E+00  0.00000000E+00
  0.00000000E+00  0.00000000E+00  0.00000000E+00
  0.00000000E+00  0.00000000E+00  0.00000000E+00
  0.00000000E+00  0.00000000E+00  0.00000000E+00
  0.00000000E+00  0.00000000E+00  0.00000000E+00
  0.00000000E+00  0.00000000E+00  0.00000000E+00
  0.00000000E+00  0.00000000E+00  0.00000000E+00
  0.00000000E+00  0.00000000E+00  0.00000000E+00
  0.00000000E+00  0.00000000E+00  0.00000000E+00
  0.00000000E+00  0.00000000E+00  0.00000000E+00
  0.00000000E+00  0.00000000E+00  0.00000000E+00
  0.00000000E+00  0.00000000E+00  0.00000000E+00
  0.00000000E+00  0.00000000E+00  0.00000000E+00
