 Li4 Cr2 P8 O26                         
   1.00000000000000     
     4.7814110308802267    0.0000000000000000    0.0000000000000000
     0.9815585154727883    7.5207905507428050   -0.1031410000000000
     0.0000000000000000    0.0000000000000000   26.8457239033740009
   Li   Cr   P    O 
     4     2     8    26
Direct
  0.6048120710310982  0.5595090906559292  0.2764192065163513
  0.1159916137034074  0.3268794395759684  0.5152540890615001
  0.3951914908548773  0.4404893357095858  0.7235792925031532
  0.8840190966860533  0.6731157941573898  0.4847479544198450
  0.4439044757922161  0.1324034719070042  0.6211630675875455
  0.5560881179579908  0.8675994999988035  0.3788376606136055
  0.9689989239916201  0.9418819294778444  0.5686236185774476
  0.2946631283417460  0.7607669116778482  0.6457306551990243
  0.6506333634294208  0.4903841440811476  0.5849500730815862
  0.0309932041698389  0.0581224188275300  0.4313754857368295
  0.9102510215129982  0.3194802423283605  0.6758108522872561
  0.7053371697886348  0.2392351205503189  0.3542698781100242
  0.3493637987643154  0.5096130992438503  0.4150496948947904
  0.0897472649321642  0.6805159950433008  0.3241900153527482
  0.7654113145796870  0.1588324592971020  0.6587966389083704
  0.0033656817247234  0.8182425679003202  0.6185463804642168
  0.2690778884653966  0.6388186780520684  0.6871711967632521
  0.8632730284609025  0.4591547856717142  0.6302374670190858
  0.3489611658055836  0.9904593778720425  0.4305608584225311
  0.7675012032893278  0.7330171768195797  0.3238392844370992
  0.4777369666807871  0.6764820074487048  0.5987298076034904
  0.0672198204927597  0.8333880691520292  0.5242219347968629
  0.2324984989829701  0.2669830182975090  0.6761610226734405
  0.2018667908833578  0.5968411386111399  0.2762879624639680
  0.7981406770611059  0.4031601465922208  0.7237115294756862
  0.5222682809176931  0.3235169625012375  0.4012704084346055
  0.5771834448476696  0.0712610543309538  0.3403998597723685
  0.8736407164064204  0.8950049006175504  0.4192825399954145
  0.4451007557865481  0.3519039782843834  0.5847367350480184
  0.1954421686412644  0.4925601066902843  0.4623974184069581
  0.9327778616417390  0.1666183340663281  0.4757781958663898
  0.6510435312084510  0.0095361559223690  0.5694389595955514
  0.8045578235494943  0.5074391028182177  0.5376025759769547
  0.5549008944960292  0.6480985842593867  0.4152624012819928
  0.1367268355873392  0.5408406439853550  0.3697616953011575
  0.1263505826329663  0.1049994842934012  0.5807167646206466
  0.4228106475475499  0.9287362694422470  0.6596009248864689
  0.2345909969094393  0.8411667541892882  0.3412051913796290
  0.9966358852507398  0.1817589683558722  0.3814531671447270
  0.7309217971936306  0.3611827812937776  0.3128275353193857
 
  0.00000000E+00  0.00000000E+00  0.00000000E+00
  0.00000000E+00  0.00000000E+00  0.00000000E+00
  0.00000000E+00  0.00000000E+00  0.00000000E+00
  0.00000000E+00  0.00000000E+00  0.00000000E+00
  0.00000000E+00  0.00000000E+00  0.00000000E+00
  0.00000000E+00  0.00000000E+00  0.00000000E+00
  0.00000000E+00  0.00000000E+00  0.00000000E+00
  0.00000000E+00  0.00000000E+00  0.00000000E+00
  0.00000000E+00  0.00000000E+00  0.00000000E+00
  0.00000000E+00  0.00000000E+00  0.00000000E+00
  0.00000000E+00  0.00000000E+00  0.00000000E+00
  0.00000000E+00  0.00000000E+00  0.00000000E+00
  0.00000000E+00  0.00000000E+00  0.00000000E+00
  0.00000000E+00  0.00000000E+00  0.00000000E+00
  0.00000000E+00  0.00000000E+00  0.00000000E+00
  0.00000000E+00  0.00000000E+00  0.00000000E+00
  0.00000000E+00  0.00000000E+00  0.00000000E+00
  0.00000000E+00  0.00000000E+00  0.00000000E+00
  0.00000000E+00  0.00000000E+00  0.00000000E+00
  0.00000000E+00  0.00000000E+00  0.00000000E+00
  0.00000000E+00  0.00000000E+00  0.00000000E+00
  0.00000000E+00  0.00000000E+00  0.00000000E+00
  0.00000000E+00  0.00000000E+00  0.00000000E+00
  0.00000000E+00  0.00000000E+00  0.00000000E+00
  0.00000000E+00  0.00000000E+00  0.00000000E+00
  0.00000000E+00  0.00000000E+00  0.00000000E+00
  0.00000000E+00  0.00000000E+00  0.00000000E+00
  0.00000000E+00  0.00000000E+00  0.00000000E+00
  0.00000000E+00  0.00000000E+00  0.00000000E+00
  0.00000000E+00  0.00000000E+00  0.00000000E+00
  0.00000000E+00  0.00000000E+00  0.00000000E+00
  0.00000000E+00  0.00000000E+00  0.00000000E+00
  0.00000000E+00  0.00000000E+00  0.00000000E+00
  0.00000000E+00  0.00000000E+00  0.00000000E+00
  0.00000000E+00  0.00000000E+00  0.00000000E+00
  0.00000000E+00  0.00000000E+00  0.00000000E+00
  0.00000000E+00  0.00000000E+00  0.00000000E+00
  0.00000000E+00  0.00000000E+00  0.00000000E+00
  0.00000000E+00  0.00000000E+00  0.00000000E+00
  0.00000000E+00  0.00000000E+00  0.00000000E+00
