G   42   27    1    0.005     # Parameters to Generate KPOINTS (Don't Edit This Line)
     568
Reciprocal lattice
    0.000000000000    0.000000000000    0.000000000000       1
    0.023809523810    0.000000000000    0.000000000000       2
    0.047619047619    0.000000000000    0.000000000000       2
    0.071428571429    0.000000000000    0.000000000000       2
    0.095238095238    0.000000000000    0.000000000000       2
    0.119047619048    0.000000000000    0.000000000000       2
    0.142857142857    0.000000000000    0.000000000000       2
    0.166666666667    0.000000000000    0.000000000000       2
    0.190476190476    0.000000000000    0.000000000000       2
    0.214285714286    0.000000000000    0.000000000000       2
    0.238095238095    0.000000000000    0.000000000000       2
    0.261904761905    0.000000000000    0.000000000000       2
    0.285714285714    0.000000000000    0.000000000000       2
    0.309523809524    0.000000000000    0.000000000000       2
    0.333333333333    0.000000000000    0.000000000000       2
    0.357142857143    0.000000000000    0.000000000000       2
    0.380952380952    0.000000000000    0.000000000000       2
    0.404761904762    0.000000000000    0.000000000000       2
    0.428571428571    0.000000000000    0.000000000000       2
    0.452380952381    0.000000000000    0.000000000000       2
    0.476190476190    0.000000000000    0.000000000000       2
    0.500000000000    0.000000000000    0.000000000000       1
    0.000000000000    0.037037037037    0.000000000000       2
    0.023809523810    0.037037037037    0.000000000000       2
    0.047619047619    0.037037037037    0.000000000000       2
    0.071428571429    0.037037037037    0.000000000000       2
    0.095238095238    0.037037037037    0.000000000000       2
    0.119047619048    0.037037037037    0.000000000000       2
    0.142857142857    0.037037037037    0.000000000000       2
    0.166666666667    0.037037037037    0.000000000000       2
    0.190476190476    0.037037037037    0.000000000000       2
    0.214285714286    0.037037037037    0.000000000000       2
    0.238095238095    0.037037037037    0.000000000000       2
    0.261904761905    0.037037037037    0.000000000000       2
    0.285714285714    0.037037037037    0.000000000000       2
    0.309523809524    0.037037037037    0.000000000000       2
    0.333333333333    0.037037037037    0.000000000000       2
    0.357142857143    0.037037037037    0.000000000000       2
    0.380952380952    0.037037037037    0.000000000000       2
    0.404761904762    0.037037037037    0.000000000000       2
    0.428571428571    0.037037037037    0.000000000000       2
    0.452380952381    0.037037037037    0.000000000000       2
    0.476190476190    0.037037037037    0.000000000000       2
    0.500000000000    0.037037037037    0.000000000000       2
   -0.476190476190    0.037037037037    0.000000000000       2
   -0.452380952381    0.037037037037    0.000000000000       2
   -0.428571428571    0.037037037037    0.000000000000       2
   -0.404761904762    0.037037037037    0.000000000000       2
   -0.380952380952    0.037037037037    0.000000000000       2
   -0.357142857143    0.037037037037    0.000000000000       2
   -0.333333333333    0.037037037037    0.000000000000       2
   -0.309523809524    0.037037037037    0.000000000000       2
   -0.285714285714    0.037037037037    0.000000000000       2
   -0.261904761905    0.037037037037    0.000000000000       2
   -0.238095238095    0.037037037037    0.000000000000       2
   -0.214285714286    0.037037037037    0.000000000000       2
   -0.190476190476    0.037037037037    0.000000000000       2
   -0.166666666667    0.037037037037    0.000000000000       2
   -0.142857142857    0.037037037037    0.000000000000       2
   -0.119047619048    0.037037037037    0.000000000000       2
   -0.095238095238    0.037037037037    0.000000000000       2
   -0.071428571429    0.037037037037    0.000000000000       2
   -0.047619047619    0.037037037037    0.000000000000       2
   -0.023809523810    0.037037037037    0.000000000000       2
    0.000000000000    0.074074074074    0.000000000000       2
    0.023809523810    0.074074074074    0.000000000000       2
    0.047619047619    0.074074074074    0.000000000000       2
    0.071428571429    0.074074074074    0.000000000000       2
    0.095238095238    0.074074074074    0.000000000000       2
    0.119047619048    0.074074074074    0.000000000000       2
    0.142857142857    0.074074074074    0.000000000000       2
    0.166666666667    0.074074074074    0.000000000000       2
    0.190476190476    0.074074074074    0.000000000000       2
    0.214285714286    0.074074074074    0.000000000000       2
    0.238095238095    0.074074074074    0.000000000000       2
    0.261904761905    0.074074074074    0.000000000000       2
    0.285714285714    0.074074074074    0.000000000000       2
    0.309523809524    0.074074074074    0.000000000000       2
    0.333333333333    0.074074074074    0.000000000000       2
    0.357142857143    0.074074074074    0.000000000000       2
    0.380952380952    0.074074074074    0.000000000000       2
    0.404761904762    0.074074074074    0.000000000000       2
    0.428571428571    0.074074074074    0.000000000000       2
    0.452380952381    0.074074074074    0.000000000000       2
    0.476190476190    0.074074074074    0.000000000000       2
    0.500000000000    0.074074074074    0.000000000000       2
   -0.476190476190    0.074074074074    0.000000000000       2
   -0.452380952381    0.074074074074    0.000000000000       2
   -0.428571428571    0.074074074074    0.000000000000       2
   -0.404761904762    0.074074074074    0.000000000000       2
   -0.380952380952    0.074074074074    0.000000000000       2
   -0.357142857143    0.074074074074    0.000000000000       2
   -0.333333333333    0.074074074074    0.000000000000       2
   -0.309523809524    0.074074074074    0.000000000000       2
   -0.285714285714    0.074074074074    0.000000000000       2
   -0.261904761905    0.074074074074    0.000000000000       2
   -0.238095238095    0.074074074074    0.000000000000       2
   -0.214285714286    0.074074074074    0.000000000000       2
   -0.190476190476    0.074074074074    0.000000000000       2
   -0.166666666667    0.074074074074    0.000000000000       2
   -0.142857142857    0.074074074074    0.000000000000       2
   -0.119047619048    0.074074074074    0.000000000000       2
   -0.095238095238    0.074074074074    0.000000000000       2
   -0.071428571429    0.074074074074    0.000000000000       2
   -0.047619047619    0.074074074074    0.000000000000       2
   -0.023809523810    0.074074074074    0.000000000000       2
    0.000000000000    0.111111111111    0.000000000000       2
    0.023809523810    0.111111111111    0.000000000000       2
    0.047619047619    0.111111111111    0.000000000000       2
    0.071428571429    0.111111111111    0.000000000000       2
    0.095238095238    0.111111111111    0.000000000000       2
    0.119047619048    0.111111111111    0.000000000000       2
    0.142857142857    0.111111111111    0.000000000000       2
    0.166666666667    0.111111111111    0.000000000000       2
    0.190476190476    0.111111111111    0.000000000000       2
    0.214285714286    0.111111111111    0.000000000000       2
    0.238095238095    0.111111111111    0.000000000000       2
    0.261904761905    0.111111111111    0.000000000000       2
    0.285714285714    0.111111111111    0.000000000000       2
    0.309523809524    0.111111111111    0.000000000000       2
    0.333333333333    0.111111111111    0.000000000000       2
    0.357142857143    0.111111111111    0.000000000000       2
    0.380952380952    0.111111111111    0.000000000000       2
    0.404761904762    0.111111111111    0.000000000000       2
    0.428571428571    0.111111111111    0.000000000000       2
    0.452380952381    0.111111111111    0.000000000000       2
    0.476190476190    0.111111111111    0.000000000000       2
    0.500000000000    0.111111111111    0.000000000000       2
   -0.476190476190    0.111111111111    0.000000000000       2
   -0.452380952381    0.111111111111    0.000000000000       2
   -0.428571428571    0.111111111111    0.000000000000       2
   -0.404761904762    0.111111111111    0.000000000000       2
   -0.380952380952    0.111111111111    0.000000000000       2
   -0.357142857143    0.111111111111    0.000000000000       2
   -0.333333333333    0.111111111111    0.000000000000       2
   -0.309523809524    0.111111111111    0.000000000000       2
   -0.285714285714    0.111111111111    0.000000000000       2
   -0.261904761905    0.111111111111    0.000000000000       2
   -0.238095238095    0.111111111111    0.000000000000       2
   -0.214285714286    0.111111111111    0.000000000000       2
   -0.190476190476    0.111111111111    0.000000000000       2
   -0.166666666667    0.111111111111    0.000000000000       2
   -0.142857142857    0.111111111111    0.000000000000       2
   -0.119047619048    0.111111111111    0.000000000000       2
   -0.095238095238    0.111111111111    0.000000000000       2
   -0.071428571429    0.111111111111    0.000000000000       2
   -0.047619047619    0.111111111111    0.000000000000       2
   -0.023809523810    0.111111111111    0.000000000000       2
    0.000000000000    0.148148148148    0.000000000000       2
    0.023809523810    0.148148148148    0.000000000000       2
    0.047619047619    0.148148148148    0.000000000000       2
    0.071428571429    0.148148148148    0.000000000000       2
    0.095238095238    0.148148148148    0.000000000000       2
    0.119047619048    0.148148148148    0.000000000000       2
    0.142857142857    0.148148148148    0.000000000000       2
    0.166666666667    0.148148148148    0.000000000000       2
    0.190476190476    0.148148148148    0.000000000000       2
    0.214285714286    0.148148148148    0.000000000000       2
    0.238095238095    0.148148148148    0.000000000000       2
    0.261904761905    0.148148148148    0.000000000000       2
    0.285714285714    0.148148148148    0.000000000000       2
    0.309523809524    0.148148148148    0.000000000000       2
    0.333333333333    0.148148148148    0.000000000000       2
    0.357142857143    0.148148148148    0.000000000000       2
    0.380952380952    0.148148148148    0.000000000000       2
    0.404761904762    0.148148148148    0.000000000000       2
    0.428571428571    0.148148148148    0.000000000000       2
    0.452380952381    0.148148148148    0.000000000000       2
    0.476190476190    0.148148148148    0.000000000000       2
    0.500000000000    0.148148148148    0.000000000000       2
   -0.476190476190    0.148148148148    0.000000000000       2
   -0.452380952381    0.148148148148    0.000000000000       2
   -0.428571428571    0.148148148148    0.000000000000       2
   -0.404761904762    0.148148148148    0.000000000000       2
   -0.380952380952    0.148148148148    0.000000000000       2
   -0.357142857143    0.148148148148    0.000000000000       2
   -0.333333333333    0.148148148148    0.000000000000       2
   -0.309523809524    0.148148148148    0.000000000000       2
   -0.285714285714    0.148148148148    0.000000000000       2
   -0.261904761905    0.148148148148    0.000000000000       2
   -0.238095238095    0.148148148148    0.000000000000       2
   -0.214285714286    0.148148148148    0.000000000000       2
   -0.190476190476    0.148148148148    0.000000000000       2
   -0.166666666667    0.148148148148    0.000000000000       2
   -0.142857142857    0.148148148148    0.000000000000       2
   -0.119047619048    0.148148148148    0.000000000000       2
   -0.095238095238    0.148148148148    0.000000000000       2
   -0.071428571429    0.148148148148    0.000000000000       2
   -0.047619047619    0.148148148148    0.000000000000       2
   -0.023809523810    0.148148148148    0.000000000000       2
    0.000000000000    0.185185185185    0.000000000000       2
    0.023809523810    0.185185185185    0.000000000000       2
    0.047619047619    0.185185185185    0.000000000000       2
    0.071428571429    0.185185185185    0.000000000000       2
    0.095238095238    0.185185185185    0.000000000000       2
    0.119047619048    0.185185185185    0.000000000000       2
    0.142857142857    0.185185185185    0.000000000000       2
    0.166666666667    0.185185185185    0.000000000000       2
    0.190476190476    0.185185185185    0.000000000000       2
    0.214285714286    0.185185185185    0.000000000000       2
    0.238095238095    0.185185185185    0.000000000000       2
    0.261904761905    0.185185185185    0.000000000000       2
    0.285714285714    0.185185185185    0.000000000000       2
    0.309523809524    0.185185185185    0.000000000000       2
    0.333333333333    0.185185185185    0.000000000000       2
    0.357142857143    0.185185185185    0.000000000000       2
    0.380952380952    0.185185185185    0.000000000000       2
    0.404761904762    0.185185185185    0.000000000000       2
    0.428571428571    0.185185185185    0.000000000000       2
    0.452380952381    0.185185185185    0.000000000000       2
    0.476190476190    0.185185185185    0.000000000000       2
    0.500000000000    0.185185185185    0.000000000000       2
   -0.476190476190    0.185185185185    0.000000000000       2
   -0.452380952381    0.185185185185    0.000000000000       2
   -0.428571428571    0.185185185185    0.000000000000       2
   -0.404761904762    0.185185185185    0.000000000000       2
   -0.380952380952    0.185185185185    0.000000000000       2
   -0.357142857143    0.185185185185    0.000000000000       2
   -0.333333333333    0.185185185185    0.000000000000       2
   -0.309523809524    0.185185185185    0.000000000000       2
   -0.285714285714    0.185185185185    0.000000000000       2
   -0.261904761905    0.185185185185    0.000000000000       2
   -0.238095238095    0.185185185185    0.000000000000       2
   -0.214285714286    0.185185185185    0.000000000000       2
   -0.190476190476    0.185185185185    0.000000000000       2
   -0.166666666667    0.185185185185    0.000000000000       2
   -0.142857142857    0.185185185185    0.000000000000       2
   -0.119047619048    0.185185185185    0.000000000000       2
   -0.095238095238    0.185185185185    0.000000000000       2
   -0.071428571429    0.185185185185    0.000000000000       2
   -0.047619047619    0.185185185185    0.000000000000       2
   -0.023809523810    0.185185185185    0.000000000000       2
    0.000000000000    0.222222222222    0.000000000000       2
    0.023809523810    0.222222222222    0.000000000000       2
    0.047619047619    0.222222222222    0.000000000000       2
    0.071428571429    0.222222222222    0.000000000000       2
    0.095238095238    0.222222222222    0.000000000000       2
    0.119047619048    0.222222222222    0.000000000000       2
    0.142857142857    0.222222222222    0.000000000000       2
    0.166666666667    0.222222222222    0.000000000000       2
    0.190476190476    0.222222222222    0.000000000000       2
    0.214285714286    0.222222222222    0.000000000000       2
    0.238095238095    0.222222222222    0.000000000000       2
    0.261904761905    0.222222222222    0.000000000000       2
    0.285714285714    0.222222222222    0.000000000000       2
    0.309523809524    0.222222222222    0.000000000000       2
    0.333333333333    0.222222222222    0.000000000000       2
    0.357142857143    0.222222222222    0.000000000000       2
    0.380952380952    0.222222222222    0.000000000000       2
    0.404761904762    0.222222222222    0.000000000000       2
    0.428571428571    0.222222222222    0.000000000000       2
    0.452380952381    0.222222222222    0.000000000000       2
    0.476190476190    0.222222222222    0.000000000000       2
    0.500000000000    0.222222222222    0.000000000000       2
   -0.476190476190    0.222222222222    0.000000000000       2
   -0.452380952381    0.222222222222    0.000000000000       2
   -0.428571428571    0.222222222222    0.000000000000       2
   -0.404761904762    0.222222222222    0.000000000000       2
   -0.380952380952    0.222222222222    0.000000000000       2
   -0.357142857143    0.222222222222    0.000000000000       2
   -0.333333333333    0.222222222222    0.000000000000       2
   -0.309523809524    0.222222222222    0.000000000000       2
   -0.285714285714    0.222222222222    0.000000000000       2
   -0.261904761905    0.222222222222    0.000000000000       2
   -0.238095238095    0.222222222222    0.000000000000       2
   -0.214285714286    0.222222222222    0.000000000000       2
   -0.190476190476    0.222222222222    0.000000000000       2
   -0.166666666667    0.222222222222    0.000000000000       2
   -0.142857142857    0.222222222222    0.000000000000       2
   -0.119047619048    0.222222222222    0.000000000000       2
   -0.095238095238    0.222222222222    0.000000000000       2
   -0.071428571429    0.222222222222    0.000000000000       2
   -0.047619047619    0.222222222222    0.000000000000       2
   -0.023809523810    0.222222222222    0.000000000000       2
    0.000000000000    0.259259259259    0.000000000000       2
    0.023809523810    0.259259259259    0.000000000000       2
    0.047619047619    0.259259259259    0.000000000000       2
    0.071428571429    0.259259259259    0.000000000000       2
    0.095238095238    0.259259259259    0.000000000000       2
    0.119047619048    0.259259259259    0.000000000000       2
    0.142857142857    0.259259259259    0.000000000000       2
    0.166666666667    0.259259259259    0.000000000000       2
    0.190476190476    0.259259259259    0.000000000000       2
    0.214285714286    0.259259259259    0.000000000000       2
    0.238095238095    0.259259259259    0.000000000000       2
    0.261904761905    0.259259259259    0.000000000000       2
    0.285714285714    0.259259259259    0.000000000000       2
    0.309523809524    0.259259259259    0.000000000000       2
    0.333333333333    0.259259259259    0.000000000000       2
    0.357142857143    0.259259259259    0.000000000000       2
    0.380952380952    0.259259259259    0.000000000000       2
    0.404761904762    0.259259259259    0.000000000000       2
    0.428571428571    0.259259259259    0.000000000000       2
    0.452380952381    0.259259259259    0.000000000000       2
    0.476190476190    0.259259259259    0.000000000000       2
    0.500000000000    0.259259259259    0.000000000000       2
   -0.476190476190    0.259259259259    0.000000000000       2
   -0.452380952381    0.259259259259    0.000000000000       2
   -0.428571428571    0.259259259259    0.000000000000       2
   -0.404761904762    0.259259259259    0.000000000000       2
   -0.380952380952    0.259259259259    0.000000000000       2
   -0.357142857143    0.259259259259    0.000000000000       2
   -0.333333333333    0.259259259259    0.000000000000       2
   -0.309523809524    0.259259259259    0.000000000000       2
   -0.285714285714    0.259259259259    0.000000000000       2
   -0.261904761905    0.259259259259    0.000000000000       2
   -0.238095238095    0.259259259259    0.000000000000       2
   -0.214285714286    0.259259259259    0.000000000000       2
   -0.190476190476    0.259259259259    0.000000000000       2
   -0.166666666667    0.259259259259    0.000000000000       2
   -0.142857142857    0.259259259259    0.000000000000       2
   -0.119047619048    0.259259259259    0.000000000000       2
   -0.095238095238    0.259259259259    0.000000000000       2
   -0.071428571429    0.259259259259    0.000000000000       2
   -0.047619047619    0.259259259259    0.000000000000       2
   -0.023809523810    0.259259259259    0.000000000000       2
    0.000000000000    0.296296296296    0.000000000000       2
    0.023809523810    0.296296296296    0.000000000000       2
    0.047619047619    0.296296296296    0.000000000000       2
    0.071428571429    0.296296296296    0.000000000000       2
    0.095238095238    0.296296296296    0.000000000000       2
    0.119047619048    0.296296296296    0.000000000000       2
    0.142857142857    0.296296296296    0.000000000000       2
    0.166666666667    0.296296296296    0.000000000000       2
    0.190476190476    0.296296296296    0.000000000000       2
    0.214285714286    0.296296296296    0.000000000000       2
    0.238095238095    0.296296296296    0.000000000000       2
    0.261904761905    0.296296296296    0.000000000000       2
    0.285714285714    0.296296296296    0.000000000000       2
    0.309523809524    0.296296296296    0.000000000000       2
    0.333333333333    0.296296296296    0.000000000000       2
    0.357142857143    0.296296296296    0.000000000000       2
    0.380952380952    0.296296296296    0.000000000000       2
    0.404761904762    0.296296296296    0.000000000000       2
    0.428571428571    0.296296296296    0.000000000000       2
    0.452380952381    0.296296296296    0.000000000000       2
    0.476190476190    0.296296296296    0.000000000000       2
    0.500000000000    0.296296296296    0.000000000000       2
   -0.476190476190    0.296296296296    0.000000000000       2
   -0.452380952381    0.296296296296    0.000000000000       2
   -0.428571428571    0.296296296296    0.000000000000       2
   -0.404761904762    0.296296296296    0.000000000000       2
   -0.380952380952    0.296296296296    0.000000000000       2
   -0.357142857143    0.296296296296    0.000000000000       2
   -0.333333333333    0.296296296296    0.000000000000       2
   -0.309523809524    0.296296296296    0.000000000000       2
   -0.285714285714    0.296296296296    0.000000000000       2
   -0.261904761905    0.296296296296    0.000000000000       2
   -0.238095238095    0.296296296296    0.000000000000       2
   -0.214285714286    0.296296296296    0.000000000000       2
   -0.190476190476    0.296296296296    0.000000000000       2
   -0.166666666667    0.296296296296    0.000000000000       2
   -0.142857142857    0.296296296296    0.000000000000       2
   -0.119047619048    0.296296296296    0.000000000000       2
   -0.095238095238    0.296296296296    0.000000000000       2
   -0.071428571429    0.296296296296    0.000000000000       2
   -0.047619047619    0.296296296296    0.000000000000       2
   -0.023809523810    0.296296296296    0.000000000000       2
    0.000000000000    0.333333333333    0.000000000000       2
    0.023809523810    0.333333333333    0.000000000000       2
    0.047619047619    0.333333333333    0.000000000000       2
    0.071428571429    0.333333333333    0.000000000000       2
    0.095238095238    0.333333333333    0.000000000000       2
    0.119047619048    0.333333333333    0.000000000000       2
    0.142857142857    0.333333333333    0.000000000000       2
    0.166666666667    0.333333333333    0.000000000000       2
    0.190476190476    0.333333333333    0.000000000000       2
    0.214285714286    0.333333333333    0.000000000000       2
    0.238095238095    0.333333333333    0.000000000000       2
    0.261904761905    0.333333333333    0.000000000000       2
    0.285714285714    0.333333333333    0.000000000000       2
    0.309523809524    0.333333333333    0.000000000000       2
    0.333333333333    0.333333333333    0.000000000000       2
    0.357142857143    0.333333333333    0.000000000000       2
    0.380952380952    0.333333333333    0.000000000000       2
    0.404761904762    0.333333333333    0.000000000000       2
    0.428571428571    0.333333333333    0.000000000000       2
    0.452380952381    0.333333333333    0.000000000000       2
    0.476190476190    0.333333333333    0.000000000000       2
    0.500000000000    0.333333333333    0.000000000000       2
   -0.476190476190    0.333333333333    0.000000000000       2
   -0.452380952381    0.333333333333    0.000000000000       2
   -0.428571428571    0.333333333333    0.000000000000       2
   -0.404761904762    0.333333333333    0.000000000000       2
   -0.380952380952    0.333333333333    0.000000000000       2
   -0.357142857143    0.333333333333    0.000000000000       2
   -0.333333333333    0.333333333333    0.000000000000       2
   -0.309523809524    0.333333333333    0.000000000000       2
   -0.285714285714    0.333333333333    0.000000000000       2
   -0.261904761905    0.333333333333    0.000000000000       2
   -0.238095238095    0.333333333333    0.000000000000       2
   -0.214285714286    0.333333333333    0.000000000000       2
   -0.190476190476    0.333333333333    0.000000000000       2
   -0.166666666667    0.333333333333    0.000000000000       2
   -0.142857142857    0.333333333333    0.000000000000       2
   -0.119047619048    0.333333333333    0.000000000000       2
   -0.095238095238    0.333333333333    0.000000000000       2
   -0.071428571429    0.333333333333    0.000000000000       2
   -0.047619047619    0.333333333333    0.000000000000       2
   -0.023809523810    0.333333333333    0.000000000000       2
    0.000000000000    0.370370370370    0.000000000000       2
    0.023809523810    0.370370370370    0.000000000000       2
    0.047619047619    0.370370370370    0.000000000000       2
    0.071428571429    0.370370370370    0.000000000000       2
    0.095238095238    0.370370370370    0.000000000000       2
    0.119047619048    0.370370370370    0.000000000000       2
    0.142857142857    0.370370370370    0.000000000000       2
    0.166666666667    0.370370370370    0.000000000000       2
    0.190476190476    0.370370370370    0.000000000000       2
    0.214285714286    0.370370370370    0.000000000000       2
    0.238095238095    0.370370370370    0.000000000000       2
    0.261904761905    0.370370370370    0.000000000000       2
    0.285714285714    0.370370370370    0.000000000000       2
    0.309523809524    0.370370370370    0.000000000000       2
    0.333333333333    0.370370370370    0.000000000000       2
    0.357142857143    0.370370370370    0.000000000000       2
    0.380952380952    0.370370370370    0.000000000000       2
    0.404761904762    0.370370370370    0.000000000000       2
    0.428571428571    0.370370370370    0.000000000000       2
    0.452380952381    0.370370370370    0.000000000000       2
    0.476190476190    0.370370370370    0.000000000000       2
    0.500000000000    0.370370370370    0.000000000000       2
   -0.476190476190    0.370370370370    0.000000000000       2
   -0.452380952381    0.370370370370    0.000000000000       2
   -0.428571428571    0.370370370370    0.000000000000       2
   -0.404761904762    0.370370370370    0.000000000000       2
   -0.380952380952    0.370370370370    0.000000000000       2
   -0.357142857143    0.370370370370    0.000000000000       2
   -0.333333333333    0.370370370370    0.000000000000       2
   -0.309523809524    0.370370370370    0.000000000000       2
   -0.285714285714    0.370370370370    0.000000000000       2
   -0.261904761905    0.370370370370    0.000000000000       2
   -0.238095238095    0.370370370370    0.000000000000       2
   -0.214285714286    0.370370370370    0.000000000000       2
   -0.190476190476    0.370370370370    0.000000000000       2
   -0.166666666667    0.370370370370    0.000000000000       2
   -0.142857142857    0.370370370370    0.000000000000       2
   -0.119047619048    0.370370370370    0.000000000000       2
   -0.095238095238    0.370370370370    0.000000000000       2
   -0.071428571429    0.370370370370    0.000000000000       2
   -0.047619047619    0.370370370370    0.000000000000       2
   -0.023809523810    0.370370370370    0.000000000000       2
    0.000000000000    0.407407407407    0.000000000000       2
    0.023809523810    0.407407407407    0.000000000000       2
    0.047619047619    0.407407407407    0.000000000000       2
    0.071428571429    0.407407407407    0.000000000000       2
    0.095238095238    0.407407407407    0.000000000000       2
    0.119047619048    0.407407407407    0.000000000000       2
    0.142857142857    0.407407407407    0.000000000000       2
    0.166666666667    0.407407407407    0.000000000000       2
    0.190476190476    0.407407407407    0.000000000000       2
    0.214285714286    0.407407407407    0.000000000000       2
    0.238095238095    0.407407407407    0.000000000000       2
    0.261904761905    0.407407407407    0.000000000000       2
    0.285714285714    0.407407407407    0.000000000000       2
    0.309523809524    0.407407407407    0.000000000000       2
    0.333333333333    0.407407407407    0.000000000000       2
    0.357142857143    0.407407407407    0.000000000000       2
    0.380952380952    0.407407407407    0.000000000000       2
    0.404761904762    0.407407407407    0.000000000000       2
    0.428571428571    0.407407407407    0.000000000000       2
    0.452380952381    0.407407407407    0.000000000000       2
    0.476190476190    0.407407407407    0.000000000000       2
    0.500000000000    0.407407407407    0.000000000000       2
   -0.476190476190    0.407407407407    0.000000000000       2
   -0.452380952381    0.407407407407    0.000000000000       2
   -0.428571428571    0.407407407407    0.000000000000       2
   -0.404761904762    0.407407407407    0.000000000000       2
   -0.380952380952    0.407407407407    0.000000000000       2
   -0.357142857143    0.407407407407    0.000000000000       2
   -0.333333333333    0.407407407407    0.000000000000       2
   -0.309523809524    0.407407407407    0.000000000000       2
   -0.285714285714    0.407407407407    0.000000000000       2
   -0.261904761905    0.407407407407    0.000000000000       2