CONTCAR\(11)                            
   1.00000000000000     
    10.1990995407000007    0.0000000000000000    0.0000000000000000
     0.0000000000000000   15.1191997528000002    0.0000000000000000
     0.0000000000000000    0.0000000000000000   19.1068992615000006
   Ta   Ni   S    O 
    12     6    30     1
Direct
  0.9969982714150182  0.3559366967325703  0.5188240892313434
  0.1635917104120218  0.1398067681721785  0.4812724534342347
  0.1634033461483630  0.8550364837389692  0.4813704105617769
  0.9989639071979775  0.6415452169618835  0.5174852903397382
  0.3299871521053692  0.3560641837517192  0.5196367558673821
  0.4965822190004293  0.1397857596805057  0.4812370831504936
  0.4968070814363421  0.8550391060188265  0.4814057079225684
  0.3299763244377742  0.6397771801660428  0.5218275128708335
  0.6629720804608452  0.3559265770938808  0.5188170880298996
  0.8300960830959747  0.1398007992398884  0.4806050316206843
  0.8300913340914201  0.8561469661353414  0.4811759049066170
  0.6609778308383409  0.6415476921755030  0.5175235526072489
  0.9971839370252989  0.9977602691510570  0.4658343041390368
  0.1626643592204043  0.4973940823374913  0.5348056077021008
  0.3300596005777036  0.9973825501428514  0.4656994384596836
  0.4971050886646955  0.4974029750072606  0.5348975967674989
  0.6629302718428544  0.9978206803756798  0.4657845683245262
  0.8298961361390834  0.4997432111547007  0.5352188366454762
  0.1634989773701130  0.9974926373095692  0.5435434040495213
  0.9969570060010085  0.4973838134682206  0.4566583054404363
  0.9963234501644391  0.1972520932065561  0.5653619028431585
  0.1638527924163478  0.2981625943791735  0.4347109484237242
  0.1660613536910726  0.6967287022311277  0.4347690320741968
  0.9965922847539407  0.7984427120918465  0.5659679219796946
  0.1604720413107844  0.6105680283249686  0.6087965514613002
  0.9968795295864160  0.8835901969183483  0.3926488588604261
  0.9971296855495470  0.1115529086769805  0.3923728043720154
  0.1630049236877334  0.3832047826019273  0.6079762191554805
  0.4966282323454982  0.9975233409968531  0.5435357203704519
  0.3299785393278870  0.4982479951875650  0.4575709326682021
  0.3300440556974080  0.1969191367939083  0.5657753926876447
  0.4962403277064245  0.2981380581032019  0.4347065684846531
  0.4942060379114258  0.6967669252385681  0.4347723957108793
  0.3300428637962478  0.7983910903842966  0.5664829730461955
  0.4996795418330934  0.6106021717750812  0.6088371399066235
  0.3301027662397559  0.8834344206735402  0.3926649923849977
  0.3300369724095994  0.1115417209859492  0.3925518889076193
  0.4970464853751743  0.3831883338826884  0.6079945537933265
  0.8300138080814453  0.9978028720094748  0.5435137931077506
  0.6627862290509515  0.4974179414232727  0.4567028916374090
  0.6637593802952434  0.1972308693309023  0.5653740397424584
  0.8300260298507778  0.2984267030418869  0.4344569896639606
  0.8300581204852893  0.6976737059702515  0.4349781543126994
  0.6635088416918891  0.7984715905846915  0.5660005769188305
  0.8301498683615737  0.6119794001862179  0.6061266164191401
  0.6632274270230647  0.8835812611821363  0.3926628936250449
  0.6630631269895561  0.1115974677653290  0.3923394103141604
  0.8300159097267695  0.3848670708864342  0.6073649563930389
  0.8301161951596900  0.6085323383526965  0.6840401986637943
 
  0.00000000E+00  0.00000000E+00  0.00000000E+00
  0.00000000E+00  0.00000000E+00  0.00000000E+00
  0.00000000E+00  0.00000000E+00  0.00000000E+00
  0.00000000E+00  0.00000000E+00  0.00000000E+00
  0.00000000E+00  0.00000000E+00  0.00000000E+00
  0.00000000E+00  0.00000000E+00  0.00000000E+00
  0.00000000E+00  0.00000000E+00  0.00000000E+00
  0.00000000E+00  0.00000000E+00  0.00000000E+00
  0.00000000E+00  0.00000000E+00  0.00000000E+00
  0.00000000E+00  0.00000000E+00  0.00000000E+00
  0.00000000E+00  0.00000000E+00  0.00000000E+00
  0.00000000E+00  0.00000000E+00  0.00000000E+00
  0.00000000E+00  0.00000000E+00  0.00000000E+00
  0.00000000E+00  0.00000000E+00  0.00000000E+00
  0.00000000E+00  0.00000000E+00  0.00000000E+00
  0.00000000E+00  0.00000000E+00  0.00000000E+00
  0.00000000E+00  0.00000000E+00  0.00000000E+00
  0.00000000E+00  0.00000000E+00  0.00000000E+00
  0.00000000E+00  0.00000000E+00  0.00000000E+00
  0.00000000E+00  0.00000000E+00  0.00000000E+00
  0.00000000E+00  0.00000000E+00  0.00000000E+00
  0.00000000E+00  0.00000000E+00  0.00000000E+00
  0.00000000E+00  0.00000000E+00  0.00000000E+00
  0.00000000E+00  0.00000000E+00  0.00000000E+00
  0.00000000E+00  0.00000000E+00  0.00000000E+00
  0.00000000E+00  0.00000000E+00  0.00000000E+00
  0.00000000E+00  0.00000000E+00  0.00000000E+00
  0.00000000E+00  0.00000000E+00  0.00000000E+00
  0.00000000E+00  0.00000000E+00  0.00000000E+00
  0.00000000E+00  0.00000000E+00  0.00000000E+00
  0.00000000E+00  0.00000000E+00  0.00000000E+00
  0.00000000E+00  0.00000000E+00  0.00000000E+00
  0.00000000E+00  0.00000000E+00  0.00000000E+00
  0.00000000E+00  0.00000000E+00  0.00000000E+00
  0.00000000E+00  0.00000000E+00  0.00000000E+00
  0.00000000E+00  0.00000000E+00  0.00000000E+00
  0.00000000E+00  0.00000000E+00  0.00000000E+00
  0.00000000E+00  0.00000000E+00  0.00000000E+00
  0.00000000E+00  0.00000000E+00  0.00000000E+00
  0.00000000E+00  0.00000000E+00  0.00000000E+00
  0.00000000E+00  0.00000000E+00  0.00000000E+00
  0.00000000E+00  0.00000000E+00  0.00000000E+00
  0.00000000E+00  0.00000000E+00  0.00000000E+00
  0.00000000E+00  0.00000000E+00  0.00000000E+00
  0.00000000E+00  0.00000000E+00  0.00000000E+00
  0.00000000E+00  0.00000000E+00  0.00000000E+00
  0.00000000E+00  0.00000000E+00  0.00000000E+00
  0.00000000E+00  0.00000000E+00  0.00000000E+00
  0.00000000E+00  0.00000000E+00  0.00000000E+00
