 CONTCAR\(9)                            
   1.00000000000000     
    13.2530002594000003    0.0000000000000000    0.0000000000000000
    -6.6264500618000000   11.4773481809000000    0.0000000000000000
     0.0000000000000000    0.0000000000000000   18.1801047244747167
   V    Se
    16    32
Direct
  0.0000000000000000  0.0000000000000000  0.4999999870265341
  0.2500000000000000  0.0000000000000000  0.4999999870265341
  0.5000000000000000  0.0000000000000000  0.4999999870265341
  0.7500000360000030  0.0000000000000000  0.4999999870265341
  0.0000000020000002  0.2500000029999967  0.4999999870265341
  0.2500000020000002  0.2500000029999967  0.4999999870265341
  0.5000000109999974  0.2500000029999967  0.4999999870265341
  0.7500000470000003  0.2500000029999967  0.4999999870265341
  0.0000000029999967  0.5000000060000005  0.4999999870265341
  0.2500000029999967  0.5000000060000005  0.4999999870265341
  0.5000000029999967  0.5000000060000005  0.4999999870265341
  0.7500000570000012  0.5000000060000005  0.4999999870265341
  0.9999999959999997  0.7500000100000008  0.4999999870265341
  0.2499999959999997  0.7500000100000008  0.4999999870265341
  0.4999999959999997  0.7500000100000008  0.4999999870265341
  0.7500000320000026  0.7500000100000008  0.4999999870265341
  0.1666700010000000  0.0833299999999966  0.5874611222726784
  0.0833299949999997  0.1666699920000028  0.4125388777273216
  0.4166699920000028  0.0833299999999966  0.5874611222726784
  0.3333299949999997  0.1666699920000028  0.4125388777273216
  0.6666699920000028  0.0833299999999966  0.5874611222726784
  0.5833299769999982  0.1666699920000028  0.4125388777273216
  0.9166700279999986  0.0833299999999966  0.5874611222726784
  0.8333300130000012  0.1666699920000028  0.4125388777273216
  0.1666700079999970  0.3333300139999977  0.5874611222726784
  0.0833300059999971  0.4166699960000031  0.4125388777273216
  0.4166700079999970  0.3333300139999977  0.5874611222726784
  0.3333300059999971  0.4166699960000031  0.4125388777273216
  0.6666700079999970  0.3333300139999977  0.5874611222726784
  0.5833299880000027  0.4166699960000031  0.4125388777273216
  0.9166700440000000  0.3333300139999977  0.5874611222726784
  0.8333300239999986  0.4166699960000031  0.4125388777273216
  0.1666699980000033  0.5833299760000017  0.5874611222726784
  0.0833300190000017  0.6666700399999996  0.4125388777273216
  0.4166699980000033  0.5833299760000017  0.5874611222726784
  0.3333300190000017  0.6666700399999996  0.4125388777273216
  0.6666699980000033  0.5833299760000017  0.5874611222726784
  0.5833299829999987  0.6666700399999996  0.4125388777273216
  0.9166700339999991  0.5833299760000017  0.5874611222726784
  0.8333300190000017  0.6666700399999996  0.4125388777273216
  0.1666700290000023  0.8333300199999982  0.5874611222726784
  0.0833299729999979  0.9166700020000036  0.4125388777273216
  0.4166700290000023  0.8333300199999982  0.5874611222726784
  0.3333299729999979  0.9166700020000036  0.4125388777273216
  0.6666700290000023  0.8333300199999982  0.5874611222726784
  0.5833299370000020  0.9166700020000036  0.4125388777273216
  0.9166700649999981  0.8333300199999982  0.5874611222726784
  0.8333299729999979  0.9166700020000036  0.4125388777273216
 
  0.00000000E+00  0.00000000E+00  0.00000000E+00
  0.00000000E+00  0.00000000E+00  0.00000000E+00
  0.00000000E+00  0.00000000E+00  0.00000000E+00
  0.00000000E+00  0.00000000E+00  0.00000000E+00
  0.00000000E+00  0.00000000E+00  0.00000000E+00
  0.00000000E+00  0.00000000E+00  0.00000000E+00
  0.00000000E+00  0.00000000E+00  0.00000000E+00
  0.00000000E+00  0.00000000E+00  0.00000000E+00
  0.00000000E+00  0.00000000E+00  0.00000000E+00
  0.00000000E+00  0.00000000E+00  0.00000000E+00
  0.00000000E+00  0.00000000E+00  0.00000000E+00
  0.00000000E+00  0.00000000E+00  0.00000000E+00
  0.00000000E+00  0.00000000E+00  0.00000000E+00
  0.00000000E+00  0.00000000E+00  0.00000000E+00
  0.00000000E+00  0.00000000E+00  0.00000000E+00
  0.00000000E+00  0.00000000E+00  0.00000000E+00
  0.00000000E+00  0.00000000E+00  0.00000000E+00
  0.00000000E+00  0.00000000E+00  0.00000000E+00
  0.00000000E+00  0.00000000E+00  0.00000000E+00
  0.00000000E+00  0.00000000E+00  0.00000000E+00
  0.00000000E+00  0.00000000E+00  0.00000000E+00
  0.00000000E+00  0.00000000E+00  0.00000000E+00
  0.00000000E+00  0.00000000E+00  0.00000000E+00
  0.00000000E+00  0.00000000E+00  0.00000000E+00
  0.00000000E+00  0.00000000E+00  0.00000000E+00
  0.00000000E+00  0.00000000E+00  0.00000000E+00
  0.00000000E+00  0.00000000E+00  0.00000000E+00
  0.00000000E+00  0.00000000E+00  0.00000000E+00
  0.00000000E+00  0.00000000E+00  0.00000000E+00
  0.00000000E+00  0.00000000E+00  0.00000000E+00
  0.00000000E+00  0.00000000E+00  0.00000000E+00
  0.00000000E+00  0.00000000E+00  0.00000000E+00
  0.00000000E+00  0.00000000E+00  0.00000000E+00
  0.00000000E+00  0.00000000E+00  0.00000000E+00
  0.00000000E+00  0.00000000E+00  0.00000000E+00
  0.00000000E+00  0.00000000E+00  0.00000000E+00
  0.00000000E+00  0.00000000E+00  0.00000000E+00
  0.00000000E+00  0.00000000E+00  0.00000000E+00
  0.00000000E+00  0.00000000E+00  0.00000000E+00
  0.00000000E+00  0.00000000E+00  0.00000000E+00
  0.00000000E+00  0.00000000E+00  0.00000000E+00
  0.00000000E+00  0.00000000E+00  0.00000000E+00
  0.00000000E+00  0.00000000E+00  0.00000000E+00
  0.00000000E+00  0.00000000E+00  0.00000000E+00
  0.00000000E+00  0.00000000E+00  0.00000000E+00
  0.00000000E+00  0.00000000E+00  0.00000000E+00
  0.00000000E+00  0.00000000E+00  0.00000000E+00
  0.00000000E+00  0.00000000E+00  0.00000000E+00
