CONTCAR\(7)                             
   1.00000000000000     
    11.3503999709999999    0.0000000000000000    0.0000000000000000
    -5.6751999854999999    9.8297347179999992    0.0000000000000000
     0.0000000000000000    0.0000000000000000   18.1851005553999983
   Zr   Se   O    H 
     9    18     2     1
Direct
 -0.0007534481952508  0.9985407242750121  0.5007347980598272
  0.3325719244208129  0.9982687944332240  0.5014842163691166
  0.6658703356222412 -0.0017293440634607  0.5002049965439467
 -0.0008431152713307  0.3313758926952269  0.5015535804981198
  0.3323652257105065  0.3316684232442478  0.5014093166554680
  0.6656247526636301  0.3311255566422522  0.5014572201608485
 -0.0007326013947338  0.6648991714732825  0.5008256362507610
  0.3323314967036344  0.6649673736028557  0.4993644063200843
  0.6658844294108149  0.6649815216315740  0.4998043411409054
  0.2208045454104940  0.1090898973810999  0.5886916836311505
  0.1106606520955791  0.2210135157243022  0.4136445105710216
  0.5554840613539320  0.1090479342267389  0.5884600242981336
  0.4437280304245651  0.2208759388093826  0.4140213158407969
  0.8874810221547056  0.1084473559435888  0.5882653827344658
  0.7774588649092469  0.2213707156381874  0.4135567513179056
  0.2220207717207273  0.4441426932471739  0.5882753589598736
  0.1092233766925597  0.5529359605535697  0.4129862846165829
  0.5550243118055465  0.4437660680636750  0.5885213165133373
  0.4431354631307244  0.5526035249237500  0.4127507021252914
  0.8884647850528603  0.4430649759465705  0.5886814640834001
  0.7770344489892295  0.5532401090127133  0.4133050714098263
  0.2216397999523977  0.7753203847550739  0.5879572261727927
  0.1108183483522858  0.8872716351551965  0.4136314178755341
  0.5542829133818464  0.7759610224947263  0.5866300902492292
  0.4434537217326449  0.8881343960932402  0.4128066703604333
  0.8873868496384815  0.7757072395244100  0.5880285428724406
  0.7776830436026335  0.8874296550315532  0.4127820849820663
  0.5993424854032477  0.8631872331341293  0.7411937820793023
  0.5432055673396967  0.7508797684241598  0.7842465813527152
  0.6135083771862960  0.7237022639826176  0.7873550519546094
 
  0.00000000E+00  0.00000000E+00  0.00000000E+00
  0.00000000E+00  0.00000000E+00  0.00000000E+00
  0.00000000E+00  0.00000000E+00  0.00000000E+00
  0.00000000E+00  0.00000000E+00  0.00000000E+00
  0.00000000E+00  0.00000000E+00  0.00000000E+00
  0.00000000E+00  0.00000000E+00  0.00000000E+00
  0.00000000E+00  0.00000000E+00  0.00000000E+00
  0.00000000E+00  0.00000000E+00  0.00000000E+00
  0.00000000E+00  0.00000000E+00  0.00000000E+00
  0.00000000E+00  0.00000000E+00  0.00000000E+00
  0.00000000E+00  0.00000000E+00  0.00000000E+00
  0.00000000E+00  0.00000000E+00  0.00000000E+00
  0.00000000E+00  0.00000000E+00  0.00000000E+00
  0.00000000E+00  0.00000000E+00  0.00000000E+00
  0.00000000E+00  0.00000000E+00  0.00000000E+00
  0.00000000E+00  0.00000000E+00  0.00000000E+00
  0.00000000E+00  0.00000000E+00  0.00000000E+00
  0.00000000E+00  0.00000000E+00  0.00000000E+00
  0.00000000E+00  0.00000000E+00  0.00000000E+00
  0.00000000E+00  0.00000000E+00  0.00000000E+00
  0.00000000E+00  0.00000000E+00  0.00000000E+00
  0.00000000E+00  0.00000000E+00  0.00000000E+00
  0.00000000E+00  0.00000000E+00  0.00000000E+00
  0.00000000E+00  0.00000000E+00  0.00000000E+00
  0.00000000E+00  0.00000000E+00  0.00000000E+00
  0.00000000E+00  0.00000000E+00  0.00000000E+00
  0.00000000E+00  0.00000000E+00  0.00000000E+00
  0.00000000E+00  0.00000000E+00  0.00000000E+00
  0.00000000E+00  0.00000000E+00  0.00000000E+00
  0.00000000E+00  0.00000000E+00  0.00000000E+00
