CONTCAR\(5)                             
   1.00000000000000     
    14.1208000183000006    0.0000000000000000    0.0000000000000000
    -7.0462440071000003   12.2285942740000007    0.0000000000000000
     0.0000000000000000    0.0000000000000000   18.4216003418000014
   V    Te   O    H 
    16    32     2     1
Direct
  0.2461785981001640  0.2316602674675265  0.4984308158984437
  0.4785803851554300  0.2350589127443409  0.5022857707466345
  0.7440963743274652  0.2495067033088089  0.5012251831065595
  0.0146947847004336  0.2713823607164351  0.4989714055813132
  0.2358099389507898  0.5172210987991089  0.4972550612470462
  0.4601916921224630  0.4502417135241016  0.4964890801874434
  0.7785382322800523  0.5095210849803916  0.5068494630920000
  0.0065246899039008  0.5046045446215492  0.5004173820381208
  0.2329628491925997  0.7469810008874321  0.5004811084114598
  0.4744259704416921  0.7622928034037362  0.4981806316037848
  0.7668734378762688  0.7551549595181442  0.5052693709591859
 -0.0005963541792869  0.7463181434665698  0.5048261330389200
  0.2486123620168058  0.9923918229450440  0.5013934518019618
  0.4980873877924232  0.0092002164470264  0.5004687500289563
  0.7228826754236674  0.9830207319120499  0.5020128482789623
  0.0156582592509905  0.9954070661875247  0.4986888453637416
  0.0776799855632195  0.1613157659430555  0.4047755740500845
  0.1632193870297733  0.0765348371559741  0.6007006957562088
  0.3273687160477762  0.1571913047474368  0.3995920534773434
  0.4117074579461998  0.0757769950987698  0.6020769562139519
  0.5795947029080255  0.1689872543979092  0.4034822931339128
  0.6646714864180233  0.0841270897204994  0.5982271443391073
  0.8311997934965498  0.1617805143762536  0.4117433151276892
  0.9134532025865607  0.0836162908598352  0.5803950961142196
  0.0788087137112546  0.4208444199669592  0.3966361602232596
  0.1740511192680157  0.3405986506865082  0.5908842390374848
  0.3134772384356345  0.4078590080115460  0.4032323153174831
  0.3951152958236085  0.2992394331053025  0.6036078827779353
  0.5925793611681242  0.4174167126958591  0.4186972216645645
  0.6624582244411724  0.3348696816846686  0.5940921144876938
  0.8366040605736655  0.4165081353300369  0.4050620021939057
  0.9161169198482205  0.3307862863052760  0.5950158568571313
  0.0761483790806383  0.6666482789184581  0.4012459166202531
  0.1630766785855777  0.5868253970969911  0.6035428027990974
  0.3237965618292079  0.6713956458072705  0.3968325506366872
  0.3977541934001762  0.6028027242076049  0.5966674263918376
  0.5717667628328686  0.6562598787284947  0.4282692229352940
  0.7241496483056638  0.6075097722699799  0.6209925142728322
  0.8332750505536886  0.6660269451470752  0.4060788692963221
  0.9323171460485432  0.5835527167116309  0.6065600569852093
  0.0831091165509617  0.9090649871389831  0.4015593606795087
  0.1644554382953160  0.8333101719146052  0.6015852169884714
  0.3300148416781661  0.9157728688898822  0.4035696022080734
  0.4067225486093967  0.8389828601750255  0.6000988301853928
  0.5753639795738230  0.9178900058719920  0.3992219852751840
  0.6527229585675115  0.8226850470527353  0.5942146497781029
  0.8321502579172996  0.9163915173586906  0.4107482308655372
  0.9256281358434539  0.8435437440608609  0.6034781917997546
  0.5853802957066825  0.4959735182990546  0.6782941987089295
  0.4919124010212769  0.5321279091538414  0.5735273797313565
  0.6159775019780508  0.4933495461811367  0.7254764976856755
 
  0.00000000E+00  0.00000000E+00  0.00000000E+00
  0.00000000E+00  0.00000000E+00  0.00000000E+00
  0.00000000E+00  0.00000000E+00  0.00000000E+00
  0.00000000E+00  0.00000000E+00  0.00000000E+00
  0.00000000E+00  0.00000000E+00  0.00000000E+00
  0.00000000E+00  0.00000000E+00  0.00000000E+00
  0.00000000E+00  0.00000000E+00  0.00000000E+00
  0.00000000E+00  0.00000000E+00  0.00000000E+00
  0.00000000E+00  0.00000000E+00  0.00000000E+00
  0.00000000E+00  0.00000000E+00  0.00000000E+00
  0.00000000E+00  0.00000000E+00  0.00000000E+00
  0.00000000E+00  0.00000000E+00  0.00000000E+00
  0.00000000E+00  0.00000000E+00  0.00000000E+00
  0.00000000E+00  0.00000000E+00  0.00000000E+00
  0.00000000E+00  0.00000000E+00  0.00000000E+00
  0.00000000E+00  0.00000000E+00  0.00000000E+00
  0.00000000E+00  0.00000000E+00  0.00000000E+00
  0.00000000E+00  0.00000000E+00  0.00000000E+00
  0.00000000E+00  0.00000000E+00  0.00000000E+00
  0.00000000E+00  0.00000000E+00  0.00000000E+00
  0.00000000E+00  0.00000000E+00  0.00000000E+00
  0.00000000E+00  0.00000000E+00  0.00000000E+00
  0.00000000E+00  0.00000000E+00  0.00000000E+00
  0.00000000E+00  0.00000000E+00  0.00000000E+00
  0.00000000E+00  0.00000000E+00  0.00000000E+00
  0.00000000E+00  0.00000000E+00  0.00000000E+00
  0.00000000E+00  0.00000000E+00  0.00000000E+00
  0.00000000E+00  0.00000000E+00  0.00000000E+00
  0.00000000E+00  0.00000000E+00  0.00000000E+00
  0.00000000E+00  0.00000000E+00  0.00000000E+00
  0.00000000E+00  0.00000000E+00  0.00000000E+00
  0.00000000E+00  0.00000000E+00  0.00000000E+00
  0.00000000E+00  0.00000000E+00  0.00000000E+00
  0.00000000E+00  0.00000000E+00  0.00000000E+00
  0.00000000E+00  0.00000000E+00  0.00000000E+00
  0.00000000E+00  0.00000000E+00  0.00000000E+00
  0.00000000E+00  0.00000000E+00  0.00000000E+00
  0.00000000E+00  0.00000000E+00  0.00000000E+00
  0.00000000E+00  0.00000000E+00  0.00000000E+00
  0.00000000E+00  0.00000000E+00  0.00000000E+00
  0.00000000E+00  0.00000000E+00  0.00000000E+00
  0.00000000E+00  0.00000000E+00  0.00000000E+00
  0.00000000E+00  0.00000000E+00  0.00000000E+00
  0.00000000E+00  0.00000000E+00  0.00000000E+00
  0.00000000E+00  0.00000000E+00  0.00000000E+00
  0.00000000E+00  0.00000000E+00  0.00000000E+00
  0.00000000E+00  0.00000000E+00  0.00000000E+00
  0.00000000E+00  0.00000000E+00  0.00000000E+00
  0.00000000E+00  0.00000000E+00  0.00000000E+00
  0.00000000E+00  0.00000000E+00  0.00000000E+00
  0.00000000E+00  0.00000000E+00  0.00000000E+00
