CONTCAR\(3)                             
   1.00000000000000     
    13.5864000320000002    0.0000000000000000    0.0000000000000000
     0.0000000000000000   13.0711002349999994    0.0000000000000000
     0.0000000000000000    0.0000000000000000   20.1478996276999993
   Ta   Ni   Te   Se   O    H 
    16    32    16    16     2     1
Direct
  0.0005732541502870  0.2041071645935372  0.5219250793267428
  0.0010405503808226  0.4528276924228503  0.4779711701600850
  0.2508540672676823  0.2035333269367488  0.5215172686409670
  0.2522171530844107  0.4530128361302503  0.4779843532078388
  0.5001143299534160  0.2009104064198267  0.5194176281749541
  0.4998846207483886  0.4525563737015389  0.4718370624869402
  0.7496868387234155  0.2047436348637220  0.5242979387984994
  0.7487283374568531  0.4527465138273857  0.4798299169955677
  0.0004440056226357  0.7017577744684836  0.5219590143049999
  0.0001769778074181  0.9524956911336149  0.4786861665917448
  0.2509088655312903  0.7017725796620715  0.5216439740366406
  0.2498847929159591  0.9528715725208670  0.4781737831435159
  0.5002537654299867  0.7049093572688211  0.5194858499970862
  0.5003758395713508  0.9525398716795536  0.4765956998420072
  0.7497435189418790  0.7002980728166242  0.5246415358419171
  0.7506767947239379  0.9531073447791877  0.4802707614885122
  0.1245367749160638  0.0494682044520666  0.5576615996117806
  0.1260663553431017  0.1061123953974072  0.4429786605382564
  0.1272707666932812  0.2994074641947405  0.4420748430567767
  0.1279787428509407  0.3564247370402105  0.5567253526654300
  0.3759439127858205  0.0490862624597506  0.5563690446579438
  0.3726363880496320  0.1055646728025789  0.4413543866202231
  0.3716915146635378  0.2992238861909653  0.4400589399417562
  0.3869939348346186  0.3567642487532062  0.5544792555268986
  0.6226782243980385  0.0493439118525734  0.5572687729519843
  0.6305723208908066  0.1063635448746581  0.4425943506192471
  0.6300367992233890  0.3001419046518492  0.4431339579629023
  0.6068271067488520  0.3573006268572830  0.5588820647649945
  0.8777830055244471  0.0501769755301840  0.5584865785662861
  0.8721617223125613  0.1067422280520898  0.4438535334124962
  0.8721630970032890  0.2995061128833210  0.4428311608970109
  0.8771904224936912  0.3555777838013178  0.5570870639476760
  0.1276996017215351  0.5494555549301643  0.5567886376505549
  0.1271501585724737  0.6063723841446229  0.4421286620305223
  0.1268189512302948  0.7995218997957367  0.4428470311087613
  0.1244558542218952  0.8557968311391609  0.5576450198954819
  0.3881869440726424  0.5487158550307982  0.5545680243869258
  0.3720354870943176  0.6063764496345047  0.4401792529896694
  0.3720816614173010  0.7999405696715560  0.4414068756450381
  0.3759417486056701  0.8565712195111297  0.5563157755649526
  0.6056147191850957  0.5478969136506342  0.5592470273665261
  0.6303956308006442  0.6052652972761434  0.4433805784751949
  0.6316327270503537  0.7991001011730330  0.4427337601662217
  0.6235005936710705  0.8562163325843830  0.5573725458668923
  0.8771555862997625  0.5499447012665546  0.5570708618197733
  0.8719920117518110  0.6062334737869398  0.4428351284201643
  0.8706698876416921  0.7987301214524144  0.4440259773926010
  0.8773772827336493  0.8554596614182761  0.5586532087172561
  0.9993214266326040  0.2030710717923432  0.3723833062426493
  0.0020229703802585  0.4528127895841116  0.6284852699297959
  0.2488768335522157  0.2015739291764507  0.3683866847153358
  0.2590905882906652  0.4533251406190273  0.6248754988962245
  0.5018922144979301  0.2022209452087216  0.3719716856202199
  0.5003841412432936  0.4518565439210696  0.6448276424929639
  0.7515029067376691  0.2030718403752842  0.3688079314245162
  0.7456158817829074  0.4527213227906607  0.6228044473792752
  0.9989936449384913  0.7033147503760839  0.3727548576094171
  0.0011079218513370  0.9526909225064080  0.6308177852395105
  0.2489915643552515  0.7034517969847015  0.3682524129975928
  0.2510430732542035  0.9526333891834863  0.6287841989747720
  0.5021659554184544  0.7038139313238841  0.3723610557664571
  0.4992040307710572  0.9526099691904891  0.6295298707310852
  0.7511789003854435  0.7017571768761449  0.3683971556137260
  0.7497036487887888  0.9533770958597652  0.6288283070128307
  0.1258053147709799  0.2036025870238989  0.6221827262708887
  0.1256418270965488  0.4529457115226717  0.3776149444820652
  0.3762799581604050  0.2032850826342014  0.6206304423641130
  0.3727935545752236  0.4529220479682113  0.3740218737957178
  0.6235827573027496  0.2025211978545822  0.6222909584058051
  0.6283805588788194  0.4527203978099793  0.3755974883642594
  0.8763938587936208  0.2035614006915372  0.6234138057277796
  0.8747946771270708  0.4529286039748192  0.3789317139178850
  0.1257749570634511  0.7020466780881703  0.6222617805667224
  0.1246559519834024  0.9528468036414163  0.3777269372542377
  0.3764162122187200  0.7022623607502501  0.6206807072389747
  0.3746149058496998  0.9527418716143433  0.3764493382809551
  0.6236277793555748  0.7030906268405450  0.6225357809672584
  0.6268995597420971  0.9527144602369422  0.3779358105357866
  0.8764533971318405  0.7019256447919308  0.6236638064594919
  0.8751064060777752  0.9526721900551031  0.3790412499676333
  0.5668773561574606  0.4352883498000327  0.7459214061131061
  0.6680220773194854  0.4380017340134942  0.7693312743375401
  0.6713393404024969  0.5075375454338673  0.7875845250272093
 
  0.00000000E+00  0.00000000E+00  0.00000000E+00
  0.00000000E+00  0.00000000E+00  0.00000000E+00
  0.00000000E+00  0.00000000E+00  0.00000000E+00
  0.00000000E+00  0.00000000E+00  0.00000000E+00
  0.00000000E+00  0.00000000E+00  0.00000000E+00
  0.00000000E+00  0.00000000E+00  0.00000000E+00
  0.00000000E+00  0.00000000E+00  0.00000000E+00
  0.00000000E+00  0.00000000E+00  0.00000000E+00
  0.00000000E+00  0.00000000E+00  0.00000000E+00
  0.00000000E+00  0.00000000E+00  0.00000000E+00
  0.00000000E+00  0.00000000E+00  0.00000000E+00
  0.00000000E+00  0.00000000E+00  0.00000000E+00
  0.00000000E+00  0.00000000E+00  0.00000000E+00
  0.00000000E+00  0.00000000E+00  0.00000000E+00
  0.00000000E+00  0.00000000E+00  0.00000000E+00
  0.00000000E+00  0.00000000E+00  0.00000000E+00
  0.00000000E+00  0.00000000E+00  0.00000000E+00
  0.00000000E+00  0.00000000E+00  0.00000000E+00
  0.00000000E+00  0.00000000E+00  0.00000000E+00
  0.00000000E+00  0.00000000E+00  0.00000000E+00
  0.00000000E+00  0.00000000E+00  0.00000000E+00
  0.00000000E+00  0.00000000E+00  0.00000000E+00
  0.00000000E+00  0.00000000E+00  0.00000000E+00
  0.00000000E+00  0.00000000E+00  0.00000000E+00
  0.00000000E+00  0.00000000E+00  0.00000000E+00
  0.00000000E+00  0.00000000E+00  0.00000000E+00
  0.00000000E+00  0.00000000E+00  0.00000000E+00
  0.00000000E+00  0.00000000E+00  0.00000000E+00
  0.00000000E+00  0.00000000E+00  0.00000000E+00
  0.00000000E+00  0.00000000E+00  0.00000000E+00
  0.00000000E+00  0.00000000E+00  0.00000000E+00
  0.00000000E+00  0.00000000E+00  0.00000000E+00
  0.00000000E+00  0.00000000E+00  0.00000000E+00
  0.00000000E+00  0.00000000E+00  0.00000000E+00
  0.00000000E+00  0.00000000E+00  0.00000000E+00
  0.00000000E+00  0.00000000E+00  0.00000000E+00
  0.00000000E+00  0.00000000E+00  0.00000000E+00
  0.00000000E+00  0.00000000E+00  0.00000000E+00
  0.00000000E+00  0.00000000E+00  0.00000000E+00
  0.00000000E+00  0.00000000E+00  0.00000000E+00
  0.00000000E+00  0.00000000E+00  0.00000000E+00
  0.00000000E+00  0.00000000E+00  0.00000000E+00
  0.00000000E+00  0.00000000E+00  0.00000000E+00
  0.00000000E+00  0.00000000E+00  0.00000000E+00
  0.00000000E+00  0.00000000E+00  0.00000000E+00
  0.00000000E+00  0.00000000E+00  0.00000000E+00
  0.00000000E+00  0.00000000E+00  0.00000000E+00
  0.00000000E+00  0.00000000E+00  0.00000000E+00
  0.00000000E+00  0.00000000E+00  0.00000000E+00
  0.00000000E+00  0.00000000E+00  0.00000000E+00
  0.00000000E+00  0.00000000E+00  0.00000000E+00
  0.00000000E+00  0.00000000E+00  0.00000000E+00
  0.00000000E+00  0.00000000E+00  0.00000000E+00
  0.00000000E+00  0.00000000E+00  0.00000000E+00
  0.00000000E+00  0.00000000E+00  0.00000000E+00
  0.00000000E+00  0.00000000E+00  0.00000000E+00
  0.00000000E+00  0.00000000E+00  0.00000000E+00
  0.00000000E+00  0.00000000E+00  0.00000000E+00
  0.00000000E+00  0.00000000E+00  0.00000000E+00
  0.00000000E+00  0.00000000E+00  0.00000000E+00
  0.00000000E+00  0.00000000E+00  0.00000000E+00
  0.00000000E+00  0.00000000E+00  0.00000000E+00
  0.00000000E+00  0.00000000E+00  0.00000000E+00
  0.00000000E+00  0.00000000E+00  0.00000000E+00
  0.00000000E+00  0.00000000E+00  0.00000000E+00
  0.00000000E+00  0.00000000E+00  0.00000000E+00
  0.00000000E+00  0.00000000E+00  0.00000000E+00
  0.00000000E+00  0.00000000E+00  0.00000000E+00
  0.00000000E+00  0.00000000E+00  0.00000000E+00
  0.00000000E+00  0.00000000E+00  0.00000000E+00
  0.00000000E+00  0.00000000E+00  0.00000000E+00
  0.00000000E+00  0.00000000E+00  0.00000000E+00
  0.00000000E+00  0.00000000E+00  0.00000000E+00
  0.00000000E+00  0.00000000E+00  0.00000000E+00
  0.00000000E+00  0.00000000E+00  0.00000000E+00
  0.00000000E+00  0.00000000E+00  0.00000000E+00
  0.00000000E+00  0.00000000E+00  0.00000000E+00
  0.00000000E+00  0.00000000E+00  0.00000000E+00
  0.00000000E+00  0.00000000E+00  0.00000000E+00
  0.00000000E+00  0.00000000E+00  0.00000000E+00
  0.00000000E+00  0.00000000E+00  0.00000000E+00
  0.00000000E+00  0.00000000E+00  0.00000000E+00
  0.00000000E+00  0.00000000E+00  0.00000000E+00
