CONTCAR\(15)                            
   1.00000000000000     
    15.1842002868999995    0.0000000000000000    0.0000000000000000
     0.0000000000000000   15.1842002868999995    0.0000000000000000
     0.0000000000000000    0.0000000000000000   20.6711997986000000
   Ca   Cu   Cl   O 
    32    16    32    32
Direct
  0.1250000000000000  0.1250000000000000  0.5766710645386607
  0.1250000000000000  0.1250000000000000  0.4233289354613394
  0.3750000000000000  0.1250000000000000  0.5766710645386607
  0.3750000000000000  0.1250000000000000  0.4233289354613394
  0.6250000309999990  0.1250000000000000  0.5766710645386607
  0.6250000309999990  0.1250000000000000  0.4233289354613394
  0.8749999690000010  0.1250000000000000  0.5766710645386607
  0.8749999690000010  0.1250000000000000  0.4233289354613394
  0.1250000000000000  0.3750000000000000  0.5766710645386607
  0.1250000000000000  0.3750000000000000  0.4233289354613394
  0.3750000000000000  0.3750000000000000  0.5766710645386607
  0.3750000000000000  0.3750000000000000  0.4233289354613394
  0.6250000309999990  0.3750000000000000  0.5766710645386607
  0.6250000309999990  0.3750000000000000  0.4233289354613394
  0.8749999690000010  0.3750000000000000  0.5766710645386607
  0.8749999690000010  0.3750000000000000  0.4233289354613394
  0.1250000000000000  0.6250000309999990  0.5766710645386607
  0.1250000000000000  0.6250000309999990  0.4233289354613394
  0.3750000000000000  0.6250000309999990  0.5766710645386607
  0.3750000000000000  0.6250000309999990  0.4233289354613394
  0.6250000309999990  0.6250000309999990  0.5766710645386607
  0.6250000309999990  0.6250000309999990  0.4233289354613394
  0.8749999690000010  0.6250000309999990  0.5766710645386607
  0.8749999690000010  0.6250000309999990  0.4233289354613394
  0.1250000000000000  0.8749999690000010  0.5766710645386607
  0.1250000000000000  0.8749999690000010  0.4233289354613394
  0.3750000000000000  0.8749999690000010  0.5766710645386607
  0.3750000000000000  0.8749999690000010  0.4233289354613394
  0.6250000309999990  0.8749999690000010  0.5766710645386607
  0.6250000309999990  0.8749999690000010  0.4233289354613394
  0.8749999690000010  0.8749999690000010  0.5766710645386607
  0.8749999690000010  0.8749999690000010  0.4233289354613394
  0.0000000000000000  0.0000000000000000  0.5000000000000000
  0.2500000000000000 -0.0000000000000000  0.5000000000000000
  0.5000000000000000 -0.0000000000000000  0.5000000000000000
  0.7500000000000000 -0.0000000000000000  0.5000000000000000
  0.0000000000000000  0.2500000000000000  0.5000000000000000
  0.2500000000000000  0.2500000000000000  0.5000000000000000
  0.5000000000000000  0.2500000000000000  0.5000000000000000
  0.7500000000000000  0.2500000000000000  0.5000000000000000
 -0.0000000000000000  0.5000000000000000  0.5000000000000000
  0.2500000000000000  0.5000000000000000  0.5000000000000000
  0.5000000000000000  0.5000000000000000  0.5000000000000000
  0.7500000000000000  0.5000000000000000  0.5000000000000000
  0.0000000000000000  0.7500000000000000  0.5000000000000000
  0.2500000000000000  0.7500000000000000  0.5000000000000000
  0.5000000000000000  0.7500000000000000  0.5000000000000000
  0.7500000000000000  0.7500000000000000  0.5000000000000000
 -0.0000000000000000  0.0000000000000000  0.3610765738036112
 -0.0000000000000000  0.0000000000000000  0.6389234491963872
  0.2500000000000000  0.0000000000000000  0.3610765738036112
  0.2500000000000000  0.0000000000000000  0.6389234491963872
  0.5000000000000000  0.0000000000000000  0.3610765738036112
  0.5000000000000000  0.0000000000000000  0.6389234491963872
  0.7500000000000000  0.0000000000000000  0.3610765738036112
  0.7500000000000000  0.0000000000000000  0.6389234491963872
 -0.0000000000000000  0.2500000000000000  0.3610765738036112
 -0.0000000000000000  0.2500000000000000  0.6389234491963872
  0.2500000000000000  0.2500000000000000  0.3610765738036112
  0.2500000000000000  0.2500000000000000  0.6389234491963872
  0.5000000000000000  0.2500000000000000  0.3610765738036112
  0.5000000000000000  0.2500000000000000  0.6389234491963872
  0.7500000000000000  0.2500000000000000  0.3610765738036112
  0.7500000000000000  0.2500000000000000  0.6389234491963872
 -0.0000000000000000  0.5000000000000000  0.3610765738036112
 -0.0000000000000000  0.5000000000000000  0.6389234491963872
  0.2500000000000000  0.5000000000000000  0.3610765738036112
  0.2500000000000000  0.5000000000000000  0.6389234491963872
  0.5000000000000000  0.5000000000000000  0.3610765738036112
  0.5000000000000000  0.5000000000000000  0.6389234491963872
  0.7500000000000000  0.5000000000000000  0.3610765738036112
  0.7500000000000000  0.5000000000000000  0.6389234491963872
 -0.0000000000000000  0.7500000000000000  0.3610765738036112
 -0.0000000000000000  0.7500000000000000  0.6389234491963872
  0.2500000000000000  0.7500000000000000  0.3610765738036112
  0.2500000000000000  0.7500000000000000  0.6389234491963872
  0.5000000000000000  0.7500000000000000  0.3610765738036112
  0.5000000000000000  0.7500000000000000  0.6389234491963872
  0.7500000000000000  0.7500000000000000  0.3610765738036112
  0.7500000000000000  0.7500000000000000  0.6389234491963872
  0.1250000000000000  0.0000000000000000  0.5000000000000000
 -0.0000000000000000  0.1250000000000000  0.5000000000000000
  0.3750000000000000  0.0000000000000000  0.5000000000000000
  0.2500000000000000  0.1250000000000000  0.5000000000000000
  0.6250000309999990  0.0000000000000000  0.5000000000000000
  0.5000000000000000  0.1250000000000000  0.5000000000000000
  0.8749999690000010  0.0000000000000000  0.5000000000000000
  0.7500000000000000  0.1250000000000000  0.5000000000000000
  0.1250000000000000  0.2500000000000000  0.5000000000000000
 -0.0000000000000000  0.3750000000000000  0.5000000000000000
  0.3750000000000000  0.2500000000000000  0.5000000000000000
  0.2500000000000000  0.3750000000000000  0.5000000000000000
  0.6250000309999990  0.2500000000000000  0.5000000000000000
  0.5000000000000000  0.3750000000000000  0.5000000000000000
  0.8749999690000010  0.2500000000000000  0.5000000000000000
  0.7500000000000000  0.3750000000000000  0.5000000000000000
  0.1250000000000000  0.5000000000000000  0.5000000000000000
 -0.0000000000000000  0.6250000309999990  0.5000000000000000
  0.3750000000000000  0.5000000000000000  0.5000000000000000
  0.2500000000000000  0.6250000309999990  0.5000000000000000
  0.6250000309999990  0.5000000000000000  0.5000000000000000
  0.5000000000000000  0.6250000309999990  0.5000000000000000
  0.8749999690000010  0.5000000000000000  0.5000000000000000
  0.7500000000000000  0.6250000309999990  0.5000000000000000
  0.1250000000000000  0.7500000000000000  0.5000000000000000
 -0.0000000000000000  0.8749999690000010  0.5000000000000000
  0.3750000000000000  0.7500000000000000  0.5000000000000000
  0.2500000000000000  0.8749999690000010  0.5000000000000000
  0.6250000309999990  0.7500000000000000  0.5000000000000000
  0.5000000000000000  0.8749999690000010  0.5000000000000000
  0.8749999690000010  0.7500000000000000  0.5000000000000000
  0.7500000000000000  0.8749999690000010  0.5000000000000000
 
  0.00000000E+00  0.00000000E+00  0.00000000E+00
  0.00000000E+00  0.00000000E+00  0.00000000E+00
  0.00000000E+00  0.00000000E+00  0.00000000E+00
  0.00000000E+00  0.00000000E+00  0.00000000E+00
  0.00000000E+00  0.00000000E+00  0.00000000E+00
  0.00000000E+00  0.00000000E+00  0.00000000E+00
  0.00000000E+00  0.00000000E+00  0.00000000E+00
  0.00000000E+00  0.00000000E+00  0.00000000E+00
  0.00000000E+00  0.00000000E+00  0.00000000E+00
  0.00000000E+00  0.00000000E+00  0.00000000E+00
  0.00000000E+00  0.00000000E+00  0.00000000E+00
  0.00000000E+00  0.00000000E+00  0.00000000E+00
  0.00000000E+00  0.00000000E+00  0.00000000E+00
  0.00000000E+00  0.00000000E+00  0.00000000E+00
  0.00000000E+00  0.00000000E+00  0.00000000E+00
  0.00000000E+00  0.00000000E+00  0.00000000E+00
  0.00000000E+00  0.00000000E+00  0.00000000E+00
  0.00000000E+00  0.00000000E+00  0.00000000E+00
  0.00000000E+00  0.00000000E+00  0.00000000E+00
  0.00000000E+00  0.00000000E+00  0.00000000E+00
  0.00000000E+00  0.00000000E+00  0.00000000E+00
  0.00000000E+00  0.00000000E+00  0.00000000E+00
  0.00000000E+00  0.00000000E+00  0.00000000E+00
  0.00000000E+00  0.00000000E+00  0.00000000E+00
  0.00000000E+00  0.00000000E+00  0.00000000E+00
  0.00000000E+00  0.00000000E+00  0.00000000E+00
  0.00000000E+00  0.00000000E+00  0.00000000E+00
  0.00000000E+00  0.00000000E+00  0.00000000E+00
  0.00000000E+00  0.00000000E+00  0.00000000E+00
  0.00000000E+00  0.00000000E+00  0.00000000E+00
  0.00000000E+00  0.00000000E+00  0.00000000E+00
  0.00000000E+00  0.00000000E+00  0.00000000E+00
  0.00000000E+00  0.00000000E+00  0.00000000E+00
  0.00000000E+00  0.00000000E+00  0.00000000E+00
  0.00000000E+00  0.00000000E+00  0.00000000E+00
  0.00000000E+00  0.00000000E+00  0.00000000E+00
  0.00000000E+00  0.00000000E+00  0.00000000E+00
  0.00000000E+00  0.00000000E+00  0.00000000E+00
  0.00000000E+00  0.00000000E+00  0.00000000E+00
  0.00000000E+00  0.00000000E+00  0.00000000E+00
  0.00000000E+00  0.00000000E+00  0.00000000E+00
  0.00000000E+00  0.00000000E+00  0.00000000E+00
  0.00000000E+00  0.00000000E+00  0.00000000E+00
  0.00000000E+00  0.00000000E+00  0.00000000E+00
  0.00000000E+00  0.00000000E+00  0.00000000E+00
  0.00000000E+00  0.00000000E+00  0.00000000E+00
  0.00000000E+00  0.00000000E+00  0.00000000E+00
  0.00000000E+00  0.00000000E+00  0.00000000E+00
  0.00000000E+00  0.00000000E+00  0.00000000E+00
  0.00000000E+00  0.00000000E+00  0.00000000E+00
  0.00000000E+00  0.00000000E+00  0.00000000E+00
  0.00000000E+00  0.00000000E+00  0.00000000E+00
  0.00000000E+00  0.00000000E+00  0.00000000E+00
  0.00000000E+00  0.00000000E+00  0.00000000E+00
  0.00000000E+00  0.00000000E+00  0.00000000E+00
  0.00000000E+00  0.00000000E+00  0.00000000E+00
  0.00000000E+00  0.00000000E+00  0.00000000E+00
  0.00000000E+00  0.00000000E+00  0.00000000E+00
  0.00000000E+00  0.00000000E+00  0.00000000E+00
  0.00000000E+00  0.00000000E+00  0.00000000E+00
  0.00000000E+00  0.00000000E+00  0.00000000E+00
  0.00000000E+00  0.00000000E+00  0.00000000E+00
  0.00000000E+00  0.00000000E+00  0.00000000E+00
  0.00000000E+00  0.00000000E+00  0.00000000E+00
  0.00000000E+00  0.00000000E+00  0.00000000E+00
  0.00000000E+00  0.00000000E+00  0.00000000E+00
  0.00000000E+00  0.00000000E+00  0.00000000E+00
  0.00000000E+00  0.00000000E+00  0.00000000E+00
  0.00000000E+00  0.00000000E+00  0.00000000E+00
  0.00000000E+00  0.00000000E+00  0.00000000E+00
  0.00000000E+00  0.00000000E+00  0.00000000E+00
  0.00000000E+00  0.00000000E+00  0.00000000E+00
  0.00000000E+00  0.00000000E+00  0.00000000E+00
  0.00000000E+00  0.00000000E+00  0.00000000E+00
  0.00000000E+00  0.00000000E+00  0.00000000E+00
  0.00000000E+00  0.00000000E+00  0.00000000E+00
  0.00000000E+00  0.00000000E+00  0.00000000E+00
  0.00000000E+00  0.00000000E+00  0.00000000E+00
  0.00000000E+00  0.00000000E+00  0.00000000E+00
  0.00000000E+00  0.00000000E+00  0.00000000E+00
  0.00000000E+00  0.00000000E+00  0.00000000E+00
  0.00000000E+00  0.00000000E+00  0.00000000E+00
  0.00000000E+00  0.00000000E+00  0.00000000E+00
  0.00000000E+00  0.00000000E+00  0.00000000E+00
  0.00000000E+00  0.00000000E+00  0.00000000E+00
  0.00000000E+00  0.00000000E+00  0.00000000E+00
  0.00000000E+00  0.00000000E+00  0.00000000E+00
  0.00000000E+00  0.00000000E+00  0.00000000E+00
  0.00000000E+00  0.00000000E+00  0.00000000E+00
  0.00000000E+00  0.00000000E+00  0.00000000E+00
  0.00000000E+00  0.00000000E+00  0.00000000E+00
  0.00000000E+00  0.00000000E+00  0.00000000E+00
  0.00000000E+00  0.00000000E+00  0.00000000E+00
  0.00000000E+00  0.00000000E+00  0.00000000E+00
  0.00000000E+00  0.00000000E+00  0.00000000E+00
  0.00000000E+00  0.00000000E+00  0.00000000E+00
  0.00000000E+00  0.00000000E+00  0.00000000E+00
  0.00000000E+00  0.00000000E+00  0.00000000E+00
  0.00000000E+00  0.00000000E+00  0.00000000E+00
  0.00000000E+00  0.00000000E+00  0.00000000E+00
  0.00000000E+00  0.00000000E+00  0.00000000E+00
  0.00000000E+00  0.00000000E+00  0.00000000E+00
  0.00000000E+00  0.00000000E+00  0.00000000E+00
  0.00000000E+00  0.00000000E+00  0.00000000E+00
  0.00000000E+00  0.00000000E+00  0.00000000E+00
  0.00000000E+00  0.00000000E+00  0.00000000E+00
  0.00000000E+00  0.00000000E+00  0.00000000E+00
  0.00000000E+00  0.00000000E+00  0.00000000E+00
  0.00000000E+00  0.00000000E+00  0.00000000E+00
  0.00000000E+00  0.00000000E+00  0.00000000E+00
  0.00000000E+00  0.00000000E+00  0.00000000E+00
  0.00000000E+00  0.00000000E+00  0.00000000E+00
