 Ta13 Se26                              
   1.00000000000000     
    12.5546046221254830    0.0000000000000000    0.0000000000000000
     6.2753429023506095   10.8725398668447788    0.0000000000000000
     0.0000000000000000    0.0000000000000000   18.6128620314400024
   Ta   Se
    13    26
Direct
 -0.0000000010116002 -0.0000000510305265  0.4999999989793261
  0.7860825934186405  0.9311427156629446  0.4998304346863948
  0.2139174504236047  0.0688572549612851  0.5001695720191670
  0.2826954269490493  0.7861879076769697  0.4995395725445025
  0.7173045517282387  0.2138120773253236  0.5004604153727165
  0.0687099132852424  0.7174455124082998  0.4999974113950730
  0.9312900747926020  0.2825545177074882  0.5000025920958777
  0.8480054478254482  0.6393794279265920  0.5004093692866768
  0.1519945606049261  0.3606206037539196  0.4995906241302622
  0.5125070054403525  0.8481885207565689  0.5001756869284382
  0.4874930081699803  0.1518114697443986  0.4998243137180644
  0.3605117526577244  0.4872909482216090  0.4991784780060939
  0.6394882258132857  0.5127090696658637  0.5008215280954436
  0.9496180868624382  0.8764418742975486  0.5974483981796582
  0.0503819129456636  0.1235581119532165  0.4025516371582752
  0.1740845707811245  0.9493026399286284  0.5973787790152507
  0.8259154230057949  0.0506973533484153  0.4026212114540141
  0.8767642758919341  0.1736993042846225  0.5976894060049045
  0.1232357234390792  0.8263006836048832  0.4023105708669709
  0.2496339346829735  0.6489242471833888  0.5942586709890042
  0.7503660408290934  0.3510757650494664  0.4057413372047741
  0.1016020834611862  0.2494942322575570  0.5946998856036890
  0.8983979242018457  0.7505057823329296  0.4053000991415525
  0.6491611034062541  0.1011946597821314  0.5948456534368008
  0.3508389060057775  0.8988053203335692  0.4051543532839735
  0.0291421374964609  0.5649927216469153  0.5832782850986691
  0.9708578664774289  0.4350072932223990  0.4167217181187414
  0.4060727434757787  0.0289011922571967  0.5834301417053609
  0.5939272746576950  0.9710987942424697  0.4165698616909564
  0.5645675396062199  0.4061699649492995  0.5834603779380961
  0.4354324591156108  0.5938300352225619  0.4165396178358576
  0.7106219329981384  0.8041809222135491  0.5845193768270246
  0.2893780689117117  0.1958190880482172  0.4154806289924644
  0.4848066543572643  0.7110241016602338  0.5844641798760187
  0.5151933317590843  0.2889759094514004  0.4155358184410534
  0.8043713249547759  0.4850299234071377  0.5849130157577571
  0.1956286619389005  0.5149701053031975  0.4150869776702782
  0.3332962019634093  0.3334841519097384  0.5841149122465233
  0.6667038066768609  0.6665158473285903  0.4158850882042945
 
  0.00000000E+00  0.00000000E+00  0.00000000E+00
  0.00000000E+00  0.00000000E+00  0.00000000E+00
  0.00000000E+00  0.00000000E+00  0.00000000E+00
  0.00000000E+00  0.00000000E+00  0.00000000E+00
  0.00000000E+00  0.00000000E+00  0.00000000E+00
  0.00000000E+00  0.00000000E+00  0.00000000E+00
  0.00000000E+00  0.00000000E+00  0.00000000E+00
  0.00000000E+00  0.00000000E+00  0.00000000E+00
  0.00000000E+00  0.00000000E+00  0.00000000E+00
  0.00000000E+00  0.00000000E+00  0.00000000E+00
  0.00000000E+00  0.00000000E+00  0.00000000E+00
  0.00000000E+00  0.00000000E+00  0.00000000E+00
  0.00000000E+00  0.00000000E+00  0.00000000E+00
  0.00000000E+00  0.00000000E+00  0.00000000E+00
  0.00000000E+00  0.00000000E+00  0.00000000E+00
  0.00000000E+00  0.00000000E+00  0.00000000E+00
  0.00000000E+00  0.00000000E+00  0.00000000E+00
  0.00000000E+00  0.00000000E+00  0.00000000E+00
  0.00000000E+00  0.00000000E+00  0.00000000E+00
  0.00000000E+00  0.00000000E+00  0.00000000E+00
  0.00000000E+00  0.00000000E+00  0.00000000E+00
  0.00000000E+00  0.00000000E+00  0.00000000E+00
  0.00000000E+00  0.00000000E+00  0.00000000E+00
  0.00000000E+00  0.00000000E+00  0.00000000E+00
  0.00000000E+00  0.00000000E+00  0.00000000E+00
  0.00000000E+00  0.00000000E+00  0.00000000E+00
  0.00000000E+00  0.00000000E+00  0.00000000E+00
  0.00000000E+00  0.00000000E+00  0.00000000E+00
  0.00000000E+00  0.00000000E+00  0.00000000E+00
  0.00000000E+00  0.00000000E+00  0.00000000E+00
  0.00000000E+00  0.00000000E+00  0.00000000E+00
  0.00000000E+00  0.00000000E+00  0.00000000E+00
  0.00000000E+00  0.00000000E+00  0.00000000E+00
  0.00000000E+00  0.00000000E+00  0.00000000E+00
  0.00000000E+00  0.00000000E+00  0.00000000E+00
  0.00000000E+00  0.00000000E+00  0.00000000E+00
  0.00000000E+00  0.00000000E+00  0.00000000E+00
  0.00000000E+00  0.00000000E+00  0.00000000E+00
  0.00000000E+00  0.00000000E+00  0.00000000E+00
