CONTCAR\(8)                             
   1.00000000000000     
    10.2070999146000005    0.0000000000000000    0.0000000000000000
    -1.7011927660999999   18.1179073708000011    0.0000000000000000
     0.0000000000000000    0.0000000000000000   20.2910003661999987
   Ta   Co   Pd   Se   O 
    12     6     3    36     1
Direct
  0.0200584183109561  0.1500228369325298  0.4661985225971841
  0.3086278314514530  0.8465040229346491  0.5334429046914572
  0.0643026455027188  0.4067394683770979  0.4726534447758587
  0.2625547540281469  0.5904225506715124  0.5306366282957334
  0.3445925859901267  0.1508325181368425  0.4649330981970570
  0.6398475070565225  0.8465160437641134  0.5332856587223899
  0.3978969718144170  0.4062920810701022  0.4728755116915246
  0.5962367809764759  0.5903229873576178  0.5303730693610990
  0.6955536646070017  0.1506654502707212  0.4646921194529028
  0.9743001667950802  0.8478284190481010  0.5327497397369091
  0.7307275976300724  0.4064249452168447  0.4725390484772347
  0.9293736274829452  0.5909765545912180  0.5299295546560044
  0.2097371677136041  0.2838165651126561  0.4406673229299151
  0.1167464277181356  0.7134078447351940  0.5600799316154265
  0.5429556201043071  0.2836290030195945  0.4406323211691829
  0.4502940810039989  0.7125618093723296  0.5602979712963362
  0.8767116906907785  0.2839267651554905  0.4404148624767327
  0.7841440858572927  0.7133304516199092  0.5599421211131562
  0.1655316029562092  0.9997464842358991  0.4988049058669221
  0.4963852472020542  0.9920918452459900  0.5025665002308171
  0.8293249670883488  0.9999056820413070  0.4985587489674997
  0.1802386372498603  0.1173770577620127  0.5600667438155359
  0.1475536128451523  0.8808169151170463  0.4402136370327787
  0.0971928748692773  0.6028029843498466  0.6235971315587995
  0.2292419112172139  0.3956181758120900  0.3793331856343596
  0.2375529789429550  0.4456576127670429  0.5641410687491274
  0.0895877964675637  0.5507588695587605  0.4389354726362154
  0.0355751996534617  0.2381655983253021  0.3698256755071209
  0.2913483011960336  0.7598599229127652  0.6305480151461371
  0.1715199098542133  0.0729659797329036  0.3955847918205825
  0.1544942344599373  0.9253543268549720  0.6008210388047110
  0.0421919885540482  0.2788514592881758  0.5248441955123253
  0.2838118332587246  0.7168225706368240  0.4759990314238012
  0.5137086271015358  0.1136210884210887  0.5522273433504904
  0.4792570761375567  0.8755511842374993  0.4394664305883464
  0.4312478682486590  0.6021530264851338  0.6238426021972842
  0.5620301127918329  0.3954751568990896  0.3791489810769805
  0.5709642282842408  0.4456611368885217  0.5642069786700477
  0.4224394717433063  0.5504535791407307  0.4391587079179587
  0.3684804388645807  0.2387330779387082  0.3689258880327703
  0.6255927275636575  0.7598847139813160  0.6303984109583564
  0.5065886012933880  0.0714219563486835  0.4027870762013157
  0.4869301343105192  0.9202013804527794  0.6050428148727054
  0.3760666401347093  0.2783179731605046  0.5252127816622361
  0.6177396525045388  0.7168004445939506  0.4758426902409175
  0.8481711802490109  0.1173905185703522  0.5598743250082793
  0.8127028104504890  0.8809436280488864  0.4400647763063829
  0.7651932992383140  0.6026751443398937  0.6234442845757032
  0.8958698238742304  0.3955755078489454  0.3790209538911437
  0.9040847452771630  0.4460932683579015  0.5637511929455575
  0.7559761135465398  0.5508490435545175  0.4386971888948716
  0.7022885638518120  0.2386311012189926  0.3686907460390869
  0.9582848501313410  0.7614119505815915  0.6302233085711839
  0.8427330481543635  0.0730895077946486  0.3952927690909504
  0.8206789821487394  0.9255681681473354  0.6006922925648973
  0.7088733133959032  0.2784193193483910  0.5248953701997083
  0.9511615289981021  0.7177180888023470  0.4754772164774984
  0.5175532451563686  0.1338930048106939  0.6328712967024621
 
  0.00000000E+00  0.00000000E+00  0.00000000E+00
  0.00000000E+00  0.00000000E+00  0.00000000E+00
  0.00000000E+00  0.00000000E+00  0.00000000E+00
  0.00000000E+00  0.00000000E+00  0.00000000E+00
  0.00000000E+00  0.00000000E+00  0.00000000E+00
  0.00000000E+00  0.00000000E+00  0.00000000E+00
  0.00000000E+00  0.00000000E+00  0.00000000E+00
  0.00000000E+00  0.00000000E+00  0.00000000E+00
  0.00000000E+00  0.00000000E+00  0.00000000E+00
  0.00000000E+00  0.00000000E+00  0.00000000E+00
  0.00000000E+00  0.00000000E+00  0.00000000E+00
  0.00000000E+00  0.00000000E+00  0.00000000E+00
  0.00000000E+00  0.00000000E+00  0.00000000E+00
  0.00000000E+00  0.00000000E+00  0.00000000E+00
  0.00000000E+00  0.00000000E+00  0.00000000E+00
  0.00000000E+00  0.00000000E+00  0.00000000E+00
  0.00000000E+00  0.00000000E+00  0.00000000E+00
  0.00000000E+00  0.00000000E+00  0.00000000E+00
  0.00000000E+00  0.00000000E+00  0.00000000E+00
  0.00000000E+00  0.00000000E+00  0.00000000E+00
  0.00000000E+00  0.00000000E+00  0.00000000E+00
  0.00000000E+00  0.00000000E+00  0.00000000E+00
  0.00000000E+00  0.00000000E+00  0.00000000E+00
  0.00000000E+00  0.00000000E+00  0.00000000E+00
  0.00000000E+00  0.00000000E+00  0.00000000E+00
  0.00000000E+00  0.00000000E+00  0.00000000E+00
  0.00000000E+00  0.00000000E+00  0.00000000E+00
  0.00000000E+00  0.00000000E+00  0.00000000E+00
  0.00000000E+00  0.00000000E+00  0.00000000E+00
  0.00000000E+00  0.00000000E+00  0.00000000E+00
  0.00000000E+00  0.00000000E+00  0.00000000E+00
  0.00000000E+00  0.00000000E+00  0.00000000E+00
  0.00000000E+00  0.00000000E+00  0.00000000E+00
  0.00000000E+00  0.00000000E+00  0.00000000E+00
  0.00000000E+00  0.00000000E+00  0.00000000E+00
  0.00000000E+00  0.00000000E+00  0.00000000E+00
  0.00000000E+00  0.00000000E+00  0.00000000E+00
  0.00000000E+00  0.00000000E+00  0.00000000E+00
  0.00000000E+00  0.00000000E+00  0.00000000E+00
  0.00000000E+00  0.00000000E+00  0.00000000E+00
  0.00000000E+00  0.00000000E+00  0.00000000E+00
  0.00000000E+00  0.00000000E+00  0.00000000E+00
  0.00000000E+00  0.00000000E+00  0.00000000E+00
  0.00000000E+00  0.00000000E+00  0.00000000E+00
  0.00000000E+00  0.00000000E+00  0.00000000E+00
  0.00000000E+00  0.00000000E+00  0.00000000E+00
  0.00000000E+00  0.00000000E+00  0.00000000E+00
  0.00000000E+00  0.00000000E+00  0.00000000E+00
  0.00000000E+00  0.00000000E+00  0.00000000E+00
  0.00000000E+00  0.00000000E+00  0.00000000E+00
  0.00000000E+00  0.00000000E+00  0.00000000E+00
  0.00000000E+00  0.00000000E+00  0.00000000E+00
  0.00000000E+00  0.00000000E+00  0.00000000E+00
  0.00000000E+00  0.00000000E+00  0.00000000E+00
  0.00000000E+00  0.00000000E+00  0.00000000E+00
  0.00000000E+00  0.00000000E+00  0.00000000E+00
  0.00000000E+00  0.00000000E+00  0.00000000E+00
  0.00000000E+00  0.00000000E+00  0.00000000E+00
