CONTCAR\(2)                             
   1.00000000000000     
    14.4153003693000006    0.0000000000000000    0.0000000000000000
     0.0000000000000000   14.4153003693000006    0.0000000000000000
     0.0000000000000000    0.0000000000000000   17.7828998566000003
   Co   Se   O    H 
    32    32     1     1
Direct
 -0.0001567310717221  0.0000007139613193  0.5009087225268321
  0.1247315755367728  0.1247216805624769  0.5010051128214658
  0.2496359594633614 -0.0000775184882524  0.5008859700914725
  0.3748077028487755  0.1247902308032252  0.5004621126570017
  0.4999102760510740 -0.0004203596569853  0.5010202959127682
  0.6250894765011362  0.1248049361184914  0.5004897694489863
  0.7502811361128223 -0.0000638689142367  0.5008267061902796
  0.8751025068677541  0.1247526792854009  0.5009396519205654
 -0.0000063633356123  0.2496683574204963  0.5009587833969907
  0.1249705519185032  0.3745672086682190  0.5006496691498703
  0.2495506919917251  0.2498107202505458  0.5009128479098068
  0.3747021497549207  0.3744488573101905  0.5037319581494846
  0.4999210857241946  0.2498082394760575  0.5010744416577911
  0.6252429314945613  0.3742719101035635  0.5038532831280843
  0.7504021571597946  0.2498681326665856  0.5009218934400531
  0.8750676669729622  0.3746244259077859  0.5007920822339085
 -0.0000203592818214  0.4998438766813579  0.5001920295379884
  0.1250978709122177  0.6247907017652298  0.5011167221096352
  0.2499464218752262  0.4997624889801016  0.5033837578361887
  0.3746444546652381  0.6247191683667881  0.5033833309357383
  0.4999857646677250  0.4995195735273682  0.5039503919987299
  0.6251414264146141  0.6247467205264098  0.5026249135840758
  0.7498880738241370  0.4995972735179879  0.5033202066985566
  0.8746344658830475  0.6247064254695581  0.5011972772476340
 -0.0001147740573065  0.7499172948477132  0.5005085962492745
  0.1248786354046563  0.8753171228310471  0.5009404553055027
  0.2493855271452947  0.7502808046441442  0.5037465488789091
  0.3744906278657649  0.8750273701410649  0.5031559633013772
  0.4998298783422587  0.7499822597385167  0.5023433097244888
  0.6253386309747733  0.8751870774725884  0.5031530097910970
  0.7502254580531412  0.7503117756907879  0.5034669903621207
  0.8749598038830729  0.8752734379626099  0.5008794047314277
 -0.0001300275319437  0.1247587079471588  0.5826017836922227
  0.1246833868038064  0.0000143606032879  0.4193165467940947
  0.2499592192067434  0.1248481130685511  0.5822233656258728
  0.3748831942677391  0.9987704536809655  0.4199744875054175
  0.4998936730854665  0.1246319815845295  0.5818612939498636
  0.6249807527596279  0.9988847065456897  0.4199702352932131
  0.7499772229367186  0.1248675598028149  0.5821558217021006
  0.8750645264955768  0.0000264963425140  0.4192202187736891
  0.0001300745296300  0.3750210814843757  0.5819980302470372
  0.1247624154482209  0.2494589646923592  0.4192620031495107
  0.2485472647928085  0.3738168291411628  0.5835547275457001
  0.3748716129336733  0.2509275433610071  0.4201051335727237
  0.4999668819032037  0.3727100335424552  0.5844545244490035
  0.6250168593825162  0.2509146793048908  0.4201447683719922
  0.7514533836147406  0.3738210727134163  0.5836558340727130
  0.8751986236515513  0.2495947423633751  0.4193419901650051
 -0.0001155719051402  0.6247170866937938  0.5818566637370757
  0.1262487678450715  0.4999204167777463  0.4199505497461646
  0.2483304412942521  0.6249516661853352  0.5841679478988889
  0.3759322279672936  0.4997802920051518  0.4225523204496404
  0.5008769614786297  0.6273883150625063  0.5830258506068628
  0.6239199924341046  0.4992306634133449  0.4224273393409970
  0.7509204539246033  0.6249761170599192  0.5838341432799634
  0.8736351749399787  0.4998596480606280  0.4199923043779379
 -0.0000957979181007  0.8748760785317110  0.5821399031439346
  0.1259856729111120  0.7499403015413678  0.4201880166565464
  0.2488741352176146  0.8762738147643454  0.5836792121342492
  0.3741730730187482  0.7491385804351371  0.4221306905597262
  0.4999430836633098  0.8756711761249597  0.5834802917726726
  0.6252569681027667  0.7499364280276650  0.4217459150019399
  0.7510117335276213  0.8761348506312883  0.5835698929676144
  0.8738204253307889  0.7498374599526660  0.4202111968099636
  0.5128687422310918  0.6596792905589328  0.6912984886318886
  0.4933601380930961  0.6039810763567891  0.7185927000456674
 
  0.00000000E+00  0.00000000E+00  0.00000000E+00
  0.00000000E+00  0.00000000E+00  0.00000000E+00
  0.00000000E+00  0.00000000E+00  0.00000000E+00
  0.00000000E+00  0.00000000E+00  0.00000000E+00
  0.00000000E+00  0.00000000E+00  0.00000000E+00
  0.00000000E+00  0.00000000E+00  0.00000000E+00
  0.00000000E+00  0.00000000E+00  0.00000000E+00
  0.00000000E+00  0.00000000E+00  0.00000000E+00
  0.00000000E+00  0.00000000E+00  0.00000000E+00
  0.00000000E+00  0.00000000E+00  0.00000000E+00
  0.00000000E+00  0.00000000E+00  0.00000000E+00
  0.00000000E+00  0.00000000E+00  0.00000000E+00
  0.00000000E+00  0.00000000E+00  0.00000000E+00
  0.00000000E+00  0.00000000E+00  0.00000000E+00
  0.00000000E+00  0.00000000E+00  0.00000000E+00
  0.00000000E+00  0.00000000E+00  0.00000000E+00
  0.00000000E+00  0.00000000E+00  0.00000000E+00
  0.00000000E+00  0.00000000E+00  0.00000000E+00
  0.00000000E+00  0.00000000E+00  0.00000000E+00
  0.00000000E+00  0.00000000E+00  0.00000000E+00
  0.00000000E+00  0.00000000E+00  0.00000000E+00
  0.00000000E+00  0.00000000E+00  0.00000000E+00
  0.00000000E+00  0.00000000E+00  0.00000000E+00
  0.00000000E+00  0.00000000E+00  0.00000000E+00
  0.00000000E+00  0.00000000E+00  0.00000000E+00
  0.00000000E+00  0.00000000E+00  0.00000000E+00
  0.00000000E+00  0.00000000E+00  0.00000000E+00
  0.00000000E+00  0.00000000E+00  0.00000000E+00
  0.00000000E+00  0.00000000E+00  0.00000000E+00
  0.00000000E+00  0.00000000E+00  0.00000000E+00
  0.00000000E+00  0.00000000E+00  0.00000000E+00
  0.00000000E+00  0.00000000E+00  0.00000000E+00
  0.00000000E+00  0.00000000E+00  0.00000000E+00
  0.00000000E+00  0.00000000E+00  0.00000000E+00
  0.00000000E+00  0.00000000E+00  0.00000000E+00
  0.00000000E+00  0.00000000E+00  0.00000000E+00
  0.00000000E+00  0.00000000E+00  0.00000000E+00
  0.00000000E+00  0.00000000E+00  0.00000000E+00
  0.00000000E+00  0.00000000E+00  0.00000000E+00
  0.00000000E+00  0.00000000E+00  0.00000000E+00
  0.00000000E+00  0.00000000E+00  0.00000000E+00
  0.00000000E+00  0.00000000E+00  0.00000000E+00
  0.00000000E+00  0.00000000E+00  0.00000000E+00
  0.00000000E+00  0.00000000E+00  0.00000000E+00
  0.00000000E+00  0.00000000E+00  0.00000000E+00
  0.00000000E+00  0.00000000E+00  0.00000000E+00
  0.00000000E+00  0.00000000E+00  0.00000000E+00
  0.00000000E+00  0.00000000E+00  0.00000000E+00
  0.00000000E+00  0.00000000E+00  0.00000000E+00
  0.00000000E+00  0.00000000E+00  0.00000000E+00
  0.00000000E+00  0.00000000E+00  0.00000000E+00
  0.00000000E+00  0.00000000E+00  0.00000000E+00
  0.00000000E+00  0.00000000E+00  0.00000000E+00
  0.00000000E+00  0.00000000E+00  0.00000000E+00
  0.00000000E+00  0.00000000E+00  0.00000000E+00
  0.00000000E+00  0.00000000E+00  0.00000000E+00
  0.00000000E+00  0.00000000E+00  0.00000000E+00
  0.00000000E+00  0.00000000E+00  0.00000000E+00
  0.00000000E+00  0.00000000E+00  0.00000000E+00
  0.00000000E+00  0.00000000E+00  0.00000000E+00
  0.00000000E+00  0.00000000E+00  0.00000000E+00
  0.00000000E+00  0.00000000E+00  0.00000000E+00
  0.00000000E+00  0.00000000E+00  0.00000000E+00
  0.00000000E+00  0.00000000E+00  0.00000000E+00
  0.00000000E+00  0.00000000E+00  0.00000000E+00
  0.00000000E+00  0.00000000E+00  0.00000000E+00
