 Cu6 O2 F10                             
   1.00000000000000     
     4.2779257963515729    0.0000000000000000    0.0000000000000000
     0.1528164535394034    5.2018966553277775    0.0000000000000000
     0.0000000000000000    0.0000000000000000   21.7612954622959975
   Cu   O    F 
     6     2    10
Direct
  0.0224617383884260  0.7100163095791723  0.6354408309966313
  0.5286042735103493  0.1860897515618793  0.6337033390503670
  0.9775590192096193  0.2899770837651060  0.3645603269598058
  0.4714105893950552  0.8139084049713989  0.3662959746680028
  0.4999917533392223  0.4999976049133822  0.4999998283942502
 -0.0000200286231840  0.0000008470214828  0.5000010071677329
  0.1661058491921904  0.0123305835546256  0.4033713701713120
  0.8338663687365093  0.9877327102438892  0.5966309237833227
  0.2159619932353419  0.4093235988057161  0.6711336814018717
  0.7840709819448074  0.5906323526220362  0.3288703714466802
  0.3420678157343392  0.9046861135577001  0.6723795955750270
  0.6580092413177987  0.0953442447374330  0.3276186165940285
  0.2893577867676180  0.5088979438541454  0.3966140483374439
  0.8176856523869951  0.3064695632107791  0.4641870554705976
  0.6724935266266716  0.7984844238817179  0.4653952176368828
  0.3274832958680550  0.2015148435546652  0.5346037823194441
  0.7106014052082041  0.4910727491336735  0.6033851299626664
  0.1822887377619966  0.6935208710312319  0.5358089000639071
 
  0.00000000E+00  0.00000000E+00  0.00000000E+00
  0.00000000E+00  0.00000000E+00  0.00000000E+00
  0.00000000E+00  0.00000000E+00  0.00000000E+00
  0.00000000E+00  0.00000000E+00  0.00000000E+00
  0.00000000E+00  0.00000000E+00  0.00000000E+00
  0.00000000E+00  0.00000000E+00  0.00000000E+00
  0.00000000E+00  0.00000000E+00  0.00000000E+00
  0.00000000E+00  0.00000000E+00  0.00000000E+00
  0.00000000E+00  0.00000000E+00  0.00000000E+00
  0.00000000E+00  0.00000000E+00  0.00000000E+00
  0.00000000E+00  0.00000000E+00  0.00000000E+00
  0.00000000E+00  0.00000000E+00  0.00000000E+00
  0.00000000E+00  0.00000000E+00  0.00000000E+00
  0.00000000E+00  0.00000000E+00  0.00000000E+00
  0.00000000E+00  0.00000000E+00  0.00000000E+00
  0.00000000E+00  0.00000000E+00  0.00000000E+00
  0.00000000E+00  0.00000000E+00  0.00000000E+00
  0.00000000E+00  0.00000000E+00  0.00000000E+00
