CONTCAR\(2)                             
   1.00000000000000     
    12.6855001450000007    0.0000000000000000    0.0000000000000000
     6.3427500725000003   10.9859653852000001    0.0000000000000000
     0.0000000000000000    0.0000000000000000   18.4181995391999997
   Mn   P    Se   O    H 
     8     8    24     1     1
Direct
  0.1676664558952063  0.1671764415132243  0.4973015237791944
  0.3347804932642665  0.3351244352932162  0.4995290977825865
  0.6669467269320907  0.1688475853061511  0.5000526269981939
  0.8317929847052296  0.3347608588438318  0.5001425636012987
  0.1704959139748402  0.6656661358860736  0.5001474829046171
  0.3353186119287032  0.8314083800269376  0.5005946246291618
  0.6657878528502289  0.6666925592330125  0.4999745003390311
  0.8344226040247925  0.8339588513867207  0.4974634709537384
  0.9999454991165682  0.0017607554638643  0.4384545601559869
  0.0012003946814665  0.0004806710282974  0.5601701750996941
  0.5009982167756846 -0.0006347309447501  0.4382865325317527
  0.5010716117981235  0.0005951533440509  0.5600135629004638
  0.0019785551447203  0.5009839276465015  0.4383717965499946
  0.0005409336082498  0.5006269019318123  0.5601074755628094
  0.5012225902899964  0.5003096220609868  0.4632704233988022
  0.5031736336719547  0.4993774740392458  0.5990437186027258
  0.1685274123832608  0.5005495244346465  0.5931819565306363
  0.4991704814745252  0.3206208618870913  0.5918687100521989
  0.3309157881146419  0.1705411552150685  0.5900239855865372
  0.3327233030968438  0.9973859559140218  0.4072401079667570
 -0.0024972070314637  0.1723311483690657  0.4072015494021640
  0.1722885752715428  0.3326654536354118  0.4069620057841467
  0.6818119148921818  0.5010680905608275  0.5925454118959453
  0.0013010358694834  0.3303202754350703  0.5901623958882034
  0.8333769661520168  0.1680253879882850  0.5936677169803171
  0.8297848055139115  0.0036472336714504  0.4071234997907610
  0.5010872874600611  0.1681014721579017  0.4061691621804674
  0.6645945712360479  0.3366886780820554  0.4148161977114596
  0.1710187817180809  0.0007229980434815  0.5903119474851657
  0.5008617075287799  0.8331544729971518  0.5937769269221661
  0.3212269009398251  0.6788013604697526  0.5928676819242683
  0.3375051269531746  0.5004619851644049  0.4148056200905426
  0.0045233107259990  0.6691224672127152  0.4073661130755071
  0.1687400583445670  0.8330465640496042  0.4064296979823117
  0.6714436780153610 -0.0000905239391463  0.5901792981987231
  0.0012073299004425  0.8305567383101609  0.5902726427753137
  0.8308194515648191  0.6707041397919267  0.5901887779521791
  0.8334418107802569  0.5006281007790003  0.4062626929791302
  0.5003396906350839  0.6643997805229006  0.4150530206045272
  0.6691929552598728  0.8289172598250389  0.4070873792922485
  0.5130427624406734  0.4971184773340835  0.6895696571203559
  0.4503878760978995  0.4844667000288808  0.7121816660378905
 
  0.00000000E+00  0.00000000E+00  0.00000000E+00
  0.00000000E+00  0.00000000E+00  0.00000000E+00
  0.00000000E+00  0.00000000E+00  0.00000000E+00
  0.00000000E+00  0.00000000E+00  0.00000000E+00
  0.00000000E+00  0.00000000E+00  0.00000000E+00
  0.00000000E+00  0.00000000E+00  0.00000000E+00
  0.00000000E+00  0.00000000E+00  0.00000000E+00
  0.00000000E+00  0.00000000E+00  0.00000000E+00
  0.00000000E+00  0.00000000E+00  0.00000000E+00
  0.00000000E+00  0.00000000E+00  0.00000000E+00
  0.00000000E+00  0.00000000E+00  0.00000000E+00
  0.00000000E+00  0.00000000E+00  0.00000000E+00
  0.00000000E+00  0.00000000E+00  0.00000000E+00
  0.00000000E+00  0.00000000E+00  0.00000000E+00
  0.00000000E+00  0.00000000E+00  0.00000000E+00
  0.00000000E+00  0.00000000E+00  0.00000000E+00
  0.00000000E+00  0.00000000E+00  0.00000000E+00
  0.00000000E+00  0.00000000E+00  0.00000000E+00
  0.00000000E+00  0.00000000E+00  0.00000000E+00
  0.00000000E+00  0.00000000E+00  0.00000000E+00
  0.00000000E+00  0.00000000E+00  0.00000000E+00
  0.00000000E+00  0.00000000E+00  0.00000000E+00
  0.00000000E+00  0.00000000E+00  0.00000000E+00
  0.00000000E+00  0.00000000E+00  0.00000000E+00
  0.00000000E+00  0.00000000E+00  0.00000000E+00
  0.00000000E+00  0.00000000E+00  0.00000000E+00
  0.00000000E+00  0.00000000E+00  0.00000000E+00
  0.00000000E+00  0.00000000E+00  0.00000000E+00
  0.00000000E+00  0.00000000E+00  0.00000000E+00
  0.00000000E+00  0.00000000E+00  0.00000000E+00
  0.00000000E+00  0.00000000E+00  0.00000000E+00
  0.00000000E+00  0.00000000E+00  0.00000000E+00
  0.00000000E+00  0.00000000E+00  0.00000000E+00
  0.00000000E+00  0.00000000E+00  0.00000000E+00
  0.00000000E+00  0.00000000E+00  0.00000000E+00
  0.00000000E+00  0.00000000E+00  0.00000000E+00
  0.00000000E+00  0.00000000E+00  0.00000000E+00
  0.00000000E+00  0.00000000E+00  0.00000000E+00
  0.00000000E+00  0.00000000E+00  0.00000000E+00
  0.00000000E+00  0.00000000E+00  0.00000000E+00
  0.00000000E+00  0.00000000E+00  0.00000000E+00
  0.00000000E+00  0.00000000E+00  0.00000000E+00
