CONTCAR\(16)                            
   1.00000000000000     
    11.8035001755000000    0.0000000000000000    0.0000000000000000
    -5.9028060597999996   10.2219826981999997    0.0000000000000000
     0.0000000000000000    0.0000000000000000   24.2695999146000005
   Cr   Te   O 
    27    36     1
Direct
  0.0016009449660999  0.9968348465930603  0.4983012106682949
  0.9996575543780892  0.3333201063521827  0.6299617177316748
  0.3338199239348896  0.0000372062048157  0.3635080188787256
  0.3333050896654086  0.9998945688121168  0.4971114003224599
  0.3359891391412759  0.3339209489863748  0.6300971310842129
  0.6684486161112133  0.0011695668974312  0.3650071004920292
  0.6619063624031227  0.9967971932113997  0.4983659679087040
  0.6639184068377162  0.3341433001699841  0.6301376684515887
  0.0002621539151875  0.0009517978617879  0.3649660116491802
  0.0000767709676239  0.3332963239769953  0.4980927960830144
  0.9987502462964244  0.6687285916702379  0.6300708762518283
  0.3329310783380848  0.3334526644288900  0.3648130325550767
  0.3366623271158531  0.3318301387637774  0.4983064577217462
  0.3361097242711395  0.6688706343118866  0.6300928202111393
  0.6680924770370140  0.3335692613974146  0.3650195246459802
  0.6619019382167650  0.3320040536057007  0.4983811027605327
  0.6659302264429670  0.6667484260343173  0.7238227996336875
  0.0003444474969001  0.3332042763941345  0.3652333666946959
  0.0015589143037431  0.6713867654661740  0.4982221461952463
  0.9987224197100204  0.9966411363228929  0.6300951167862863
  0.3329487649321834  0.6655597119343497  0.3649064531371451
  0.3367716446303888  0.6714140932785142  0.4982245451555514
  0.3329223067321010  0.9997291260468799  0.6318761872784648
  0.6671985669197653  0.6667967520633624  0.3659361428888772
  0.6666036541400899  0.6667876934157775  0.5007451175526967
  0.6639428903796372  0.9971652281986394  0.6302508040317818
  0.0000865877019933  0.6655326973679863  0.3649365443714316
  0.1112795532538087  0.2211876477257633  0.6881815260589548
  0.1119993414147089  0.2218310132287939  0.4337913546853542
  0.2219465653593744  0.1116772106564596  0.3052276447267417
  0.2231516218858687  0.1098884407310763  0.5634915564382510
  0.4441174313066654  0.2223769866413718  0.6906489670734999
  0.4441303946902266  0.2212415283077078  0.4316367596562429
  0.5575921391820913  0.1119715163043367  0.3053116019385058
  0.5531729806934109  0.1100632766407017  0.5634684918121380
  0.7761074835081772  0.2218641233018772  0.6882886380335975
  0.7769562526866522  0.2218158167954414  0.4339275764557939
  0.8896804237006748  0.1117878867419648  0.3055547380553136
  0.8879315211312004  0.1095478726455070  0.5624782937745110
  0.1114646768382244  0.5569345245469606  0.6882037144640805
  0.1118341630063711  0.5564869513349535  0.4336925830332277
  0.2218806294893625  0.4440475048370800  0.3055459455973235
  0.2237174874091892  0.4452409374045629  0.5623375464597515
  0.4214613800334064  0.5440891398267027  0.6961787498722600
  0.4454864707487047  0.5558549619842168  0.4336596334695741
  0.5563115395715670  0.4449484913978594  0.3062542431933792
  0.5571258070173570  0.4480769914685325  0.5639000589709866
  0.7881378861350257  0.5447213320702957  0.6960854319724490
  0.7775768144220194  0.5559893740306521  0.4337638676112050
  0.8894582612097892  0.4440349405009840  0.3056177891266358
  0.8879797711486077  0.4452325495817391  0.5623201564754652
  0.1102465837974052  0.8883957561594968  0.6905713966875879
  0.1123284018725741  0.8893791146730976  0.4315786477182115
  0.2219118180969559  0.7763352698577108  0.3053203589799836
  0.2231234846309889  0.7797316969568939  0.5634112919105547
  0.4440873495428548  0.8884906999388065  0.6906959358161942
  0.4442558176350531  0.8894337851754770  0.4315723657316326
  0.5564200268113311  0.7779144534693714  0.3063622968133473
  0.5572764496316509  0.7761725007631597  0.5639902802492927
  0.7884042116021277  0.9110792592270442  0.6961324592693998
  0.7776473348265185  0.8882355893181568  0.4338306880921365
  0.8890261204936323  0.7777311743903539  0.3062604913150864
  0.8852483212642070  0.7759524704476775  0.5638413081129556
  0.6659707349663222  0.6671610421501626  0.7889535882062617
 
  0.00000000E+00  0.00000000E+00  0.00000000E+00
  0.00000000E+00  0.00000000E+00  0.00000000E+00
  0.00000000E+00  0.00000000E+00  0.00000000E+00
  0.00000000E+00  0.00000000E+00  0.00000000E+00
  0.00000000E+00  0.00000000E+00  0.00000000E+00
  0.00000000E+00  0.00000000E+00  0.00000000E+00
  0.00000000E+00  0.00000000E+00  0.00000000E+00
  0.00000000E+00  0.00000000E+00  0.00000000E+00
  0.00000000E+00  0.00000000E+00  0.00000000E+00
  0.00000000E+00  0.00000000E+00  0.00000000E+00
  0.00000000E+00  0.00000000E+00  0.00000000E+00
  0.00000000E+00  0.00000000E+00  0.00000000E+00
  0.00000000E+00  0.00000000E+00  0.00000000E+00
  0.00000000E+00  0.00000000E+00  0.00000000E+00
  0.00000000E+00  0.00000000E+00  0.00000000E+00
  0.00000000E+00  0.00000000E+00  0.00000000E+00
  0.00000000E+00  0.00000000E+00  0.00000000E+00
  0.00000000E+00  0.00000000E+00  0.00000000E+00
  0.00000000E+00  0.00000000E+00  0.00000000E+00
  0.00000000E+00  0.00000000E+00  0.00000000E+00
  0.00000000E+00  0.00000000E+00  0.00000000E+00
  0.00000000E+00  0.00000000E+00  0.00000000E+00
  0.00000000E+00  0.00000000E+00  0.00000000E+00
  0.00000000E+00  0.00000000E+00  0.00000000E+00
  0.00000000E+00  0.00000000E+00  0.00000000E+00
  0.00000000E+00  0.00000000E+00  0.00000000E+00
  0.00000000E+00  0.00000000E+00  0.00000000E+00
  0.00000000E+00  0.00000000E+00  0.00000000E+00
  0.00000000E+00  0.00000000E+00  0.00000000E+00
  0.00000000E+00  0.00000000E+00  0.00000000E+00
  0.00000000E+00  0.00000000E+00  0.00000000E+00
  0.00000000E+00  0.00000000E+00  0.00000000E+00
  0.00000000E+00  0.00000000E+00  0.00000000E+00
  0.00000000E+00  0.00000000E+00  0.00000000E+00
  0.00000000E+00  0.00000000E+00  0.00000000E+00
  0.00000000E+00  0.00000000E+00  0.00000000E+00
  0.00000000E+00  0.00000000E+00  0.00000000E+00
  0.00000000E+00  0.00000000E+00  0.00000000E+00
  0.00000000E+00  0.00000000E+00  0.00000000E+00
  0.00000000E+00  0.00000000E+00  0.00000000E+00
  0.00000000E+00  0.00000000E+00  0.00000000E+00
  0.00000000E+00  0.00000000E+00  0.00000000E+00
  0.00000000E+00  0.00000000E+00  0.00000000E+00
  0.00000000E+00  0.00000000E+00  0.00000000E+00
  0.00000000E+00  0.00000000E+00  0.00000000E+00
  0.00000000E+00  0.00000000E+00  0.00000000E+00
  0.00000000E+00  0.00000000E+00  0.00000000E+00
  0.00000000E+00  0.00000000E+00  0.00000000E+00
  0.00000000E+00  0.00000000E+00  0.00000000E+00
  0.00000000E+00  0.00000000E+00  0.00000000E+00
  0.00000000E+00  0.00000000E+00  0.00000000E+00
  0.00000000E+00  0.00000000E+00  0.00000000E+00
  0.00000000E+00  0.00000000E+00  0.00000000E+00
  0.00000000E+00  0.00000000E+00  0.00000000E+00
  0.00000000E+00  0.00000000E+00  0.00000000E+00
  0.00000000E+00  0.00000000E+00  0.00000000E+00
  0.00000000E+00  0.00000000E+00  0.00000000E+00
  0.00000000E+00  0.00000000E+00  0.00000000E+00
  0.00000000E+00  0.00000000E+00  0.00000000E+00
  0.00000000E+00  0.00000000E+00  0.00000000E+00
  0.00000000E+00  0.00000000E+00  0.00000000E+00
  0.00000000E+00  0.00000000E+00  0.00000000E+00
  0.00000000E+00  0.00000000E+00  0.00000000E+00
  0.00000000E+00  0.00000000E+00  0.00000000E+00
