CONTCAR\(5)                             
   1.00000000000000     
    10.9052000045999993    0.0000000000000000    0.0000000000000000
     5.4526010918000001   10.6458758644000007    0.0000000000000000
     0.0000000000000000    0.0000000000000000   18.0139999390000014
   Cr   Br
     9    18
Direct
  0.0000000000000000  0.0000000000000000  0.5000000000000000
  0.3333299960000033  0.0000000000000000  0.5000000000000000
  0.6666700039999967  0.0000000000000000  0.5000000000000000
  0.9999999910000028  0.3333300130000012  0.5000000000000000
  0.3333299749999981  0.3333300130000012  0.5000000000000000
  0.6666700279999986  0.3333300130000012  0.5000000000000000
  0.9999999939999995  0.6666700150000011  0.5000000000000000
  0.3333299889999992  0.6666700150000011  0.5000000000000000
  0.6666699980000033  0.6666700150000011  0.5000000000000000
  0.2076099989999989  0.2515799970000003  0.5852699929999972
  0.1257199920000005  0.0817600000000027  0.4147300070000028
  0.5409499860000011  0.2515799970000003  0.5852699929999972
  0.4590499870000002  0.0817600000000027  0.4147300070000028
  0.8742799380000008  0.2515799970000003  0.5852699929999972
  0.7923899959999972  0.0817600000000027  0.4147300070000028
  0.2076099679999999  0.5849099879999997  0.5852699929999972
  0.1257199900000003  0.4150900189999973  0.4147300070000028
  0.5409499769999968  0.5849099879999997  0.5852699929999972
  0.4590499640000019  0.4150900189999973  0.4147300070000028
  0.8742799280000000  0.5849099879999997  0.5852699929999972
  0.7923899729999988  0.4150900189999973  0.4147300070000028
  0.2076100020000027  0.9182399789999991  0.5852699929999972
  0.1257200029999979  0.7484200099999967  0.4147300070000028
  0.5409499670000031  0.9182399789999991  0.5852699929999972
  0.4590500420000012  0.7484200099999967  0.4147300070000028
  0.8742800070000030  0.9182399789999991  0.5852699929999972
  0.7923900509999982  0.7484200099999967  0.4147300070000028
 
  0.00000000E+00  0.00000000E+00  0.00000000E+00
  0.00000000E+00  0.00000000E+00  0.00000000E+00
  0.00000000E+00  0.00000000E+00  0.00000000E+00
  0.00000000E+00  0.00000000E+00  0.00000000E+00
  0.00000000E+00  0.00000000E+00  0.00000000E+00
  0.00000000E+00  0.00000000E+00  0.00000000E+00
  0.00000000E+00  0.00000000E+00  0.00000000E+00
  0.00000000E+00  0.00000000E+00  0.00000000E+00
  0.00000000E+00  0.00000000E+00  0.00000000E+00
  0.00000000E+00  0.00000000E+00  0.00000000E+00
  0.00000000E+00  0.00000000E+00  0.00000000E+00
  0.00000000E+00  0.00000000E+00  0.00000000E+00
  0.00000000E+00  0.00000000E+00  0.00000000E+00
  0.00000000E+00  0.00000000E+00  0.00000000E+00
  0.00000000E+00  0.00000000E+00  0.00000000E+00
  0.00000000E+00  0.00000000E+00  0.00000000E+00
  0.00000000E+00  0.00000000E+00  0.00000000E+00
  0.00000000E+00  0.00000000E+00  0.00000000E+00
  0.00000000E+00  0.00000000E+00  0.00000000E+00
  0.00000000E+00  0.00000000E+00  0.00000000E+00
  0.00000000E+00  0.00000000E+00  0.00000000E+00
  0.00000000E+00  0.00000000E+00  0.00000000E+00
  0.00000000E+00  0.00000000E+00  0.00000000E+00
  0.00000000E+00  0.00000000E+00  0.00000000E+00
  0.00000000E+00  0.00000000E+00  0.00000000E+00
  0.00000000E+00  0.00000000E+00  0.00000000E+00
  0.00000000E+00  0.00000000E+00  0.00000000E+00
