CONTCAR\(11)                            
   1.00000000000000     
    13.2923002242999999    0.0000000000000000    0.0000000000000000
     6.5701190447000002   11.5675693128999999    0.0000000000000000
     0.0000000000000000    0.0000000000000000   18.3850994109999988
   Nb   Ir   S    O    H 
    12     4    32     1     1
Direct
  0.2405886806338785  0.0219926083341860  0.5030249599745070
  0.4816096250706275 -0.0017942981633569  0.5050248795422744
  0.4894174404084760  0.2321488365557218  0.5010769059467709
  0.7664632898150900  0.0112928800549732  0.5064194050686853
  0.0011536994745869  0.0218131489330206  0.5037652411632996
  0.9795934832195057  0.2620244666199628  0.5049079001427971
  0.2608839359692580  0.5168277966938390  0.4986643901763433
  0.4972418569198750  0.5249291662219768  0.5052984431548251
  0.4795292475872497  0.7604024476782274  0.5057790467461747
  0.7378754673807877  0.5225147450954285  0.5020669695897846
  0.9839952017271399  0.4995658169440449  0.5037046445259399
  0.9908588104218503  0.7352198662364671  0.5023418121611648
  0.2726824502676834  0.2283133442191029  0.5014916519243235
  0.7715835287867738  0.2303545727290523  0.5070075681962346
  0.2708028248226788  0.7323661179230796  0.5057281726087411
  0.7725061856234074  0.7278487025031323  0.5019647304020624
  0.3384087281327068  0.0774004051761094  0.4103209820929387
  0.0794400340159838  0.0972021190752709  0.4149937410272056
  0.0972280340137742  0.3242837572761135  0.4290731735794139
  0.3310029528369766  0.3316116889995609  0.4193227391461652
  0.1641788874792687  0.1792953546521980  0.5859536765715958
  0.4197076642345390  0.1581212353056716  0.5949041559049169
  0.4229131472270970  0.4167046814552905  0.5777387614390783
  0.1791319975230190  0.4063404463084704  0.5698631617149714
  0.8416886959708509  0.0829125802919323  0.4138765393136981
  0.5867802106144223  0.0779180706306596  0.4221040699426608
  0.5919511996580781  0.3276170990392007  0.4402660480202054
  0.8221312354772892  0.3369866727841632  0.4218919343645859
  0.6673368630164964  0.1697670205703624  0.5871131880951755
  0.9227076630463757  0.1654874978026346  0.5980524904010331
  0.9061290393757020  0.4235009254696741  0.5921774134653768
  0.6777692915143996  0.4069776021670590  0.5780299493852313
  0.3440995546188167  0.5878399607855641  0.4104261189452150
  0.0841954818304585  0.5814694256492697  0.4191184787156883
  0.0942066636136183  0.8275846621852677  0.4364516475329239
  0.3232096524643832  0.8384081830763642  0.4218838143681903
  0.1703909574196644  0.6682020567833414  0.5858799687939616
  0.4190116419449918  0.6678515161610309  0.5990353758236495
  0.4035194022838980  0.9227198797013467  0.5937602810017791
  0.1754482376782423  0.9066249819555373  0.5787116067809820
  0.8390835855278072  0.5768644155850762  0.4104546545752309
  0.5797846861483374  0.5987543884610400  0.4148598219820784
  0.5966077216670348  0.8250700670907998  0.4298548032441205
  0.8311635597401770  0.8333871665876356  0.4218858676086252
  0.6645799224173690  0.6777605220315418  0.5862521397021868
  0.9212414181998203  0.6575989208048696  0.5945938363285329
  0.9230384872445648  0.9150111072948651  0.5853479364359223
  0.6768032300027619  0.9045548683564227  0.5714359266964050
  0.4072643181013971  0.4223149150606191  0.6677187691267686
  0.3260992198308107  0.4442863768461729  0.6773403475495877
 
  0.00000000E+00  0.00000000E+00  0.00000000E+00
  0.00000000E+00  0.00000000E+00  0.00000000E+00
  0.00000000E+00  0.00000000E+00  0.00000000E+00
  0.00000000E+00  0.00000000E+00  0.00000000E+00
  0.00000000E+00  0.00000000E+00  0.00000000E+00
  0.00000000E+00  0.00000000E+00  0.00000000E+00
  0.00000000E+00  0.00000000E+00  0.00000000E+00
  0.00000000E+00  0.00000000E+00  0.00000000E+00
  0.00000000E+00  0.00000000E+00  0.00000000E+00
  0.00000000E+00  0.00000000E+00  0.00000000E+00
  0.00000000E+00  0.00000000E+00  0.00000000E+00
  0.00000000E+00  0.00000000E+00  0.00000000E+00
  0.00000000E+00  0.00000000E+00  0.00000000E+00
  0.00000000E+00  0.00000000E+00  0.00000000E+00
  0.00000000E+00  0.00000000E+00  0.00000000E+00
  0.00000000E+00  0.00000000E+00  0.00000000E+00
  0.00000000E+00  0.00000000E+00  0.00000000E+00
  0.00000000E+00  0.00000000E+00  0.00000000E+00
  0.00000000E+00  0.00000000E+00  0.00000000E+00
  0.00000000E+00  0.00000000E+00  0.00000000E+00
  0.00000000E+00  0.00000000E+00  0.00000000E+00
  0.00000000E+00  0.00000000E+00  0.00000000E+00
  0.00000000E+00  0.00000000E+00  0.00000000E+00
  0.00000000E+00  0.00000000E+00  0.00000000E+00
  0.00000000E+00  0.00000000E+00  0.00000000E+00
  0.00000000E+00  0.00000000E+00  0.00000000E+00
  0.00000000E+00  0.00000000E+00  0.00000000E+00
  0.00000000E+00  0.00000000E+00  0.00000000E+00
  0.00000000E+00  0.00000000E+00  0.00000000E+00
  0.00000000E+00  0.00000000E+00  0.00000000E+00
  0.00000000E+00  0.00000000E+00  0.00000000E+00
  0.00000000E+00  0.00000000E+00  0.00000000E+00
  0.00000000E+00  0.00000000E+00  0.00000000E+00
  0.00000000E+00  0.00000000E+00  0.00000000E+00
  0.00000000E+00  0.00000000E+00  0.00000000E+00
  0.00000000E+00  0.00000000E+00  0.00000000E+00
  0.00000000E+00  0.00000000E+00  0.00000000E+00
  0.00000000E+00  0.00000000E+00  0.00000000E+00
  0.00000000E+00  0.00000000E+00  0.00000000E+00
  0.00000000E+00  0.00000000E+00  0.00000000E+00
  0.00000000E+00  0.00000000E+00  0.00000000E+00
  0.00000000E+00  0.00000000E+00  0.00000000E+00
  0.00000000E+00  0.00000000E+00  0.00000000E+00
  0.00000000E+00  0.00000000E+00  0.00000000E+00
  0.00000000E+00  0.00000000E+00  0.00000000E+00
  0.00000000E+00  0.00000000E+00  0.00000000E+00
  0.00000000E+00  0.00000000E+00  0.00000000E+00
  0.00000000E+00  0.00000000E+00  0.00000000E+00
  0.00000000E+00  0.00000000E+00  0.00000000E+00
  0.00000000E+00  0.00000000E+00  0.00000000E+00
