CONTCAR\(7)                             
   1.00000000000000     
    11.1612997054999994    0.0000000000000000    0.0000000000000000
     0.0000000000000000   15.5193004608000003    0.0000000000000000
     0.0000000000000000    0.0000000000000000   19.4729003905999996
   Nb   Te   Pd   O 
     6    30     6     1
Direct
  0.1699978777016287  0.8424318110767005  0.5016407342658171
  0.1685177120535581  0.3428100841517455  0.5038492550614883
  0.5000000000000000  0.8428235895161497  0.5017358488224939
  0.5000000000000000  0.3430784757247851  0.5020303078035018
  0.8300020792983711  0.8424318110767005  0.5016407342658171
  0.8314822449464420  0.3428100841517455  0.5038492550614883
 -0.0000000000000000  0.9420268656505787  0.5776700401640575
 -0.0000000000000000  0.4420433823230872  0.4269355164043830
  0.1667828459462511  0.0068546673212862  0.4293071846789649
  0.1678463777053032  0.5077283800668835  0.5758917317004080
 -0.0000000000000000  0.3424237890778668  0.6156179855794111
 -0.0000000000000000  0.8422253979714501  0.3903154181935413
 -0.0000000000000000  0.7426897837155196  0.5776346655147800
 -0.0000000000000000  0.2435157735842814  0.4268788066905675
  0.1669195534085166  0.6783403602213086  0.4288402991803252
  0.1683816727977662  0.1776883447117686  0.5755219930365870
  0.3342373311131195  0.9496491163076157  0.5757355811857636
  0.3340309071832546  0.4431914244446797  0.4246048773233791
  0.5000000000000000  0.0057797248717002  0.4230065190314328
  0.5000000000000000  0.5060653732081470  0.5758083443178691
  0.3353973082208595  0.3428111705567259  0.6153129604108435
  0.3333622859845368  0.8428955592454408  0.3876697211322590
  0.3348214943119604  0.7359318703568298  0.5760876331582900
  0.3341567505309108  0.2431104425425170  0.4244286205110984
  0.5000000000000000  0.6794080787167673  0.4237431613272432
  0.5000000000000000  0.1797463815223528  0.5750117062053027
  0.6657627118868805  0.9496491163076157  0.5757355811857636
  0.6659691358167454  0.4431914244446797  0.4246048773233791
  0.8332171110537490  0.0068546673212862  0.4293071846789649
  0.8321535792946967  0.5077283800668835  0.5758917317004080
  0.6646027347791406  0.3428111705567259  0.6153129604108435
  0.6666377570154632  0.8428955592454408  0.3876697211322590
  0.6651785486880396  0.7359318703568298  0.5760876331582900
  0.6658432924690896  0.2431104425425170  0.4244286205110984
  0.8330804035914837  0.6783403602213086  0.4288402991803252
  0.8316182842022338  0.1776883447117686  0.5755219930365870
 -0.0000000000000000  0.5924487840219761  0.5021239067619910
 -0.0000000000000000  0.0928972409337929  0.5023424731372492
  0.3349872473586022  0.5907668466136725  0.4994683913743469
  0.3353855055614233  0.0948898379992404  0.4988868514466427
  0.6650127956413979  0.5907668466136725  0.4994683913743469
  0.6646145374385768  0.0948898379992404  0.4988868514466427
  0.4999000299999992  0.8461375359287071  0.6078039331137467
 
  0.00000000E+00  0.00000000E+00  0.00000000E+00
  0.00000000E+00  0.00000000E+00  0.00000000E+00
  0.00000000E+00  0.00000000E+00  0.00000000E+00
  0.00000000E+00  0.00000000E+00  0.00000000E+00
  0.00000000E+00  0.00000000E+00  0.00000000E+00
  0.00000000E+00  0.00000000E+00  0.00000000E+00
  0.00000000E+00  0.00000000E+00  0.00000000E+00
  0.00000000E+00  0.00000000E+00  0.00000000E+00
  0.00000000E+00  0.00000000E+00  0.00000000E+00
  0.00000000E+00  0.00000000E+00  0.00000000E+00
  0.00000000E+00  0.00000000E+00  0.00000000E+00
  0.00000000E+00  0.00000000E+00  0.00000000E+00
  0.00000000E+00  0.00000000E+00  0.00000000E+00
  0.00000000E+00  0.00000000E+00  0.00000000E+00
  0.00000000E+00  0.00000000E+00  0.00000000E+00
  0.00000000E+00  0.00000000E+00  0.00000000E+00
  0.00000000E+00  0.00000000E+00  0.00000000E+00
  0.00000000E+00  0.00000000E+00  0.00000000E+00
  0.00000000E+00  0.00000000E+00  0.00000000E+00
  0.00000000E+00  0.00000000E+00  0.00000000E+00
  0.00000000E+00  0.00000000E+00  0.00000000E+00
  0.00000000E+00  0.00000000E+00  0.00000000E+00
  0.00000000E+00  0.00000000E+00  0.00000000E+00
  0.00000000E+00  0.00000000E+00  0.00000000E+00
  0.00000000E+00  0.00000000E+00  0.00000000E+00
  0.00000000E+00  0.00000000E+00  0.00000000E+00
  0.00000000E+00  0.00000000E+00  0.00000000E+00
  0.00000000E+00  0.00000000E+00  0.00000000E+00
  0.00000000E+00  0.00000000E+00  0.00000000E+00
  0.00000000E+00  0.00000000E+00  0.00000000E+00
  0.00000000E+00  0.00000000E+00  0.00000000E+00
  0.00000000E+00  0.00000000E+00  0.00000000E+00
  0.00000000E+00  0.00000000E+00  0.00000000E+00
  0.00000000E+00  0.00000000E+00  0.00000000E+00
  0.00000000E+00  0.00000000E+00  0.00000000E+00
  0.00000000E+00  0.00000000E+00  0.00000000E+00
  0.00000000E+00  0.00000000E+00  0.00000000E+00
  0.00000000E+00  0.00000000E+00  0.00000000E+00
  0.00000000E+00  0.00000000E+00  0.00000000E+00
  0.00000000E+00  0.00000000E+00  0.00000000E+00
  0.00000000E+00  0.00000000E+00  0.00000000E+00
  0.00000000E+00  0.00000000E+00  0.00000000E+00
  0.00000000E+00  0.00000000E+00  0.00000000E+00
