G   36   36    1    0.005     # Parameters to Generate KPOINTS (Don't Edit This Line)
     127
Reciprocal lattice
    0.000000000000    0.000000000000    0.000000000000       1
    0.027777777778    0.000000000000    0.000000000000       6
    0.055555555556    0.000000000000    0.000000000000       6
    0.083333333333    0.000000000000    0.000000000000       6
    0.111111111111    0.000000000000    0.000000000000       6
    0.138888888889    0.000000000000    0.000000000000       6
    0.166666666667    0.000000000000    0.000000000000       6
    0.194444444444    0.000000000000    0.000000000000       6
    0.222222222222    0.000000000000    0.000000000000       6
    0.250000000000    0.000000000000    0.000000000000       6
    0.277777777778    0.000000000000    0.000000000000       6
    0.305555555556    0.000000000000    0.000000000000       6
    0.333333333333    0.000000000000    0.000000000000       6
    0.361111111111    0.000000000000    0.000000000000       6
    0.388888888889    0.000000000000    0.000000000000       6
    0.416666666667    0.000000000000    0.000000000000       6
    0.444444444444    0.000000000000    0.000000000000       6
    0.472222222222    0.000000000000    0.000000000000       6
    0.500000000000    0.000000000000    0.000000000000       3
    0.027777777778    0.027777777778    0.000000000000       6
    0.055555555556    0.027777777778    0.000000000000      12
    0.083333333333    0.027777777778    0.000000000000      12
    0.111111111111    0.027777777778    0.000000000000      12
    0.138888888889    0.027777777778    0.000000000000      12
    0.166666666667    0.027777777778    0.000000000000      12
    0.194444444444    0.027777777778    0.000000000000      12
    0.222222222222    0.027777777778    0.000000000000      12
    0.250000000000    0.027777777778    0.000000000000      12
    0.277777777778    0.027777777778    0.000000000000      12
    0.305555555556    0.027777777778    0.000000000000      12
    0.333333333333    0.027777777778    0.000000000000      12
    0.361111111111    0.027777777778    0.000000000000      12
    0.388888888889    0.027777777778    0.000000000000      12
    0.416666666667    0.027777777778    0.000000000000      12
    0.444444444444    0.027777777778    0.000000000000      12
    0.472222222222    0.027777777778    0.000000000000      12
    0.055555555556    0.055555555556    0.000000000000       6
    0.083333333333    0.055555555556    0.000000000000      12
    0.111111111111    0.055555555556    0.000000000000      12
    0.138888888889    0.055555555556    0.000000000000      12
    0.166666666667    0.055555555556    0.000000000000      12
    0.194444444444    0.055555555556    0.000000000000      12
    0.222222222222    0.055555555556    0.000000000000      12
    0.250000000000    0.055555555556    0.000000000000      12
    0.277777777778    0.055555555556    0.000000000000      12
    0.305555555556    0.055555555556    0.000000000000      12
    0.333333333333    0.055555555556    0.000000000000      12
    0.361111111111    0.055555555556    0.000000000000      12
    0.388888888889    0.055555555556    0.000000000000      12
    0.416666666667    0.055555555556    0.000000000000      12
    0.444444444444    0.055555555556    0.000000000000      12
    0.472222222222    0.055555555556    0.000000000000       6
    0.083333333333    0.083333333333    0.000000000000       6
    0.111111111111    0.083333333333    0.000000000000      12
    0.138888888889    0.083333333333    0.000000000000      12
    0.166666666667    0.083333333333    0.000000000000      12
    0.194444444444    0.083333333333    0.000000000000      12
    0.222222222222    0.083333333333    0.000000000000      12
    0.250000000000    0.083333333333    0.000000000000      12
    0.277777777778    0.083333333333    0.000000000000      12
    0.305555555556    0.083333333333    0.000000000000      12
    0.333333333333    0.083333333333    0.000000000000      12
    0.361111111111    0.083333333333    0.000000000000      12
    0.388888888889    0.083333333333    0.000000000000      12
    0.416666666667    0.083333333333    0.000000000000      12
    0.444444444444    0.083333333333    0.000000000000      12
    0.111111111111    0.111111111111    0.000000000000       6
    0.138888888889    0.111111111111    0.000000000000      12
    0.166666666667    0.111111111111    0.000000000000      12
    0.194444444444    0.111111111111    0.000000000000      12
    0.222222222222    0.111111111111    0.000000000000      12
    0.250000000000    0.111111111111    0.000000000000      12
    0.277777777778    0.111111111111    0.000000000000      12
    0.305555555556    0.111111111111    0.000000000000      12
    0.333333333333    0.111111111111    0.000000000000      12
    0.361111111111    0.111111111111    0.000000000000      12
    0.388888888889    0.111111111111    0.000000000000      12
    0.416666666667    0.111111111111    0.000000000000      12
    0.444444444444    0.111111111111    0.000000000000       6
    0.138888888889    0.138888888889    0.000000000000       6
    0.166666666667    0.138888888889    0.000000000000      12
    0.194444444444    0.138888888889    0.000000000000      12
    0.222222222222    0.138888888889    0.000000000000      12
    0.250000000000    0.138888888889    0.000000000000      12
    0.277777777778    0.138888888889    0.000000000000      12
    0.305555555556    0.138888888889    0.000000000000      12
    0.333333333333    0.138888888889    0.000000000000      12
    0.361111111111    0.138888888889    0.000000000000      12
    0.388888888889    0.138888888889    0.000000000000      12
    0.416666666667    0.138888888889    0.000000000000      12
    0.166666666667    0.166666666667    0.000000000000       6
    0.194444444444    0.166666666667    0.000000000000      12
    0.222222222222    0.166666666667    0.000000000000      12
    0.250000000000    0.166666666667    0.000000000000      12
    0.277777777778    0.166666666667    0.000000000000      12
    0.305555555556    0.166666666667    0.000000000000      12
    0.333333333333    0.166666666667    0.000000000000      12
    0.361111111111    0.166666666667    0.000000000000      12
    0.388888888889    0.166666666667    0.000000000000      12
    0.416666666667    0.166666666667    0.000000000000       6
    0.194444444444    0.194444444444    0.000000000000       6
    0.222222222222    0.194444444444    0.000000000000      12
    0.250000000000    0.194444444444    0.000000000000      12
    0.277777777778    0.194444444444    0.000000000000      12
    0.305555555556    0.194444444444    0.000000000000      12
    0.333333333333    0.194444444444    0.000000000000      12
    0.361111111111    0.194444444444    0.000000000000      12
    0.388888888889    0.194444444444    0.000000000000      12
    0.222222222222    0.222222222222    0.000000000000       6
    0.250000000000    0.222222222222    0.000000000000      12
    0.277777777778    0.222222222222    0.000000000000      12
    0.305555555556    0.222222222222    0.000000000000      12
    0.333333333333    0.222222222222    0.000000000000      12
    0.361111111111    0.222222222222    0.000000000000      12
    0.388888888889    0.222222222222    0.000000000000       6
    0.250000000000    0.250000000000    0.000000000000       6
    0.277777777778    0.250000000000    0.000000000000      12
    0.305555555556    0.250000000000    0.000000000000      12
    0.333333333333    0.250000000000    0.000000000000      12
    0.361111111111    0.250000000000    0.000000000000      12
    0.277777777778    0.277777777778    0.000000000000       6
    0.305555555556    0.277777777778    0.000000000000      12
    0.333333333333    0.277777777778    0.000000000000      12
    0.361111111111    0.277777777778    0.000000000000       6
    0.305555555556    0.305555555556    0.000000000000       6
    0.333333333333    0.305555555556    0.000000000000      12
    0.333333333333    0.333333333333    0.000000000000       2
