CONTCAR\(16)                            
   1.00000000000000     
    12.3274002075000002    0.0000000000000000    0.0000000000000000
     0.0000000000000000   15.7540998459000008    0.0000000000000000
     0.0000000000000000    0.0000000000000000   20.2700004577999984
   Pr   Br   O 
    12    30     1
Direct
  0.2531017257668304  0.6387024033389167  0.5119538210040652
  0.0834454670613251  0.3621326007095614  0.4760539776429965
  0.2458450201573405  0.1349703433411322  0.5242758113585613
  0.0841052344961917  0.8650896530520371  0.4634351537119220
  0.5832197476798338  0.6311957648802369  0.6184403891199965
  0.4183899798121674  0.3682308365651847  0.4792397254075444
  0.5859331774960400  0.1323171233873137  0.5267058396261450
  0.4080506096428565  0.8628572448080528  0.4665105875498778
  0.9129700743396455  0.6370027850279544  0.5119987890734561
  0.7486105976052548  0.3650034663434673  0.4799433811712521
  0.9182452458888136  0.1359068982628667  0.5239867239936912
  0.7578550341207168  0.8628180236841184  0.4658099985364069
  0.2497881792336279  0.8828023419438998  0.3619358257731052
  0.0825746804605952  0.1211216477954874  0.6273778398914613
  0.2509444198186496  0.4828374937512472  0.4164991925969988
  0.0836404615088020  0.5165403618170785  0.5690609459923291
  0.0831263218524954  0.0621637175496448  0.4308095420065760
  0.2442042767124180  0.9432265670719339  0.5565655208619970
  0.0823092901047775  0.7434581959226082  0.5822035947716353
  0.2553322261098654  0.2572813357031816  0.4057353342916107
  0.0827971179414034  0.6825315145920772  0.4106812260114089
  0.2476926937145452  0.3141157697878830  0.5785092248173911
  0.5828791966409311  0.8751393312272854  0.3692266236922809
  0.4153920573924624  0.1209846160203153  0.6253928131876321
  0.5842617429946213  0.4827098353346974  0.4278563329203125
  0.3951581173247540  0.5111495435197576  0.5803536814149345
  0.4169262105659373  0.0596859247790168  0.4351354780817677
  0.5834908322837689  0.9328885664161352  0.5565442213827576
  0.3911844504286426  0.7539686382761842  0.5929717303582966
  0.5818050033991210  0.2544127007474450  0.4094317019380804
  0.4166910903506048  0.6863305288679309  0.4176482578892536
  0.5821300214247680  0.3154833633791809  0.5814679774035494
  0.9175620827514261  0.8821320850476604  0.3619727982831352
  0.7518590698639086  0.1188421925928076  0.6271429747849495
  0.9153954291044878  0.4817530944715603  0.4169692872241274
  0.7707571100749201  0.5103359840363529  0.5804990672418726
  0.7498285928696968  0.0590056091624496  0.4338080243097426
  0.9220532364767322  0.9430445536724120  0.5555724163107469
  0.7751198307577335  0.7535395008075171  0.5918167940793873
  0.9133739100986228  0.2569507019155928  0.4053039326312239
  0.7513748908785425  0.6862321343063554  0.4167055396381195
  0.9204076596797141  0.3141990013906068  0.5789881952075326
  0.5834081391144679  0.6196955856928648  0.7127694998098681
 
  0.00000000E+00  0.00000000E+00  0.00000000E+00
  0.00000000E+00  0.00000000E+00  0.00000000E+00
  0.00000000E+00  0.00000000E+00  0.00000000E+00
  0.00000000E+00  0.00000000E+00  0.00000000E+00
  0.00000000E+00  0.00000000E+00  0.00000000E+00
  0.00000000E+00  0.00000000E+00  0.00000000E+00
  0.00000000E+00  0.00000000E+00  0.00000000E+00
  0.00000000E+00  0.00000000E+00  0.00000000E+00
  0.00000000E+00  0.00000000E+00  0.00000000E+00
  0.00000000E+00  0.00000000E+00  0.00000000E+00
  0.00000000E+00  0.00000000E+00  0.00000000E+00
  0.00000000E+00  0.00000000E+00  0.00000000E+00
  0.00000000E+00  0.00000000E+00  0.00000000E+00
  0.00000000E+00  0.00000000E+00  0.00000000E+00
  0.00000000E+00  0.00000000E+00  0.00000000E+00
  0.00000000E+00  0.00000000E+00  0.00000000E+00
  0.00000000E+00  0.00000000E+00  0.00000000E+00
  0.00000000E+00  0.00000000E+00  0.00000000E+00
  0.00000000E+00  0.00000000E+00  0.00000000E+00
  0.00000000E+00  0.00000000E+00  0.00000000E+00
  0.00000000E+00  0.00000000E+00  0.00000000E+00
  0.00000000E+00  0.00000000E+00  0.00000000E+00
  0.00000000E+00  0.00000000E+00  0.00000000E+00
  0.00000000E+00  0.00000000E+00  0.00000000E+00
  0.00000000E+00  0.00000000E+00  0.00000000E+00
  0.00000000E+00  0.00000000E+00  0.00000000E+00
  0.00000000E+00  0.00000000E+00  0.00000000E+00
  0.00000000E+00  0.00000000E+00  0.00000000E+00
  0.00000000E+00  0.00000000E+00  0.00000000E+00
  0.00000000E+00  0.00000000E+00  0.00000000E+00
  0.00000000E+00  0.00000000E+00  0.00000000E+00
  0.00000000E+00  0.00000000E+00  0.00000000E+00
  0.00000000E+00  0.00000000E+00  0.00000000E+00
  0.00000000E+00  0.00000000E+00  0.00000000E+00
  0.00000000E+00  0.00000000E+00  0.00000000E+00
  0.00000000E+00  0.00000000E+00  0.00000000E+00
  0.00000000E+00  0.00000000E+00  0.00000000E+00
  0.00000000E+00  0.00000000E+00  0.00000000E+00
  0.00000000E+00  0.00000000E+00  0.00000000E+00
  0.00000000E+00  0.00000000E+00  0.00000000E+00
  0.00000000E+00  0.00000000E+00  0.00000000E+00
  0.00000000E+00  0.00000000E+00  0.00000000E+00
  0.00000000E+00  0.00000000E+00  0.00000000E+00
