CONTCAR\(10)                            
   1.00000000000000     
    12.7571001052999993    0.0000000000000000    0.0000000000000000
     0.0000000000000000   15.8464002608999994    0.0000000000000000
     0.0000000000000000    0.0000000000000000   20.2327003478999998
   Ti   Cl   O 
    32    32    33
Direct
  0.1180184720336938  0.0036898962689627  0.5388223434597263
  0.0023919021021962  0.1281065696322945  0.4660126390173326
  0.3764852851251910  0.0046979347935173  0.5376426464684274
  0.2661645394404231  0.1262575710659039  0.4596553022299177
  0.6378921317185277  0.0015500407039843  0.5402523481436711
  0.4812426073279648  0.1241378562373399  0.4596284613210016
  0.8588438128507657 -0.0006030087679576  0.5409404800519729
  0.7459145387642629  0.1211410553787370  0.4650765778918318
  0.1100686499892181  0.2479054203153384  0.5408053616336047
  0.9953322917149439  0.3706767405306498  0.4610541227135783
  0.3710222789008064  0.2457237998447288  0.5374004428572636
  0.2442674008106156  0.3768284548476991  0.4600275681949229
  0.6299629170140032  0.2459570372653411  0.5394117491961062
  0.4999020135739285  0.3796639759947689  0.4637129749440704
  0.8879529088894986  0.2513819178886921  0.5410325047630469
  0.7542614168349956  0.3769278902574138  0.4579194183590080
  0.1253534680186052  0.5031020382441412  0.5376923537860034
  0.9817470182287100  0.6266128492238225  0.4576720375508719
  0.3905820235158469  0.4996442993661797  0.5451187476209282
  0.2438648610810301  0.6282706410331097  0.4639763219401380
  0.6093806179380210  0.5014296184363021  0.5445263493378993
  0.5022765096688144  0.6224796532182628  0.4642704313061344
  0.8723299604203073  0.5035160364992275  0.5359672556514795
  0.7662663766705601  0.6232270909660395  0.4582445694170646
  0.1388477824947569  0.7480269998052267  0.5411384941007427
 -0.0019070905090361  0.8751514784516369  0.4599299017663583
  0.3572078466337381  0.7499347810798958  0.5410444640550751
  0.2494127239069454  0.8699513131911716  0.4640317803850514
  0.6181975243218401  0.7466790915328047  0.5372248551921728
  0.5012350353598497  0.8734350379372184  0.4614820465135496
  0.8759211075595859  0.7453299427814924  0.5372762208454872
  0.7492764488997027  0.8795807665190235  0.4638003379276725
  0.1262165311260104  0.1212883829906386  0.3766826421349736
  0.9969800097081223  0.9995764329353246  0.6271423284400197
  0.3737207247288075  0.1251797227253527  0.3660428261945960
  0.2469723822176136  0.9923007069411844  0.6267524095255145
  0.6211897098328896  0.1295407971697733  0.3764449872862924
  0.5000526378929633  0.9956072499693521  0.6264295075992374
  0.8740806012603416  0.1257931081730158  0.3760962391892768
  0.7484148848468734  0.9977442133515153  0.6333149034516115
  0.1248166046941289  0.3774651137877427  0.3712957495982863
  0.9990005931315979  0.2529582833583726  0.6334140938551686
  0.3740155790271086  0.3661980290638255  0.3736845023859756
  0.2477671644039296  0.2566107052949695  0.6262641555255873
  0.6228564525129512  0.3730629835192894  0.3724150711632576
  0.5003059079323625  0.2612528403819007  0.6265209509042020
  0.8742361263639389  0.3778657386098048  0.3695183492005222
  0.7500861319319801  0.2502183853156800  0.6277749412587640
  0.1212474794409750  0.6223861426203117  0.3742084033253403
  0.0005047847308127  0.4946844144148861  0.6261699659014061
  0.3735433215957598  0.6227872885903682  0.3749382204664428
  0.2495570852889892  0.5009356341968957  0.6265944311359305
  0.6253393009896681  0.6279483052851145  0.3751002405669202
  0.4996941495331295  0.4994662316598955  0.6317960886425527
  0.8732359938443638  0.6257456203506938  0.3642432255399889
  0.7489700357572574  0.4958576945255922  0.6261783741692789
  0.1239462543488238  0.8777629568602603  0.3728579116053798
  0.0000419807474386  0.7539206690601966  0.6259380415519227
  0.3739950559722088  0.8839078453439756  0.3739579624279672
  0.2484980439391260  0.7508865857877027  0.6341012955464804
  0.6233502416676857  0.8717671531853348  0.3731461768951350
  0.4967452530363447  0.7456587061260889  0.6259009121441336
  0.8734537477122376  0.8692036232217669  0.3726933552123683
  0.7465672295241575  0.7543434658923984  0.6259537436109164
  0.9958774926723097  0.9983681135682174  0.4742183284999587
  0.1278042660705982  0.1252077842840553  0.5315839757145553
  0.2452644301074774  0.0011975954586215  0.4791558501687501
  0.3738199267414840  0.1253976615879535  0.5416335991107180
  0.5022534046107675  0.0003502839382090  0.4751831087480601
  0.6208081229679849  0.1256446952200687  0.5311612751315737
  0.7490352791827983 -0.0006000695106403  0.4613562257044910
  0.8737288082251093  0.1251138850005457  0.5275829205004140
 -0.0010877121104588  0.2509458767031239  0.4621416461005456
  0.1230850357846312  0.3755779942861356  0.5250666464912217
  0.2451281659526345  0.2504623831554855  0.4751265931179633
  0.3708232047793064  0.3768829837928726  0.5217631004452810
  0.5026761780959662  0.2496747684728638  0.4792859590203907
  0.6266200799542072  0.3755039136683750  0.5223517498472467
  0.7506828330857372  0.2521833717829344  0.4758893257585140
  0.8714495310295324  0.3745162240896419  0.5277171900576891
  0.0015297766851639  0.5013562467970862  0.4750834617062092
  0.1181285581975696  0.6252774838792086  0.5289356989549836
  0.2480920859547080  0.4987880287258662  0.4745131460812332
  0.3729717790694950  0.6234674969115300  0.5241910036714948
  0.4990290596514168  0.4995813946044707  0.4637264331489905
  0.6292552174644647  0.6232563300387791  0.5280050466235824
  0.7482144875931606  0.4993992094637429  0.4718760337162531
  0.8745071010177976  0.6247671475722528  0.5394934752265662
  0.0006335554896147  0.7504018091970239  0.4735076931874443
  0.1219484144051597  0.8749035368467672  0.5243726547046735
  0.2485945694379995  0.7501762925867763  0.4606864869818922
  0.3770523267066785  0.8740739664376161  0.5247359572048647
  0.4946203595117918  0.7502998590080223  0.4727353036299374
  0.6227630584701772  0.8742403704970357  0.5268681887234866
  0.7456757323309749  0.7484160907139196  0.4775116342020944
  0.8765976716711273  0.8750328405469613  0.5258843372385892
  0.4985197271516917  0.4986547004222963  0.7087228534827676
 
  0.00000000E+00  0.00000000E+00  0.00000000E+00
  0.00000000E+00  0.00000000E+00  0.00000000E+00
  0.00000000E+00  0.00000000E+00  0.00000000E+00
  0.00000000E+00  0.00000000E+00  0.00000000E+00
  0.00000000E+00  0.00000000E+00  0.00000000E+00
  0.00000000E+00  0.00000000E+00  0.00000000E+00
  0.00000000E+00  0.00000000E+00  0.00000000E+00
  0.00000000E+00  0.00000000E+00  0.00000000E+00
  0.00000000E+00  0.00000000E+00  0.00000000E+00
  0.00000000E+00  0.00000000E+00  0.00000000E+00
  0.00000000E+00  0.00000000E+00  0.00000000E+00
  0.00000000E+00  0.00000000E+00  0.00000000E+00
  0.00000000E+00  0.00000000E+00  0.00000000E+00
  0.00000000E+00  0.00000000E+00  0.00000000E+00
  0.00000000E+00  0.00000000E+00  0.00000000E+00
  0.00000000E+00  0.00000000E+00  0.00000000E+00
  0.00000000E+00  0.00000000E+00  0.00000000E+00
  0.00000000E+00  0.00000000E+00  0.00000000E+00
  0.00000000E+00  0.00000000E+00  0.00000000E+00
  0.00000000E+00  0.00000000E+00  0.00000000E+00
  0.00000000E+00  0.00000000E+00  0.00000000E+00
  0.00000000E+00  0.00000000E+00  0.00000000E+00
  0.00000000E+00  0.00000000E+00  0.00000000E+00
  0.00000000E+00  0.00000000E+00  0.00000000E+00
  0.00000000E+00  0.00000000E+00  0.00000000E+00
  0.00000000E+00  0.00000000E+00  0.00000000E+00
  0.00000000E+00  0.00000000E+00  0.00000000E+00
  0.00000000E+00  0.00000000E+00  0.00000000E+00
  0.00000000E+00  0.00000000E+00  0.00000000E+00
  0.00000000E+00  0.00000000E+00  0.00000000E+00
  0.00000000E+00  0.00000000E+00  0.00000000E+00
  0.00000000E+00  0.00000000E+00  0.00000000E+00
  0.00000000E+00  0.00000000E+00  0.00000000E+00
  0.00000000E+00  0.00000000E+00  0.00000000E+00
  0.00000000E+00  0.00000000E+00  0.00000000E+00
  0.00000000E+00  0.00000000E+00  0.00000000E+00
  0.00000000E+00  0.00000000E+00  0.00000000E+00
  0.00000000E+00  0.00000000E+00  0.00000000E+00
  0.00000000E+00  0.00000000E+00  0.00000000E+00
  0.00000000E+00  0.00000000E+00  0.00000000E+00
  0.00000000E+00  0.00000000E+00  0.00000000E+00
  0.00000000E+00  0.00000000E+00  0.00000000E+00
  0.00000000E+00  0.00000000E+00  0.00000000E+00
  0.00000000E+00  0.00000000E+00  0.00000000E+00
  0.00000000E+00  0.00000000E+00  0.00000000E+00
  0.00000000E+00  0.00000000E+00  0.00000000E+00
  0.00000000E+00  0.00000000E+00  0.00000000E+00
  0.00000000E+00  0.00000000E+00  0.00000000E+00
  0.00000000E+00  0.00000000E+00  0.00000000E+00
  0.00000000E+00  0.00000000E+00  0.00000000E+00
  0.00000000E+00  0.00000000E+00  0.00000000E+00
  0.00000000E+00  0.00000000E+00  0.00000000E+00
  0.00000000E+00  0.00000000E+00  0.00000000E+00
  0.00000000E+00  0.00000000E+00  0.00000000E+00
  0.00000000E+00  0.00000000E+00  0.00000000E+00
  0.00000000E+00  0.00000000E+00  0.00000000E+00
  0.00000000E+00  0.00000000E+00  0.00000000E+00
  0.00000000E+00  0.00000000E+00  0.00000000E+00
  0.00000000E+00  0.00000000E+00  0.00000000E+00
  0.00000000E+00  0.00000000E+00  0.00000000E+00
  0.00000000E+00  0.00000000E+00  0.00000000E+00
  0.00000000E+00  0.00000000E+00  0.00000000E+00
  0.00000000E+00  0.00000000E+00  0.00000000E+00
  0.00000000E+00  0.00000000E+00  0.00000000E+00
  0.00000000E+00  0.00000000E+00  0.00000000E+00
  0.00000000E+00  0.00000000E+00  0.00000000E+00
  0.00000000E+00  0.00000000E+00  0.00000000E+00
  0.00000000E+00  0.00000000E+00  0.00000000E+00
  0.00000000E+00  0.00000000E+00  0.00000000E+00
  0.00000000E+00  0.00000000E+00  0.00000000E+00
  0.00000000E+00  0.00000000E+00  0.00000000E+00
  0.00000000E+00  0.00000000E+00  0.00000000E+00
  0.00000000E+00  0.00000000E+00  0.00000000E+00
  0.00000000E+00  0.00000000E+00  0.00000000E+00
  0.00000000E+00  0.00000000E+00  0.00000000E+00
  0.00000000E+00  0.00000000E+00  0.00000000E+00
  0.00000000E+00  0.00000000E+00  0.00000000E+00
  0.00000000E+00  0.00000000E+00  0.00000000E+00
  0.00000000E+00  0.00000000E+00  0.00000000E+00
  0.00000000E+00  0.00000000E+00  0.00000000E+00
  0.00000000E+00  0.00000000E+00  0.00000000E+00
  0.00000000E+00  0.00000000E+00  0.00000000E+00
  0.00000000E+00  0.00000000E+00  0.00000000E+00
  0.00000000E+00  0.00000000E+00  0.00000000E+00
  0.00000000E+00  0.00000000E+00  0.00000000E+00
  0.00000000E+00  0.00000000E+00  0.00000000E+00
  0.00000000E+00  0.00000000E+00  0.00000000E+00
  0.00000000E+00  0.00000000E+00  0.00000000E+00
  0.00000000E+00  0.00000000E+00  0.00000000E+00
  0.00000000E+00  0.00000000E+00  0.00000000E+00
  0.00000000E+00  0.00000000E+00  0.00000000E+00
  0.00000000E+00  0.00000000E+00  0.00000000E+00
  0.00000000E+00  0.00000000E+00  0.00000000E+00
  0.00000000E+00  0.00000000E+00  0.00000000E+00
  0.00000000E+00  0.00000000E+00  0.00000000E+00
  0.00000000E+00  0.00000000E+00  0.00000000E+00
  0.00000000E+00  0.00000000E+00  0.00000000E+00
