CONTCAR\(2)                             
   1.00000000000000     
     6.8949999808999998    0.0000000000000000    0.0000000000000000
     3.4474999904999999    5.9712451425999999    0.0000000000000000
     0.0000000000000000    0.0000000000000000   18.3700008391999994
   Nb   Se   O    H 
     4     8     4     4
Direct
  0.1595242785165716  0.1635539498593016  0.4994112899037767
  0.6589010185659131  0.1635467771458045  0.4996476793906283
  0.1589009805659098  0.6635468191458085  0.4996476793906283
  0.6595242375165713  0.6635439698592999  0.4994112899037767
  0.3262199564182000  0.3294576139264777  0.5841279588365109
  0.3264029155295287  0.3304183766835642  0.4067798639471560
  0.8259029540829694  0.3307490760031225  0.5921377845009310
  0.8254308062841861  0.3306597152989581  0.4151181241046453
  0.3259029600829699  0.8307490280031257  0.5921377845009310
  0.3254308122841867  0.8306596672989617  0.4151181241046453
  0.8262199274182010  0.8294575659264813  0.5841279588365109
  0.8264028865295306  0.8304183286835671  0.4067798639471560
  0.3532571146336196  0.3130247916396053  0.6852066474171642
  0.8119420058502351  0.3586232197928301  0.3140619123549823
  0.3119419928502303  0.8586232117928289  0.3140619123549823
  0.8532570516336259  0.8130247436396022  0.6852066474171642
  0.2115014557118401  0.4379172539406250  0.7035225996107994
  0.9487574614069286  0.2267992847096965  0.2960262349333970
  0.4487573784069330  0.7267992767096960  0.2960262349333970
  0.7115014877118356  0.9379172259406301  0.7035225996107994
 
  0.00000000E+00  0.00000000E+00  0.00000000E+00
  0.00000000E+00  0.00000000E+00  0.00000000E+00
  0.00000000E+00  0.00000000E+00  0.00000000E+00
  0.00000000E+00  0.00000000E+00  0.00000000E+00
  0.00000000E+00  0.00000000E+00  0.00000000E+00
  0.00000000E+00  0.00000000E+00  0.00000000E+00
  0.00000000E+00  0.00000000E+00  0.00000000E+00
  0.00000000E+00  0.00000000E+00  0.00000000E+00
  0.00000000E+00  0.00000000E+00  0.00000000E+00
  0.00000000E+00  0.00000000E+00  0.00000000E+00
  0.00000000E+00  0.00000000E+00  0.00000000E+00
  0.00000000E+00  0.00000000E+00  0.00000000E+00
  0.00000000E+00  0.00000000E+00  0.00000000E+00
  0.00000000E+00  0.00000000E+00  0.00000000E+00
  0.00000000E+00  0.00000000E+00  0.00000000E+00
  0.00000000E+00  0.00000000E+00  0.00000000E+00
  0.00000000E+00  0.00000000E+00  0.00000000E+00
  0.00000000E+00  0.00000000E+00  0.00000000E+00
  0.00000000E+00  0.00000000E+00  0.00000000E+00
  0.00000000E+00  0.00000000E+00  0.00000000E+00
