CONTCAR\(5)                             
   1.00000000000000     
     3.9223001003000002    0.0000000000000000    0.0000000000000000
     1.9611500502000001    3.3968115281000002    0.0000000000000000
     0.0000000000000000    0.0000000000000000   18.9503002167000005
   Te   Pt   O 
     2     2     2
Selective dynamics
Direct
  0.6679513121846341  0.6662619929504459  0.6109310559979875   F   F   F
  0.6669441950112684  0.6667257286241082  0.3890955638180813   F   F   F
  0.3350115186831886  0.3325589756362248  0.5426350366628654   F   F   F
  0.9987578970750377  0.0008634296238128  0.4573191790981781   F   F   F
  0.6524264098152770  0.6773426739275834  0.7071510389536471   T   T   T
  0.6939887912306161  0.6528372082378127  0.2921665362810955   T   T   T
 
  0.00000000E+00  0.00000000E+00  0.00000000E+00
  0.00000000E+00  0.00000000E+00  0.00000000E+00
  0.00000000E+00  0.00000000E+00  0.00000000E+00
  0.00000000E+00  0.00000000E+00  0.00000000E+00
  0.00000000E+00  0.00000000E+00  0.00000000E+00
  0.00000000E+00  0.00000000E+00  0.00000000E+00
