 Ag4 Ru4 F28                            
   1.00000000000000     
     4.1272917770191686    0.0000000000000000    0.0000000000000000
     0.0000000000000000    8.0694958098680143    0.0000000000000000
     0.0000000000000000    0.0000000000000000   23.5561933936160024
   Ag   Ru   F 
     4     4    28
Direct
  0.2534064932732395  0.6159057681889125  0.4618186463314341
  0.7531638049777015  0.8680722978706807  0.5523115762265816
  0.7387353337726245  0.3511692776366366  0.5528593241548928
  0.2331915278282944  0.1173512686982356  0.4546776848574947
  0.2602128341983889  0.5989046120645822  0.6746074792676329
  0.7474554252661684  0.8888892957273823  0.3253959073288491
  0.7482290071736640  0.3902089889622504  0.3254380105750438
  0.2499498767817050  0.0987636142535952  0.6765668159519882
  0.7534607867672698  0.6193459126853432  0.4778520562381884
  0.2569965320303938  0.8630018411391649  0.5035430670907307
  0.2282927299894024  0.3639670881889726  0.5030515478083957
  0.7334295719801964  0.1220678708477162  0.4847216603680078
  0.5038123254998700  0.7536277165674860  0.7125055071845285
  0.9915626915298881  0.7340271051163438  0.2876069764175112
  0.5035744550128411  0.2351189370065011  0.2877456464563464
  0.0053056196565752  0.2541518562903022  0.7139402829368965
  0.4989351124408001  0.9426493205655537  0.6360496058196019
  0.9933877025149080  0.5453467874499990  0.3659185474686772
  0.5055515848078677  0.0462322668543917  0.3659229812370001
  0.0141350643390017  0.4411341283823483  0.6343988984786626
  0.0047657435144256  0.9422087350469004  0.7132519562061436
  0.5023743449888123  0.5453934356376928  0.2881775307023736
 -0.0079386247571979  0.0445724688258011  0.2879289830277570
  0.5034123742224348  0.4441244963930471  0.7126390242915960
  0.0038375023263220  0.1003016079422456  0.6071909111084529
  0.4896110856150870  0.3885822224002983  0.3920749018760484
  0.0072950727227494  0.8882681915429732  0.3920751391187465
  0.5115374173125721  0.5986309321214031  0.6055584091049898
  0.5137296364712671  0.0977539815928119  0.7394450997496391
  0.0141385741731271  0.3905087495167436  0.2627712409046143
  0.4797913198826387  0.8892600624315558  0.2629681565279522
  0.9933694405478771  0.5993402895956852  0.7370740560211431
  0.5018181018854875  0.2537717227277190  0.6362558785087288
 -0.0059565215755916  0.2344777832874673  0.3657099040236286
  0.5024973848591859  0.7352042404329522  0.3663683669199331
  0.0129286679700245  0.7544291260083288  0.6335782197097821
 
  0.00000000E+00  0.00000000E+00  0.00000000E+00
  0.00000000E+00  0.00000000E+00  0.00000000E+00
  0.00000000E+00  0.00000000E+00  0.00000000E+00
  0.00000000E+00  0.00000000E+00  0.00000000E+00
  0.00000000E+00  0.00000000E+00  0.00000000E+00
  0.00000000E+00  0.00000000E+00  0.00000000E+00
  0.00000000E+00  0.00000000E+00  0.00000000E+00
  0.00000000E+00  0.00000000E+00  0.00000000E+00
  0.00000000E+00  0.00000000E+00  0.00000000E+00
  0.00000000E+00  0.00000000E+00  0.00000000E+00
  0.00000000E+00  0.00000000E+00  0.00000000E+00
  0.00000000E+00  0.00000000E+00  0.00000000E+00
  0.00000000E+00  0.00000000E+00  0.00000000E+00
  0.00000000E+00  0.00000000E+00  0.00000000E+00
  0.00000000E+00  0.00000000E+00  0.00000000E+00
  0.00000000E+00  0.00000000E+00  0.00000000E+00
  0.00000000E+00  0.00000000E+00  0.00000000E+00
  0.00000000E+00  0.00000000E+00  0.00000000E+00
  0.00000000E+00  0.00000000E+00  0.00000000E+00
  0.00000000E+00  0.00000000E+00  0.00000000E+00
  0.00000000E+00  0.00000000E+00  0.00000000E+00
  0.00000000E+00  0.00000000E+00  0.00000000E+00
  0.00000000E+00  0.00000000E+00  0.00000000E+00
  0.00000000E+00  0.00000000E+00  0.00000000E+00
  0.00000000E+00  0.00000000E+00  0.00000000E+00
  0.00000000E+00  0.00000000E+00  0.00000000E+00
  0.00000000E+00  0.00000000E+00  0.00000000E+00
  0.00000000E+00  0.00000000E+00  0.00000000E+00
  0.00000000E+00  0.00000000E+00  0.00000000E+00
  0.00000000E+00  0.00000000E+00  0.00000000E+00
  0.00000000E+00  0.00000000E+00  0.00000000E+00
  0.00000000E+00  0.00000000E+00  0.00000000E+00
  0.00000000E+00  0.00000000E+00  0.00000000E+00
  0.00000000E+00  0.00000000E+00  0.00000000E+00
  0.00000000E+00  0.00000000E+00  0.00000000E+00
  0.00000000E+00  0.00000000E+00  0.00000000E+00
