CONTCAR\(5)                             
   1.00000000000000     
    10.2665004730000007    0.0000000000000000    0.0000000000000000
     0.0000000000000000   17.1711997986000000    0.0000000000000000
     0.0000000000000000    0.0000000000000000   18.9181995391999997
   K    Fe   S    O    H 
     8    16    24     1     1
Direct
  0.1261098418668298  0.2466974790108363  0.4150237449124949
  0.3760169382189231  0.2497951877690701  0.5943983884329728
  0.6251635876619546  0.2465189432731301  0.4146403004753105
  0.8758387197164118  0.2506966643507504  0.5962232999344753
  0.1290361356129089  0.7558432161804982  0.4065211515082826
  0.3767338996752525  0.7235398030858250  0.6149688740782036
  0.6256464537153757  0.7551924391722615  0.4070438425887842
  0.8774534203672391  0.7384926257427397  0.5944865158620246
  0.0004407735019398  0.0715058663125204  0.5054014917251812
  0.2529174264446046  0.9229289392885659  0.5150796470430566
  0.0021349760324405  0.9228458020264200  0.5145849829618194
  0.2499466690640085  0.0710542029771090  0.5065928184967071
  0.5004199471409541  0.0715059280729637  0.5060441452474819
  0.7527066640675457  0.9234144133842985  0.5144147629573244
  0.5018569841589861  0.9225079759004241  0.5153353266975710
  0.7502397058586224  0.0710975981354009  0.5061228182081164
  0.0015646211362719  0.5713831567870650  0.4851846146099045
  0.2535481928677043  0.4251025519132148  0.5001101134956789
  0.0023099620860069  0.4241367093537928  0.5021801202292482
  0.2523811450942460  0.5710013378634693  0.4843292631922747
  0.5013496700878317  0.5714684852036338  0.4852177790655795
  0.7511703503016798  0.4243417721856517  0.5020169609823149
  0.5000791665843275  0.4253173931066782  0.4997613329713591
  0.7522545673639202  0.5713704049426080  0.4858472777394885
  0.3769785304489948  0.8466103196012844  0.4554550068248027
  0.1257898559257006  0.1447154731123937  0.5671610689876760
  0.1274551186051134  0.8566888597421629  0.5814119818400905
  0.3758991927604482  0.0020090858388440  0.5753835174844752
  0.1276803915189846 -0.0063793331242003  0.4443939947472234
  0.3735550668057334  0.1378441311598372  0.4392277936142494
  0.8767866549020915  0.8484207723364705  0.4524975946163441
  0.6267971565035979  0.1442313791793621  0.5678133645452669
  0.6287067915023248  0.8565190586022958  0.5811243909336691
  0.8760710609084628  0.0023742572594259  0.5745692049937646
  0.6265638940998383 -0.0063153265242269  0.4441225012659912
  0.8741652155539885  0.1369698880149775  0.4383316877376394
  0.3767614501899207  0.3507692822195019  0.4402171594100442
  0.1271290418273633  0.6478237109937139  0.5416159854876922
  0.1302210697006047  0.3609370170546747  0.5708893151969014
  0.3766816582756641  0.5078200804272712  0.5597379714994608
  0.1267351701842475  0.4888794749766895  0.4292762863151706
  0.3771585786263705  0.6329988635171057  0.4147307942364305
  0.8767576141612154  0.3476322907692188  0.4440331953938680
  0.6264019406814998  0.6477370753033409  0.5430329125274420
  0.6233458684224911  0.3606803762237331  0.5698977541254880
  0.8771141898349243  0.5061783438544518  0.5599083057620819
  0.6270706565519215  0.4895927060749728  0.4295129368806638
  0.8761875167143719  0.6338256997374655  0.4158947474558403
  0.3673933483365945  0.5868173804537365  0.6609901132490608
  0.3053530733315639  0.5537999691565584  0.6855109504529980
 
  0.00000000E+00  0.00000000E+00  0.00000000E+00
  0.00000000E+00  0.00000000E+00  0.00000000E+00
  0.00000000E+00  0.00000000E+00  0.00000000E+00
  0.00000000E+00  0.00000000E+00  0.00000000E+00
  0.00000000E+00  0.00000000E+00  0.00000000E+00
  0.00000000E+00  0.00000000E+00  0.00000000E+00
  0.00000000E+00  0.00000000E+00  0.00000000E+00
  0.00000000E+00  0.00000000E+00  0.00000000E+00
  0.00000000E+00  0.00000000E+00  0.00000000E+00
  0.00000000E+00  0.00000000E+00  0.00000000E+00
  0.00000000E+00  0.00000000E+00  0.00000000E+00
  0.00000000E+00  0.00000000E+00  0.00000000E+00
  0.00000000E+00  0.00000000E+00  0.00000000E+00
  0.00000000E+00  0.00000000E+00  0.00000000E+00
  0.00000000E+00  0.00000000E+00  0.00000000E+00
  0.00000000E+00  0.00000000E+00  0.00000000E+00
  0.00000000E+00  0.00000000E+00  0.00000000E+00
  0.00000000E+00  0.00000000E+00  0.00000000E+00
  0.00000000E+00  0.00000000E+00  0.00000000E+00
  0.00000000E+00  0.00000000E+00  0.00000000E+00
  0.00000000E+00  0.00000000E+00  0.00000000E+00
  0.00000000E+00  0.00000000E+00  0.00000000E+00
  0.00000000E+00  0.00000000E+00  0.00000000E+00
  0.00000000E+00  0.00000000E+00  0.00000000E+00
  0.00000000E+00  0.00000000E+00  0.00000000E+00
  0.00000000E+00  0.00000000E+00  0.00000000E+00
  0.00000000E+00  0.00000000E+00  0.00000000E+00
  0.00000000E+00  0.00000000E+00  0.00000000E+00
  0.00000000E+00  0.00000000E+00  0.00000000E+00
  0.00000000E+00  0.00000000E+00  0.00000000E+00
  0.00000000E+00  0.00000000E+00  0.00000000E+00
  0.00000000E+00  0.00000000E+00  0.00000000E+00
  0.00000000E+00  0.00000000E+00  0.00000000E+00
  0.00000000E+00  0.00000000E+00  0.00000000E+00
  0.00000000E+00  0.00000000E+00  0.00000000E+00
  0.00000000E+00  0.00000000E+00  0.00000000E+00
  0.00000000E+00  0.00000000E+00  0.00000000E+00
  0.00000000E+00  0.00000000E+00  0.00000000E+00
  0.00000000E+00  0.00000000E+00  0.00000000E+00
  0.00000000E+00  0.00000000E+00  0.00000000E+00
  0.00000000E+00  0.00000000E+00  0.00000000E+00
  0.00000000E+00  0.00000000E+00  0.00000000E+00
  0.00000000E+00  0.00000000E+00  0.00000000E+00
  0.00000000E+00  0.00000000E+00  0.00000000E+00
  0.00000000E+00  0.00000000E+00  0.00000000E+00
  0.00000000E+00  0.00000000E+00  0.00000000E+00
  0.00000000E+00  0.00000000E+00  0.00000000E+00
  0.00000000E+00  0.00000000E+00  0.00000000E+00
  0.00000000E+00  0.00000000E+00  0.00000000E+00
  0.00000000E+00  0.00000000E+00  0.00000000E+00
