CONTCAR\(11)                            
   1.00000000000000     
    16.6394004821999992    0.0000000000000000    0.0000000000000000
     6.4194950950000003   15.5733957347000000    0.0000000000000000
     0.0000000000000000    0.0000000000000000   20.8805007935000013
   Cu   Te   Br   O 
    27    18    18    55
Direct
  0.1447424651560635  0.1433339206511082  0.5523670526715728
  0.0200742577805194  0.0178140585461416  0.4997099400323063
  0.2286857534367118  0.2253784250251030  0.4465293864951312
  0.4784584421122891  0.1436351530456483  0.5534709223181141
  0.3523485106096864  0.0184599617494521  0.4997853513186289
  0.5617650575702997  0.2251075903717260  0.4469756743971717
  0.8119003266327146  0.1435996246453748  0.5532150857022617
  0.6865268997640457  0.0177532199173708  0.4996912611929987
  0.8954222711406479  0.2256160015005347  0.4473439878846882
  0.1450843236956631  0.4772520056895345  0.5536062862883862
  0.0209368903925842  0.3500865889266983  0.4995528465728997
  0.2284375759561672  0.5586889739811175  0.4472650834842159
  0.4779922979317830  0.4766177101715115  0.5548840983273776
  0.3534171488477848  0.3511416104401167  0.5006245628804316
  0.5575777795378180  0.5544438580184803  0.4426359203983456
  0.8156051808903870  0.4768755285961086  0.5566347226937916
  0.6867905085267338  0.3507961238610056  0.5008676365547294
  0.8944269506704604  0.5576969906344017  0.4471058520566698
  0.1451659038261907  0.8106718509757980  0.5534370214861613
  0.0200801502435405  0.6844446934950114  0.4999773819364612
  0.2288799486244348  0.8922230997561309  0.4474520456907860
  0.4784744134936384  0.8140125092818360  0.5569495828085836
  0.3532703943908317  0.6845552146137466  0.5012203928251353
  0.5609465650211255  0.8911642317163901  0.4474429801150260
  0.8118747209319508  0.8105325755777583  0.5530086615580452
  0.6886620692579472  0.6859062871926006  0.5049100520612443
  0.8951598330764544  0.8919479602052193  0.4467659904857137
  0.0985448891933859  0.0949231756541985  0.3980417232215646
  0.2743935877034115  0.2735456751983145  0.6013205982997595
  0.4322837055330761  0.0946541828711393  0.3984596619292585
  0.6078452326551212  0.2732652082810511  0.6016999235211883
  0.7654290294765199  0.0951423506268850  0.3984335420770869
  0.9414125087234140  0.2734533159320610  0.6014968838568343
  0.0985189399995825  0.4288116784668599  0.3984386212593712
  0.2743882250450863  0.6071020013809590  0.6021678644778408
  0.4319290228288867  0.4284686112674276  0.3992188064586448
  0.6098878701633841  0.6081777336831231  0.6025859240515856
  0.7650023995162636  0.4291032238611182  0.3998378295038716
  0.9418607158700176  0.6077147196406784  0.6021855309535865
  0.0988345711806215  0.7617787160994838  0.3985805767827472
  0.2742902570427578  0.9404547905477540  0.6017651445042707
  0.4327395409959786  0.7612872056677101  0.4000397619200829
  0.6088049921401155  0.9410556817169814  0.6022853123909877
  0.7647928432909338  0.7613185513287757  0.4001612306808498
  0.9415147343828814  0.9406288247895657  0.6012825083239858
  0.0905921615414965  0.0908319103610570  0.6446000340231558
  0.2828978882855425  0.2782332711519326  0.3544374699365369
  0.4239540683792557  0.0908720698833733  0.6454017077059687
  0.6151361128932467  0.2784183740348936  0.3545805775850944
  0.7575263550444492  0.0899725289211671  0.6450213938207490
  0.9484943725115467  0.2778340589356719  0.3544737904691366
  0.0903774827985641  0.4242913252908235  0.6453803969870490
  0.2835977053282207  0.6100958745711311  0.3546103490211813
  0.4220831557978953  0.4224136052957490  0.6453359074555766
  0.6196974292324987  0.6144082884401709  0.3591599774582697
  0.7632525824137676  0.4116729552028384  0.6413491207135610
  0.9481178488614962  0.6114338733362912  0.3551772389485126
  0.0896125574781334  0.7580839139179860  0.6451592396811231
  0.2826442070427245  0.9437015600354740  0.3545978479237191
  0.4118047243127523  0.7641428131043475  0.6421750161532728
  0.6162365871280550  0.9430660834220904  0.3552905595216027
  0.7596359636154966  0.7605564756850121  0.6465552854234107
  0.9490471539668185  0.9445805125610507  0.3544766875236252
  0.2243548465768508  0.2185456795497479  0.5463566160048011
  0.1241132699502575  0.3242791620545388  0.4480803068306412
  0.2491399781924249  0.0446293274503100  0.5508011292967371
  0.3251140969421792  0.1188694879623196  0.4459910713069653
  0.0482855110057114  0.2494729199759024  0.5526094480534078
  0.1491475985333016  0.1500623536723988  0.4524188490579525
  0.5576083108886528  0.2182874902912882  0.5467795182763462
  0.4571021260585953  0.3244525157539053  0.4490481980365051
  0.5834887451656612  0.0448093149435657  0.5518364732078022
  0.6584437564168341  0.1185345372632803  0.4460965870455591
  0.3813995077363794  0.2499923604442274  0.5536846459782265
  0.4825641860043330  0.1496052355312310  0.4532637163123716
  0.8917131427399266  0.2179176351824925  0.5464902395328103
  0.7907495726034681  0.3249283247461004  0.4499501577513124
  0.9165554290855646  0.0446485640269280  0.5511487885106328
  0.9918118994150141  0.1186138523759994  0.4460587109631292
  0.7145810573076397  0.2494585194388102  0.5536682280920013
  0.8154728252684070  0.1504544670514010  0.4530257466769831
  0.2242048855900890  0.5521223766221783  0.5471675446355392
  0.1236787972165292  0.6576218625781740  0.4485138286014400
  0.2495452807630338  0.3778358481060227  0.5515759614181773
  0.3254555227448297  0.4522092001425719  0.4471395072905440
  0.0485279682298142  0.5840986121642062  0.5542390058042376
  0.1484818965240221  0.4838597742238835  0.4534321491954497
  0.5567358561780501  0.5504520842056941  0.5538030666966007
  0.4566316516620992  0.6564985530711461  0.4492635704292643
  0.5827021075223598  0.3772455918155163  0.5517565343185065
  0.6575231979602143  0.4512975880945754  0.4468131178143366
  0.3810525077766202  0.5832838240293032  0.5542787437493776
  0.4822080539919615  0.4834916796003099  0.4549055794974960
  0.8929399088285851  0.5508665327608655  0.5476394629426082
  0.7908804183566039  0.6579361404698535  0.4512689361650564
  0.9186639300733546  0.3773929127207079  0.5512835772356767
  0.9915545800078319  0.4511315126943195  0.4457929919861348
  0.7197325958102485  0.5843230368424418  0.5599567906045291
  0.8139734572705376  0.4849540302443831  0.4547667526056302
  0.2233158405852150  0.8863779988682206  0.5465263084549983
  0.1235539007005345  0.9908737973295675  0.4481289697387432
  0.2493512625829248  0.7111924363533976  0.5520619651007358
  0.3259183352600863  0.7856972148932068  0.4480851921591122
  0.0482331291652290  0.9170349616550707  0.5533042819456147
  0.1495206645993616  0.8165049116280650  0.4531291294880780
  0.5565434532777860  0.8870581512049238  0.5480475004887088
  0.4561807865309286  0.9905539715721080  0.4482007080381742
  0.5842354783011348  0.7156627652738015  0.5578969436772750
  0.6591922547871083  0.7857716689443295  0.4496925117463131
  0.3809035509011778  0.9189538030771882  0.5536599448567282
  0.4840750786088178  0.8149202690124546  0.4549273263566562
  0.8912398518848892  0.8855429514333462  0.5466077900289427
  0.7902886029869018  0.9910103501966517  0.4483738049529439
  0.9163734910172129  0.7110842422777610  0.5511868652067823
  0.9919762714669076  0.7853398117254450  0.4463328589353657
  0.7146131278104328  0.9167845513198689  0.5529793429566228
  0.8162266297070268  0.8169479139134159  0.4534722845430734
  0.6100719175364421  0.6100349194694986  0.6891260155984569
 
  0.00000000E+00  0.00000000E+00  0.00000000E+00
  0.00000000E+00  0.00000000E+00  0.00000000E+00
  0.00000000E+00  0.00000000E+00  0.00000000E+00
  0.00000000E+00  0.00000000E+00  0.00000000E+00
  0.00000000E+00  0.00000000E+00  0.00000000E+00
  0.00000000E+00  0.00000000E+00  0.00000000E+00
  0.00000000E+00  0.00000000E+00  0.00000000E+00
  0.00000000E+00  0.00000000E+00  0.00000000E+00
  0.00000000E+00  0.00000000E+00  0.00000000E+00
  0.00000000E+00  0.00000000E+00  0.00000000E+00
  0.00000000E+00  0.00000000E+00  0.00000000E+00
  0.00000000E+00  0.00000000E+00  0.00000000E+00
  0.00000000E+00  0.00000000E+00  0.00000000E+00
  0.00000000E+00  0.00000000E+00  0.00000000E+00
  0.00000000E+00  0.00000000E+00  0.00000000E+00
  0.00000000E+00  0.00000000E+00  0.00000000E+00
  0.00000000E+00  0.00000000E+00  0.00000000E+00
  0.00000000E+00  0.00000000E+00  0.00000000E+00
  0.00000000E+00  0.00000000E+00  0.00000000E+00
  0.00000000E+00  0.00000000E+00  0.00000000E+00
  0.00000000E+00  0.00000000E+00  0.00000000E+00
  0.00000000E+00  0.00000000E+00  0.00000000E+00
  0.00000000E+00  0.00000000E+00  0.00000000E+00
  0.00000000E+00  0.00000000E+00  0.00000000E+00
  0.00000000E+00  0.00000000E+00  0.00000000E+00
  0.00000000E+00  0.00000000E+00  0.00000000E+00
  0.00000000E+00  0.00000000E+00  0.00000000E+00
  0.00000000E+00  0.00000000E+00  0.00000000E+00
  0.00000000E+00  0.00000000E+00  0.00000000E+00
  0.00000000E+00  0.00000000E+00  0.00000000E+00
  0.00000000E+00  0.00000000E+00  0.00000000E+00
  0.00000000E+00  0.00000000E+00  0.00000000E+00
  0.00000000E+00  0.00000000E+00  0.00000000E+00
  0.00000000E+00  0.00000000E+00  0.00000000E+00
  0.00000000E+00  0.00000000E+00  0.00000000E+00
  0.00000000E+00  0.00000000E+00  0.00000000E+00
  0.00000000E+00  0.00000000E+00  0.00000000E+00
  0.00000000E+00  0.00000000E+00  0.00000000E+00
  0.00000000E+00  0.00000000E+00  0.00000000E+00
  0.00000000E+00  0.00000000E+00  0.00000000E+00
  0.00000000E+00  0.00000000E+00  0.00000000E+00
  0.00000000E+00  0.00000000E+00  0.00000000E+00
  0.00000000E+00  0.00000000E+00  0.00000000E+00
  0.00000000E+00  0.00000000E+00  0.00000000E+00
  0.00000000E+00  0.00000000E+00  0.00000000E+00
  0.00000000E+00  0.00000000E+00  0.00000000E+00
  0.00000000E+00  0.00000000E+00  0.00000000E+00
  0.00000000E+00  0.00000000E+00  0.00000000E+00
  0.00000000E+00  0.00000000E+00  0.00000000E+00
  0.00000000E+00  0.00000000E+00  0.00000000E+00
  0.00000000E+00  0.00000000E+00  0.00000000E+00
  0.00000000E+00  0.00000000E+00  0.00000000E+00
  0.00000000E+00  0.00000000E+00  0.00000000E+00
  0.00000000E+00  0.00000000E+00  0.00000000E+00
  0.00000000E+00  0.00000000E+00  0.00000000E+00
  0.00000000E+00  0.00000000E+00  0.00000000E+00
  0.00000000E+00  0.00000000E+00  0.00000000E+00
  0.00000000E+00  0.00000000E+00  0.00000000E+00
  0.00000000E+00  0.00000000E+00  0.00000000E+00
  0.00000000E+00  0.00000000E+00  0.00000000E+00
  0.00000000E+00  0.00000000E+00  0.00000000E+00
  0.00000000E+00  0.00000000E+00  0.00000000E+00
  0.00000000E+00  0.00000000E+00  0.00000000E+00
  0.00000000E+00  0.00000000E+00  0.00000000E+00
  0.00000000E+00  0.00000000E+00  0.00000000E+00
  0.00000000E+00  0.00000000E+00  0.00000000E+00
  0.00000000E+00  0.00000000E+00  0.00000000E+00
  0.00000000E+00  0.00000000E+00  0.00000000E+00
  0.00000000E+00  0.00000000E+00  0.00000000E+00
  0.00000000E+00  0.00000000E+00  0.00000000E+00
  0.00000000E+00  0.00000000E+00  0.00000000E+00
  0.00000000E+00  0.00000000E+00  0.00000000E+00
  0.00000000E+00  0.00000000E+00  0.00000000E+00
  0.00000000E+00  0.00000000E+00  0.00000000E+00
  0.00000000E+00  0.00000000E+00  0.00000000E+00
  0.00000000E+00  0.00000000E+00  0.00000000E+00
  0.00000000E+00  0.00000000E+00  0.00000000E+00
  0.00000000E+00  0.00000000E+00  0.00000000E+00
  0.00000000E+00  0.00000000E+00  0.00000000E+00
  0.00000000E+00  0.00000000E+00  0.00000000E+00
  0.00000000E+00  0.00000000E+00  0.00000000E+00
  0.00000000E+00  0.00000000E+00  0.00000000E+00
  0.00000000E+00  0.00000000E+00  0.00000000E+00
  0.00000000E+00  0.00000000E+00  0.00000000E+00
  0.00000000E+00  0.00000000E+00  0.00000000E+00
  0.00000000E+00  0.00000000E+00  0.00000000E+00
  0.00000000E+00  0.00000000E+00  0.00000000E+00
  0.00000000E+00  0.00000000E+00  0.00000000E+00
  0.00000000E+00  0.00000000E+00  0.00000000E+00
  0.00000000E+00  0.00000000E+00  0.00000000E+00
  0.00000000E+00  0.00000000E+00  0.00000000E+00
  0.00000000E+00  0.00000000E+00  0.00000000E+00
  0.00000000E+00  0.00000000E+00  0.00000000E+00
  0.00000000E+00  0.00000000E+00  0.00000000E+00
  0.00000000E+00  0.00000000E+00  0.00000000E+00
  0.00000000E+00  0.00000000E+00  0.00000000E+00
  0.00000000E+00  0.00000000E+00  0.00000000E+00
  0.00000000E+00  0.00000000E+00  0.00000000E+00
  0.00000000E+00  0.00000000E+00  0.00000000E+00
  0.00000000E+00  0.00000000E+00  0.00000000E+00
  0.00000000E+00  0.00000000E+00  0.00000000E+00
  0.00000000E+00  0.00000000E+00  0.00000000E+00
  0.00000000E+00  0.00000000E+00  0.00000000E+00
  0.00000000E+00  0.00000000E+00  0.00000000E+00
  0.00000000E+00  0.00000000E+00  0.00000000E+00
  0.00000000E+00  0.00000000E+00  0.00000000E+00
  0.00000000E+00  0.00000000E+00  0.00000000E+00
  0.00000000E+00  0.00000000E+00  0.00000000E+00
  0.00000000E+00  0.00000000E+00  0.00000000E+00
  0.00000000E+00  0.00000000E+00  0.00000000E+00
  0.00000000E+00  0.00000000E+00  0.00000000E+00
  0.00000000E+00  0.00000000E+00  0.00000000E+00
  0.00000000E+00  0.00000000E+00  0.00000000E+00
  0.00000000E+00  0.00000000E+00  0.00000000E+00
  0.00000000E+00  0.00000000E+00  0.00000000E+00
  0.00000000E+00  0.00000000E+00  0.00000000E+00
  0.00000000E+00  0.00000000E+00  0.00000000E+00
  0.00000000E+00  0.00000000E+00  0.00000000E+00
