CONTCAR\(15)                            
   1.00000000000000     
    14.8263998031999993    0.0000000000000000    0.0000000000000000
     0.0000000000000000   11.8667001723999999    0.0000000000000000
     0.0000000000000000    0.0000000000000000   17.5359001160000005
   Cu   Te   O 
    10    10    41
Direct
 -0.0011327508966895  0.2905733285313294  0.5454710465623814
  0.2010888497289985  0.2898240209249206  0.5440610847631184
  0.3991212091838572  0.3027453124823287  0.5930015848879944
  0.5987860619545086  0.2904986041949288  0.5437237236287683
  0.8011772387128847  0.2908177132022243  0.5452696829286210
 -0.0013160665297536  0.7910010816036976  0.4495230932547030
  0.2004550716388782  0.7913400021569310  0.4525181673564733
  0.4000618904028326  0.7917226785991340  0.4539810912117619
  0.5998373384577633  0.7916813727715539  0.4519501580644742
  0.8014718245605915  0.7911508569556078  0.4489683506106101
  0.1004399275378268  0.0396345842997940  0.5057471892886590
  0.3003631712519351  0.0423468969950919  0.5091454560328061
  0.5001774253028547  0.0426102100297704  0.5075266976261110
  0.6998554315765589  0.0401089918481787  0.5037000201821629
  0.9001129938514052  0.0406273074707350  0.5045408011258122
  0.1002982435070361  0.5403824366420711  0.4902867083370469
  0.3001397220845711  0.5389959466506873  0.4925539349977169
  0.5000245822588084  0.5393831892474574  0.4936362461857740
  0.6997855523793730  0.5410106537615827  0.4914322235343076
  0.9000405961433187  0.5402041026352500  0.4905643048189257
  0.0004225642384415  0.0918264393365551  0.4385382866260804
  0.1000026403561484  0.1879934251101104  0.5552457878183422
 -0.0008636516803488 -0.0103191973654203  0.5718281591548396
  0.1004403498458945  0.3924929543037885  0.5396883052564804
  0.2007481906499651  0.0906678402627987  0.4399105968039671
  0.2971150914583007  0.1861847225342510  0.5605101414593889
  0.1978883899635784 -0.0119264975787993  0.5737382037381811
  0.2994512697241936  0.3930951941407217  0.5420108696597415
  0.3994369911766090  0.0909381218869656  0.4409661142458225
  0.5033588594472903  0.1864634985709618  0.5579975501553500
  0.4009519580183300 -0.0072345557498939  0.5757705353771357
  0.5009362578295766  0.3943093096411789  0.5442056568208711
  0.5995373300269599  0.0902956233891721  0.4376383155180341
  0.6997492401320872  0.1886222954078678  0.5532279754428489
  0.6027569728108086 -0.0118159773398520  0.5717464526724255
  0.6995482150751701  0.3930735860296459  0.5409855010557012
  0.8007477643645615  0.0922577843550366  0.4375145911277292
  0.8998872298917068  0.1856717726537505  0.5574467842827150
  0.8001439524276394 -0.0099421268578033  0.5708092702077577
  0.9000652397323393  0.3960552328733872  0.5438717957975482
 -0.0003622526796609  0.4899462991883622  0.4235377999160258
  0.0998944001815692  0.6878584346912837  0.4407952668737256
 -0.0000886685026836  0.5904845150842148  0.5574412604043909
  0.0996391905133286  0.8940728145338452  0.4539465521763457
  0.2007162777750322  0.4914436000929706  0.4236336193491612
  0.3005684260219375  0.6875430503879013  0.4438568615797301
  0.1986076188606570  0.5904183709927243  0.5585754741235611
  0.3003542534993435  0.8950734180403691  0.4581775052187815
  0.4005926915654870  0.4918337138365675  0.4255246734613302
  0.4997287687216629  0.6876960083346493  0.4445449443847160
  0.3995708380024676  0.5876343065979915  0.5611814946249754
  0.4996714214108717  0.8952785282235086  0.4566756601931667
  0.5994263948085333  0.4913009615783462  0.4249849746632182
  0.7002354916285278  0.6879170562377426  0.4411244141351021
  0.6015972602508040  0.5916860445170345  0.5595260427353025
  0.7008012358692840  0.8945485625361922  0.4518004689955336
  0.7998721297931104  0.4899273039324897  0.4242513511479869
  0.8999935515756434  0.6853573012809623  0.4380477122510404
  0.8006570248759511  0.5909568227912488  0.5579939770585888
  0.9001762592484910  0.8969949676725263  0.4505014781285583
  0.4078141359828251  0.2899389098413657  0.6918455519596125
 
  0.00000000E+00  0.00000000E+00  0.00000000E+00
  0.00000000E+00  0.00000000E+00  0.00000000E+00
  0.00000000E+00  0.00000000E+00  0.00000000E+00
  0.00000000E+00  0.00000000E+00  0.00000000E+00
  0.00000000E+00  0.00000000E+00  0.00000000E+00
  0.00000000E+00  0.00000000E+00  0.00000000E+00
  0.00000000E+00  0.00000000E+00  0.00000000E+00
  0.00000000E+00  0.00000000E+00  0.00000000E+00
  0.00000000E+00  0.00000000E+00  0.00000000E+00
  0.00000000E+00  0.00000000E+00  0.00000000E+00
  0.00000000E+00  0.00000000E+00  0.00000000E+00
  0.00000000E+00  0.00000000E+00  0.00000000E+00
  0.00000000E+00  0.00000000E+00  0.00000000E+00
  0.00000000E+00  0.00000000E+00  0.00000000E+00
  0.00000000E+00  0.00000000E+00  0.00000000E+00
  0.00000000E+00  0.00000000E+00  0.00000000E+00
  0.00000000E+00  0.00000000E+00  0.00000000E+00
  0.00000000E+00  0.00000000E+00  0.00000000E+00
  0.00000000E+00  0.00000000E+00  0.00000000E+00
  0.00000000E+00  0.00000000E+00  0.00000000E+00
  0.00000000E+00  0.00000000E+00  0.00000000E+00
  0.00000000E+00  0.00000000E+00  0.00000000E+00
  0.00000000E+00  0.00000000E+00  0.00000000E+00
  0.00000000E+00  0.00000000E+00  0.00000000E+00
  0.00000000E+00  0.00000000E+00  0.00000000E+00
  0.00000000E+00  0.00000000E+00  0.00000000E+00
  0.00000000E+00  0.00000000E+00  0.00000000E+00
  0.00000000E+00  0.00000000E+00  0.00000000E+00
  0.00000000E+00  0.00000000E+00  0.00000000E+00
  0.00000000E+00  0.00000000E+00  0.00000000E+00
  0.00000000E+00  0.00000000E+00  0.00000000E+00
  0.00000000E+00  0.00000000E+00  0.00000000E+00
  0.00000000E+00  0.00000000E+00  0.00000000E+00
  0.00000000E+00  0.00000000E+00  0.00000000E+00
  0.00000000E+00  0.00000000E+00  0.00000000E+00
  0.00000000E+00  0.00000000E+00  0.00000000E+00
  0.00000000E+00  0.00000000E+00  0.00000000E+00
  0.00000000E+00  0.00000000E+00  0.00000000E+00
  0.00000000E+00  0.00000000E+00  0.00000000E+00
  0.00000000E+00  0.00000000E+00  0.00000000E+00
  0.00000000E+00  0.00000000E+00  0.00000000E+00
  0.00000000E+00  0.00000000E+00  0.00000000E+00
  0.00000000E+00  0.00000000E+00  0.00000000E+00
  0.00000000E+00  0.00000000E+00  0.00000000E+00
  0.00000000E+00  0.00000000E+00  0.00000000E+00
  0.00000000E+00  0.00000000E+00  0.00000000E+00
  0.00000000E+00  0.00000000E+00  0.00000000E+00
  0.00000000E+00  0.00000000E+00  0.00000000E+00
  0.00000000E+00  0.00000000E+00  0.00000000E+00
  0.00000000E+00  0.00000000E+00  0.00000000E+00
  0.00000000E+00  0.00000000E+00  0.00000000E+00
  0.00000000E+00  0.00000000E+00  0.00000000E+00
  0.00000000E+00  0.00000000E+00  0.00000000E+00
  0.00000000E+00  0.00000000E+00  0.00000000E+00
  0.00000000E+00  0.00000000E+00  0.00000000E+00
  0.00000000E+00  0.00000000E+00  0.00000000E+00
  0.00000000E+00  0.00000000E+00  0.00000000E+00
  0.00000000E+00  0.00000000E+00  0.00000000E+00
  0.00000000E+00  0.00000000E+00  0.00000000E+00
  0.00000000E+00  0.00000000E+00  0.00000000E+00
  0.00000000E+00  0.00000000E+00  0.00000000E+00
