 Mo2 S4                                 
   1.00000000000000     
     3.1619450009055017    0.0000000000000000    0.0000000000000000
    -1.5809725004527508    2.7383357432523558    0.0000000000000000
     0.0000000000000000    0.0000000000000000   18.1297686036766237
   Mo   S 
     1     2
Direct
  0.3333336149012922  0.6666669297295869  0.5000000024908218
  0.6666665289272800  0.3333331732830587  0.5865144374449045
  0.6666666091714220  0.3333332529873587  0.4134855666298307
 
  0.00000000E+00  0.00000000E+00  0.00000000E+00
  0.00000000E+00  0.00000000E+00  0.00000000E+00
  0.00000000E+00  0.00000000E+00  0.00000000E+00
