G   75   75    1    0.005     # Parameters to Generate KPOINTS (Don't Edit This Line)
    1444
Reciprocal lattice
    0.000000000000    0.000000000000    0.000000000000       1
    0.013333333333    0.000000000000    0.000000000000       4
    0.026666666667    0.000000000000    0.000000000000       4
    0.040000000000    0.000000000000    0.000000000000       4
    0.053333333333    0.000000000000    0.000000000000       4
    0.066666666667    0.000000000000    0.000000000000       4
    0.080000000000    0.000000000000    0.000000000000       4
    0.093333333333    0.000000000000    0.000000000000       4
    0.106666666667    0.000000000000    0.000000000000       4
    0.120000000000    0.000000000000    0.000000000000       4
    0.133333333333    0.000000000000    0.000000000000       4
    0.146666666667    0.000000000000    0.000000000000       4
    0.160000000000    0.000000000000    0.000000000000       4
    0.173333333333    0.000000000000    0.000000000000       4
    0.186666666667    0.000000000000    0.000000000000       4
    0.200000000000    0.000000000000    0.000000000000       4
    0.213333333333    0.000000000000    0.000000000000       4
    0.226666666667    0.000000000000    0.000000000000       4
    0.240000000000    0.000000000000    0.000000000000       4
    0.253333333333    0.000000000000    0.000000000000       4
    0.266666666667    0.000000000000    0.000000000000       4
    0.280000000000    0.000000000000    0.000000000000       4
    0.293333333333    0.000000000000    0.000000000000       4
    0.306666666667    0.000000000000    0.000000000000       4
    0.320000000000    0.000000000000    0.000000000000       4
    0.333333333333    0.000000000000    0.000000000000       4
    0.346666666667    0.000000000000    0.000000000000       4
    0.360000000000    0.000000000000    0.000000000000       4
    0.373333333333    0.000000000000    0.000000000000       4
    0.386666666667    0.000000000000    0.000000000000       4
    0.400000000000    0.000000000000    0.000000000000       4
    0.413333333333    0.000000000000    0.000000000000       4
    0.426666666667    0.000000000000    0.000000000000       4
    0.440000000000    0.000000000000    0.000000000000       4
    0.453333333333    0.000000000000    0.000000000000       4
    0.466666666667    0.000000000000    0.000000000000       4
    0.480000000000    0.000000000000    0.000000000000       4
    0.493333333333    0.000000000000    0.000000000000       4
    0.000000000000    0.013333333333    0.000000000000       2
    0.013333333333    0.013333333333    0.000000000000       4
    0.026666666667    0.013333333333    0.000000000000       4
    0.040000000000    0.013333333333    0.000000000000       4
    0.053333333333    0.013333333333    0.000000000000       4
    0.066666666667    0.013333333333    0.000000000000       4
    0.080000000000    0.013333333333    0.000000000000       4
    0.093333333333    0.013333333333    0.000000000000       4
    0.106666666667    0.013333333333    0.000000000000       4
    0.120000000000    0.013333333333    0.000000000000       4
    0.133333333333    0.013333333333    0.000000000000       4
    0.146666666667    0.013333333333    0.000000000000       4
    0.160000000000    0.013333333333    0.000000000000       4
    0.173333333333    0.013333333333    0.000000000000       4
    0.186666666667    0.013333333333    0.000000000000       4
    0.200000000000    0.013333333333    0.000000000000       4
    0.213333333333    0.013333333333    0.000000000000       4
    0.226666666667    0.013333333333    0.000000000000       4
    0.240000000000    0.013333333333    0.000000000000       4
    0.253333333333    0.013333333333    0.000000000000       4
    0.266666666667    0.013333333333    0.000000000000       4
    0.280000000000    0.013333333333    0.000000000000       4
    0.293333333333    0.013333333333    0.000000000000       4
    0.306666666667    0.013333333333    0.000000000000       4
    0.320000000000    0.013333333333    0.000000000000       4
    0.333333333333    0.013333333333    0.000000000000       4
    0.346666666667    0.013333333333    0.000000000000       4
    0.360000000000    0.013333333333    0.000000000000       4
    0.373333333333    0.013333333333    0.000000000000       4
    0.386666666667    0.013333333333    0.000000000000       4
    0.400000000000    0.013333333333    0.000000000000       4
    0.413333333333    0.013333333333    0.000000000000       4
    0.426666666667    0.013333333333    0.000000000000       4
    0.440000000000    0.013333333333    0.000000000000       4
    0.453333333333    0.013333333333    0.000000000000       4
    0.466666666667    0.013333333333    0.000000000000       4
    0.480000000000    0.013333333333    0.000000000000       4
    0.493333333333    0.013333333333    0.000000000000       4
   -0.493333333333    0.013333333333    0.000000000000       4
   -0.480000000000    0.013333333333    0.000000000000       4
   -0.466666666667    0.013333333333    0.000000000000       4
   -0.453333333333    0.013333333333    0.000000000000       4
   -0.440000000000    0.013333333333    0.000000000000       4
   -0.426666666667    0.013333333333    0.000000000000       4
   -0.413333333333    0.013333333333    0.000000000000       4
   -0.400000000000    0.013333333333    0.000000000000       4
   -0.386666666667    0.013333333333    0.000000000000       4
   -0.373333333333    0.013333333333    0.000000000000       4
   -0.360000000000    0.013333333333    0.000000000000       4
   -0.346666666667    0.013333333333    0.000000000000       4
   -0.333333333333    0.013333333333    0.000000000000       4
   -0.320000000000    0.013333333333    0.000000000000       4
   -0.306666666667    0.013333333333    0.000000000000       4
   -0.293333333333    0.013333333333    0.000000000000       4
   -0.280000000000    0.013333333333    0.000000000000       4
   -0.266666666667    0.013333333333    0.000000000000       4
   -0.253333333333    0.013333333333    0.000000000000       4
   -0.240000000000    0.013333333333    0.000000000000       4
   -0.226666666667    0.013333333333    0.000000000000       4
   -0.213333333333    0.013333333333    0.000000000000       4
   -0.200000000000    0.013333333333    0.000000000000       4
   -0.186666666667    0.013333333333    0.000000000000       4
   -0.173333333333    0.013333333333    0.000000000000       4
   -0.160000000000    0.013333333333    0.000000000000       4
   -0.146666666667    0.013333333333    0.000000000000       4
   -0.133333333333    0.013333333333    0.000000000000       4
   -0.120000000000    0.013333333333    0.000000000000       4
   -0.106666666667    0.013333333333    0.000000000000       4
   -0.093333333333    0.013333333333    0.000000000000       4
   -0.080000000000    0.013333333333    0.000000000000       4
   -0.066666666667    0.013333333333    0.000000000000       4
   -0.053333333333    0.013333333333    0.000000000000       4
   -0.040000000000    0.013333333333    0.000000000000       4
   -0.026666666667    0.013333333333    0.000000000000       2
    0.000000000000    0.026666666667    0.000000000000       2
    0.013333333333    0.026666666667    0.000000000000       4
    0.026666666667    0.026666666667    0.000000000000       4
    0.040000000000    0.026666666667    0.000000000000       4
    0.053333333333    0.026666666667    0.000000000000       4
    0.066666666667    0.026666666667    0.000000000000       4
    0.080000000000    0.026666666667    0.000000000000       4
    0.093333333333    0.026666666667    0.000000000000       4
    0.106666666667    0.026666666667    0.000000000000       4
    0.120000000000    0.026666666667    0.000000000000       4
    0.133333333333    0.026666666667    0.000000000000       4
    0.146666666667    0.026666666667    0.000000000000       4
    0.160000000000    0.026666666667    0.000000000000       4
    0.173333333333    0.026666666667    0.000000000000       4
    0.186666666667    0.026666666667    0.000000000000       4
    0.200000000000    0.026666666667    0.000000000000       4
    0.213333333333    0.026666666667    0.000000000000       4
    0.226666666667    0.026666666667    0.000000000000       4
    0.240000000000    0.026666666667    0.000000000000       4
    0.253333333333    0.026666666667    0.000000000000       4
    0.266666666667    0.026666666667    0.000000000000       4
    0.280000000000    0.026666666667    0.000000000000       4
    0.293333333333    0.026666666667    0.000000000000       4
    0.306666666667    0.026666666667    0.000000000000       4
    0.320000000000    0.026666666667    0.000000000000       4
    0.333333333333    0.026666666667    0.000000000000       4
    0.346666666667    0.026666666667    0.000000000000       4
    0.360000000000    0.026666666667    0.000000000000       4
    0.373333333333    0.026666666667    0.000000000000       4
    0.386666666667    0.026666666667    0.000000000000       4
    0.400000000000    0.026666666667    0.000000000000       4
    0.413333333333    0.026666666667    0.000000000000       4
    0.426666666667    0.026666666667    0.000000000000       4
    0.440000000000    0.026666666667    0.000000000000       4
    0.453333333333    0.026666666667    0.000000000000       4
    0.466666666667    0.026666666667    0.000000000000       4
    0.480000000000    0.026666666667    0.000000000000       4
    0.493333333333    0.026666666667    0.000000000000       4
   -0.493333333333    0.026666666667    0.000000000000       4
   -0.480000000000    0.026666666667    0.000000000000       4
   -0.466666666667    0.026666666667    0.000000000000       4
   -0.453333333333    0.026666666667    0.000000000000       4
   -0.440000000000    0.026666666667    0.000000000000       4
   -0.426666666667    0.026666666667    0.000000000000       4
   -0.413333333333    0.026666666667    0.000000000000       4
   -0.400000000000    0.026666666667    0.000000000000       4
   -0.386666666667    0.026666666667    0.000000000000       4
   -0.373333333333    0.026666666667    0.000000000000       4
   -0.360000000000    0.026666666667    0.000000000000       4
   -0.346666666667    0.026666666667    0.000000000000       4
   -0.333333333333    0.026666666667    0.000000000000       4
   -0.320000000000    0.026666666667    0.000000000000       4
   -0.306666666667    0.026666666667    0.000000000000       4
   -0.293333333333    0.026666666667    0.000000000000       4
   -0.280000000000    0.026666666667    0.000000000000       4
   -0.266666666667    0.026666666667    0.000000000000       4
   -0.253333333333    0.026666666667    0.000000000000       4
   -0.240000000000    0.026666666667    0.000000000000       4
   -0.226666666667    0.026666666667    0.000000000000       4
   -0.213333333333    0.026666666667    0.000000000000       4
   -0.200000000000    0.026666666667    0.000000000000       4
   -0.186666666667    0.026666666667    0.000000000000       4
   -0.173333333333    0.026666666667    0.000000000000       4
   -0.160000000000    0.026666666667    0.000000000000       4
   -0.146666666667    0.026666666667    0.000000000000       4
   -0.133333333333    0.026666666667    0.000000000000       4
   -0.120000000000    0.026666666667    0.000000000000       4
   -0.106666666667    0.026666666667    0.000000000000       4
   -0.093333333333    0.026666666667    0.000000000000       4
   -0.080000000000    0.026666666667    0.000000000000       4
   -0.066666666667    0.026666666667    0.000000000000       4
   -0.053333333333    0.026666666667    0.000000000000       2
    0.000000000000    0.040000000000    0.000000000000       2
    0.013333333333    0.040000000000    0.000000000000       4
    0.026666666667    0.040000000000    0.000000000000       4
    0.040000000000    0.040000000000    0.000000000000       4
    0.053333333333    0.040000000000    0.000000000000       4
    0.066666666667    0.040000000000    0.000000000000       4
    0.080000000000    0.040000000000    0.000000000000       4
    0.093333333333    0.040000000000    0.000000000000       4
    0.106666666667    0.040000000000    0.000000000000       4
    0.120000000000    0.040000000000    0.000000000000       4
    0.133333333333    0.040000000000    0.000000000000       4
    0.146666666667    0.040000000000    0.000000000000       4
    0.160000000000    0.040000000000    0.000000000000       4
    0.173333333333    0.040000000000    0.000000000000       4
    0.186666666667    0.040000000000    0.000000000000       4
    0.200000000000    0.040000000000    0.000000000000       4
    0.213333333333    0.040000000000    0.000000000000       4
    0.226666666667    0.040000000000    0.000000000000       4
    0.240000000000    0.040000000000    0.000000000000       4
    0.253333333333    0.040000000000    0.000000000000       4
    0.266666666667    0.040000000000    0.000000000000       4
    0.280000000000    0.040000000000    0.000000000000       4
    0.293333333333    0.040000000000    0.000000000000       4
    0.306666666667    0.040000000000    0.000000000000       4
    0.320000000000    0.040000000000    0.000000000000       4
    0.333333333333    0.040000000000    0.000000000000       4
    0.346666666667    0.040000000000    0.000000000000       4
    0.360000000000    0.040000000000    0.000000000000       4
    0.373333333333    0.040000000000    0.000000000000       4
    0.386666666667    0.040000000000    0.000000000000       4
    0.400000000000    0.040000000000    0.000000000000       4
    0.413333333333    0.040000000000    0.000000000000       4
    0.426666666667    0.040000000000    0.000000000000       4
    0.440000000000    0.040000000000    0.000000000000       4
    0.453333333333    0.040000000000    0.000000000000       4
    0.466666666667    0.040000000000    0.000000000000       4
    0.480000000000    0.040000000000    0.000000000000       4
    0.493333333333    0.040000000000    0.000000000000       4
   -0.493333333333    0.040000000000    0.000000000000       4
   -0.480000000000    0.040000000000    0.000000000000       4
   -0.466666666667    0.040000000000    0.000000000000       4
   -0.453333333333    0.040000000000    0.000000000000       4
   -0.440000000000    0.040000000000    0.000000000000       4
   -0.426666666667    0.040000000000    0.000000000000       4
   -0.413333333333    0.040000000000    0.000000000000       4
   -0.400000000000    0.040000000000    0.000000000000       4
   -0.386666666667    0.040000000000    0.000000000000       4
   -0.373333333333    0.040000000000    0.000000000000       4
   -0.360000000000    0.040000000000    0.000000000000       4
   -0.346666666667    0.040000000000    0.000000000000       4
   -0.333333333333    0.040000000000    0.000000000000       4
   -0.320000000000    0.040000000000    0.000000000000       4
   -0.306666666667    0.040000000000    0.000000000000       4
   -0.293333333333    0.040000000000    0.000000000000       4
   -0.280000000000    0.040000000000    0.000000000000       4
   -0.266666666667    0.040000000000    0.000000000000       4
   -0.253333333333    0.040000000000    0.000000000000       4
   -0.240000000000    0.040000000000    0.000000000000       4
   -0.226666666667    0.040000000000    0.000000000000       4
   -0.213333333333    0.040000000000    0.000000000000       4
   -0.200000000000    0.040000000000    0.000000000000       4
   -0.186666666667    0.040000000000    0.000000000000       4
   -0.173333333333    0.040000000000    0.000000000000       4
   -0.160000000000    0.040000000000    0.000000000000       4
   -0.146666666667    0.040000000000    0.000000000000       4
   -0.133333333333    0.040000000000    0.000000000000       4
   -0.120000000000    0.040000000000    0.000000000000       4
   -0.106666666667    0.040000000000    0.000000000000       4
   -0.093333333333    0.040000000000    0.000000000000       4
   -0.080000000000    0.040000000000    0.000000000000       2
    0.000000000000    0.053333333333    0.000000000000       2
    0.013333333333    0.053333333333    0.000000000000       4
    0.026666666667    0.053333333333    0.000000000000       4
    0.040000000000    0.053333333333    0.000000000000       4
    0.053333333333    0.053333333333    0.000000000000       4
    0.066666666667    0.053333333333    0.000000000000       4
    0.080000000000    0.053333333333    0.000000000000       4
    0.093333333333    0.053333333333    0.000000000000       4
    0.106666666667    0.053333333333    0.000000000000       4
    0.120000000000    0.053333333333    0.000000000000       4
    0.133333333333    0.053333333333    0.000000000000       4
    0.146666666667    0.053333333333    0.000000000000       4
    0.160000000000    0.053333333333    0.000000000000       4
    0.173333333333    0.053333333333    0.000000000000       4
    0.186666666667    0.053333333333    0.000000000000       4
    0.200000000000    0.053333333333    0.000000000000       4
    0.213333333333    0.053333333333    0.000000000000       4
    0.226666666667    0.053333333333    0.000000000000       4
    0.240000000000    0.053333333333    0.000000000000       4
    0.253333333333    0.053333333333    0.000000000000       4
    0.266666666667    0.053333333333    0.000000000000       4
    0.280000000000    0.053333333333    0.000000000000       4
    0.293333333333    0.053333333333    0.000000000000       4
    0.306666666667    0.053333333333    0.000000000000       4
    0.320000000000    0.053333333333    0.000000000000       4
    0.333333333333    0.053333333333    0.000000000000       4
    0.346666666667    0.053333333333    0.000000000000       4
    0.360000000000    0.053333333333    0.000000000000       4
    0.373333333333    0.053333333333    0.000000000000       4
    0.386666666667    0.053333333333    0.000000000000       4
    0.400000000000    0.053333333333    0.000000000000       4
    0.413333333333    0.053333333333    0.000000000000       4
    0.426666666667    0.053333333333    0.000000000000       4
    0.440000000000    0.053333333333    0.000000000000       4
    0.453333333333    0.053333333333    0.000000000000       4
    0.466666666667    0.053333333333    0.000000000000       4
    0.480000000000    0.053333333333    0.000000000000       4
    0.493333333333    0.053333333333    0.000000000000       4
   -0.493333333333    0.053333333333    0.000000000000       4
   -0.480000000000    0.053333333333    0.000000000000       4
   -0.466666666667    0.053333333333    0.000000000000       4
   -0.453333333333    0.053333333333    0.000000000000       4
   -0.440000000000    0.053333333333    0.000000000000       4
   -0.426666666667    0.053333333333    0.000000000000       4
   -0.413333333333    0.053333333333    0.000000000000       4
   -0.400000000000    0.053333333333    0.000000000000       4
   -0.386666666667    0.053333333333    0.000000000000       4
   -0.373333333333    0.053333333333    0.000000000000       4
   -0.360000000000    0.053333333333    0.000000000000       4
   -0.346666666667    0.053333333333    0.000000000000       4
   -0.333333333333    0.053333333333    0.000000000000       4
   -0.320000000000    0.053333333333    0.000000000000       4
   -0.306666666667    0.053333333333    0.000000000000       4
   -0.293333333333    0.053333333333    0.000000000000       4
   -0.280000000000    0.053333333333    0.000000000000       4
   -0.266666666667    0.053333333333    0.000000000000       4
   -0.253333333333    0.053333333333    0.000000000000       4
   -0.240000000000    0.053333333333    0.000000000000       4
   -0.226666666667    0.053333333333    0.000000000000       4
   -0.213333333333    0.053333333333    0.000000000000       4
   -0.200000000000    0.053333333333    0.000000000000       4
   -0.186666666667    0.053333333333    0.000000000000       4
   -0.173333333333    0.053333333333    0.000000000000       4
   -0.160000000000    0.053333333333    0.000000000000       4
   -0.146666666667    0.053333333333    0.000000000000       4
   -0.133333333333    0.053333333333    0.000000000000       4
   -0.120000000000    0.053333333333    0.000000000000       4
   -0.106666666667    0.053333333333    0.000000000000       2
    0.000000000000    0.066666666667    0.000000000000       2
    0.013333333333    0.066666666667    0.000000000000       4
    0.026666666667    0.066666666667    0.000000000000       4
    0.040000000000    0.066666666667    0.000000000000       4
    0.053333333333    0.066666666667    0.000000000000       4
    0.066666666667    0.066666666667    0.000000000000       4
    0.080000000000    0.066666666667    0.000000000000       4
    0.093333333333    0.066666666667    0.000000000000       4
    0.106666666667    0.066666666667    0.000000000000       4
    0.120000000000    0.066666666667    0.000000000000       4
    0.133333333333    0.066666666667    0.000000000000       4
    0.146666666667    0.066666666667    0.000000000000       4
    0.160000000000    0.066666666667    0.000000000000       4
    0.173333333333    0.066666666667    0.000000000000       4
    0.186666666667    0.066666666667    0.000000000000       4
    0.200000000000    0.066666666667    0.000000000000       4
    0.213333333333    0.066666666667    0.000000000000       4
    0.226666666667    0.066666666667    0.000000000000       4
    0.240000000000    0.066666666667    0.000000000000       4
    0.253333333333    0.066666666667    0.000000000000       4
    0.266666666667    0.066666666667    0.000000000000       4
    0.280000000000    0.066666666667    0.000000000000       4
    0.293333333333    0.066666666667    0.000000000000       4
    0.306666666667    0.066666666667    0.000000000000       4
    0.320000000000    0.066666666667    0.000000000000       4
    0.333333333333    0.066666666667    0.000000000000       4
    0.346666666667    0.066666666667    0.000000000000       4
    0.360000000000    0.066666666667    0.000000000000       4
    0.373333333333    0.066666666667    0.000000000000       4
    0.386666666667    0.066666666667    0.000000000000       4
    0.400000000000    0.066666666667    0.000000000000       4
    0.413333333333    0.066666666667    0.000000000000       4
    0.426666666667    0.066666666667    0.000000000000       4
    0.440000000000    0.066666666667    0.000000000000       4
    0.453333333333    0.066666666667    0.000000000000       4
    0.466666666667    0.066666666667    0.000000000000       4
    0.480000000000    0.066666666667    0.000000000000       4
    0.493333333333    0.066666666667    0.000000000000       4
   -0.493333333333    0.066666666667    0.000000000000       4
   -0.480000000000    0.066666666667    0.000000000000       4
   -0.466666666667    0.066666666667    0.000000000000       4
   -0.453333333333    0.066666666667    0.000000000000       4
   -0.440000000000    0.066666666667    0.000000000000       4
   -0.426666666667    0.066666666667    0.000000000000       4
   -0.413333333333    0.066666666667    0.000000000000       4
   -0.400000000000    0.066666666667    0.000000000000       4
   -0.386666666667    0.066666666667    0.000000000000       4
   -0.373333333333    0.066666666667    0.000000000000       4
   -0.360000000000    0.066666666667    0.000000000000       4
   -0.346666666667    0.066666666667    0.000000000000       4
   -0.333333333333    0.066666666667    0.000000000000       4
   -0.320000000000    0.066666666667    0.000000000000       4
   -0.306666666667    0.066666666667    0.000000000000       4
   -0.293333333333    0.066666666667    0.000000000000       4
   -0.280000000000    0.066666666667    0.000000000000       4
   -0.266666666667    0.066666666667    0.000000000000       4
   -0.253333333333    0.066666666667    0.000000000000       4
   -0.240000000000    0.066666666667    0.000000000000       4
   -0.226666666667    0.066666666667    0.000000000000       4
   -0.213333333333    0.066666666667    0.000000000000       4
   -0.200000000000    0.066666666667    0.000000000000       4
   -0.186666666667    0.066666666667    0.000000000000       4
   -0.173333333333    0.066666666667    0.000000000000       4
   -0.160000000000    0.066666666667    0.000000000000       4
   -0.146666666667    0.066666666667    0.000000000000       4
   -0.133333333333    0.066666666667    0.000000000000       2
    0.000000000000    0.080000000000    0.000000000000       2
    0.013333333333    0.080000000000    0.000000000000       4
    0.026666666667    0.080000000000    0.000000000000       4
    0.040000000000    0.080000000000    0.000000000000       4
    0.053333333333    0.080000000000    0.000000000000       4
    0.066666666667    0.080000000000    0.000000000000       4
    0.080000000000    0.080000000000    0.000000000000       4
    0.093333333333    0.080000000000    0.000000000000       4
    0.106666666667    0.080000000000    0.000000000000       4
    0.120000000000    0.080000000000    0.000000000000       4
    0.133333333333    0.080000000000    0.000000000000       4
    0.146666666667    0.080000000000    0.000000000000       4
    0.160000000000    0.080000000000    0.000000000000       4
    0.173333333333    0.080000000000    0.000000000000       4
    0.186666666667    0.080000000000    0.000000000000       4
    0.200000000000    0.080000000000    0.000000000000       4
    0.213333333333    0.080000000000    0.000000000000       4
    0.226666666667    0.080000000000    0.000000000000       4
    0.240000000000    0.080000000000    0.000000000000       4
    0.253333333333    0.080000000000    0.000000000000       4
    0.266666666667    0.080000000000    0.000000000000       4
    0.280000000000    0.080000000000    0.000000000000       4
    0.293333333333    0.080000000000    0.000000000000       4
    0.306666666667    0.080000000000    0.000000000000       4
    0.320000000000    0.080000000000    0.000000000000       4
    0.333333333333    0.080000000000    0.000000000000       4
    0.346666666667    0.080000000000    0.000000000000       4
    0.360000000000    0.080000000000    0.000000000000       4
    0.373333333333    0.080000000000    0.000000000000       4
    0.386666666667    0.080000000000    0.000000000000       4
    0.400000000000    0.080000000000    0.000000000000       4
    0.413333333333    0.080000000000    0.000000000000       4
    0.426666666667    0.080000000000    0.000000000000       4
    0.440000000000    0.080000000000    0.000000000000       4
    0.453333333333    0.080000000000    0.000000000000       4
    0.466666666667    0.080000000000    0.000000000000       4
    0.480000000000    0.080000000000    0.000000000000       4
    0.493333333333    0.080000000000    0.000000000000       4
   -0.493333333333    0.080000000000    0.000000000000       4
   -0.480000000000    0.080000000000    0.000000000000       4
   -0.466666666667    0.080000000000    0.000000000000       4
   -0.453333333333    0.080000000000    0.000000000000       4
   -0.440000000000    0.080000000000    0.000000000000       4
   -0.426666666667    0.080000000000    0.000000000000       4
   -0.413333333333    0.080000000000    0.000000000000       4
   -0.400000000000    0.080000000000    0.000000000000       4
   -0.386666666667    0.080000000000    0.000000000000       4
   -0.373333333333    0.080000000000    0.000000000000       4
   -0.360000000000    0.080000000000    0.000000000000       4
   -0.346666666667    0.080000000000    0.000000000000       4
   -0.333333333333    0.080000000000    0.000000000000       4
   -0.320000000000    0.080000000000    0.000000000000       4
   -0.306666666667    0.080000000000    0.000000000000       4
   -0.293333333333    0.080000000000    0.000000000000       4
   -0.280000000000    0.080000000000    0.000000000000       4
   -0.266666666667    0.080000000000    0.000000000000       4
   -0.253333333333    0.080000000000    0.000000000000       4
   -0.240000000000    0.080000000000    0.000000000000       4
   -0.226666666667    0.080000000000    0.000000000000       4
   -0.213333333333    0.080000000000    0.000000000000       4
   -0.200000000000    0.080000000000    0.000000000000       4
   -0.186666666667    0.080000000000    0.000000000000       4
   -0.173333333333    0.080000000000    0.000000000000       4
   -0.160000000000    0.080000000000    0.000000000000       2
    0.000000000000    0.093333333333    0.000000000000       2
    0.013333333333    0.093333333333    0.000000000000       4
    0.026666666667    0.093333333333    0.000000000000       4
    0.040000000000    0.093333333333    0.000000000000       4
    0.053333333333    0.093333333333    0.000000000000       4
    0.066666666667    0.093333333333    0.000000000000       4
    0.080000000000    0.093333333333    0.000000000000       4
    0.093333333333    0.093333333333    0.000000000000       4
    0.106666666667    0.093333333333    0.000000000000       4
    0.120000000000    0.093333333333    0.000000000000       4
    0.133333333333    0.093333333333    0.000000000000       4
    0.146666666667    0.093333333333    0.000000000000       4
    0.160000000000    0.093333333333    0.000000000000       4
    0.173333333333    0.093333333333    0.000000000000       4
    0.186666666667    0.093333333333    0.000000000000       4
    0.200000000000    0.093333333333    0.000000000000       4
    0.213333333333    0.093333333333    0.000000000000       4
    0.226666666667    0.093333333333    0.000000000000       4
    0.240000000000    0.093333333333    0.000000000000       4
    0.253333333333    0.093333333333    0.000000000000       4
    0.266666666667    0.093333333333    0.000000000000       4
    0.280000000000    0.093333333333    0.000000000000       4