CONTCAR\(4)                             
   1.00000000000000     
    10.6176996231000000    0.0000000000000000    0.0000000000000000
     0.0000000000000000   17.6849002838000011    0.0000000000000000
     0.0000000000000000    0.0000000000000000   18.8054008484000015
   K    Fe   Se   O    H 
     8    16    24     1     1
Direct
  0.3755110418731249  0.2478907447222696  0.4105802893748702
  0.1235255561653261  0.2492322135109433  0.5891485424847218
  0.8753954622739073  0.2475241779455644  0.4115396562876654
  0.6256092911884039  0.2492667985205514  0.5894078277524031
  0.3750487675628378  0.7500668421564924  0.4034793317386445
  0.1493889258781351  0.7486566276392281  0.6222464960801091
  0.8756209239029715  0.7505110982285643  0.4115094350897266
  0.5990568894864694  0.7479150851807788  0.6234870929212519
  0.2506263325975198  0.0704012905066165  0.5006328567853160
  0.0002663061102766  0.0687081018126463  0.5017945081326829
  0.2504406060063360  0.9258084162881417  0.4955678496657114
  0.0000878912738500  0.9232159073650053  0.5004150318333558
  0.7502771405925515  0.0685575091254051  0.5017379961566917
  0.5000740297819206  0.0704927120832934  0.5007345714882092
  0.7503735219761438  0.9233849004169841  0.5004142967192777
  0.5001611842760596  0.9255232750713986  0.4958050825557265
  0.2494763803069873  0.5727310037894568  0.4931363542027825
  0.9998158145541964  0.5761947842215065  0.4982211144525266
  0.2498476725748091  0.4265678894255913  0.4971267406251982
  0.9998255076433153  0.4274427661577960  0.4989500894130359
  0.7501020301583452  0.5755968748945861  0.4971236095249267
  0.5004279331027419  0.5730174777239299  0.4924034921790081
  0.7502492898674546  0.4285122525255645  0.4986122514069393
  0.4997803112788688  0.4263031052291240  0.4971893745854956
  0.3755534645403600  0.0010901435411768  0.4239926050386842
  0.1278109559119116  0.9952768100638636  0.5732292258193894
  0.3750566099833748  0.1401995145274668  0.5723394164869617
  0.1237417902344262  0.1403811132935573  0.4307738654970095
  0.1236137558009602  0.8564259716212206  0.4262062112429987
  0.3749173249495144  0.8516908561982177  0.5604240579133446
  0.8752918463244939  0.9968723209788308  0.4276334731187319
  0.6229563149544930  0.9954305195615589  0.5733611409266288
  0.8748430654176431  0.1375864855010462  0.5738318282743791
  0.6272489037862528  0.1402664002964400  0.4307467088636940
  0.6271403078275810  0.8559550676444161  0.4265450864289804
  0.8750105861914719  0.8509209555234989  0.5693811479132265
  0.3735050784530571  0.4973648059403430  0.4206659977719909
  0.1278799847219148  0.5021828114706963  0.5706741168429659
  0.3738985218969759  0.6463210063029052  0.5589254443015861
  0.1249752466894307  0.6454799453036557  0.4246055248385687
  0.1245567447210902  0.3545314650886482  0.4267529320409977
  0.3728068445783919  0.3551430048176556  0.5694667183106787
  0.8749311334772756  0.5013136905297628  0.4245201187578900
  0.6240374897467049  0.5026289598660796  0.5703550315416237
  0.8720426017391176  0.6492659970311863  0.5675009109501161
  0.6280732490077554  0.6448303522569603  0.4238022616514385
  0.6294769814007779  0.3547785049867116  0.4272081658420745
  0.8722045644042637  0.3574790083782986  0.5720379122177519
  0.3740617361304786  0.7698300228724122  0.6833317914453900
  0.3739161846777677  0.8039322478620221  0.7241243675067111
 
  0.00000000E+00  0.00000000E+00  0.00000000E+00
  0.00000000E+00  0.00000000E+00  0.00000000E+00
  0.00000000E+00  0.00000000E+00  0.00000000E+00
  0.00000000E+00  0.00000000E+00  0.00000000E+00
  0.00000000E+00  0.00000000E+00  0.00000000E+00
  0.00000000E+00  0.00000000E+00  0.00000000E+00
  0.00000000E+00  0.00000000E+00  0.00000000E+00
  0.00000000E+00  0.00000000E+00  0.00000000E+00
  0.00000000E+00  0.00000000E+00  0.00000000E+00
  0.00000000E+00  0.00000000E+00  0.00000000E+00
  0.00000000E+00  0.00000000E+00  0.00000000E+00
  0.00000000E+00  0.00000000E+00  0.00000000E+00
  0.00000000E+00  0.00000000E+00  0.00000000E+00
  0.00000000E+00  0.00000000E+00  0.00000000E+00
  0.00000000E+00  0.00000000E+00  0.00000000E+00
  0.00000000E+00  0.00000000E+00  0.00000000E+00
  0.00000000E+00  0.00000000E+00  0.00000000E+00
  0.00000000E+00  0.00000000E+00  0.00000000E+00
  0.00000000E+00  0.00000000E+00  0.00000000E+00
  0.00000000E+00  0.00000000E+00  0.00000000E+00
  0.00000000E+00  0.00000000E+00  0.00000000E+00
  0.00000000E+00  0.00000000E+00  0.00000000E+00
  0.00000000E+00  0.00000000E+00  0.00000000E+00
  0.00000000E+00  0.00000000E+00  0.00000000E+00
  0.00000000E+00  0.00000000E+00  0.00000000E+00
  0.00000000E+00  0.00000000E+00  0.00000000E+00
  0.00000000E+00  0.00000000E+00  0.00000000E+00
  0.00000000E+00  0.00000000E+00  0.00000000E+00
  0.00000000E+00  0.00000000E+00  0.00000000E+00
  0.00000000E+00  0.00000000E+00  0.00000000E+00
  0.00000000E+00  0.00000000E+00  0.00000000E+00
  0.00000000E+00  0.00000000E+00  0.00000000E+00
  0.00000000E+00  0.00000000E+00  0.00000000E+00
  0.00000000E+00  0.00000000E+00  0.00000000E+00
  0.00000000E+00  0.00000000E+00  0.00000000E+00
  0.00000000E+00  0.00000000E+00  0.00000000E+00
  0.00000000E+00  0.00000000E+00  0.00000000E+00
  0.00000000E+00  0.00000000E+00  0.00000000E+00
  0.00000000E+00  0.00000000E+00  0.00000000E+00
  0.00000000E+00  0.00000000E+00  0.00000000E+00
  0.00000000E+00  0.00000000E+00  0.00000000E+00
  0.00000000E+00  0.00000000E+00  0.00000000E+00
  0.00000000E+00  0.00000000E+00  0.00000000E+00
  0.00000000E+00  0.00000000E+00  0.00000000E+00
  0.00000000E+00  0.00000000E+00  0.00000000E+00
  0.00000000E+00  0.00000000E+00  0.00000000E+00
  0.00000000E+00  0.00000000E+00  0.00000000E+00
  0.00000000E+00  0.00000000E+00  0.00000000E+00
  0.00000000E+00  0.00000000E+00  0.00000000E+00
  0.00000000E+00  0.00000000E+00  0.00000000E+00
