CONTCAR                                 
   1.00000000000000     
    13.1398000716999999    0.0000000000000000    0.0000000000000000
     0.0000000000000000   13.1344995498999992    0.0000000000000000
     0.0000000000000000    0.0000000000000000   24.5086002349999994
   Pr   Te   O 
    18    54     1
Direct
  0.1390515213791896  0.0012795044229412  0.5869826527350569
  0.3066971091497500  0.1667687397359503  0.4126255122318107
  0.4724747556518865  0.0000989001687092  0.5882806286485349
  0.6396631743189928  0.1665637914110624  0.4125247754842532
  0.8063268172934478  0.9997844949744504  0.5871100020894401
  0.9734369684785663  0.1667669646480090  0.4121816380477706
  0.1405445126274994  0.3341732808783969  0.5887512507876040
  0.3066766752008199  0.5001148868426044  0.4137233422898975
  0.4729973892878659  0.3315295523100040  0.5879625064531427
  0.6396165128879058  0.4999950748375657  0.4131760899313770
  0.8080346260375804  0.3322892358518968  0.5870858224432646
  0.9733152253515410  0.4998511344108912  0.4126341199581676
  0.1380205028692076  0.6662585453013333  0.5877991985803025
  0.3067410459990115  0.8329698293679991  0.4131661256983949
  0.4744922126215411  0.6677609726049225  0.5902890072918536
  0.6398595208874738  0.8330600087787725  0.4130679839236747
  0.8067743488833252  0.6659155896983906  0.5885218503491061
  0.9729920771299141  0.8330955620835090  0.4124063612372583
  0.1402703342269564  0.1666859415447513  0.3074132423097107
  0.3062920593722736  0.0010118657848832  0.6932400319015406
  0.3064073565717333  0.1664152767493688  0.5481553821916868
  0.1400209644609075  0.9996766672197094  0.4518282294446858
  0.3071847971389904  0.9998183907848356  0.3077364087343815
  0.1429871179662796  0.1665056348436816  0.6929364346954461
  0.4732033071405649  0.1665712690792407  0.3077367242315368
  0.6399432865820986  0.0004686321684103  0.6921752006517536
  0.6397626410016608  0.1660231408675764  0.5477766586678109
  0.4730765602294135  0.9997896385864998  0.4528089055521280
  0.6402392282341441  0.9997159980282813  0.3080412363581179
  0.4740998189619245  0.1650213113346678  0.6935880181349243
  0.8065562724833588  0.1665441792489187  0.3074803563909348
  0.9718681294341238  0.0061223695921127  0.6918389795135478
  0.9742127839865886  0.1674146008009517  0.5472953275527502
  0.8066837439386789  0.0000195906396681  0.4521430737860763
  0.9733907380420085  0.9996279786457962  0.3073026508269801
  0.8124631483308845  0.1657640546580291  0.6921524146390310
  0.1404118923895162  0.4998943525321766  0.3082632424095628
  0.3093179141973518  0.3317968468918444  0.6935443706474009
  0.3079449669474136  0.5013210596122506  0.5503579989054678
  0.1400987222755148  0.3332937566543704  0.4529932234163571
  0.3064092141755946  0.3333681361061416  0.3080801362807741
  0.1387417540259525  0.5031280517553786  0.6936760974763291
  0.4729234362146368  0.4999748179430284  0.3084838844454445
  0.6435103473942261  0.3270116755621457  0.6907125551594007
  0.6392747056853614  0.4998247126100500  0.5496835054686287
  0.4731146270970280  0.3333278284518748  0.4530011495214004
  0.6396078215587413  0.3333078328528654  0.3077185778655877
  0.4875892177239778  0.4939470645270191  0.6997097913609109
  0.8068294003537212  0.5000578454716015  0.3078723212856657
  0.9726888430524034  0.3363392173326779  0.6930945234690589
  0.9731006358869843  0.4998267521486510  0.5481608120387973
  0.8061498967546861  0.3334191741924955  0.4521042447584884
  0.9733964950930000  0.3335015636409445  0.3076422498902927
  0.8082248652596987  0.4991315258838868  0.6932176379973585
  0.1399949798594386  0.8330047039920071  0.3077371818957562
  0.3001746784550832  0.6813398205472307  0.6995994536510765
  0.3064170357842143  0.8322990144273192  0.5495461877884568
  0.1395875449073756  0.6666494607061954  0.4527893543843312
  0.3066890715861361  0.6665985764535446  0.3085121098893425
  0.1331033725194023  0.8373306690021236  0.6907133292162080
  0.4733800102729567  0.8332135547664625  0.3082030885796631
  0.6431201401423861  0.6661638313421681  0.6952873044420460
  0.6391953150049350  0.8325305576607770  0.5487530110178167
  0.4734810567207902  0.6666120038019571  0.4541447559287891
  0.6398745975607959  0.6667026253544983  0.3081842561195852
  0.4724331804292990  0.8367511270181173  0.6953217123272698
  0.8062634688569393  0.8331139809866359  0.3078377846514505
  0.9720534762978621  0.6669567640463568  0.6934584861837976
  0.9723562601433267  0.8331689235985690  0.5477645723842910
  0.8063577350787131  0.6662131985301083  0.4529333668503862
  0.9732782615570092  0.6664426972708735  0.3077375463816928
  0.8065550814890514  0.8329201414525826  0.6925060007105133
  0.3781722670903997  0.5719840009683343  0.7403453284366960
 
  0.00000000E+00  0.00000000E+00  0.00000000E+00
  0.00000000E+00  0.00000000E+00  0.00000000E+00
  0.00000000E+00  0.00000000E+00  0.00000000E+00
  0.00000000E+00  0.00000000E+00  0.00000000E+00
  0.00000000E+00  0.00000000E+00  0.00000000E+00
  0.00000000E+00  0.00000000E+00  0.00000000E+00
  0.00000000E+00  0.00000000E+00  0.00000000E+00
  0.00000000E+00  0.00000000E+00  0.00000000E+00
  0.00000000E+00  0.00000000E+00  0.00000000E+00
  0.00000000E+00  0.00000000E+00  0.00000000E+00
  0.00000000E+00  0.00000000E+00  0.00000000E+00
  0.00000000E+00  0.00000000E+00  0.00000000E+00
  0.00000000E+00  0.00000000E+00  0.00000000E+00
  0.00000000E+00  0.00000000E+00  0.00000000E+00
  0.00000000E+00  0.00000000E+00  0.00000000E+00
  0.00000000E+00  0.00000000E+00  0.00000000E+00
  0.00000000E+00  0.00000000E+00  0.00000000E+00
  0.00000000E+00  0.00000000E+00  0.00000000E+00
  0.00000000E+00  0.00000000E+00  0.00000000E+00
  0.00000000E+00  0.00000000E+00  0.00000000E+00
  0.00000000E+00  0.00000000E+00  0.00000000E+00
  0.00000000E+00  0.00000000E+00  0.00000000E+00
  0.00000000E+00  0.00000000E+00  0.00000000E+00
  0.00000000E+00  0.00000000E+00  0.00000000E+00
  0.00000000E+00  0.00000000E+00  0.00000000E+00
  0.00000000E+00  0.00000000E+00  0.00000000E+00
  0.00000000E+00  0.00000000E+00  0.00000000E+00
  0.00000000E+00  0.00000000E+00  0.00000000E+00
  0.00000000E+00  0.00000000E+00  0.00000000E+00
  0.00000000E+00  0.00000000E+00  0.00000000E+00
  0.00000000E+00  0.00000000E+00  0.00000000E+00
  0.00000000E+00  0.00000000E+00  0.00000000E+00
  0.00000000E+00  0.00000000E+00  0.00000000E+00
  0.00000000E+00  0.00000000E+00  0.00000000E+00
  0.00000000E+00  0.00000000E+00  0.00000000E+00
  0.00000000E+00  0.00000000E+00  0.00000000E+00
  0.00000000E+00  0.00000000E+00  0.00000000E+00
  0.00000000E+00  0.00000000E+00  0.00000000E+00
  0.00000000E+00  0.00000000E+00  0.00000000E+00
  0.00000000E+00  0.00000000E+00  0.00000000E+00
  0.00000000E+00  0.00000000E+00  0.00000000E+00
  0.00000000E+00  0.00000000E+00  0.00000000E+00
  0.00000000E+00  0.00000000E+00  0.00000000E+00
  0.00000000E+00  0.00000000E+00  0.00000000E+00
  0.00000000E+00  0.00000000E+00  0.00000000E+00
  0.00000000E+00  0.00000000E+00  0.00000000E+00
  0.00000000E+00  0.00000000E+00  0.00000000E+00
  0.00000000E+00  0.00000000E+00  0.00000000E+00
  0.00000000E+00  0.00000000E+00  0.00000000E+00
  0.00000000E+00  0.00000000E+00  0.00000000E+00
  0.00000000E+00  0.00000000E+00  0.00000000E+00
  0.00000000E+00  0.00000000E+00  0.00000000E+00
  0.00000000E+00  0.00000000E+00  0.00000000E+00
  0.00000000E+00  0.00000000E+00  0.00000000E+00
  0.00000000E+00  0.00000000E+00  0.00000000E+00
  0.00000000E+00  0.00000000E+00  0.00000000E+00
  0.00000000E+00  0.00000000E+00  0.00000000E+00
  0.00000000E+00  0.00000000E+00  0.00000000E+00
  0.00000000E+00  0.00000000E+00  0.00000000E+00
  0.00000000E+00  0.00000000E+00  0.00000000E+00
  0.00000000E+00  0.00000000E+00  0.00000000E+00
  0.00000000E+00  0.00000000E+00  0.00000000E+00
  0.00000000E+00  0.00000000E+00  0.00000000E+00
  0.00000000E+00  0.00000000E+00  0.00000000E+00
  0.00000000E+00  0.00000000E+00  0.00000000E+00
  0.00000000E+00  0.00000000E+00  0.00000000E+00
  0.00000000E+00  0.00000000E+00  0.00000000E+00
  0.00000000E+00  0.00000000E+00  0.00000000E+00
  0.00000000E+00  0.00000000E+00  0.00000000E+00
  0.00000000E+00  0.00000000E+00  0.00000000E+00
  0.00000000E+00  0.00000000E+00  0.00000000E+00
  0.00000000E+00  0.00000000E+00  0.00000000E+00
  0.00000000E+00  0.00000000E+00  0.00000000E+00
