CONTCAR\(15)                            
   1.00000000000000     
    11.7923002242999999    0.0000000000000000    0.0000000000000000
     0.0000000000000000   21.3097991942999982    0.0000000000000000
     0.0000000000000000    0.0000000000000000   18.7763004303000010
   V    Ag   P    S    O    H 
     8     8    16    48     1     1
Direct
  0.1182604340176638  0.4634622436719837  0.5050011324952877
  0.3630124295104054  0.0382547297076172  0.4990150297737301
  0.6121096256413452  0.4626874645633947  0.5045862868175703
  0.8655882557065624  0.0363733587230257  0.4988102224205022
  0.1309966643841918  0.9637742034790122  0.4886101576745006
  0.3884512844663419  0.5374295795416089  0.5100001805501861
  0.6330835101623293  0.9623590243158660  0.4882158434958725
  0.8881697701749331  0.5432715585419743  0.5081949061133386
  0.3572089868864197  0.2108583429321342  0.5209034679904718
  0.1235802983864787  0.2943467684299534  0.4945115677686474
  0.8568179363244681  0.2245513995264901  0.4824475905456183
  0.6259849158625599  0.2761745984986916  0.5303119787301895
  0.3759845250053431  0.7267898712417846  0.4562749508935440
  0.1467424059735052  0.7767170310246172  0.5151345277845181
  0.8738324180751533  0.7243632992218210  0.4626084884360182
  0.6463646630792255  0.7670630885888698  0.5177293589660579
  0.1101589877568259  0.1228830865705319  0.5640566180120814
  0.3664106024577407  0.3745343145561435  0.5657596519769328
  0.3762559881138117  0.3761447217257086  0.4465376003621131
  0.1208508843614524  0.1288124283786019  0.4451406529803563
  0.6152473230144864  0.1186786931997261  0.5710537202063435
  0.8674887583313051  0.3727179642932015  0.5535891523295646
  0.8720858864635517  0.3822859341876566  0.4352190248549164
  0.6205498342388438  0.1293934595128050  0.4526883046766486
  0.1295259205496819  0.6238511957057042  0.5718945787250362
  0.3762090325716869  0.8723433711482969  0.5385912151946712
  0.3845876083163589  0.8810242800801049  0.4199189349103847
  0.1388860722307115  0.6277333987909728  0.4526368586074909
  0.6216232553422572  0.6141533568461668  0.6207250111270781
  0.8746353972845498  0.8707042899544746  0.5382056594260902
  0.8855004745293726  0.8794783009526626  0.4196195790958370
  0.6339421664924529  0.6306933480261137  0.4652524783771241
  0.4587925587316732  0.4584572111242906  0.5895653054152135
  0.3013352568808756  0.3013903083302552  0.4062807795823034
  0.4474446508135088  0.1055178143742594  0.5926113119885699
  0.2901037167963665  0.1216942247229298  0.4232137426172855
  0.0498725787410379  0.2046635093494942  0.4043283499943939
  0.1981050569167024  0.3850383381243176  0.5879838052129571
  0.0409586723048108  0.3941788173730103  0.4135460462508576
  0.2912528789572590  0.4621060387814566  0.4296850709460927
  0.0349347649317835  0.0451595221605459  0.4192216717298294
  0.2021984066747464  0.0360109661629053  0.5773723862927014
  0.1833774495471872  0.1946337289240390  0.6113626287564955
  0.4355763428044597  0.2995434526192042  0.6102639066260167
  0.9566054794869956  0.4557948661627691  0.5830752754100956
  0.7972884530411406  0.3115954262045051  0.3874782836728130
  0.9450543958197173  0.1091088142153680  0.5875896370424911
  0.7876258844558350  0.1213853286015905  0.4249490510475411
  0.5471078924466113  0.2089031318771362  0.4231874376590312
  0.7012611310821200  0.3805926707276868  0.5824918705229010
  0.5422766883247903  0.3857526526308348  0.4212902957936961
  0.7862247734512380  0.4684920477515035  0.4283818031485112
  0.5356604101919515  0.0471037636841487  0.4223589829177925
  0.7057751294810046  0.0317879606638840  0.5796816149813679
  0.6898200774709125  0.1878453090199983  0.6218329923387458
  0.9415475100932085  0.2939854914431166  0.5866150955459375
  0.4618512365471688  0.9546149845787397  0.5669138709646830
  0.3075244514332596  0.8123126623866881  0.3693627408299420
  0.4610765688649039  0.6209968788594438  0.5755265217912751
  0.3060083989832023  0.6153897924889975  0.4271212521700889
  0.0781573036122367  0.7058275132017116  0.4086865547716698
  0.2085706658171844  0.8822339469303273  0.5656624508922690
  0.0526413897019253  0.8918574140839013  0.3996081484766449
  0.2924870275850253  0.9677344201394504  0.4092755877310950
  0.0474536031797541  0.5454781531855275  0.4262143207661921
  0.2135853516606261  0.5370681074992874  0.5850722557434551
  0.2065652343728317  0.6958055984289047  0.6153072045362080
  0.4398181144023567  0.7920663348771839  0.5740534531927182
  0.9605518030187525  0.9531074847845318  0.5680156646480157
  0.8105882716247095  0.8097750492560465  0.3699825626037310
  0.9615578069584387  0.6133655069510908  0.5952599624562041
  0.8026887504265972  0.6167103780054646  0.4299413844738353
  0.5804236909819167  0.7049826272920967  0.4065388911348791
  0.7060370978506185  0.8781756173740973  0.5627477895391948
  0.5514191774934503  0.8928601743713003  0.3986318399670026
  0.7933192114817942  0.9663575189204110  0.4086980475893967
  0.5430759702099550  0.5438489060007683  0.4303653901447717
  0.7135909074794213  0.5358750465702897  0.5796161311162678
  0.7046459287234654  0.6945141831929149  0.6271767010315230
  0.9392133369239914  0.7908577415148201  0.5750065248973257
  0.5974329466167418  0.5878687834719969  0.7005923653412296
  0.6240092698917437  0.6178446586669963  0.7363305363779276
 
  0.00000000E+00  0.00000000E+00  0.00000000E+00
  0.00000000E+00  0.00000000E+00  0.00000000E+00
  0.00000000E+00  0.00000000E+00  0.00000000E+00
  0.00000000E+00  0.00000000E+00  0.00000000E+00
  0.00000000E+00  0.00000000E+00  0.00000000E+00
  0.00000000E+00  0.00000000E+00  0.00000000E+00
  0.00000000E+00  0.00000000E+00  0.00000000E+00
  0.00000000E+00  0.00000000E+00  0.00000000E+00
  0.00000000E+00  0.00000000E+00  0.00000000E+00
  0.00000000E+00  0.00000000E+00  0.00000000E+00
  0.00000000E+00  0.00000000E+00  0.00000000E+00
  0.00000000E+00  0.00000000E+00  0.00000000E+00
  0.00000000E+00  0.00000000E+00  0.00000000E+00
  0.00000000E+00  0.00000000E+00  0.00000000E+00
  0.00000000E+00  0.00000000E+00  0.00000000E+00
  0.00000000E+00  0.00000000E+00  0.00000000E+00
  0.00000000E+00  0.00000000E+00  0.00000000E+00
  0.00000000E+00  0.00000000E+00  0.00000000E+00
  0.00000000E+00  0.00000000E+00  0.00000000E+00
  0.00000000E+00  0.00000000E+00  0.00000000E+00
  0.00000000E+00  0.00000000E+00  0.00000000E+00
  0.00000000E+00  0.00000000E+00  0.00000000E+00
  0.00000000E+00  0.00000000E+00  0.00000000E+00
  0.00000000E+00  0.00000000E+00  0.00000000E+00
  0.00000000E+00  0.00000000E+00  0.00000000E+00
  0.00000000E+00  0.00000000E+00  0.00000000E+00
  0.00000000E+00  0.00000000E+00  0.00000000E+00
  0.00000000E+00  0.00000000E+00  0.00000000E+00
  0.00000000E+00  0.00000000E+00  0.00000000E+00
  0.00000000E+00  0.00000000E+00  0.00000000E+00
  0.00000000E+00  0.00000000E+00  0.00000000E+00
  0.00000000E+00  0.00000000E+00  0.00000000E+00
  0.00000000E+00  0.00000000E+00  0.00000000E+00
  0.00000000E+00  0.00000000E+00  0.00000000E+00
  0.00000000E+00  0.00000000E+00  0.00000000E+00
  0.00000000E+00  0.00000000E+00  0.00000000E+00
  0.00000000E+00  0.00000000E+00  0.00000000E+00
  0.00000000E+00  0.00000000E+00  0.00000000E+00
  0.00000000E+00  0.00000000E+00  0.00000000E+00
  0.00000000E+00  0.00000000E+00  0.00000000E+00
  0.00000000E+00  0.00000000E+00  0.00000000E+00
  0.00000000E+00  0.00000000E+00  0.00000000E+00
  0.00000000E+00  0.00000000E+00  0.00000000E+00
  0.00000000E+00  0.00000000E+00  0.00000000E+00
  0.00000000E+00  0.00000000E+00  0.00000000E+00
  0.00000000E+00  0.00000000E+00  0.00000000E+00
  0.00000000E+00  0.00000000E+00  0.00000000E+00
  0.00000000E+00  0.00000000E+00  0.00000000E+00
  0.00000000E+00  0.00000000E+00  0.00000000E+00
  0.00000000E+00  0.00000000E+00  0.00000000E+00
  0.00000000E+00  0.00000000E+00  0.00000000E+00
  0.00000000E+00  0.00000000E+00  0.00000000E+00
  0.00000000E+00  0.00000000E+00  0.00000000E+00
  0.00000000E+00  0.00000000E+00  0.00000000E+00
  0.00000000E+00  0.00000000E+00  0.00000000E+00
  0.00000000E+00  0.00000000E+00  0.00000000E+00
  0.00000000E+00  0.00000000E+00  0.00000000E+00
  0.00000000E+00  0.00000000E+00  0.00000000E+00
  0.00000000E+00  0.00000000E+00  0.00000000E+00
  0.00000000E+00  0.00000000E+00  0.00000000E+00
  0.00000000E+00  0.00000000E+00  0.00000000E+00
  0.00000000E+00  0.00000000E+00  0.00000000E+00
  0.00000000E+00  0.00000000E+00  0.00000000E+00
  0.00000000E+00  0.00000000E+00  0.00000000E+00
  0.00000000E+00  0.00000000E+00  0.00000000E+00
  0.00000000E+00  0.00000000E+00  0.00000000E+00
  0.00000000E+00  0.00000000E+00  0.00000000E+00
  0.00000000E+00  0.00000000E+00  0.00000000E+00
  0.00000000E+00  0.00000000E+00  0.00000000E+00
  0.00000000E+00  0.00000000E+00  0.00000000E+00
  0.00000000E+00  0.00000000E+00  0.00000000E+00
  0.00000000E+00  0.00000000E+00  0.00000000E+00
  0.00000000E+00  0.00000000E+00  0.00000000E+00
  0.00000000E+00  0.00000000E+00  0.00000000E+00
  0.00000000E+00  0.00000000E+00  0.00000000E+00
  0.00000000E+00  0.00000000E+00  0.00000000E+00
  0.00000000E+00  0.00000000E+00  0.00000000E+00
  0.00000000E+00  0.00000000E+00  0.00000000E+00
  0.00000000E+00  0.00000000E+00  0.00000000E+00
  0.00000000E+00  0.00000000E+00  0.00000000E+00
  0.00000000E+00  0.00000000E+00  0.00000000E+00
  0.00000000E+00  0.00000000E+00  0.00000000E+00
