CONTCAR\(7)                             
   1.00000000000000     
    11.1612997054999994    0.0000000000000000    0.0000000000000000
     0.0000000000000000   15.5193004608000003    0.0000000000000000
     0.0000000000000000    0.0000000000000000   19.4729003905999996
   Nb   Te   Pd   O 
     6    30     6     1
Selective dynamics
Direct
  0.1699978777016256  0.8424318110767004  0.5016407342658198   F   F   F
  0.1685177120535570  0.3428100841517434  0.5038492550614890   F   F   F
  0.5000000000000000  0.8428235895161507  0.5017358488224914   F   F   F
  0.5000000000000000  0.3430784757247878  0.5020303078035013   F   F   F
  0.8300020792983744  0.8424318110767004  0.5016407342658198   F   F   F
  0.8314822449464430  0.3428100841517434  0.5038492550614890   F   F   F
  0.0000000000000000  0.9420268656505755  0.5776700401640582   F   F   F
  0.0000000000000000  0.4420433823230852  0.4269355164043844   F   F   F
  0.1667828459462513  0.0068546673212850  0.4293071846789616   F   F   F
  0.1678463777053025  0.5077283800668866  0.5758917317004091   F   F   F
  0.0000000000000000  0.3424237890778699  0.6156179855794122   F   F   F
  0.0000000000000000  0.8422253979714469  0.3903154181935378   F   F   F
  0.0000000000000000  0.7426897837155195  0.5776346655147790   F   F   F
  0.0000000000000000  0.2435157735842779  0.4268788066905671   F   F   F
  0.1669195534085191  0.6783403602213056  0.4288402991803224   F   F   F
  0.1683816727977643  0.1776883447117683  0.5755219930365882   F   F   F
  0.3342373311131226  0.9496491163076186  0.5757355811857607   F   F   F
  0.3340309071832550  0.4431914244446773  0.4246048773233824   F   F   F
  0.5000000000000000  0.0057797248717009  0.4230065190314320   F   F   F
  0.5000000000000000  0.5060653732081448  0.5758083443178705   F   F   F
  0.3353973082208626  0.3428111705567289  0.6153129604108400   F   F   F
  0.3333622859845349  0.8428955592454415  0.3876697211322622   F   F   F
  0.3348214943119601  0.7359318703568292  0.5760876331582878   F   F   F
  0.3341567505309087  0.2431104425425161  0.4244286205111010   F   F   F
  0.5000000000000000  0.6794080787167687  0.4237431613272449   F   F   F
  0.5000000000000000  0.1797463815223495  0.5750117062053022   F   F   F
  0.6657627118868774  0.9496491163076186  0.5757355811857607   F   F   F
  0.6659691358167450  0.4431914244446773  0.4246048773233824   F   F   F
  0.8332171110537487  0.0068546673212850  0.4293071846789616   F   F   F
  0.8321535792946975  0.5077283800668866  0.5758917317004091   F   F   F
  0.6646027347791374  0.3428111705567289  0.6153129604108400   F   F   F
  0.6666377570154651  0.8428955592454415  0.3876697211322622   F   F   F
  0.6651785486880399  0.7359318703568292  0.5760876331582878   F   F   F
  0.6658432924690914  0.2431104425425161  0.4244286205111010   F   F   F
  0.8330804035914809  0.6783403602213056  0.4288402991803224   F   F   F
  0.8316182842022357  0.1776883447117683  0.5755219930365882   F   F   F
  0.0000000000000000  0.5924487840219754  0.5021239067619945   F   F   F
  0.0000000000000000  0.0928972409337945  0.5023424731372472   F   F   F
  0.3349872473586046  0.5907668466136755  0.4994683913743501   F   F   F
  0.3353855055614261  0.0948898379992400  0.4988868514466418   F   F   F
  0.6650127956413954  0.5907668466136755  0.4994683913743501   F   F   F
  0.6646145374385739  0.0948898379992400  0.4988868514466418   F   F   F
  0.4999000299999992  0.8461375359287047  0.6070336318386830   T   T   T
 
  0.00000000E+00  0.00000000E+00  0.00000000E+00
  0.00000000E+00  0.00000000E+00  0.00000000E+00
  0.00000000E+00  0.00000000E+00  0.00000000E+00
  0.00000000E+00  0.00000000E+00  0.00000000E+00
  0.00000000E+00  0.00000000E+00  0.00000000E+00
  0.00000000E+00  0.00000000E+00  0.00000000E+00
  0.00000000E+00  0.00000000E+00  0.00000000E+00
  0.00000000E+00  0.00000000E+00  0.00000000E+00
  0.00000000E+00  0.00000000E+00  0.00000000E+00
  0.00000000E+00  0.00000000E+00  0.00000000E+00
  0.00000000E+00  0.00000000E+00  0.00000000E+00
  0.00000000E+00  0.00000000E+00  0.00000000E+00
  0.00000000E+00  0.00000000E+00  0.00000000E+00
  0.00000000E+00  0.00000000E+00  0.00000000E+00
  0.00000000E+00  0.00000000E+00  0.00000000E+00
  0.00000000E+00  0.00000000E+00  0.00000000E+00
  0.00000000E+00  0.00000000E+00  0.00000000E+00
  0.00000000E+00  0.00000000E+00  0.00000000E+00
  0.00000000E+00  0.00000000E+00  0.00000000E+00
  0.00000000E+00  0.00000000E+00  0.00000000E+00
  0.00000000E+00  0.00000000E+00  0.00000000E+00
  0.00000000E+00  0.00000000E+00  0.00000000E+00
  0.00000000E+00  0.00000000E+00  0.00000000E+00
  0.00000000E+00  0.00000000E+00  0.00000000E+00
  0.00000000E+00  0.00000000E+00  0.00000000E+00
  0.00000000E+00  0.00000000E+00  0.00000000E+00
  0.00000000E+00  0.00000000E+00  0.00000000E+00
  0.00000000E+00  0.00000000E+00  0.00000000E+00
  0.00000000E+00  0.00000000E+00  0.00000000E+00
  0.00000000E+00  0.00000000E+00  0.00000000E+00
  0.00000000E+00  0.00000000E+00  0.00000000E+00
  0.00000000E+00  0.00000000E+00  0.00000000E+00
  0.00000000E+00  0.00000000E+00  0.00000000E+00
  0.00000000E+00  0.00000000E+00  0.00000000E+00
  0.00000000E+00  0.00000000E+00  0.00000000E+00
  0.00000000E+00  0.00000000E+00  0.00000000E+00
  0.00000000E+00  0.00000000E+00  0.00000000E+00
  0.00000000E+00  0.00000000E+00  0.00000000E+00
  0.00000000E+00  0.00000000E+00  0.00000000E+00
  0.00000000E+00  0.00000000E+00  0.00000000E+00
  0.00000000E+00  0.00000000E+00  0.00000000E+00
  0.00000000E+00  0.00000000E+00  0.00000000E+00
  0.00000000E+00  0.00000000E+00  0.00000000E+00
