 Nb6 Se18                               
   1.00000000000000     
     3.4757159874547554    0.0000000000000000    0.0000000000000000
     0.0000000000000000   15.5414090757508632    0.0000000000000000
     0.0000000000000000    0.0000000000000000   22.9931465255982417
   Nb   Se
     6    18
Direct
  0.2499999065539598  0.4928234789872974  0.4143468990446877
  0.7500000598200600  0.5057256121951852  0.5856512310493827
  0.2500000172313079  0.2463396176552450  0.5717683129190689
  0.7499999871335774  0.7522415852409807  0.4282336390162271
  0.2500000366265525  0.9150159083502203  0.5655953327742154
  0.7499999945933951  0.0835646644474508  0.4343876261964184
  0.2500000548398020  0.6316716629640737  0.6071291454574990
  0.7499999147343246  0.3668329453241768  0.3929317931931280
  0.2500000370906079  0.4172513574426873  0.5226796201264534
  0.7499999327576248  0.5814065888194975  0.4772846952059737
  0.2500000721695201  0.5114264560433384  0.6733877151028125
  0.7499998959494931  0.4870526793990138  0.3266207748486707
  0.7500000237493367  0.9189184394534351  0.4780883928255690
  0.2500000015014265  0.0796786395875202  0.5218788095220503
  0.7500000320920250  0.9891255417670166  0.6378724681471368
  0.2499999973115550  0.0095027417624962  0.3620826139508679
  0.7500000381619216  0.8265574419226169  0.6287584346724984
  0.2499999870877048  0.1719939844403839  0.3712150343382561
  0.7500000112518990  0.1601382614363231  0.6357521875425860
  0.2500000044236970  0.8384483642426446  0.3643117334377521
  0.7500000259796380  0.3437271025377129  0.6307000040293431
  0.2499999628621055  0.6548688791085766  0.3693407965242628
  0.7500000104096145  0.2430910210580777  0.4847898944433098
  0.2499999956688583  0.7554518292381900  0.5151928456318373
 
  0.00000000E+00  0.00000000E+00  0.00000000E+00
  0.00000000E+00  0.00000000E+00  0.00000000E+00
  0.00000000E+00  0.00000000E+00  0.00000000E+00
  0.00000000E+00  0.00000000E+00  0.00000000E+00
  0.00000000E+00  0.00000000E+00  0.00000000E+00
  0.00000000E+00  0.00000000E+00  0.00000000E+00
  0.00000000E+00  0.00000000E+00  0.00000000E+00
  0.00000000E+00  0.00000000E+00  0.00000000E+00
  0.00000000E+00  0.00000000E+00  0.00000000E+00
  0.00000000E+00  0.00000000E+00  0.00000000E+00
  0.00000000E+00  0.00000000E+00  0.00000000E+00
  0.00000000E+00  0.00000000E+00  0.00000000E+00
  0.00000000E+00  0.00000000E+00  0.00000000E+00
  0.00000000E+00  0.00000000E+00  0.00000000E+00
  0.00000000E+00  0.00000000E+00  0.00000000E+00
  0.00000000E+00  0.00000000E+00  0.00000000E+00
  0.00000000E+00  0.00000000E+00  0.00000000E+00
  0.00000000E+00  0.00000000E+00  0.00000000E+00
  0.00000000E+00  0.00000000E+00  0.00000000E+00
  0.00000000E+00  0.00000000E+00  0.00000000E+00
  0.00000000E+00  0.00000000E+00  0.00000000E+00
  0.00000000E+00  0.00000000E+00  0.00000000E+00
  0.00000000E+00  0.00000000E+00  0.00000000E+00
  0.00000000E+00  0.00000000E+00  0.00000000E+00
