G   58   13    1    0.005     # Parameters to Generate KPOINTS (Don't Edit This Line)
     210
Reciprocal lattice
    0.000000000000    0.000000000000    0.000000000000       1
    0.017241379310    0.000000000000    0.000000000000       2
    0.034482758621    0.000000000000    0.000000000000       2
    0.051724137931    0.000000000000    0.000000000000       2
    0.068965517241    0.000000000000    0.000000000000       2
    0.086206896552    0.000000000000    0.000000000000       2
    0.103448275862    0.000000000000    0.000000000000       2
    0.120689655172    0.000000000000    0.000000000000       2
    0.137931034483    0.000000000000    0.000000000000       2
    0.155172413793    0.000000000000    0.000000000000       2
    0.172413793103    0.000000000000    0.000000000000       2
    0.189655172414    0.000000000000    0.000000000000       2
    0.206896551724    0.000000000000    0.000000000000       2
    0.224137931034    0.000000000000    0.000000000000       2
    0.241379310345    0.000000000000    0.000000000000       2
    0.258620689655    0.000000000000    0.000000000000       2
    0.275862068966    0.000000000000    0.000000000000       2
    0.293103448276    0.000000000000    0.000000000000       2
    0.310344827586    0.000000000000    0.000000000000       2
    0.327586206897    0.000000000000    0.000000000000       2
    0.344827586207    0.000000000000    0.000000000000       2
    0.362068965517    0.000000000000    0.000000000000       2
    0.379310344828    0.000000000000    0.000000000000       2
    0.396551724138    0.000000000000    0.000000000000       2
    0.413793103448    0.000000000000    0.000000000000       2
    0.431034482759    0.000000000000    0.000000000000       2
    0.448275862069    0.000000000000    0.000000000000       2
    0.465517241379    0.000000000000    0.000000000000       2
    0.482758620690    0.000000000000    0.000000000000       2
    0.500000000000    0.000000000000    0.000000000000       1
    0.000000000000    0.076923076923    0.000000000000       2
    0.017241379310    0.076923076923    0.000000000000       4
    0.034482758621    0.076923076923    0.000000000000       4
    0.051724137931    0.076923076923    0.000000000000       4
    0.068965517241    0.076923076923    0.000000000000       4
    0.086206896552    0.076923076923    0.000000000000       4
    0.103448275862    0.076923076923    0.000000000000       4
    0.120689655172    0.076923076923    0.000000000000       4
    0.137931034483    0.076923076923    0.000000000000       4
    0.155172413793    0.076923076923    0.000000000000       4
    0.172413793103    0.076923076923    0.000000000000       4
    0.189655172414    0.076923076923    0.000000000000       4
    0.206896551724    0.076923076923    0.000000000000       4
    0.224137931034    0.076923076923    0.000000000000       4
    0.241379310345    0.076923076923    0.000000000000       4
    0.258620689655    0.076923076923    0.000000000000       4
    0.275862068966    0.076923076923    0.000000000000       4
    0.293103448276    0.076923076923    0.000000000000       4
    0.310344827586    0.076923076923    0.000000000000       4
    0.327586206897    0.076923076923    0.000000000000       4
    0.344827586207    0.076923076923    0.000000000000       4
    0.362068965517    0.076923076923    0.000000000000       4
    0.379310344828    0.076923076923    0.000000000000       4
    0.396551724138    0.076923076923    0.000000000000       4
    0.413793103448    0.076923076923    0.000000000000       4
    0.431034482759    0.076923076923    0.000000000000       4
    0.448275862069    0.076923076923    0.000000000000       4
    0.465517241379    0.076923076923    0.000000000000       4
    0.482758620690    0.076923076923    0.000000000000       4
    0.500000000000    0.076923076923    0.000000000000       2
    0.000000000000    0.153846153846    0.000000000000       2
    0.017241379310    0.153846153846    0.000000000000       4
    0.034482758621    0.153846153846    0.000000000000       4
    0.051724137931    0.153846153846    0.000000000000       4
    0.068965517241    0.153846153846    0.000000000000       4
    0.086206896552    0.153846153846    0.000000000000       4
    0.103448275862    0.153846153846    0.000000000000       4
    0.120689655172    0.153846153846    0.000000000000       4
    0.137931034483    0.153846153846    0.000000000000       4
    0.155172413793    0.153846153846    0.000000000000       4
    0.172413793103    0.153846153846    0.000000000000       4
    0.189655172414    0.153846153846    0.000000000000       4
    0.206896551724    0.153846153846    0.000000000000       4
    0.224137931034    0.153846153846    0.000000000000       4
    0.241379310345    0.153846153846    0.000000000000       4
    0.258620689655    0.153846153846    0.000000000000       4
    0.275862068966    0.153846153846    0.000000000000       4
    0.293103448276    0.153846153846    0.000000000000       4
    0.310344827586    0.153846153846    0.000000000000       4
    0.327586206897    0.153846153846    0.000000000000       4
    0.344827586207    0.153846153846    0.000000000000       4
    0.362068965517    0.153846153846    0.000000000000       4
    0.379310344828    0.153846153846    0.000000000000       4
    0.396551724138    0.153846153846    0.000000000000       4
    0.413793103448    0.153846153846    0.000000000000       4
    0.431034482759    0.153846153846    0.000000000000       4
    0.448275862069    0.153846153846    0.000000000000       4
    0.465517241379    0.153846153846    0.000000000000       4
    0.482758620690    0.153846153846    0.000000000000       4
    0.500000000000    0.153846153846    0.000000000000       2
    0.000000000000    0.230769230769    0.000000000000       2
    0.017241379310    0.230769230769    0.000000000000       4
    0.034482758621    0.230769230769    0.000000000000       4
    0.051724137931    0.230769230769    0.000000000000       4
    0.068965517241    0.230769230769    0.000000000000       4
    0.086206896552    0.230769230769    0.000000000000       4
    0.103448275862    0.230769230769    0.000000000000       4
    0.120689655172    0.230769230769    0.000000000000       4
    0.137931034483    0.230769230769    0.000000000000       4
    0.155172413793    0.230769230769    0.000000000000       4
    0.172413793103    0.230769230769    0.000000000000       4
    0.189655172414    0.230769230769    0.000000000000       4
    0.206896551724    0.230769230769    0.000000000000       4
    0.224137931034    0.230769230769    0.000000000000       4
    0.241379310345    0.230769230769    0.000000000000       4
    0.258620689655    0.230769230769    0.000000000000       4
    0.275862068966    0.230769230769    0.000000000000       4
    0.293103448276    0.230769230769    0.000000000000       4
    0.310344827586    0.230769230769    0.000000000000       4
    0.327586206897    0.230769230769    0.000000000000       4
    0.344827586207    0.230769230769    0.000000000000       4
    0.362068965517    0.230769230769    0.000000000000       4
    0.379310344828    0.230769230769    0.000000000000       4
    0.396551724138    0.230769230769    0.000000000000       4
    0.413793103448    0.230769230769    0.000000000000       4
    0.431034482759    0.230769230769    0.000000000000       4
    0.448275862069    0.230769230769    0.000000000000       4
    0.465517241379    0.230769230769    0.000000000000       4
    0.482758620690    0.230769230769    0.000000000000       4
    0.500000000000    0.230769230769    0.000000000000       2
    0.000000000000    0.307692307692    0.000000000000       2
    0.017241379310    0.307692307692    0.000000000000       4
    0.034482758621    0.307692307692    0.000000000000       4
    0.051724137931    0.307692307692    0.000000000000       4
    0.068965517241    0.307692307692    0.000000000000       4
    0.086206896552    0.307692307692    0.000000000000       4
    0.103448275862    0.307692307692    0.000000000000       4
    0.120689655172    0.307692307692    0.000000000000       4
    0.137931034483    0.307692307692    0.000000000000       4
    0.155172413793    0.307692307692    0.000000000000       4
    0.172413793103    0.307692307692    0.000000000000       4
    0.189655172414    0.307692307692    0.000000000000       4
    0.206896551724    0.307692307692    0.000000000000       4
    0.224137931034    0.307692307692    0.000000000000       4
    0.241379310345    0.307692307692    0.000000000000       4
    0.258620689655    0.307692307692    0.000000000000       4
    0.275862068966    0.307692307692    0.000000000000       4
    0.293103448276    0.307692307692    0.000000000000       4
    0.310344827586    0.307692307692    0.000000000000       4
    0.327586206897    0.307692307692    0.000000000000       4
    0.344827586207    0.307692307692    0.000000000000       4
    0.362068965517    0.307692307692    0.000000000000       4
    0.379310344828    0.307692307692    0.000000000000       4
    0.396551724138    0.307692307692    0.000000000000       4
    0.413793103448    0.307692307692    0.000000000000       4
    0.431034482759    0.307692307692    0.000000000000       4
    0.448275862069    0.307692307692    0.000000000000       4
    0.465517241379    0.307692307692    0.000000000000       4
    0.482758620690    0.307692307692    0.000000000000       4
    0.500000000000    0.307692307692    0.000000000000       2
    0.000000000000    0.384615384615    0.000000000000       2
    0.017241379310    0.384615384615    0.000000000000       4
    0.034482758621    0.384615384615    0.000000000000       4
    0.051724137931    0.384615384615    0.000000000000       4
    0.068965517241    0.384615384615    0.000000000000       4
    0.086206896552    0.384615384615    0.000000000000       4
    0.103448275862    0.384615384615    0.000000000000       4
    0.120689655172    0.384615384615    0.000000000000       4
    0.137931034483    0.384615384615    0.000000000000       4
    0.155172413793    0.384615384615    0.000000000000       4
    0.172413793103    0.384615384615    0.000000000000       4
    0.189655172414    0.384615384615    0.000000000000       4
    0.206896551724    0.384615384615    0.000000000000       4
    0.224137931034    0.384615384615    0.000000000000       4
    0.241379310345    0.384615384615    0.000000000000       4
    0.258620689655    0.384615384615    0.000000000000       4
    0.275862068966    0.384615384615    0.000000000000       4
    0.293103448276    0.384615384615    0.000000000000       4
    0.310344827586    0.384615384615    0.000000000000       4
    0.327586206897    0.384615384615    0.000000000000       4
    0.344827586207    0.384615384615    0.000000000000       4
    0.362068965517    0.384615384615    0.000000000000       4
    0.379310344828    0.384615384615    0.000000000000       4
    0.396551724138    0.384615384615    0.000000000000       4
    0.413793103448    0.384615384615    0.000000000000       4
    0.431034482759    0.384615384615    0.000000000000       4
    0.448275862069    0.384615384615    0.000000000000       4
    0.465517241379    0.384615384615    0.000000000000       4
    0.482758620690    0.384615384615    0.000000000000       4
    0.500000000000    0.384615384615    0.000000000000       2
    0.000000000000    0.461538461538    0.000000000000       2
    0.017241379310    0.461538461538    0.000000000000       4
    0.034482758621    0.461538461538    0.000000000000       4
    0.051724137931    0.461538461538    0.000000000000       4
    0.068965517241    0.461538461538    0.000000000000       4
    0.086206896552    0.461538461538    0.000000000000       4
    0.103448275862    0.461538461538    0.000000000000       4
    0.120689655172    0.461538461538    0.000000000000       4
    0.137931034483    0.461538461538    0.000000000000       4
    0.155172413793    0.461538461538    0.000000000000       4
    0.172413793103    0.461538461538    0.000000000000       4
    0.189655172414    0.461538461538    0.000000000000       4
    0.206896551724    0.461538461538    0.000000000000       4
    0.224137931034    0.461538461538    0.000000000000       4
    0.241379310345    0.461538461538    0.000000000000       4
    0.258620689655    0.461538461538    0.000000000000       4
    0.275862068966    0.461538461538    0.000000000000       4
    0.293103448276    0.461538461538    0.000000000000       4
    0.310344827586    0.461538461538    0.000000000000       4
    0.327586206897    0.461538461538    0.000000000000       4
    0.344827586207    0.461538461538    0.000000000000       4
    0.362068965517    0.461538461538    0.000000000000       4
    0.379310344828    0.461538461538    0.000000000000       4
    0.396551724138    0.461538461538    0.000000000000       4
    0.413793103448    0.461538461538    0.000000000000       4
    0.431034482759    0.461538461538    0.000000000000       4
    0.448275862069    0.461538461538    0.000000000000       4
    0.465517241379    0.461538461538    0.000000000000       4
    0.482758620690    0.461538461538    0.000000000000       4
    0.500000000000    0.461538461538    0.000000000000       2
