CONTCAR\(12)                            
   1.00000000000000     
    13.0895996094000004    0.0000000000000000    0.0000000000000000
     6.5373165239000004   11.3368964473999991    0.0000000000000000
     0.0000000000000000    0.0000000000000000   17.7437992095999988
   Cr   S    O    H 
    16    32     2     1
Selective dynamics
Direct
  0.0058309463969053  0.2447783643198704  0.5044943889143383   F   F   F
  0.2359511397823084  0.2360808212840482  0.5050580865973231   F   F   F
  0.4986876801857534  0.2327804902669470  0.4999299039504166   F   F   F
  0.7637391847123212  0.2202378172164785  0.5026707076479369   F   F   F
  0.9950395571538095  0.5161386864777953  0.4986994705795240   F   F   F
  0.2242376331714340  0.5068010983025744  0.4991325566086502   F   F   F
  0.4579317889205470  0.5187674977304582  0.4870209614416723   F   F   F
  0.7422683970779431  0.5280883127388094  0.5011398565902851   F   F   F
  0.9933682263118939  0.7407287957089679  0.5034571258376275   F   F   F
  0.2257570380120129  0.7762083943343399  0.5011050602499338   F   F   F
  0.5054714941537171  0.7529909910907833  0.4995576702929228   F   F   F
  0.7483179158687250  0.7626966405778077  0.4994355710101104   F   F   F
  0.0065112050765350  0.0070078179210213  0.5037545983737033   F   F   F
  0.2387399024267864  0.0040993672764316  0.5016534920417826   F   F   F
  0.5056327657639486  0.0034586932603347  0.4995487589816392   F   F   F
  0.7312719901918925  0.0021377026285379  0.5033015534673311   F   F   F
  0.0785086986303654  0.0847972915705313  0.4191783921419514   F   F   F
  0.1608695381076899  0.1641020827359512  0.5894065249925333   F   F   F
  0.3298220275892234  0.0811576677432271  0.4240835002220891   F   F   F
  0.4081359742560267  0.1659144706830489  0.5801142093795875   F   F   F
  0.5799066081949462  0.0840336556831360  0.4145466850931214   F   F   F
  0.6620719169123319  0.1633271574287818  0.5823424031639064   F   F   F
  0.8350773735246051  0.0742182872786188  0.4224018211648684   F   F   F
  0.9148876853237127  0.1659358130451949  0.5852292720297925   F   F   F
  0.0752441342792878  0.3370082672699581  0.4255974050102580   F   F   F
  0.1580976013417441  0.4163180958360613  0.5777323828782102   F   F   F
  0.3216772908321346  0.3287733255784246  0.4300229618404998   F   F   F
  0.4044305718650563  0.4185843703425576  0.5686377309051878   F   F   F
  0.5812474138277395  0.3312447820897688  0.4343876633004697   F   F   F
  0.6687054253976754  0.4161178459901222  0.5631306876751054   F   F   F
  0.8280163375698706  0.3353847083471848  0.4363972160253908   F   F   F
  0.9130121935912712  0.4248120235940647  0.5735135205645392   F   F   F
  0.0742958107680423  0.5892184297120551  0.4136416094798605   F   F   F
  0.1577183818562347  0.6730506579620368  0.5780560178821048   F   F   F
  0.3061653855229096  0.5995347623200260  0.4152231215681397   F   F   F
  0.4083170066161870  0.6703342319378294  0.5706675234768426   F   F   F
  0.5784738571180696  0.5843939100820847  0.4251167796790583   F   F   F
  0.6638981649330091  0.6786158099326158  0.5833528539682362   F   F   F
  0.8287697678525987  0.5948308159103206  0.4191146338932370   F   F   F
  0.9093318791655491  0.6723636944875793  0.5838254605333688   F   F   F
  0.0695008681277400  0.8421970754624013  0.4234975438076773   F   F   F
  0.1597649115633004  0.9229869176927110  0.5872429101007057   F   F   F
  0.3293754512167126  0.8377080802930550  0.4243261329516343   F   F   F
  0.4140974545809613  0.9206745988187635  0.5759028140049196   F   F   F
  0.5818091765715394  0.8394017195897945  0.4201468448009891   F   F   F
  0.6621549457565266  0.9203131027507609  0.5848680364283823   F   F   F
  0.8287632254183279  0.8404143077127486  0.4212911399033956   F   F   F
  0.9106271832881561  0.9186029843536900  0.5699705870416025   F   F   F
  0.6741846822108286  0.4364326871172040  0.6564691307418542   T   T   T
  0.6126749736422994  0.3860079962276828  0.6983174660066283   T   T   T
  0.5303585603407939  0.4510075442847992  0.6937114700158211   T   T   T
 
  0.00000000E+00  0.00000000E+00  0.00000000E+00
  0.00000000E+00  0.00000000E+00  0.00000000E+00
  0.00000000E+00  0.00000000E+00  0.00000000E+00
  0.00000000E+00  0.00000000E+00  0.00000000E+00
  0.00000000E+00  0.00000000E+00  0.00000000E+00
  0.00000000E+00  0.00000000E+00  0.00000000E+00
  0.00000000E+00  0.00000000E+00  0.00000000E+00
  0.00000000E+00  0.00000000E+00  0.00000000E+00
  0.00000000E+00  0.00000000E+00  0.00000000E+00
  0.00000000E+00  0.00000000E+00  0.00000000E+00
  0.00000000E+00  0.00000000E+00  0.00000000E+00
  0.00000000E+00  0.00000000E+00  0.00000000E+00
  0.00000000E+00  0.00000000E+00  0.00000000E+00
  0.00000000E+00  0.00000000E+00  0.00000000E+00
  0.00000000E+00  0.00000000E+00  0.00000000E+00
  0.00000000E+00  0.00000000E+00  0.00000000E+00
  0.00000000E+00  0.00000000E+00  0.00000000E+00
  0.00000000E+00  0.00000000E+00  0.00000000E+00
  0.00000000E+00  0.00000000E+00  0.00000000E+00
  0.00000000E+00  0.00000000E+00  0.00000000E+00
  0.00000000E+00  0.00000000E+00  0.00000000E+00
  0.00000000E+00  0.00000000E+00  0.00000000E+00
  0.00000000E+00  0.00000000E+00  0.00000000E+00
  0.00000000E+00  0.00000000E+00  0.00000000E+00
  0.00000000E+00  0.00000000E+00  0.00000000E+00
  0.00000000E+00  0.00000000E+00  0.00000000E+00
  0.00000000E+00  0.00000000E+00  0.00000000E+00
  0.00000000E+00  0.00000000E+00  0.00000000E+00
  0.00000000E+00  0.00000000E+00  0.00000000E+00
  0.00000000E+00  0.00000000E+00  0.00000000E+00
  0.00000000E+00  0.00000000E+00  0.00000000E+00
  0.00000000E+00  0.00000000E+00  0.00000000E+00
  0.00000000E+00  0.00000000E+00  0.00000000E+00
  0.00000000E+00  0.00000000E+00  0.00000000E+00
  0.00000000E+00  0.00000000E+00  0.00000000E+00
  0.00000000E+00  0.00000000E+00  0.00000000E+00
  0.00000000E+00  0.00000000E+00  0.00000000E+00
  0.00000000E+00  0.00000000E+00  0.00000000E+00
  0.00000000E+00  0.00000000E+00  0.00000000E+00
  0.00000000E+00  0.00000000E+00  0.00000000E+00
  0.00000000E+00  0.00000000E+00  0.00000000E+00
  0.00000000E+00  0.00000000E+00  0.00000000E+00
  0.00000000E+00  0.00000000E+00  0.00000000E+00
  0.00000000E+00  0.00000000E+00  0.00000000E+00
  0.00000000E+00  0.00000000E+00  0.00000000E+00
  0.00000000E+00  0.00000000E+00  0.00000000E+00
  0.00000000E+00  0.00000000E+00  0.00000000E+00
  0.00000000E+00  0.00000000E+00  0.00000000E+00
  0.00000000E+00  0.00000000E+00  0.00000000E+00
  0.00000000E+00  0.00000000E+00  0.00000000E+00
  0.00000000E+00  0.00000000E+00  0.00000000E+00
