CONTCAR\(13)                            
   1.00000000000000     
    12.9062995910999998    0.0000000000000000    0.0000000000000000
     6.4531410738000003   11.1773039768999993    0.0000000000000000
     0.0000000000000000    0.0000000000000000   25.2430000304999993
   Bi   Se   O 
    27    36     1
Direct
  0.0004154608212192  0.0004154608212192  0.4973141426083171
  0.1108442306905863  0.1108442436905838  0.3538988516875649
  0.2223020062970838  0.2223020332970825  0.6452626901887645
  0.3346401720860762  0.9972433078022380  0.4991478442657382
  0.4440829534422976  0.1112754884998739  0.3545881715111409
  0.5599616181937713  0.2209942106385235  0.6443301007768063
  0.6658676225476713  0.0002213763221112  0.4979037582309281
  0.7785011906653694  0.1106441540198581  0.3531359479110773
  0.8860630449036294  0.2211744229031382  0.6438932157000445
  0.9972433018022375  0.3346401900860706  0.4991478442657382
  0.1112754644998790  0.4440829774422996  0.3545881715111409
  0.2209942036385265  0.5599616501937740  0.6443301007768063
  0.3349974274656123  0.3349974694656087  0.4991291457649027
  0.4444161804285120  0.4444162334285128  0.3543110194806727
  0.5554615844527383  0.5554615594527398  0.7017141848651202
  0.6655200486389915  0.3348354453016141  0.5000095872635889
  0.7780878893876224  0.4442455494900478  0.3543055244127336
  0.8864803850709198  0.5597028661213956  0.6440803234362753
  0.0002213773221078  0.6658676355476688  0.4979037582309281
  0.1106441600198586  0.7785011976653664  0.3531359479110773
  0.2211744069031369  0.8860630269036279  0.6438932157000445
  0.3348354273016197  0.6655200486389915  0.5000095872635889
  0.4442454894900499  0.7780878893876224  0.3543055244127336
  0.5597028821213899  0.8864803840709232  0.6440803234362753
  0.6652592157394677  0.6652592647394682  0.5001674498703529
  0.7778986585577319  0.7778986645577324  0.3535582895852384
  0.8891384729648419  0.8891384809648426  0.6427206372955069
  0.0002117496276397  0.0002117496276397  0.2965121013664134
  0.0009015263084025  0.0009015263084025  0.6987111514096308
  0.1114378144329357  0.1114378274329332  0.5626707173173131
  0.2222244364958652  0.2222244634958639  0.4319418679150349
  0.3337757309711797  0.9995473075663197  0.2975267946677921
  0.3345590001623995  0.9979042100281922  0.6994070538152077
  0.4438562960769869  0.1114514424550701  0.5625449591207310
  0.5556662588183743  0.2225237102843325  0.4320126816589081
  0.6655980666318706  0.0001747539991181  0.2972433534916856
  0.6657683404841672  0.0005844759402262  0.6989427427534464
  0.7786375968852269  0.1099417367009810  0.5632342361921734
  0.8879675460195559  0.2225976586663566  0.4320349908811711
  0.9995473015663192  0.3337757489711741  0.2975267946677921
  0.9979042040281917  0.3345590181623939  0.6994070538152077
  0.1114514184550752  0.4438563200769889  0.5625449591207310
  0.2225237032843355  0.5556662908183769  0.4320126816589081
  0.3333482710313203  0.3333483130313166  0.2976472307441337
  0.3345079268772645  0.3345079688772609  0.6996459609649215
  0.4451102557885808  0.4451103087885816  0.5635615068777656
  0.5554306504734354  0.5554306254734369  0.4326134244856438
  0.6668567368756785  0.3329498349441330  0.2975425476636691
  0.6901155413867485  0.2873733824273085  0.7091696000224776
  0.7764722569471315  0.4445661158487252  0.5634735120008015
  0.8877567072713081  0.5560726068092794  0.4323905194156697
  0.0001747549991147  0.6655980796318681  0.2972433534916856
  0.0005844769402227  0.6657683534841647  0.6989427427534464
  0.1099417427009814  0.7786376038852240  0.5632342361921734
  0.2225976426663553  0.8879675280195544  0.4320349908811711
  0.3329498169441387  0.6668567368756785  0.2975425476636691
  0.2873733644273141  0.6901155413867485  0.7091696000224776
  0.4445660558487274  0.7764722569471315  0.5634735120008015
  0.5560726228092736  0.8877567062713115  0.4323905194156697
  0.6668306858043251  0.6668307348043256  0.2976857664896211
  0.6897132346441153  0.6897132836441158  0.7089177784052365
  0.7784447860174823  0.7784447920174828  0.5631366532665740
  0.8890228164434967  0.8890228244434973  0.4323515218301853
  0.5554841324015467  0.5554440934015485  0.7784729771969929
 
  0.00000000E+00  0.00000000E+00  0.00000000E+00
  0.00000000E+00  0.00000000E+00  0.00000000E+00
  0.00000000E+00  0.00000000E+00  0.00000000E+00
  0.00000000E+00  0.00000000E+00  0.00000000E+00
  0.00000000E+00  0.00000000E+00  0.00000000E+00
  0.00000000E+00  0.00000000E+00  0.00000000E+00
  0.00000000E+00  0.00000000E+00  0.00000000E+00
  0.00000000E+00  0.00000000E+00  0.00000000E+00
  0.00000000E+00  0.00000000E+00  0.00000000E+00
  0.00000000E+00  0.00000000E+00  0.00000000E+00
  0.00000000E+00  0.00000000E+00  0.00000000E+00
  0.00000000E+00  0.00000000E+00  0.00000000E+00
  0.00000000E+00  0.00000000E+00  0.00000000E+00
  0.00000000E+00  0.00000000E+00  0.00000000E+00
  0.00000000E+00  0.00000000E+00  0.00000000E+00
  0.00000000E+00  0.00000000E+00  0.00000000E+00
  0.00000000E+00  0.00000000E+00  0.00000000E+00
  0.00000000E+00  0.00000000E+00  0.00000000E+00
  0.00000000E+00  0.00000000E+00  0.00000000E+00
  0.00000000E+00  0.00000000E+00  0.00000000E+00
  0.00000000E+00  0.00000000E+00  0.00000000E+00
  0.00000000E+00  0.00000000E+00  0.00000000E+00
  0.00000000E+00  0.00000000E+00  0.00000000E+00
  0.00000000E+00  0.00000000E+00  0.00000000E+00
  0.00000000E+00  0.00000000E+00  0.00000000E+00
  0.00000000E+00  0.00000000E+00  0.00000000E+00
  0.00000000E+00  0.00000000E+00  0.00000000E+00
  0.00000000E+00  0.00000000E+00  0.00000000E+00
  0.00000000E+00  0.00000000E+00  0.00000000E+00
  0.00000000E+00  0.00000000E+00  0.00000000E+00
  0.00000000E+00  0.00000000E+00  0.00000000E+00
  0.00000000E+00  0.00000000E+00  0.00000000E+00
  0.00000000E+00  0.00000000E+00  0.00000000E+00
  0.00000000E+00  0.00000000E+00  0.00000000E+00
  0.00000000E+00  0.00000000E+00  0.00000000E+00
  0.00000000E+00  0.00000000E+00  0.00000000E+00
  0.00000000E+00  0.00000000E+00  0.00000000E+00
  0.00000000E+00  0.00000000E+00  0.00000000E+00
  0.00000000E+00  0.00000000E+00  0.00000000E+00
  0.00000000E+00  0.00000000E+00  0.00000000E+00
  0.00000000E+00  0.00000000E+00  0.00000000E+00
  0.00000000E+00  0.00000000E+00  0.00000000E+00
  0.00000000E+00  0.00000000E+00  0.00000000E+00
  0.00000000E+00  0.00000000E+00  0.00000000E+00
  0.00000000E+00  0.00000000E+00  0.00000000E+00
  0.00000000E+00  0.00000000E+00  0.00000000E+00
  0.00000000E+00  0.00000000E+00  0.00000000E+00
  0.00000000E+00  0.00000000E+00  0.00000000E+00
  0.00000000E+00  0.00000000E+00  0.00000000E+00
  0.00000000E+00  0.00000000E+00  0.00000000E+00
  0.00000000E+00  0.00000000E+00  0.00000000E+00
  0.00000000E+00  0.00000000E+00  0.00000000E+00
  0.00000000E+00  0.00000000E+00  0.00000000E+00
  0.00000000E+00  0.00000000E+00  0.00000000E+00
  0.00000000E+00  0.00000000E+00  0.00000000E+00
  0.00000000E+00  0.00000000E+00  0.00000000E+00
  0.00000000E+00  0.00000000E+00  0.00000000E+00
  0.00000000E+00  0.00000000E+00  0.00000000E+00
  0.00000000E+00  0.00000000E+00  0.00000000E+00
  0.00000000E+00  0.00000000E+00  0.00000000E+00
  0.00000000E+00  0.00000000E+00  0.00000000E+00
  0.00000000E+00  0.00000000E+00  0.00000000E+00
  0.00000000E+00  0.00000000E+00  0.00000000E+00
  0.00000000E+00  0.00000000E+00  0.00000000E+00
