CONTCAR                                 
   1.00000000000000     
     9.7571001052999993    0.0000000000000000    0.0000000000000000
    -3.0063686365000000   15.8319856181999992    0.0000000000000000
     0.0000000000000000    0.0000000000000000   18.2793006897000012
   V    P    S    O    H 
     4     8    26     2     1
Direct
  0.6129987723081732  0.6041724976891247  0.4992680597755741
  0.6119538960287817  0.1045015081646919  0.5049857669837512
  0.3806938406301940  0.3956184810361580  0.5055059668515702
  0.3806510204996077  0.8953969599657040  0.4968193989016496
  0.8252162412153463  0.2609218914529017  0.4997423251847026
  0.6919776070392557  0.4343567707656903  0.5417480340330262
  0.1684776636734760  0.7385610594912847  0.5037553491641049
  0.1679723691398304  0.2393866585926640  0.4979388086798371
  0.2995512229082232  0.0648758979617770  0.5376005790045782
  0.6925802025881033  0.9344916232295625  0.4625810119290331
  0.3015768180797012  0.5654200864543181  0.4632998955873738
  0.8256467293393679  0.7608331693464622  0.5051646227485295
  0.1086873299709682  0.1089620469502844  0.5265813171517861
  0.8841355409537121  0.8909847282991603  0.4743822808829850
  0.9982752703350571  0.7505256959341915  0.5744437791112894
  0.3908703114074650  0.0405926755263894  0.4394709004933020
  0.5379363465723009  0.3543169188260440  0.5934799936855055
  0.2391668881503611  0.4521702825619300  0.4151521966601477
  0.1945854812328742  0.3188232823909145  0.5833806066635854
  0.6592001740022357  0.7335158966754677  0.5717018129564089
  0.4550255162339141  0.6455718977604632  0.4114424471089244
  0.6053253184937968  0.4600357237321779  0.4426277888279277
  0.6585011851273598  0.2335430214882200  0.4331800917854720
  0.8838405511041635  0.3909870297215843  0.5312364793660164
  0.9957679470543476  0.2511250428305034  0.4287554123909332
  0.6029913030235916  0.9594567366140657  0.5611620984700583
  0.7988652248668118  0.6798877126617134  0.4207981008685746
  0.3887593647634210  0.5400175699519213  0.5623078090240095
  0.1953694324536016  0.8171683219030633  0.4180109751417557
  0.7544456866525611  0.5477648740776760  0.5898443463593014
  0.5396823672820511  0.8551872062300228  0.4093458511684028
  0.2298218946419656  0.9504645879045360  0.5821783793584405
  0.3357206864304402  0.7670008083535442  0.5699678791905837
  0.7986784167132571  0.1799206668348223  0.5839019322713311
  0.7573389055194435  0.0481253262016599  0.4156369638825407
  0.4523022374922319  0.1426043417859997  0.5924399314357752
  0.1092773746060874  0.6080360512145627  0.4745873463308751
  0.3351056087892106  0.2674791559632103  0.4319318683795854
  0.2357345643671683  0.9761584526932480  0.7417945932507781
  0.3638989161162868  0.9679783700631807  0.7659856413445983
  0.3586136651930463  0.9062891226995136  0.7707914955956044
 
  0.00000000E+00  0.00000000E+00  0.00000000E+00
  0.00000000E+00  0.00000000E+00  0.00000000E+00
  0.00000000E+00  0.00000000E+00  0.00000000E+00
  0.00000000E+00  0.00000000E+00  0.00000000E+00
  0.00000000E+00  0.00000000E+00  0.00000000E+00
  0.00000000E+00  0.00000000E+00  0.00000000E+00
  0.00000000E+00  0.00000000E+00  0.00000000E+00
  0.00000000E+00  0.00000000E+00  0.00000000E+00
  0.00000000E+00  0.00000000E+00  0.00000000E+00
  0.00000000E+00  0.00000000E+00  0.00000000E+00
  0.00000000E+00  0.00000000E+00  0.00000000E+00
  0.00000000E+00  0.00000000E+00  0.00000000E+00
  0.00000000E+00  0.00000000E+00  0.00000000E+00
  0.00000000E+00  0.00000000E+00  0.00000000E+00
  0.00000000E+00  0.00000000E+00  0.00000000E+00
  0.00000000E+00  0.00000000E+00  0.00000000E+00
  0.00000000E+00  0.00000000E+00  0.00000000E+00
  0.00000000E+00  0.00000000E+00  0.00000000E+00
  0.00000000E+00  0.00000000E+00  0.00000000E+00
  0.00000000E+00  0.00000000E+00  0.00000000E+00
  0.00000000E+00  0.00000000E+00  0.00000000E+00
  0.00000000E+00  0.00000000E+00  0.00000000E+00
  0.00000000E+00  0.00000000E+00  0.00000000E+00
  0.00000000E+00  0.00000000E+00  0.00000000E+00
  0.00000000E+00  0.00000000E+00  0.00000000E+00
  0.00000000E+00  0.00000000E+00  0.00000000E+00
  0.00000000E+00  0.00000000E+00  0.00000000E+00
  0.00000000E+00  0.00000000E+00  0.00000000E+00
  0.00000000E+00  0.00000000E+00  0.00000000E+00
  0.00000000E+00  0.00000000E+00  0.00000000E+00
  0.00000000E+00  0.00000000E+00  0.00000000E+00
  0.00000000E+00  0.00000000E+00  0.00000000E+00
  0.00000000E+00  0.00000000E+00  0.00000000E+00
  0.00000000E+00  0.00000000E+00  0.00000000E+00
  0.00000000E+00  0.00000000E+00  0.00000000E+00
  0.00000000E+00  0.00000000E+00  0.00000000E+00
  0.00000000E+00  0.00000000E+00  0.00000000E+00
  0.00000000E+00  0.00000000E+00  0.00000000E+00
  0.00000000E+00  0.00000000E+00  0.00000000E+00
  0.00000000E+00  0.00000000E+00  0.00000000E+00
  0.00000000E+00  0.00000000E+00  0.00000000E+00
