CONTCAR\(8)                             
   1.00000000000000     
    13.6164999007999992    0.0000000000000000    0.0000000000000000
     0.0000000000000000   12.7049999237000009    0.0000000000000000
     0.0000000000000000    0.0000000000000000   19.1487998961999999
   Te   Mo   O 
    32    16     1
Direct
  0.1870993173013387  0.2130042113142842  0.4229511243145954
  0.0619738618368384  0.2807975870735624  0.5802165846647271
  0.0624984987532037  0.4586307664342866  0.3930850401018418
  0.1868997211386435  0.0335784476309228  0.6091638888379641
  0.4378616730467830  0.2129449148028241  0.4229096953334873
  0.3124703140855445  0.2799171992980187  0.5799995078893362
  0.3126352815876792  0.4563030178581605  0.3931035355966563
  0.4382031951576961  0.0337340115447182  0.6091534447424650
  0.6878250179443773  0.2137891332293629  0.4227473519060637
  0.5630423585170201  0.2807534797800385  0.5802500577808469
  0.5626796647167984  0.4584159688284254  0.3930275055863131
  0.6876164648460256  0.0353557370612153  0.6093136244837313
  0.9370704366801034  0.2138590709332731  0.4228130711615969
  0.8124602891375124  0.2812241298348767  0.5800657449872453
  0.8124536963060767  0.4593040311184951  0.3931694867753204
  0.9373206969056956  0.0355504957329506  0.6093610878253380
  0.1869627749027971  0.7119425815791228  0.4223827636381747
  0.0625104006706287  0.7823181737823655  0.5794737858697380
  0.0608141263404470  0.9600421312425000  0.3915222131877848
  0.1871579486725812  0.5344857549019593  0.6098557889878070
  0.4380588629837702  0.7120428531804780  0.4224124913470292
  0.3125433945025197  0.7790686103532101  0.5689372264702841
  0.3125274670453371  0.9602388977930781  0.3921825182180213
  0.4380181618467814  0.5343457346344659  0.6098463422367125
  0.6877711939405603  0.7130693311868846  0.4226469855543927
  0.5622570000915929  0.7820614621428602  0.5793661723315526
  0.5641616233226951  0.9601518245760199  0.3914025491180420
  0.6874758456038262  0.5359195912177817  0.6099063345525079
  0.9371366205391671  0.7131948235371764  0.4227207605524801
  0.8123560780132439  0.7818303087163073  0.5796447820297636
  0.8125035033974141  0.9593873476745354  0.3924840875401048
  0.9375431468828545  0.5359661593788719  0.6099470401433308
  0.1868140141075396  0.4051100448205424  0.4969689512600244
  0.0618597918105458  0.0885398047617143  0.5055396501782039
  0.4383315460658679  0.4050079285739161  0.4969601692716139
  0.3125169056093804  0.0877326105561866  0.5057737181163071
  0.6875936084816663  0.4062456747527827  0.4969409579087414
  0.5631665246906897  0.0884913512443951  0.5054982272732316
  0.9373435977311555  0.4063457687123999  0.4969269716443783
  0.8124383617485856  0.0884752777134618  0.5056403040566542
  0.1847229423940938  0.9076524724502461  0.4948537063430478
  0.0624602541609882  0.5882344023940239  0.5059800862161534
  0.4403554745872397  0.9076887903627326  0.4948256607588044
  0.3125962060634896  0.5848647320424899  0.5060613895155464
  0.6875212897956184  0.9061808495965070  0.4961159026836572
  0.5625853802287080  0.5881018165428159  0.5059220024745859
  0.9373386930240166  0.9062702429197833  0.4961934059587850
  0.8124802919263840  0.5886189552312573  0.5061081701223101
  0.3126361488565030  0.7995213389517200  0.6649279374527118
 
  0.00000000E+00  0.00000000E+00  0.00000000E+00
  0.00000000E+00  0.00000000E+00  0.00000000E+00
  0.00000000E+00  0.00000000E+00  0.00000000E+00
  0.00000000E+00  0.00000000E+00  0.00000000E+00
  0.00000000E+00  0.00000000E+00  0.00000000E+00
  0.00000000E+00  0.00000000E+00  0.00000000E+00
  0.00000000E+00  0.00000000E+00  0.00000000E+00
  0.00000000E+00  0.00000000E+00  0.00000000E+00
  0.00000000E+00  0.00000000E+00  0.00000000E+00
  0.00000000E+00  0.00000000E+00  0.00000000E+00
  0.00000000E+00  0.00000000E+00  0.00000000E+00
  0.00000000E+00  0.00000000E+00  0.00000000E+00
  0.00000000E+00  0.00000000E+00  0.00000000E+00
  0.00000000E+00  0.00000000E+00  0.00000000E+00
  0.00000000E+00  0.00000000E+00  0.00000000E+00
  0.00000000E+00  0.00000000E+00  0.00000000E+00
  0.00000000E+00  0.00000000E+00  0.00000000E+00
  0.00000000E+00  0.00000000E+00  0.00000000E+00
  0.00000000E+00  0.00000000E+00  0.00000000E+00
  0.00000000E+00  0.00000000E+00  0.00000000E+00
  0.00000000E+00  0.00000000E+00  0.00000000E+00
  0.00000000E+00  0.00000000E+00  0.00000000E+00
  0.00000000E+00  0.00000000E+00  0.00000000E+00
  0.00000000E+00  0.00000000E+00  0.00000000E+00
  0.00000000E+00  0.00000000E+00  0.00000000E+00
  0.00000000E+00  0.00000000E+00  0.00000000E+00
  0.00000000E+00  0.00000000E+00  0.00000000E+00
  0.00000000E+00  0.00000000E+00  0.00000000E+00
  0.00000000E+00  0.00000000E+00  0.00000000E+00
  0.00000000E+00  0.00000000E+00  0.00000000E+00
  0.00000000E+00  0.00000000E+00  0.00000000E+00
  0.00000000E+00  0.00000000E+00  0.00000000E+00
  0.00000000E+00  0.00000000E+00  0.00000000E+00
  0.00000000E+00  0.00000000E+00  0.00000000E+00
  0.00000000E+00  0.00000000E+00  0.00000000E+00
  0.00000000E+00  0.00000000E+00  0.00000000E+00
  0.00000000E+00  0.00000000E+00  0.00000000E+00
  0.00000000E+00  0.00000000E+00  0.00000000E+00
  0.00000000E+00  0.00000000E+00  0.00000000E+00
  0.00000000E+00  0.00000000E+00  0.00000000E+00
  0.00000000E+00  0.00000000E+00  0.00000000E+00
  0.00000000E+00  0.00000000E+00  0.00000000E+00
  0.00000000E+00  0.00000000E+00  0.00000000E+00
  0.00000000E+00  0.00000000E+00  0.00000000E+00
  0.00000000E+00  0.00000000E+00  0.00000000E+00
  0.00000000E+00  0.00000000E+00  0.00000000E+00
  0.00000000E+00  0.00000000E+00  0.00000000E+00
  0.00000000E+00  0.00000000E+00  0.00000000E+00
  0.00000000E+00  0.00000000E+00  0.00000000E+00
