CONTCAR                                 
   1.00000000000000     
    11.9334001540999992    0.0000000000000000    0.0000000000000000
    -5.9667003860000003   10.3361284282000003    0.0000000000000000
     0.0000000000000000    0.0000000000000000   17.6816005706999988
   Ru   Cl   O 
     8    24     1
Direct
  0.3399496451472965  0.1710715432043959  0.5025125961959586
  0.1732075564789079  0.3461207266554323  0.5051620409411282
  0.8318403827020339  0.1642946552327256  0.5003096690162466
  0.6733789288817571  0.3304518553423197  0.4997716588282747
  0.3271870174208261  0.6541396176828929  0.5051397444889699
  0.1676051126236717  0.8358843846610851  0.5002841324145346
  0.8430948204627444  0.6697367394845387  0.4997846456272356
  0.6689819373230763  0.8291181313047378  0.5025294892022550
  0.1840213081541233  0.1852537901778089  0.5794388493757947
  0.1799791051902307  0.0061543382640963  0.4253416350585403
  0.0056500640154390  0.1764610090440587  0.4283339832618403
  0.3349294470050989  0.3361884840894083  0.4316537416757867
  0.9958772610928727  0.3254999337520164  0.5762812460468631
  0.3268576535376863  0.0000327910181820  0.5772365437499070
  0.6734884128576645  0.1694328922368123  0.5773964284472710
  0.6739941808346251  0.9940823617450575  0.4253282658063846
  0.5027194950148127  0.1750045055803686  0.4243057575128442
  0.8280163886840176  0.3213807233746075  0.4201777253338927
  0.5108459165116435  0.3246325924003226  0.5773883974045200
  0.8268725869668191  0.0000993441996081  0.5772748802340691
  0.1703564922431257  0.6746063365023385  0.5762162311556065
  0.1695839715749135  0.5001071316061525  0.4233925215639699
  0.0067151867292550  0.6787746443109792  0.4201505768723449
  0.3292845351239228  0.8237709014487238  0.4283076911123251
  0.0041650908291473  0.8307424770387306  0.5774437017690045
  0.3012813488165453  0.5001597251129810  0.5944528242598561
  0.6862921002231924  0.6755182417696479  0.5773888370222628
  0.6831588056607855  0.5001165719974455  0.4248892407088097
  0.4988707141304223  0.6641209489921009  0.4316147599761682
  0.8278680645990660  0.8252156945417246  0.4243631766248590
  0.4988398817757601  0.8149620536387305  0.5794338129055628
  0.8344835334774164  0.5000808011284734  0.5739529616475514
  0.4199726549111202  0.5002438064615096  0.6280523177593551
 
  0.00000000E+00  0.00000000E+00  0.00000000E+00
  0.00000000E+00  0.00000000E+00  0.00000000E+00
  0.00000000E+00  0.00000000E+00  0.00000000E+00
  0.00000000E+00  0.00000000E+00  0.00000000E+00
  0.00000000E+00  0.00000000E+00  0.00000000E+00
  0.00000000E+00  0.00000000E+00  0.00000000E+00
  0.00000000E+00  0.00000000E+00  0.00000000E+00
  0.00000000E+00  0.00000000E+00  0.00000000E+00
  0.00000000E+00  0.00000000E+00  0.00000000E+00
  0.00000000E+00  0.00000000E+00  0.00000000E+00
  0.00000000E+00  0.00000000E+00  0.00000000E+00
  0.00000000E+00  0.00000000E+00  0.00000000E+00
  0.00000000E+00  0.00000000E+00  0.00000000E+00
  0.00000000E+00  0.00000000E+00  0.00000000E+00
  0.00000000E+00  0.00000000E+00  0.00000000E+00
  0.00000000E+00  0.00000000E+00  0.00000000E+00
  0.00000000E+00  0.00000000E+00  0.00000000E+00
  0.00000000E+00  0.00000000E+00  0.00000000E+00
  0.00000000E+00  0.00000000E+00  0.00000000E+00
  0.00000000E+00  0.00000000E+00  0.00000000E+00
  0.00000000E+00  0.00000000E+00  0.00000000E+00
  0.00000000E+00  0.00000000E+00  0.00000000E+00
  0.00000000E+00  0.00000000E+00  0.00000000E+00
  0.00000000E+00  0.00000000E+00  0.00000000E+00
  0.00000000E+00  0.00000000E+00  0.00000000E+00
  0.00000000E+00  0.00000000E+00  0.00000000E+00
  0.00000000E+00  0.00000000E+00  0.00000000E+00
  0.00000000E+00  0.00000000E+00  0.00000000E+00
  0.00000000E+00  0.00000000E+00  0.00000000E+00
  0.00000000E+00  0.00000000E+00  0.00000000E+00
  0.00000000E+00  0.00000000E+00  0.00000000E+00
  0.00000000E+00  0.00000000E+00  0.00000000E+00
  0.00000000E+00  0.00000000E+00  0.00000000E+00
