CONTCAR\(2)                             
   1.00000000000000     
    13.4954004288000000    0.0000000000000000    0.0000000000000000
    -3.3738461598999998   19.0216094057000014    0.0000000000000000
     0.0000000000000000    0.0000000000000000   18.9101009369000010
   Ta   Pd   Se   O 
    16     8    48     1
Direct
  0.0867715716825259  0.3530103723345732  0.5249011473368626
  0.1604118920709041  0.1488313546664983  0.4766491917034088
  0.3377210625387548  0.3509232295933913  0.5255315263166551
  0.4108440564122731  0.1479977365185903  0.4754151051438527
  0.5854448022328214  0.3509340609443257  0.5257479183766520
  0.6611737171080279  0.1488770302870606  0.4764812751560257
  0.8374036584552442  0.3530961899182401  0.5248802294069534
  0.9112659444631035  0.1498142996460317  0.4758390514079167
  0.0864277319879747  0.8529087854631641  0.5236319595048400
  0.1597609839157954  0.6490090931396892  0.4762149467315169
  0.3358973259686735  0.8523520359566206  0.5245240955068198
  0.4054924656957724  0.6507077601385731  0.4761452062442757
  0.5862187635998310  0.8527836209146216  0.5234345742467923
  0.6654187014282016  0.6508997726916235  0.4760202895012853
  0.8359819992645541  0.8526905390605606  0.5243534532475991
  0.9100380708155598  0.6491132096993724  0.4763671607751050
  0.9971416922421952  0.0017794121153543  0.4994781897655329
  0.2488599342786841  0.9997030113147147  0.5004266942406446
  0.4977986636315421  0.0009562206241753  0.4992152089066053
  0.7501813836588980  0.0006838724274658  0.4997755531791839
  0.9974908138472358  0.4980844638500770  0.5028518221898111
  0.2511298988909303  0.5050709867240784  0.4982331058097316
  0.4958879614785090  0.4902450031372894  0.5082587894729258
  0.7475848188456169  0.5052788269105406  0.4981833875600330
  0.2311874958296229  0.4260085879339286  0.6010436732057372
  0.0188865352338752  0.0812868033526968  0.3955790347533963
  0.0607155466354996  0.2446499959447479  0.4278994147997182
  0.2237621829435454  0.3960087509579040  0.4276689981085298
  0.0255284547555874  0.1084071581030628  0.5739963877370471
  0.1876570432640179  0.2581746979113078  0.5743508373549346
  0.4765761654949756  0.4113433830743318  0.6124733624897942
  0.2672818385786613  0.0786851815469092  0.3967288353700269
  0.3088602557505951  0.2431229588821466  0.4277624058434171
  0.4707494090962641  0.3881837800770924  0.4273434064326409
  0.2758228634194140  0.1068949380212416  0.5737741270460788
  0.4371372300212286  0.2541509898837049  0.5726935103779383
  0.7297472056782794  0.4262717798688200  0.6010438396042588
  0.5196945712120637  0.0802248944661414  0.3953549960281038
  0.5601342358204278  0.2435125971362311  0.4278901406135276
  0.7213682249053193  0.3961914518888747  0.4277553372212424
  0.5259009677809203  0.1074785624260173  0.5736227087088324
  0.6888651612174357  0.2581488592094914  0.5743890641394032
  0.9785994605473434  0.4186301485599344  0.6073775906826668
  0.7689987592936518  0.0802579176003633  0.3962736497355124
  0.8091876649865242  0.2445151907704215  0.4279572251946959
  0.9714711739055204  0.3921214359014513  0.4270221738100659
  0.7764199986109332  0.1074965111007202  0.5737304009407111
  0.9379514025125530  0.2574446854022199  0.5730354247756608
  0.2281363488513364  0.9208147326966483  0.6046082240985697
  0.0164794363717675  0.5763196999640741  0.3992557236922423
  0.0585961816724208  0.7431074059325340  0.4265834315681971
  0.2214013997217350  0.8931620591816554  0.4260905602282250
  0.0244027145242853  0.6064247752949896  0.5744458515053239
  0.1863770980360684  0.7577029973682343  0.5727069477744564
  0.4791694393697838  0.9223277744303147  0.6031481167295851
  0.2682474772455734  0.5840062972007445  0.3928230241824622
  0.3076811858359889  0.7454852013231132  0.4268715836909323
  0.4706995373939336  0.8936055973795334  0.4260637287118527
  0.2755453739454694  0.6107114907894626  0.5746777144461106
  0.4378432630327680  0.7580542033664130  0.5733072541797455
  0.7279647279303205  0.9216981728017402  0.6037341955487818
  0.5159127604326841  0.5727033153569749  0.4076187180895161
  0.5584349794371661  0.7422540096965520  0.4272437204905444
  0.7213267435776558  0.8935364530358996  0.4259657144824658
  0.5235090120686507  0.6019456366217000  0.5700226968422939
  0.6868802945449701  0.7579998362227300  0.5731336114651953
  0.9789038060509014  0.9226805873583785  0.6031085053039433
  0.7692017054441678  0.5841217702647157  0.3927258997115288
  0.8111656661377751  0.7456949459834235  0.4268689689056515
  0.9710025976746195  0.8944102009918780  0.4262216055514187
  0.7757902427570045  0.6108888241701820  0.5747220213696096
  0.9382474612570988  0.7582728332834776  0.5728440061778528
  0.5261491676779713  0.6138007561882830  0.6576123245485377
 
  0.00000000E+00  0.00000000E+00  0.00000000E+00
  0.00000000E+00  0.00000000E+00  0.00000000E+00
  0.00000000E+00  0.00000000E+00  0.00000000E+00
  0.00000000E+00  0.00000000E+00  0.00000000E+00
  0.00000000E+00  0.00000000E+00  0.00000000E+00
  0.00000000E+00  0.00000000E+00  0.00000000E+00
  0.00000000E+00  0.00000000E+00  0.00000000E+00
  0.00000000E+00  0.00000000E+00  0.00000000E+00
  0.00000000E+00  0.00000000E+00  0.00000000E+00
  0.00000000E+00  0.00000000E+00  0.00000000E+00
  0.00000000E+00  0.00000000E+00  0.00000000E+00
  0.00000000E+00  0.00000000E+00  0.00000000E+00
  0.00000000E+00  0.00000000E+00  0.00000000E+00
  0.00000000E+00  0.00000000E+00  0.00000000E+00
  0.00000000E+00  0.00000000E+00  0.00000000E+00
  0.00000000E+00  0.00000000E+00  0.00000000E+00
  0.00000000E+00  0.00000000E+00  0.00000000E+00
  0.00000000E+00  0.00000000E+00  0.00000000E+00
  0.00000000E+00  0.00000000E+00  0.00000000E+00
  0.00000000E+00  0.00000000E+00  0.00000000E+00
  0.00000000E+00  0.00000000E+00  0.00000000E+00
  0.00000000E+00  0.00000000E+00  0.00000000E+00
  0.00000000E+00  0.00000000E+00  0.00000000E+00
  0.00000000E+00  0.00000000E+00  0.00000000E+00
  0.00000000E+00  0.00000000E+00  0.00000000E+00
  0.00000000E+00  0.00000000E+00  0.00000000E+00
  0.00000000E+00  0.00000000E+00  0.00000000E+00
  0.00000000E+00  0.00000000E+00  0.00000000E+00
  0.00000000E+00  0.00000000E+00  0.00000000E+00
  0.00000000E+00  0.00000000E+00  0.00000000E+00
  0.00000000E+00  0.00000000E+00  0.00000000E+00
  0.00000000E+00  0.00000000E+00  0.00000000E+00
  0.00000000E+00  0.00000000E+00  0.00000000E+00
  0.00000000E+00  0.00000000E+00  0.00000000E+00
  0.00000000E+00  0.00000000E+00  0.00000000E+00
  0.00000000E+00  0.00000000E+00  0.00000000E+00
  0.00000000E+00  0.00000000E+00  0.00000000E+00
  0.00000000E+00  0.00000000E+00  0.00000000E+00
  0.00000000E+00  0.00000000E+00  0.00000000E+00
  0.00000000E+00  0.00000000E+00  0.00000000E+00
  0.00000000E+00  0.00000000E+00  0.00000000E+00
  0.00000000E+00  0.00000000E+00  0.00000000E+00
  0.00000000E+00  0.00000000E+00  0.00000000E+00
  0.00000000E+00  0.00000000E+00  0.00000000E+00
  0.00000000E+00  0.00000000E+00  0.00000000E+00
  0.00000000E+00  0.00000000E+00  0.00000000E+00
  0.00000000E+00  0.00000000E+00  0.00000000E+00
  0.00000000E+00  0.00000000E+00  0.00000000E+00
  0.00000000E+00  0.00000000E+00  0.00000000E+00
  0.00000000E+00  0.00000000E+00  0.00000000E+00
  0.00000000E+00  0.00000000E+00  0.00000000E+00
  0.00000000E+00  0.00000000E+00  0.00000000E+00
  0.00000000E+00  0.00000000E+00  0.00000000E+00
  0.00000000E+00  0.00000000E+00  0.00000000E+00
  0.00000000E+00  0.00000000E+00  0.00000000E+00
  0.00000000E+00  0.00000000E+00  0.00000000E+00
  0.00000000E+00  0.00000000E+00  0.00000000E+00
  0.00000000E+00  0.00000000E+00  0.00000000E+00
  0.00000000E+00  0.00000000E+00  0.00000000E+00
  0.00000000E+00  0.00000000E+00  0.00000000E+00
  0.00000000E+00  0.00000000E+00  0.00000000E+00
  0.00000000E+00  0.00000000E+00  0.00000000E+00
  0.00000000E+00  0.00000000E+00  0.00000000E+00
  0.00000000E+00  0.00000000E+00  0.00000000E+00
  0.00000000E+00  0.00000000E+00  0.00000000E+00
  0.00000000E+00  0.00000000E+00  0.00000000E+00
  0.00000000E+00  0.00000000E+00  0.00000000E+00
  0.00000000E+00  0.00000000E+00  0.00000000E+00
  0.00000000E+00  0.00000000E+00  0.00000000E+00
  0.00000000E+00  0.00000000E+00  0.00000000E+00
  0.00000000E+00  0.00000000E+00  0.00000000E+00
  0.00000000E+00  0.00000000E+00  0.00000000E+00
  0.00000000E+00  0.00000000E+00  0.00000000E+00
