CONTCAR\(17)                            
   1.00000000000000     
    11.3502998351999995    0.0000000000000000    0.0000000000000000
    -5.6751499175999998    9.8296479979000004    0.0000000000000000
     0.0000000000000000    0.0000000000000000   21.7800998688000007
   Gd   Br   O 
    18    18     1
Direct
  0.1093700810225457  0.2156257739427221  0.5593885022605691
  0.2234115177908279  0.1132682565584020  0.4262978557484585
  0.4406525908033552  0.2159755366252906  0.5593757211707896
  0.5559052835297292  0.1111473660418038  0.4286930038339993
  0.7782554621392838  0.2222870166617207  0.5603406364211458
  0.8888331406752126  0.1111994499403655  0.4287554109267357
  0.1091345225371314  0.5601721885021657  0.5592558166498424
  0.2099037526471653  0.4381842429256314  0.4270792530595591
  0.4446843489544892  0.5558318162807624  0.7269620783672747
  0.5616481586021296  0.4383924766597447  0.4272881409401710
  0.7843655908478708  0.5597572793021031  0.5593870923116884
  0.8889211824353891  0.4442488163944083  0.4286410794252534
  0.1112469341609316  0.8890868678058571  0.5591783292884864
  0.2234935186701788  0.7765863610146778  0.4262043098324583
  0.4400790333062715  0.8912214140716004  0.5593355180480876
  0.5618022728469076  0.7901608539971759  0.4271382058730187
  0.7848400596803069  0.8910859140404226  0.5594105705967899
  0.8867932818990629  0.7766513008725657  0.4263324387324325
  0.1094239410207349  0.2224294501221618  0.3357457736925871
  0.2236813971539022  0.1128673824972552  0.6518550967015263
  0.4462820099718370  0.2225593640910163  0.3358273936687960
  0.5536704926765645  0.1098706287307754  0.6499900617086558
  0.7778321463431165  0.2221279689811499  0.3384544661126634
  0.8906717484059695  0.1099419677165795  0.6500992346786487
  0.1093225652297263  0.5536246768011266  0.3355155643573380
  0.2063302982382487  0.4367420881101423  0.6481781574136782
  0.4444925915046407  0.5555529399515926  0.3462802562287335
  0.5642627659324633  0.4360482719402828  0.6486755743270260
  0.7774231024977871  0.5538211601449597  0.3358152817975803
  0.8906596412630265  0.4469033507271616  0.6499546264626700
  0.1112698548617909  0.8886357541942285  0.3364805820613092
  0.2228384492161760  0.7774361284990859  0.6516992064556562
  0.4464088667184757  0.8907842569565873  0.3355546147644727
  0.5639472452021967  0.7944511005003503  0.6483031623763700
  0.7774755910090605  0.8904776801162708  0.3358257655816563
  0.8874885342009509  0.7767426488126886  0.6518875559712860
  0.4436885670045291  0.5564107544690949  0.8125638361526154
 
  0.00000000E+00  0.00000000E+00  0.00000000E+00
  0.00000000E+00  0.00000000E+00  0.00000000E+00
  0.00000000E+00  0.00000000E+00  0.00000000E+00
  0.00000000E+00  0.00000000E+00  0.00000000E+00
  0.00000000E+00  0.00000000E+00  0.00000000E+00
  0.00000000E+00  0.00000000E+00  0.00000000E+00
  0.00000000E+00  0.00000000E+00  0.00000000E+00
  0.00000000E+00  0.00000000E+00  0.00000000E+00
  0.00000000E+00  0.00000000E+00  0.00000000E+00
  0.00000000E+00  0.00000000E+00  0.00000000E+00
  0.00000000E+00  0.00000000E+00  0.00000000E+00
  0.00000000E+00  0.00000000E+00  0.00000000E+00
  0.00000000E+00  0.00000000E+00  0.00000000E+00
  0.00000000E+00  0.00000000E+00  0.00000000E+00
  0.00000000E+00  0.00000000E+00  0.00000000E+00
  0.00000000E+00  0.00000000E+00  0.00000000E+00
  0.00000000E+00  0.00000000E+00  0.00000000E+00
  0.00000000E+00  0.00000000E+00  0.00000000E+00
  0.00000000E+00  0.00000000E+00  0.00000000E+00
  0.00000000E+00  0.00000000E+00  0.00000000E+00
  0.00000000E+00  0.00000000E+00  0.00000000E+00
  0.00000000E+00  0.00000000E+00  0.00000000E+00
  0.00000000E+00  0.00000000E+00  0.00000000E+00
  0.00000000E+00  0.00000000E+00  0.00000000E+00
  0.00000000E+00  0.00000000E+00  0.00000000E+00
  0.00000000E+00  0.00000000E+00  0.00000000E+00
  0.00000000E+00  0.00000000E+00  0.00000000E+00
  0.00000000E+00  0.00000000E+00  0.00000000E+00
  0.00000000E+00  0.00000000E+00  0.00000000E+00
  0.00000000E+00  0.00000000E+00  0.00000000E+00
  0.00000000E+00  0.00000000E+00  0.00000000E+00
  0.00000000E+00  0.00000000E+00  0.00000000E+00
  0.00000000E+00  0.00000000E+00  0.00000000E+00
  0.00000000E+00  0.00000000E+00  0.00000000E+00
  0.00000000E+00  0.00000000E+00  0.00000000E+00
  0.00000000E+00  0.00000000E+00  0.00000000E+00
  0.00000000E+00  0.00000000E+00  0.00000000E+00
