CONTCAR                                 
   1.00000000000000     
    14.6651000976999999    0.0000000000000000    0.0000000000000000
     0.0000000000000000   17.2791004181000005    0.0000000000000000
    -0.1285703978000000    0.0000000000000000   17.7376340898000002
   Cu   Te   O 
    16    16    49
Direct
  0.3430596275765367  0.2630231241622099  0.5291370399187940
  0.8441822224288629  0.2624495412366201  0.5301705532053163
  0.3390281197421814  0.7643361650141429  0.5286897247346758
  0.8428565624601561  0.7630678378266467  0.5302831010313440
  0.0967328798866944  0.4892106600803103  0.5330511892857146
  0.5932376440231550  0.4868116399211857  0.5321623205084123
  0.0924182378277081  0.9876689332597550  0.5274972858057865
  0.5923605743204448  0.9883121259471039  0.5296125516230390
  0.1565970117068503  0.2384292776944221  0.4700405557492644
  0.6573338087747658  0.2384703035159319  0.4700098984689518
  0.1559755609428208  0.7405197353489967  0.4702282742421673
  0.6537814595877265  0.7378904432827866  0.4749480721641604
  0.4053956897173450  0.0128845437136604  0.4696748249316443
  0.9042352803015135  0.0117101582131056  0.4698170150962468
  0.4096551668790909  0.5088112373632114  0.4759089188582664
  0.9081020376916342  0.5134211007739538  0.4756206707624173
  0.2796495910541736  0.1043049400237592  0.5864395925906720
  0.7792277193519581  0.1040935373916554  0.5875754052617665
  0.2796617126354874  0.6090132385107907  0.5896430968884445
  0.7796142076705834  0.6059628118615308  0.5917811317463162
  0.2207239749506016  0.3979727345055011  0.4149792367820879
  0.7212207339319292  0.3983681014618128  0.4156639976272416
  0.2192698071359942  0.8974933136680079  0.4099583440073502
  0.7178745204557231  0.8951462807296267  0.4133530974951043
  0.4717499488707517  0.3534298653912913  0.4123098570354955
  0.9709836111804933  0.3558863426565892  0.4147109512157598
  0.4683860649738563  0.8536569708029305  0.4133880375943093
  0.9684661369499210  0.8536703998722288  0.4112706496967249
  0.0301699359273329  0.1460804164420821  0.5857626458623884
  0.5298882304823209  0.1472397329471065  0.5861310151227812
  0.0306811038340413  0.6497329390063484  0.5882927946048611
  0.5274487495263784  0.6425718874633475  0.5921365377003980
  0.3018852522032631  0.0750310156770198  0.4863524379613864
  0.8009536295655550  0.0736024019350907  0.4878105103032198
  0.3041868100470353  0.5688320639307705  0.4937454168315085
  0.8030528381218645  0.5738485068806796  0.4928305268538580
  0.2670638126611635  0.2954238198414032  0.4412291555603431
  0.7683122951380525  0.2962584316789716  0.4426985580172058
  0.2666296263987462  0.7953667305642753  0.4368135036693914
  0.7646506594130074  0.7938893130027438  0.4436206397753182
  0.3991400513546637  0.1831029856550117  0.5901090355382195
  0.8994790225387064  0.1823367155019398  0.5916416906959299
  0.3940080041540455  0.6803778243258165  0.5872417562850103
  0.8997011112820203  0.6845241618629032  0.5933184401832321
  0.4822362199645482  0.0456479804789112  0.5575982967779538
  0.9824592872314071  0.0446536186634248  0.5565799341570710
  0.4832211526228036  0.5409600522066356  0.5636383860538956
  0.9862847942889772  0.5468156150161718  0.5619037709445891
  0.3511338893502227  0.4333247688615316  0.4114365206588744
  0.8513132280867381  0.4355536034261291  0.4121662155598429
  0.3489823028874497  0.9343201594607109  0.4061420593493992
  0.8473279920944847  0.9326157124891807  0.4074448476795354
  0.1493341742739887  0.0668352953211766  0.5897638370087819
  0.6484665583086624  0.0676437010475226  0.5921717052410429
  0.1530002054814901  0.5716195035361054  0.5925229762157329
  0.6490834894221251  0.5685097915245265  0.5941285238567033
  0.4488827754567808  0.3229318144799720  0.5119177467458513
  0.9484090071170144  0.3239503904778189  0.5139693870629571
  0.4436900137914179  0.8255787245881407  0.5133591267110162
  0.9464980512860919  0.8244120225049585  0.5114627826562170
  0.1974096686861273  0.4244712875691974  0.5156075664323154
  0.6973150893070610  0.4250495892746926  0.5161653794850096
  0.1961609455898312  0.9257184073580831  0.5101974743337934
  0.6956590974497345  0.9260693937448252  0.5129606227787633
  0.0183808838119859  0.4568346432830950  0.4455371730044675
  0.5198597257844995  0.4548458729080593  0.4407128388958554
  0.0147921390636867  0.9555437300149734  0.4398423629386627
  0.5160759274382798  0.9552326288556188  0.4417695850650745
  0.2322832945143176  0.2059727719258859  0.5585574536801658
  0.7329467870097872  0.2057773031020176  0.5581513409659351
  0.2289514611479859  0.7105721547033568  0.5619410075926723
  0.7324489008120807  0.7069304177184037  0.5618225605837992
  0.0527102955541423  0.1760172708585941  0.4858829049654574
  0.5538226251656440  0.1757833859597184  0.4860809283134557
  0.0525021169985749  0.6776487278825059  0.4877559968700709
  0.5508416332600206  0.6753936152458309  0.4934898599605688
  0.1005216563230675  0.3185678498892841  0.4089956674461064
  0.6017598048716550  0.3173537944181462  0.4070378535564672
  0.0983712284031526  0.8177315408437877  0.4062189974539123
  0.5975875651475420  0.8153473328180993  0.4103638884122702
  0.3144347133194003  0.5699311885976286  0.6801736872931343
 
  0.00000000E+00  0.00000000E+00  0.00000000E+00
  0.00000000E+00  0.00000000E+00  0.00000000E+00
  0.00000000E+00  0.00000000E+00  0.00000000E+00
  0.00000000E+00  0.00000000E+00  0.00000000E+00
  0.00000000E+00  0.00000000E+00  0.00000000E+00
  0.00000000E+00  0.00000000E+00  0.00000000E+00
  0.00000000E+00  0.00000000E+00  0.00000000E+00
  0.00000000E+00  0.00000000E+00  0.00000000E+00
  0.00000000E+00  0.00000000E+00  0.00000000E+00
  0.00000000E+00  0.00000000E+00  0.00000000E+00
  0.00000000E+00  0.00000000E+00  0.00000000E+00
  0.00000000E+00  0.00000000E+00  0.00000000E+00
  0.00000000E+00  0.00000000E+00  0.00000000E+00
  0.00000000E+00  0.00000000E+00  0.00000000E+00
  0.00000000E+00  0.00000000E+00  0.00000000E+00
  0.00000000E+00  0.00000000E+00  0.00000000E+00
  0.00000000E+00  0.00000000E+00  0.00000000E+00
  0.00000000E+00  0.00000000E+00  0.00000000E+00
  0.00000000E+00  0.00000000E+00  0.00000000E+00
  0.00000000E+00  0.00000000E+00  0.00000000E+00
  0.00000000E+00  0.00000000E+00  0.00000000E+00
  0.00000000E+00  0.00000000E+00  0.00000000E+00
  0.00000000E+00  0.00000000E+00  0.00000000E+00
  0.00000000E+00  0.00000000E+00  0.00000000E+00
  0.00000000E+00  0.00000000E+00  0.00000000E+00
  0.00000000E+00  0.00000000E+00  0.00000000E+00
  0.00000000E+00  0.00000000E+00  0.00000000E+00
  0.00000000E+00  0.00000000E+00  0.00000000E+00
  0.00000000E+00  0.00000000E+00  0.00000000E+00
  0.00000000E+00  0.00000000E+00  0.00000000E+00
  0.00000000E+00  0.00000000E+00  0.00000000E+00
  0.00000000E+00  0.00000000E+00  0.00000000E+00
  0.00000000E+00  0.00000000E+00  0.00000000E+00
  0.00000000E+00  0.00000000E+00  0.00000000E+00
  0.00000000E+00  0.00000000E+00  0.00000000E+00
  0.00000000E+00  0.00000000E+00  0.00000000E+00
  0.00000000E+00  0.00000000E+00  0.00000000E+00
  0.00000000E+00  0.00000000E+00  0.00000000E+00
  0.00000000E+00  0.00000000E+00  0.00000000E+00
  0.00000000E+00  0.00000000E+00  0.00000000E+00
  0.00000000E+00  0.00000000E+00  0.00000000E+00
  0.00000000E+00  0.00000000E+00  0.00000000E+00
  0.00000000E+00  0.00000000E+00  0.00000000E+00
  0.00000000E+00  0.00000000E+00  0.00000000E+00
  0.00000000E+00  0.00000000E+00  0.00000000E+00
  0.00000000E+00  0.00000000E+00  0.00000000E+00
  0.00000000E+00  0.00000000E+00  0.00000000E+00
  0.00000000E+00  0.00000000E+00  0.00000000E+00
  0.00000000E+00  0.00000000E+00  0.00000000E+00
  0.00000000E+00  0.00000000E+00  0.00000000E+00
  0.00000000E+00  0.00000000E+00  0.00000000E+00
  0.00000000E+00  0.00000000E+00  0.00000000E+00
  0.00000000E+00  0.00000000E+00  0.00000000E+00
  0.00000000E+00  0.00000000E+00  0.00000000E+00
  0.00000000E+00  0.00000000E+00  0.00000000E+00
  0.00000000E+00  0.00000000E+00  0.00000000E+00
  0.00000000E+00  0.00000000E+00  0.00000000E+00
  0.00000000E+00  0.00000000E+00  0.00000000E+00
  0.00000000E+00  0.00000000E+00  0.00000000E+00
  0.00000000E+00  0.00000000E+00  0.00000000E+00
  0.00000000E+00  0.00000000E+00  0.00000000E+00
  0.00000000E+00  0.00000000E+00  0.00000000E+00
  0.00000000E+00  0.00000000E+00  0.00000000E+00
  0.00000000E+00  0.00000000E+00  0.00000000E+00
  0.00000000E+00  0.00000000E+00  0.00000000E+00
  0.00000000E+00  0.00000000E+00  0.00000000E+00
  0.00000000E+00  0.00000000E+00  0.00000000E+00
  0.00000000E+00  0.00000000E+00  0.00000000E+00
  0.00000000E+00  0.00000000E+00  0.00000000E+00
  0.00000000E+00  0.00000000E+00  0.00000000E+00
  0.00000000E+00  0.00000000E+00  0.00000000E+00
  0.00000000E+00  0.00000000E+00  0.00000000E+00
  0.00000000E+00  0.00000000E+00  0.00000000E+00
  0.00000000E+00  0.00000000E+00  0.00000000E+00
  0.00000000E+00  0.00000000E+00  0.00000000E+00
  0.00000000E+00  0.00000000E+00  0.00000000E+00
  0.00000000E+00  0.00000000E+00  0.00000000E+00
  0.00000000E+00  0.00000000E+00  0.00000000E+00
  0.00000000E+00  0.00000000E+00  0.00000000E+00
  0.00000000E+00  0.00000000E+00  0.00000000E+00
  0.00000000E+00  0.00000000E+00  0.00000000E+00
