CONTCAR\(3)                             
   1.00000000000000     
    12.8318004608000003    0.0000000000000000    0.0000000000000000
     0.0000000000000000   12.8378000259000000    0.0000000000000000
     0.0000000000000000    0.0000000000000000   24.0013999939000016
   Nd   Te   Se
    18    36    18
Direct
  0.1666699989999998  0.1666699969999996  0.5770890039866660
 -0.0000000000000000  0.0000000000000000  0.4229110360133373
  0.5000000000000000  0.1666699969999996  0.5770890039866660
  0.3333300010000002 -0.0000000000000000  0.4229110360133373
  0.8333299640000007  0.1666699969999996  0.5770890039866660
  0.6666700359999993 -0.0000000000000000  0.4229110360133373
  0.1666699989999998  0.5000000000000000  0.5770890039866660
 -0.0000000000000000  0.3333300030000004  0.4229110360133373
  0.5000000000000000  0.5000000000000000  0.5770890039866660
  0.3333300010000002  0.3333300030000004  0.4229110360133373
  0.8333299640000007  0.5000000000000000  0.5770890039866660
  0.6666700359999993  0.3333300030000004  0.4229110360133373
  0.1666699989999998  0.8333300030000004  0.5770890039866660
 -0.0000000000000000  0.6666700339999991  0.4229110360133373
  0.5000000000000000  0.8333300030000004  0.5770890039866660
  0.3333300010000002  0.6666700339999991  0.4229110360133373
  0.8333299640000007  0.8333300030000004  0.5770890039866660
  0.6666700359999993  0.6666700339999991  0.4229110360133373
  0.1666699989999998  0.0000000000000000  0.3131362801313369
 -0.0000000000000000  0.1666699969999996  0.6868636998686614
 -0.0000000000000000  0.1666699969999996  0.3131379059624383
  0.1666699989999998 -0.0000000000000000  0.6868620740375601
  0.5000000000000000  0.0000000000000000  0.3131362801313369
  0.3333300010000002  0.1666699969999996  0.6868636998686614
  0.3333300010000002  0.1666699969999996  0.3131379059624383
  0.5000000000000000  0.0000000000000000  0.6868620740375601
  0.8333299640000007 -0.0000000000000000  0.3131362801313369
  0.6666700359999993  0.1666699969999996  0.6868636998686614
  0.6666700359999993  0.1666699969999996  0.3131379059624383
  0.8333299640000007 -0.0000000000000000  0.6868620740375601
  0.1666699989999998  0.3333300030000004  0.3131362801313369
 -0.0000000000000000  0.5000000000000000  0.6868636998686614
 -0.0000000000000000  0.5000000000000000  0.3131379059624383
  0.1666699989999998  0.3333300030000004  0.6868620740375601
  0.5000000000000000  0.3333300030000004  0.3131362801313369
  0.3333300010000002  0.5000000000000000  0.6868636998686614
  0.3333300010000002  0.5000000000000000  0.3131379059624383
  0.5000000000000000  0.3333300030000004  0.6868620740375601
  0.8333299640000007  0.3333300030000004  0.3131362801313369
  0.6666700359999993  0.5000000000000000  0.6868636998686614
  0.6666700359999993  0.5000000000000000  0.3131379059624383
  0.8333299640000007  0.3333300030000004  0.6868620740375601
  0.1666699989999998  0.6666700339999991  0.3131362801313369
 -0.0000000000000000  0.8333300030000004  0.6868636998686614
  0.0000000000000000  0.8333300030000004  0.3131379059624383
  0.1666699989999998  0.6666700339999991  0.6868620740375601
  0.5000000000000000  0.6666700339999991  0.3131362801313369
  0.3333300010000002  0.8333300030000004  0.6868636998686614
  0.3333300010000002  0.8333300030000004  0.3131379059624383
  0.5000000000000000  0.6666700339999991  0.6868620740375601
  0.8333299640000007  0.6666700339999991  0.3131362801313369
  0.6666700359999993  0.8333300030000004  0.6868636998686614
  0.6666700359999993  0.8333300030000004  0.3131379059624383
  0.8333299640000007  0.6666700339999991  0.6868620740375601
  0.1666699989999998  0.1666699969999996  0.4520500612317232
 -0.0000000000000000 -0.0000000000000000  0.5479499387682768
  0.5000000000000000  0.1666699969999996  0.4520500612317232
  0.3333300010000002 -0.0000000000000000  0.5479499387682768
  0.8333299640000007  0.1666699969999996  0.4520500612317232
  0.6666700359999993  0.0000000000000000  0.5479499387682768
  0.1666699989999998  0.5000000000000000  0.4520500612317232
 -0.0000000000000000  0.3333300030000004  0.5479499387682768
  0.5000000000000000  0.5000000000000000  0.4520500612317232
  0.3333300010000002  0.3333300030000004  0.5479499387682768
  0.8333299640000007  0.5000000000000000  0.4520500612317232
  0.6666700359999993  0.3333300030000004  0.5479499387682768
  0.1666699989999998  0.8333300030000004  0.4520500612317232
 -0.0000000000000000  0.6666700339999991  0.5479499387682768
  0.5000000000000000  0.8333300030000004  0.4520500612317232
  0.3333300010000002  0.6666700339999991  0.5479499387682768
  0.8333299640000007  0.8333300030000004  0.4520500612317232
  0.6666700359999993  0.6666700339999991  0.5479499387682768
 
  0.00000000E+00  0.00000000E+00  0.00000000E+00
  0.00000000E+00  0.00000000E+00  0.00000000E+00
  0.00000000E+00  0.00000000E+00  0.00000000E+00
  0.00000000E+00  0.00000000E+00  0.00000000E+00
  0.00000000E+00  0.00000000E+00  0.00000000E+00
  0.00000000E+00  0.00000000E+00  0.00000000E+00
  0.00000000E+00  0.00000000E+00  0.00000000E+00
  0.00000000E+00  0.00000000E+00  0.00000000E+00
  0.00000000E+00  0.00000000E+00  0.00000000E+00
  0.00000000E+00  0.00000000E+00  0.00000000E+00
  0.00000000E+00  0.00000000E+00  0.00000000E+00
  0.00000000E+00  0.00000000E+00  0.00000000E+00
  0.00000000E+00  0.00000000E+00  0.00000000E+00
  0.00000000E+00  0.00000000E+00  0.00000000E+00
  0.00000000E+00  0.00000000E+00  0.00000000E+00
  0.00000000E+00  0.00000000E+00  0.00000000E+00
  0.00000000E+00  0.00000000E+00  0.00000000E+00
  0.00000000E+00  0.00000000E+00  0.00000000E+00
  0.00000000E+00  0.00000000E+00  0.00000000E+00
  0.00000000E+00  0.00000000E+00  0.00000000E+00
  0.00000000E+00  0.00000000E+00  0.00000000E+00
  0.00000000E+00  0.00000000E+00  0.00000000E+00
  0.00000000E+00  0.00000000E+00  0.00000000E+00
  0.00000000E+00  0.00000000E+00  0.00000000E+00
  0.00000000E+00  0.00000000E+00  0.00000000E+00
  0.00000000E+00  0.00000000E+00  0.00000000E+00
  0.00000000E+00  0.00000000E+00  0.00000000E+00
  0.00000000E+00  0.00000000E+00  0.00000000E+00
  0.00000000E+00  0.00000000E+00  0.00000000E+00
  0.00000000E+00  0.00000000E+00  0.00000000E+00
  0.00000000E+00  0.00000000E+00  0.00000000E+00
  0.00000000E+00  0.00000000E+00  0.00000000E+00
  0.00000000E+00  0.00000000E+00  0.00000000E+00
  0.00000000E+00  0.00000000E+00  0.00000000E+00
  0.00000000E+00  0.00000000E+00  0.00000000E+00
  0.00000000E+00  0.00000000E+00  0.00000000E+00
  0.00000000E+00  0.00000000E+00  0.00000000E+00
  0.00000000E+00  0.00000000E+00  0.00000000E+00
  0.00000000E+00  0.00000000E+00  0.00000000E+00
  0.00000000E+00  0.00000000E+00  0.00000000E+00
  0.00000000E+00  0.00000000E+00  0.00000000E+00
  0.00000000E+00  0.00000000E+00  0.00000000E+00
  0.00000000E+00  0.00000000E+00  0.00000000E+00
  0.00000000E+00  0.00000000E+00  0.00000000E+00
  0.00000000E+00  0.00000000E+00  0.00000000E+00
  0.00000000E+00  0.00000000E+00  0.00000000E+00
  0.00000000E+00  0.00000000E+00  0.00000000E+00
  0.00000000E+00  0.00000000E+00  0.00000000E+00
  0.00000000E+00  0.00000000E+00  0.00000000E+00
  0.00000000E+00  0.00000000E+00  0.00000000E+00
  0.00000000E+00  0.00000000E+00  0.00000000E+00
  0.00000000E+00  0.00000000E+00  0.00000000E+00
  0.00000000E+00  0.00000000E+00  0.00000000E+00
  0.00000000E+00  0.00000000E+00  0.00000000E+00
  0.00000000E+00  0.00000000E+00  0.00000000E+00
  0.00000000E+00  0.00000000E+00  0.00000000E+00
  0.00000000E+00  0.00000000E+00  0.00000000E+00
  0.00000000E+00  0.00000000E+00  0.00000000E+00
  0.00000000E+00  0.00000000E+00  0.00000000E+00
  0.00000000E+00  0.00000000E+00  0.00000000E+00
  0.00000000E+00  0.00000000E+00  0.00000000E+00
  0.00000000E+00  0.00000000E+00  0.00000000E+00
  0.00000000E+00  0.00000000E+00  0.00000000E+00
  0.00000000E+00  0.00000000E+00  0.00000000E+00
  0.00000000E+00  0.00000000E+00  0.00000000E+00
  0.00000000E+00  0.00000000E+00  0.00000000E+00
  0.00000000E+00  0.00000000E+00  0.00000000E+00
  0.00000000E+00  0.00000000E+00  0.00000000E+00
  0.00000000E+00  0.00000000E+00  0.00000000E+00
  0.00000000E+00  0.00000000E+00  0.00000000E+00
  0.00000000E+00  0.00000000E+00  0.00000000E+00
  0.00000000E+00  0.00000000E+00  0.00000000E+00
