CONTCAR\(16)                            
   1.00000000000000     
    13.7902002335000002    0.0000000000000000    0.0000000000000000
     6.8951001167000001   11.9426637253999992    0.0000000000000000
     0.0000000000000000    0.0000000000000000   18.3700008391999994
   Nb   Se   O 
    16    32     1
Direct
  0.0832451365928113  0.0850159625276165  0.4995016268273039
  0.3276189266627818  0.0819111161373769  0.4991243695183517
  0.5822494206923022  0.0812799840903533  0.5008428087874337
  0.8341059734507927  0.0844443189599741  0.5009324627592392
  0.0798200617747301  0.3294557910550049  0.4987583060628201
  0.3273143644686702  0.3316915212248581  0.5015172130072183
  0.5873079836488141  0.3328678639225066  0.5035059251313670
  0.8351253941909768  0.3331699059098366  0.4994395141655774
  0.0817096453906736  0.5772151160963502  0.5015957309588078
  0.3383706879885622  0.5885758986995218  0.5169153147051273
  0.5916045001483814  0.5783715550261890  0.5011642029727232
  0.8317897354711697  0.5776341120207676  0.4991992528439542
  0.0828115339045068  0.8373308910100927  0.5034843548609320
  0.3283808539355976  0.8416144944215365  0.5011279261959984
  0.5808215762634007  0.8305854184168556  0.5005549135936327
  0.8312273134178313  0.8322167385930710  0.5010211459657508
  0.1646021444519199  0.1666904254773325  0.5926295273788060
  0.1645918378142807  0.1657708102765132  0.4056533019923497
  0.4145672508618877  0.1627688343385037  0.5912337858841968
  0.4154029287360255  0.1659727208986817  0.4092851790944057
  0.6673091357203946  0.1629845344460047  0.5926971263749125
  0.6644634781894869  0.1666700852593150  0.4105059579688259
  0.9165614957293152  0.1667005628303800  0.5919093022333102
  0.9157112513486778  0.1655921599319760  0.4080474309158008
  0.1630664757435628  0.4128721916567658  0.5933628013252797
  0.1655680291636290  0.4155771817122533  0.4075488432114032
  0.4209131011456938  0.3994068311847092  0.5936203476128986
  0.4131450961069431  0.4228450424065152  0.4187694009422168
  0.6682696562326016  0.4159353744326718  0.5942537037206738
  0.6652769625123435  0.4157062528710273  0.4086002516833084
  0.9169774630964304  0.4144894252951032  0.5925660074492838
  0.9161513394733988  0.4145996680714419  0.4056914849527132
  0.1491698882421331  0.6711203771277693  0.5936184297719357
  0.1726430476001374  0.6630005515660458  0.4187487340033085
  0.4362363086299528  0.6863486543236500  0.6024411972365998
  0.4152225930097686  0.6652835579666483  0.4162574607637485
  0.6709629030072896  0.6662177807022202  0.5934836272125393
  0.6655159308079973  0.6667573961544995  0.4074887919056063
  0.9129122525223986  0.6643506278973906  0.5913576975636339
  0.9158502506412792  0.6654593275469415  0.4094671365137300
  0.1658585638295509  0.9182320927670763  0.5942864350671068
  0.1656954977600678  0.9152086375565085  0.4085905614990741
  0.4164517550352241  0.9209655926706705  0.5933089250025134
  0.4168952033859743  0.9155736639627604  0.4074990650896473
  0.6650109259704718  0.9149721936555060  0.5923023080715680
  0.6653295272481224  0.9150731155391567  0.4094578075376981
  0.9127671558183839  0.9176620239857338  0.5926594811363685
  0.9163344922942439  0.9146801079089443  0.4106502650578589
  0.3611717218684362  0.6114426184673954  0.6243233124703985
 
  0.00000000E+00  0.00000000E+00  0.00000000E+00
  0.00000000E+00  0.00000000E+00  0.00000000E+00
  0.00000000E+00  0.00000000E+00  0.00000000E+00
  0.00000000E+00  0.00000000E+00  0.00000000E+00
  0.00000000E+00  0.00000000E+00  0.00000000E+00
  0.00000000E+00  0.00000000E+00  0.00000000E+00
  0.00000000E+00  0.00000000E+00  0.00000000E+00
  0.00000000E+00  0.00000000E+00  0.00000000E+00
  0.00000000E+00  0.00000000E+00  0.00000000E+00
  0.00000000E+00  0.00000000E+00  0.00000000E+00
  0.00000000E+00  0.00000000E+00  0.00000000E+00
  0.00000000E+00  0.00000000E+00  0.00000000E+00
  0.00000000E+00  0.00000000E+00  0.00000000E+00
  0.00000000E+00  0.00000000E+00  0.00000000E+00
  0.00000000E+00  0.00000000E+00  0.00000000E+00
  0.00000000E+00  0.00000000E+00  0.00000000E+00
  0.00000000E+00  0.00000000E+00  0.00000000E+00
  0.00000000E+00  0.00000000E+00  0.00000000E+00
  0.00000000E+00  0.00000000E+00  0.00000000E+00
  0.00000000E+00  0.00000000E+00  0.00000000E+00
  0.00000000E+00  0.00000000E+00  0.00000000E+00
  0.00000000E+00  0.00000000E+00  0.00000000E+00
  0.00000000E+00  0.00000000E+00  0.00000000E+00
  0.00000000E+00  0.00000000E+00  0.00000000E+00
  0.00000000E+00  0.00000000E+00  0.00000000E+00
  0.00000000E+00  0.00000000E+00  0.00000000E+00
  0.00000000E+00  0.00000000E+00  0.00000000E+00
  0.00000000E+00  0.00000000E+00  0.00000000E+00
  0.00000000E+00  0.00000000E+00  0.00000000E+00
  0.00000000E+00  0.00000000E+00  0.00000000E+00
  0.00000000E+00  0.00000000E+00  0.00000000E+00
  0.00000000E+00  0.00000000E+00  0.00000000E+00
  0.00000000E+00  0.00000000E+00  0.00000000E+00
  0.00000000E+00  0.00000000E+00  0.00000000E+00
  0.00000000E+00  0.00000000E+00  0.00000000E+00
  0.00000000E+00  0.00000000E+00  0.00000000E+00
  0.00000000E+00  0.00000000E+00  0.00000000E+00
  0.00000000E+00  0.00000000E+00  0.00000000E+00
  0.00000000E+00  0.00000000E+00  0.00000000E+00
  0.00000000E+00  0.00000000E+00  0.00000000E+00
  0.00000000E+00  0.00000000E+00  0.00000000E+00
  0.00000000E+00  0.00000000E+00  0.00000000E+00
  0.00000000E+00  0.00000000E+00  0.00000000E+00
  0.00000000E+00  0.00000000E+00  0.00000000E+00
  0.00000000E+00  0.00000000E+00  0.00000000E+00
  0.00000000E+00  0.00000000E+00  0.00000000E+00
  0.00000000E+00  0.00000000E+00  0.00000000E+00
  0.00000000E+00  0.00000000E+00  0.00000000E+00
  0.00000000E+00  0.00000000E+00  0.00000000E+00
