CONTCAR\(2)                             
   1.00000000000000     
    14.5984001160000005    0.0000000000000000    0.0000000000000000
     0.0000000000000000   14.5984001160000005    0.0000000000000000
     0.0000000000000000    0.0000000000000000   22.0592994689999990
   Zr   Si   Te   H 
    32    32    32     1
Direct
  0.1250950637875098  0.0000000000000000  0.5981938735490038
  0.0000099628143971  0.1250568338308365  0.4052703618586408
  0.3751618414151414  0.0000000000000000  0.5980630255581307
  0.2500383847315523  0.1249873875790993  0.4052556049787135
  0.6248350818632566  0.0000000000000000  0.5980673690044345
  0.5000194148813738  0.1250166024146847  0.4050845428316212
  0.8749068583237049  0.0000000000000000  0.5981893013280742
  0.7499657117564384  0.1249988682178107  0.4052451588913804
  0.1249687200155846  0.2500588986118579  0.5982126450237654
 -0.0000035743196885  0.3749835109739156  0.4052542889199416
  0.3753628352420841  0.2504792487532441  0.5981686808431608
  0.2501211536860251  0.3749869260084768  0.4051983720759345
  0.6246139226117599  0.2504916447291813  0.5981745557473562
  0.4999921963219754  0.3732768541481072  0.4047180357528232
  0.8750195201548424  0.2500912067004166  0.5982115898071330
  0.7498666570914317  0.3749965329526827  0.4051973626073928
  0.1252048698942111  0.5000000000000000  0.5982174418583249
 -0.0000035743196885  0.6250165220260837  0.4052542889199416
  0.3727696522921787  0.5000000000000000  0.5984910172750365
  0.2501211536860251  0.6250131069915218  0.4051983720759345
  0.6271682157930717  0.5000000000000000  0.5984732059851146
  0.4999921963219754  0.6267231788518920  0.4047180357528232
  0.8747638360164276  0.5000000000000000  0.5982169028439654
  0.7498666570914317  0.6250035000473160  0.4051973626073928
  0.1249687200155846  0.7499411013881423  0.5982126450237654
  0.0000099628143971  0.8749431331691646  0.4052703618586408
  0.3753628352420841  0.7495207512467565  0.5981686808431608
  0.2500383847315523  0.8750125794209016  0.4052556049787135
  0.6246139226117599  0.7495083552708183  0.5981745557473562
  0.5000194148813738  0.8749833645853162  0.4050845428316212
  0.8750195201548424  0.7499087932995834  0.5982115898071330
  0.7499657117564384  0.8750010987821899  0.4052451588913804
  0.1248913199201145  0.1250378405403001  0.5017835053966889
  0.0000071880350769  0.0000000000000000  0.5017811807729601
  0.3750044498557842  0.1249727059973092  0.5016666470102732
  0.2499316439780408  0.0000000000000000  0.5017579616835309
  0.6250223606863352  0.1249703309551327  0.5016736740264364
  0.4999976225424287  0.0000000000000000  0.5016393771252620
  0.8751031393359254  0.1250483356571511  0.5017859404095062
  0.7500740131993444  0.0000000000000000  0.5017527231229653
  0.1249111228697227  0.3751195195115840  0.5017148624528600
 -0.0000089554534831  0.2498199244085966  0.5017150176222538
  0.3741421633096234  0.3745691155123408  0.5014389132537178
  0.2497049223835420  0.2496383167030543  0.5017409884374624
  0.6258032298447902  0.3745795894384674  0.5014250052513293
  0.4999923945551865  0.2495389900328732  0.5017157171879970
  0.8750744302021216  0.3751303978873737  0.5017061155680743
  0.7502946053140949  0.2496328920899329  0.5017456460968059
  0.1249111228697227  0.6248805134884153  0.5017148624528600
  0.0000005986672789  0.5000000000000000  0.5017487497864135
  0.3741421633096234  0.6254309174876586  0.5014389132537178
  0.2489436936287686  0.5000000000000000  0.5015337690466157
  0.6258032298447902  0.6254204435615319  0.5014250052513293
  0.4999086161037625  0.5000000000000000  0.4945472854530908
  0.8750744302021216  0.6248696351126252  0.5017061155680743
  0.7510418126958348  0.5000000000000000  0.5015304763977818
  0.1248913199201145  0.8749621264597012  0.5017835053966889
 -0.0000089554534831  0.7501800755914028  0.5017150176222538
  0.3750044498557842  0.8750272610026916  0.5016666470102732
  0.2497049223835420  0.7503616832969460  0.5017409884374624
  0.6250223606863352  0.8750296360448683  0.5016736740264364
  0.4999923945551865  0.7504610099671274  0.5017157171879970
  0.8751031393359254  0.8749516313428501  0.5017859404095062
  0.7502946053140949  0.7503671079100676  0.5017456460968059
 -0.0000166213080563  0.1249829426168569  0.6618692790425412
  0.1250009965006599  0.0000000000000000  0.3418722161219622
  0.2501431584867308  0.1251646020547347  0.6615307256907369
  0.3749671529360678  0.0000000000000000  0.3418880903697293
  0.5000049580775456  0.1251454048093684  0.6616338675239322
  0.6250678128974287  0.0000000000000000  0.3418615054568179
  0.7498577913147040  0.1251519054595174  0.6615200440415714
  0.8750275724795126  0.0000000000000000  0.3418727918460251
 -0.0000034501947858  0.3751065052219528  0.6616905049809835
  0.1250350017325405  0.2499451221712482  0.3417739288042188
  0.2501001415694061  0.3748057504248738  0.6625546965970120
  0.3746656114402199  0.2497104278905717  0.3409884949921203
  0.4999100466323299  0.3748675255761220  0.6637394312898540
  0.6253409398932489  0.2497254935740188  0.3409846063867356
  0.7498408562396850  0.3747713374343051  0.6625378458426742
  0.8749743570947096  0.2499564937525443  0.3417756926149788
 -0.0000034501947858  0.6248935277780470  0.6616905049809835
  0.1250049238045660  0.5000000000000000  0.3418641443750362
  0.2501001415694061  0.6251942825751259  0.6625546965970120
  0.3752500470715584  0.5000000000000000  0.3417834836902971
  0.4999100466323299  0.6251325074238772  0.6637394312898540
  0.6247321110080934  0.5000000000000000  0.3417805249006930
  0.7498408562396850  0.6252286955656942  0.6625378458426742
  0.8749733485512422  0.5000000000000000  0.3418654190331621
 -0.0000166213080563  0.8750170243831435  0.6618692790425412
  0.1250350017325405  0.7500548778287515  0.3417739288042188
  0.2501431584867308  0.8748353649452656  0.6615307256907369
  0.3746656114402199  0.7502895721094283  0.3409884949921203
  0.5000049580775456  0.8748545621906327  0.6616338675239322
  0.6253409398932489  0.7502745064259811  0.3409846063867356
  0.7498577913147040  0.8748480615404834  0.6615200440415714
  0.8749743570947096  0.7500435062474561  0.3417756926149788
  0.4999696719352065  0.5000100279999984  0.5674530026983408
 
  0.00000000E+00  0.00000000E+00  0.00000000E+00
  0.00000000E+00  0.00000000E+00  0.00000000E+00
  0.00000000E+00  0.00000000E+00  0.00000000E+00
  0.00000000E+00  0.00000000E+00  0.00000000E+00
  0.00000000E+00  0.00000000E+00  0.00000000E+00
  0.00000000E+00  0.00000000E+00  0.00000000E+00
  0.00000000E+00  0.00000000E+00  0.00000000E+00
  0.00000000E+00  0.00000000E+00  0.00000000E+00
  0.00000000E+00  0.00000000E+00  0.00000000E+00
  0.00000000E+00  0.00000000E+00  0.00000000E+00
  0.00000000E+00  0.00000000E+00  0.00000000E+00
  0.00000000E+00  0.00000000E+00  0.00000000E+00
  0.00000000E+00  0.00000000E+00  0.00000000E+00
  0.00000000E+00  0.00000000E+00  0.00000000E+00
  0.00000000E+00  0.00000000E+00  0.00000000E+00
  0.00000000E+00  0.00000000E+00  0.00000000E+00
  0.00000000E+00  0.00000000E+00  0.00000000E+00
  0.00000000E+00  0.00000000E+00  0.00000000E+00
  0.00000000E+00  0.00000000E+00  0.00000000E+00
  0.00000000E+00  0.00000000E+00  0.00000000E+00
  0.00000000E+00  0.00000000E+00  0.00000000E+00
  0.00000000E+00  0.00000000E+00  0.00000000E+00
  0.00000000E+00  0.00000000E+00  0.00000000E+00
  0.00000000E+00  0.00000000E+00  0.00000000E+00
  0.00000000E+00  0.00000000E+00  0.00000000E+00
  0.00000000E+00  0.00000000E+00  0.00000000E+00
  0.00000000E+00  0.00000000E+00  0.00000000E+00
  0.00000000E+00  0.00000000E+00  0.00000000E+00
  0.00000000E+00  0.00000000E+00  0.00000000E+00
  0.00000000E+00  0.00000000E+00  0.00000000E+00
  0.00000000E+00  0.00000000E+00  0.00000000E+00
  0.00000000E+00  0.00000000E+00  0.00000000E+00
  0.00000000E+00  0.00000000E+00  0.00000000E+00
  0.00000000E+00  0.00000000E+00  0.00000000E+00
  0.00000000E+00  0.00000000E+00  0.00000000E+00
  0.00000000E+00  0.00000000E+00  0.00000000E+00
  0.00000000E+00  0.00000000E+00  0.00000000E+00
  0.00000000E+00  0.00000000E+00  0.00000000E+00
  0.00000000E+00  0.00000000E+00  0.00000000E+00
  0.00000000E+00  0.00000000E+00  0.00000000E+00
  0.00000000E+00  0.00000000E+00  0.00000000E+00
  0.00000000E+00  0.00000000E+00  0.00000000E+00
  0.00000000E+00  0.00000000E+00  0.00000000E+00
  0.00000000E+00  0.00000000E+00  0.00000000E+00
  0.00000000E+00  0.00000000E+00  0.00000000E+00
  0.00000000E+00  0.00000000E+00  0.00000000E+00
  0.00000000E+00  0.00000000E+00  0.00000000E+00
  0.00000000E+00  0.00000000E+00  0.00000000E+00
  0.00000000E+00  0.00000000E+00  0.00000000E+00
  0.00000000E+00  0.00000000E+00  0.00000000E+00
  0.00000000E+00  0.00000000E+00  0.00000000E+00
  0.00000000E+00  0.00000000E+00  0.00000000E+00
  0.00000000E+00  0.00000000E+00  0.00000000E+00
  0.00000000E+00  0.00000000E+00  0.00000000E+00
  0.00000000E+00  0.00000000E+00  0.00000000E+00
  0.00000000E+00  0.00000000E+00  0.00000000E+00
  0.00000000E+00  0.00000000E+00  0.00000000E+00
  0.00000000E+00  0.00000000E+00  0.00000000E+00
  0.00000000E+00  0.00000000E+00  0.00000000E+00
  0.00000000E+00  0.00000000E+00  0.00000000E+00
  0.00000000E+00  0.00000000E+00  0.00000000E+00
  0.00000000E+00  0.00000000E+00  0.00000000E+00
  0.00000000E+00  0.00000000E+00  0.00000000E+00
  0.00000000E+00  0.00000000E+00  0.00000000E+00
  0.00000000E+00  0.00000000E+00  0.00000000E+00
  0.00000000E+00  0.00000000E+00  0.00000000E+00
  0.00000000E+00  0.00000000E+00  0.00000000E+00
  0.00000000E+00  0.00000000E+00  0.00000000E+00
  0.00000000E+00  0.00000000E+00  0.00000000E+00
  0.00000000E+00  0.00000000E+00  0.00000000E+00
  0.00000000E+00  0.00000000E+00  0.00000000E+00
  0.00000000E+00  0.00000000E+00  0.00000000E+00
  0.00000000E+00  0.00000000E+00  0.00000000E+00
  0.00000000E+00  0.00000000E+00  0.00000000E+00
  0.00000000E+00  0.00000000E+00  0.00000000E+00
  0.00000000E+00  0.00000000E+00  0.00000000E+00
  0.00000000E+00  0.00000000E+00  0.00000000E+00
  0.00000000E+00  0.00000000E+00  0.00000000E+00
  0.00000000E+00  0.00000000E+00  0.00000000E+00
  0.00000000E+00  0.00000000E+00  0.00000000E+00
  0.00000000E+00  0.00000000E+00  0.00000000E+00
  0.00000000E+00  0.00000000E+00  0.00000000E+00
  0.00000000E+00  0.00000000E+00  0.00000000E+00
  0.00000000E+00  0.00000000E+00  0.00000000E+00
  0.00000000E+00  0.00000000E+00  0.00000000E+00
  0.00000000E+00  0.00000000E+00  0.00000000E+00
  0.00000000E+00  0.00000000E+00  0.00000000E+00
  0.00000000E+00  0.00000000E+00  0.00000000E+00
  0.00000000E+00  0.00000000E+00  0.00000000E+00
  0.00000000E+00  0.00000000E+00  0.00000000E+00
  0.00000000E+00  0.00000000E+00  0.00000000E+00
  0.00000000E+00  0.00000000E+00  0.00000000E+00
  0.00000000E+00  0.00000000E+00  0.00000000E+00
  0.00000000E+00  0.00000000E+00  0.00000000E+00
  0.00000000E+00  0.00000000E+00  0.00000000E+00
  0.00000000E+00  0.00000000E+00  0.00000000E+00
  0.00000000E+00  0.00000000E+00  0.00000000E+00
