CONTCAR\(2)                             
   1.00000000000000     
    11.3408002853000003    0.0000000000000000    0.0000000000000000
    -5.6704001427000001    9.8214211463000005    0.0000000000000000
     0.0000000000000000    0.0000000000000000   18.2716007233000006
   Si   Te   O    H 
     9    18     2     1
Selective dynamics
Direct
  0.9961978376939982  0.9996011230441937  0.5003387265088648   F   F   F
  0.3264920661137509  0.9937937876547522  0.4913074202158398   F   F   F
  0.6636248348323761  0.0001102069718542  0.4999046049277993   F   F   F
  0.9969732619776721  0.3331284953235709  0.5009005183228794   F   F   F
  0.3278806980472311  0.3321812317213713  0.5052112164228646   F   F   F
  0.6634879209834494  0.3327915191568920  0.5066602647816651   F   F   F
  0.9925495637747588  0.6647492528613981  0.4997626051867528   F   F   F
  0.3306808550291436  0.6664803532196757  0.4973097795816201   F   F   F
  0.6623875120016436  0.6680167740763707  0.5042915917990669   F   F   F
  0.1021998461903522  0.2199693377126408  0.5919954229456224   F   F   F
  0.2183622580463265  0.1175687075802045  0.4109879332298121   F   F   F
  0.4313742685312718  0.2049757393113367  0.5964639377856784   F   F   F
  0.5601806140742553  0.1183723997729658  0.4108181892697047   F   F   F
  0.7774462238001263  0.2218062615461776  0.5917567557272108   F   F   F
  0.8855713812439845  0.1109529484819944  0.4114648123631568   F   F   F
  0.1091253135767118  0.5581797631798793  0.5883745162533245   F   F   F
  0.2201487593609954  0.4420671462412500  0.4120073942028526   F   F   F
  0.4355296177808654  0.5625124837021360  0.5918769971740545   F   F   F
  0.5532032498701867  0.4432421929080732  0.4171362392745692   F   F   F
  0.7796239556279332  0.5601127239326260  0.5931265502611609   F   F   F
  0.8839103970922011  0.4430317029763913  0.4127549398557235   F   F   F
  0.1060979764465344  0.8872532863512106  0.5881037659591684   F   F   F
  0.2166388377499686  0.7770053914212056  0.4077430002747420   F   F   F
  0.4424228770921488  0.8893870894726561  0.5879557904556236   F   F   F
  0.5531351695725775  0.7788285516337154  0.4101785247789920   F   F   F
  0.7755853863622946  0.8921330936666934  0.5906232908657287   F   F   F
  0.8835124576327331  0.7760635651753134  0.4117066272740715   F   F   F
  0.5055831764762004  0.3872847474795265  0.6665452716764904   T   T   T
  0.4396826012133133  0.3498557175723604  0.7379471663298034   T   T   T
  0.5115907588049993  0.3495038158515839  0.7668151801598476   T   T   T
 
  0.00000000E+00  0.00000000E+00  0.00000000E+00
  0.00000000E+00  0.00000000E+00  0.00000000E+00
  0.00000000E+00  0.00000000E+00  0.00000000E+00
  0.00000000E+00  0.00000000E+00  0.00000000E+00
  0.00000000E+00  0.00000000E+00  0.00000000E+00
  0.00000000E+00  0.00000000E+00  0.00000000E+00
  0.00000000E+00  0.00000000E+00  0.00000000E+00
  0.00000000E+00  0.00000000E+00  0.00000000E+00
  0.00000000E+00  0.00000000E+00  0.00000000E+00
  0.00000000E+00  0.00000000E+00  0.00000000E+00
  0.00000000E+00  0.00000000E+00  0.00000000E+00
  0.00000000E+00  0.00000000E+00  0.00000000E+00
  0.00000000E+00  0.00000000E+00  0.00000000E+00
  0.00000000E+00  0.00000000E+00  0.00000000E+00
  0.00000000E+00  0.00000000E+00  0.00000000E+00
  0.00000000E+00  0.00000000E+00  0.00000000E+00
  0.00000000E+00  0.00000000E+00  0.00000000E+00
  0.00000000E+00  0.00000000E+00  0.00000000E+00
  0.00000000E+00  0.00000000E+00  0.00000000E+00
  0.00000000E+00  0.00000000E+00  0.00000000E+00
  0.00000000E+00  0.00000000E+00  0.00000000E+00
  0.00000000E+00  0.00000000E+00  0.00000000E+00
  0.00000000E+00  0.00000000E+00  0.00000000E+00
  0.00000000E+00  0.00000000E+00  0.00000000E+00
  0.00000000E+00  0.00000000E+00  0.00000000E+00
  0.00000000E+00  0.00000000E+00  0.00000000E+00
  0.00000000E+00  0.00000000E+00  0.00000000E+00
  0.00000000E+00  0.00000000E+00  0.00000000E+00
  0.00000000E+00  0.00000000E+00  0.00000000E+00
  0.00000000E+00  0.00000000E+00  0.00000000E+00
