CONTCAR\(4)                             
   1.00000000000000     
    13.8203001021999992    0.0000000000000000    0.0000000000000000
     1.7075399424000000   15.0073707208999991    0.0000000000000000
     0.0000000000000000    0.0000000000000000   18.4675998688000007
   Nb   Ir   Se   O 
    18     2    40     1
Direct
  0.0876799581002744  0.1815473689371907  0.5034596660767517
  0.9926040572352395  0.9796471544403312  0.4941870269928879
  0.4163592978855533  0.7981437827550433  0.5026743880319201
  0.2905036529449609  0.6222607695690475  0.5236945450054394
  0.2561146354403538  0.9818684160016861  0.4994823203491404
  0.1988448097383865  0.4242551103913496  0.5131592761354697
  0.1325298744964251  0.8044829990301031  0.5037093722869724
  0.0255225571601373  0.6137804691498668  0.5019502888592751
  0.4546653163677081  0.3813110855184194  0.4990821952011590
  0.5880402289686890  0.1812677874891634  0.5034627789378743
  0.5149682019984201  0.9798191355943952  0.4962312722473252
  0.8865369557670708  0.8023633804038279  0.4977867112124014
  0.7973439149389117  0.6217549265021887  0.4965987806053243
  0.7471666863119062  0.9828779900843124  0.4978925128396281
  0.7003492815383486  0.4244019567190591  0.5019915766708596
  0.6601409064957164  0.8042795338429175  0.4980639350942625
  0.5690679222261863  0.6191100477847471  0.4992175946046610
  0.9521624471230659  0.3806520380551359  0.4989600588093592
  0.3713055443377706  0.2099809033377906  0.4998448478074757
  0.8704322278970635  0.2091597022603647  0.4984609479971895
  0.4746522657383019  0.2652630380212185  0.5989238440263367
  0.0848276369577530  0.3335064985548615  0.4159579959802795
  0.3708840096852462  0.0699887092945509  0.5754329044740818
  0.4843684748388863  0.1278148907537562  0.4073347614107578
  0.2693382785024075  0.8607884980477823  0.5923240370238421
  0.2229167084519982  0.2633430540356618  0.5747442625144947
  0.3864934717328342  0.9285021426534777  0.4063937080808248
  0.3236988512803222  0.3391510349024333  0.4152902212171344
  0.1266648575149665  0.6897588524260455  0.6070951204497561
  0.1123764416827565  0.0558953868409462  0.5894300991529728
  0.2442795659540212  0.1389584157985343  0.4254470892066547
  0.2814528222641882  0.7350446734237360  0.4214116602485118
  0.0542107413447249  0.4710404643574491  0.5922928330322471
  0.0021547172335235  0.8715925727340905  0.5961291091957610
  0.1834105643484757  0.5463466641554323  0.4222320480067278
  0.1346182742619234  0.9343639786851625  0.4067159801536881
  0.4383588396920600  0.6663388265836903  0.5960944308763416
  0.0292731010167917  0.7358922066141848  0.4073166986858178
  0.3209972490402240  0.4646325212965964  0.5981746004850546
  0.4265846786383915  0.5404740556259585  0.4356223420266349
  0.9713066817293433  0.2644859135904649  0.5981078902772152
  0.5812453596297312  0.3321443686818165  0.4118753503140266
  0.8653857244689032  0.0716694131942985  0.5766265294947478
  0.9848281863016410  0.1290594374301841  0.4061215472013811
  0.7656678497154519  0.8684821485389116  0.5986411469161212
  0.7223782803069637  0.2675906371626456  0.5714666017097925
  0.8777167474912015  0.9317466062524062  0.3990389901911786
  0.8271741008279523  0.3344613213979952  0.4107592648685650
  0.6725132018814632  0.6756868600457330  0.5973512724730528
  0.6166092302686025  0.0585820218151616  0.5941068588906595
  0.7416831160457370  0.1398690673949920  0.4231756554917654
  0.7826663420771336  0.7384018407559122  0.3969134949667307
  0.5639821716952885  0.4710558933239432  0.5872389570628280
  0.5235432584077495  0.8656784603826085  0.5963868625364477
  0.6859202817816450  0.5385537323965862  0.4024861553160856
  0.6366888608096999  0.9311044557143475  0.3968660822809200
  0.9045271876874222  0.6752129416256086  0.5980483700988172
  0.5368962786787752  0.7369696333635829  0.4031190691937199
  0.8169160086257260  0.4746236948942904  0.5877079884299526
  0.9304300575085372  0.5311548556679894  0.4137411607558740
  0.2528408759090842  0.6439960846980222  0.6267571365168608
 
  0.00000000E+00  0.00000000E+00  0.00000000E+00
  0.00000000E+00  0.00000000E+00  0.00000000E+00
  0.00000000E+00  0.00000000E+00  0.00000000E+00
  0.00000000E+00  0.00000000E+00  0.00000000E+00
  0.00000000E+00  0.00000000E+00  0.00000000E+00
  0.00000000E+00  0.00000000E+00  0.00000000E+00
  0.00000000E+00  0.00000000E+00  0.00000000E+00
  0.00000000E+00  0.00000000E+00  0.00000000E+00
  0.00000000E+00  0.00000000E+00  0.00000000E+00
  0.00000000E+00  0.00000000E+00  0.00000000E+00
  0.00000000E+00  0.00000000E+00  0.00000000E+00
  0.00000000E+00  0.00000000E+00  0.00000000E+00
  0.00000000E+00  0.00000000E+00  0.00000000E+00
  0.00000000E+00  0.00000000E+00  0.00000000E+00
  0.00000000E+00  0.00000000E+00  0.00000000E+00
  0.00000000E+00  0.00000000E+00  0.00000000E+00
  0.00000000E+00  0.00000000E+00  0.00000000E+00
  0.00000000E+00  0.00000000E+00  0.00000000E+00
  0.00000000E+00  0.00000000E+00  0.00000000E+00
  0.00000000E+00  0.00000000E+00  0.00000000E+00
  0.00000000E+00  0.00000000E+00  0.00000000E+00
  0.00000000E+00  0.00000000E+00  0.00000000E+00
  0.00000000E+00  0.00000000E+00  0.00000000E+00
  0.00000000E+00  0.00000000E+00  0.00000000E+00
  0.00000000E+00  0.00000000E+00  0.00000000E+00
  0.00000000E+00  0.00000000E+00  0.00000000E+00
  0.00000000E+00  0.00000000E+00  0.00000000E+00
  0.00000000E+00  0.00000000E+00  0.00000000E+00
  0.00000000E+00  0.00000000E+00  0.00000000E+00
  0.00000000E+00  0.00000000E+00  0.00000000E+00
  0.00000000E+00  0.00000000E+00  0.00000000E+00
  0.00000000E+00  0.00000000E+00  0.00000000E+00
  0.00000000E+00  0.00000000E+00  0.00000000E+00
  0.00000000E+00  0.00000000E+00  0.00000000E+00
  0.00000000E+00  0.00000000E+00  0.00000000E+00
  0.00000000E+00  0.00000000E+00  0.00000000E+00
  0.00000000E+00  0.00000000E+00  0.00000000E+00
  0.00000000E+00  0.00000000E+00  0.00000000E+00
  0.00000000E+00  0.00000000E+00  0.00000000E+00
  0.00000000E+00  0.00000000E+00  0.00000000E+00
  0.00000000E+00  0.00000000E+00  0.00000000E+00
  0.00000000E+00  0.00000000E+00  0.00000000E+00
  0.00000000E+00  0.00000000E+00  0.00000000E+00
  0.00000000E+00  0.00000000E+00  0.00000000E+00
  0.00000000E+00  0.00000000E+00  0.00000000E+00
  0.00000000E+00  0.00000000E+00  0.00000000E+00
  0.00000000E+00  0.00000000E+00  0.00000000E+00
  0.00000000E+00  0.00000000E+00  0.00000000E+00
  0.00000000E+00  0.00000000E+00  0.00000000E+00
  0.00000000E+00  0.00000000E+00  0.00000000E+00
  0.00000000E+00  0.00000000E+00  0.00000000E+00
  0.00000000E+00  0.00000000E+00  0.00000000E+00
  0.00000000E+00  0.00000000E+00  0.00000000E+00
  0.00000000E+00  0.00000000E+00  0.00000000E+00
  0.00000000E+00  0.00000000E+00  0.00000000E+00
  0.00000000E+00  0.00000000E+00  0.00000000E+00
  0.00000000E+00  0.00000000E+00  0.00000000E+00
  0.00000000E+00  0.00000000E+00  0.00000000E+00
  0.00000000E+00  0.00000000E+00  0.00000000E+00
  0.00000000E+00  0.00000000E+00  0.00000000E+00
  0.00000000E+00  0.00000000E+00  0.00000000E+00
