CONTCAR\(28)                            
   1.00000000000000     
    13.0951995849999996    0.0000000000000000    0.0000000000000000
     0.0000000000000000   17.1203994751000010    0.0000000000000000
     0.0000000000000000    0.0000000000000000   20.8015995025999985
   La   I 
    12    30
Direct
  0.2500000000000000  0.1096157948924313  0.5191674971049227
  0.0833300019999967  0.8358039866091683  0.4807782319705465
  0.2500000000000000  0.6086655534854796  0.5287886701950357
  0.0833300019999967  0.3367516282973657  0.4712288503067468
  0.5833299829999987  0.1096157948924313  0.5191674971049227
  0.4166699800000018  0.8358039866091683  0.4807782319705465
  0.5833299829999987  0.6086655534854796  0.5287886701950357
  0.4166699800000018  0.3367516282973657  0.4712288503067468
  0.9166700170000013  0.1096157948924313  0.5191674971049227
  0.7500000000000000  0.8358039866091683  0.4807782319705465
  0.9166700170000013  0.6086655534854796  0.5287886701950357
  0.7500000000000000  0.3367516282973657  0.4712288503067468
  0.2500000000000000  0.3502929177872612  0.3606797461120707
  0.0833300019999967  0.5954992287670291  0.6394472603401481
  0.2500000000000000  0.9571103126315762  0.4164126738331901
  0.0833300019999967  0.9884910207618084  0.5838543403241891
  0.0833300019999967  0.5314060406780533  0.4317394498121031
  0.2500000000000000  0.4141226464615744  0.5681097123800920
  0.0833300019999967  0.2165186575121066  0.5971242557054293
  0.2500000000000000  0.7289085823790848  0.4028051581379450
  0.0833300019999967  0.1580873202866741  0.4113798878647609
  0.2500000000000000  0.7873563764503854  0.5885044619128217
  0.5833299829999987  0.3502929177872612  0.3606797461120707
  0.4166699800000018  0.5954992287670291  0.6394472603401481
  0.5833299829999987  0.9571103126315762  0.4164126738331901
  0.4166699800000018  0.9884910207618084  0.5838543403241891
  0.4166699800000018  0.5314060406780533  0.4317394498121031
  0.5833299829999987  0.4141226464615744  0.5681097123800920
  0.4166699800000018  0.2165186575121066  0.5971242557054293
  0.5833299829999987  0.7289085823790848  0.4028051581379450
  0.4166699800000018  0.1580873202866741  0.4113798878647609
  0.5833299829999987  0.7873563764503854  0.5885044619128217
  0.9166700170000013  0.3502929177872612  0.3606797461120707
  0.7500000000000000  0.5954992287670291  0.6394472603401481
  0.9166700170000013  0.9571103126315762  0.4164126738331901
  0.7500000000000000  0.9884910207618084  0.5838543403241891
  0.7500000000000000  0.5314060406780533  0.4317394498121031
  0.9166700170000013  0.4141226464615744  0.5681097123800920
  0.7500000000000000  0.2165186575121066  0.5971242557054293
  0.9166700170000013  0.7289085823790848  0.4028051581379450
  0.7500000000000000  0.1580873202866741  0.4113798878647609
  0.9166700170000013  0.7873563764503854  0.5885044619128217
 
  0.00000000E+00  0.00000000E+00  0.00000000E+00
  0.00000000E+00  0.00000000E+00  0.00000000E+00
  0.00000000E+00  0.00000000E+00  0.00000000E+00
  0.00000000E+00  0.00000000E+00  0.00000000E+00
  0.00000000E+00  0.00000000E+00  0.00000000E+00
  0.00000000E+00  0.00000000E+00  0.00000000E+00
  0.00000000E+00  0.00000000E+00  0.00000000E+00
  0.00000000E+00  0.00000000E+00  0.00000000E+00
  0.00000000E+00  0.00000000E+00  0.00000000E+00
  0.00000000E+00  0.00000000E+00  0.00000000E+00
  0.00000000E+00  0.00000000E+00  0.00000000E+00
  0.00000000E+00  0.00000000E+00  0.00000000E+00
  0.00000000E+00  0.00000000E+00  0.00000000E+00
  0.00000000E+00  0.00000000E+00  0.00000000E+00
  0.00000000E+00  0.00000000E+00  0.00000000E+00
  0.00000000E+00  0.00000000E+00  0.00000000E+00
  0.00000000E+00  0.00000000E+00  0.00000000E+00
  0.00000000E+00  0.00000000E+00  0.00000000E+00
  0.00000000E+00  0.00000000E+00  0.00000000E+00
  0.00000000E+00  0.00000000E+00  0.00000000E+00
  0.00000000E+00  0.00000000E+00  0.00000000E+00
  0.00000000E+00  0.00000000E+00  0.00000000E+00
  0.00000000E+00  0.00000000E+00  0.00000000E+00
  0.00000000E+00  0.00000000E+00  0.00000000E+00
  0.00000000E+00  0.00000000E+00  0.00000000E+00
  0.00000000E+00  0.00000000E+00  0.00000000E+00
  0.00000000E+00  0.00000000E+00  0.00000000E+00
  0.00000000E+00  0.00000000E+00  0.00000000E+00
  0.00000000E+00  0.00000000E+00  0.00000000E+00
  0.00000000E+00  0.00000000E+00  0.00000000E+00
  0.00000000E+00  0.00000000E+00  0.00000000E+00
  0.00000000E+00  0.00000000E+00  0.00000000E+00
  0.00000000E+00  0.00000000E+00  0.00000000E+00
  0.00000000E+00  0.00000000E+00  0.00000000E+00
  0.00000000E+00  0.00000000E+00  0.00000000E+00
  0.00000000E+00  0.00000000E+00  0.00000000E+00
  0.00000000E+00  0.00000000E+00  0.00000000E+00
  0.00000000E+00  0.00000000E+00  0.00000000E+00
  0.00000000E+00  0.00000000E+00  0.00000000E+00
  0.00000000E+00  0.00000000E+00  0.00000000E+00
  0.00000000E+00  0.00000000E+00  0.00000000E+00
  0.00000000E+00  0.00000000E+00  0.00000000E+00
