CONTCAR\(2)                             
   1.00000000000000     
    15.1086997986000000    0.0000000000000000    0.0000000000000000
     3.7771669926999998   12.0335217063000002    0.0000000000000000
     0.0000000000000000    0.0000000000000000   20.2071990966999984
   Au   Se   O 
    32    32     1
Direct
  0.2506495400491984  0.0040410458082312  0.6213486970031004
  0.9999042579490847  0.9972955227712692  0.3787391980224289
  0.0878128742113749  0.1488507385691333  0.4990900804205248
  0.1632006710741086  0.8501834032203063  0.5010885520577965
  0.5000995537890695  0.0025063482454544  0.6217857321295240
  0.2499155091196731  0.9974374297623618  0.3787134245956375
  0.3388610942229599  0.1504247465825118  0.4988451129722958
  0.4120202689049710  0.8519264098670850  0.5011797698230263
  0.7493427904228107  0.0016358005911066  0.6215045757904601
  0.4999209452246716  0.9972597148362440  0.3786133806679061
  0.5879477069173855  0.1480265005737977  0.4994099590206457
  0.6613308631857836  0.8495519253610027  0.5014099654701962
  0.9999331997689909  0.0031844939421284  0.6212320774345415
  0.7499738174850162  0.9970031635594864  0.3787943739977828
  0.8364265107265080  0.1504198784602786  0.4987725882435181
  0.9121135723058544  0.8513635866200935  0.5009808267180079
  0.2485181484013156  0.5029956944284587  0.6226907135200775
  0.0000459242031177  0.4971826967398567  0.3784162559303968
  0.0875533634923102  0.6487908261529107  0.4991616814843326
  0.1616354652857693  0.3514111070986413  0.5015350029866678
  0.5000876308749014  0.5023399823885728  0.6272132769928582
  0.2503979826415160  0.4970330123781683  0.3797552818532680
  0.3379651140968014  0.6487175357329578  0.5011762823128066
  0.4122877700148800  0.3520620165300987  0.5035991328367030
  0.7515573732534728  0.5023697851103278  0.6225202856766643
  0.4999741080704962  0.4974101596858427  0.3802113198318458
  0.5876440845363623  0.6480798310792716  0.5017326245110576
  0.6617887830878618  0.3515993656277451  0.5036938318577341
  0.0000099027622677  0.5028504438581194  0.6217023576097566
  0.7497306953837699  0.4973132100187472  0.3796044520699868
  0.8384235126606749  0.6485628528584876  0.4986109725191795
  0.9125667033933313  0.3512619426813128  0.5009959754473672
  0.0907304903220867  0.1415029900814199  0.6201344064141244
  0.1617805212731680  0.8628473102372091  0.6218855833974457
  0.0902523363226278  0.1363978862535983  0.3781757648782514
  0.1593445856457303  0.8584178917458229  0.3801009240964096
  0.3420638662974214  0.1436281770291007  0.6199284223834635
  0.4093469610775790  0.8644529061325394  0.6221857825438633
  0.3404043667855178  0.1364183984660411  0.3779201869232151
  0.4093728674574569  0.8582410350549000  0.3800526155788124
  0.5906442917929857  0.1407928584210679  0.6205291273086194
  0.6582966986493467  0.8614224878330435  0.6224614188702190
  0.5904517565786005  0.1362148438351354  0.3784185839652897
  0.6593127334614637  0.8581476442579936  0.3804008315123286
  0.8378414884351173  0.1432963644066826  0.6196926375041913
  0.9093849186754158  0.8645899161831156  0.6219055968189464
  0.8403689056186958  0.1361587147407323  0.3778846167422647
  0.9095655541942271  0.8581316976252653  0.3799693067246919
  0.0898086118892539  0.6425834007506551  0.6202795316590620
  0.1588712300306556  0.3636102624326967  0.6225597140330785
  0.0907118682637235  0.6359311055518764  0.3781750995039176
  0.1596577559910529  0.3583151161074009  0.3804983625669854
  0.3350574429757866  0.6453758536527998  0.6215718892729181
  0.4061983141638045  0.3609953203040620  0.6239845191706005
  0.3408611146040172  0.6360710947489836  0.3799410428169573
  0.4101067750432230  0.3584337537316715  0.3822018134873088
  0.5936227699064847  0.6436889816534859  0.6221238135170167
  0.6655185856574712  0.3594494719416894  0.6240375101267589
  0.5900434538618263  0.6362259292990311  0.3804574197007446
  0.6588939355244726  0.3586834228448050  0.3823554205494917
  0.8411443258487143  0.6418839099508670  0.6196742390384321
  0.9104163457850787  0.3630448297202769  0.6220052116426636
  0.8403798403457913  0.6361451981573327  0.3776019489630089
  0.9093477343345109  0.3583354430261772  0.3799146837188836
  0.5017981766704406  0.5007644106824278  0.7244343267619483
 
  0.00000000E+00  0.00000000E+00  0.00000000E+00
  0.00000000E+00  0.00000000E+00  0.00000000E+00
  0.00000000E+00  0.00000000E+00  0.00000000E+00
  0.00000000E+00  0.00000000E+00  0.00000000E+00
  0.00000000E+00  0.00000000E+00  0.00000000E+00
  0.00000000E+00  0.00000000E+00  0.00000000E+00
  0.00000000E+00  0.00000000E+00  0.00000000E+00
  0.00000000E+00  0.00000000E+00  0.00000000E+00
  0.00000000E+00  0.00000000E+00  0.00000000E+00
  0.00000000E+00  0.00000000E+00  0.00000000E+00
  0.00000000E+00  0.00000000E+00  0.00000000E+00
  0.00000000E+00  0.00000000E+00  0.00000000E+00
  0.00000000E+00  0.00000000E+00  0.00000000E+00
  0.00000000E+00  0.00000000E+00  0.00000000E+00
  0.00000000E+00  0.00000000E+00  0.00000000E+00
  0.00000000E+00  0.00000000E+00  0.00000000E+00
  0.00000000E+00  0.00000000E+00  0.00000000E+00
  0.00000000E+00  0.00000000E+00  0.00000000E+00
  0.00000000E+00  0.00000000E+00  0.00000000E+00
  0.00000000E+00  0.00000000E+00  0.00000000E+00
  0.00000000E+00  0.00000000E+00  0.00000000E+00
  0.00000000E+00  0.00000000E+00  0.00000000E+00
  0.00000000E+00  0.00000000E+00  0.00000000E+00
  0.00000000E+00  0.00000000E+00  0.00000000E+00
  0.00000000E+00  0.00000000E+00  0.00000000E+00
  0.00000000E+00  0.00000000E+00  0.00000000E+00
  0.00000000E+00  0.00000000E+00  0.00000000E+00
  0.00000000E+00  0.00000000E+00  0.00000000E+00
  0.00000000E+00  0.00000000E+00  0.00000000E+00
  0.00000000E+00  0.00000000E+00  0.00000000E+00
  0.00000000E+00  0.00000000E+00  0.00000000E+00
  0.00000000E+00  0.00000000E+00  0.00000000E+00
  0.00000000E+00  0.00000000E+00  0.00000000E+00
  0.00000000E+00  0.00000000E+00  0.00000000E+00
  0.00000000E+00  0.00000000E+00  0.00000000E+00
  0.00000000E+00  0.00000000E+00  0.00000000E+00
  0.00000000E+00  0.00000000E+00  0.00000000E+00
  0.00000000E+00  0.00000000E+00  0.00000000E+00
  0.00000000E+00  0.00000000E+00  0.00000000E+00
  0.00000000E+00  0.00000000E+00  0.00000000E+00
  0.00000000E+00  0.00000000E+00  0.00000000E+00
  0.00000000E+00  0.00000000E+00  0.00000000E+00
  0.00000000E+00  0.00000000E+00  0.00000000E+00
  0.00000000E+00  0.00000000E+00  0.00000000E+00
  0.00000000E+00  0.00000000E+00  0.00000000E+00
  0.00000000E+00  0.00000000E+00  0.00000000E+00
  0.00000000E+00  0.00000000E+00  0.00000000E+00
  0.00000000E+00  0.00000000E+00  0.00000000E+00
  0.00000000E+00  0.00000000E+00  0.00000000E+00
  0.00000000E+00  0.00000000E+00  0.00000000E+00
  0.00000000E+00  0.00000000E+00  0.00000000E+00
  0.00000000E+00  0.00000000E+00  0.00000000E+00
  0.00000000E+00  0.00000000E+00  0.00000000E+00
  0.00000000E+00  0.00000000E+00  0.00000000E+00
  0.00000000E+00  0.00000000E+00  0.00000000E+00
  0.00000000E+00  0.00000000E+00  0.00000000E+00
  0.00000000E+00  0.00000000E+00  0.00000000E+00
  0.00000000E+00  0.00000000E+00  0.00000000E+00
  0.00000000E+00  0.00000000E+00  0.00000000E+00
  0.00000000E+00  0.00000000E+00  0.00000000E+00
  0.00000000E+00  0.00000000E+00  0.00000000E+00
  0.00000000E+00  0.00000000E+00  0.00000000E+00
  0.00000000E+00  0.00000000E+00  0.00000000E+00
  0.00000000E+00  0.00000000E+00  0.00000000E+00
  0.00000000E+00  0.00000000E+00  0.00000000E+00
