G   66   66    1    0.005     # Parameters to Generate KPOINTS (Don't Edit This Line)
    2180
Reciprocal lattice
    0.000000000000    0.000000000000    0.000000000000       1
    0.015151515152    0.000000000000    0.000000000000       2
    0.030303030303    0.000000000000    0.000000000000       2
    0.045454545455    0.000000000000    0.000000000000       2
    0.060606060606    0.000000000000    0.000000000000       2
    0.075757575758    0.000000000000    0.000000000000       2
    0.090909090909    0.000000000000    0.000000000000       2
    0.106060606061    0.000000000000    0.000000000000       2
    0.121212121212    0.000000000000    0.000000000000       2
    0.136363636364    0.000000000000    0.000000000000       2
    0.151515151515    0.000000000000    0.000000000000       2
    0.166666666667    0.000000000000    0.000000000000       2
    0.181818181818    0.000000000000    0.000000000000       2
    0.196969696970    0.000000000000    0.000000000000       2
    0.212121212121    0.000000000000    0.000000000000       2
    0.227272727273    0.000000000000    0.000000000000       2
    0.242424242424    0.000000000000    0.000000000000       2
    0.257575757576    0.000000000000    0.000000000000       2
    0.272727272727    0.000000000000    0.000000000000       2
    0.287878787879    0.000000000000    0.000000000000       2
    0.303030303030    0.000000000000    0.000000000000       2
    0.318181818182    0.000000000000    0.000000000000       2
    0.333333333333    0.000000000000    0.000000000000       2
    0.348484848485    0.000000000000    0.000000000000       2
    0.363636363636    0.000000000000    0.000000000000       2
    0.378787878788    0.000000000000    0.000000000000       2
    0.393939393939    0.000000000000    0.000000000000       2
    0.409090909091    0.000000000000    0.000000000000       2
    0.424242424242    0.000000000000    0.000000000000       2
    0.439393939394    0.000000000000    0.000000000000       2
    0.454545454545    0.000000000000    0.000000000000       2
    0.469696969697    0.000000000000    0.000000000000       2
    0.484848484848    0.000000000000    0.000000000000       2
    0.500000000000    0.000000000000    0.000000000000       1
    0.000000000000    0.015151515152    0.000000000000       2
    0.015151515152    0.015151515152    0.000000000000       2
    0.030303030303    0.015151515152    0.000000000000       2
    0.045454545455    0.015151515152    0.000000000000       2
    0.060606060606    0.015151515152    0.000000000000       2
    0.075757575758    0.015151515152    0.000000000000       2
    0.090909090909    0.015151515152    0.000000000000       2
    0.106060606061    0.015151515152    0.000000000000       2
    0.121212121212    0.015151515152    0.000000000000       2
    0.136363636364    0.015151515152    0.000000000000       2
    0.151515151515    0.015151515152    0.000000000000       2
    0.166666666667    0.015151515152    0.000000000000       2
    0.181818181818    0.015151515152    0.000000000000       2
    0.196969696970    0.015151515152    0.000000000000       2
    0.212121212121    0.015151515152    0.000000000000       2
    0.227272727273    0.015151515152    0.000000000000       2
    0.242424242424    0.015151515152    0.000000000000       2
    0.257575757576    0.015151515152    0.000000000000       2
    0.272727272727    0.015151515152    0.000000000000       2
    0.287878787879    0.015151515152    0.000000000000       2
    0.303030303030    0.015151515152    0.000000000000       2
    0.318181818182    0.015151515152    0.000000000000       2
    0.333333333333    0.015151515152    0.000000000000       2
    0.348484848485    0.015151515152    0.000000000000       2
    0.363636363636    0.015151515152    0.000000000000       2
    0.378787878788    0.015151515152    0.000000000000       2
    0.393939393939    0.015151515152    0.000000000000       2
    0.409090909091    0.015151515152    0.000000000000       2
    0.424242424242    0.015151515152    0.000000000000       2
    0.439393939394    0.015151515152    0.000000000000       2
    0.454545454545    0.015151515152    0.000000000000       2
    0.469696969697    0.015151515152    0.000000000000       2
    0.484848484848    0.015151515152    0.000000000000       2
    0.500000000000    0.015151515152    0.000000000000       2
   -0.484848484848    0.015151515152    0.000000000000       2
   -0.469696969697    0.015151515152    0.000000000000       2
   -0.454545454545    0.015151515152    0.000000000000       2
   -0.439393939394    0.015151515152    0.000000000000       2
   -0.424242424242    0.015151515152    0.000000000000       2
   -0.409090909091    0.015151515152    0.000000000000       2
   -0.393939393939    0.015151515152    0.000000000000       2
   -0.378787878788    0.015151515152    0.000000000000       2
   -0.363636363636    0.015151515152    0.000000000000       2
   -0.348484848485    0.015151515152    0.000000000000       2
   -0.333333333333    0.015151515152    0.000000000000       2
   -0.318181818182    0.015151515152    0.000000000000       2
   -0.303030303030    0.015151515152    0.000000000000       2
   -0.287878787879    0.015151515152    0.000000000000       2
   -0.272727272727    0.015151515152    0.000000000000       2
   -0.257575757576    0.015151515152    0.000000000000       2
   -0.242424242424    0.015151515152    0.000000000000       2
   -0.227272727273    0.015151515152    0.000000000000       2
   -0.212121212121    0.015151515152    0.000000000000       2
   -0.196969696970    0.015151515152    0.000000000000       2
   -0.181818181818    0.015151515152    0.000000000000       2
   -0.166666666667    0.015151515152    0.000000000000       2
   -0.151515151515    0.015151515152    0.000000000000       2
   -0.136363636364    0.015151515152    0.000000000000       2
   -0.121212121212    0.015151515152    0.000000000000       2
   -0.106060606061    0.015151515152    0.000000000000       2
   -0.090909090909    0.015151515152    0.000000000000       2
   -0.075757575758    0.015151515152    0.000000000000       2
   -0.060606060606    0.015151515152    0.000000000000       2
   -0.045454545455    0.015151515152    0.000000000000       2
   -0.030303030303    0.015151515152    0.000000000000       2
   -0.015151515152    0.015151515152    0.000000000000       2
    0.000000000000    0.030303030303    0.000000000000       2
    0.015151515152    0.030303030303    0.000000000000       2
    0.030303030303    0.030303030303    0.000000000000       2
    0.045454545455    0.030303030303    0.000000000000       2
    0.060606060606    0.030303030303    0.000000000000       2
    0.075757575758    0.030303030303    0.000000000000       2
    0.090909090909    0.030303030303    0.000000000000       2
    0.106060606061    0.030303030303    0.000000000000       2
    0.121212121212    0.030303030303    0.000000000000       2
    0.136363636364    0.030303030303    0.000000000000       2
    0.151515151515    0.030303030303    0.000000000000       2
    0.166666666667    0.030303030303    0.000000000000       2
    0.181818181818    0.030303030303    0.000000000000       2
    0.196969696970    0.030303030303    0.000000000000       2
    0.212121212121    0.030303030303    0.000000000000       2
    0.227272727273    0.030303030303    0.000000000000       2
    0.242424242424    0.030303030303    0.000000000000       2
    0.257575757576    0.030303030303    0.000000000000       2
    0.272727272727    0.030303030303    0.000000000000       2
    0.287878787879    0.030303030303    0.000000000000       2
    0.303030303030    0.030303030303    0.000000000000       2
    0.318181818182    0.030303030303    0.000000000000       2
    0.333333333333    0.030303030303    0.000000000000       2
    0.348484848485    0.030303030303    0.000000000000       2
    0.363636363636    0.030303030303    0.000000000000       2
    0.378787878788    0.030303030303    0.000000000000       2
    0.393939393939    0.030303030303    0.000000000000       2
    0.409090909091    0.030303030303    0.000000000000       2
    0.424242424242    0.030303030303    0.000000000000       2
    0.439393939394    0.030303030303    0.000000000000       2
    0.454545454545    0.030303030303    0.000000000000       2
    0.469696969697    0.030303030303    0.000000000000       2
    0.484848484848    0.030303030303    0.000000000000       2
    0.500000000000    0.030303030303    0.000000000000       2
   -0.484848484848    0.030303030303    0.000000000000       2
   -0.469696969697    0.030303030303    0.000000000000       2
   -0.454545454545    0.030303030303    0.000000000000       2
   -0.439393939394    0.030303030303    0.000000000000       2
   -0.424242424242    0.030303030303    0.000000000000       2
   -0.409090909091    0.030303030303    0.000000000000       2
   -0.393939393939    0.030303030303    0.000000000000       2
   -0.378787878788    0.030303030303    0.000000000000       2
   -0.363636363636    0.030303030303    0.000000000000       2
   -0.348484848485    0.030303030303    0.000000000000       2
   -0.333333333333    0.030303030303    0.000000000000       2
   -0.318181818182    0.030303030303    0.000000000000       2
   -0.303030303030    0.030303030303    0.000000000000       2
   -0.287878787879    0.030303030303    0.000000000000       2
   -0.272727272727    0.030303030303    0.000000000000       2
   -0.257575757576    0.030303030303    0.000000000000       2
   -0.242424242424    0.030303030303    0.000000000000       2
   -0.227272727273    0.030303030303    0.000000000000       2
   -0.212121212121    0.030303030303    0.000000000000       2
   -0.196969696970    0.030303030303    0.000000000000       2
   -0.181818181818    0.030303030303    0.000000000000       2
   -0.166666666667    0.030303030303    0.000000000000       2
   -0.151515151515    0.030303030303    0.000000000000       2
   -0.136363636364    0.030303030303    0.000000000000       2
   -0.121212121212    0.030303030303    0.000000000000       2
   -0.106060606061    0.030303030303    0.000000000000       2
   -0.090909090909    0.030303030303    0.000000000000       2
   -0.075757575758    0.030303030303    0.000000000000       2
   -0.060606060606    0.030303030303    0.000000000000       2
   -0.045454545455    0.030303030303    0.000000000000       2
   -0.030303030303    0.030303030303    0.000000000000       2
   -0.015151515152    0.030303030303    0.000000000000       2
    0.000000000000    0.045454545455    0.000000000000       2
    0.015151515152    0.045454545455    0.000000000000       2
    0.030303030303    0.045454545455    0.000000000000       2
    0.045454545455    0.045454545455    0.000000000000       2
    0.060606060606    0.045454545455    0.000000000000       2
    0.075757575758    0.045454545455    0.000000000000       2
    0.090909090909    0.045454545455    0.000000000000       2
    0.106060606061    0.045454545455    0.000000000000       2
    0.121212121212    0.045454545455    0.000000000000       2
    0.136363636364    0.045454545455    0.000000000000       2
    0.151515151515    0.045454545455    0.000000000000       2
    0.166666666667    0.045454545455    0.000000000000       2
    0.181818181818    0.045454545455    0.000000000000       2
    0.196969696970    0.045454545455    0.000000000000       2
    0.212121212121    0.045454545455    0.000000000000       2
    0.227272727273    0.045454545455    0.000000000000       2
    0.242424242424    0.045454545455    0.000000000000       2
    0.257575757576    0.045454545455    0.000000000000       2
    0.272727272727    0.045454545455    0.000000000000       2
    0.287878787879    0.045454545455    0.000000000000       2
    0.303030303030    0.045454545455    0.000000000000       2
    0.318181818182    0.045454545455    0.000000000000       2
    0.333333333333    0.045454545455    0.000000000000       2
    0.348484848485    0.045454545455    0.000000000000       2
    0.363636363636    0.045454545455    0.000000000000       2
    0.378787878788    0.045454545455    0.000000000000       2
    0.393939393939    0.045454545455    0.000000000000       2
    0.409090909091    0.045454545455    0.000000000000       2
    0.424242424242    0.045454545455    0.000000000000       2
    0.439393939394    0.045454545455    0.000000000000       2
    0.454545454545    0.045454545455    0.000000000000       2
    0.469696969697    0.045454545455    0.000000000000       2
    0.484848484848    0.045454545455    0.000000000000       2
    0.500000000000    0.045454545455    0.000000000000       2
   -0.484848484848    0.045454545455    0.000000000000       2
   -0.469696969697    0.045454545455    0.000000000000       2
   -0.454545454545    0.045454545455    0.000000000000       2
   -0.439393939394    0.045454545455    0.000000000000       2
   -0.424242424242    0.045454545455    0.000000000000       2
   -0.409090909091    0.045454545455    0.000000000000       2
   -0.393939393939    0.045454545455    0.000000000000       2
   -0.378787878788    0.045454545455    0.000000000000       2
   -0.363636363636    0.045454545455    0.000000000000       2
   -0.348484848485    0.045454545455    0.000000000000       2
   -0.333333333333    0.045454545455    0.000000000000       2
   -0.318181818182    0.045454545455    0.000000000000       2
   -0.303030303030    0.045454545455    0.000000000000       2
   -0.287878787879    0.045454545455    0.000000000000       2
   -0.272727272727    0.045454545455    0.000000000000       2
   -0.257575757576    0.045454545455    0.000000000000       2
   -0.242424242424    0.045454545455    0.000000000000       2
   -0.227272727273    0.045454545455    0.000000000000       2
   -0.212121212121    0.045454545455    0.000000000000       2
   -0.196969696970    0.045454545455    0.000000000000       2
   -0.181818181818    0.045454545455    0.000000000000       2
   -0.166666666667    0.045454545455    0.000000000000       2
   -0.151515151515    0.045454545455    0.000000000000       2
   -0.136363636364    0.045454545455    0.000000000000       2
   -0.121212121212    0.045454545455    0.000000000000       2
   -0.106060606061    0.045454545455    0.000000000000       2
   -0.090909090909    0.045454545455    0.000000000000       2
   -0.075757575758    0.045454545455    0.000000000000       2
   -0.060606060606    0.045454545455    0.000000000000       2
   -0.045454545455    0.045454545455    0.000000000000       2
   -0.030303030303    0.045454545455    0.000000000000       2
   -0.015151515152    0.045454545455    0.000000000000       2
    0.000000000000    0.060606060606    0.000000000000       2
    0.015151515152    0.060606060606    0.000000000000       2
    0.030303030303    0.060606060606    0.000000000000       2
    0.045454545455    0.060606060606    0.000000000000       2
    0.060606060606    0.060606060606    0.000000000000       2
    0.075757575758    0.060606060606    0.000000000000       2
    0.090909090909    0.060606060606    0.000000000000       2
    0.106060606061    0.060606060606    0.000000000000       2
    0.121212121212    0.060606060606    0.000000000000       2
    0.136363636364    0.060606060606    0.000000000000       2
    0.151515151515    0.060606060606    0.000000000000       2
    0.166666666667    0.060606060606    0.000000000000       2
    0.181818181818    0.060606060606    0.000000000000       2
    0.196969696970    0.060606060606    0.000000000000       2
    0.212121212121    0.060606060606    0.000000000000       2
    0.227272727273    0.060606060606    0.000000000000       2
    0.242424242424    0.060606060606    0.000000000000       2
    0.257575757576    0.060606060606    0.000000000000       2
    0.272727272727    0.060606060606    0.000000000000       2
    0.287878787879    0.060606060606    0.000000000000       2
    0.303030303030    0.060606060606    0.000000000000       2
    0.318181818182    0.060606060606    0.000000000000       2
    0.333333333333    0.060606060606    0.000000000000       2
    0.348484848485    0.060606060606    0.000000000000       2
    0.363636363636    0.060606060606    0.000000000000       2
    0.378787878788    0.060606060606    0.000000000000       2
    0.393939393939    0.060606060606    0.000000000000       2
    0.409090909091    0.060606060606    0.000000000000       2
    0.424242424242    0.060606060606    0.000000000000       2
    0.439393939394    0.060606060606    0.000000000000       2
    0.454545454545    0.060606060606    0.000000000000       2
    0.469696969697    0.060606060606    0.000000000000       2
    0.484848484848    0.060606060606    0.000000000000       2
    0.500000000000    0.060606060606    0.000000000000       2
   -0.484848484848    0.060606060606    0.000000000000       2
   -0.469696969697    0.060606060606    0.000000000000       2
   -0.454545454545    0.060606060606    0.000000000000       2
   -0.439393939394    0.060606060606    0.000000000000       2
   -0.424242424242    0.060606060606    0.000000000000       2
   -0.409090909091    0.060606060606    0.000000000000       2
   -0.393939393939    0.060606060606    0.000000000000       2
   -0.378787878788    0.060606060606    0.000000000000       2
   -0.363636363636    0.060606060606    0.000000000000       2
   -0.348484848485    0.060606060606    0.000000000000       2
   -0.333333333333    0.060606060606    0.000000000000       2
   -0.318181818182    0.060606060606    0.000000000000       2
   -0.303030303030    0.060606060606    0.000000000000       2
   -0.287878787879    0.060606060606    0.000000000000       2
   -0.272727272727    0.060606060606    0.000000000000       2
   -0.257575757576    0.060606060606    0.000000000000       2
   -0.242424242424    0.060606060606    0.000000000000       2
   -0.227272727273    0.060606060606    0.000000000000       2
   -0.212121212121    0.060606060606    0.000000000000       2
   -0.196969696970    0.060606060606    0.000000000000       2
   -0.181818181818    0.060606060606    0.000000000000       2
   -0.166666666667    0.060606060606    0.000000000000       2
   -0.151515151515    0.060606060606    0.000000000000       2
   -0.136363636364    0.060606060606    0.000000000000       2
   -0.121212121212    0.060606060606    0.000000000000       2
   -0.106060606061    0.060606060606    0.000000000000       2
   -0.090909090909    0.060606060606    0.000000000000       2
   -0.075757575758    0.060606060606    0.000000000000       2
   -0.060606060606    0.060606060606    0.000000000000       2
   -0.045454545455    0.060606060606    0.000000000000       2
   -0.030303030303    0.060606060606    0.000000000000       2
   -0.015151515152    0.060606060606    0.000000000000       2
    0.000000000000    0.075757575758    0.000000000000       2
    0.015151515152    0.075757575758    0.000000000000       2
    0.030303030303    0.075757575758    0.000000000000       2
    0.045454545455    0.075757575758    0.000000000000       2
    0.060606060606    0.075757575758    0.000000000000       2
    0.075757575758    0.075757575758    0.000000000000       2
    0.090909090909    0.075757575758    0.000000000000       2
    0.106060606061    0.075757575758    0.000000000000       2
    0.121212121212    0.075757575758    0.000000000000       2
    0.136363636364    0.075757575758    0.000000000000       2
    0.151515151515    0.075757575758    0.000000000000       2
    0.166666666667    0.075757575758    0.000000000000       2
    0.181818181818    0.075757575758    0.000000000000       2
    0.196969696970    0.075757575758    0.000000000000       2
    0.212121212121    0.075757575758    0.000000000000       2
    0.227272727273    0.075757575758    0.000000000000       2
    0.242424242424    0.075757575758    0.000000000000       2
    0.257575757576    0.075757575758    0.000000000000       2
    0.272727272727    0.075757575758    0.000000000000       2
    0.287878787879    0.075757575758    0.000000000000       2
    0.303030303030    0.075757575758    0.000000000000       2
    0.318181818182    0.075757575758    0.000000000000       2
    0.333333333333    0.075757575758    0.000000000000       2
    0.348484848485    0.075757575758    0.000000000000       2
    0.363636363636    0.075757575758    0.000000000000       2
    0.378787878788    0.075757575758    0.000000000000       2
    0.393939393939    0.075757575758    0.000000000000       2
    0.409090909091    0.075757575758    0.000000000000       2
    0.424242424242    0.075757575758    0.000000000000       2
    0.439393939394    0.075757575758    0.000000000000       2
    0.454545454545    0.075757575758    0.000000000000       2
    0.469696969697    0.075757575758    0.000000000000       2
    0.484848484848    0.075757575758    0.000000000000       2
    0.500000000000    0.075757575758    0.000000000000       2
   -0.484848484848    0.075757575758    0.000000000000       2
   -0.469696969697    0.075757575758    0.000000000000       2
   -0.454545454545    0.075757575758    0.000000000000       2
   -0.439393939394    0.075757575758    0.000000000000       2
   -0.424242424242    0.075757575758    0.000000000000       2
   -0.409090909091    0.075757575758    0.000000000000       2
   -0.393939393939    0.075757575758    0.000000000000       2
   -0.378787878788    0.075757575758    0.000000000000       2
   -0.363636363636    0.075757575758    0.000000000000       2
   -0.348484848485    0.075757575758    0.000000000000       2
   -0.333333333333    0.075757575758    0.000000000000       2
   -0.318181818182    0.075757575758    0.000000000000       2
   -0.303030303030    0.075757575758    0.000000000000       2
   -0.287878787879    0.075757575758    0.000000000000       2
   -0.272727272727    0.075757575758    0.000000000000       2
   -0.257575757576    0.075757575758    0.000000000000       2
   -0.242424242424    0.075757575758    0.000000000000       2
   -0.227272727273    0.075757575758    0.000000000000       2
   -0.212121212121    0.075757575758    0.000000000000       2
   -0.196969696970    0.075757575758    0.000000000000       2
   -0.181818181818    0.075757575758    0.000000000000       2
   -0.166666666667    0.075757575758    0.000000000000       2
   -0.151515151515    0.075757575758    0.000000000000       2
   -0.136363636364    0.075757575758    0.000000000000       2
   -0.121212121212    0.075757575758    0.000000000000       2
   -0.106060606061    0.075757575758    0.000000000000       2
   -0.090909090909    0.075757575758    0.000000000000       2
   -0.075757575758    0.075757575758    0.000000000000       2
   -0.060606060606    0.075757575758    0.000000000000       2
   -0.045454545455    0.075757575758    0.000000000000       2
   -0.030303030303    0.075757575758    0.000000000000       2
   -0.015151515152    0.075757575758    0.000000000000       2
    0.000000000000    0.090909090909    0.000000000000       2
    0.015151515152    0.090909090909    0.000000000000       2
    0.030303030303    0.090909090909    0.000000000000       2
    0.045454545455    0.090909090909    0.000000000000       2
    0.060606060606    0.090909090909    0.000000000000       2
    0.075757575758    0.090909090909    0.000000000000       2
    0.090909090909    0.090909090909    0.000000000000       2
    0.106060606061    0.090909090909    0.000000000000       2
    0.121212121212    0.090909090909    0.000000000000       2
    0.136363636364    0.090909090909    0.000000000000       2
    0.151515151515    0.090909090909    0.000000000000       2
    0.166666666667    0.090909090909    0.000000000000       2
    0.181818181818    0.090909090909    0.000000000000       2
    0.196969696970    0.090909090909    0.000000000000       2
    0.212121212121    0.090909090909    0.000000000000       2
    0.227272727273    0.090909090909    0.000000000000       2
    0.242424242424    0.090909090909    0.000000000000       2
    0.257575757576    0.090909090909    0.000000000000       2
    0.272727272727    0.090909090909    0.000000000000       2
    0.287878787879    0.090909090909    0.000000000000       2
    0.303030303030    0.090909090909    0.000000000000       2
    0.318181818182    0.090909090909    0.000000000000       2
    0.333333333333    0.090909090909    0.000000000000       2
    0.348484848485    0.090909090909    0.000000000000       2
    0.363636363636    0.090909090909    0.000000000000       2
    0.378787878788    0.090909090909    0.000000000000       2
    0.393939393939    0.090909090909    0.000000000000       2
    0.409090909091    0.090909090909    0.000000000000       2
    0.424242424242    0.090909090909    0.000000000000       2
    0.439393939394    0.090909090909    0.000000000000       2
    0.454545454545    0.090909090909    0.000000000000       2
    0.469696969697    0.090909090909    0.000000000000       2
    0.484848484848    0.090909090909    0.000000000000       2
    0.500000000000    0.090909090909    0.000000000000       2
   -0.484848484848    0.090909090909    0.000000000000       2
   -0.469696969697    0.090909090909    0.000000000000       2
   -0.454545454545    0.090909090909    0.000000000000       2
   -0.439393939394    0.090909090909    0.000000000000       2
   -0.424242424242    0.090909090909    0.000000000000       2
   -0.409090909091    0.090909090909    0.000000000000       2
   -0.393939393939    0.090909090909    0.000000000000       2
   -0.378787878788    0.090909090909    0.000000000000       2
   -0.363636363636    0.090909090909    0.000000000000       2
   -0.348484848485    0.090909090909    0.000000000000       2
   -0.333333333333    0.090909090909    0.000000000000       2
   -0.318181818182    0.090909090909    0.000000000000       2
   -0.303030303030    0.090909090909    0.000000000000       2
   -0.287878787879    0.090909090909    0.000000000000       2
   -0.272727272727    0.090909090909    0.000000000000       2
   -0.257575757576    0.090909090909    0.000000000000       2
   -0.242424242424    0.090909090909    0.000000000000       2
   -0.227272727273    0.090909090909    0.000000000000       2
   -0.212121212121    0.090909090909    0.000000000000       2
   -0.196969696970    0.090909090909    0.000000000000       2
   -0.181818181818    0.090909090909    0.000000000000       2
   -0.166666666667    0.090909090909    0.000000000000       2
   -0.151515151515    0.090909090909    0.000000000000       2
   -0.136363636364    0.090909090909    0.000000000000       2
   -0.121212121212    0.090909090909    0.000000000000       2
   -0.106060606061    0.090909090909    0.000000000000       2
   -0.090909090909    0.090909090909    0.000000000000       2
   -0.075757575758    0.090909090909    0.000000000000       2
   -0.060606060606    0.090909090909    0.000000000000       2
   -0.045454545455    0.090909090909    0.000000000000       2
   -0.030303030303    0.090909090909    0.000000000000       2
   -0.015151515152    0.090909090909    0.000000000000       2
    0.000000000000    0.106060606061    0.000000000000       2
    0.015151515152    0.106060606061    0.000000000000       2
    0.030303030303    0.106060606061    0.000000000000       2
    0.045454545455    0.106060606061    0.000000000000       2
    0.060606060606    0.106060606061    0.000000000000       2
    0.075757575758    0.106060606061    0.000000000000       2
    0.090909090909    0.106060606061    0.000000000000       2
    0.106060606061    0.106060606061    0.000000000000       2
    0.121212121212    0.106060606061    0.000000000000       2
    0.136363636364    0.106060606061    0.000000000000       2
    0.151515151515    0.106060606061    0.000000000000       2
    0.166666666667    0.106060606061    0.000000000000       2
    0.181818181818    0.106060606061    0.000000000000       2
    0.196969696970    0.106060606061    0.000000000000       2
    0.212121212121    0.106060606061    0.000000000000       2
    0.227272727273    0.106060606061    0.000000000000       2
    0.242424242424    0.106060606061    0.000000000000       2
    0.257575757576    0.106060606061    0.000000000000       2
    0.272727272727    0.106060606061    0.000000000000       2
    0.287878787879    0.106060606061    0.000000000000       2
    0.303030303030    0.106060606061    0.000000000000       2
    0.318181818182    0.106060606061    0.000000000000       2
    0.333333333333    0.106060606061    0.000000000000       2
    0.348484848485    0.106060606061    0.000000000000       2
    0.363636363636    0.106060606061    0.000000000000       2
    0.378787878788    0.106060606061    0.000000000000       2
    0.393939393939    0.106060606061    0.000000000000       2
    0.409090909091    0.106060606061    0.000000000000       2
    0.424242424242    0.106060606061    0.000000000000       2
    0.439393939394    0.106060606061    0.000000000000       2
    0.454545454545    0.106060606061    0.000000000000       2
    0.469696969697    0.106060606061    0.000000000000       2
    0.484848484848    0.106060606061    0.000000000000       2
    0.500000000000    0.106060606061    0.000000000000       2
   -0.484848484848    0.106060606061    0.000000000000       2
   -0.469696969697    0.106060606061    0.000000000000       2
   -0.454545454545    0.106060606061    0.000000000000       2
   -0.439393939394    0.106060606061    0.000000000000       2
   -0.424242424242    0.106060606061    0.000000000000       2
   -0.409090909091    0.106060606061    0.000000000000       2
   -0.393939393939    0.106060606061    0.000000000000       2
   -0.378787878788    0.106060606061    0.000000000000       2
   -0.363636363636    0.106060606061    0.000000000000       2
   -0.348484848485    0.106060606061    0.000000000000       2