 Zr2 Te6                                
   1.00000000000000     
     3.9189119776068848    0.0000000000000000    0.0000000000000000
     0.0000000000000000    5.9127449691272007    0.0000000000000000
     0.0000000000000000    0.0000000000000000   21.8331356721979972
   Zr   Te
     2     6
Direct
  0.2500000009083846  0.6779327434323019  0.5775912856772814
  0.7500000005859743  0.1776056429565412  0.4224139391688719
  0.7500000003710848  0.4355313886231431  0.6545914180326031
  0.7499999994832165  0.6781381580064858  0.4745923866573600
  0.2500000000774972  0.4201933312863412  0.3454042519852719
  0.2499999993712104  0.9386996477062127  0.3439946608177716
  0.7499999992312120  0.9169273553962373  0.6559856942544487
  0.2499999999714199  0.1773317325927348  0.5254263634063910
 
  0.00000000E+00  0.00000000E+00  0.00000000E+00
  0.00000000E+00  0.00000000E+00  0.00000000E+00
  0.00000000E+00  0.00000000E+00  0.00000000E+00
  0.00000000E+00  0.00000000E+00  0.00000000E+00
  0.00000000E+00  0.00000000E+00  0.00000000E+00
  0.00000000E+00  0.00000000E+00  0.00000000E+00
  0.00000000E+00  0.00000000E+00  0.00000000E+00
  0.00000000E+00  0.00000000E+00  0.00000000E+00
