 Nb1 Se2                                
   1.00000000000000     
     3.4475490417170347    0.0000000000000000    0.0000000000000000
     1.7237745208585173    2.9856641868081062    0.0000000000000000
     0.0000000000000000    0.0000000000000000   18.3699995863840009
   Nb   Se
     1     2
Direct
  0.3333334360163798  0.3333334726241454  0.5000162669846450
  0.6666667889807283  0.6666667599433350  0.5917031159581509
  0.6666667750028888  0.6666667674325164  0.4083302321747085
 
  0.00000000E+00  0.00000000E+00  0.00000000E+00
  0.00000000E+00  0.00000000E+00  0.00000000E+00
  0.00000000E+00  0.00000000E+00  0.00000000E+00
