CONTCAR                                 
   1.00000000000000     
    14.2618999480999999    0.0000000000000000    0.0000000000000000
     0.0000000000000000   14.2618999480999999    0.0000000000000000
     0.0000000000000000    0.0000000000000000   18.1191997528000002
   Mn   Se   O    H 
    32    32     1     1
Direct
  0.1215974692302823  0.1218668422627921  0.4984224098298297
  0.9967305312958502  0.9970434657776812  0.4992260326533083
  0.3715078985978703  0.1218461773267986  0.4980806073081616
  0.2464479417593659  0.9973970273003158  0.4987371876789407
  0.6216216073584174  0.1227708780267052  0.4977282220177774
  0.4959849034582438 -0.0020803039592474  0.4988246716995615
  0.8718708851760033  0.1218038742199590  0.4989118296893905
  0.7473674273465448  0.9978393123774413  0.4995587046641020
  0.1215809977775229  0.3713156434495573  0.4977286111239291
  0.9968615552212875  0.2467875375724860  0.4981273716167613
  0.3711239263931768  0.3714186529737080  0.4966647936557194
  0.2461847252671362  0.2467505834144429  0.4976586652166570
  0.6216698967525962  0.3711132132918781  0.4958954142634531
  0.4962702333828597  0.2472201187141392  0.4972737445344045
  0.8720210720976921  0.3715498073097921  0.4979550873692968
  0.7472744970518876  0.2471550333548377  0.4978824048998832
  0.1217743292010857  0.6213539688125133  0.4984864682737354
  0.9968011998259666  0.4964327252163316  0.4982197932740064
  0.3704934609886552  0.6210313386223507  0.4974815440226039
  0.2461418590600759  0.4960032681343079  0.4973133891388690
  0.6215621452284649  0.6192763144118036  0.4975981511514875
  0.4958663707394332  0.4954427820137783  0.4967882400900783
  0.8726776274105578  0.6210820592678929  0.4989743737338500
  0.7474389335352503  0.4957147181880237  0.4976338867901177
  0.1218201734582445  0.8721709920618805  0.4991929613267646
 -0.0022922400642828  0.7466113990196915  0.4986645392498849
  0.3707530988918355  0.8722741850042776  0.4987876228830418
  0.2458254938870737  0.7467075418739200  0.4975620315413695
  0.6214109786774211  0.8736658267229754  0.4995192086501490
  0.4940840227864493  0.7465446509322231  0.4981944273456405
  0.8724402249464263  0.8721740960490633  0.4999748060394528
  0.7487221140941672  0.7464287206412453  0.4996035655126521
  0.1219142541466958 -0.0023244920295000  0.5858441650082434
  0.9967075268572740  0.1215464807799508  0.4117042597521752
  0.3715103753191074  0.9969244516811925  0.5856695061373380
  0.2463002628432859  0.1214984855058511  0.4112762653725054
  0.6216572735511510  0.0006886160040740  0.5857462774053177
  0.4968684130937511  0.1215895399622088  0.4110362478606263
  0.8715693177779134 -0.0031727389960842  0.5865560399889750
  0.7468194075972991  0.1212501700655402  0.4116576137244201
  0.1216936147494904  0.2468686298364406  0.5849737404665485
  0.9965551403593800  0.3716025077699588  0.4110805224633840
  0.3713920607932886  0.2474831219297247  0.5842400441197041
  0.2459179958468400  0.3712965277063540  0.4102575950868645
  0.6213432318428144  0.2479925632411978  0.5840071190613307
  0.4962312057084350  0.3711272522199692  0.4095100288288495
  0.8722061352844112  0.2473688198568113  0.5851318079217942
  0.7476234069039291  0.3715622647544208  0.4102990852266098
  0.1219720867054933  0.4958716773468139  0.5849328078291703
 -0.0032473213821274  0.6222504824074092  0.4116292912697341
  0.3713268884683708  0.4959493057493790  0.5839621178064951
  0.2457425411662794  0.6216006351085528  0.4107818618687545
  0.6215382870762117  0.4938563580136568  0.5835886504871207
  0.4959002376783271  0.6216396190376201  0.4107727853156777
  0.8714119037107415  0.4960512625271200  0.5852930119739035
  0.7481764191026635  0.6208298898830723  0.4115986538294921
  0.1222850179454594  0.7463053260067276  0.5854210507949636
  0.9963310981603770  0.8715052772500628  0.4124910420163390
  0.3693486715588764  0.7463041651284141  0.5847518684112287
  0.2463350073305015  0.8724861882770709  0.4117083588505259
  0.6174642931060140  0.7425549783602633  0.5807258824036212
  0.4951471785410717  0.8728762534282950  0.4120418300977906
  0.8752756838795080  0.7463927918105316  0.5862465972059006
  0.7486205962461578  0.8737015228654244  0.4128845747405885
  0.5900519031392847  0.7171367763092618  0.6853382707919363
  0.6362840860581956  0.7536924548166808  0.7131102626371745
 
  0.00000000E+00  0.00000000E+00  0.00000000E+00
  0.00000000E+00  0.00000000E+00  0.00000000E+00
  0.00000000E+00  0.00000000E+00  0.00000000E+00
  0.00000000E+00  0.00000000E+00  0.00000000E+00
  0.00000000E+00  0.00000000E+00  0.00000000E+00
  0.00000000E+00  0.00000000E+00  0.00000000E+00
  0.00000000E+00  0.00000000E+00  0.00000000E+00
  0.00000000E+00  0.00000000E+00  0.00000000E+00
  0.00000000E+00  0.00000000E+00  0.00000000E+00
  0.00000000E+00  0.00000000E+00  0.00000000E+00
  0.00000000E+00  0.00000000E+00  0.00000000E+00
  0.00000000E+00  0.00000000E+00  0.00000000E+00
  0.00000000E+00  0.00000000E+00  0.00000000E+00
  0.00000000E+00  0.00000000E+00  0.00000000E+00
  0.00000000E+00  0.00000000E+00  0.00000000E+00
  0.00000000E+00  0.00000000E+00  0.00000000E+00
  0.00000000E+00  0.00000000E+00  0.00000000E+00
  0.00000000E+00  0.00000000E+00  0.00000000E+00
  0.00000000E+00  0.00000000E+00  0.00000000E+00
  0.00000000E+00  0.00000000E+00  0.00000000E+00
  0.00000000E+00  0.00000000E+00  0.00000000E+00
  0.00000000E+00  0.00000000E+00  0.00000000E+00
  0.00000000E+00  0.00000000E+00  0.00000000E+00
  0.00000000E+00  0.00000000E+00  0.00000000E+00
  0.00000000E+00  0.00000000E+00  0.00000000E+00
  0.00000000E+00  0.00000000E+00  0.00000000E+00
  0.00000000E+00  0.00000000E+00  0.00000000E+00
  0.00000000E+00  0.00000000E+00  0.00000000E+00
  0.00000000E+00  0.00000000E+00  0.00000000E+00
  0.00000000E+00  0.00000000E+00  0.00000000E+00
  0.00000000E+00  0.00000000E+00  0.00000000E+00
  0.00000000E+00  0.00000000E+00  0.00000000E+00
  0.00000000E+00  0.00000000E+00  0.00000000E+00
  0.00000000E+00  0.00000000E+00  0.00000000E+00
  0.00000000E+00  0.00000000E+00  0.00000000E+00
  0.00000000E+00  0.00000000E+00  0.00000000E+00
  0.00000000E+00  0.00000000E+00  0.00000000E+00
  0.00000000E+00  0.00000000E+00  0.00000000E+00
  0.00000000E+00  0.00000000E+00  0.00000000E+00
  0.00000000E+00  0.00000000E+00  0.00000000E+00
  0.00000000E+00  0.00000000E+00  0.00000000E+00
  0.00000000E+00  0.00000000E+00  0.00000000E+00
  0.00000000E+00  0.00000000E+00  0.00000000E+00
  0.00000000E+00  0.00000000E+00  0.00000000E+00
  0.00000000E+00  0.00000000E+00  0.00000000E+00
  0.00000000E+00  0.00000000E+00  0.00000000E+00
  0.00000000E+00  0.00000000E+00  0.00000000E+00
  0.00000000E+00  0.00000000E+00  0.00000000E+00
  0.00000000E+00  0.00000000E+00  0.00000000E+00
  0.00000000E+00  0.00000000E+00  0.00000000E+00
  0.00000000E+00  0.00000000E+00  0.00000000E+00
  0.00000000E+00  0.00000000E+00  0.00000000E+00
  0.00000000E+00  0.00000000E+00  0.00000000E+00
  0.00000000E+00  0.00000000E+00  0.00000000E+00
  0.00000000E+00  0.00000000E+00  0.00000000E+00
  0.00000000E+00  0.00000000E+00  0.00000000E+00
  0.00000000E+00  0.00000000E+00  0.00000000E+00
  0.00000000E+00  0.00000000E+00  0.00000000E+00
  0.00000000E+00  0.00000000E+00  0.00000000E+00
  0.00000000E+00  0.00000000E+00  0.00000000E+00
  0.00000000E+00  0.00000000E+00  0.00000000E+00
  0.00000000E+00  0.00000000E+00  0.00000000E+00
  0.00000000E+00  0.00000000E+00  0.00000000E+00
  0.00000000E+00  0.00000000E+00  0.00000000E+00
  0.00000000E+00  0.00000000E+00  0.00000000E+00
  0.00000000E+00  0.00000000E+00  0.00000000E+00
