CONTCAR                                 
   1.00000000000000     
    14.0314998627000005    0.0000000000000000    0.0000000000000000
     0.0000000000000000   12.8740997313999994    0.0000000000000000
     0.0000000000000000    0.0000000000000000   20.5195999146000005
   Ta   Ni   Te   O 
    16    32    32     1
Direct
 -0.0001294974390223  0.2043543006712446  0.4791424275501225
  0.0000268229573929  0.4542827033000965  0.5218743022753947
  0.2488285780583227  0.2020871382527938  0.4786879468651380
  0.2509337333825576  0.4538501642016477  0.5215932942126781
  0.5000033821706553  0.2022702343574863  0.4784104496768954
  0.4961339582155015  0.4515548240843928  0.5218789632912882
  0.7496738365829428  0.2049297203058402  0.4788376700065264
  0.7484336965174436  0.4540398850683033  0.5225359974572871
  0.9983305743241176  0.7038906029294633  0.4789482746466150
  0.9985624526799681  0.9531840199058474  0.5215198620924312
  0.2488246051766226  0.7046642876773694  0.4792726195550079
  0.2490613403600337  0.9523225987944546  0.5223835395987244
  0.4997491769322849  0.7038137452000798  0.4814787074771892
  0.5012444175801363  0.9520961947275333  0.5214746450049190
  0.7491041609089788  0.7006442207217842  0.4785240778724447
  0.7496401363744056  0.9560540321145248  0.5200832929301066
  0.1254922704425248  0.1062228225200138  0.5564317140028826
  0.1256062601728574  0.3559822050950633  0.4445910748982257
  0.1247017137173099  0.3019272810657733  0.5564699628566815
  0.1231182583223198  0.0510617493650127  0.4447363219975451
  0.3751808182909110  0.1048657921599433  0.5565031847493720
  0.3746957529952719  0.3554958871899672  0.4430535255919854
  0.3717274795594067  0.2998526990218227  0.5538986911989451
  0.3739175586982726  0.0506631777203460  0.4449552280633222
  0.6241534299952458  0.1055002317482975  0.5561228008256439
  0.6234947909548277  0.3556152821691066  0.4445226959899616
  0.6233739326701193  0.3019881368307362  0.5562046446379324
  0.6239648655085609  0.0523174025826492  0.4437732594441756
  0.8747143680516835  0.1063830796725185  0.5555350085422328
  0.8745570281927016  0.3565120627760761  0.4449359818485108
  0.8753017689049415  0.3015691258561489  0.5564430393232380
  0.8749867579276219  0.0520129380302456  0.4436448041018615
  0.1233493472439109  0.6064032752202098  0.5559173631054968
  0.1232530688230503  0.8552900578098352  0.4442562035964899
  0.1238880147472314  0.8024012020748693  0.5560167009033741
  0.1263864801059657  0.5515867026211398  0.4446050524311756
  0.3706399434268214  0.6047975232428500  0.5542168100029429
  0.3735273127073320  0.8558176636045196  0.4465900429167546
  0.3826035866167931  0.7983353910244750  0.5591017075384088
  0.3769251015143974  0.5507940205004618  0.4432874411529356
  0.6115486086324864  0.6084990067782717  0.5601710853367263
  0.6231527465063843  0.8561433430811485  0.4427613808828130
  0.6347230344829723  0.8031780547369628  0.5534854870882970
  0.6234173290184691  0.5510484702152975  0.4470950399096708
  0.8715419514517500  0.6049881570977319  0.5562055186675898
  0.8739438549816361  0.8557719743694765  0.4440088027825836
  0.8694346713910016  0.8010359221534598  0.5557165939673497
  0.8761928914197461  0.5518630975906434  0.4444753641083717
  0.1269197936750754  0.4546566116564796  0.6338878233451263
  0.1240656548225259  0.2036421710313701  0.3667312424091952
  0.0002620742437726  0.4534902945001785  0.3776823327268946
 -0.0001781888614237  0.2031592405404417  0.6233973002522876
  0.3829974767151628  0.4549894606000502  0.6372673495038167
  0.3741059520869835  0.2021465785883908  0.3665733223691637
  0.2501483753092416  0.4542415954237576  0.3768264052968073
  0.2508146063852240  0.2050224143997648  0.6237500340465436
  0.6277371802913119  0.4532010252855772  0.6343917780669883
  0.6247759424714108  0.2042962413951227  0.3662358190972163
  0.5008007519936323  0.4524205150401316  0.3764402192233551
  0.4979714317708146  0.2059568350345621  0.6222529220334492
  0.8764208755024695  0.4530813410902766  0.6342520309074682
  0.8746116316208694  0.2049443619325542  0.3667177460928719
  0.7493644472589114  0.4549225944657184  0.3787792953230786
  0.7495572522029614  0.2041041976299234  0.6226020442439356
  0.1221903016861239  0.9541382884086063  0.6341522745669974
  0.1238016993508215  0.7032695053558522  0.3667838106970360
  0.9991016392090251  0.9533240537631060  0.3766375939133191
  0.9973637927388742  0.7043426890627227  0.6221158873537788
  0.3719698889540839  0.9539761006525482  0.6340090927665900
  0.3748367421535268  0.7048319563965099  0.3677393660491732
  0.2488053585113130  0.9529989977581029  0.3782524089471905
  0.2493101168847099  0.7053226643381511  0.6220482696602347
  0.6220749388605231  0.9516484385300062  0.6337794881522535
  0.6225461428566810  0.7017951706558537  0.3672473983469570
  0.4979915362050796  0.9539322706545218  0.3771374568205896
  0.4990347095518658  0.7073139312001953  0.6375245740473717
  0.8726867966782851  0.9541190585378392  0.6331941566060619
  0.8733608409222071  0.7035491896034338  0.3662781474906424
  0.7489967875904897  0.9541061129176664  0.3765621117240282
  0.7464669678822504  0.6987031132870850  0.6238578135689629
  0.4323696252183354  0.6006209480255660  0.6894844643743019
 
  0.00000000E+00  0.00000000E+00  0.00000000E+00
  0.00000000E+00  0.00000000E+00  0.00000000E+00
  0.00000000E+00  0.00000000E+00  0.00000000E+00
  0.00000000E+00  0.00000000E+00  0.00000000E+00
  0.00000000E+00  0.00000000E+00  0.00000000E+00
  0.00000000E+00  0.00000000E+00  0.00000000E+00
  0.00000000E+00  0.00000000E+00  0.00000000E+00
  0.00000000E+00  0.00000000E+00  0.00000000E+00
  0.00000000E+00  0.00000000E+00  0.00000000E+00
  0.00000000E+00  0.00000000E+00  0.00000000E+00
  0.00000000E+00  0.00000000E+00  0.00000000E+00
  0.00000000E+00  0.00000000E+00  0.00000000E+00
  0.00000000E+00  0.00000000E+00  0.00000000E+00
  0.00000000E+00  0.00000000E+00  0.00000000E+00
  0.00000000E+00  0.00000000E+00  0.00000000E+00
  0.00000000E+00  0.00000000E+00  0.00000000E+00
  0.00000000E+00  0.00000000E+00  0.00000000E+00
  0.00000000E+00  0.00000000E+00  0.00000000E+00
  0.00000000E+00  0.00000000E+00  0.00000000E+00
  0.00000000E+00  0.00000000E+00  0.00000000E+00
  0.00000000E+00  0.00000000E+00  0.00000000E+00
  0.00000000E+00  0.00000000E+00  0.00000000E+00
  0.00000000E+00  0.00000000E+00  0.00000000E+00
  0.00000000E+00  0.00000000E+00  0.00000000E+00
  0.00000000E+00  0.00000000E+00  0.00000000E+00
  0.00000000E+00  0.00000000E+00  0.00000000E+00
  0.00000000E+00  0.00000000E+00  0.00000000E+00
  0.00000000E+00  0.00000000E+00  0.00000000E+00
  0.00000000E+00  0.00000000E+00  0.00000000E+00
  0.00000000E+00  0.00000000E+00  0.00000000E+00
  0.00000000E+00  0.00000000E+00  0.00000000E+00
  0.00000000E+00  0.00000000E+00  0.00000000E+00
  0.00000000E+00  0.00000000E+00  0.00000000E+00
  0.00000000E+00  0.00000000E+00  0.00000000E+00
  0.00000000E+00  0.00000000E+00  0.00000000E+00
  0.00000000E+00  0.00000000E+00  0.00000000E+00
  0.00000000E+00  0.00000000E+00  0.00000000E+00
  0.00000000E+00  0.00000000E+00  0.00000000E+00
  0.00000000E+00  0.00000000E+00  0.00000000E+00
  0.00000000E+00  0.00000000E+00  0.00000000E+00
  0.00000000E+00  0.00000000E+00  0.00000000E+00
  0.00000000E+00  0.00000000E+00  0.00000000E+00
  0.00000000E+00  0.00000000E+00  0.00000000E+00
  0.00000000E+00  0.00000000E+00  0.00000000E+00
  0.00000000E+00  0.00000000E+00  0.00000000E+00
  0.00000000E+00  0.00000000E+00  0.00000000E+00
  0.00000000E+00  0.00000000E+00  0.00000000E+00
  0.00000000E+00  0.00000000E+00  0.00000000E+00
  0.00000000E+00  0.00000000E+00  0.00000000E+00
  0.00000000E+00  0.00000000E+00  0.00000000E+00
  0.00000000E+00  0.00000000E+00  0.00000000E+00
  0.00000000E+00  0.00000000E+00  0.00000000E+00
  0.00000000E+00  0.00000000E+00  0.00000000E+00
  0.00000000E+00  0.00000000E+00  0.00000000E+00
  0.00000000E+00  0.00000000E+00  0.00000000E+00
  0.00000000E+00  0.00000000E+00  0.00000000E+00
  0.00000000E+00  0.00000000E+00  0.00000000E+00
  0.00000000E+00  0.00000000E+00  0.00000000E+00
  0.00000000E+00  0.00000000E+00  0.00000000E+00
  0.00000000E+00  0.00000000E+00  0.00000000E+00
  0.00000000E+00  0.00000000E+00  0.00000000E+00
  0.00000000E+00  0.00000000E+00  0.00000000E+00
  0.00000000E+00  0.00000000E+00  0.00000000E+00
  0.00000000E+00  0.00000000E+00  0.00000000E+00
  0.00000000E+00  0.00000000E+00  0.00000000E+00
  0.00000000E+00  0.00000000E+00  0.00000000E+00
  0.00000000E+00  0.00000000E+00  0.00000000E+00
  0.00000000E+00  0.00000000E+00  0.00000000E+00
  0.00000000E+00  0.00000000E+00  0.00000000E+00
  0.00000000E+00  0.00000000E+00  0.00000000E+00
  0.00000000E+00  0.00000000E+00  0.00000000E+00
  0.00000000E+00  0.00000000E+00  0.00000000E+00
  0.00000000E+00  0.00000000E+00  0.00000000E+00
  0.00000000E+00  0.00000000E+00  0.00000000E+00
  0.00000000E+00  0.00000000E+00  0.00000000E+00
  0.00000000E+00  0.00000000E+00  0.00000000E+00
  0.00000000E+00  0.00000000E+00  0.00000000E+00
  0.00000000E+00  0.00000000E+00  0.00000000E+00
  0.00000000E+00  0.00000000E+00  0.00000000E+00
  0.00000000E+00  0.00000000E+00  0.00000000E+00
  0.00000000E+00  0.00000000E+00  0.00000000E+00
