 Nb4 Ir1 Se10                           
   1.00000000000000     
     6.0090054473385068    0.0000000000000000    0.0000000000000000
     2.7721802978325516    8.6914963577712658    0.0000000000000000
     0.0000000000000000    0.0000000000000000   18.4081236356679980
   Nb   Ir   Se
     4     1    10
Direct
  0.6556620722738415  0.8066497525352858  0.4998948198126740
  0.7435179042161479  0.4096480717018238  0.5011819915871882
  0.0907680061039571  0.0020169171110140  0.4988580328580667
  0.1779769981351720  0.6051682942312482  0.5000368816682794
  0.4172364927940251  0.2056918795184401  0.5000434368363926
  0.3801318341949909  0.0101117858928532  0.5947227329981359
  0.0811419410143301  0.2163941703057120  0.4138213715169314
  0.5311939280167266  0.6114449805605062  0.5893324056968012
  0.3028252029733096  0.8002060278414120  0.4106523636999029
  0.7531979143562850  0.1952036940979411  0.5862509332222885
  0.4542876169741845  0.4014210435435643  0.4053144682431054
  0.9657888603245510  0.8107419541786953  0.5932739731276229
  0.7021335251222141  0.0152075142504344  0.4165995438424872
  0.1323504264441411  0.3965067952793930  0.5833686969286731
  0.8680632770561232  0.6010021189516834  0.4066483479614362
 
  0.00000000E+00  0.00000000E+00  0.00000000E+00
  0.00000000E+00  0.00000000E+00  0.00000000E+00
  0.00000000E+00  0.00000000E+00  0.00000000E+00
  0.00000000E+00  0.00000000E+00  0.00000000E+00
  0.00000000E+00  0.00000000E+00  0.00000000E+00
  0.00000000E+00  0.00000000E+00  0.00000000E+00
  0.00000000E+00  0.00000000E+00  0.00000000E+00
  0.00000000E+00  0.00000000E+00  0.00000000E+00
  0.00000000E+00  0.00000000E+00  0.00000000E+00
  0.00000000E+00  0.00000000E+00  0.00000000E+00
  0.00000000E+00  0.00000000E+00  0.00000000E+00
  0.00000000E+00  0.00000000E+00  0.00000000E+00
  0.00000000E+00  0.00000000E+00  0.00000000E+00
  0.00000000E+00  0.00000000E+00  0.00000000E+00
  0.00000000E+00  0.00000000E+00  0.00000000E+00
