CONTCAR                                 
   1.00000000000000     
    13.5033998488999991    0.0000000000000000    0.0000000000000000
     0.0000000000000000   19.6100006104000002    0.0000000000000000
     0.0000000000000000    0.0000000000000000   18.7679004668999987
   Nb   Se   O    H 
    32    48     2     1
Direct
  0.0626684910000748  0.4343529396725572  0.4982376440201435
  0.1863413272474830  0.0616999900583295  0.5004905783963522
  0.0622781437759343  0.2784010496901033  0.4481255317996258
  0.1872834517454010  0.2176062449562153  0.5504458164974437
  0.3122652460786099  0.4338839603974236  0.4988973405638859
  0.4377446081533947  0.0619840412836155  0.5005463560323449
  0.3123344404765618  0.2784198996816798  0.4481777638179523
  0.4373694974143518  0.2176107546262642  0.5505123737061339
  0.5624570435799043  0.4338489305077502  0.4990409452332472
  0.6883280545213566  0.0616825338882663  0.5005801373250165
  0.5626251757623564  0.2785461787457351  0.4482851814556454
  0.6877199541397729  0.2176637585085004  0.5503459976359721
  0.8124916343969346  0.4344170618849432  0.4981876206432503
  0.9372268442429785  0.0612038463434885  0.5005185164463413
  0.8126360300712108  0.2783408745228044  0.4479701179383468
  0.9374514053635536  0.2176583407153174  0.5504175725688043
  0.0629101376737182  0.9348365876134963  0.5015680914535849
  0.1863953486667853  0.5610857816129098  0.4989885538718539
  0.0619929082284472  0.7788909685066656  0.4505927249262101
  0.1916146405453389  0.7177673127599391  0.5540118020281852
  0.3131488528633710  0.9352265195996310  0.5023263026409097
  0.4374047183997263  0.5617918601461653  0.5011624675453916
  0.3110307321382706  0.7790674305880998  0.4534133718112301
  0.4375732631116662  0.7171462748513449  0.5687064728472393
  0.5622596317504005  0.9351513536213147  0.5022127797021554
  0.6884329733745673  0.5610849584224837  0.4989310196017556
  0.5644090502251657  0.7790209635779135  0.4533881357951017
  0.6836826615943039  0.7177309601730002  0.5539754935049501
  0.8116930538809868  0.9347864252761795  0.5015170309377268
  0.9376053490987104  0.5617688403842251  0.4987683736566595
  0.8132057146611587  0.7788710624232564  0.4505410384326396
  0.9375206436604273  0.7177940262899227  0.5519425083830640
  0.0621285786497054  0.0256791723256029  0.4028015567034728
  0.1868578919316874  0.4687825156817738  0.5964212665044499
  0.0621450312138734  0.1232898531798554  0.5939373112834616
  0.1874703033077836  0.3729413281127663  0.4048863769844857
  0.1871946702148577  0.1818105739577689  0.4178943628197729
  0.0624109301308096  0.3142131353388891  0.5807469577238038
  0.3124374334874744  0.0263427395715112  0.4036183712082178
  0.4373640942320591  0.4684260995739393  0.5970993283119554
  0.3121754489206126  0.1233687302446995  0.5938264458399800
  0.4373975148538136  0.3731690387365845  0.4054179966534690
  0.4377148011073686  0.1819771524818421  0.4179242788330058
  0.3123915813112959  0.3141687646663911  0.5806773436290769
  0.5625899198483069  0.0261754813718937  0.4034177193099708
  0.6883030736756766  0.4687607531206197  0.5962727547218520
  0.5627615262684174  0.1236367663244593  0.5940237926172429
  0.6873798437052940  0.3729589874690618  0.4049751331059213
  0.6875029136167754  0.1818468596349447  0.4177814095860128
  0.5626190213199678  0.3140274734907607  0.5809843557944347
  0.8123198517962678  0.0256308564991059  0.4027674268357586
  0.9375154637167000  0.4692900519757401  0.5958344340820005
  0.8126942276005522  0.1232180038125819  0.5938971351737337
  0.9374207230555740  0.3729142164799626  0.4046988973574415
  0.9376732433896962  0.1814770569301132  0.4181512756521926
  0.8125553659589286  0.3143130667177161  0.5804324992413257
  0.0620577549705175  0.5263904827160104  0.4005835074763837
  0.1864300316744263  0.9712138596952968  0.5992973965939683
  0.0623984483031208  0.6223008625433692  0.5924024492987670
  0.1886113957174871  0.8728250994874642  0.4078086600240809
  0.1878595009464377  0.6828357579508832  0.4208093375665172
  0.0631183974993519  0.8139558473902540  0.5831330349749848
  0.3131702486676389  0.5269198490448943  0.4022809205088294
  0.4377912652211648  0.9716379710979837  0.5996968613992735
  0.3088494440397653  0.6178755911275644  0.5943200793010917
  0.4377169851271461  0.8730579935958716  0.4107793114019174
  0.4376797156905141  0.6831457805347938  0.4269011647944225
  0.3107993438284993  0.8181227975982779  0.5827447037356350
  0.5615498033542963  0.5267514299825393  0.4023350574583233
  0.6884163309489182  0.9712273298527521  0.5994556599875693
  0.5661257209803097  0.6178775079901158  0.5942249074027330
  0.6866511272561411  0.8727981338132054  0.4075114868700922
  0.6876110872992740  0.6827843605437920  0.4207787254736672
  0.5645932241229588  0.8180544801471328  0.5827771850507162
  0.8127247230988388  0.5265221956842225  0.4006042219805721
  0.9373405362067544  0.9694390098943373  0.5987707456637708
  0.8126806873916621  0.6222140234945286  0.5923214482381525
  0.9374917312315176  0.8731695134030133  0.4075160344757407
  0.9377123831539933  0.6828150197242309  0.4189948227583145
  0.8120717399903370  0.8140790496112800  0.5830698351719121
  0.4380766778062366  0.7174809908292303  0.6745331480042367
  0.4377089706305668  0.7793338031261783  0.7179387444528089
  0.4395785206856715  0.7585803070926787  0.7655273417432653
 
  0.00000000E+00  0.00000000E+00  0.00000000E+00
  0.00000000E+00  0.00000000E+00  0.00000000E+00
  0.00000000E+00  0.00000000E+00  0.00000000E+00
  0.00000000E+00  0.00000000E+00  0.00000000E+00
  0.00000000E+00  0.00000000E+00  0.00000000E+00
  0.00000000E+00  0.00000000E+00  0.00000000E+00
  0.00000000E+00  0.00000000E+00  0.00000000E+00
  0.00000000E+00  0.00000000E+00  0.00000000E+00
  0.00000000E+00  0.00000000E+00  0.00000000E+00
  0.00000000E+00  0.00000000E+00  0.00000000E+00
  0.00000000E+00  0.00000000E+00  0.00000000E+00
  0.00000000E+00  0.00000000E+00  0.00000000E+00
  0.00000000E+00  0.00000000E+00  0.00000000E+00
  0.00000000E+00  0.00000000E+00  0.00000000E+00
  0.00000000E+00  0.00000000E+00  0.00000000E+00
  0.00000000E+00  0.00000000E+00  0.00000000E+00
  0.00000000E+00  0.00000000E+00  0.00000000E+00
  0.00000000E+00  0.00000000E+00  0.00000000E+00
  0.00000000E+00  0.00000000E+00  0.00000000E+00
  0.00000000E+00  0.00000000E+00  0.00000000E+00
  0.00000000E+00  0.00000000E+00  0.00000000E+00
  0.00000000E+00  0.00000000E+00  0.00000000E+00
  0.00000000E+00  0.00000000E+00  0.00000000E+00
  0.00000000E+00  0.00000000E+00  0.00000000E+00
  0.00000000E+00  0.00000000E+00  0.00000000E+00
  0.00000000E+00  0.00000000E+00  0.00000000E+00
  0.00000000E+00  0.00000000E+00  0.00000000E+00
  0.00000000E+00  0.00000000E+00  0.00000000E+00
  0.00000000E+00  0.00000000E+00  0.00000000E+00
  0.00000000E+00  0.00000000E+00  0.00000000E+00
  0.00000000E+00  0.00000000E+00  0.00000000E+00
  0.00000000E+00  0.00000000E+00  0.00000000E+00
  0.00000000E+00  0.00000000E+00  0.00000000E+00
  0.00000000E+00  0.00000000E+00  0.00000000E+00
  0.00000000E+00  0.00000000E+00  0.00000000E+00
  0.00000000E+00  0.00000000E+00  0.00000000E+00
  0.00000000E+00  0.00000000E+00  0.00000000E+00
  0.00000000E+00  0.00000000E+00  0.00000000E+00
  0.00000000E+00  0.00000000E+00  0.00000000E+00
  0.00000000E+00  0.00000000E+00  0.00000000E+00
  0.00000000E+00  0.00000000E+00  0.00000000E+00
  0.00000000E+00  0.00000000E+00  0.00000000E+00
  0.00000000E+00  0.00000000E+00  0.00000000E+00
  0.00000000E+00  0.00000000E+00  0.00000000E+00
  0.00000000E+00  0.00000000E+00  0.00000000E+00
  0.00000000E+00  0.00000000E+00  0.00000000E+00
  0.00000000E+00  0.00000000E+00  0.00000000E+00
  0.00000000E+00  0.00000000E+00  0.00000000E+00
  0.00000000E+00  0.00000000E+00  0.00000000E+00
  0.00000000E+00  0.00000000E+00  0.00000000E+00
  0.00000000E+00  0.00000000E+00  0.00000000E+00
  0.00000000E+00  0.00000000E+00  0.00000000E+00
  0.00000000E+00  0.00000000E+00  0.00000000E+00
  0.00000000E+00  0.00000000E+00  0.00000000E+00
  0.00000000E+00  0.00000000E+00  0.00000000E+00
  0.00000000E+00  0.00000000E+00  0.00000000E+00
  0.00000000E+00  0.00000000E+00  0.00000000E+00
  0.00000000E+00  0.00000000E+00  0.00000000E+00
  0.00000000E+00  0.00000000E+00  0.00000000E+00
  0.00000000E+00  0.00000000E+00  0.00000000E+00
  0.00000000E+00  0.00000000E+00  0.00000000E+00
  0.00000000E+00  0.00000000E+00  0.00000000E+00
  0.00000000E+00  0.00000000E+00  0.00000000E+00
  0.00000000E+00  0.00000000E+00  0.00000000E+00
  0.00000000E+00  0.00000000E+00  0.00000000E+00
  0.00000000E+00  0.00000000E+00  0.00000000E+00
  0.00000000E+00  0.00000000E+00  0.00000000E+00
  0.00000000E+00  0.00000000E+00  0.00000000E+00
  0.00000000E+00  0.00000000E+00  0.00000000E+00
  0.00000000E+00  0.00000000E+00  0.00000000E+00
  0.00000000E+00  0.00000000E+00  0.00000000E+00
  0.00000000E+00  0.00000000E+00  0.00000000E+00
  0.00000000E+00  0.00000000E+00  0.00000000E+00
  0.00000000E+00  0.00000000E+00  0.00000000E+00
  0.00000000E+00  0.00000000E+00  0.00000000E+00
  0.00000000E+00  0.00000000E+00  0.00000000E+00
  0.00000000E+00  0.00000000E+00  0.00000000E+00
  0.00000000E+00  0.00000000E+00  0.00000000E+00
  0.00000000E+00  0.00000000E+00  0.00000000E+00
  0.00000000E+00  0.00000000E+00  0.00000000E+00
  0.00000000E+00  0.00000000E+00  0.00000000E+00
  0.00000000E+00  0.00000000E+00  0.00000000E+00
  0.00000000E+00  0.00000000E+00  0.00000000E+00
