CONTCAR\(16)                            
   1.00000000000000     
    13.4193000792999992    0.0000000000000000    0.0000000000000000
    -6.7096904058000000   11.6164658410000001    0.0000000000000000
     0.0000000000000000    0.0000000000000000   30.7367992401000016
   Bi   Te   Pb   O 
    18    45    18     1
Direct
  0.1122198725324664  0.2214137654952484  0.4350093630729653
  0.2227602293949286  0.1091782280127573  0.5651695676378694
  0.4453969803372035  0.2220704825554479  0.4352024792745729
  0.5565858436349275  0.1085681792394665  0.5650581339084713
  0.7783596590171595  0.2215365853996750  0.4350920757916345
  0.8892340032812478  0.1093424199340841  0.5650061805323235
  0.1105189665594827  0.5544178099373769  0.4351766152499158
  0.2227364249094784  0.4432316752773965  0.5648897813302398
  0.4453105121105653  0.5551951543573719  0.4353863869415096
  0.5568777676513925  0.4425998535027764  0.5658415980105729
  0.7779517918365538  0.5550972675429977  0.4352258951617680
  0.8909754136019021  0.4428684185867379  0.5650850530347535
  0.1120935908569385  0.8886836593148981  0.4351236148250970
  0.2225132464943887  0.7763232370475533  0.5651589717663741
  0.4455940099840527  0.8895176543310294  0.4351969594285813
  0.5552227812084564  0.7764615915479597  0.5649841513384055
  0.7785870463662552  0.8877724134316439  0.4349704715612391
  0.8899355461323718  0.7766218838431332  0.5652425686481677
  0.2236501226245275  0.1130161466605570  0.7581869631463231
  0.2229044539825921  0.1102982629563408  0.3799525843998078
  0.1117860379979567  0.2212195650145279  0.6199517076424236
  0.0007650166489192  0.9985589097967167  0.5003712568663204
  0.1116870683002634  0.2225497437385748  0.2411564079199081
  0.5550662501618135  0.1061678206219699  0.7593664281557070
  0.5565199302021605  0.1110839842614573  0.3799543072738197
  0.4453190835630126  0.2192827218078253  0.6203922541213266
  0.3342243619567904  0.9993723051260732  0.5001166857005401
  0.4448612273683670  0.2215459922491758  0.2414159994807429
  0.8894156296381130  0.1106164102348477  0.7591753388087279
  0.8896024401329902  0.1103642847457048  0.3801449341230559
  0.7789089958984415  0.2205102352215037  0.6201481983777178
  0.6676792802922901  0.9992176688574299  0.4999504283703294
  0.7777117136725652  0.2212923216612044  0.2408833588436240
  0.2256684934197037  0.4359498893844713  0.7596841592378265
  0.2226004911360230  0.4434492903943019  0.3802576545355342
  0.1124270570344421  0.5543669166972290  0.6202609255723716
  0.0005301260310171  0.3319959743308703  0.4999304393052199
  0.1112281798811772  0.5554295124274479  0.2413263086685109
  0.5590346310071169  0.4411654433940446  0.7579998511171372
  0.5558798184875708  0.4440096388411748  0.3800483633470224
  0.4444603259401690  0.5547912683700919  0.6200720281831141
  0.3345866720527139  0.3324204211978634  0.5002400851438048
  0.4444652547192688  0.5553395606247743  0.2415177151263600
  0.8930326633067986  0.4436902125303810  0.7597721364850893
  0.8888258315373229  0.4434822763437812  0.3799984046126268
  0.7800459896297279  0.5537593901465114  0.6203172623793001
  0.6671274228488469  0.3325989947914130  0.5001175167467630
  0.7779828200390380  0.5547109323160400  0.2414323960129238
  0.1956752745964798  0.8063075983840570  0.7726373981524755
  0.2228114707842197  0.7772338256634531  0.3803324137350246
  0.1117378974565827  0.8873868348888246  0.6203948750201522
  0.0002943539751395  0.6654112468891062  0.5000562876853448
  0.1112044649824770  0.8885358166335851  0.2411640781616428
  0.5667532895735915  0.7742543319862222  0.7595210198636899
  0.5562148203478584  0.7773507083461346  0.3802359097567218
  0.4447443107436411  0.8872790261869777  0.6203240508694775
  0.3335813582296535  0.6660186809722225  0.4999312094337687
  0.4441293357266635  0.8881630334684022  0.2413317506449308
  0.8892988556295280  0.7767229819020880  0.7585153647152288
  0.8899411913680236  0.7773753131656329  0.3799674385030679
  0.7780209472850216  0.8874643799585956  0.6199655723586831
  0.6671316335239769  0.6652579436636644  0.5002956448296567
  0.7770948185395650  0.8879177620571924  0.2412113925661404
 -0.0000053047232254 -0.0000414085444933  0.2934340181245698
 -0.0000577441554751  0.0000617381826833  0.7064037058860287
  0.3331894830948869  0.9993628822908830  0.2939061150476300
  0.3326920585369113  0.0006734327545749  0.7069272313900139
  0.6666914631945325  0.9995957012927023  0.2936944330581300
  0.6673298901794876  0.9955353545049354  0.7066629227374942
 -0.0002933950540040  0.3328608412270343  0.2936242122471341
  0.0042621552199802  0.3327323676732440  0.7067057647326189
  0.3337213382111832  0.3330474571019663  0.2939122261667089
  0.3376863448759666  0.3331377259284289  0.7047766440395711
  0.6672569902636790  0.3324161529828171  0.2938213019639755
  0.6710286171652444  0.3286959918004237  0.7067353614698025
  0.0004039544193081  0.6666530590512859  0.2939131180357410
  0.0008889283366157  0.6663544722413325  0.7074800585657152
  0.3331887768981420  0.6663442094938806  0.2941138760912855
  0.3354632817024803  0.6676828577299194  0.7147797846738939
  0.6667665693695871  0.6659848399541977  0.2939863663890335
  0.6697348564101592  0.6622066336972822  0.7047716080646325
  0.2837762988706622  0.7277288983688593  0.7737851008015194
 
  0.00000000E+00  0.00000000E+00  0.00000000E+00
  0.00000000E+00  0.00000000E+00  0.00000000E+00
  0.00000000E+00  0.00000000E+00  0.00000000E+00
  0.00000000E+00  0.00000000E+00  0.00000000E+00
  0.00000000E+00  0.00000000E+00  0.00000000E+00
  0.00000000E+00  0.00000000E+00  0.00000000E+00
  0.00000000E+00  0.00000000E+00  0.00000000E+00
  0.00000000E+00  0.00000000E+00  0.00000000E+00
  0.00000000E+00  0.00000000E+00  0.00000000E+00
  0.00000000E+00  0.00000000E+00  0.00000000E+00
  0.00000000E+00  0.00000000E+00  0.00000000E+00
  0.00000000E+00  0.00000000E+00  0.00000000E+00
  0.00000000E+00  0.00000000E+00  0.00000000E+00
  0.00000000E+00  0.00000000E+00  0.00000000E+00
  0.00000000E+00  0.00000000E+00  0.00000000E+00
  0.00000000E+00  0.00000000E+00  0.00000000E+00
  0.00000000E+00  0.00000000E+00  0.00000000E+00
  0.00000000E+00  0.00000000E+00  0.00000000E+00
  0.00000000E+00  0.00000000E+00  0.00000000E+00
  0.00000000E+00  0.00000000E+00  0.00000000E+00
  0.00000000E+00  0.00000000E+00  0.00000000E+00
  0.00000000E+00  0.00000000E+00  0.00000000E+00
  0.00000000E+00  0.00000000E+00  0.00000000E+00
  0.00000000E+00  0.00000000E+00  0.00000000E+00
  0.00000000E+00  0.00000000E+00  0.00000000E+00
  0.00000000E+00  0.00000000E+00  0.00000000E+00
  0.00000000E+00  0.00000000E+00  0.00000000E+00
  0.00000000E+00  0.00000000E+00  0.00000000E+00
  0.00000000E+00  0.00000000E+00  0.00000000E+00
  0.00000000E+00  0.00000000E+00  0.00000000E+00
  0.00000000E+00  0.00000000E+00  0.00000000E+00
  0.00000000E+00  0.00000000E+00  0.00000000E+00
  0.00000000E+00  0.00000000E+00  0.00000000E+00
  0.00000000E+00  0.00000000E+00  0.00000000E+00
  0.00000000E+00  0.00000000E+00  0.00000000E+00
  0.00000000E+00  0.00000000E+00  0.00000000E+00
  0.00000000E+00  0.00000000E+00  0.00000000E+00
  0.00000000E+00  0.00000000E+00  0.00000000E+00
  0.00000000E+00  0.00000000E+00  0.00000000E+00
  0.00000000E+00  0.00000000E+00  0.00000000E+00
  0.00000000E+00  0.00000000E+00  0.00000000E+00
  0.00000000E+00  0.00000000E+00  0.00000000E+00
  0.00000000E+00  0.00000000E+00  0.00000000E+00
  0.00000000E+00  0.00000000E+00  0.00000000E+00
  0.00000000E+00  0.00000000E+00  0.00000000E+00
  0.00000000E+00  0.00000000E+00  0.00000000E+00
  0.00000000E+00  0.00000000E+00  0.00000000E+00
  0.00000000E+00  0.00000000E+00  0.00000000E+00
  0.00000000E+00  0.00000000E+00  0.00000000E+00
  0.00000000E+00  0.00000000E+00  0.00000000E+00
  0.00000000E+00  0.00000000E+00  0.00000000E+00
  0.00000000E+00  0.00000000E+00  0.00000000E+00
  0.00000000E+00  0.00000000E+00  0.00000000E+00
  0.00000000E+00  0.00000000E+00  0.00000000E+00
  0.00000000E+00  0.00000000E+00  0.00000000E+00
  0.00000000E+00  0.00000000E+00  0.00000000E+00
  0.00000000E+00  0.00000000E+00  0.00000000E+00
  0.00000000E+00  0.00000000E+00  0.00000000E+00
  0.00000000E+00  0.00000000E+00  0.00000000E+00
  0.00000000E+00  0.00000000E+00  0.00000000E+00
  0.00000000E+00  0.00000000E+00  0.00000000E+00
  0.00000000E+00  0.00000000E+00  0.00000000E+00
  0.00000000E+00  0.00000000E+00  0.00000000E+00
  0.00000000E+00  0.00000000E+00  0.00000000E+00
  0.00000000E+00  0.00000000E+00  0.00000000E+00
  0.00000000E+00  0.00000000E+00  0.00000000E+00
  0.00000000E+00  0.00000000E+00  0.00000000E+00
  0.00000000E+00  0.00000000E+00  0.00000000E+00
  0.00000000E+00  0.00000000E+00  0.00000000E+00
  0.00000000E+00  0.00000000E+00  0.00000000E+00
  0.00000000E+00  0.00000000E+00  0.00000000E+00
  0.00000000E+00  0.00000000E+00  0.00000000E+00
  0.00000000E+00  0.00000000E+00  0.00000000E+00
  0.00000000E+00  0.00000000E+00  0.00000000E+00
  0.00000000E+00  0.00000000E+00  0.00000000E+00
  0.00000000E+00  0.00000000E+00  0.00000000E+00
  0.00000000E+00  0.00000000E+00  0.00000000E+00
  0.00000000E+00  0.00000000E+00  0.00000000E+00
  0.00000000E+00  0.00000000E+00  0.00000000E+00
  0.00000000E+00  0.00000000E+00  0.00000000E+00
  0.00000000E+00  0.00000000E+00  0.00000000E+00
  0.00000000E+00  0.00000000E+00  0.00000000E+00
