CONTCAR\(4)                             
   1.00000000000000     
    15.1381998061999994    0.0000000000000000    0.0000000000000000
     0.0000000000000000   18.7124004363999994    0.0000000000000000
     0.0000000000000000    0.0000000000000000   17.8572998046999984
   Cu   Te   O    H 
    16    16    49     1
Selective dynamics
Direct
  0.3457408070749395  0.2557505046592894  0.5202001958432874   F   F   F
  0.0958249917605016  0.4918317537604153  0.5289556332009937   F   F   F
  0.1548678081570216  0.2450182631116888  0.4680498496968042   F   F   F
  0.4038458632045092  0.0028746163340969  0.4749950477999789   F   F   F
  0.8464951859142360  0.2557292918223055  0.5193002095596455   F   F   F
  0.5963319211616707  0.4927275914481726  0.5291456961516019   F   F   F
  0.6549340248788766  0.2455618108054480  0.4681393707471813   F   F   F
  0.9050334575177530  0.0022518100575581  0.4744850299340797   F   F   F
  0.3477757279502995  0.7479561714935699  0.5279885319943247   F   F   F
  0.0965092343528156  0.9933058520776399  0.5262663500356055   F   F   F
  0.1566327524363160  0.7393762273728726  0.4797081654664552   F   F   F
  0.4050233613789587  0.5036486529021715  0.4789606931026071   F   F   F
  0.8463658702222148  0.7518179670070495  0.5345775756823912   F   F   F
  0.5969664144078024  0.9939457733601884  0.5264827256436106   F   F   F
  0.6540655933876067  0.7414319222356696  0.4850620789724900   F   F   F
  0.9053463113041431  0.5059877527189158  0.4774163009603498   F   F   F
  0.2768471232768732  0.1048069553841557  0.5724046328535124   F   F   F
  0.2236334756103844  0.3987108432051443  0.4246830363803369   F   F   F
  0.4746014749687788  0.3554165594455441  0.4214109340402103   F   F   F
  0.0275489093092034  0.1473025526916274  0.5698698307626273   F   F   F
  0.7774513509946317  0.1047113112233191  0.5714833348358823   F   F   F
  0.7246962536095864  0.3990931092662819  0.4236011384070153   F   F   F
  0.9749285146544153  0.3565377702650707  0.4199253788686406   F   F   F
  0.5276020591323700  0.1479011293111228  0.5699852279251587   F   F   F
  0.2748507272022636  0.5999479690997944  0.5889721904626981   F   F   F
  0.2238826099986397  0.8920081083132132  0.4285568125397603   F   F   F
  0.4734766958262853  0.8491199031186767  0.4310110276476138   F   F   F
  0.0287500736138071  0.6413395623767641  0.5853048322703813   F   F   F
  0.7774408805410857  0.6004572547764866  0.5829919958357266   F   F   F
  0.7241212056764965  0.8912236783474441  0.4294421307450165   F   F   F
  0.9741932046042692  0.8482044890033862  0.4315350990077036   F   F   F
  0.5251064661739093  0.6411681664121858  0.5861026880184070   F   F   F
  0.3052080493506182  0.0645615896368525  0.4791414472898410   F   F   F
  0.2613249104219122  0.3022960916131581  0.4509156204032152   F   F   F
  0.4005796626735147  0.1755617434954075  0.5709196131058434   F   F   F
  0.4915880961821273  0.0521359510860577  0.5382420771965712   F   F   F
  0.3506156223931498  0.4269097156806581  0.4244433166418347   F   F   F
  0.1506108316813908  0.0756093103035909  0.5740306685637862   F   F   F
  0.4465823892143845  0.3153427767158732  0.5146984352159336   F   F   F
  0.1934305103025267  0.4285798199602127  0.5213906013732128   F   F   F
  0.0121386004814568  0.4499245681377602  0.4556160733399111   F   F   F
  0.2398558236550343  0.1986780728057411  0.5376032743585810   F   F   F
  0.0560295782454858  0.1826689039445171  0.4746567770329051   F   F   F
  0.1005293770326787  0.3260101597298544  0.4178961171657463   F   F   F
  0.8056988878538363  0.0640874896003965  0.4785779751561776   F   F   F
  0.7612659241905604  0.3028674180931432  0.4519609302977727   F   F   F
  0.9003110110020458  0.1756801534327010  0.5710066076696094   F   F   F
  0.9905891016005057  0.0516748776021387  0.5403006605068299   F   F   F
  0.8507205396746116  0.4281292652180895  0.4220880398154634   F   F   F
  0.6503580868793009  0.0759479203173541  0.5744358639216500   F   F   F
  0.9463389863757357  0.3162127073558736  0.5130187403735960   F   F   F
  0.6961371539511347  0.4318210619824683  0.5197624862185819   F   F   F
  0.5116639954302471  0.4489024007666984  0.4575227630210463   F   F   F
  0.7404635343031458  0.1984021239799176  0.5356872740377554   F   F   F
  0.5563387942442475  0.1834239795786061  0.4748788600926019   F   F   F
  0.6004366796976655  0.3260992209011917  0.4180722231048790   F   F   F
  0.3076178854520748  0.5610462090280564  0.4888633271899039   F   F   F
  0.2622046665565634  0.7975842671518478  0.4608838996919502   F   F   F
  0.3993170572365372  0.6735522771123073  0.5898703013538622   F   F   F
  0.4888448195716535  0.5475789295970088  0.5495334069201405   F   F   F
  0.3506526969375372  0.9216643022054285  0.4255570166185336   F   F   F
  0.1487332326570652  0.5698762447274532  0.5830546537974186   F   F   F
  0.4432206293605674  0.8132863953370588  0.5255761453351866   F   F   F
  0.1961362363443087  0.9316840696512614  0.5221350662746147   F   F   F
  0.0108258793637503  0.9442287426606484  0.4599934649813093   F   F   F
  0.2465903948871500  0.6881485626673083  0.5332893102451308   F   F   F
  0.0558992404324741  0.6807541758648910  0.4913743194375044   F   F   F
  0.1009504862600821  0.8202492903115512  0.4313279652271405   F   F   F
  0.8049294397840043  0.5658765825215966  0.4871732320307416   F   F   F
  0.7605455489798558  0.7976962086060979  0.4654182234032405   F   F   F
  0.9006230321216862  0.6709603148375933  0.5845261382572602   F   F   F
  0.9898032645009067  0.5478445526552633  0.5495707407058248   F   F   F
  0.8503675137070204  0.9202750307265433  0.4270176192695487   F   F   F
  0.6502326406680154  0.5713216737451035  0.5830792741971607   F   F   F
  0.9450695685408661  0.8139741658711728  0.5270028402085600   F   F   F
  0.6956860961372655  0.9324663089687135  0.5222032939639902   F   F   F
  0.5091494498860030  0.9446441753942878  0.4639077264650311   F   F   F
  0.7396514990896463  0.6959733447449139  0.5538194156585874   F   F   F
  0.5531044299918833  0.6820029664309502  0.4932513426624183   F   F   F
  0.5999425002244791  0.8203374304190092  0.4314491570445682   F   F   F
  0.2334625426826591  0.6551134343019598  0.6843462144964008   T   T   T
  0.2748730394859678  0.6942679331164499  0.6925555606512926   T   T   T
 
  0.00000000E+00  0.00000000E+00  0.00000000E+00
  0.00000000E+00  0.00000000E+00  0.00000000E+00
  0.00000000E+00  0.00000000E+00  0.00000000E+00
  0.00000000E+00  0.00000000E+00  0.00000000E+00
  0.00000000E+00  0.00000000E+00  0.00000000E+00
  0.00000000E+00  0.00000000E+00  0.00000000E+00
  0.00000000E+00  0.00000000E+00  0.00000000E+00
  0.00000000E+00  0.00000000E+00  0.00000000E+00
  0.00000000E+00  0.00000000E+00  0.00000000E+00
  0.00000000E+00  0.00000000E+00  0.00000000E+00
  0.00000000E+00  0.00000000E+00  0.00000000E+00
  0.00000000E+00  0.00000000E+00  0.00000000E+00
  0.00000000E+00  0.00000000E+00  0.00000000E+00
  0.00000000E+00  0.00000000E+00  0.00000000E+00
  0.00000000E+00  0.00000000E+00  0.00000000E+00
  0.00000000E+00  0.00000000E+00  0.00000000E+00
  0.00000000E+00  0.00000000E+00  0.00000000E+00
  0.00000000E+00  0.00000000E+00  0.00000000E+00
  0.00000000E+00  0.00000000E+00  0.00000000E+00
  0.00000000E+00  0.00000000E+00  0.00000000E+00
  0.00000000E+00  0.00000000E+00  0.00000000E+00
  0.00000000E+00  0.00000000E+00  0.00000000E+00
  0.00000000E+00  0.00000000E+00  0.00000000E+00
  0.00000000E+00  0.00000000E+00  0.00000000E+00
  0.00000000E+00  0.00000000E+00  0.00000000E+00
  0.00000000E+00  0.00000000E+00  0.00000000E+00
  0.00000000E+00  0.00000000E+00  0.00000000E+00
  0.00000000E+00  0.00000000E+00  0.00000000E+00
  0.00000000E+00  0.00000000E+00  0.00000000E+00
  0.00000000E+00  0.00000000E+00  0.00000000E+00
  0.00000000E+00  0.00000000E+00  0.00000000E+00
  0.00000000E+00  0.00000000E+00  0.00000000E+00
  0.00000000E+00  0.00000000E+00  0.00000000E+00
  0.00000000E+00  0.00000000E+00  0.00000000E+00
  0.00000000E+00  0.00000000E+00  0.00000000E+00
  0.00000000E+00  0.00000000E+00  0.00000000E+00
  0.00000000E+00  0.00000000E+00  0.00000000E+00
  0.00000000E+00  0.00000000E+00  0.00000000E+00
  0.00000000E+00  0.00000000E+00  0.00000000E+00
  0.00000000E+00  0.00000000E+00  0.00000000E+00
  0.00000000E+00  0.00000000E+00  0.00000000E+00
  0.00000000E+00  0.00000000E+00  0.00000000E+00
  0.00000000E+00  0.00000000E+00  0.00000000E+00
  0.00000000E+00  0.00000000E+00  0.00000000E+00
  0.00000000E+00  0.00000000E+00  0.00000000E+00
  0.00000000E+00  0.00000000E+00  0.00000000E+00
  0.00000000E+00  0.00000000E+00  0.00000000E+00
  0.00000000E+00  0.00000000E+00  0.00000000E+00
  0.00000000E+00  0.00000000E+00  0.00000000E+00
  0.00000000E+00  0.00000000E+00  0.00000000E+00
  0.00000000E+00  0.00000000E+00  0.00000000E+00
  0.00000000E+00  0.00000000E+00  0.00000000E+00
  0.00000000E+00  0.00000000E+00  0.00000000E+00
  0.00000000E+00  0.00000000E+00  0.00000000E+00
  0.00000000E+00  0.00000000E+00  0.00000000E+00
  0.00000000E+00  0.00000000E+00  0.00000000E+00
  0.00000000E+00  0.00000000E+00  0.00000000E+00
  0.00000000E+00  0.00000000E+00  0.00000000E+00
  0.00000000E+00  0.00000000E+00  0.00000000E+00
  0.00000000E+00  0.00000000E+00  0.00000000E+00
  0.00000000E+00  0.00000000E+00  0.00000000E+00
  0.00000000E+00  0.00000000E+00  0.00000000E+00
  0.00000000E+00  0.00000000E+00  0.00000000E+00
  0.00000000E+00  0.00000000E+00  0.00000000E+00
  0.00000000E+00  0.00000000E+00  0.00000000E+00
  0.00000000E+00  0.00000000E+00  0.00000000E+00
  0.00000000E+00  0.00000000E+00  0.00000000E+00
  0.00000000E+00  0.00000000E+00  0.00000000E+00
  0.00000000E+00  0.00000000E+00  0.00000000E+00
  0.00000000E+00  0.00000000E+00  0.00000000E+00
  0.00000000E+00  0.00000000E+00  0.00000000E+00
  0.00000000E+00  0.00000000E+00  0.00000000E+00
  0.00000000E+00  0.00000000E+00  0.00000000E+00
  0.00000000E+00  0.00000000E+00  0.00000000E+00
  0.00000000E+00  0.00000000E+00  0.00000000E+00
  0.00000000E+00  0.00000000E+00  0.00000000E+00
  0.00000000E+00  0.00000000E+00  0.00000000E+00
  0.00000000E+00  0.00000000E+00  0.00000000E+00
  0.00000000E+00  0.00000000E+00  0.00000000E+00
  0.00000000E+00  0.00000000E+00  0.00000000E+00
  0.00000000E+00  0.00000000E+00  0.00000000E+00
  0.00000000E+00  0.00000000E+00  0.00000000E+00
