CONTCAR\(8)                             
   1.00000000000000     
    14.5763998031999993    0.0000000000000000    0.0000000000000000
     0.0000000000000000   14.5763998031999993    0.0000000000000000
     0.0000000000000000    0.0000000000000000   17.7768993377999998
   Fe   Se   O 
    32    32     1
Direct
  1.0022502400939575  0.0000000000000000  0.5017295096378531
  0.1247768052489485  0.1245350571778652  0.5018209961579267
  0.2525288193945932  0.0000000000000000  0.4978312557299107
  0.3785487466343162  0.1243978886786728  0.5002043111613350
  0.5033746217477303  0.0000000000000000  0.5021416419968268
  0.6230347651377834  0.1229150314491210  0.5002510744472665
  0.7525322516836382  0.0000000000000000  0.4980004330673523
  0.8761196949074975  0.1247674245271307  0.5012225118096347
 -0.0018248485764560  0.2525729654691758  0.5034028461533713
  0.1250481055295725  0.3764039484057448  0.5057662833973434
  0.2519673125940934  0.2498946048405185  0.5009635603739749
  0.3781532930014719  0.3725837491528071  0.5002712282406189
  0.4990020453813765  0.2525030736444867  0.5000098551517077
  0.6197923196008223  0.3748560884202435  0.5009473883341745
  0.7484719624796197  0.2502280571215154  0.4984263513077934
  0.8760288386123977  0.3740050269974580  0.5024834284747030
 -0.0034045964617916  0.5000000000000000  0.5017931911995823
  0.1250481055295725  0.6235960185942491  0.5057662833973434
  0.2486905785847611  0.5000000000000000  0.5037590217370468
  0.3781532930014719  0.6274162178471631  0.5002712282406189
  0.4970441929080230  0.5000000000000000  0.4894274239645342
  0.6197923196008223  0.6251438785797446  0.5009473883341745
  0.7497482886104131  0.5000000000000000  0.4998153179622533
  0.8760288386123977  0.6259949400025832  0.5024834284747030
 -0.0018248485764560  0.7474270185308540  0.5034028461533713
  0.1247768052489485  0.8754649348221500  0.5018209961579267
  0.2519673125940934  0.7501053791594920  0.5009635603739749
  0.3785487466343162  0.8756021033213829  0.5002043111613350
  0.4990020453813765  0.7474969103555440  0.5000098551517077
  0.6230347651377834  0.8770849605508382  0.5002510744472665
  0.7484719624796197  0.7497719268784901  0.4984263513077934
  0.8761196949074975  0.8752325674729459  0.5012225118096347
  0.1292201775032631  0.0000000000000000  0.4166600797365161
  0.0000593688773174  0.1259619581730972  0.5861503068875881
  0.3776874027987607  0.0000000000000000  0.4166689466023966
  0.2522440752391287  0.1235927429591742  0.5835398116752980
  0.6295020385081710  0.0000000000000000  0.4128129666890385
  0.5002811670844384  0.1303877894396299  0.5869226194538348
  0.8815232641741427  0.0000000000000000  0.4144189157660781
  0.7491043062912639  0.1253825614884726  0.5828434828522441
  0.1245745282130446  0.2514262511083496  0.4189966116147825
  1.0007905009095761  0.3772828963000522  0.5894058621872980
  0.3748105735603917  0.2465899904850695  0.4149704721472704
  0.2536356606133807  0.3732114644226502  0.5859839508092173
  0.6231693653601597  0.2497376041246906  0.4164047457603994
  0.4991595974984031  0.3930824914260371  0.5873221903661774
  0.8730101036145242  0.2496165689781037  0.4159847354609696
  0.7462160243591899  0.3744083379212422  0.5839884983244632
  0.1197975541240060  0.5000000000000000  0.4184599000203676
  1.0007905009095761  0.6227170706999836  0.5893958831873001
  0.3680700463771353  0.5000000000000000  0.4133477707736304
  0.2536356606133807  0.6267885025772908  0.5859739718092194
  0.6268095502841282  0.5000000000000000  0.4147870313792876
  0.4991595974984031  0.6069174755739595  0.5873122113661795
  0.8725614606671849  0.5000000000000000  0.4172126200333751
  0.7462160243591899  0.6255916290787399  0.5839785193244653
  0.1245745282130446  0.7485737328916536  0.4189966116147825
  0.0000593688773174  0.8740380338269175  0.5861403278875902
  0.3748105735603917  0.7534099935148889  0.4149704721472704
  0.2522440752391287  0.8764072490408256  0.5835298326753001
  0.6231693653601597  0.7502623798753382  0.4164047457603994
  0.5002811670844384  0.8696122025603729  0.5869126404538370
  0.8730101036145242  0.7503834150219210  0.4159847354609696
  0.7491043062912639  0.8746174305115559  0.5828335038522462
  0.5003850556571292  0.5000100099999969  0.6560772936056639
 
  0.00000000E+00  0.00000000E+00  0.00000000E+00
  0.00000000E+00  0.00000000E+00  0.00000000E+00
  0.00000000E+00  0.00000000E+00  0.00000000E+00
  0.00000000E+00  0.00000000E+00  0.00000000E+00
  0.00000000E+00  0.00000000E+00  0.00000000E+00
  0.00000000E+00  0.00000000E+00  0.00000000E+00
  0.00000000E+00  0.00000000E+00  0.00000000E+00
  0.00000000E+00  0.00000000E+00  0.00000000E+00
  0.00000000E+00  0.00000000E+00  0.00000000E+00
  0.00000000E+00  0.00000000E+00  0.00000000E+00
  0.00000000E+00  0.00000000E+00  0.00000000E+00
  0.00000000E+00  0.00000000E+00  0.00000000E+00
  0.00000000E+00  0.00000000E+00  0.00000000E+00
  0.00000000E+00  0.00000000E+00  0.00000000E+00
  0.00000000E+00  0.00000000E+00  0.00000000E+00
  0.00000000E+00  0.00000000E+00  0.00000000E+00
  0.00000000E+00  0.00000000E+00  0.00000000E+00
  0.00000000E+00  0.00000000E+00  0.00000000E+00
  0.00000000E+00  0.00000000E+00  0.00000000E+00
  0.00000000E+00  0.00000000E+00  0.00000000E+00
  0.00000000E+00  0.00000000E+00  0.00000000E+00
  0.00000000E+00  0.00000000E+00  0.00000000E+00
  0.00000000E+00  0.00000000E+00  0.00000000E+00
  0.00000000E+00  0.00000000E+00  0.00000000E+00
  0.00000000E+00  0.00000000E+00  0.00000000E+00
  0.00000000E+00  0.00000000E+00  0.00000000E+00
  0.00000000E+00  0.00000000E+00  0.00000000E+00
  0.00000000E+00  0.00000000E+00  0.00000000E+00
  0.00000000E+00  0.00000000E+00  0.00000000E+00
  0.00000000E+00  0.00000000E+00  0.00000000E+00
  0.00000000E+00  0.00000000E+00  0.00000000E+00
  0.00000000E+00  0.00000000E+00  0.00000000E+00
  0.00000000E+00  0.00000000E+00  0.00000000E+00
  0.00000000E+00  0.00000000E+00  0.00000000E+00
  0.00000000E+00  0.00000000E+00  0.00000000E+00
  0.00000000E+00  0.00000000E+00  0.00000000E+00
  0.00000000E+00  0.00000000E+00  0.00000000E+00
  0.00000000E+00  0.00000000E+00  0.00000000E+00
  0.00000000E+00  0.00000000E+00  0.00000000E+00
  0.00000000E+00  0.00000000E+00  0.00000000E+00
  0.00000000E+00  0.00000000E+00  0.00000000E+00
  0.00000000E+00  0.00000000E+00  0.00000000E+00
  0.00000000E+00  0.00000000E+00  0.00000000E+00
  0.00000000E+00  0.00000000E+00  0.00000000E+00
  0.00000000E+00  0.00000000E+00  0.00000000E+00
  0.00000000E+00  0.00000000E+00  0.00000000E+00
  0.00000000E+00  0.00000000E+00  0.00000000E+00
  0.00000000E+00  0.00000000E+00  0.00000000E+00
  0.00000000E+00  0.00000000E+00  0.00000000E+00
  0.00000000E+00  0.00000000E+00  0.00000000E+00
  0.00000000E+00  0.00000000E+00  0.00000000E+00
  0.00000000E+00  0.00000000E+00  0.00000000E+00
  0.00000000E+00  0.00000000E+00  0.00000000E+00
  0.00000000E+00  0.00000000E+00  0.00000000E+00
  0.00000000E+00  0.00000000E+00  0.00000000E+00
  0.00000000E+00  0.00000000E+00  0.00000000E+00
  0.00000000E+00  0.00000000E+00  0.00000000E+00
  0.00000000E+00  0.00000000E+00  0.00000000E+00
  0.00000000E+00  0.00000000E+00  0.00000000E+00
  0.00000000E+00  0.00000000E+00  0.00000000E+00
  0.00000000E+00  0.00000000E+00  0.00000000E+00
  0.00000000E+00  0.00000000E+00  0.00000000E+00
  0.00000000E+00  0.00000000E+00  0.00000000E+00
  0.00000000E+00  0.00000000E+00  0.00000000E+00
  0.00000000E+00  0.00000000E+00  0.00000000E+00
