CONTCAR\(10)                            
   1.00000000000000     
     9.7571001052999993    0.0000000000000000    0.0000000000000000
    -3.0063686365000000   15.8319856181999992    0.0000000000000000
     0.0000000000000000    0.0000000000000000   18.2793006897000012
   V    P    S    O 
     4     8    26     1
Direct
  0.6214587405941087  0.6149913579627605  0.5375305812935862
  0.6168960843236936  0.1046227045843476  0.4984773151292286
  0.3702742295096582  0.3938181459677175  0.5157587545716300
  0.3936560843853585  0.8943634553599165  0.4934126350295885
  0.8266105069077810  0.2608417257685051  0.4939842790143592
  0.7004854970855076  0.4391237380234957  0.5505076714119185
  0.1787373000980782  0.7414998596807829  0.4963083230328696
  0.1709424988693851  0.2333202750299005  0.4937553166081919
  0.3060277668311197  0.0620681697768511  0.5305606291153090
  0.7053670406565280  0.9361418319945507  0.4586890221124100
  0.2830983803236479  0.5547572561858849  0.4746378088038304
  0.8449097742898690  0.7696013835419278  0.5059454427269546
  0.1122629610014126  0.1009510445850617  0.5104002240451549
  0.9007579226032358  0.8975363228780261  0.4693419698275832
  0.0198181165229501  0.7583281976250797  0.5714025169928343
  0.3987426734383699  0.0368595370408681  0.4333162837417334
  0.5417826197117125  0.3567087694446868  0.5994367327479457
  0.2617178916794249  0.4523702007801214  0.4088147858013549
  0.1928848155465479  0.2986410288675967  0.5869569204445672
  0.6971857933644072  0.7549466289147614  0.5846332356468109
  0.4604079703248126  0.6419065629012953  0.4476520421492856
  0.5927760198322931  0.4794224517412989  0.4644379925450546
  0.6621773676394241  0.2333700294920455  0.4261329579060660
  0.8830636965971842  0.3908990770251875  0.5231389614254528
  0.0018381781478728  0.2528146835281148  0.4252669270227230
  0.6153456641556673  0.9621856200627398  0.5568214221553639
  0.8003042994486195  0.6852180130303904  0.4274055535223520
  0.2685890090575982  0.4980904726610819  0.5748273227033657
  0.2088230571274072  0.8236063806771510  0.4129345688784486
  0.8006080633837537  0.5473670737451660  0.5963698512585384
  0.5544775600139789  0.8519182308788787  0.4084722338417833
  0.2475432785344436  0.9505030099294994  0.5814580101126424
  0.3445030608320608  0.7668503371604849  0.5644464805345578
  0.7998264576683225  0.1798306291035476  0.5781874408982529
  0.7609130761340475  0.0488328708075209  0.4084861876340514
  0.4538822994779403  0.1450161325899524  0.5836166978475320
  0.1093243819323554  0.6146560361200323  0.4567840625544128
  0.3410596581188411  0.2724366486967125  0.4318007540300965
  0.5194799878305754  0.5992942198360689  0.6064002598821745
 
  0.00000000E+00  0.00000000E+00  0.00000000E+00
  0.00000000E+00  0.00000000E+00  0.00000000E+00
  0.00000000E+00  0.00000000E+00  0.00000000E+00
  0.00000000E+00  0.00000000E+00  0.00000000E+00
  0.00000000E+00  0.00000000E+00  0.00000000E+00
  0.00000000E+00  0.00000000E+00  0.00000000E+00
  0.00000000E+00  0.00000000E+00  0.00000000E+00
  0.00000000E+00  0.00000000E+00  0.00000000E+00
  0.00000000E+00  0.00000000E+00  0.00000000E+00
  0.00000000E+00  0.00000000E+00  0.00000000E+00
  0.00000000E+00  0.00000000E+00  0.00000000E+00
  0.00000000E+00  0.00000000E+00  0.00000000E+00
  0.00000000E+00  0.00000000E+00  0.00000000E+00
  0.00000000E+00  0.00000000E+00  0.00000000E+00
  0.00000000E+00  0.00000000E+00  0.00000000E+00
  0.00000000E+00  0.00000000E+00  0.00000000E+00
  0.00000000E+00  0.00000000E+00  0.00000000E+00
  0.00000000E+00  0.00000000E+00  0.00000000E+00
  0.00000000E+00  0.00000000E+00  0.00000000E+00
  0.00000000E+00  0.00000000E+00  0.00000000E+00
  0.00000000E+00  0.00000000E+00  0.00000000E+00
  0.00000000E+00  0.00000000E+00  0.00000000E+00
  0.00000000E+00  0.00000000E+00  0.00000000E+00
  0.00000000E+00  0.00000000E+00  0.00000000E+00
  0.00000000E+00  0.00000000E+00  0.00000000E+00
  0.00000000E+00  0.00000000E+00  0.00000000E+00
  0.00000000E+00  0.00000000E+00  0.00000000E+00
  0.00000000E+00  0.00000000E+00  0.00000000E+00
  0.00000000E+00  0.00000000E+00  0.00000000E+00
  0.00000000E+00  0.00000000E+00  0.00000000E+00
  0.00000000E+00  0.00000000E+00  0.00000000E+00
  0.00000000E+00  0.00000000E+00  0.00000000E+00
  0.00000000E+00  0.00000000E+00  0.00000000E+00
  0.00000000E+00  0.00000000E+00  0.00000000E+00
  0.00000000E+00  0.00000000E+00  0.00000000E+00
  0.00000000E+00  0.00000000E+00  0.00000000E+00
  0.00000000E+00  0.00000000E+00  0.00000000E+00
  0.00000000E+00  0.00000000E+00  0.00000000E+00
  0.00000000E+00  0.00000000E+00  0.00000000E+00
