CONTCAR\(3)                             
   1.00000000000000     
    13.4954004288000000    0.0000000000000000    0.0000000000000000
    -3.3738461598999998   19.0216094057000014    0.0000000000000000
     0.0000000000000000    0.0000000000000000   18.9101009369000010
   Ta   Pd   Se   O    H 
    16     8    48     2     1
Direct
  0.0915019230989607  0.3531057915982090  0.5240398595139708
  0.1648454419381076  0.1498271483399513  0.4757739779504283
  0.3404788576404522  0.3534730354659336  0.5244615206829952
  0.4151851638379231  0.1500868507019280  0.4760254340813650
  0.5911878598813889  0.3536650341627561  0.5240619152782385
  0.6647669636907849  0.1501394781950439  0.4754779215773588
  0.8406472318501361  0.3534585172610736  0.5235725694069119
  0.9149541368663412  0.1497927366664026  0.4758152323472173
  0.0893874280570638  0.8529942140567275  0.5234968221825658
  0.1624437856957034  0.6500971101242407  0.4743849054037531
  0.3389517799286155  0.8533171060675718  0.5234805928475534
  0.4131787645650155  0.6493922444721854  0.4765542530386960
  0.5891377753369883  0.8532036401241965  0.5236524321519905
  0.6616871537487836  0.6500945813904638  0.4741545210906382
  0.8389066484609994  0.8531958299418987  0.5230708952899181
  0.9126045208677062  0.6499245542562541  0.4746056203909102
  0.0023857772147485  0.0023287051299466  0.4991127472581792
  0.2512604421962221  0.0006760269491692  0.5003816312722903
  0.5027982690818138  0.0027621444703564  0.4990841271123367
  0.7509604581599758  0.0006223995842173  0.5001480091758389
  0.0023703526177318  0.5035705729898253  0.4974600741907219
  0.2506515731273169  0.4996457244385429  0.5026121111076878
  0.5022293705419469  0.5040383679184424  0.4983475495201546
  0.7513723325195115  0.4999161297678307  0.5006140840174006
  0.2323277236400226  0.4194862091441904  0.6063025577704504
  0.0226445649292902  0.0816330001386633  0.3951529320078701
  0.0635542555176640  0.2447145427461845  0.4272459918111731
  0.2255082436428871  0.3937326578831424  0.4266040109732203
  0.0294774951144978  0.1090507600667351  0.5735247303918565
  0.1919336295696901  0.2577715089869389  0.5727674773930417
  0.4837697550303953  0.4252889748841941  0.6019000393089793
  0.2724229021601191  0.0798691167896954  0.3968603353811319
  0.3137561264720081  0.2447590126574809  0.4273772016700044
  0.4754563831354202  0.3958520425690861  0.4263958874400743
  0.2792593820797459  0.1080519671629234  0.5736427759308800
  0.4421879946420275  0.2592576089712878  0.5732838683544181
  0.7332373629662615  0.4207984071594672  0.6051122281109940
  0.5225868484407967  0.0820434530870781  0.3950324307946845
  0.5631991691351672  0.2452012044776862  0.4272815991361728
  0.7252299297928796  0.3933680480783411  0.4258667035382376
  0.5298171517185920  0.1094539674155544  0.5735698529478587
  0.6921829167520375  0.2582800121659763  0.5724631945112365
  0.9842213387895504  0.4250661987000000  0.6011700409107769
  0.7721313202285788  0.0798491096449888  0.3966279506511829
  0.8137932513179651  0.2446092849849825  0.4266319920992182
  0.9761086842964003  0.3953027366954239  0.4257349775020806
  0.7788714664200452  0.1079727976997295  0.5733109572367220
  0.9414898622350349  0.2588810251474047  0.5727763139949642
  0.2313585970129433  0.9211675936043000  0.6042586076624591
  0.0204226527767787  0.5828581321626430  0.3931324358010306
  0.0618986699504019  0.7451565494321509  0.4261429348272961
  0.2242361158205427  0.8940254391533674  0.4257402774867872
  0.0286539322231857  0.6100299126070943  0.5723306084731686
  0.1904686519649347  0.7578958383751838  0.5717503507790022
  0.4816632109276244  0.9234720008245358  0.6026230886966359
  0.2695359776000152  0.5776072643977971  0.3985189861812426
  0.3120610554444769  0.7442198436601597  0.4266755229276377
  0.4746421127102918  0.8954099315687544  0.4259390589338973
  0.2783091901274244  0.6075866712169247  0.5746025423525284
  0.4401769189401626  0.7589328195422340  0.5727241482716584
  0.7314148966699219  0.9211880571341862  0.6040184487578550
  0.5197939723427645  0.5827786572813662  0.3934674084974908
  0.5610516957687888  0.7452804830128362  0.4266395614300633
  0.7240285021351082  0.8940197947714675  0.4256154788505272
  0.5293561312801669  0.6103491038308628  0.5732929101780667
  0.6903495807020247  0.7580577335460132  0.5715269402048549
  0.9817105588494628  0.9229045839644673  0.6024871600737467
  0.7692446681698649  0.5783482247357388  0.3968245917778765
  0.8117348279552570  0.7445150145199992  0.4256668818645143
  0.9747196653237127  0.8951834935660726  0.4256713329095134
  0.7773066615992954  0.6080131544088733  0.5724054234303619
  0.9398583091800673  0.7583406673504794  0.5716798563687190
  0.3669458093787654  0.5478076692619177  0.6806672209809772
  0.4145210315883369  0.5954011289464649  0.7301657225088058
  0.3645951696064050  0.5930403707938010  0.7685280820169389
 
  0.00000000E+00  0.00000000E+00  0.00000000E+00
  0.00000000E+00  0.00000000E+00  0.00000000E+00
  0.00000000E+00  0.00000000E+00  0.00000000E+00
  0.00000000E+00  0.00000000E+00  0.00000000E+00
  0.00000000E+00  0.00000000E+00  0.00000000E+00
  0.00000000E+00  0.00000000E+00  0.00000000E+00
  0.00000000E+00  0.00000000E+00  0.00000000E+00
  0.00000000E+00  0.00000000E+00  0.00000000E+00
  0.00000000E+00  0.00000000E+00  0.00000000E+00
  0.00000000E+00  0.00000000E+00  0.00000000E+00
  0.00000000E+00  0.00000000E+00  0.00000000E+00
  0.00000000E+00  0.00000000E+00  0.00000000E+00
  0.00000000E+00  0.00000000E+00  0.00000000E+00
  0.00000000E+00  0.00000000E+00  0.00000000E+00
  0.00000000E+00  0.00000000E+00  0.00000000E+00
  0.00000000E+00  0.00000000E+00  0.00000000E+00
  0.00000000E+00  0.00000000E+00  0.00000000E+00
  0.00000000E+00  0.00000000E+00  0.00000000E+00
  0.00000000E+00  0.00000000E+00  0.00000000E+00
  0.00000000E+00  0.00000000E+00  0.00000000E+00
  0.00000000E+00  0.00000000E+00  0.00000000E+00
  0.00000000E+00  0.00000000E+00  0.00000000E+00
  0.00000000E+00  0.00000000E+00  0.00000000E+00
  0.00000000E+00  0.00000000E+00  0.00000000E+00
  0.00000000E+00  0.00000000E+00  0.00000000E+00
  0.00000000E+00  0.00000000E+00  0.00000000E+00
  0.00000000E+00  0.00000000E+00  0.00000000E+00
  0.00000000E+00  0.00000000E+00  0.00000000E+00
  0.00000000E+00  0.00000000E+00  0.00000000E+00
  0.00000000E+00  0.00000000E+00  0.00000000E+00
  0.00000000E+00  0.00000000E+00  0.00000000E+00
  0.00000000E+00  0.00000000E+00  0.00000000E+00
  0.00000000E+00  0.00000000E+00  0.00000000E+00
  0.00000000E+00  0.00000000E+00  0.00000000E+00
  0.00000000E+00  0.00000000E+00  0.00000000E+00
  0.00000000E+00  0.00000000E+00  0.00000000E+00
  0.00000000E+00  0.00000000E+00  0.00000000E+00
  0.00000000E+00  0.00000000E+00  0.00000000E+00
  0.00000000E+00  0.00000000E+00  0.00000000E+00
  0.00000000E+00  0.00000000E+00  0.00000000E+00
  0.00000000E+00  0.00000000E+00  0.00000000E+00
  0.00000000E+00  0.00000000E+00  0.00000000E+00
  0.00000000E+00  0.00000000E+00  0.00000000E+00
  0.00000000E+00  0.00000000E+00  0.00000000E+00
  0.00000000E+00  0.00000000E+00  0.00000000E+00
  0.00000000E+00  0.00000000E+00  0.00000000E+00
  0.00000000E+00  0.00000000E+00  0.00000000E+00
  0.00000000E+00  0.00000000E+00  0.00000000E+00
  0.00000000E+00  0.00000000E+00  0.00000000E+00
  0.00000000E+00  0.00000000E+00  0.00000000E+00
  0.00000000E+00  0.00000000E+00  0.00000000E+00
  0.00000000E+00  0.00000000E+00  0.00000000E+00
  0.00000000E+00  0.00000000E+00  0.00000000E+00
  0.00000000E+00  0.00000000E+00  0.00000000E+00
  0.00000000E+00  0.00000000E+00  0.00000000E+00
  0.00000000E+00  0.00000000E+00  0.00000000E+00
  0.00000000E+00  0.00000000E+00  0.00000000E+00
  0.00000000E+00  0.00000000E+00  0.00000000E+00
  0.00000000E+00  0.00000000E+00  0.00000000E+00
  0.00000000E+00  0.00000000E+00  0.00000000E+00
  0.00000000E+00  0.00000000E+00  0.00000000E+00
  0.00000000E+00  0.00000000E+00  0.00000000E+00
  0.00000000E+00  0.00000000E+00  0.00000000E+00
  0.00000000E+00  0.00000000E+00  0.00000000E+00
  0.00000000E+00  0.00000000E+00  0.00000000E+00
  0.00000000E+00  0.00000000E+00  0.00000000E+00
  0.00000000E+00  0.00000000E+00  0.00000000E+00
  0.00000000E+00  0.00000000E+00  0.00000000E+00
  0.00000000E+00  0.00000000E+00  0.00000000E+00
  0.00000000E+00  0.00000000E+00  0.00000000E+00
  0.00000000E+00  0.00000000E+00  0.00000000E+00
  0.00000000E+00  0.00000000E+00  0.00000000E+00
  0.00000000E+00  0.00000000E+00  0.00000000E+00
  0.00000000E+00  0.00000000E+00  0.00000000E+00
  0.00000000E+00  0.00000000E+00  0.00000000E+00
