CONTCAR\(3)                             
   1.00000000000000     
    12.9610004424999996    0.0000000000000000    0.0000000000000000
     0.0000000000000000   15.8519001007000000    0.0000000000000000
     0.0000000000000000    0.0000000000000000   18.7994003296000010
   Nb   Ge   Te   O 
    16     8    32     1
Direct
  0.1810195511643684  0.0172739578037735  0.5004767835741433
  0.3241915076747830  0.2671612750670249  0.5000452375767281
  0.4311389901045786  0.1067440562883490  0.5003902841375876
  0.0743321918509707  0.3564803885972623  0.5003929360642658
  0.6810778462917781  0.0170446066382510  0.5006013948686387
  0.8242765212379197  0.2669285676406403  0.5004087758113656
  0.9310966981242714  0.1066202922196169  0.5005728729376031
  0.5746381042573674  0.3563852817029201  0.4999248785051265
  0.1799664086161386  0.5159521948203931  0.5012757260332918
  0.3248994703983001  0.7678229243371817  0.5002470191140347
  0.4347851882234295  0.6057177828242288  0.4992528396780145
  0.0738878738526623  0.8572582223393042  0.5004011958301291
  0.6812408747511398  0.5166834992431930  0.5000305845925581
  0.8240890593991139  0.7668304118648095  0.5006021996979371
  0.9310343879207608  0.6063938744263382  0.5005230348591851
  0.5741541182293233  0.8565316167018509  0.5004192242822185
  0.1277379628190687  0.1867892899489192  0.5002978913625995
  0.3786708645269599  0.4366024809797295  0.4994026996417560
  0.6277255612525607  0.1867359305217136  0.5003129058659042
  0.8776148459209310  0.4365662050122054  0.5004858047426879
  0.1248761687547528  0.6884885470028976  0.4982302369047176
  0.3775837404209952  0.9371900373568707  0.5006579154814474
  0.6279398623351113  0.6870366921858633  0.5003547642299324
  0.8775456874432024  0.9368609876260265  0.5007653223866271
  0.0207918453739495  0.4933134512778494  0.3990288984724373
  0.4836186929474735  0.2442836227084086  0.6015741607531027
  0.2340328243087768  0.3795827348510699  0.6017886451414896
  0.2717173233631129  0.1295229729816185  0.3989758380857680
  0.4837712091636064  0.2437674164110533  0.3986613896663940
  0.0209952711325769  0.4935802348158802  0.6022463895747592
  0.2716569029597551  0.1298332308729826  0.6017016556960471
  0.2336636235332819  0.3796261958191991  0.3987118799999791
  0.5228224470483411  0.4930664782986440  0.3976943788164604
  0.9837869937250545  0.2439593338049164  0.6017968729650676
  0.7335933269408770  0.3794800333838779  0.6017370227206911
  0.7716901977169499  0.1293730157207023  0.3991132008593539
  0.9834741965296487  0.2438657100530293  0.3990094846582579
  0.5221042969370799  0.4939189818247911  0.6017334745101692
  0.7715129754147156  0.1296810006244087  0.6017903118679513
  0.7343796557429414  0.3791518748844425  0.3987375203890480
  0.0214706245608980  0.9943326720211516  0.3991656335548157
  0.4842602982594428  0.7436166435958498  0.6020761583653069
  0.2333758080441157  0.8792886153637696  0.6017581366342810
  0.2721489122180998  0.6293154911573708  0.3998549027738747
  0.4843129433760325  0.7445446998757745  0.3987128149993922
  0.0216637451471655  0.9943693356446275  0.6020191146947482
  0.2748743311005200  0.6284098471990589  0.5953970259345596
  0.2334749402567837  0.8804034660255340  0.3990464874568644
  0.5217614890988784  0.9939872334761120  0.3992444030706750
  0.9839639614475573  0.7437870850941906  0.6019288063479848
  0.7336010760729650  0.8796270926326812  0.6019686534797728
  0.7718701049979444  0.6293703117586631  0.3989902989616283
  0.9828255162927988  0.7443727230496648  0.3986435455708772
  0.5215051497025556  0.9940882923786205  0.6018568444788883
  0.7715161899296348  0.6293238893101076  0.6015759130402785
  0.7337044254869127  0.8796304238334116  0.3993254042912042
  0.2798152705990162  0.6382668081011076  0.6935425159894351
 
  0.00000000E+00  0.00000000E+00  0.00000000E+00
  0.00000000E+00  0.00000000E+00  0.00000000E+00
  0.00000000E+00  0.00000000E+00  0.00000000E+00
  0.00000000E+00  0.00000000E+00  0.00000000E+00
  0.00000000E+00  0.00000000E+00  0.00000000E+00
  0.00000000E+00  0.00000000E+00  0.00000000E+00
  0.00000000E+00  0.00000000E+00  0.00000000E+00
  0.00000000E+00  0.00000000E+00  0.00000000E+00
  0.00000000E+00  0.00000000E+00  0.00000000E+00
  0.00000000E+00  0.00000000E+00  0.00000000E+00
  0.00000000E+00  0.00000000E+00  0.00000000E+00
  0.00000000E+00  0.00000000E+00  0.00000000E+00
  0.00000000E+00  0.00000000E+00  0.00000000E+00
  0.00000000E+00  0.00000000E+00  0.00000000E+00
  0.00000000E+00  0.00000000E+00  0.00000000E+00
  0.00000000E+00  0.00000000E+00  0.00000000E+00
  0.00000000E+00  0.00000000E+00  0.00000000E+00
  0.00000000E+00  0.00000000E+00  0.00000000E+00
  0.00000000E+00  0.00000000E+00  0.00000000E+00
  0.00000000E+00  0.00000000E+00  0.00000000E+00
  0.00000000E+00  0.00000000E+00  0.00000000E+00
  0.00000000E+00  0.00000000E+00  0.00000000E+00
  0.00000000E+00  0.00000000E+00  0.00000000E+00
  0.00000000E+00  0.00000000E+00  0.00000000E+00
  0.00000000E+00  0.00000000E+00  0.00000000E+00
  0.00000000E+00  0.00000000E+00  0.00000000E+00
  0.00000000E+00  0.00000000E+00  0.00000000E+00
  0.00000000E+00  0.00000000E+00  0.00000000E+00
  0.00000000E+00  0.00000000E+00  0.00000000E+00
  0.00000000E+00  0.00000000E+00  0.00000000E+00
  0.00000000E+00  0.00000000E+00  0.00000000E+00
  0.00000000E+00  0.00000000E+00  0.00000000E+00
  0.00000000E+00  0.00000000E+00  0.00000000E+00
  0.00000000E+00  0.00000000E+00  0.00000000E+00
  0.00000000E+00  0.00000000E+00  0.00000000E+00
  0.00000000E+00  0.00000000E+00  0.00000000E+00
  0.00000000E+00  0.00000000E+00  0.00000000E+00
  0.00000000E+00  0.00000000E+00  0.00000000E+00
  0.00000000E+00  0.00000000E+00  0.00000000E+00
  0.00000000E+00  0.00000000E+00  0.00000000E+00
  0.00000000E+00  0.00000000E+00  0.00000000E+00
  0.00000000E+00  0.00000000E+00  0.00000000E+00
  0.00000000E+00  0.00000000E+00  0.00000000E+00
  0.00000000E+00  0.00000000E+00  0.00000000E+00
  0.00000000E+00  0.00000000E+00  0.00000000E+00
  0.00000000E+00  0.00000000E+00  0.00000000E+00
  0.00000000E+00  0.00000000E+00  0.00000000E+00
  0.00000000E+00  0.00000000E+00  0.00000000E+00
  0.00000000E+00  0.00000000E+00  0.00000000E+00
  0.00000000E+00  0.00000000E+00  0.00000000E+00
  0.00000000E+00  0.00000000E+00  0.00000000E+00
  0.00000000E+00  0.00000000E+00  0.00000000E+00
  0.00000000E+00  0.00000000E+00  0.00000000E+00
  0.00000000E+00  0.00000000E+00  0.00000000E+00
  0.00000000E+00  0.00000000E+00  0.00000000E+00
  0.00000000E+00  0.00000000E+00  0.00000000E+00
  0.00000000E+00  0.00000000E+00  0.00000000E+00
