CONTCAR\(7)                             
   1.00000000000000     
    13.5844001769999991    0.0000000000000000    0.0000000000000000
    -6.7922094263000004   11.7645458840000003    0.0000000000000000
     0.0000000000000000    0.0000000000000000   17.8367004394999995
   Ti   S 
    16    32
Direct
  0.0000000000000000  0.0000000000000000  0.5000000000000000
  0.2500000000000000  0.0000000000000000  0.5000000000000000
  0.5000000000000000  0.0000000000000000  0.5000000000000000
  0.7500000000000000  0.0000000000000000  0.5000000000000000
  0.9999999919999993  0.2499999910000028  0.5000000000000000
  0.2499999919999993  0.2499999910000028  0.5000000000000000
  0.4999999919999993  0.2499999910000028  0.5000000000000000
  0.7499999919999993  0.2499999910000028  0.5000000000000000
  0.9999999830000021  0.4999999810000020  0.5000000000000000
  0.2499999830000021  0.4999999810000020  0.5000000000000000
  0.4999999830000021  0.4999999810000020  0.5000000000000000
  0.7499999830000021  0.4999999810000020  0.5000000000000000
  0.9999999750000015  0.7499999719999977  0.5000000000000000
  0.2499999750000015  0.7499999719999977  0.5000000000000000
  0.4999999750000015  0.7499999719999977  0.5000000000000000
  0.7499999750000015  0.7499999719999977  0.5000000000000000
  0.0833299920000030  0.1666699869999988  0.4199600000000032
  0.1666700030000001  0.0833299929999995  0.5800399999999968
  0.3333299829999987  0.1666699869999988  0.4199600000000032
  0.4166700030000001  0.0833299929999995  0.5800399999999968
  0.5833299479999994  0.1666699869999988  0.4199600000000032
  0.6666700030000001  0.0833299929999995  0.5800399999999968
  0.8333299829999987  0.1666699869999988  0.4199600000000032
  0.9166700030000001  0.0833299929999995  0.5800399999999968
  0.0833299980000035  0.4166699880000024  0.4199600000000032
  0.1666699769999980  0.3333299840000024  0.5800399999999968
  0.3333299980000035  0.4166699880000024  0.4199600000000032
  0.4166699769999980  0.3333299840000024  0.5800399999999968
  0.5833299800000020  0.4166699880000024  0.4199600000000032
  0.6666699949999995  0.3333299840000024  0.5800399999999968
  0.8333299800000020  0.4166699880000024  0.4199600000000032
  0.9166699949999995  0.3333299840000024  0.5800399999999968
  0.0833299920000030  0.6666700190000014  0.4199600000000032
  0.1666699660000006  0.5833299339999982  0.5800399999999968
  0.3333299920000030  0.6666700190000014  0.4199600000000032
  0.4166699660000006  0.5833299339999982  0.5800399999999968
  0.5833299569999966  0.6666700190000014  0.4199600000000032
  0.6666700010000000  0.5833299339999982  0.5800399999999968
  0.8333299569999966  0.6666700190000014  0.4199600000000032
  0.9166699660000006  0.5833299339999982  0.5800399999999968
  0.0833299840000024  0.9166700099999971  0.4199600000000032
  0.1666699580000000  0.8333299239999974  0.5800399999999968
  0.3333299840000024  0.9166700099999971  0.4199600000000032
  0.4166699580000000  0.8333299239999974  0.5800399999999968
  0.5833299479999994  0.9166700099999971  0.4199600000000032
  0.6666699929999993  0.8333299239999974  0.5800399999999968
  0.8333299479999994  0.9166700099999971  0.4199600000000032
  0.9166699929999993  0.8333299239999974  0.5800399999999968
 
  0.00000000E+00  0.00000000E+00  0.00000000E+00
  0.00000000E+00  0.00000000E+00  0.00000000E+00
  0.00000000E+00  0.00000000E+00  0.00000000E+00
  0.00000000E+00  0.00000000E+00  0.00000000E+00
  0.00000000E+00  0.00000000E+00  0.00000000E+00
  0.00000000E+00  0.00000000E+00  0.00000000E+00
  0.00000000E+00  0.00000000E+00  0.00000000E+00
  0.00000000E+00  0.00000000E+00  0.00000000E+00
  0.00000000E+00  0.00000000E+00  0.00000000E+00
  0.00000000E+00  0.00000000E+00  0.00000000E+00
  0.00000000E+00  0.00000000E+00  0.00000000E+00
  0.00000000E+00  0.00000000E+00  0.00000000E+00
  0.00000000E+00  0.00000000E+00  0.00000000E+00
  0.00000000E+00  0.00000000E+00  0.00000000E+00
  0.00000000E+00  0.00000000E+00  0.00000000E+00
  0.00000000E+00  0.00000000E+00  0.00000000E+00
  0.00000000E+00  0.00000000E+00  0.00000000E+00
  0.00000000E+00  0.00000000E+00  0.00000000E+00
  0.00000000E+00  0.00000000E+00  0.00000000E+00
  0.00000000E+00  0.00000000E+00  0.00000000E+00
  0.00000000E+00  0.00000000E+00  0.00000000E+00
  0.00000000E+00  0.00000000E+00  0.00000000E+00
  0.00000000E+00  0.00000000E+00  0.00000000E+00
  0.00000000E+00  0.00000000E+00  0.00000000E+00
  0.00000000E+00  0.00000000E+00  0.00000000E+00
  0.00000000E+00  0.00000000E+00  0.00000000E+00
  0.00000000E+00  0.00000000E+00  0.00000000E+00
  0.00000000E+00  0.00000000E+00  0.00000000E+00
  0.00000000E+00  0.00000000E+00  0.00000000E+00
  0.00000000E+00  0.00000000E+00  0.00000000E+00
  0.00000000E+00  0.00000000E+00  0.00000000E+00
  0.00000000E+00  0.00000000E+00  0.00000000E+00
  0.00000000E+00  0.00000000E+00  0.00000000E+00
  0.00000000E+00  0.00000000E+00  0.00000000E+00
  0.00000000E+00  0.00000000E+00  0.00000000E+00
  0.00000000E+00  0.00000000E+00  0.00000000E+00
  0.00000000E+00  0.00000000E+00  0.00000000E+00
  0.00000000E+00  0.00000000E+00  0.00000000E+00
  0.00000000E+00  0.00000000E+00  0.00000000E+00
  0.00000000E+00  0.00000000E+00  0.00000000E+00
  0.00000000E+00  0.00000000E+00  0.00000000E+00
  0.00000000E+00  0.00000000E+00  0.00000000E+00
  0.00000000E+00  0.00000000E+00  0.00000000E+00
  0.00000000E+00  0.00000000E+00  0.00000000E+00
  0.00000000E+00  0.00000000E+00  0.00000000E+00
  0.00000000E+00  0.00000000E+00  0.00000000E+00
  0.00000000E+00  0.00000000E+00  0.00000000E+00
  0.00000000E+00  0.00000000E+00  0.00000000E+00
