CONTCAR\(14)                            
   1.00000000000000     
    11.5652999877999996    0.0000000000000000    0.0000000000000000
     0.0000000000000000   13.3549995421999999    0.0000000000000000
     0.0000000000000000    0.0000000000000000   25.4929008484000015
   Ta   Ag   S    O 
    32     8    64     1
Direct
  0.2455732295636750  0.4981485171340196  0.3616893422120455
  0.2455630160796787  0.2524248858863984  0.3616409865380987
  0.0005441939257835  0.3753025260540639  0.3636404889315159
  0.0843610954162628  0.2507351083526004  0.6392796870331736
  0.0013192620886926  0.1251972354164010  0.3612334638518462
  0.0860651052461634  0.0025038115776681  0.6395744733847337
  0.3313305023812987  0.1266199469515925  0.6369022370826798
  0.3227378042742473  0.3762931865963850  0.6386557639064137
  0.7453657596595846  0.4983844059764451  0.3618491321327468
  0.7453311230459221  0.2521541272966772  0.3618800829783382
  0.5004771792746823  0.3753537488496193  0.3636492074331912
  0.5890624556963928  0.2437070443586933  0.6379856116808824
  0.5015319721664682  0.1253728395800024  0.3614464473641306
  0.5868957134594339  0.0038285233906592  0.6388640129195622
  0.8300025785716656  0.1260568283206496  0.6372103170633210
  0.8305976026768533  0.3763281046708116  0.6390738715177662
  0.2454303986079296  0.9981478652448246  0.3614432875408866
  0.2454439734610077  0.7522998360963413  0.3614201500901757
  0.0004903322504148  0.8752245556031397  0.3634222743573545
  0.0860244998511348  0.7500380176571539  0.6396049488304456
  0.0013196626447112  0.6253023802480087  0.3612426918275631
  0.0841720853898877  0.5017859873102566  0.6392010970761675
  0.3313104424859858  0.6261937238091235  0.6369155459603277
  0.3299079706224219  0.8763534640323911  0.6397965547810855
  0.7455190418251263  0.9983382136019401  0.3616360516075616
  0.7455387194480991  0.7521497307282701  0.3616064509921770
  0.5005162398478902  0.8752833587847419  0.3635647388433085
  0.5869534113058705  0.7490370939568436  0.6388631442601564
  0.5015690456983322  0.6252238567659063  0.3614472592400162
  0.5891667928397268  0.5093003126246884  0.6378551784972757
  0.8300147442678494  0.6266501948790690  0.6371442646691818
  0.8303210126997911  0.8762967419126539  0.6395513017645129
  0.4965767679884507  0.3756064099312368  0.4893135448010355
  0.3313972064665052  0.1245361836993553  0.5127173593617158
  0.9975913534222514  0.3752667353207286  0.4872245477390251
  0.8365115459014305  0.1247975197310751  0.5130676416568463
  0.4967956744833444  0.8752938100974674  0.4878394164417088
  0.3313747931470203  0.6285463797204116  0.5127328391500541
  0.9977279560307935  0.8751487360142960  0.4877607976282547
  0.8360001688108269  0.6276097092005273  0.5130681006942268
  0.2460131347997958  0.4982058927331892  0.5756346131641479
  0.2516826224439299  0.0032323935019249  0.6998974020595341
  0.2459048333823546  0.2545119886874474  0.5755996100638114
  0.2510680186036751  0.2496262998904228  0.6997680600769485
  0.0801734295871341  0.2517386331252069  0.3010390977644661
  0.0838845430946691  0.2454413976351972  0.4245353463565706
  0.4983571484992240  0.3764421438062797  0.5825880943550743
  0.9987789243689846  0.3761961995583221  0.6991069124722600
  0.0802442958508252  0.4988317723757518  0.3010553820458952
  0.0836536481537564  0.0047877827737821  0.4244257628929375
  0.0050714341046145  0.1260135340939286  0.5774737841882569
  0.4969322266275142  0.1265331515492392  0.6988307254799722
  0.3312449826196087  0.1253664321229735  0.3022497033668969
  0.3322264033318802  0.1251895556314224  0.4206238491408669
  0.3343615512357019  0.3752165632739803  0.3019467255760162
  0.3266451465627966  0.3752866715245631  0.4241563428519655
  0.7491120943923946  0.4964554137416854  0.5752430049706732
  0.7513472579185105  0.0026039380151843  0.6998571415546095
  0.7489035533289865  0.2560643185344347  0.5752623357760385
  0.7503911489361528  0.2508398991630401  0.6996710805910382
  0.5802555389752513  0.2517243623596883  0.3011812779463483
  0.5832430524723975  0.2461631698070832  0.4248915813804857
  0.9987023610238381  0.3760599463072154  0.5794055236725413
  0.4998684441478005  0.3769472628791917  0.6940287591296652
  0.5802488656307077  0.4988799269977378  0.3011558826462633
  0.5836722846049227  0.0048997855174093  0.4246043807445261
  0.5041262094352561  0.1247540122221338  0.5756899627363765
  0.9968869883334577  0.1265430511787784  0.6987400953951806
  0.8309410174697760  0.1254586578241543  0.3022706476228265
  0.8325603238519932  0.1252043178358591  0.4208471881270057
  0.8340694262483055  0.3751722024402966  0.3021205900762922
  0.8262665888108884  0.3752611820976810  0.4240273521360010
  0.2472249392991372  0.9962654683751211  0.5765029470749141
  0.2508945997915646  0.5030165276105265  0.6996620207015951
  0.2471313339771442  0.7564671152939439  0.5765331389452157
  0.2516508731286535  0.7494500707416236  0.6999319746901662
  0.0800898598960842  0.7515376881371978  0.3008579121294588
  0.0837812344042916  0.7457604249218832  0.4244476528586389
  0.4990243271207078  0.8763494734739297  0.5801523195100913
  0.9997519211411401  0.8762392774481569  0.6990451747474040
  0.0800971816292986  0.9989384307519913  0.3008869453826222
  0.0837814083965753  0.5052229947931792  0.4245592968425669
  0.0050477554811863  0.6266345238421707  0.5773878277788853
  0.4969758947288625  0.6264366542528848  0.6987886490635802
  0.3312733303310225  0.6251313274119354  0.3022440126666268
  0.3323035282792048  0.6254672391395459  0.4206494283896660
  0.3343999570451004  0.8751391859438797  0.3017424276294562
  0.3262927708345487  0.8752385322597291  0.4237498112737441
  0.7482594683637060  0.9962775059849491  0.5760040711157615
  0.7503790092636109  0.5019680218810763  0.6995980529332186
  0.7482224217676716  0.7564016680375687  0.5759474795625934
  0.7513784302842623  0.7501159040257122  0.6998764813147815
  0.5801330657022135  0.7515971183219037  0.3010443089315089
  0.5838240421462686  0.7457898325389181  0.4246233433052637
  0.9989083006549961  0.8761775693080693  0.5801060418313710
  0.5011299864687615  0.8763936955106004  0.6981777556095707
  0.5801668353230696  0.9989939529491494  0.3010663204373856
  0.5833609879205994  0.5046017157807157  0.4248757040084428
  0.5040935703257574  0.6282022653267134  0.5756394802129847
  0.9967887791992922  0.6260525068789775  0.6987036948457330
  0.8310003976235762  0.6250721600480205  0.3022331724852165
  0.8325749442460122  0.6253821527457575  0.4208454882107091
  0.8340707511028640  0.8751798141305898  0.3018427511863706
  0.8265314530469610  0.8752518643244116  0.4238400444369717
  0.5006469542051022  0.3775334822207697  0.7526527436845427
 
  0.00000000E+00  0.00000000E+00  0.00000000E+00
  0.00000000E+00  0.00000000E+00  0.00000000E+00
  0.00000000E+00  0.00000000E+00  0.00000000E+00
  0.00000000E+00  0.00000000E+00  0.00000000E+00
  0.00000000E+00  0.00000000E+00  0.00000000E+00
  0.00000000E+00  0.00000000E+00  0.00000000E+00
  0.00000000E+00  0.00000000E+00  0.00000000E+00
  0.00000000E+00  0.00000000E+00  0.00000000E+00
  0.00000000E+00  0.00000000E+00  0.00000000E+00
  0.00000000E+00  0.00000000E+00  0.00000000E+00
  0.00000000E+00  0.00000000E+00  0.00000000E+00
  0.00000000E+00  0.00000000E+00  0.00000000E+00
  0.00000000E+00  0.00000000E+00  0.00000000E+00
  0.00000000E+00  0.00000000E+00  0.00000000E+00
  0.00000000E+00  0.00000000E+00  0.00000000E+00
  0.00000000E+00  0.00000000E+00  0.00000000E+00
  0.00000000E+00  0.00000000E+00  0.00000000E+00
  0.00000000E+00  0.00000000E+00  0.00000000E+00
  0.00000000E+00  0.00000000E+00  0.00000000E+00
  0.00000000E+00  0.00000000E+00  0.00000000E+00
  0.00000000E+00  0.00000000E+00  0.00000000E+00
  0.00000000E+00  0.00000000E+00  0.00000000E+00
  0.00000000E+00  0.00000000E+00  0.00000000E+00
  0.00000000E+00  0.00000000E+00  0.00000000E+00
  0.00000000E+00  0.00000000E+00  0.00000000E+00
  0.00000000E+00  0.00000000E+00  0.00000000E+00
  0.00000000E+00  0.00000000E+00  0.00000000E+00
  0.00000000E+00  0.00000000E+00  0.00000000E+00
  0.00000000E+00  0.00000000E+00  0.00000000E+00
  0.00000000E+00  0.00000000E+00  0.00000000E+00
  0.00000000E+00  0.00000000E+00  0.00000000E+00
  0.00000000E+00  0.00000000E+00  0.00000000E+00
  0.00000000E+00  0.00000000E+00  0.00000000E+00
  0.00000000E+00  0.00000000E+00  0.00000000E+00
  0.00000000E+00  0.00000000E+00  0.00000000E+00
  0.00000000E+00  0.00000000E+00  0.00000000E+00
  0.00000000E+00  0.00000000E+00  0.00000000E+00
  0.00000000E+00  0.00000000E+00  0.00000000E+00
  0.00000000E+00  0.00000000E+00  0.00000000E+00
  0.00000000E+00  0.00000000E+00  0.00000000E+00
  0.00000000E+00  0.00000000E+00  0.00000000E+00
  0.00000000E+00  0.00000000E+00  0.00000000E+00
  0.00000000E+00  0.00000000E+00  0.00000000E+00
  0.00000000E+00  0.00000000E+00  0.00000000E+00
  0.00000000E+00  0.00000000E+00  0.00000000E+00
  0.00000000E+00  0.00000000E+00  0.00000000E+00
  0.00000000E+00  0.00000000E+00  0.00000000E+00
  0.00000000E+00  0.00000000E+00  0.00000000E+00
  0.00000000E+00  0.00000000E+00  0.00000000E+00
  0.00000000E+00  0.00000000E+00  0.00000000E+00
  0.00000000E+00  0.00000000E+00  0.00000000E+00
  0.00000000E+00  0.00000000E+00  0.00000000E+00
  0.00000000E+00  0.00000000E+00  0.00000000E+00
  0.00000000E+00  0.00000000E+00  0.00000000E+00
  0.00000000E+00  0.00000000E+00  0.00000000E+00
  0.00000000E+00  0.00000000E+00  0.00000000E+00
  0.00000000E+00  0.00000000E+00  0.00000000E+00
  0.00000000E+00  0.00000000E+00  0.00000000E+00
  0.00000000E+00  0.00000000E+00  0.00000000E+00
  0.00000000E+00  0.00000000E+00  0.00000000E+00
  0.00000000E+00  0.00000000E+00  0.00000000E+00
  0.00000000E+00  0.00000000E+00  0.00000000E+00
  0.00000000E+00  0.00000000E+00  0.00000000E+00
  0.00000000E+00  0.00000000E+00  0.00000000E+00
  0.00000000E+00  0.00000000E+00  0.00000000E+00
  0.00000000E+00  0.00000000E+00  0.00000000E+00
  0.00000000E+00  0.00000000E+00  0.00000000E+00
  0.00000000E+00  0.00000000E+00  0.00000000E+00
  0.00000000E+00  0.00000000E+00  0.00000000E+00
  0.00000000E+00  0.00000000E+00  0.00000000E+00
  0.00000000E+00  0.00000000E+00  0.00000000E+00
  0.00000000E+00  0.00000000E+00  0.00000000E+00
  0.00000000E+00  0.00000000E+00  0.00000000E+00
  0.00000000E+00  0.00000000E+00  0.00000000E+00
  0.00000000E+00  0.00000000E+00  0.00000000E+00
  0.00000000E+00  0.00000000E+00  0.00000000E+00
  0.00000000E+00  0.00000000E+00  0.00000000E+00
  0.00000000E+00  0.00000000E+00  0.00000000E+00
  0.00000000E+00  0.00000000E+00  0.00000000E+00
  0.00000000E+00  0.00000000E+00  0.00000000E+00
  0.00000000E+00  0.00000000E+00  0.00000000E+00
  0.00000000E+00  0.00000000E+00  0.00000000E+00
  0.00000000E+00  0.00000000E+00  0.00000000E+00
  0.00000000E+00  0.00000000E+00  0.00000000E+00
  0.00000000E+00  0.00000000E+00  0.00000000E+00
  0.00000000E+00  0.00000000E+00  0.00000000E+00
  0.00000000E+00  0.00000000E+00  0.00000000E+00
  0.00000000E+00  0.00000000E+00  0.00000000E+00
  0.00000000E+00  0.00000000E+00  0.00000000E+00
  0.00000000E+00  0.00000000E+00  0.00000000E+00
  0.00000000E+00  0.00000000E+00  0.00000000E+00
  0.00000000E+00  0.00000000E+00  0.00000000E+00
  0.00000000E+00  0.00000000E+00  0.00000000E+00
  0.00000000E+00  0.00000000E+00  0.00000000E+00
  0.00000000E+00  0.00000000E+00  0.00000000E+00
  0.00000000E+00  0.00000000E+00  0.00000000E+00
  0.00000000E+00  0.00000000E+00  0.00000000E+00
  0.00000000E+00  0.00000000E+00  0.00000000E+00
  0.00000000E+00  0.00000000E+00  0.00000000E+00
  0.00000000E+00  0.00000000E+00  0.00000000E+00
  0.00000000E+00  0.00000000E+00  0.00000000E+00
  0.00000000E+00  0.00000000E+00  0.00000000E+00
  0.00000000E+00  0.00000000E+00  0.00000000E+00
  0.00000000E+00  0.00000000E+00  0.00000000E+00
  0.00000000E+00  0.00000000E+00  0.00000000E+00
