CONTCAR                                 
   1.00000000000000     
    13.3121995926000007    0.0000000000000000    0.0000000000000000
    -6.6560997963000004   11.5287030274000006    0.0000000000000000
     0.0000000000000000    0.0000000000000000   18.1366004943999997
   Nb   S    O 
    16    32     1
Selective dynamics
Direct
  0.9961563897811558  0.0028233418207932  0.5010422741960738   F   F   F
  0.2490151140714900  0.0009041138856247  0.5013502347374512   F   F   F
  0.4967553399897611  0.0008943173702036  0.5014594524290956   F   F   F
  0.7515195188549058  0.0028411195923255  0.5011235497470565   F   F   F
  0.9983559719810984  0.2517572099149419  0.5011617429249995   F   F   F
  0.2472199021258348  0.2538303127161115  0.5011100438586737   F   F   F
  0.4982699989710966  0.2516043257373966  0.5011261151241371   F   F   F
  0.7516818718878753  0.2537536430951377  0.5015731834279009   F   F   F
  0.9962141057366551  0.4983155801192538  0.5014333886460349   F   F   F
  0.2471730934110639  0.4984475022982267  0.5011098437698038   F   F   F
  0.4863554766438156  0.4957211787086990  0.5000890215632623   F   F   F
  0.7543408405193759  0.4956646749565152  0.5005125165069018   F   F   F
  0.9984952330265529  0.7517443088480817  0.5009331524322533   F   F   F
  0.2490965486078949  0.7531338863541777  0.5014731878385064   F   F   F
  0.4982426938238333  0.7518261649810327  0.5008525398540655   F   F   F
  0.7543173805530330  0.7636943951624815  0.5000537663395406   F   F   F
  0.1650830113353692  0.0847802293118463  0.4158942625847004   F   F   F
  0.1649344538477280  0.0849763074864214  0.5863342084108822   F   F   F
  0.4149621528400331  0.0850565692246690  0.4147893537663379   F   F   F
  0.4151918006483299  0.0856641788264270  0.5878044513859280   F   F   F
  0.6645696789422288  0.0850244443988544  0.4161427113084244   F   F   F
  0.6647735633140002  0.0847435777380099  0.5865806007185199   F   F   F
  0.9154316386363988  0.0861167341692379  0.4137795797830890   F   F   F
  0.9156112894040831  0.0861237854572821  0.5882683424872397   F   F   F
  0.1639693745496942  0.3344735905138378  0.4137781879563320   F   F   F
  0.1639618562892124  0.3344911963962502  0.5883462255081398   F   F   F
  0.4135219317144845  0.3320310962319226  0.4137776072923884   F   F   F
  0.4143841765909002  0.3341009213626691  0.5878206621657256   F   F   F
  0.6638034988943247  0.3320028265041941  0.4141478435717900   F   F   F
  0.6643876337720940  0.3338691199751551  0.5880953000842908   F   F   F
  0.9153438237751246  0.3345427160980421  0.4140343168448410   F   F   F
  0.9157774941336996  0.3344181414925487  0.5887294688422244   F   F   F
  0.1648945011045768  0.5852477336717428  0.4160820677362196   F   F   F
  0.1651213077231972  0.5850826470912409  0.5865360852067454   F   F   F
  0.4135037677380922  0.5863989512814314  0.4136794346302892   F   F   F
  0.4144296986094034  0.5856496730191267  0.5875998498610784   F   F   F
  0.6651500860673139  0.5848876834186285  0.4240696910970172   F   F   F
  0.6648222559548174  0.5852240416515997  0.5786205003246110   F   F   F
  0.9178676576433773  0.5861374840037499  0.4140068768706016   F   F   F
  0.9162396461174467  0.5857394575056247  0.5879343641113621   F   F   F
  0.1651736179435659  0.8349734892376190  0.4146782566307010   F   F   F
  0.1643030102557859  0.8347167742717190  0.5878073289091006   F   F   F
  0.4148808803250716  0.8352087632834824  0.4146868050219723   F   F   F
  0.4153446102892389  0.8346751172277465  0.5878460900048594   F   F   F
  0.6635956261449891  0.8365517648332741  0.4136270414363565   F   F   F
  0.6644709018221278  0.8355744540796763  0.5876667339168549   F   F   F
  0.9179577686311688  0.8365158537298711  0.4136688538943787   F   F   F
  0.9160688422788184  0.8356207202328676  0.5876914343399520   F   F   F
  0.6645989786778799  0.5855235497122281  0.6600441560333360   T   T   T
 
  0.00000000E+00  0.00000000E+00  0.00000000E+00
  0.00000000E+00  0.00000000E+00  0.00000000E+00
  0.00000000E+00  0.00000000E+00  0.00000000E+00
  0.00000000E+00  0.00000000E+00  0.00000000E+00
  0.00000000E+00  0.00000000E+00  0.00000000E+00
  0.00000000E+00  0.00000000E+00  0.00000000E+00
  0.00000000E+00  0.00000000E+00  0.00000000E+00
  0.00000000E+00  0.00000000E+00  0.00000000E+00
  0.00000000E+00  0.00000000E+00  0.00000000E+00
  0.00000000E+00  0.00000000E+00  0.00000000E+00
  0.00000000E+00  0.00000000E+00  0.00000000E+00
  0.00000000E+00  0.00000000E+00  0.00000000E+00
  0.00000000E+00  0.00000000E+00  0.00000000E+00
  0.00000000E+00  0.00000000E+00  0.00000000E+00
  0.00000000E+00  0.00000000E+00  0.00000000E+00
  0.00000000E+00  0.00000000E+00  0.00000000E+00
  0.00000000E+00  0.00000000E+00  0.00000000E+00
  0.00000000E+00  0.00000000E+00  0.00000000E+00
  0.00000000E+00  0.00000000E+00  0.00000000E+00
  0.00000000E+00  0.00000000E+00  0.00000000E+00
  0.00000000E+00  0.00000000E+00  0.00000000E+00
  0.00000000E+00  0.00000000E+00  0.00000000E+00
  0.00000000E+00  0.00000000E+00  0.00000000E+00
  0.00000000E+00  0.00000000E+00  0.00000000E+00
  0.00000000E+00  0.00000000E+00  0.00000000E+00
  0.00000000E+00  0.00000000E+00  0.00000000E+00
  0.00000000E+00  0.00000000E+00  0.00000000E+00
  0.00000000E+00  0.00000000E+00  0.00000000E+00
  0.00000000E+00  0.00000000E+00  0.00000000E+00
  0.00000000E+00  0.00000000E+00  0.00000000E+00
  0.00000000E+00  0.00000000E+00  0.00000000E+00
  0.00000000E+00  0.00000000E+00  0.00000000E+00
  0.00000000E+00  0.00000000E+00  0.00000000E+00
  0.00000000E+00  0.00000000E+00  0.00000000E+00
  0.00000000E+00  0.00000000E+00  0.00000000E+00
  0.00000000E+00  0.00000000E+00  0.00000000E+00
  0.00000000E+00  0.00000000E+00  0.00000000E+00
  0.00000000E+00  0.00000000E+00  0.00000000E+00
  0.00000000E+00  0.00000000E+00  0.00000000E+00
  0.00000000E+00  0.00000000E+00  0.00000000E+00
  0.00000000E+00  0.00000000E+00  0.00000000E+00
  0.00000000E+00  0.00000000E+00  0.00000000E+00
  0.00000000E+00  0.00000000E+00  0.00000000E+00
  0.00000000E+00  0.00000000E+00  0.00000000E+00
  0.00000000E+00  0.00000000E+00  0.00000000E+00
  0.00000000E+00  0.00000000E+00  0.00000000E+00
  0.00000000E+00  0.00000000E+00  0.00000000E+00
  0.00000000E+00  0.00000000E+00  0.00000000E+00
  0.00000000E+00  0.00000000E+00  0.00000000E+00
