CONTCAR\(7)                             
   1.00000000000000     
    13.8427000045999993    0.0000000000000000    0.0000000000000000
    -6.9212999344000004   11.9880431408000003    0.0000000000000000
     0.0000000000000000    0.0000000000000000   18.3542995453000017
   Ta   Se   O    H 
    16    32     1     1
Direct
 -0.0040381794264046  0.9874153066670577  0.4995974523236689
  0.2444187414648340  0.9919189162653531  0.4998113036518874
  0.4890277702613509  0.9868883043864886  0.4998988621753492
  0.7448180593694097  0.9928871157561127  0.4994640748675918
 -0.0053791604282102  0.2437086160235712  0.5001703354687719
  0.2500130222869555  0.2419194112697700  0.4999192011950646
  0.4890968568821103  0.2423764668985124  0.4998593261876539
  0.7459472124807327  0.2431289274655660  0.5001361768112634
 -0.0056009024147132  0.4910123525364168  0.5000782304661410
  0.2445908333122228  0.4922092751918463  0.4997758645391044
  0.4849769995004713  0.4728094343802497  0.4991645439213377
  0.7448633632616687  0.4920073098737109  0.4995079799582093
 -0.0040223881014525  0.7483558147451069  0.4995932249393327
  0.2497587083158922  0.7478446848364007  0.4998988012078138
  0.4849030641210295  0.7521963427028766  0.4989830257875104
  0.7645464683318883  0.7521771997219825  0.4979916723878471
  0.0784829620564541  0.1589236070810834  0.4105427411629252
  0.0785707874424961  0.1584650972268596  0.5893039802529227
  0.3269920958165726  0.1568553285325447  0.4064951796003490
  0.3270987902094664  0.1568077400300953  0.5932109840810980
  0.5770784608933348  0.1585741549326788  0.4106984566470206
  0.5767168252178705  0.1584853360498723  0.5892415859657382
  0.8284638789821224  0.1596537935745529  0.4083228998252895
  0.8278960237198996  0.1585543104349430  0.5916513757498517
  0.0781343691796345  0.4091783221194648  0.4080645610675956
  0.0788817072922754  0.4095770433549489  0.5920129360707792
  0.3244444997737432  0.4071044205295853  0.4068411189201449
  0.3259170239485472  0.4078980047286617  0.5927084926757333
  0.5798707952431921  0.4074823308728259  0.4066211653058335
  0.5797055179191788  0.4080361058330301  0.5926386125337199
  0.8283264203750182  0.4089181171358519  0.4081559178090038
  0.8279035658008469  0.4094081808247532  0.5916781617612807
  0.0784963357832016  0.6596370879776035  0.4104149051556384
  0.0784271146208535  0.6599881718638421  0.5894087126055895
  0.3243910203254697  0.6571871238825795  0.4066771721733471
  0.3259710639236925  0.6579042958496413  0.5926520435683102
  0.5774992405715147  0.6588891464190555  0.4211468404071817
  0.5803725669588674  0.6602711718546199  0.5733388202431353
  0.8304239834940944  0.6570625169597327  0.4063983925764179
  0.8299230052114556  0.6581102366843171  0.5921695586869729
  0.0802674702896146  0.9100398819007355  0.4060312328985330
  0.0801532528856247  0.9099915908483109  0.5933832660617808
  0.3271875654770004  0.9098488703325948  0.4064895712243919
  0.3271362419370821  0.9099467887447198  0.5933031015379007
  0.5798648596175731  0.9127544710168932  0.4065771597855511
  0.5795780147961915  0.9116583524828026  0.5925127509221566
  0.8302984187197753  0.9132771820125507  0.4065138537113934
  0.8297198311723923  0.9117419022339629  0.5920760404928023
  0.5836386916111258  0.6616865129375500  0.6739053107772944
  0.6632359125160373  0.7024266700156748  0.6864534958538002
 
  0.00000000E+00  0.00000000E+00  0.00000000E+00
  0.00000000E+00  0.00000000E+00  0.00000000E+00
  0.00000000E+00  0.00000000E+00  0.00000000E+00
  0.00000000E+00  0.00000000E+00  0.00000000E+00
  0.00000000E+00  0.00000000E+00  0.00000000E+00
  0.00000000E+00  0.00000000E+00  0.00000000E+00
  0.00000000E+00  0.00000000E+00  0.00000000E+00
  0.00000000E+00  0.00000000E+00  0.00000000E+00
  0.00000000E+00  0.00000000E+00  0.00000000E+00
  0.00000000E+00  0.00000000E+00  0.00000000E+00
  0.00000000E+00  0.00000000E+00  0.00000000E+00
  0.00000000E+00  0.00000000E+00  0.00000000E+00
  0.00000000E+00  0.00000000E+00  0.00000000E+00
  0.00000000E+00  0.00000000E+00  0.00000000E+00
  0.00000000E+00  0.00000000E+00  0.00000000E+00
  0.00000000E+00  0.00000000E+00  0.00000000E+00
  0.00000000E+00  0.00000000E+00  0.00000000E+00
  0.00000000E+00  0.00000000E+00  0.00000000E+00
  0.00000000E+00  0.00000000E+00  0.00000000E+00
  0.00000000E+00  0.00000000E+00  0.00000000E+00
  0.00000000E+00  0.00000000E+00  0.00000000E+00
  0.00000000E+00  0.00000000E+00  0.00000000E+00
  0.00000000E+00  0.00000000E+00  0.00000000E+00
  0.00000000E+00  0.00000000E+00  0.00000000E+00
  0.00000000E+00  0.00000000E+00  0.00000000E+00
  0.00000000E+00  0.00000000E+00  0.00000000E+00
  0.00000000E+00  0.00000000E+00  0.00000000E+00
  0.00000000E+00  0.00000000E+00  0.00000000E+00
  0.00000000E+00  0.00000000E+00  0.00000000E+00
  0.00000000E+00  0.00000000E+00  0.00000000E+00
  0.00000000E+00  0.00000000E+00  0.00000000E+00
  0.00000000E+00  0.00000000E+00  0.00000000E+00
  0.00000000E+00  0.00000000E+00  0.00000000E+00
  0.00000000E+00  0.00000000E+00  0.00000000E+00
  0.00000000E+00  0.00000000E+00  0.00000000E+00
  0.00000000E+00  0.00000000E+00  0.00000000E+00
  0.00000000E+00  0.00000000E+00  0.00000000E+00
  0.00000000E+00  0.00000000E+00  0.00000000E+00
  0.00000000E+00  0.00000000E+00  0.00000000E+00
  0.00000000E+00  0.00000000E+00  0.00000000E+00
  0.00000000E+00  0.00000000E+00  0.00000000E+00
  0.00000000E+00  0.00000000E+00  0.00000000E+00
  0.00000000E+00  0.00000000E+00  0.00000000E+00
  0.00000000E+00  0.00000000E+00  0.00000000E+00
  0.00000000E+00  0.00000000E+00  0.00000000E+00
  0.00000000E+00  0.00000000E+00  0.00000000E+00
  0.00000000E+00  0.00000000E+00  0.00000000E+00
  0.00000000E+00  0.00000000E+00  0.00000000E+00
  0.00000000E+00  0.00000000E+00  0.00000000E+00
  0.00000000E+00  0.00000000E+00  0.00000000E+00
