 Mn3 Cu1 O8                             
   1.00000000000000     
     5.6985221765879945    0.0000000000000000    0.0000000000000000
    -2.8368263357277161    4.9383993664040133    0.0000000000000000
     0.0000000000000000    0.0000000000000000   16.9331914547400046
   Mn   Cu   O 
     3     1     8
Direct
  0.0000008608086625  0.5000023303694593  0.4999998822046076
  0.4999973667852132 -0.0000005409225614  0.4999998084261874
  0.0000018572767127 -0.0000009417048306  0.4999997779754916
  0.4999999608896141  0.4999994511663665  0.4999997884807190
  0.1668112480804442  0.8332308259140425  0.5583039203716081
  0.6722805049327047  0.8442345668828803  0.5572733890242684
  0.1559125454531195  0.3278254350661675  0.5572558026514470
  0.8331887482205591  0.1667690810383923  0.4416958948297428
  0.6714624961832116  0.3286066618744597  0.5571121163390329
  0.3277193124025427  0.1557650354597987  0.4427270564296984
  0.8440877161019059  0.6721746622585804  0.4427444906947227
  0.3285373828653097  0.6713934325972444  0.4428880725724743
 
  0.00000000E+00  0.00000000E+00  0.00000000E+00
  0.00000000E+00  0.00000000E+00  0.00000000E+00
  0.00000000E+00  0.00000000E+00  0.00000000E+00
  0.00000000E+00  0.00000000E+00  0.00000000E+00
  0.00000000E+00  0.00000000E+00  0.00000000E+00
  0.00000000E+00  0.00000000E+00  0.00000000E+00
  0.00000000E+00  0.00000000E+00  0.00000000E+00
  0.00000000E+00  0.00000000E+00  0.00000000E+00
  0.00000000E+00  0.00000000E+00  0.00000000E+00
  0.00000000E+00  0.00000000E+00  0.00000000E+00
  0.00000000E+00  0.00000000E+00  0.00000000E+00
  0.00000000E+00  0.00000000E+00  0.00000000E+00
