CONTCAR\(3)                             
   1.00000000000000     
    12.8629999160999997    0.0000000000000000    0.0000000000000000
     0.0000000000000000   14.3196001052999993    0.0000000000000000
     0.0000000000000000    0.0000000000000000   19.5569992064999987
   Ag   Au   S    O    H 
    12    24    24     2     1
Direct
  0.0988328938105740  0.3358955946873732  0.6000632207045415
  0.2533724044472985  0.0563351737946089  0.5986903968422265
  0.4180190220813820  0.2947506677615674  0.5986061713382327
  0.5734245138685198  0.0620478566565082  0.5990740045410115
  0.7418742020768122  0.3381665158331815  0.5971698281423812
  0.9125292996103401  0.1052961169431911  0.5991776158790408
  0.0773700875368212  0.8408126165185585  0.5964213969722522
  0.2674069362635260  0.5788836151309166  0.6130846470281531
  0.4166089934807549  0.7975188628553719  0.6143278985225075
  0.5626002717107749  0.5796846828194371  0.6126805600392811
  0.7586921359654253  0.8392453559997474  0.5963243034580258
  0.9168904017166296  0.5769808832002054  0.6025600155630639
  0.0375909702284893  0.5006916347381516  0.4905476507187080
  0.2962802100830415  0.2299537131925643  0.4856875910143726
  0.1675461006532218  0.3689296569885924  0.4041254766197407
  0.1637142025393134  0.1168409993111180  0.4039477913936300
  0.3644225444471375  0.4836171152980337  0.4906692081160914
  0.6401481261597763  0.2365224283815789  0.4857793845516207
  0.5008458042122329  0.3626905730747070  0.4085703616905241
  0.5011764183664638  0.1141195441513820  0.4037323665187514
  0.6897301801872492  0.5002799381393203  0.5022501566384225
  0.9675806647408095  0.2583248306274277  0.4902605463202093
  0.8318655916876155  0.3710862110025864  0.4036944417877094
  0.8365821792383149  0.1212604824035085  0.3978012402513700
  0.0239576616321354  0.0010780989286535  0.4906726036044917
  0.2957740760801560  0.7426931504561580  0.4897240247717776
  0.1647431447182935  0.8674204719756281  0.3971138556360362
  0.1676821732825476  0.6185844015729937  0.3999761910944316
  0.3648086149747982  0.9771497006270317  0.4847015889504411
  0.6375026732792851  0.7432328300101603  0.4896623314202752
  0.5054572439148636  0.8646393489092552  0.4045252987327445
  0.5018729820716472  0.6141020237656472  0.4099861984367719
  0.7058025029514020  0.9997428365906472  0.4865608187017899
  0.9700905067782855  0.7444833944312220  0.4829127675247034
  0.8339871736292920  0.8717841307940696  0.4025267765101326
  0.8294691282008040  0.6219013179260270  0.4074802587950353
  0.2800219642094900  0.4932734507803647  0.3858908473475515
  0.2421407459090340  0.2284570871065870  0.5997609242214872
  0.0960787380089734  0.5059181883658750  0.6033935333947893
  0.0550127145946920  0.2443325659348761  0.3864838385252584
  0.6137856754230778  0.4882191346809698  0.3953355458434554
  0.5914416705564973  0.2323621177287248  0.6009001797031183
  0.4178378308160641  0.4650240018503091  0.6034285124916259
  0.3903791606613122  0.2386801072478323  0.3841695848592532
  0.9412780135918994  0.4976259327340438  0.3899211876600480
  0.9167175368088327  0.2729784407572283  0.6045008776778785
  0.7451692793066629  0.5074259539543005  0.6152841992499586
  0.7238362955065795  0.2453653151293075  0.3803121249670346
  0.2755730694981288  0.9926086468067458  0.3820154797409760
  0.2306671425780148  0.7478629156747555  0.6001319442841652
  0.0714063022451243  0.0080317829721996  0.6057411869156519
  0.0553406206767956  0.7420588392593149  0.3777077161874228
  0.6140409713738451  0.9909688304110119  0.3839226838243300
  0.5994578607926655  0.7486980061570484  0.6057489080511961
  0.4185124136142856  0.9661657895121082  0.5983342831871322
  0.3930452323261035  0.7393723304831319  0.3896431456556960
  0.9483616057124632  0.9952578886276707  0.3830995170593618
  0.9164366188213734  0.7496666326233569  0.5971911371709702
  0.7601573324245494  0.0072663735715379  0.6005124217852053
  0.7208721339340382  0.7476052575161651  0.3837869425713819
  0.4124320033701095  0.6499071143260686  0.6618240576432429
  0.4090820048001788  0.6585964865188657  0.7359999986607010
  0.4237932498131619  0.5940844347724870  0.7502208784905866
 
  0.00000000E+00  0.00000000E+00  0.00000000E+00
  0.00000000E+00  0.00000000E+00  0.00000000E+00
  0.00000000E+00  0.00000000E+00  0.00000000E+00
  0.00000000E+00  0.00000000E+00  0.00000000E+00
  0.00000000E+00  0.00000000E+00  0.00000000E+00
  0.00000000E+00  0.00000000E+00  0.00000000E+00
  0.00000000E+00  0.00000000E+00  0.00000000E+00
  0.00000000E+00  0.00000000E+00  0.00000000E+00
  0.00000000E+00  0.00000000E+00  0.00000000E+00
  0.00000000E+00  0.00000000E+00  0.00000000E+00
  0.00000000E+00  0.00000000E+00  0.00000000E+00
  0.00000000E+00  0.00000000E+00  0.00000000E+00
  0.00000000E+00  0.00000000E+00  0.00000000E+00
  0.00000000E+00  0.00000000E+00  0.00000000E+00
  0.00000000E+00  0.00000000E+00  0.00000000E+00
  0.00000000E+00  0.00000000E+00  0.00000000E+00
  0.00000000E+00  0.00000000E+00  0.00000000E+00
  0.00000000E+00  0.00000000E+00  0.00000000E+00
  0.00000000E+00  0.00000000E+00  0.00000000E+00
  0.00000000E+00  0.00000000E+00  0.00000000E+00
  0.00000000E+00  0.00000000E+00  0.00000000E+00
  0.00000000E+00  0.00000000E+00  0.00000000E+00
  0.00000000E+00  0.00000000E+00  0.00000000E+00
  0.00000000E+00  0.00000000E+00  0.00000000E+00
  0.00000000E+00  0.00000000E+00  0.00000000E+00
  0.00000000E+00  0.00000000E+00  0.00000000E+00
  0.00000000E+00  0.00000000E+00  0.00000000E+00
  0.00000000E+00  0.00000000E+00  0.00000000E+00
  0.00000000E+00  0.00000000E+00  0.00000000E+00
  0.00000000E+00  0.00000000E+00  0.00000000E+00
  0.00000000E+00  0.00000000E+00  0.00000000E+00
  0.00000000E+00  0.00000000E+00  0.00000000E+00
  0.00000000E+00  0.00000000E+00  0.00000000E+00
  0.00000000E+00  0.00000000E+00  0.00000000E+00
  0.00000000E+00  0.00000000E+00  0.00000000E+00
  0.00000000E+00  0.00000000E+00  0.00000000E+00
  0.00000000E+00  0.00000000E+00  0.00000000E+00
  0.00000000E+00  0.00000000E+00  0.00000000E+00
  0.00000000E+00  0.00000000E+00  0.00000000E+00
  0.00000000E+00  0.00000000E+00  0.00000000E+00
  0.00000000E+00  0.00000000E+00  0.00000000E+00
  0.00000000E+00  0.00000000E+00  0.00000000E+00
  0.00000000E+00  0.00000000E+00  0.00000000E+00
  0.00000000E+00  0.00000000E+00  0.00000000E+00
  0.00000000E+00  0.00000000E+00  0.00000000E+00
  0.00000000E+00  0.00000000E+00  0.00000000E+00
  0.00000000E+00  0.00000000E+00  0.00000000E+00
  0.00000000E+00  0.00000000E+00  0.00000000E+00
  0.00000000E+00  0.00000000E+00  0.00000000E+00
  0.00000000E+00  0.00000000E+00  0.00000000E+00
  0.00000000E+00  0.00000000E+00  0.00000000E+00
  0.00000000E+00  0.00000000E+00  0.00000000E+00
  0.00000000E+00  0.00000000E+00  0.00000000E+00
  0.00000000E+00  0.00000000E+00  0.00000000E+00
  0.00000000E+00  0.00000000E+00  0.00000000E+00
  0.00000000E+00  0.00000000E+00  0.00000000E+00
  0.00000000E+00  0.00000000E+00  0.00000000E+00
  0.00000000E+00  0.00000000E+00  0.00000000E+00
  0.00000000E+00  0.00000000E+00  0.00000000E+00
  0.00000000E+00  0.00000000E+00  0.00000000E+00
  0.00000000E+00  0.00000000E+00  0.00000000E+00
  0.00000000E+00  0.00000000E+00  0.00000000E+00
  0.00000000E+00  0.00000000E+00  0.00000000E+00
