CONTCAR\(2)                             
   1.00000000000000     
    13.8427000045999993    0.0000000000000000    0.0000000000000000
    -6.9212999344000004   11.9880431408000003    0.0000000000000000
     0.0000000000000000    0.0000000000000000   18.3542995453000017
   Ta   Se   O 
    16    32     1
Direct
  0.9976929659961442  0.9916819923783606  0.4990846312108843
  0.2466311298652002  0.9932790780877099  0.4988432299399150
  0.4939426798697326  0.9917524048068032  0.4991568140477511
  0.7476829735262029  0.9954430025696510  0.5005787210869599
  0.9963652801254881  0.2462926175457625  0.5007384399175479
  0.2474935153508468  0.2413964798655783  0.5011331217803630
  0.4938785569460720  0.2413911854077355  0.5011930384134473
  0.7499234464049351  0.2462883311836208  0.5007681538844935
  0.0009318945938901  0.5018434050537692  0.5011564159774338
  0.2497014736686438  0.5028753558896923  0.5035931582177184
  0.5036366273811907  0.5073927728189460  0.5173212166035910
  0.7531372208786635  0.5028327938922672  0.5036257110659932
  0.9999395116959349  0.7520070081917325  0.4997264944584856
  0.2520494307270482  0.7520020338648337  0.4997347129555010
  0.4950491899303984  0.7557647159442809  0.5016862530821697
  0.7607112471498709  0.7557399750454508  0.5016735780757884
  0.0816500342253974  0.1642703031934332  0.4094861082335370
  0.0791569798208585  0.1607316821250677  0.5906539556266495
  0.3321679902922980  0.1642978869235492  0.4073287033409514
  0.3299202554035858  0.1598984732959892  0.5931157596330863
  0.5826143805262944  0.1643594012374052  0.4095509662457957
  0.5816022585184797  0.1607713952255239  0.5907090727853088
  0.8316139808226950  0.1632421627821685  0.4087904555594974
  0.8317616314472502  0.1634430467626515  0.5926872233729767
  0.0832385423999895  0.4143339208134904  0.4109369195629711
  0.0798657994683509  0.4134098444872691  0.5925460455006899
  0.3379640752710458  0.4176316208906456  0.4182830361233059
  0.3158866921290198  0.4024509732703905  0.5938257321303624
  0.5795624998083468  0.4176878877861796  0.4183525390662766
  0.5865330736987389  0.4024745774553935  0.5938679042597315
  0.8311029459643891  0.4143140995755488  0.4109647572266155
  0.8336150040003787  0.4134142378312404  0.5925662682371851
  0.0825966136002165  0.6652296470461678  0.4090527096770700
  0.0834901695196066  0.6669815579948022  0.5914154534896241
  0.3326279869838729  0.6635817367973118  0.4089630064205281
  0.3328718820398819  0.6666014769353126  0.5947359591037724
  0.5817375755071197  0.6635236825204487  0.4184880329061826
  0.6052227527629768  0.7103968610613833  0.6016406101580145
  0.8309103257341519  0.6635289986128754  0.4089719990017571
  0.8337268190208320  0.6665811242095785  0.5947322909004100
  0.0828375776949173  0.9140077404643705  0.4058078236501359
  0.0837259236941179  0.9151011518739054  0.5926977497892381
  0.3311400864054761  0.9140028487098988  0.4058239702133122
  0.3312947026289379  0.9150770920509430  0.5927063239064907
  0.5840420310981074  0.9159386127595681  0.4072034644066136
  0.5837421425982257  0.9219685760667460  0.5939667644198252
  0.8317317399881645  0.9158878496298115  0.4071670216660834
  0.8381752476212228  0.9219196980889635  0.5939546387905779
  0.5295319691948563  0.5591560269757636  0.6214334948773867
 
  0.00000000E+00  0.00000000E+00  0.00000000E+00
  0.00000000E+00  0.00000000E+00  0.00000000E+00
  0.00000000E+00  0.00000000E+00  0.00000000E+00
  0.00000000E+00  0.00000000E+00  0.00000000E+00
  0.00000000E+00  0.00000000E+00  0.00000000E+00
  0.00000000E+00  0.00000000E+00  0.00000000E+00
  0.00000000E+00  0.00000000E+00  0.00000000E+00
  0.00000000E+00  0.00000000E+00  0.00000000E+00
  0.00000000E+00  0.00000000E+00  0.00000000E+00
  0.00000000E+00  0.00000000E+00  0.00000000E+00
  0.00000000E+00  0.00000000E+00  0.00000000E+00
  0.00000000E+00  0.00000000E+00  0.00000000E+00
  0.00000000E+00  0.00000000E+00  0.00000000E+00
  0.00000000E+00  0.00000000E+00  0.00000000E+00
  0.00000000E+00  0.00000000E+00  0.00000000E+00
  0.00000000E+00  0.00000000E+00  0.00000000E+00
  0.00000000E+00  0.00000000E+00  0.00000000E+00
  0.00000000E+00  0.00000000E+00  0.00000000E+00
  0.00000000E+00  0.00000000E+00  0.00000000E+00
  0.00000000E+00  0.00000000E+00  0.00000000E+00
  0.00000000E+00  0.00000000E+00  0.00000000E+00
  0.00000000E+00  0.00000000E+00  0.00000000E+00
  0.00000000E+00  0.00000000E+00  0.00000000E+00
  0.00000000E+00  0.00000000E+00  0.00000000E+00
  0.00000000E+00  0.00000000E+00  0.00000000E+00
  0.00000000E+00  0.00000000E+00  0.00000000E+00
  0.00000000E+00  0.00000000E+00  0.00000000E+00
  0.00000000E+00  0.00000000E+00  0.00000000E+00
  0.00000000E+00  0.00000000E+00  0.00000000E+00
  0.00000000E+00  0.00000000E+00  0.00000000E+00
  0.00000000E+00  0.00000000E+00  0.00000000E+00
  0.00000000E+00  0.00000000E+00  0.00000000E+00
  0.00000000E+00  0.00000000E+00  0.00000000E+00
  0.00000000E+00  0.00000000E+00  0.00000000E+00
  0.00000000E+00  0.00000000E+00  0.00000000E+00
  0.00000000E+00  0.00000000E+00  0.00000000E+00
  0.00000000E+00  0.00000000E+00  0.00000000E+00
  0.00000000E+00  0.00000000E+00  0.00000000E+00
  0.00000000E+00  0.00000000E+00  0.00000000E+00
  0.00000000E+00  0.00000000E+00  0.00000000E+00
  0.00000000E+00  0.00000000E+00  0.00000000E+00
  0.00000000E+00  0.00000000E+00  0.00000000E+00
  0.00000000E+00  0.00000000E+00  0.00000000E+00
  0.00000000E+00  0.00000000E+00  0.00000000E+00
  0.00000000E+00  0.00000000E+00  0.00000000E+00
  0.00000000E+00  0.00000000E+00  0.00000000E+00
  0.00000000E+00  0.00000000E+00  0.00000000E+00
  0.00000000E+00  0.00000000E+00  0.00000000E+00
  0.00000000E+00  0.00000000E+00  0.00000000E+00
