CONTCAR\(15)                            
   1.00000000000000     
    11.8485002518000009    0.0000000000000000    0.0000000000000000
    -1.9747488887000000   10.7919135847999996    0.0000000000000000
     0.0000000000000000    0.0000000000000000   24.1044006348000011
   Er   I    O 
    18    21     1
Direct
  0.1264815521719550  0.7729559157005291  0.4787784817901382
  0.0761241584305935  0.4451333368437248  0.4469217983630887
  0.2753962034327417  0.6577210192153083  0.3737120324011398
  0.2617672280512329  0.5577103313692434  0.5496312206962550
  0.0508545114778092  0.3413484209635034  0.6246419971161871
  0.2099655546858564  0.2296375948008003  0.5168213505732949
  0.4631445662762751  0.7728812719462665  0.4794934067148914
  0.4081862191476042  0.4453702408137099  0.4443895688962235
  0.6106748439721212  0.6583625038777176  0.3727872795826815
  0.5913172841176951  0.5576082286242351  0.5500524754985250
  0.3835039209701692  0.2990234720717751  0.6858431781889185
  0.5346287628702521  0.2296043097197865  0.5167642460852863
  0.7967834815143648  0.7733153775601846  0.4780814493550065
  0.7385298832045932  0.4460827262769915  0.4465030011883053
  0.9424249655062297  0.6568360209951609  0.3736195858505339
  0.9251555783007743  0.5534911429696562  0.5503814467925473
  0.7300231586578551  0.3410830944864646  0.6250407835994891
  0.8711029993283093  0.2290635256966478  0.5172524236427761
  0.2433010440380168  0.5061173654327995  0.6839857390257184
  0.1448557158939429  0.8716377216175959  0.3567670276827603
  0.1782880950188962  0.1236796655633505  0.6361748513128415
  0.0836344336012757  0.5018782196145759  0.3086033394823370
  0.1255105653827747  0.7580794467953897  0.6017125581530109
  0.0007102111897609  0.0030930058261746  0.4963659454487486
  0.2069261807654609  0.2425089447579309  0.3937084573051254
  0.5929460768894284  0.5063208739514540  0.6843124603895475
  0.4780449846426131  0.8720147114627236  0.3570712746002519
  0.5299976470529449  0.1234071597736591  0.6362117334582529
  0.4169033290131285  0.5029349893422475  0.3081961795983205
  0.4592856877900987  0.7558691674451232  0.6032193267175682
  0.3334980674652211  0.0001105214626044  0.4992358350384907
  0.5413766955790834  0.2423931537636998  0.3937147497391472
  0.9170405375762590  0.5006232337386289  0.6894632184129765
  0.8123481838880772  0.8720216507131218  0.3555002715394868
  0.8544706961402063  0.1244262405790195  0.6401814159465424
  0.7501432962262591  0.5015165592786053  0.3082182292149813
  0.7939512968077351  0.7592051489045137  0.6011635910310661
  0.6671157609295325  0.0018543604165715  0.4964803564653206
  0.8745058888951017  0.2458461948295615  0.3937248202606327
  0.3738211080977510  0.2426040947989439  0.7586028978416061
 
  0.00000000E+00  0.00000000E+00  0.00000000E+00
  0.00000000E+00  0.00000000E+00  0.00000000E+00
  0.00000000E+00  0.00000000E+00  0.00000000E+00
  0.00000000E+00  0.00000000E+00  0.00000000E+00
  0.00000000E+00  0.00000000E+00  0.00000000E+00
  0.00000000E+00  0.00000000E+00  0.00000000E+00
  0.00000000E+00  0.00000000E+00  0.00000000E+00
  0.00000000E+00  0.00000000E+00  0.00000000E+00
  0.00000000E+00  0.00000000E+00  0.00000000E+00
  0.00000000E+00  0.00000000E+00  0.00000000E+00
  0.00000000E+00  0.00000000E+00  0.00000000E+00
  0.00000000E+00  0.00000000E+00  0.00000000E+00
  0.00000000E+00  0.00000000E+00  0.00000000E+00
  0.00000000E+00  0.00000000E+00  0.00000000E+00
  0.00000000E+00  0.00000000E+00  0.00000000E+00
  0.00000000E+00  0.00000000E+00  0.00000000E+00
  0.00000000E+00  0.00000000E+00  0.00000000E+00
  0.00000000E+00  0.00000000E+00  0.00000000E+00
  0.00000000E+00  0.00000000E+00  0.00000000E+00
  0.00000000E+00  0.00000000E+00  0.00000000E+00
  0.00000000E+00  0.00000000E+00  0.00000000E+00
  0.00000000E+00  0.00000000E+00  0.00000000E+00
  0.00000000E+00  0.00000000E+00  0.00000000E+00
  0.00000000E+00  0.00000000E+00  0.00000000E+00
  0.00000000E+00  0.00000000E+00  0.00000000E+00
  0.00000000E+00  0.00000000E+00  0.00000000E+00
  0.00000000E+00  0.00000000E+00  0.00000000E+00
  0.00000000E+00  0.00000000E+00  0.00000000E+00
  0.00000000E+00  0.00000000E+00  0.00000000E+00
  0.00000000E+00  0.00000000E+00  0.00000000E+00
  0.00000000E+00  0.00000000E+00  0.00000000E+00
  0.00000000E+00  0.00000000E+00  0.00000000E+00
  0.00000000E+00  0.00000000E+00  0.00000000E+00
  0.00000000E+00  0.00000000E+00  0.00000000E+00
  0.00000000E+00  0.00000000E+00  0.00000000E+00
  0.00000000E+00  0.00000000E+00  0.00000000E+00
  0.00000000E+00  0.00000000E+00  0.00000000E+00
  0.00000000E+00  0.00000000E+00  0.00000000E+00
  0.00000000E+00  0.00000000E+00  0.00000000E+00
  0.00000000E+00  0.00000000E+00  0.00000000E+00
