CONTCAR\(12)                            
   1.00000000000000     
    10.8522996902000006    0.0000000000000000    0.0000000000000000
     0.0000000000000000   12.1091003417999996    0.0000000000000000
     0.0000000000000000    0.0000000000000000   21.5909996032999985
   Ag   Ir   F    O 
     8     8    56     1
Direct
  0.1141825042059793  0.4366289375653525  0.4546248414839878
  0.9628462007935883  0.1888992137911606  0.5015060301977758
  0.5721426447845281  0.4571620078794663  0.4817659884075818
  0.5471810615410119  0.1687286650066624  0.5561056998329430
  0.8232352739183827  0.9305476645910303  0.5520947926595317
  0.9557567772666347  0.6734630552916406  0.5051217693352832
  0.4556447451030394  0.9061672868521157  0.5375287925612209
  0.6268087465776356  0.7583570705991756  0.4181733637881839
  0.2548893905883958  0.0776089495759719  0.4153020380338363
  0.2662978378436879  0.3431118308233327  0.6059762138400059
  0.7388940071887091  0.0507378159782823  0.3969321616081972
  0.7935425132490632  0.3897702644005450  0.6085234829792187
  0.3424718684207448  0.5549034559852770  0.3431820385924705
  0.1430591618444784  0.8411972166140516  0.6081231824230590
  0.8269622343637669  0.5261610771491348  0.3514999520682762
  0.6303152491949632  0.7546370912385256  0.6677177647801132
  0.3363117969144038  0.4342713396784413  0.5432462252191609
  0.2053599781762155  0.4682604942367342  0.6470962066116488
  0.3255205589177231  0.2166631582364702  0.5622310918121713
  0.1951664044544442  0.2498052900454335  0.6655044904546049
  0.3555538011757869  0.0588195840450425  0.3455574610062680
  0.0457600291394598  0.2826334218027383  0.4344879413613413
  0.2895652266606251  0.2303814731903924  0.4164709444184974
  0.4261966435546942  0.4331192577698420  0.3098546207877372
  0.1166785613195085  0.0995974975347068  0.3643663237663104
  0.1544107401621370  0.0917982289553826  0.4882469065583367
  0.8705388020401307  0.0957891663695958  0.5662421861564372
  0.3957043346924369  0.0568462294063394  0.4689409473730272
  0.4162295723973096  0.3459341572100632  0.6503979602686636
  0.1181972011744753  0.3387298604384600  0.5559611975185028
  0.9063374087369991  0.5053315834879873  0.5877458326508653
  0.7682676861691640  0.4560963569084703  0.6953932618281505
  0.8141434183940393  0.3345993730513854  0.5258197611448385
  0.6765702647088293  0.2755251103528863  0.6283794083627591
  0.8261477747228584  0.0752131320278489  0.3230988086549328
  0.5571798062506604  0.2898971899988062  0.4895813581831910
  0.7879211861025854  0.1916073068329575  0.4275259734709932
  0.8815082697961578  0.3805744936600751  0.3392335576268241
  0.5948246219834352  0.1115365509305976  0.3632702257793106
  0.6564747368946491  0.0201646172352676  0.4752703548824385
  0.5084560982678644  0.0239897521215141  0.6033112105281986
  0.8827099487030821  0.9897771048189704  0.4359131914797365
  0.9235656224808864  0.3034335275556843  0.6399971171860920
  0.6569542317567951  0.4782831536511917  0.5792312333722432
  0.2220447804628571  0.9798324412920416  0.5995652663414704
 -0.0032519679895594  0.9069633305514009  0.6393722992475641
  0.2875538791807931  0.7763351450218071  0.5733011183620252
  0.0633533181751973  0.7013426966341481  0.6121890506641603
  0.4870168420578153  0.6425804487912911  0.3348356482417369
  0.7985038819114674  0.7732943894046875  0.5110940667998034
  0.2591323368884694  0.6744513045137589  0.3793054599247490
  0.2240672854951784  0.9248696400903786  0.4174673635660181
  0.2897087438504959  0.5999476707387262  0.2642950243625011
  0.1980330624958316  0.4649610964784022  0.3533157942256803
  0.1222649255487839  0.5944292476732657  0.4899624420522958
  0.3890506797488716  0.5057914703389449  0.4248864482330309
  0.2095564891127496  0.8256863593372760  0.6878649520416218
  0.0697844190910747  0.8542461395484543  0.5271226953395559
  0.5669456400525998  0.7559872362684440  0.5846688454079331
  0.4916120991847989  0.8356869455455279  0.6931316797902226
  0.7702181370392248  0.6763710630035378  0.6397074903580359
  0.6951292465870733  0.7539606464979898  0.7483660170932354
  0.9834242085463876  0.5813730284444268  0.3297840749537678
  0.4636995077960644  0.8193393988162255  0.4547187100924123
  0.7790289197880805  0.6793876410145776  0.3656700086340973
  0.6895596076434616  0.9062786380488317  0.3661510913956706
  0.7707309602485005  0.5348717473374515  0.2694282777307173
  0.6683890955476690  0.4734733175297750  0.3764638246438177
  0.6008388832375366  0.6207432589914883  0.4725234122592059
  0.8806309736068786  0.5197739158735518  0.4372479430595484
  0.7151124559951988  0.8895339333600919  0.6489954861762158
  0.5468455489853319  0.6215567585286703  0.6839778549632269
  0.7643516080792512  0.3807111234298599  0.7468039179847382
 
  0.00000000E+00  0.00000000E+00  0.00000000E+00
  0.00000000E+00  0.00000000E+00  0.00000000E+00
  0.00000000E+00  0.00000000E+00  0.00000000E+00
  0.00000000E+00  0.00000000E+00  0.00000000E+00
  0.00000000E+00  0.00000000E+00  0.00000000E+00
  0.00000000E+00  0.00000000E+00  0.00000000E+00
  0.00000000E+00  0.00000000E+00  0.00000000E+00
  0.00000000E+00  0.00000000E+00  0.00000000E+00
  0.00000000E+00  0.00000000E+00  0.00000000E+00
  0.00000000E+00  0.00000000E+00  0.00000000E+00
  0.00000000E+00  0.00000000E+00  0.00000000E+00
  0.00000000E+00  0.00000000E+00  0.00000000E+00
  0.00000000E+00  0.00000000E+00  0.00000000E+00
  0.00000000E+00  0.00000000E+00  0.00000000E+00
  0.00000000E+00  0.00000000E+00  0.00000000E+00
  0.00000000E+00  0.00000000E+00  0.00000000E+00
  0.00000000E+00  0.00000000E+00  0.00000000E+00
  0.00000000E+00  0.00000000E+00  0.00000000E+00
  0.00000000E+00  0.00000000E+00  0.00000000E+00
  0.00000000E+00  0.00000000E+00  0.00000000E+00
  0.00000000E+00  0.00000000E+00  0.00000000E+00
  0.00000000E+00  0.00000000E+00  0.00000000E+00
  0.00000000E+00  0.00000000E+00  0.00000000E+00
  0.00000000E+00  0.00000000E+00  0.00000000E+00
  0.00000000E+00  0.00000000E+00  0.00000000E+00
  0.00000000E+00  0.00000000E+00  0.00000000E+00
  0.00000000E+00  0.00000000E+00  0.00000000E+00
  0.00000000E+00  0.00000000E+00  0.00000000E+00
  0.00000000E+00  0.00000000E+00  0.00000000E+00
  0.00000000E+00  0.00000000E+00  0.00000000E+00
  0.00000000E+00  0.00000000E+00  0.00000000E+00
  0.00000000E+00  0.00000000E+00  0.00000000E+00
  0.00000000E+00  0.00000000E+00  0.00000000E+00
  0.00000000E+00  0.00000000E+00  0.00000000E+00
  0.00000000E+00  0.00000000E+00  0.00000000E+00
  0.00000000E+00  0.00000000E+00  0.00000000E+00
  0.00000000E+00  0.00000000E+00  0.00000000E+00
  0.00000000E+00  0.00000000E+00  0.00000000E+00
  0.00000000E+00  0.00000000E+00  0.00000000E+00
  0.00000000E+00  0.00000000E+00  0.00000000E+00
  0.00000000E+00  0.00000000E+00  0.00000000E+00
  0.00000000E+00  0.00000000E+00  0.00000000E+00
  0.00000000E+00  0.00000000E+00  0.00000000E+00
  0.00000000E+00  0.00000000E+00  0.00000000E+00
  0.00000000E+00  0.00000000E+00  0.00000000E+00
  0.00000000E+00  0.00000000E+00  0.00000000E+00
  0.00000000E+00  0.00000000E+00  0.00000000E+00
  0.00000000E+00  0.00000000E+00  0.00000000E+00
  0.00000000E+00  0.00000000E+00  0.00000000E+00
  0.00000000E+00  0.00000000E+00  0.00000000E+00
  0.00000000E+00  0.00000000E+00  0.00000000E+00
  0.00000000E+00  0.00000000E+00  0.00000000E+00
  0.00000000E+00  0.00000000E+00  0.00000000E+00
  0.00000000E+00  0.00000000E+00  0.00000000E+00
  0.00000000E+00  0.00000000E+00  0.00000000E+00
  0.00000000E+00  0.00000000E+00  0.00000000E+00
  0.00000000E+00  0.00000000E+00  0.00000000E+00
  0.00000000E+00  0.00000000E+00  0.00000000E+00
  0.00000000E+00  0.00000000E+00  0.00000000E+00
  0.00000000E+00  0.00000000E+00  0.00000000E+00
  0.00000000E+00  0.00000000E+00  0.00000000E+00
  0.00000000E+00  0.00000000E+00  0.00000000E+00
  0.00000000E+00  0.00000000E+00  0.00000000E+00
  0.00000000E+00  0.00000000E+00  0.00000000E+00
  0.00000000E+00  0.00000000E+00  0.00000000E+00
  0.00000000E+00  0.00000000E+00  0.00000000E+00
  0.00000000E+00  0.00000000E+00  0.00000000E+00
  0.00000000E+00  0.00000000E+00  0.00000000E+00
  0.00000000E+00  0.00000000E+00  0.00000000E+00
  0.00000000E+00  0.00000000E+00  0.00000000E+00
  0.00000000E+00  0.00000000E+00  0.00000000E+00
  0.00000000E+00  0.00000000E+00  0.00000000E+00
  0.00000000E+00  0.00000000E+00  0.00000000E+00
