CONTCAR                                 
   1.00000000000000     
    13.4069995879999997    0.0000000000000000    0.0000000000000000
     0.0000000000000000   14.7997999190999998    0.0000000000000000
     0.0000000000000000    0.0000000000000000   22.4342994689999990
   Ta   S    O    H 
    24    72     2     1
Direct
  0.1853667323520156  0.0825908713448484  0.4386023121717528
  0.0608121439635383  0.9094314228700924  0.5584079554898622
  0.1863448723139811  0.7517152879470714  0.4245668929785467
  0.0602287234803924  0.2405724080688216  0.5727524665844115
  0.1895582609933868  0.4997509357946655  0.5872533746543027
  0.0619702070669277  0.4906451544276678  0.4196818852601041
  0.4362179709424794  0.0826890164389411  0.4387123647927567
  0.3107333768981135  0.9098128937259276  0.5575168476712093
  0.4349478927955559  0.7517944392177398  0.4243543331784494
  0.3102588917775293  0.2399911943669295  0.5732999056854382
  0.4331528168737862  0.5001634268241730  0.5862485397308177
  0.3106206694614428  0.4909476608520933  0.4198365841906053
  0.6860810153498278  0.0819291538266285  0.4389748302133611
  0.5606969351818947  0.9092360429091997  0.5583265698365878
  0.6854387788502834  0.7498893089526177  0.4255890253525649
  0.5611403962717105  0.2405230206048046  0.5728863633676440
  0.6863614182856992  0.4995773824148202  0.5825396927455557
  0.5596057911540697  0.4906104698034568  0.4192664136042481
  0.9353113455368387  0.0819160576796705  0.4390200205878472
  0.8106018160948736  0.9093040037217150  0.5587983450057479
  0.9359943335336709  0.7498526022461718  0.4257644335398112
  0.8104674148939210  0.2406983924239654  0.5732122774275439
  0.9339672258439222  0.4992927622264745  0.5825915845603689
  0.8107026585282853  0.4903598169028172  0.4187335615625329
  0.1852218840325222  0.9174965519939065  0.4749935407668744
  0.0608403997171933  0.0750261455301953  0.5216471860654153
  0.1860675836233483  0.9738004948817434  0.6305904827984534
  0.0602504716220480  0.0174087587154759  0.3662136338429747
  0.1864821833451131  0.8273024739726438  0.6214752746754399
  0.0601525099448210  0.1633724420894183  0.3745574506859910
  0.1851852380460670  0.1504443947922027  0.6289910613825569
  0.0596959129775954  0.8387077630688395  0.3682209634604163
  0.1845582445790086  0.3367330873377554  0.6266469544010036
  0.0611958330830191  0.6495553065002539  0.3738033900210169
  0.1855690328000321  0.2399727097230127  0.4884030750368993
  0.0614544821678749  0.7515670483525128  0.5096463211421707
  0.1859776076906599  0.4756924363330342  0.3358727555508665
  0.0584522950697206  0.5139980335133814  0.6672979289982095
  0.1861226000732898  0.5758087919268746  0.4800884994454151
  0.0624737573176120  0.4141259777677604  0.5243059957300957
  0.1861472699081830  0.3677657371236904  0.3963351638197494
  0.0611045097993070  0.6208687766811920  0.6066197225378929
  0.4362279927017028  0.9176141584645805  0.4750197121263966
  0.3106916426509088  0.0753011953672598  0.5213633553020784
  0.4354309513741654  0.9728987250835743  0.6308430273175745
  0.3108689051684905  0.0185499109136842  0.3658418584014527
  0.4349229462601514  0.8270993860339289  0.6215232653402438
  0.3108697340836315  0.1643308651735040  0.3747926237491157
  0.4359952130091713  0.1508486221206198  0.6290954259070105
  0.3106016380449361  0.8396764187392733  0.3666771155353032
  0.4365484376531725  0.3378801687731610  0.6265770419262680
  0.3105594528690148  0.6500273244480326  0.3732296513218216
  0.4358570145847835  0.2400932113942886  0.4886520954971942
  0.3108157991570764  0.7550009253495844  0.5066480110002871
  0.4352255085886725  0.4753129001586345  0.3357644387144347
  0.3095463585217786  0.5001641186266070  0.6747707020019789
  0.4356741526265608  0.5759095931354281  0.4797084921556518
  0.3105391682761933  0.4122363418512123  0.5245566605232028
  0.4351068512460898  0.3676851526150386  0.3964911667132611
  0.3116418166121591  0.6203595269538269  0.6023485500773944
  0.6859737421972554  0.9164165438836207  0.4757328955222064
  0.5607909915961145  0.0749429104089998  0.5217441021502793
  0.6853389987740925  0.9736764619875728  0.6313555093572845
  0.5611224047802921  0.0176265585956727  0.3661474836070795
  0.6853783085120995  0.8279989434790593  0.6229182381091221
  0.5612641712382569  0.1635070780659689  0.3745334097711748
  0.6857289325858034  0.1516091788685259  0.6294174283852598
  0.5617261209522511  0.8388989423760904  0.3681045429561252
  0.6857907232179272  0.3398367551565471  0.6268297944121741
  0.5603095024727409  0.6497116816903201  0.3735083278081888
  0.6859110983764509  0.2399390893486668  0.4884512627161683
  0.5598723037734672  0.7516260262149785  0.5093592936128246
  0.6853561970483497  0.4755401613729475  0.3354511692156521
  0.5616543791347155  0.5160027561316056  0.6672418048487430
  0.6857564891377095  0.5769592879033354  0.4784737425976147
  0.5592176274715825  0.4139533938720064  0.5236988554706841
  0.6851940417535900  0.3679044393962698  0.3960545309473815
  0.5607962373153015  0.6219870410336412  0.6058599321982072
  0.9355165818995772  0.9164374167043690  0.4758878737011614
  0.8106286094766162  0.0748139874775688  0.5219980684678660
  0.9359627289675529  0.9742065211134090  0.6311663994535834
  0.8107723985615181  0.0167427998403227  0.3663580800710591
  0.9360595141554384  0.8282257647887121  0.6228912363477050
  0.8107715153223793  0.1627555287674625  0.3743764989556340
  0.9355252684593012  0.1518076408056785  0.6293496675150934
  0.8107620173198953  0.8380790679525063  0.3688852014917998
  0.9348944881366350  0.3395925147615912  0.6267913470857280
  0.8108296067195653  0.6496565871391695  0.3734145579340193
  0.9353430802008944  0.2399718421840475  0.4884885066937841
  0.8106437239274982  0.7512811889521629  0.5101072829369500
  0.9364034878104590  0.4754552131000480  0.3357421589899658
  0.8101928357535186  0.5154882785817847  0.6664603783644196
  0.9355612198837662  0.5769998757757406  0.4786696176959850
  0.8105164432665930  0.4128284079667139  0.5223474577849316
  0.9363688716487175  0.3679152483545209  0.3964308414373861
  0.8106024045062270  0.6230203231030487  0.6061028806624407
  0.2992171347292043  0.4003699233442788  0.7210131253889926
  0.3863962949905400  0.3999189992171637  0.7601111610105704
  0.4272525592558480  0.3544874261864308  0.7391058861605444
 
  0.00000000E+00  0.00000000E+00  0.00000000E+00
  0.00000000E+00  0.00000000E+00  0.00000000E+00
  0.00000000E+00  0.00000000E+00  0.00000000E+00
  0.00000000E+00  0.00000000E+00  0.00000000E+00
  0.00000000E+00  0.00000000E+00  0.00000000E+00
  0.00000000E+00  0.00000000E+00  0.00000000E+00
  0.00000000E+00  0.00000000E+00  0.00000000E+00
  0.00000000E+00  0.00000000E+00  0.00000000E+00
  0.00000000E+00  0.00000000E+00  0.00000000E+00
  0.00000000E+00  0.00000000E+00  0.00000000E+00
  0.00000000E+00  0.00000000E+00  0.00000000E+00
  0.00000000E+00  0.00000000E+00  0.00000000E+00
  0.00000000E+00  0.00000000E+00  0.00000000E+00
  0.00000000E+00  0.00000000E+00  0.00000000E+00
  0.00000000E+00  0.00000000E+00  0.00000000E+00
  0.00000000E+00  0.00000000E+00  0.00000000E+00
  0.00000000E+00  0.00000000E+00  0.00000000E+00
  0.00000000E+00  0.00000000E+00  0.00000000E+00
  0.00000000E+00  0.00000000E+00  0.00000000E+00
  0.00000000E+00  0.00000000E+00  0.00000000E+00
  0.00000000E+00  0.00000000E+00  0.00000000E+00
  0.00000000E+00  0.00000000E+00  0.00000000E+00
  0.00000000E+00  0.00000000E+00  0.00000000E+00
  0.00000000E+00  0.00000000E+00  0.00000000E+00
  0.00000000E+00  0.00000000E+00  0.00000000E+00
  0.00000000E+00  0.00000000E+00  0.00000000E+00
  0.00000000E+00  0.00000000E+00  0.00000000E+00
  0.00000000E+00  0.00000000E+00  0.00000000E+00
  0.00000000E+00  0.00000000E+00  0.00000000E+00
  0.00000000E+00  0.00000000E+00  0.00000000E+00
  0.00000000E+00  0.00000000E+00  0.00000000E+00
  0.00000000E+00  0.00000000E+00  0.00000000E+00
  0.00000000E+00  0.00000000E+00  0.00000000E+00
  0.00000000E+00  0.00000000E+00  0.00000000E+00
  0.00000000E+00  0.00000000E+00  0.00000000E+00
  0.00000000E+00  0.00000000E+00  0.00000000E+00
  0.00000000E+00  0.00000000E+00  0.00000000E+00
  0.00000000E+00  0.00000000E+00  0.00000000E+00
  0.00000000E+00  0.00000000E+00  0.00000000E+00
  0.00000000E+00  0.00000000E+00  0.00000000E+00
  0.00000000E+00  0.00000000E+00  0.00000000E+00
  0.00000000E+00  0.00000000E+00  0.00000000E+00
  0.00000000E+00  0.00000000E+00  0.00000000E+00
  0.00000000E+00  0.00000000E+00  0.00000000E+00
  0.00000000E+00  0.00000000E+00  0.00000000E+00
  0.00000000E+00  0.00000000E+00  0.00000000E+00
  0.00000000E+00  0.00000000E+00  0.00000000E+00
  0.00000000E+00  0.00000000E+00  0.00000000E+00
  0.00000000E+00  0.00000000E+00  0.00000000E+00
  0.00000000E+00  0.00000000E+00  0.00000000E+00
  0.00000000E+00  0.00000000E+00  0.00000000E+00
  0.00000000E+00  0.00000000E+00  0.00000000E+00
  0.00000000E+00  0.00000000E+00  0.00000000E+00
  0.00000000E+00  0.00000000E+00  0.00000000E+00
  0.00000000E+00  0.00000000E+00  0.00000000E+00
  0.00000000E+00  0.00000000E+00  0.00000000E+00
  0.00000000E+00  0.00000000E+00  0.00000000E+00
  0.00000000E+00  0.00000000E+00  0.00000000E+00
  0.00000000E+00  0.00000000E+00  0.00000000E+00
  0.00000000E+00  0.00000000E+00  0.00000000E+00
  0.00000000E+00  0.00000000E+00  0.00000000E+00
  0.00000000E+00  0.00000000E+00  0.00000000E+00
  0.00000000E+00  0.00000000E+00  0.00000000E+00
  0.00000000E+00  0.00000000E+00  0.00000000E+00
  0.00000000E+00  0.00000000E+00  0.00000000E+00
  0.00000000E+00  0.00000000E+00  0.00000000E+00
  0.00000000E+00  0.00000000E+00  0.00000000E+00
  0.00000000E+00  0.00000000E+00  0.00000000E+00
  0.00000000E+00  0.00000000E+00  0.00000000E+00
  0.00000000E+00  0.00000000E+00  0.00000000E+00
  0.00000000E+00  0.00000000E+00  0.00000000E+00
  0.00000000E+00  0.00000000E+00  0.00000000E+00
  0.00000000E+00  0.00000000E+00  0.00000000E+00
  0.00000000E+00  0.00000000E+00  0.00000000E+00
  0.00000000E+00  0.00000000E+00  0.00000000E+00
  0.00000000E+00  0.00000000E+00  0.00000000E+00
  0.00000000E+00  0.00000000E+00  0.00000000E+00
  0.00000000E+00  0.00000000E+00  0.00000000E+00
  0.00000000E+00  0.00000000E+00  0.00000000E+00
  0.00000000E+00  0.00000000E+00  0.00000000E+00
  0.00000000E+00  0.00000000E+00  0.00000000E+00
  0.00000000E+00  0.00000000E+00  0.00000000E+00
  0.00000000E+00  0.00000000E+00  0.00000000E+00
  0.00000000E+00  0.00000000E+00  0.00000000E+00
  0.00000000E+00  0.00000000E+00  0.00000000E+00
  0.00000000E+00  0.00000000E+00  0.00000000E+00
  0.00000000E+00  0.00000000E+00  0.00000000E+00
  0.00000000E+00  0.00000000E+00  0.00000000E+00
  0.00000000E+00  0.00000000E+00  0.00000000E+00
  0.00000000E+00  0.00000000E+00  0.00000000E+00
  0.00000000E+00  0.00000000E+00  0.00000000E+00
  0.00000000E+00  0.00000000E+00  0.00000000E+00
  0.00000000E+00  0.00000000E+00  0.00000000E+00
  0.00000000E+00  0.00000000E+00  0.00000000E+00
  0.00000000E+00  0.00000000E+00  0.00000000E+00
  0.00000000E+00  0.00000000E+00  0.00000000E+00
  0.00000000E+00  0.00000000E+00  0.00000000E+00
  0.00000000E+00  0.00000000E+00  0.00000000E+00
  0.00000000E+00  0.00000000E+00  0.00000000E+00
