CONTCAR\(11)                            
   1.00000000000000     
    10.1990995407000007    0.0000000000000000    0.0000000000000000
     0.0000000000000000   15.1191997528000002    0.0000000000000000
     0.0000000000000000    0.0000000000000000   19.1068992615000006
   Ta   Ni   S    O 
    12     6    30     1
Direct
  0.0002513419905483  0.3578133192891784  0.5183263897019614
  0.1631279234178677  0.1429717436439759  0.4794012541797557
  0.1632935685861909  0.8580102599125965  0.4820213166977467
  0.0034520287388560  0.6439811114863545  0.5176549017454661
  0.3327025536545776  0.3580391045062399  0.5198542948864144
  0.4970246087990375  0.1438687582392575  0.4795669456013556
  0.4957422639701079  0.8611285256702388  0.4802390836018446
  0.3297087628929205  0.6430471738124055  0.5190036969733640
  0.6655230261444132  0.3606838220051145  0.5206433053216060
  0.8298367482694502  0.1438465306399550  0.4805346656621481
  0.8284746565616032  0.8595175481534767  0.4832390084418563
  0.6628133417022255  0.6438229477388759  0.5348697231280255
  0.9957937580345657  0.0004732950873745  0.4652165690489554
  0.1660973413433382  0.5000765410925609  0.5350735861523290
  0.3293909559302080  0.0014114501383986  0.4640078962603198
  0.4971800217782700  0.5008551961824281  0.5381671664776562
  0.6638816299606347  0.0022890637593918  0.4651150267473270
  0.8377834032988929  0.5043959361548289  0.5399249736145393
  0.1634721170676201  0.0009720842800363  0.5422302402290242
  0.9984571477835047  0.5002207432031298  0.4572021227680807
  0.9986082923015331  0.1999054317850337  0.5647778922019242
  0.1651837472107260  0.3018250689904391  0.4339853080747886
  0.1672122129872733  0.6990965905239719  0.4331988845117891
  0.9938477332762545  0.7998431097381911  0.5674865467024119
  0.1700315352307555  0.6140913219844037  0.6082513456199266
  0.9925149804187328  0.8845334721662539  0.3938353036246767
  0.9966296578873681  0.1144818655531665  0.3915178560053576
  0.1644238896504433  0.3859533559443875  0.6080837533734851
  0.4953633028237547  0.0028900601219917  0.5423795715644459
  0.3343128666172461  0.5007121351808550  0.4578769392291449
  0.3308076487506852  0.1997292945394591  0.5647144651263218
  0.4990017905292632  0.3033314634417792  0.4348518465845501
  0.5076075750389180  0.6997579070341189  0.4421600912467269
  0.3265027599541597  0.8021521847321225  0.5657523368801733
  0.4835105033573299  0.6131929467182786  0.6131694846176927
  0.3247005484435519  0.8858091857184363  0.3918448135295023
  0.3307354114078436  0.1157630820532560  0.3909168010885509
  0.4971145730128086  0.3848505850280972  0.6093454157171792
  0.8299208079259586  0.0026249421202138  0.5436232640076781
  0.6672916953414045  0.5054397808939015  0.4634130613912646
  0.6639767454911265  0.2004890229423211  0.5648120675921859
  0.8296729271512859  0.3033049079283856  0.4347774092857648
  0.8257974421844807  0.7003762905435238  0.4434700317608815
  0.6534061752005016  0.8096500180952120  0.5671738068781593
  0.8803119005249798  0.5957799963779351  0.6236992157289407
  0.6619158108568328  0.8872948825178426  0.3927930440431524
  0.6649536985723685  0.1156528873746439  0.3913443521314974
  0.8327571130984097  0.3843057570507824  0.6082129302953447
  0.7596689928292548  0.6679774029051515  0.6249202539467049
 
  0.00000000E+00  0.00000000E+00  0.00000000E+00
  0.00000000E+00  0.00000000E+00  0.00000000E+00
  0.00000000E+00  0.00000000E+00  0.00000000E+00
  0.00000000E+00  0.00000000E+00  0.00000000E+00
  0.00000000E+00  0.00000000E+00  0.00000000E+00
  0.00000000E+00  0.00000000E+00  0.00000000E+00
  0.00000000E+00  0.00000000E+00  0.00000000E+00
  0.00000000E+00  0.00000000E+00  0.00000000E+00
  0.00000000E+00  0.00000000E+00  0.00000000E+00
  0.00000000E+00  0.00000000E+00  0.00000000E+00
  0.00000000E+00  0.00000000E+00  0.00000000E+00
  0.00000000E+00  0.00000000E+00  0.00000000E+00
  0.00000000E+00  0.00000000E+00  0.00000000E+00
  0.00000000E+00  0.00000000E+00  0.00000000E+00
  0.00000000E+00  0.00000000E+00  0.00000000E+00
  0.00000000E+00  0.00000000E+00  0.00000000E+00
  0.00000000E+00  0.00000000E+00  0.00000000E+00
  0.00000000E+00  0.00000000E+00  0.00000000E+00
  0.00000000E+00  0.00000000E+00  0.00000000E+00
  0.00000000E+00  0.00000000E+00  0.00000000E+00
  0.00000000E+00  0.00000000E+00  0.00000000E+00
  0.00000000E+00  0.00000000E+00  0.00000000E+00
  0.00000000E+00  0.00000000E+00  0.00000000E+00
  0.00000000E+00  0.00000000E+00  0.00000000E+00
  0.00000000E+00  0.00000000E+00  0.00000000E+00
  0.00000000E+00  0.00000000E+00  0.00000000E+00
  0.00000000E+00  0.00000000E+00  0.00000000E+00
  0.00000000E+00  0.00000000E+00  0.00000000E+00
  0.00000000E+00  0.00000000E+00  0.00000000E+00
  0.00000000E+00  0.00000000E+00  0.00000000E+00
  0.00000000E+00  0.00000000E+00  0.00000000E+00
  0.00000000E+00  0.00000000E+00  0.00000000E+00
  0.00000000E+00  0.00000000E+00  0.00000000E+00
  0.00000000E+00  0.00000000E+00  0.00000000E+00
  0.00000000E+00  0.00000000E+00  0.00000000E+00
  0.00000000E+00  0.00000000E+00  0.00000000E+00
  0.00000000E+00  0.00000000E+00  0.00000000E+00
  0.00000000E+00  0.00000000E+00  0.00000000E+00
  0.00000000E+00  0.00000000E+00  0.00000000E+00
  0.00000000E+00  0.00000000E+00  0.00000000E+00
  0.00000000E+00  0.00000000E+00  0.00000000E+00
  0.00000000E+00  0.00000000E+00  0.00000000E+00
  0.00000000E+00  0.00000000E+00  0.00000000E+00
  0.00000000E+00  0.00000000E+00  0.00000000E+00
  0.00000000E+00  0.00000000E+00  0.00000000E+00
  0.00000000E+00  0.00000000E+00  0.00000000E+00
  0.00000000E+00  0.00000000E+00  0.00000000E+00
  0.00000000E+00  0.00000000E+00  0.00000000E+00
  0.00000000E+00  0.00000000E+00  0.00000000E+00
