 Nb4 Ni4 Te8                            
   1.00000000000000     
     6.2064196120071848    0.0000000000000000    0.0000000000000000
     0.0000000000000000    7.9074438532792559    0.0000000000000000
     0.0000000000000000    0.0000000000000000   19.7097812782650017
   Nb   Ni   Te
     4     4     8
Direct
  0.2500449474440956  0.9564911881718672  0.4999935286023813
  0.7499452126225989  0.0435148253559348  0.4999915017482550
  0.7499444137030125  0.4564861846663888  0.4999917116454569
  0.2500459058458304  0.5435083443853514  0.4999939194561449
  0.6070272580724705  0.7499997867713475  0.5442170195375482
  0.3930260602150426  0.2499982028113052  0.5442386791797986
  0.8931950809609432  0.7499997231628655  0.4558041756044631
  0.1068065984327404  0.2499991070827576  0.4558141828619355
  0.4976468234625386  0.7500001425106930  0.4151393400228329
  0.5023716724081453  0.2500013587134760  0.4151550400718591
  0.5000019606607111  0.9999845256845958  0.6192609848575970
  0.5000018401927946  0.5000161799994416  0.6192605692573565
  0.0025724052103300  0.7500000584236517  0.5848764874193506
  0.9973908917542218  0.2500016469764077  0.5848557182050911
  0.9999919868026126  0.0000092999535610  0.3807481719626509
  0.9999869422119048  0.4999894253303481  0.3807491489387616
 
  0.00000000E+00  0.00000000E+00  0.00000000E+00
  0.00000000E+00  0.00000000E+00  0.00000000E+00
  0.00000000E+00  0.00000000E+00  0.00000000E+00
  0.00000000E+00  0.00000000E+00  0.00000000E+00
  0.00000000E+00  0.00000000E+00  0.00000000E+00
  0.00000000E+00  0.00000000E+00  0.00000000E+00
  0.00000000E+00  0.00000000E+00  0.00000000E+00
  0.00000000E+00  0.00000000E+00  0.00000000E+00
  0.00000000E+00  0.00000000E+00  0.00000000E+00
  0.00000000E+00  0.00000000E+00  0.00000000E+00
  0.00000000E+00  0.00000000E+00  0.00000000E+00
  0.00000000E+00  0.00000000E+00  0.00000000E+00
  0.00000000E+00  0.00000000E+00  0.00000000E+00
  0.00000000E+00  0.00000000E+00  0.00000000E+00
  0.00000000E+00  0.00000000E+00  0.00000000E+00
  0.00000000E+00  0.00000000E+00  0.00000000E+00
