CONTCAR\(5)                             
   1.00000000000000     
    12.5545997620000005    0.0000000000000000    0.0000000000000000
     6.2753582318000003   10.8725691462000000    0.0000000000000000
     0.0000000000000000    0.0000000000000000   18.6128997803000011
   Ta   Se   O    H 
    13    26     1     1
Selective dynamics
Direct
  0.0053386858535589  0.9921478667886916  0.4989449391246268   F   F   F
  0.7950654024045605  0.9235040755432067  0.4978117127187360   F   F   F
  0.2178903223345685  0.0591492635467219  0.4981592320282076   F   F   F
  0.2883350742708899  0.7763709180245542  0.4998545564420169   F   F   F
  0.7258552360554731  0.2022466238479126  0.4983176168175021   F   F   F
  0.0768750066811279  0.7083922152272919  0.4999497352167097   F   F   F
  0.9381915755288119  0.2711584807586576  0.4979593331375156   F   F   F
  0.8502635757246821  0.6319734005683699  0.4994917658679299   F   F   F
  0.1546306876636407  0.3540196258819392  0.4969371542490180   F   F   F
  0.5195300897219965  0.8395077916999938  0.4999137058609264   F   F   F
  0.4943318691128269  0.1430386605183713  0.4979370871201425   F   F   F
  0.3693079727855562  0.4735442739576428  0.4976149766982729   F   F   F
  0.6456321918312184  0.5001275887471053  0.4984339006017677   F   F   F
  0.9542125610616807  0.8695603816291992  0.5970680178500487   F   F   F
  0.0569299332758817  0.1130703552112919  0.3994181757584556   F   F   F
  0.1793598947224169  0.9424911690663222  0.5970595337108975   F   F   F
  0.8342729008962451  0.0407035213566331  0.3990796896526732   F   F   F
  0.8826717748296602  0.1650329725123996  0.5972254278777100   F   F   F
  0.1300399406805042  0.8171345476006522  0.4011620996714385   F   F   F
  0.2559778537949526  0.6391912624835498  0.5875648962279030   F   F   F
  0.7576374362874603  0.3399726815888542  0.4030315417001944   F   F   F
  0.1078944672817457  0.2409289733576756  0.5926559657689054   F   F   F
  0.9046360242981279  0.7406971615301572  0.4048844851063222   F   F   F
  0.6553475146799101  0.0919182083439338  0.5932226742998097   F   F   F
  0.3584426181858618  0.8890535756344136  0.4046343826994558   F   F   F
  0.0339393984966136  0.5553382544620433  0.5815977918141044   F   F   F
  0.9754027941655679  0.4258807090964041  0.4144171576585336   F   F   F
  0.4111243902985251  0.0209397181738069  0.5817532583665326   F   F   F
  0.6010776729183149  0.9616649208919625  0.4156893987559087   F   F   F
  0.5723230013461702  0.3943686999980258  0.5819743963155943   F   F   F
  0.4421429182560885  0.5844891243007169  0.4153830301028734   F   F   F
  0.7173525023869445  0.7967011373126454  0.5840020208567722   F   F   F
  0.2951456149109219  0.1869163277033934  0.4146645932886770   F   F   F
  0.4931164903451943  0.7004215932131856  0.5831921614184239   F   F   F
  0.5216286334717921  0.2797198061620136  0.4126701733037663   F   F   F
  0.8104345666014510  0.4744308142260394  0.5822950260478663   F   F   F
  0.2012345973965779  0.5063876359763597  0.4132806007117154   F   F   F
  0.3396758335500749  0.3227255945897696  0.5821881795701174   F   F   F
  0.6726766325846611  0.6567801568177671  0.4147517304074171   F   F   F
  0.2678743434299378  0.6277487911361561  0.6899813657538374   T   T   T
  0.2129796718778464  0.7120110565141787  0.7060305667238432   T   T   T
 
  0.00000000E+00  0.00000000E+00  0.00000000E+00
  0.00000000E+00  0.00000000E+00  0.00000000E+00
  0.00000000E+00  0.00000000E+00  0.00000000E+00
  0.00000000E+00  0.00000000E+00  0.00000000E+00
  0.00000000E+00  0.00000000E+00  0.00000000E+00
  0.00000000E+00  0.00000000E+00  0.00000000E+00
  0.00000000E+00  0.00000000E+00  0.00000000E+00
  0.00000000E+00  0.00000000E+00  0.00000000E+00
  0.00000000E+00  0.00000000E+00  0.00000000E+00
  0.00000000E+00  0.00000000E+00  0.00000000E+00
  0.00000000E+00  0.00000000E+00  0.00000000E+00
  0.00000000E+00  0.00000000E+00  0.00000000E+00
  0.00000000E+00  0.00000000E+00  0.00000000E+00
  0.00000000E+00  0.00000000E+00  0.00000000E+00
  0.00000000E+00  0.00000000E+00  0.00000000E+00
  0.00000000E+00  0.00000000E+00  0.00000000E+00
  0.00000000E+00  0.00000000E+00  0.00000000E+00
  0.00000000E+00  0.00000000E+00  0.00000000E+00
  0.00000000E+00  0.00000000E+00  0.00000000E+00
  0.00000000E+00  0.00000000E+00  0.00000000E+00
  0.00000000E+00  0.00000000E+00  0.00000000E+00
  0.00000000E+00  0.00000000E+00  0.00000000E+00
  0.00000000E+00  0.00000000E+00  0.00000000E+00
  0.00000000E+00  0.00000000E+00  0.00000000E+00
  0.00000000E+00  0.00000000E+00  0.00000000E+00
  0.00000000E+00  0.00000000E+00  0.00000000E+00
  0.00000000E+00  0.00000000E+00  0.00000000E+00
  0.00000000E+00  0.00000000E+00  0.00000000E+00
  0.00000000E+00  0.00000000E+00  0.00000000E+00
  0.00000000E+00  0.00000000E+00  0.00000000E+00
  0.00000000E+00  0.00000000E+00  0.00000000E+00
  0.00000000E+00  0.00000000E+00  0.00000000E+00
  0.00000000E+00  0.00000000E+00  0.00000000E+00
  0.00000000E+00  0.00000000E+00  0.00000000E+00
  0.00000000E+00  0.00000000E+00  0.00000000E+00
  0.00000000E+00  0.00000000E+00  0.00000000E+00
  0.00000000E+00  0.00000000E+00  0.00000000E+00
  0.00000000E+00  0.00000000E+00  0.00000000E+00
  0.00000000E+00  0.00000000E+00  0.00000000E+00
  0.00000000E+00  0.00000000E+00  0.00000000E+00
  0.00000000E+00  0.00000000E+00  0.00000000E+00
