CONTCAR\(5)                             
   1.00000000000000     
    11.7456998825000003    0.0000000000000000    0.0000000000000000
     0.0000000000000000   17.6870002747000008    0.0000000000000000
     0.0000000000000000    0.0000000000000000   19.5771007537999999
   Ti   Ge   Te   O    H 
     6     6    36     1     1
Selective dynamics
Direct
  0.0874242814383095  0.4768052154207609  0.5135132593727221   F   F   F
  0.2518604162966156  0.9517798284785286  0.4863181974331852   F   F   F
  0.4229640018724723  0.4755179834312386  0.5128642952782414   F   F   F
  0.5853600813753204  0.9515758261876073  0.4856823776500718   F   F   F
  0.7515885126496755  0.4751851971061214  0.5127655634178865   F   F   F
  0.9183863196245809  0.9516731569382628  0.4863489860476307   F   F   F
  0.2525168466979224  0.8010470708841737  0.4781860721179285   F   F   F
  0.0862416949454001  0.6277445615033983  0.5224118290129454   F   F   F
  0.5856238258347801  0.8007746025200007  0.4784293900338739   F   F   F
  0.4199894867745400  0.6269408422555571  0.5225405379617030   F   F   F
  0.9182395261698488  0.8008215783531298  0.4781440971627191   F   F   F
  0.7524481288583544  0.6266504684405305  0.5225190430884012   F   F   F
  0.0849630659828193  0.9221140183539092  0.3800879617543274   F   F   F
  0.2534143674806515  0.2543877742128728  0.5753210414131331   F   F   F
  0.2517027921747967  0.0611016462290692  0.3796749801097832   F   F   F
  0.0849906978078465  0.8966574464898116  0.5831309621524596   F   F   F
  0.2535967911941839  0.5058748110729852  0.6199136234697278   F   F   F
  0.0875919663291498  0.3669203214035690  0.6194087238474424   F   F   F
  0.0850828834760406  0.1735367646348323  0.4225301890759354   F   F   F
  0.2519657840419001  0.7066383223037036  0.5903644128164132   F   F   F
  0.0857105781113106  0.7228622334483887  0.4102663693842459   F   F   F
  0.2541759654544364  0.3778544068449108  0.4582764603087952   F   F   F
  0.0850013037469850  0.0507185230589400  0.5410914721456450   F   F   F
  0.2548218746071385  0.5318880076587718  0.4166986716914991   F   F   F
  0.4185313305041163  0.9218331664866781  0.3796266020600996   F   F   F
  0.5866111786876473  0.2519360734637743  0.5829152944869946   F   F   F
  0.5852050119980063  0.0609999162136319  0.3789520655043503   F   F   F
  0.4187731459697872  0.8976274475931305  0.5833368593431913   F   F   F
  0.5872106228591818  0.5050463064077775  0.6199457879374037   F   F   F
  0.4176930849074196  0.3676036766661639  0.6199080586600871   F   F   F
  0.4197539539793027  0.1741110036643079  0.4217484908871398   F   F   F
  0.5864413192835229  0.7054058890841119  0.5904757521128516   F   F   F
  0.4194105758266957  0.7218444339355443  0.4108615398811111   F   F   F
  0.5873507397043909  0.3737189730026742  0.4553545994093398   F   F   F
  0.4190521229205615  0.0510933653933918  0.5401748235479218   F   F   F
  0.5870953736447078  0.5374204527049784  0.4207980267380478   F   F   F
  0.7522886762634258  0.9217801144574977  0.3795493397864789   F   F   F
  0.9214440518280398  0.2541386107665815  0.5757786261351754   F   F   F
  0.9184860891429949  0.0609704967021614  0.3796588117506303   F   F   F
  0.7516410387592174  0.8975922713516411  0.5834071313746847   F   F   F
  0.9204139678906316  0.5055365301291133  0.6198734872990102   F   F   F
  0.7573154819685541  0.3673167975307550  0.6200643014961500   F   F   F
  0.7508795860372288  0.1742298300896437  0.4217130811504646   F   F   F
  0.9203831952018433  0.7063306373403151  0.5904002950100562   F   F   F
  0.7519216779703868  0.7214131997375688  0.4108322696461428   F   F   F
  0.9213871204030752  0.3775779742572780  0.4584117817187163   F   F   F
  0.7512200042462425  0.0512064510467383  0.5401707717573956   F   F   F
  0.9197973669429942  0.5311734915709962  0.4165287198505183   F   F   F
  0.5833249268188467  0.1976611714872689  0.6751700665508906   T   T   T
  0.5870074742961294  0.2349409696851623  0.7112590738608729   T   T   T
 
  0.00000000E+00  0.00000000E+00  0.00000000E+00
  0.00000000E+00  0.00000000E+00  0.00000000E+00
  0.00000000E+00  0.00000000E+00  0.00000000E+00
  0.00000000E+00  0.00000000E+00  0.00000000E+00
  0.00000000E+00  0.00000000E+00  0.00000000E+00
  0.00000000E+00  0.00000000E+00  0.00000000E+00
  0.00000000E+00  0.00000000E+00  0.00000000E+00
  0.00000000E+00  0.00000000E+00  0.00000000E+00
  0.00000000E+00  0.00000000E+00  0.00000000E+00
  0.00000000E+00  0.00000000E+00  0.00000000E+00
  0.00000000E+00  0.00000000E+00  0.00000000E+00
  0.00000000E+00  0.00000000E+00  0.00000000E+00
  0.00000000E+00  0.00000000E+00  0.00000000E+00
  0.00000000E+00  0.00000000E+00  0.00000000E+00
  0.00000000E+00  0.00000000E+00  0.00000000E+00
  0.00000000E+00  0.00000000E+00  0.00000000E+00
  0.00000000E+00  0.00000000E+00  0.00000000E+00
  0.00000000E+00  0.00000000E+00  0.00000000E+00
  0.00000000E+00  0.00000000E+00  0.00000000E+00
  0.00000000E+00  0.00000000E+00  0.00000000E+00
  0.00000000E+00  0.00000000E+00  0.00000000E+00
  0.00000000E+00  0.00000000E+00  0.00000000E+00
  0.00000000E+00  0.00000000E+00  0.00000000E+00
  0.00000000E+00  0.00000000E+00  0.00000000E+00
  0.00000000E+00  0.00000000E+00  0.00000000E+00
  0.00000000E+00  0.00000000E+00  0.00000000E+00
  0.00000000E+00  0.00000000E+00  0.00000000E+00
  0.00000000E+00  0.00000000E+00  0.00000000E+00
  0.00000000E+00  0.00000000E+00  0.00000000E+00
  0.00000000E+00  0.00000000E+00  0.00000000E+00
  0.00000000E+00  0.00000000E+00  0.00000000E+00
  0.00000000E+00  0.00000000E+00  0.00000000E+00
  0.00000000E+00  0.00000000E+00  0.00000000E+00
  0.00000000E+00  0.00000000E+00  0.00000000E+00
  0.00000000E+00  0.00000000E+00  0.00000000E+00
  0.00000000E+00  0.00000000E+00  0.00000000E+00
  0.00000000E+00  0.00000000E+00  0.00000000E+00
  0.00000000E+00  0.00000000E+00  0.00000000E+00
  0.00000000E+00  0.00000000E+00  0.00000000E+00
  0.00000000E+00  0.00000000E+00  0.00000000E+00
  0.00000000E+00  0.00000000E+00  0.00000000E+00
  0.00000000E+00  0.00000000E+00  0.00000000E+00
  0.00000000E+00  0.00000000E+00  0.00000000E+00
  0.00000000E+00  0.00000000E+00  0.00000000E+00
  0.00000000E+00  0.00000000E+00  0.00000000E+00
  0.00000000E+00  0.00000000E+00  0.00000000E+00
  0.00000000E+00  0.00000000E+00  0.00000000E+00
  0.00000000E+00  0.00000000E+00  0.00000000E+00
  0.00000000E+00  0.00000000E+00  0.00000000E+00
  0.00000000E+00  0.00000000E+00  0.00000000E+00
