CONTCAR\(4)                             
   1.00000000000000     
    13.7056999207000008    0.0000000000000000    0.0000000000000000
     4.1214080124999999   12.9276297616000004    0.0000000000000000
     0.0000000000000000    0.0000000000000000   18.6212005615000002
   Bi   Rh   S 
    16    24    16
Direct
  0.1933452231744681  0.1950476934544909  0.5866124127038006
  0.4448880519530007  0.4452278787346700  0.5925462366816632
  0.0817519860470028  0.0814321022653317  0.4074337643183412
  0.3332747508255309  0.3315922955455122  0.4133975992962036
  0.6933451881744688  0.1950476934544909  0.5866124127038006
  0.9448880519530007  0.4452278787346700  0.5925462366816632
  0.5817519690470050  0.0814321022653317  0.4074337643183412
  0.8332747508255309  0.3315922955455122  0.4133975992962036
  0.1933452381744658  0.6950477014544916  0.5866124127038006
  0.4448880829529998  0.9452278307346731  0.5925462366816632
  0.0817519940470035  0.5814320722653292  0.4074337643183412
  0.3332747468255306  0.8315922475455082  0.4133975992962036
  0.6933452031744665  0.6950477014544916  0.5866124127038006
  0.9448880829529998  0.9452278307346731  0.5925462366816632
  0.5817519940470035  0.5814320722653292  0.4074337643183412
  0.8332747818255370  0.8315922475455082  0.4133975992962036
  0.0133299960000031  0.2633399959999991  0.5000200249999978
  0.4154170598420492  0.1111067924863036  0.4991699850857572
  0.1112529701579490  0.4155731985136981  0.5008100409142529
  0.2633500069999997  0.0133300009999999  0.5000200249999978
  0.3187543342229517  0.3176402018890698  0.5580640219703028
  0.2078656517770483  0.2089697811109303  0.4419259910296987
  0.5133299789999981  0.2633399959999991  0.5000200249999978
  0.9154170248420499  0.1111067924863036  0.4991699850857572
  0.6112529521579475  0.4155731985136981  0.5008100409142529
  0.7633499889999982  0.0133300009999999  0.5000200249999978
  0.8187543692229511  0.3176402018890698  0.5580640219703028
  0.7078656867770547  0.2089697811109303  0.4419259910296987
  0.0133300219999981  0.7633399659999967  0.5000200249999978
  0.4154170448420516  0.6111067814863063  0.4991699850857572
  0.1112529721579492  0.9155731875136937  0.5008100409142529
  0.2633500130000002  0.5133299760000014  0.5000200249999978
  0.3187543192229469  0.8176401908890725  0.5580640219703028
  0.2078656257770533  0.7089698071109254  0.4419259910296987
  0.5133300039999966  0.7633399659999967  0.5000200249999978
  0.9154170448420516  0.6111067814863063  0.4991699850857572
  0.6112529721579492  0.9155731875136937  0.5008100409142529
  0.7633500130000002  0.5133299760000014  0.5000200249999978
  0.8187543192229469  0.8176401908890725  0.5580640219703028
  0.7078656957770519  0.7089698071109254  0.4419259910296987
  0.4574292585045256  0.1890039042738962  0.5997857855969642
  0.1908914224208047  0.4571428871395185  0.6004253342657435
  0.0692107234954804  0.3376460807261026  0.4002142404030309
  0.3357585595791974  0.0694870928604843  0.3995846777342535
  0.9574292585045256  0.1890039042738962  0.5997857855969642
  0.6908914224208047  0.4571428871395185  0.6004253342657435
  0.5692107064954754  0.3376460807261026  0.4002142404030309
  0.8357585945791968  0.0694870928604843  0.3995846777342535
  0.4574292955045252  0.6890038372738942  0.5997857855969642
  0.1908914314208019  0.9571429121395170  0.6004253342657435
  0.0692107044954753  0.8376461437261042  0.4002142404030309
  0.3357585455791963  0.5694870768604829  0.3995846777342535
  0.9574292955045252  0.6890038372738942  0.5997857855969642
  0.6908914314208019  0.9571429121395170  0.6004253342657435
  0.5692107044954753  0.8376461437261042  0.4002142404030309
  0.8357586155791950  0.5694870768604829  0.3995846777342535
 
  0.00000000E+00  0.00000000E+00  0.00000000E+00
  0.00000000E+00  0.00000000E+00  0.00000000E+00
  0.00000000E+00  0.00000000E+00  0.00000000E+00
  0.00000000E+00  0.00000000E+00  0.00000000E+00
  0.00000000E+00  0.00000000E+00  0.00000000E+00
  0.00000000E+00  0.00000000E+00  0.00000000E+00
  0.00000000E+00  0.00000000E+00  0.00000000E+00
  0.00000000E+00  0.00000000E+00  0.00000000E+00
  0.00000000E+00  0.00000000E+00  0.00000000E+00
  0.00000000E+00  0.00000000E+00  0.00000000E+00
  0.00000000E+00  0.00000000E+00  0.00000000E+00
  0.00000000E+00  0.00000000E+00  0.00000000E+00
  0.00000000E+00  0.00000000E+00  0.00000000E+00
  0.00000000E+00  0.00000000E+00  0.00000000E+00
  0.00000000E+00  0.00000000E+00  0.00000000E+00
  0.00000000E+00  0.00000000E+00  0.00000000E+00
  0.00000000E+00  0.00000000E+00  0.00000000E+00
  0.00000000E+00  0.00000000E+00  0.00000000E+00
  0.00000000E+00  0.00000000E+00  0.00000000E+00
  0.00000000E+00  0.00000000E+00  0.00000000E+00
  0.00000000E+00  0.00000000E+00  0.00000000E+00
  0.00000000E+00  0.00000000E+00  0.00000000E+00
  0.00000000E+00  0.00000000E+00  0.00000000E+00
  0.00000000E+00  0.00000000E+00  0.00000000E+00
  0.00000000E+00  0.00000000E+00  0.00000000E+00
  0.00000000E+00  0.00000000E+00  0.00000000E+00
  0.00000000E+00  0.00000000E+00  0.00000000E+00
  0.00000000E+00  0.00000000E+00  0.00000000E+00
  0.00000000E+00  0.00000000E+00  0.00000000E+00
  0.00000000E+00  0.00000000E+00  0.00000000E+00
  0.00000000E+00  0.00000000E+00  0.00000000E+00
  0.00000000E+00  0.00000000E+00  0.00000000E+00
  0.00000000E+00  0.00000000E+00  0.00000000E+00
  0.00000000E+00  0.00000000E+00  0.00000000E+00
  0.00000000E+00  0.00000000E+00  0.00000000E+00
  0.00000000E+00  0.00000000E+00  0.00000000E+00
  0.00000000E+00  0.00000000E+00  0.00000000E+00
  0.00000000E+00  0.00000000E+00  0.00000000E+00
  0.00000000E+00  0.00000000E+00  0.00000000E+00
  0.00000000E+00  0.00000000E+00  0.00000000E+00
  0.00000000E+00  0.00000000E+00  0.00000000E+00
  0.00000000E+00  0.00000000E+00  0.00000000E+00
  0.00000000E+00  0.00000000E+00  0.00000000E+00
  0.00000000E+00  0.00000000E+00  0.00000000E+00
  0.00000000E+00  0.00000000E+00  0.00000000E+00
  0.00000000E+00  0.00000000E+00  0.00000000E+00
  0.00000000E+00  0.00000000E+00  0.00000000E+00
  0.00000000E+00  0.00000000E+00  0.00000000E+00
  0.00000000E+00  0.00000000E+00  0.00000000E+00
  0.00000000E+00  0.00000000E+00  0.00000000E+00
  0.00000000E+00  0.00000000E+00  0.00000000E+00
  0.00000000E+00  0.00000000E+00  0.00000000E+00
  0.00000000E+00  0.00000000E+00  0.00000000E+00
  0.00000000E+00  0.00000000E+00  0.00000000E+00
  0.00000000E+00  0.00000000E+00  0.00000000E+00
  0.00000000E+00  0.00000000E+00  0.00000000E+00
