CONTCAR\(2)                             
   1.00000000000000     
    14.0806999207000008    0.0000000000000000    0.0000000000000000
     0.0000000000000000   14.0806999207000008    0.0000000000000000
     0.0000000000000000    0.0000000000000000   21.7063999175999989
   Zr   Si   Se   H 
    32    32    32     1
Direct
  0.1250231734013383  0.0000240784391536  0.5996500325871423
  0.9999622048589103  0.1250094961839281  0.4002395389899931
  0.3750083491334166  0.0000238240987613  0.5997170418473203
  0.2501020326785053  0.1250958262959614  0.4004099402708334
  0.6250298915093069  0.0000179484284573  0.5996673213083810
  0.4998560004184966  0.1250505324783830  0.4003906156380879
  0.8749918409356354  0.0000269123855574  0.5995133004779518
  0.7500250853009476  0.1249843062182663  0.4002089850506110
  0.1248522901461087  0.2498430678543428  0.5995271821537003
  0.9999980507688448  0.3750782648633262  0.4003946380429610
  0.3750502734538301  0.2510155039262401  0.6005495719867753
  0.2500465763242943  0.3750464636632245  0.4005853353936715
  0.6252722833087745  0.2498076988032523  0.5994983667200202
  0.4999402434054829  0.3750298253026045  0.4005562628338666
  0.8749706093505907  0.2500389653746140  0.5996736014484085
  0.7499825221541343  0.3750580642647279  0.4003558623380599
  0.1260399609049330  0.5000375134756823  0.6005410797481261
  0.0000013417616458  0.6249351484090653  0.4003864065340821
  0.3750786812005060  0.5000934121335021  0.6029118198341052
  0.2500412472356643  0.6249796064983073  0.4005751915195432
  0.6241396077565184  0.5000450589037087  0.6005016129213345
  0.4999552780748857  0.6249955374190392  0.4005450529470380
  0.8750086505111696  0.5000194882037121  0.5997004706960141
  0.7499902912212306  0.6249530494081554  0.4003462355353378
  0.1248317986521243  0.7502286825044848  0.5995075418342708
  0.9999582383117911  0.8750245026964123  0.4002298406637124
  0.3750493789741185  0.7490581928759639  0.6005392339007756
  0.2501040992764061  0.8749337878437515  0.4003978074582832
  0.6253162237276868  0.7502664460618647  0.5994830748942874
  0.4998642837858398  0.8749664029812863  0.4003832372945837
  0.8749870524921590  0.7500054794235069  0.5996639190155264
  0.7500398324967605  0.8750384492677838  0.4002012301677240
  0.0001197399678006  0.0000145718965356  0.4998658800801010
  0.1249706708273095  0.1250756838696816  0.4999367012723468
  0.2501063571766764  0.0000101066035043  0.4999808418077976
  0.3749972813506091  0.1252233753383223  0.5001940388938166
  0.4998790156174167  0.0000022486219180  0.4999841177400199
  0.6250472952332515  0.1249919931431478  0.4999151022545192
  0.7499269436387266  0.0000119420481752  0.4998603908393378
  0.8750222828804084  0.1250643377264780  0.4998511561066294
  0.0000081752812733  0.2499393250066930  0.4999451601262024
  0.1251781266115017  0.3752123927919939  0.5001454287577047
  0.2503384198241321  0.2503342663396282  0.5001687314249779
  0.3750635777237719  0.3750167504668482  0.5004219007762103
  0.4998153412158288  0.2502066254554407  0.5001339157990969
  0.6248839841342928  0.3751577678991964  0.5001157909081542
  0.7500042273979375  0.2497176540457247  0.4998652152753422
  0.8749638579669110  0.3750774580617247  0.4999772161361804
  0.0001695664913939  0.5000061658226684  0.5001576416397313
  0.1251761919430905  0.6248117949330094  0.5001397149823532
  0.2499624821065325  0.5000171739268211  0.5004375041211659
  0.3750695399997994  0.6250232055162854  0.5004142144662040
  0.5001269167939313  0.5000206995196166  0.5003733923489619
  0.6248993729169214  0.6248754928227527  0.5001069647626792
  0.7498280816347318  0.5000089555272353  0.5001264038999480
  0.8749746405276682  0.6249297717382092  0.4999719437984425
  0.0000061571828738  0.7500793867860978  0.4999342825983462
  0.1249697871476130  0.8749506449750157  0.4999309025913234
  0.2503316092782626  0.7496910989106667  0.5001596337315135
  0.3749880739921565  0.8748016425214047  0.5001807079222615
  0.4998259664909526  0.7498366670784407  0.5001179119562735
  0.6250635215113789  0.8750284393480996  0.4998982678350430
  0.7500289301838023  0.7502990497660278  0.4998530009156852
  0.8750323479160400  0.8749633714536458  0.4998435498296487
  0.9998818739874977  0.1249426043020208  0.6536976402516714
  0.1251329728443125  0.0000356309463712  0.3461689994082278
  0.2499471477506248  0.1247372624281553  0.6537345185547707
  0.3749666860346679  0.0000113657717549  0.3460887346518717
  0.5000886979285895  0.1247878757359473  0.6536244936980964
  0.6248710880481809  0.0000094694506174  0.3461095825385598
  0.7501542574381688  0.1248731023742309  0.6539011536180155
  0.8750011230391479  0.0000115728483792  0.3457717916840721
  0.9997886477537179  0.3750024107852070  0.6536319881890762
  0.1251005712026156  0.2501942613988888  0.3461188296612576
  0.2483537304259613  0.3732085563930170  0.6548150122428638
  0.3749762552454783  0.2500334333954441  0.3461207101829800
  0.5019140789979346  0.3733489614909473  0.6546585486036491
  0.6247645920175415  0.2501833617288796  0.3460913822551035
  0.7503187274272847  0.3750062426658261  0.6537692827167589
  0.8750277126303274  0.2501120386545281  0.3459011025757093
  0.9997849725394872  0.6250517034504384  0.6536344720143106
  0.1250543252393967  0.5000051463134270  0.3463073104027146
  0.2483399674353635  0.6269140714916901  0.6547984607407713
  0.3749892633408436  0.5000059376645396  0.3464817593812910
  0.5019314633866685  0.6267668360959249  0.6546381617241295
  0.6249517895519290  0.5000036048107006  0.3463061480647411
  0.7503478972042501  0.6250666636739766  0.6537736393468307
  0.8749955815593893  0.4999994167088104  0.3460736623758933
  0.9998697679735358  0.8751140786236462  0.6536882770526802
  0.1250848740636954  0.7498477917029902  0.3461058989918158
  0.2499606848791771  0.8753893010552076  0.6537215280834445
  0.3749791455534890  0.7499791424341709  0.3461162698284141
  0.5000959014742321  0.8752521526188630  0.6536225765294361
  0.6247760968515479  0.7498326235940809  0.3460771972847496
  0.7501925620140923  0.8752299081681869  0.6538897721096859
  0.8750327639976589  0.7498945296497510  0.3458939934322700
  0.3756888996661161  0.5006273569253281  0.6896877851536516
 
  0.00000000E+00  0.00000000E+00  0.00000000E+00
  0.00000000E+00  0.00000000E+00  0.00000000E+00
  0.00000000E+00  0.00000000E+00  0.00000000E+00
  0.00000000E+00  0.00000000E+00  0.00000000E+00
  0.00000000E+00  0.00000000E+00  0.00000000E+00
  0.00000000E+00  0.00000000E+00  0.00000000E+00
  0.00000000E+00  0.00000000E+00  0.00000000E+00
  0.00000000E+00  0.00000000E+00  0.00000000E+00
  0.00000000E+00  0.00000000E+00  0.00000000E+00
  0.00000000E+00  0.00000000E+00  0.00000000E+00
  0.00000000E+00  0.00000000E+00  0.00000000E+00
  0.00000000E+00  0.00000000E+00  0.00000000E+00
  0.00000000E+00  0.00000000E+00  0.00000000E+00
  0.00000000E+00  0.00000000E+00  0.00000000E+00
  0.00000000E+00  0.00000000E+00  0.00000000E+00
  0.00000000E+00  0.00000000E+00  0.00000000E+00
  0.00000000E+00  0.00000000E+00  0.00000000E+00
  0.00000000E+00  0.00000000E+00  0.00000000E+00
  0.00000000E+00  0.00000000E+00  0.00000000E+00
  0.00000000E+00  0.00000000E+00  0.00000000E+00
  0.00000000E+00  0.00000000E+00  0.00000000E+00
  0.00000000E+00  0.00000000E+00  0.00000000E+00
  0.00000000E+00  0.00000000E+00  0.00000000E+00
  0.00000000E+00  0.00000000E+00  0.00000000E+00
  0.00000000E+00  0.00000000E+00  0.00000000E+00
  0.00000000E+00  0.00000000E+00  0.00000000E+00
  0.00000000E+00  0.00000000E+00  0.00000000E+00
  0.00000000E+00  0.00000000E+00  0.00000000E+00
  0.00000000E+00  0.00000000E+00  0.00000000E+00
  0.00000000E+00  0.00000000E+00  0.00000000E+00
  0.00000000E+00  0.00000000E+00  0.00000000E+00
  0.00000000E+00  0.00000000E+00  0.00000000E+00
  0.00000000E+00  0.00000000E+00  0.00000000E+00
  0.00000000E+00  0.00000000E+00  0.00000000E+00
  0.00000000E+00  0.00000000E+00  0.00000000E+00
  0.00000000E+00  0.00000000E+00  0.00000000E+00
  0.00000000E+00  0.00000000E+00  0.00000000E+00
  0.00000000E+00  0.00000000E+00  0.00000000E+00
  0.00000000E+00  0.00000000E+00  0.00000000E+00
  0.00000000E+00  0.00000000E+00  0.00000000E+00
  0.00000000E+00  0.00000000E+00  0.00000000E+00
  0.00000000E+00  0.00000000E+00  0.00000000E+00
  0.00000000E+00  0.00000000E+00  0.00000000E+00
  0.00000000E+00  0.00000000E+00  0.00000000E+00
  0.00000000E+00  0.00000000E+00  0.00000000E+00
  0.00000000E+00  0.00000000E+00  0.00000000E+00
  0.00000000E+00  0.00000000E+00  0.00000000E+00
  0.00000000E+00  0.00000000E+00  0.00000000E+00
  0.00000000E+00  0.00000000E+00  0.00000000E+00
  0.00000000E+00  0.00000000E+00  0.00000000E+00
  0.00000000E+00  0.00000000E+00  0.00000000E+00
  0.00000000E+00  0.00000000E+00  0.00000000E+00
  0.00000000E+00  0.00000000E+00  0.00000000E+00
  0.00000000E+00  0.00000000E+00  0.00000000E+00
  0.00000000E+00  0.00000000E+00  0.00000000E+00
  0.00000000E+00  0.00000000E+00  0.00000000E+00
  0.00000000E+00  0.00000000E+00  0.00000000E+00
  0.00000000E+00  0.00000000E+00  0.00000000E+00
  0.00000000E+00  0.00000000E+00  0.00000000E+00
  0.00000000E+00  0.00000000E+00  0.00000000E+00
  0.00000000E+00  0.00000000E+00  0.00000000E+00
  0.00000000E+00  0.00000000E+00  0.00000000E+00
  0.00000000E+00  0.00000000E+00  0.00000000E+00
  0.00000000E+00  0.00000000E+00  0.00000000E+00
  0.00000000E+00  0.00000000E+00  0.00000000E+00
  0.00000000E+00  0.00000000E+00  0.00000000E+00
  0.00000000E+00  0.00000000E+00  0.00000000E+00
  0.00000000E+00  0.00000000E+00  0.00000000E+00
  0.00000000E+00  0.00000000E+00  0.00000000E+00
  0.00000000E+00  0.00000000E+00  0.00000000E+00
  0.00000000E+00  0.00000000E+00  0.00000000E+00
  0.00000000E+00  0.00000000E+00  0.00000000E+00
  0.00000000E+00  0.00000000E+00  0.00000000E+00
  0.00000000E+00  0.00000000E+00  0.00000000E+00
  0.00000000E+00  0.00000000E+00  0.00000000E+00
  0.00000000E+00  0.00000000E+00  0.00000000E+00
  0.00000000E+00  0.00000000E+00  0.00000000E+00
  0.00000000E+00  0.00000000E+00  0.00000000E+00
  0.00000000E+00  0.00000000E+00  0.00000000E+00
  0.00000000E+00  0.00000000E+00  0.00000000E+00
  0.00000000E+00  0.00000000E+00  0.00000000E+00
  0.00000000E+00  0.00000000E+00  0.00000000E+00
  0.00000000E+00  0.00000000E+00  0.00000000E+00
  0.00000000E+00  0.00000000E+00  0.00000000E+00
  0.00000000E+00  0.00000000E+00  0.00000000E+00
  0.00000000E+00  0.00000000E+00  0.00000000E+00
  0.00000000E+00  0.00000000E+00  0.00000000E+00
  0.00000000E+00  0.00000000E+00  0.00000000E+00
  0.00000000E+00  0.00000000E+00  0.00000000E+00
  0.00000000E+00  0.00000000E+00  0.00000000E+00
  0.00000000E+00  0.00000000E+00  0.00000000E+00
  0.00000000E+00  0.00000000E+00  0.00000000E+00
  0.00000000E+00  0.00000000E+00  0.00000000E+00
  0.00000000E+00  0.00000000E+00  0.00000000E+00
  0.00000000E+00  0.00000000E+00  0.00000000E+00
  0.00000000E+00  0.00000000E+00  0.00000000E+00
  0.00000000E+00  0.00000000E+00  0.00000000E+00
