CONTCAR\(13)                            
   1.00000000000000     
    12.5135002136000004    0.0000000000000000    0.0000000000000000
     0.0000000000000000   15.7480001450000007    0.0000000000000000
     0.0000000000000000    0.0000000000000000   19.7180004119999985
   Nb   Fe   Te   O    H 
    16    16    32     2     1
Direct
  0.2581898609986242  0.1545298757804930  0.5079329929933998
  0.9816659087670803  0.4050211000580969  0.5080031604628759
  0.0096212248516941  0.0963045800856617  0.4912093185128409
  0.2340011724871845  0.3460434213494942  0.4946797782522452
  0.7593721032443250  0.1551694653180181  0.5065614008393691
  0.4875138693938414  0.4019096887453334  0.5044568142015994
  0.5103158497146657  0.0974047829722652  0.4922656343748107
  0.7351402616765551  0.3485706732627344  0.4921141206645017
  0.2685316677276049  0.6520539764711102  0.5168686509772585
  0.9870327107151921  0.9039800913491942  0.5077281971186469
  0.0118342864341777  0.5968810002980691  0.4930073112029770
  0.2368932059933141  0.8472018183014800  0.4925388999751210
  0.7625301529476612  0.6552697495819158  0.5003141321711527
  0.4888482612370572  0.9074854430870639  0.5087209620884854
  0.5013813352756528  0.6008463212729028  0.5070787205598368
  0.7376957492332585  0.8468008603513073  0.4926537778775386
  0.0667824496837499  0.2531983123846139  0.5378666743907231
  0.3205403530405471  0.9971116127946732  0.4622578892139234
  0.4249479151071644  0.2475927350889613  0.4619783381309029
  0.1765373796286475  0.0044500153899286  0.5385914180363131
  0.5680311455411737  0.2548918242172252  0.5394961482714037
  0.8215160100603280  0.9967726181251559  0.4604938200655596
  0.9244705429770280  0.2474469436039665  0.4606279370018161
  0.6775852133750255  0.0052822131589551  0.5377969559960970
  0.0746316030288665  0.7538421180113233  0.5389449448445398
  0.3162124210064284  0.4960038623943616  0.4639551461480119
  0.4264083834007948  0.7493393679896297  0.4664103706788722
  0.1708130748243651  0.5015650385925469  0.5397357095377948
  0.5714565159574733  0.7531723426027722  0.5428431170033865
  0.8199194605385629  0.4984251638267914  0.4623608730725312
  0.9308372789240789  0.7467165962495523  0.4602493419138151
  0.6718163175266818  0.5134765937473906  0.5448812337890799
  0.3740439584864091  0.3716793688085740  0.3824120276916451
  0.1255434426103173  0.9778099660526357  0.4112640070095989
  0.3717981790712139  0.0249472055550858  0.5893903838781236
  0.1149739978142622  0.3764782905616424  0.6195553449035706
  0.3747129108047279  0.2654158831952758  0.5906028840632153
  0.1206737834894102  0.2293957364449743  0.4112912260299161
  0.1154650425989253  0.1294231790942537  0.6173837445894171
  0.3675337807543934  0.1220390188223168  0.3828786202891454
  0.8755343499037107  0.3727535072918174  0.3818763002372340
  0.6264941808330001  0.9803422360989769  0.4110563765143139
  0.8719227934749232  0.0225441775933858  0.5880253676046169
  0.6296091605356291  0.3819292652507749  0.6168709424389284
  0.8716532815880885  0.2715560892946615  0.5886331189616019
  0.6204579743125322  0.2313137796686014  0.4113308112190442
  0.6198756235928560  0.1297583193060830  0.6174121094457887
  0.8673966017956047  0.1218403607962779  0.3812350276355757
  0.3804964432754744  0.8722029513427603  0.3839100671433663
  0.1232110793662236  0.4771101848555088  0.4116652635547069
  0.3503715260332513  0.4759276925069620  0.5949843551341336
  0.1270815339795610  0.8803567571894302  0.6179836107855022
  0.3776184041027518  0.7883748652059224  0.5925973192867579
  0.1260531026584352  0.7245390813003597  0.4134221121232334
  0.1171305905877081  0.6268468491489187  0.6201411999621910
  0.3719260647029269  0.6207826456665692  0.3900880958152111
  0.8794231552787158  0.8703926724307520  0.3820929400241561
  0.6251660125067257  0.4851174863481276  0.4163385817930616
  0.8693741087388768  0.5247310852617371  0.5886522680996973
  0.6333042209563393  0.8815550412629585  0.6182425333323244
  0.8763182740277814  0.7691482159382201  0.5870797608438232
  0.6185695256648619  0.7327800660674819  0.4127120751868966
  0.6302202331930085  0.6379243339699109  0.6285460179186521
  0.8711098501705858  0.6204036379485416  0.3806378124651186
  0.3910213802292081  0.6089517472986602  0.5838304104159501
  0.5119945572344842  0.6154446288633965  0.6985060516435386
  0.4455569453082400  0.6209430500955018  0.6719673425925269
 
  0.00000000E+00  0.00000000E+00  0.00000000E+00
  0.00000000E+00  0.00000000E+00  0.00000000E+00
  0.00000000E+00  0.00000000E+00  0.00000000E+00
  0.00000000E+00  0.00000000E+00  0.00000000E+00
  0.00000000E+00  0.00000000E+00  0.00000000E+00
  0.00000000E+00  0.00000000E+00  0.00000000E+00
  0.00000000E+00  0.00000000E+00  0.00000000E+00
  0.00000000E+00  0.00000000E+00  0.00000000E+00
  0.00000000E+00  0.00000000E+00  0.00000000E+00
  0.00000000E+00  0.00000000E+00  0.00000000E+00
  0.00000000E+00  0.00000000E+00  0.00000000E+00
  0.00000000E+00  0.00000000E+00  0.00000000E+00
  0.00000000E+00  0.00000000E+00  0.00000000E+00
  0.00000000E+00  0.00000000E+00  0.00000000E+00
  0.00000000E+00  0.00000000E+00  0.00000000E+00
  0.00000000E+00  0.00000000E+00  0.00000000E+00
  0.00000000E+00  0.00000000E+00  0.00000000E+00
  0.00000000E+00  0.00000000E+00  0.00000000E+00
  0.00000000E+00  0.00000000E+00  0.00000000E+00
  0.00000000E+00  0.00000000E+00  0.00000000E+00
  0.00000000E+00  0.00000000E+00  0.00000000E+00
  0.00000000E+00  0.00000000E+00  0.00000000E+00
  0.00000000E+00  0.00000000E+00  0.00000000E+00
  0.00000000E+00  0.00000000E+00  0.00000000E+00
  0.00000000E+00  0.00000000E+00  0.00000000E+00
  0.00000000E+00  0.00000000E+00  0.00000000E+00
  0.00000000E+00  0.00000000E+00  0.00000000E+00
  0.00000000E+00  0.00000000E+00  0.00000000E+00
  0.00000000E+00  0.00000000E+00  0.00000000E+00
  0.00000000E+00  0.00000000E+00  0.00000000E+00
  0.00000000E+00  0.00000000E+00  0.00000000E+00
  0.00000000E+00  0.00000000E+00  0.00000000E+00
  0.00000000E+00  0.00000000E+00  0.00000000E+00
  0.00000000E+00  0.00000000E+00  0.00000000E+00
  0.00000000E+00  0.00000000E+00  0.00000000E+00
  0.00000000E+00  0.00000000E+00  0.00000000E+00
  0.00000000E+00  0.00000000E+00  0.00000000E+00
  0.00000000E+00  0.00000000E+00  0.00000000E+00
  0.00000000E+00  0.00000000E+00  0.00000000E+00
  0.00000000E+00  0.00000000E+00  0.00000000E+00
  0.00000000E+00  0.00000000E+00  0.00000000E+00
  0.00000000E+00  0.00000000E+00  0.00000000E+00
  0.00000000E+00  0.00000000E+00  0.00000000E+00
  0.00000000E+00  0.00000000E+00  0.00000000E+00
  0.00000000E+00  0.00000000E+00  0.00000000E+00
  0.00000000E+00  0.00000000E+00  0.00000000E+00
  0.00000000E+00  0.00000000E+00  0.00000000E+00
  0.00000000E+00  0.00000000E+00  0.00000000E+00
  0.00000000E+00  0.00000000E+00  0.00000000E+00
  0.00000000E+00  0.00000000E+00  0.00000000E+00
  0.00000000E+00  0.00000000E+00  0.00000000E+00
  0.00000000E+00  0.00000000E+00  0.00000000E+00
  0.00000000E+00  0.00000000E+00  0.00000000E+00
  0.00000000E+00  0.00000000E+00  0.00000000E+00
  0.00000000E+00  0.00000000E+00  0.00000000E+00
  0.00000000E+00  0.00000000E+00  0.00000000E+00
  0.00000000E+00  0.00000000E+00  0.00000000E+00
  0.00000000E+00  0.00000000E+00  0.00000000E+00
  0.00000000E+00  0.00000000E+00  0.00000000E+00
  0.00000000E+00  0.00000000E+00  0.00000000E+00
  0.00000000E+00  0.00000000E+00  0.00000000E+00
  0.00000000E+00  0.00000000E+00  0.00000000E+00
  0.00000000E+00  0.00000000E+00  0.00000000E+00
  0.00000000E+00  0.00000000E+00  0.00000000E+00
  0.00000000E+00  0.00000000E+00  0.00000000E+00
  0.00000000E+00  0.00000000E+00  0.00000000E+00
  0.00000000E+00  0.00000000E+00  0.00000000E+00
