G   52   34    1    0.005     # Parameters to Generate KPOINTS (Don't Edit This Line)
     486
Reciprocal lattice
    0.000000000000    0.000000000000    0.000000000000       1
    0.019230769231    0.000000000000    0.000000000000       2
    0.038461538462    0.000000000000    0.000000000000       2
    0.057692307692    0.000000000000    0.000000000000       2
    0.076923076923    0.000000000000    0.000000000000       2
    0.096153846154    0.000000000000    0.000000000000       2
    0.115384615385    0.000000000000    0.000000000000       2
    0.134615384615    0.000000000000    0.000000000000       2
    0.153846153846    0.000000000000    0.000000000000       2
    0.173076923077    0.000000000000    0.000000000000       2
    0.192307692308    0.000000000000    0.000000000000       2
    0.211538461538    0.000000000000    0.000000000000       2
    0.230769230769    0.000000000000    0.000000000000       2
    0.250000000000    0.000000000000    0.000000000000       2
    0.269230769231    0.000000000000    0.000000000000       2
    0.288461538462    0.000000000000    0.000000000000       2
    0.307692307692    0.000000000000    0.000000000000       2
    0.326923076923    0.000000000000    0.000000000000       2
    0.346153846154    0.000000000000    0.000000000000       2
    0.365384615385    0.000000000000    0.000000000000       2
    0.384615384615    0.000000000000    0.000000000000       2
    0.403846153846    0.000000000000    0.000000000000       2
    0.423076923077    0.000000000000    0.000000000000       2
    0.442307692308    0.000000000000    0.000000000000       2
    0.461538461538    0.000000000000    0.000000000000       2
    0.480769230769    0.000000000000    0.000000000000       2
    0.500000000000    0.000000000000    0.000000000000       1
    0.000000000000    0.029411764706    0.000000000000       2
    0.019230769231    0.029411764706    0.000000000000       4
    0.038461538462    0.029411764706    0.000000000000       4
    0.057692307692    0.029411764706    0.000000000000       4
    0.076923076923    0.029411764706    0.000000000000       4
    0.096153846154    0.029411764706    0.000000000000       4
    0.115384615385    0.029411764706    0.000000000000       4
    0.134615384615    0.029411764706    0.000000000000       4
    0.153846153846    0.029411764706    0.000000000000       4
    0.173076923077    0.029411764706    0.000000000000       4
    0.192307692308    0.029411764706    0.000000000000       4
    0.211538461538    0.029411764706    0.000000000000       4
    0.230769230769    0.029411764706    0.000000000000       4
    0.250000000000    0.029411764706    0.000000000000       4
    0.269230769231    0.029411764706    0.000000000000       4
    0.288461538462    0.029411764706    0.000000000000       4
    0.307692307692    0.029411764706    0.000000000000       4
    0.326923076923    0.029411764706    0.000000000000       4
    0.346153846154    0.029411764706    0.000000000000       4
    0.365384615385    0.029411764706    0.000000000000       4
    0.384615384615    0.029411764706    0.000000000000       4
    0.403846153846    0.029411764706    0.000000000000       4
    0.423076923077    0.029411764706    0.000000000000       4
    0.442307692308    0.029411764706    0.000000000000       4
    0.461538461538    0.029411764706    0.000000000000       4
    0.480769230769    0.029411764706    0.000000000000       4
    0.500000000000    0.029411764706    0.000000000000       2
    0.000000000000    0.058823529412    0.000000000000       2
    0.019230769231    0.058823529412    0.000000000000       4
    0.038461538462    0.058823529412    0.000000000000       4
    0.057692307692    0.058823529412    0.000000000000       4
    0.076923076923    0.058823529412    0.000000000000       4
    0.096153846154    0.058823529412    0.000000000000       4
    0.115384615385    0.058823529412    0.000000000000       4
    0.134615384615    0.058823529412    0.000000000000       4
    0.153846153846    0.058823529412    0.000000000000       4
    0.173076923077    0.058823529412    0.000000000000       4
    0.192307692308    0.058823529412    0.000000000000       4
    0.211538461538    0.058823529412    0.000000000000       4
    0.230769230769    0.058823529412    0.000000000000       4
    0.250000000000    0.058823529412    0.000000000000       4
    0.269230769231    0.058823529412    0.000000000000       4
    0.288461538462    0.058823529412    0.000000000000       4
    0.307692307692    0.058823529412    0.000000000000       4
    0.326923076923    0.058823529412    0.000000000000       4
    0.346153846154    0.058823529412    0.000000000000       4
    0.365384615385    0.058823529412    0.000000000000       4
    0.384615384615    0.058823529412    0.000000000000       4
    0.403846153846    0.058823529412    0.000000000000       4
    0.423076923077    0.058823529412    0.000000000000       4
    0.442307692308    0.058823529412    0.000000000000       4
    0.461538461538    0.058823529412    0.000000000000       4
    0.480769230769    0.058823529412    0.000000000000       4
    0.500000000000    0.058823529412    0.000000000000       2
    0.000000000000    0.088235294118    0.000000000000       2
    0.019230769231    0.088235294118    0.000000000000       4
    0.038461538462    0.088235294118    0.000000000000       4
    0.057692307692    0.088235294118    0.000000000000       4
    0.076923076923    0.088235294118    0.000000000000       4
    0.096153846154    0.088235294118    0.000000000000       4
    0.115384615385    0.088235294118    0.000000000000       4
    0.134615384615    0.088235294118    0.000000000000       4
    0.153846153846    0.088235294118    0.000000000000       4
    0.173076923077    0.088235294118    0.000000000000       4
    0.192307692308    0.088235294118    0.000000000000       4
    0.211538461538    0.088235294118    0.000000000000       4
    0.230769230769    0.088235294118    0.000000000000       4
    0.250000000000    0.088235294118    0.000000000000       4
    0.269230769231    0.088235294118    0.000000000000       4
    0.288461538462    0.088235294118    0.000000000000       4
    0.307692307692    0.088235294118    0.000000000000       4
    0.326923076923    0.088235294118    0.000000000000       4
    0.346153846154    0.088235294118    0.000000000000       4
    0.365384615385    0.088235294118    0.000000000000       4
    0.384615384615    0.088235294118    0.000000000000       4
    0.403846153846    0.088235294118    0.000000000000       4
    0.423076923077    0.088235294118    0.000000000000       4
    0.442307692308    0.088235294118    0.000000000000       4
    0.461538461538    0.088235294118    0.000000000000       4
    0.480769230769    0.088235294118    0.000000000000       4
    0.500000000000    0.088235294118    0.000000000000       2
    0.000000000000    0.117647058824    0.000000000000       2
    0.019230769231    0.117647058824    0.000000000000       4
    0.038461538462    0.117647058824    0.000000000000       4
    0.057692307692    0.117647058824    0.000000000000       4
    0.076923076923    0.117647058824    0.000000000000       4
    0.096153846154    0.117647058824    0.000000000000       4
    0.115384615385    0.117647058824    0.000000000000       4
    0.134615384615    0.117647058824    0.000000000000       4
    0.153846153846    0.117647058824    0.000000000000       4
    0.173076923077    0.117647058824    0.000000000000       4
    0.192307692308    0.117647058824    0.000000000000       4
    0.211538461538    0.117647058824    0.000000000000       4
    0.230769230769    0.117647058824    0.000000000000       4
    0.250000000000    0.117647058824    0.000000000000       4
    0.269230769231    0.117647058824    0.000000000000       4
    0.288461538462    0.117647058824    0.000000000000       4
    0.307692307692    0.117647058824    0.000000000000       4
    0.326923076923    0.117647058824    0.000000000000       4
    0.346153846154    0.117647058824    0.000000000000       4
    0.365384615385    0.117647058824    0.000000000000       4
    0.384615384615    0.117647058824    0.000000000000       4
    0.403846153846    0.117647058824    0.000000000000       4
    0.423076923077    0.117647058824    0.000000000000       4
    0.442307692308    0.117647058824    0.000000000000       4
    0.461538461538    0.117647058824    0.000000000000       4
    0.480769230769    0.117647058824    0.000000000000       4
    0.500000000000    0.117647058824    0.000000000000       2
    0.000000000000    0.147058823529    0.000000000000       2
    0.019230769231    0.147058823529    0.000000000000       4
    0.038461538462    0.147058823529    0.000000000000       4
    0.057692307692    0.147058823529    0.000000000000       4
    0.076923076923    0.147058823529    0.000000000000       4
    0.096153846154    0.147058823529    0.000000000000       4
    0.115384615385    0.147058823529    0.000000000000       4
    0.134615384615    0.147058823529    0.000000000000       4
    0.153846153846    0.147058823529    0.000000000000       4
    0.173076923077    0.147058823529    0.000000000000       4
    0.192307692308    0.147058823529    0.000000000000       4
    0.211538461538    0.147058823529    0.000000000000       4
    0.230769230769    0.147058823529    0.000000000000       4
    0.250000000000    0.147058823529    0.000000000000       4
    0.269230769231    0.147058823529    0.000000000000       4
    0.288461538462    0.147058823529    0.000000000000       4
    0.307692307692    0.147058823529    0.000000000000       4
    0.326923076923    0.147058823529    0.000000000000       4
    0.346153846154    0.147058823529    0.000000000000       4
    0.365384615385    0.147058823529    0.000000000000       4
    0.384615384615    0.147058823529    0.000000000000       4
    0.403846153846    0.147058823529    0.000000000000       4
    0.423076923077    0.147058823529    0.000000000000       4
    0.442307692308    0.147058823529    0.000000000000       4
    0.461538461538    0.147058823529    0.000000000000       4
    0.480769230769    0.147058823529    0.000000000000       4
    0.500000000000    0.147058823529    0.000000000000       2
    0.000000000000    0.176470588235    0.000000000000       2
    0.019230769231    0.176470588235    0.000000000000       4
    0.038461538462    0.176470588235    0.000000000000       4
    0.057692307692    0.176470588235    0.000000000000       4
    0.076923076923    0.176470588235    0.000000000000       4
    0.096153846154    0.176470588235    0.000000000000       4
    0.115384615385    0.176470588235    0.000000000000       4
    0.134615384615    0.176470588235    0.000000000000       4
    0.153846153846    0.176470588235    0.000000000000       4
    0.173076923077    0.176470588235    0.000000000000       4
    0.192307692308    0.176470588235    0.000000000000       4
    0.211538461538    0.176470588235    0.000000000000       4
    0.230769230769    0.176470588235    0.000000000000       4
    0.250000000000    0.176470588235    0.000000000000       4
    0.269230769231    0.176470588235    0.000000000000       4
    0.288461538462    0.176470588235    0.000000000000       4
    0.307692307692    0.176470588235    0.000000000000       4
    0.326923076923    0.176470588235    0.000000000000       4
    0.346153846154    0.176470588235    0.000000000000       4
    0.365384615385    0.176470588235    0.000000000000       4
    0.384615384615    0.176470588235    0.000000000000       4
    0.403846153846    0.176470588235    0.000000000000       4
    0.423076923077    0.176470588235    0.000000000000       4
    0.442307692308    0.176470588235    0.000000000000       4
    0.461538461538    0.176470588235    0.000000000000       4
    0.480769230769    0.176470588235    0.000000000000       4
    0.500000000000    0.176470588235    0.000000000000       2
    0.000000000000    0.205882352941    0.000000000000       2
    0.019230769231    0.205882352941    0.000000000000       4
    0.038461538462    0.205882352941    0.000000000000       4
    0.057692307692    0.205882352941    0.000000000000       4
    0.076923076923    0.205882352941    0.000000000000       4
    0.096153846154    0.205882352941    0.000000000000       4
    0.115384615385    0.205882352941    0.000000000000       4
    0.134615384615    0.205882352941    0.000000000000       4
    0.153846153846    0.205882352941    0.000000000000       4
    0.173076923077    0.205882352941    0.000000000000       4
    0.192307692308    0.205882352941    0.000000000000       4
    0.211538461538    0.205882352941    0.000000000000       4
    0.230769230769    0.205882352941    0.000000000000       4
    0.250000000000    0.205882352941    0.000000000000       4
    0.269230769231    0.205882352941    0.000000000000       4
    0.288461538462    0.205882352941    0.000000000000       4
    0.307692307692    0.205882352941    0.000000000000       4
    0.326923076923    0.205882352941    0.000000000000       4
    0.346153846154    0.205882352941    0.000000000000       4
    0.365384615385    0.205882352941    0.000000000000       4
    0.384615384615    0.205882352941    0.000000000000       4
    0.403846153846    0.205882352941    0.000000000000       4
    0.423076923077    0.205882352941    0.000000000000       4
    0.442307692308    0.205882352941    0.000000000000       4
    0.461538461538    0.205882352941    0.000000000000       4
    0.480769230769    0.205882352941    0.000000000000       4
    0.500000000000    0.205882352941    0.000000000000       2
    0.000000000000    0.235294117647    0.000000000000       2
    0.019230769231    0.235294117647    0.000000000000       4
    0.038461538462    0.235294117647    0.000000000000       4
    0.057692307692    0.235294117647    0.000000000000       4
    0.076923076923    0.235294117647    0.000000000000       4
    0.096153846154    0.235294117647    0.000000000000       4
    0.115384615385    0.235294117647    0.000000000000       4
    0.134615384615    0.235294117647    0.000000000000       4
    0.153846153846    0.235294117647    0.000000000000       4
    0.173076923077    0.235294117647    0.000000000000       4
    0.192307692308    0.235294117647    0.000000000000       4
    0.211538461538    0.235294117647    0.000000000000       4
    0.230769230769    0.235294117647    0.000000000000       4
    0.250000000000    0.235294117647    0.000000000000       4
    0.269230769231    0.235294117647    0.000000000000       4
    0.288461538462    0.235294117647    0.000000000000       4
    0.307692307692    0.235294117647    0.000000000000       4
    0.326923076923    0.235294117647    0.000000000000       4
    0.346153846154    0.235294117647    0.000000000000       4
    0.365384615385    0.235294117647    0.000000000000       4
    0.384615384615    0.235294117647    0.000000000000       4
    0.403846153846    0.235294117647    0.000000000000       4
    0.423076923077    0.235294117647    0.000000000000       4
    0.442307692308    0.235294117647    0.000000000000       4
    0.461538461538    0.235294117647    0.000000000000       4
    0.480769230769    0.235294117647    0.000000000000       4
    0.500000000000    0.235294117647    0.000000000000       2
    0.000000000000    0.264705882353    0.000000000000       2
    0.019230769231    0.264705882353    0.000000000000       4
    0.038461538462    0.264705882353    0.000000000000       4
    0.057692307692    0.264705882353    0.000000000000       4
    0.076923076923    0.264705882353    0.000000000000       4
    0.096153846154    0.264705882353    0.000000000000       4
    0.115384615385    0.264705882353    0.000000000000       4
    0.134615384615    0.264705882353    0.000000000000       4
    0.153846153846    0.264705882353    0.000000000000       4
    0.173076923077    0.264705882353    0.000000000000       4
    0.192307692308    0.264705882353    0.000000000000       4
    0.211538461538    0.264705882353    0.000000000000       4
    0.230769230769    0.264705882353    0.000000000000       4
    0.250000000000    0.264705882353    0.000000000000       4
    0.269230769231    0.264705882353    0.000000000000       4
    0.288461538462    0.264705882353    0.000000000000       4
    0.307692307692    0.264705882353    0.000000000000       4
    0.326923076923    0.264705882353    0.000000000000       4
    0.346153846154    0.264705882353    0.000000000000       4
    0.365384615385    0.264705882353    0.000000000000       4
    0.384615384615    0.264705882353    0.000000000000       4
    0.403846153846    0.264705882353    0.000000000000       4
    0.423076923077    0.264705882353    0.000000000000       4
    0.442307692308    0.264705882353    0.000000000000       4
    0.461538461538    0.264705882353    0.000000000000       4
    0.480769230769    0.264705882353    0.000000000000       4
    0.500000000000    0.264705882353    0.000000000000       2
    0.000000000000    0.294117647059    0.000000000000       2
    0.019230769231    0.294117647059    0.000000000000       4
    0.038461538462    0.294117647059    0.000000000000       4
    0.057692307692    0.294117647059    0.000000000000       4
    0.076923076923    0.294117647059    0.000000000000       4
    0.096153846154    0.294117647059    0.000000000000       4
    0.115384615385    0.294117647059    0.000000000000       4
    0.134615384615    0.294117647059    0.000000000000       4
    0.153846153846    0.294117647059    0.000000000000       4
    0.173076923077    0.294117647059    0.000000000000       4
    0.192307692308    0.294117647059    0.000000000000       4
    0.211538461538    0.294117647059    0.000000000000       4
    0.230769230769    0.294117647059    0.000000000000       4
    0.250000000000    0.294117647059    0.000000000000       4
    0.269230769231    0.294117647059    0.000000000000       4
    0.288461538462    0.294117647059    0.000000000000       4
    0.307692307692    0.294117647059    0.000000000000       4
    0.326923076923    0.294117647059    0.000000000000       4
    0.346153846154    0.294117647059    0.000000000000       4
    0.365384615385    0.294117647059    0.000000000000       4
    0.384615384615    0.294117647059    0.000000000000       4
    0.403846153846    0.294117647059    0.000000000000       4
    0.423076923077    0.294117647059    0.000000000000       4
    0.442307692308    0.294117647059    0.000000000000       4
    0.461538461538    0.294117647059    0.000000000000       4
    0.480769230769    0.294117647059    0.000000000000       4
    0.500000000000    0.294117647059    0.000000000000       2
    0.000000000000    0.323529411765    0.000000000000       2
    0.019230769231    0.323529411765    0.000000000000       4
    0.038461538462    0.323529411765    0.000000000000       4
    0.057692307692    0.323529411765    0.000000000000       4
    0.076923076923    0.323529411765    0.000000000000       4
    0.096153846154    0.323529411765    0.000000000000       4
    0.115384615385    0.323529411765    0.000000000000       4
    0.134615384615    0.323529411765    0.000000000000       4
    0.153846153846    0.323529411765    0.000000000000       4
    0.173076923077    0.323529411765    0.000000000000       4
    0.192307692308    0.323529411765    0.000000000000       4
    0.211538461538    0.323529411765    0.000000000000       4
    0.230769230769    0.323529411765    0.000000000000       4
    0.250000000000    0.323529411765    0.000000000000       4
    0.269230769231    0.323529411765    0.000000000000       4
    0.288461538462    0.323529411765    0.000000000000       4
    0.307692307692    0.323529411765    0.000000000000       4
    0.326923076923    0.323529411765    0.000000000000       4
    0.346153846154    0.323529411765    0.000000000000       4
    0.365384615385    0.323529411765    0.000000000000       4
    0.384615384615    0.323529411765    0.000000000000       4
    0.403846153846    0.323529411765    0.000000000000       4
    0.423076923077    0.323529411765    0.000000000000       4
    0.442307692308    0.323529411765    0.000000000000       4
    0.461538461538    0.323529411765    0.000000000000       4
    0.480769230769    0.323529411765    0.000000000000       4
    0.500000000000    0.323529411765    0.000000000000       2
    0.000000000000    0.352941176471    0.000000000000       2
    0.019230769231    0.352941176471    0.000000000000       4
    0.038461538462    0.352941176471    0.000000000000       4
    0.057692307692    0.352941176471    0.000000000000       4
    0.076923076923    0.352941176471    0.000000000000       4
    0.096153846154    0.352941176471    0.000000000000       4
    0.115384615385    0.352941176471    0.000000000000       4
    0.134615384615    0.352941176471    0.000000000000       4
    0.153846153846    0.352941176471    0.000000000000       4
    0.173076923077    0.352941176471    0.000000000000       4
    0.192307692308    0.352941176471    0.000000000000       4
    0.211538461538    0.352941176471    0.000000000000       4
    0.230769230769    0.352941176471    0.000000000000       4
    0.250000000000    0.352941176471    0.000000000000       4
    0.269230769231    0.352941176471    0.000000000000       4
    0.288461538462    0.352941176471    0.000000000000       4
    0.307692307692    0.352941176471    0.000000000000       4
    0.326923076923    0.352941176471    0.000000000000       4
    0.346153846154    0.352941176471    0.000000000000       4
    0.365384615385    0.352941176471    0.000000000000       4
    0.384615384615    0.352941176471    0.000000000000       4
    0.403846153846    0.352941176471    0.000000000000       4
    0.423076923077    0.352941176471    0.000000000000       4
    0.442307692308    0.352941176471    0.000000000000       4
    0.461538461538    0.352941176471    0.000000000000       4
    0.480769230769    0.352941176471    0.000000000000       4
    0.500000000000    0.352941176471    0.000000000000       2
    0.000000000000    0.382352941176    0.000000000000       2
    0.019230769231    0.382352941176    0.000000000000       4
    0.038461538462    0.382352941176    0.000000000000       4
    0.057692307692    0.382352941176    0.000000000000       4
    0.076923076923    0.382352941176    0.000000000000       4
    0.096153846154    0.382352941176    0.000000000000       4
    0.115384615385    0.382352941176    0.000000000000       4
    0.134615384615    0.382352941176    0.000000000000       4
    0.153846153846    0.382352941176    0.000000000000       4
    0.173076923077    0.382352941176    0.000000000000       4
    0.192307692308    0.382352941176    0.000000000000       4
    0.211538461538    0.382352941176    0.000000000000       4
    0.230769230769    0.382352941176    0.000000000000       4
    0.250000000000    0.382352941176    0.000000000000       4
    0.269230769231    0.382352941176    0.000000000000       4
    0.288461538462    0.382352941176    0.000000000000       4
    0.307692307692    0.382352941176    0.000000000000       4
    0.326923076923    0.382352941176    0.000000000000       4
    0.346153846154    0.382352941176    0.000000000000       4
    0.365384615385    0.382352941176    0.000000000000       4
    0.384615384615    0.382352941176    0.000000000000       4
    0.403846153846    0.382352941176    0.000000000000       4
    0.423076923077    0.382352941176    0.000000000000       4
    0.442307692308    0.382352941176    0.000000000000       4
    0.461538461538    0.382352941176    0.000000000000       4
    0.480769230769    0.382352941176    0.000000000000       4
    0.500000000000    0.382352941176    0.000000000000       2
    0.000000000000    0.411764705882    0.000000000000       2
    0.019230769231    0.411764705882    0.000000000000       4
    0.038461538462    0.411764705882    0.000000000000       4
    0.057692307692    0.411764705882    0.000000000000       4
    0.076923076923    0.411764705882    0.000000000000       4
    0.096153846154    0.411764705882    0.000000000000       4
    0.115384615385    0.411764705882    0.000000000000       4
    0.134615384615    0.411764705882    0.000000000000       4
    0.153846153846    0.411764705882    0.000000000000       4
    0.173076923077    0.411764705882    0.000000000000       4
    0.192307692308    0.411764705882    0.000000000000       4
    0.211538461538    0.411764705882    0.000000000000       4
    0.230769230769    0.411764705882    0.000000000000       4
    0.250000000000    0.411764705882    0.000000000000       4
    0.269230769231    0.411764705882    0.000000000000       4
    0.288461538462    0.411764705882    0.000000000000       4
    0.307692307692    0.411764705882    0.000000000000       4
    0.326923076923    0.411764705882    0.000000000000       4
    0.346153846154    0.411764705882    0.000000000000       4
    0.365384615385    0.411764705882    0.000000000000       4
    0.384615384615    0.411764705882    0.000000000000       4
    0.403846153846    0.411764705882    0.000000000000       4
    0.423076923077    0.411764705882    0.000000000000       4
    0.442307692308    0.411764705882    0.000000000000       4
    0.461538461538    0.411764705882    0.000000000000       4
    0.480769230769    0.411764705882    0.000000000000       4
    0.500000000000    0.411764705882    0.000000000000       2
    0.000000000000    0.441176470588    0.000000000000       2
    0.019230769231    0.441176470588    0.000000000000       4
    0.038461538462    0.441176470588    0.000000000000       4
    0.057692307692    0.441176470588    0.000000000000       4
    0.076923076923    0.441176470588    0.000000000000       4
    0.096153846154    0.441176470588    0.000000000000       4
    0.115384615385    0.441176470588    0.000000000000       4
    0.134615384615    0.441176470588    0.000000000000       4
    0.153846153846    0.441176470588    0.000000000000       4
    0.173076923077    0.441176470588    0.000000000000       4
    0.192307692308    0.441176470588    0.000000000000       4
    0.211538461538    0.441176470588    0.000000000000       4
    0.230769230769    0.441176470588    0.000000000000       4
    0.250000000000    0.441176470588    0.000000000000       4
    0.269230769231    0.441176470588    0.000000000000       4
    0.288461538462    0.441176470588    0.000000000000       4
    0.307692307692    0.441176470588    0.000000000000       4
    0.326923076923    0.441176470588    0.000000000000       4
    0.346153846154    0.441176470588    0.000000000000       4
    0.365384615385    0.441176470588    0.000000000000       4
    0.384615384615    0.441176470588    0.000000000000       4
    0.403846153846    0.441176470588    0.000000000000       4
    0.423076923077    0.441176470588    0.000000000000       4
    0.442307692308    0.441176470588    0.000000000000       4
    0.461538461538    0.441176470588    0.000000000000       4
    0.480769230769    0.441176470588    0.000000000000       4
    0.500000000000    0.441176470588    0.000000000000       2
    0.000000000000    0.470588235294    0.000000000000       2
    0.019230769231    0.470588235294    0.000000000000       4
    0.038461538462    0.470588235294    0.000000000000       4
    0.057692307692    0.470588235294    0.000000000000       4
    0.076923076923    0.470588235294    0.000000000000       4
    0.096153846154    0.470588235294    0.000000000000       4
    0.115384615385    0.470588235294    0.000000000000       4
    0.134615384615    0.470588235294    0.000000000000       4
    0.153846153846    0.470588235294    0.000000000000       4
    0.173076923077    0.470588235294    0.000000000000       4
    0.192307692308    0.470588235294    0.000000000000       4
    0.211538461538    0.470588235294    0.000000000000       4
    0.230769230769    0.470588235294    0.000000000000       4
    0.250000000000    0.470588235294    0.000000000000       4
    0.269230769231    0.470588235294    0.000000000000       4
    0.288461538462    0.470588235294    0.000000000000       4
    0.307692307692    0.470588235294    0.000000000000       4
    0.326923076923    0.470588235294    0.000000000000       4
    0.346153846154    0.470588235294    0.000000000000       4
    0.365384615385    0.470588235294    0.000000000000       4
    0.384615384615    0.470588235294    0.000000000000       4
    0.403846153846    0.470588235294    0.000000000000       4
    0.423076923077    0.470588235294    0.000000000000       4
    0.442307692308    0.470588235294    0.000000000000       4
    0.461538461538    0.470588235294    0.000000000000       4
    0.480769230769    0.470588235294    0.000000000000       4
    0.500000000000    0.470588235294    0.000000000000       2
    0.000000000000    0.500000000000    0.000000000000       1
    0.019230769231    0.500000000000    0.000000000000       2
    0.038461538462    0.500000000000    0.000000000000       2
    0.057692307692    0.500000000000    0.000000000000       2
    0.076923076923    0.500000000000    0.000000000000       2
    0.096153846154    0.500000000000    0.000000000000       2
    0.115384615385    0.500000000000    0.000000000000       2
    0.134615384615    0.500000000000    0.000000000000       2
    0.153846153846    0.500000000000    0.000000000000       2
    0.173076923077    0.500000000000    0.000000000000       2
    0.192307692308    0.500000000000    0.000000000000       2
    0.211538461538    0.500000000000    0.000000000000       2
    0.230769230769    0.500000000000    0.000000000000       2
    0.250000000000    0.500000000000    0.000000000000       2
    0.269230769231    0.500000000000    0.000000000000       2