CONTCAR\(6)                             
   1.00000000000000     
    11.7456998825000003    0.0000000000000000    0.0000000000000000
     0.0000000000000000   17.6870002747000008    0.0000000000000000
     0.0000000000000000    0.0000000000000000   19.5771007537999999
   Ti   Ge   Te   O    H 
     6     6    36     1     1
Direct
  0.0845127174533644  0.4814492452487826  0.5141786850549224
  0.2559338689805770  0.9575210967966115  0.4880653863141546
  0.4180951911618962  0.4814430944604666  0.5147757794295273
  0.5848613403460661  0.9579898135250886  0.4877686416630027
  0.7517038702335057  0.4815508200730818  0.5141188174297966
  0.9204766670548707  0.9570994031150235  0.4880650924060888
  0.2518596200591290  0.8056308395382388  0.4809155155174665
  0.0849925572327521  0.6316845616446258  0.5242646465256584
  0.5845289043324371  0.8060423492185151  0.4810388825425491
  0.4179198620397742  0.6318407565787254  0.5236295829149924
  0.9188961907049276  0.8066121163508271  0.4822608564614015
  0.7512072377163292  0.6317858995234289  0.5242250922462830
  0.0867949921550846  0.9259453753966511  0.3819351326631448
  0.2517751337595726  0.2591749417348055  0.5749231018255330
  0.2508363083224694  0.0627111955727386  0.3780883418099492
  0.0870037226764069  0.9035141394783608  0.5860617195179998
  0.2510125047731506  0.5095915293612521  0.6212361140299834
  0.0846539347380570  0.3706207152678829  0.6195189919802644
  0.0877411778735606  0.1773224081875000  0.4218974207579436
  0.2516123155550503  0.7097763943618531  0.5923581708957641
  0.0853447944045698  0.7279498971081040  0.4131915841954665
  0.2514985890840578  0.3828189238259583  0.4591244495612443
  0.0878863525632241  0.0563225122686575  0.5417325089102363
  0.2513142210495616  0.5373355485905904  0.4178943565265669
  0.4205905462467925  0.9252966110478553  0.3810855916634637
  0.5845961543137221  0.2591768550211810  0.5752055097830251
  0.5900532321326324  0.0632164263349893  0.3780476063647242
  0.4184747270237850  0.8989740908799746  0.5850028830877179
  0.5855703626212403  0.5096559373991880  0.6211421284158760
  0.4180400016634351  0.3705940587061818  0.6202697485271713
  0.4200810709689762  0.1763042844628373  0.4212589945389169
  0.5847437144842900  0.7096762627746500  0.5923529735530764
  0.4185674494149652  0.7270595742355468  0.4120420195668899
  0.5845271762330313  0.3828801431954361  0.4591030762465422
  0.4204624221547419  0.0615553356293645  0.5348558437576614
  0.5843894092643680  0.5372652510865095  0.4177526399525178
  0.7538173220269115  0.9260826624796721  0.3818363511191407
  0.9178847622581827  0.2590712453107571  0.5733339879162074
  0.9206132601970722  0.0647904627122671  0.3802994409394316
  0.7524541056651941  0.9035161767669706  0.5858253908216540
  0.9183429373838763  0.5097156443102122  0.6210681839999665
  0.7514406682132702  0.3708595513740391  0.6195655423295037
  0.7534948004374655  0.1775356669057331  0.4221141279105112
  0.9182222465592531  0.7097834717446716  0.5927171885470557
  0.7515252251352607  0.7286839701827859  0.4135621939393346
  0.9179862181269343  0.3828213081286265  0.4586802856023482
  0.7539950363815819  0.0566067555286338  0.5414836054057162
  0.9180975493806542  0.5379287344802250  0.4177104529776869
  0.4018652389726682  0.9655483903258784  0.6721730073376690
  0.4501925584693325  0.9425073597480136  0.7071826765162399
 
  0.00000000E+00  0.00000000E+00  0.00000000E+00
  0.00000000E+00  0.00000000E+00  0.00000000E+00
  0.00000000E+00  0.00000000E+00  0.00000000E+00
  0.00000000E+00  0.00000000E+00  0.00000000E+00
  0.00000000E+00  0.00000000E+00  0.00000000E+00
  0.00000000E+00  0.00000000E+00  0.00000000E+00
  0.00000000E+00  0.00000000E+00  0.00000000E+00
  0.00000000E+00  0.00000000E+00  0.00000000E+00
  0.00000000E+00  0.00000000E+00  0.00000000E+00
  0.00000000E+00  0.00000000E+00  0.00000000E+00
  0.00000000E+00  0.00000000E+00  0.00000000E+00
  0.00000000E+00  0.00000000E+00  0.00000000E+00
  0.00000000E+00  0.00000000E+00  0.00000000E+00
  0.00000000E+00  0.00000000E+00  0.00000000E+00
  0.00000000E+00  0.00000000E+00  0.00000000E+00
  0.00000000E+00  0.00000000E+00  0.00000000E+00
  0.00000000E+00  0.00000000E+00  0.00000000E+00
  0.00000000E+00  0.00000000E+00  0.00000000E+00
  0.00000000E+00  0.00000000E+00  0.00000000E+00
  0.00000000E+00  0.00000000E+00  0.00000000E+00
  0.00000000E+00  0.00000000E+00  0.00000000E+00
  0.00000000E+00  0.00000000E+00  0.00000000E+00
  0.00000000E+00  0.00000000E+00  0.00000000E+00
  0.00000000E+00  0.00000000E+00  0.00000000E+00
  0.00000000E+00  0.00000000E+00  0.00000000E+00
  0.00000000E+00  0.00000000E+00  0.00000000E+00
  0.00000000E+00  0.00000000E+00  0.00000000E+00
  0.00000000E+00  0.00000000E+00  0.00000000E+00
  0.00000000E+00  0.00000000E+00  0.00000000E+00
  0.00000000E+00  0.00000000E+00  0.00000000E+00
  0.00000000E+00  0.00000000E+00  0.00000000E+00
  0.00000000E+00  0.00000000E+00  0.00000000E+00
  0.00000000E+00  0.00000000E+00  0.00000000E+00
  0.00000000E+00  0.00000000E+00  0.00000000E+00
  0.00000000E+00  0.00000000E+00  0.00000000E+00
  0.00000000E+00  0.00000000E+00  0.00000000E+00
  0.00000000E+00  0.00000000E+00  0.00000000E+00
  0.00000000E+00  0.00000000E+00  0.00000000E+00
  0.00000000E+00  0.00000000E+00  0.00000000E+00
  0.00000000E+00  0.00000000E+00  0.00000000E+00
  0.00000000E+00  0.00000000E+00  0.00000000E+00
  0.00000000E+00  0.00000000E+00  0.00000000E+00
  0.00000000E+00  0.00000000E+00  0.00000000E+00
  0.00000000E+00  0.00000000E+00  0.00000000E+00
  0.00000000E+00  0.00000000E+00  0.00000000E+00
  0.00000000E+00  0.00000000E+00  0.00000000E+00
  0.00000000E+00  0.00000000E+00  0.00000000E+00
  0.00000000E+00  0.00000000E+00  0.00000000E+00
  0.00000000E+00  0.00000000E+00  0.00000000E+00
  0.00000000E+00  0.00000000E+00  0.00000000E+00
