CONTCAR\(4)                             
   1.00000000000000     
    15.1381998061999994    0.0000000000000000    0.0000000000000000
     0.0000000000000000   18.7124004363999994    0.0000000000000000
     0.0000000000000000    0.0000000000000000   17.8572998046999984
   Cu   Te   O    H 
    16    16    50     1
Direct
  0.3456991631964001  0.2545926026816758  0.5258005444134000
  0.0955808078172922  0.4900540167274983  0.5189036901554616
  0.1545553626250253  0.2414609471261997  0.4746700449575201
  0.4044026419073816  0.0046327831019539  0.4825720379354053
  0.8457521420182061  0.2541656630071145  0.5258556491389541
  0.5960044048803965  0.4907660191754601  0.5195139935457291
  0.6546358018430709  0.2415265150409667  0.4751970258905374
  0.9042505986374465  0.0042466204136957  0.4825779159517722
  0.3463413860940818  0.7511842593575651  0.5276204047244093
  0.0958108553026875  0.9937731943744907  0.5335126262579450
  0.1545317715165311  0.7424811806838676  0.4759622133715666
  0.4045082404737528  0.5019472501445463  0.4676191389482725
  0.8464177326785531  0.7514734065666673  0.5290120691255353
  0.5957345606018691  0.9939744581888164  0.5341171107122165
  0.6542092886716091  0.7430321771648636  0.4781361550010175
  0.9041896594773391  0.5015009225702656  0.4684308753882007
  0.2761107499152757  0.1049690969955961  0.5816083398119076
  0.2245224320689658  0.3910203931057623  0.4188385092077596
  0.4741666335841686  0.3492792565656515  0.4205770049741986
  0.0264986954203295  0.1465642778002376  0.5801982963338972
  0.7762263025597420  0.1047014735736482  0.5819895123094980
  0.7243979585713518  0.3911339412079542  0.4190909911012710
  0.9741956999291546  0.3489626953835270  0.4200765274084404
  0.5262211241091777  0.1468420632724659  0.5805900698952655
  0.2763835896853664  0.5979402545715686  0.5717960767646915
  0.2237684767050325  0.8963498663971308  0.4313051842401876
  0.4735139671640027  0.8531989540151130  0.4312359969122426
  0.0276552451715943  0.6399995387962747  0.5745207649999102
  0.7770936464424381  0.5978864661700740  0.5723464095766104
  0.7235245544847260  0.8960804619129163  0.4320990129712570
  0.9737542085446051  0.8528092637656499  0.4309156877833331
  0.5256043885423836  0.6401250195761463  0.5750339731502194
  0.3050288109863430  0.0658676293828364  0.4881166293744172
  0.2614558710925436  0.2970196036381836  0.4533518957261862
  0.4002070327341585  0.1765787978204258  0.5805933173322302
  0.4891227858323717  0.0510683714421418  0.5517693731149294
  0.3502132682508261  0.4211837829006626  0.4171322658426320
  0.1503012947132305  0.0748359903349822  0.5831238936108605
  0.4452191165908417  0.3155285487461228  0.5164034051993767
  0.1952823759174080  0.4292432125687213  0.5126020843053922
  0.0110137304457112  0.4445043052365634  0.4496659758940211
  0.2388963048227168  0.1988628384120759  0.5468691533884211
  0.0549565968515324  0.1807297895470796  0.4844893037671696
  0.1000550094373978  0.3189710163031876  0.4190701991007231
  0.8049148701821593  0.0656022625229014  0.4884173325365069
  0.7613138928359930  0.2971599773765732  0.4541796216363139
  0.9004687366307280  0.1763136346295440  0.5804868016700695
  0.9892067090642911  0.0508345414030416  0.5512960264065683
  0.8497731296715330  0.4214700480830658  0.4160975003332439
  0.6503298140344356  0.0748641909154699  0.5839068754073793
  0.9452991129274295  0.3149336256962627  0.5157748144289229
  0.6960249189156258  0.4303034511761368  0.5126722379382613
  0.5113799498030289  0.4449591401077555  0.4494679535696378
  0.7391562413411279  0.1985557026070808  0.5472111510648787
  0.5550012811053264  0.1807444517773860  0.4848551686889166
  0.5997903248655376  0.3190992476713177  0.4203184444856944
  0.3063227283951235  0.5631703549092535  0.4748511574890060
  0.2606855210207399  0.8009688628612608  0.4615912510340578
  0.3991482733497591  0.6696642461910969  0.5776913553853262
  0.4894918907884289  0.5470744253043378  0.5372415824576606
  0.3503020060371540  0.9253173986496179  0.4299323122137082
  0.1496841579890571  0.5697578711998830  0.5694023796356475
  0.4444773249815839  0.8139516074162358  0.5246377737793892
  0.1951843575826260  0.9323738178577798  0.5262892546917968
  0.0102340922645396  0.9470249103585999  0.4656995639249359
  0.2415674493459221  0.6927461458489432  0.5377045371987492
  0.0546537116016381  0.6817342800944743  0.4817454030525923
  0.1001838939640649  0.8244356093042526  0.4279685213283244
  0.8053258382166248  0.5634711346325290  0.4766773140629752
  0.7601940736985711  0.8008233638508884  0.4634849770160798
  0.9007369900699018  0.6694956387894351  0.5767803866245416
  0.9895477273809234  0.5467212221362274  0.5379014878535244
  0.8499832408641765  0.9248138971489723  0.4302549487226912
  0.6500648146830557  0.5695391677904951  0.5734785136891105
  0.9452221177340405  0.8135858357585875  0.5244301828167934
  0.6950414428728706  0.9324002813681389  0.5269763581366433
  0.5102835832875598  0.9472948095120870  0.4661007340950150
  0.7403339522957495  0.6938486028891262  0.5433757023546235
  0.5543261486654956  0.6822407005780278  0.4829230620610119
  0.5999957170132006  0.8243135712056571  0.4289243622749197
  0.2301880661530191  0.6306589172917185  0.6986640502784809
  0.2863868886861667  0.6766506902633651  0.7376201648038219
  0.3055410243657235  0.6471336520541016  0.7802871602372079
 
  0.00000000E+00  0.00000000E+00  0.00000000E+00
  0.00000000E+00  0.00000000E+00  0.00000000E+00
  0.00000000E+00  0.00000000E+00  0.00000000E+00
  0.00000000E+00  0.00000000E+00  0.00000000E+00
  0.00000000E+00  0.00000000E+00  0.00000000E+00
  0.00000000E+00  0.00000000E+00  0.00000000E+00
  0.00000000E+00  0.00000000E+00  0.00000000E+00
  0.00000000E+00  0.00000000E+00  0.00000000E+00
  0.00000000E+00  0.00000000E+00  0.00000000E+00
  0.00000000E+00  0.00000000E+00  0.00000000E+00
  0.00000000E+00  0.00000000E+00  0.00000000E+00
  0.00000000E+00  0.00000000E+00  0.00000000E+00
  0.00000000E+00  0.00000000E+00  0.00000000E+00
  0.00000000E+00  0.00000000E+00  0.00000000E+00
  0.00000000E+00  0.00000000E+00  0.00000000E+00
  0.00000000E+00  0.00000000E+00  0.00000000E+00
  0.00000000E+00  0.00000000E+00  0.00000000E+00
  0.00000000E+00  0.00000000E+00  0.00000000E+00
  0.00000000E+00  0.00000000E+00  0.00000000E+00
  0.00000000E+00  0.00000000E+00  0.00000000E+00
  0.00000000E+00  0.00000000E+00  0.00000000E+00
  0.00000000E+00  0.00000000E+00  0.00000000E+00
  0.00000000E+00  0.00000000E+00  0.00000000E+00
  0.00000000E+00  0.00000000E+00  0.00000000E+00
  0.00000000E+00  0.00000000E+00  0.00000000E+00
  0.00000000E+00  0.00000000E+00  0.00000000E+00
  0.00000000E+00  0.00000000E+00  0.00000000E+00
  0.00000000E+00  0.00000000E+00  0.00000000E+00
  0.00000000E+00  0.00000000E+00  0.00000000E+00
  0.00000000E+00  0.00000000E+00  0.00000000E+00
  0.00000000E+00  0.00000000E+00  0.00000000E+00
  0.00000000E+00  0.00000000E+00  0.00000000E+00
  0.00000000E+00  0.00000000E+00  0.00000000E+00
  0.00000000E+00  0.00000000E+00  0.00000000E+00
  0.00000000E+00  0.00000000E+00  0.00000000E+00
  0.00000000E+00  0.00000000E+00  0.00000000E+00
  0.00000000E+00  0.00000000E+00  0.00000000E+00
  0.00000000E+00  0.00000000E+00  0.00000000E+00
  0.00000000E+00  0.00000000E+00  0.00000000E+00
  0.00000000E+00  0.00000000E+00  0.00000000E+00
  0.00000000E+00  0.00000000E+00  0.00000000E+00
  0.00000000E+00  0.00000000E+00  0.00000000E+00
  0.00000000E+00  0.00000000E+00  0.00000000E+00
  0.00000000E+00  0.00000000E+00  0.00000000E+00
  0.00000000E+00  0.00000000E+00  0.00000000E+00
  0.00000000E+00  0.00000000E+00  0.00000000E+00
  0.00000000E+00  0.00000000E+00  0.00000000E+00
  0.00000000E+00  0.00000000E+00  0.00000000E+00
  0.00000000E+00  0.00000000E+00  0.00000000E+00
  0.00000000E+00  0.00000000E+00  0.00000000E+00
  0.00000000E+00  0.00000000E+00  0.00000000E+00
  0.00000000E+00  0.00000000E+00  0.00000000E+00
  0.00000000E+00  0.00000000E+00  0.00000000E+00
  0.00000000E+00  0.00000000E+00  0.00000000E+00
  0.00000000E+00  0.00000000E+00  0.00000000E+00
  0.00000000E+00  0.00000000E+00  0.00000000E+00
  0.00000000E+00  0.00000000E+00  0.00000000E+00
  0.00000000E+00  0.00000000E+00  0.00000000E+00
  0.00000000E+00  0.00000000E+00  0.00000000E+00
  0.00000000E+00  0.00000000E+00  0.00000000E+00
  0.00000000E+00  0.00000000E+00  0.00000000E+00
  0.00000000E+00  0.00000000E+00  0.00000000E+00
  0.00000000E+00  0.00000000E+00  0.00000000E+00
  0.00000000E+00  0.00000000E+00  0.00000000E+00
  0.00000000E+00  0.00000000E+00  0.00000000E+00
  0.00000000E+00  0.00000000E+00  0.00000000E+00
  0.00000000E+00  0.00000000E+00  0.00000000E+00
  0.00000000E+00  0.00000000E+00  0.00000000E+00
  0.00000000E+00  0.00000000E+00  0.00000000E+00
  0.00000000E+00  0.00000000E+00  0.00000000E+00
  0.00000000E+00  0.00000000E+00  0.00000000E+00
  0.00000000E+00  0.00000000E+00  0.00000000E+00
  0.00000000E+00  0.00000000E+00  0.00000000E+00
  0.00000000E+00  0.00000000E+00  0.00000000E+00
  0.00000000E+00  0.00000000E+00  0.00000000E+00
  0.00000000E+00  0.00000000E+00  0.00000000E+00
  0.00000000E+00  0.00000000E+00  0.00000000E+00
  0.00000000E+00  0.00000000E+00  0.00000000E+00
  0.00000000E+00  0.00000000E+00  0.00000000E+00
  0.00000000E+00  0.00000000E+00  0.00000000E+00
  0.00000000E+00  0.00000000E+00  0.00000000E+00
  0.00000000E+00  0.00000000E+00  0.00000000E+00
  0.00000000E+00  0.00000000E+00  0.00000000E+00
