 La4 C2 Br5                             
   1.00000000000000     
     4.0081981909547428    0.0000000000000000    0.0000000000000000
     0.0000000000000000    8.2668303863381478    0.0000000000000000
     0.0000000000000000    0.0000000000000000   21.2348222565480000
   La   C    Br
     4     2     5
Direct
  0.5000245891100297  0.2062922666168124  0.4999908789979604
  0.9997652078100329  0.0000573463646456  0.6393175857598787
  0.5000494755342246  0.7937359983871867  0.5000087177796659
  0.0003095604208800  0.9999766174708046  0.3606821508326303
  0.0000909593583904  0.9999956649335926  0.4667746757086125
  0.9999818169606546  0.0000334815451462  0.5332249806472666
  0.5002530685459651  0.2717687577868217  0.3531726376483519
  0.5003199213670408  0.7282003153945070  0.3531774526907122
  0.4997416560962857  0.2718290691435250  0.6468229390325282
  0.4998201336461999  0.7282672786837542  0.6468279989433472
  0.0000457424337049  0.5000070229164948  0.4999999819590462
 
  0.00000000E+00  0.00000000E+00  0.00000000E+00
  0.00000000E+00  0.00000000E+00  0.00000000E+00
  0.00000000E+00  0.00000000E+00  0.00000000E+00
  0.00000000E+00  0.00000000E+00  0.00000000E+00
  0.00000000E+00  0.00000000E+00  0.00000000E+00
  0.00000000E+00  0.00000000E+00  0.00000000E+00
  0.00000000E+00  0.00000000E+00  0.00000000E+00
  0.00000000E+00  0.00000000E+00  0.00000000E+00
  0.00000000E+00  0.00000000E+00  0.00000000E+00
  0.00000000E+00  0.00000000E+00  0.00000000E+00
  0.00000000E+00  0.00000000E+00  0.00000000E+00
