CONTCAR                                 
   1.00000000000000     
    13.4492998122999996    0.0000000000000000    0.0000000000000000
     0.0000000000000000   13.4492998122999996    0.0000000000000000
     0.0000000000000000    0.0000000000000000   22.2562007904000012
   Ta   Se   O    H 
    64    32     2     1
Direct
  0.1243191878854577  0.0000403080106066  0.6067436529331706
  0.0001463632755014  0.1251988312110945  0.3926357084265537
  0.9996191279768267  0.1247857177993766  0.5336600668502542
  0.1249323541149550  0.0001078879083133  0.4653911000632813
  0.3750671783740737  0.0001057740710945  0.6070484433814759
  0.2499307609551105  0.1251010075020426  0.3930353051191739
  0.2499742815775544  0.1251293152946477  0.5341752301485388
  0.3750027300673208  0.0001469292728778  0.4658242027283067
  0.6256052251515170  0.0001059468700540  0.6067303851020870
  0.4998617975877171  0.1251539535687199  0.3929912248892093
  0.4998401478740725  0.1252729386752965  0.5341014530613659
  0.6249625579038361  0.0001598878609384  0.4653983477992337
  0.8750384468195495  0.0001168302207797  0.6068708775770727
  0.7496811014179131  0.1251650241123866  0.3925906110652077
  0.7502240571208352  0.1249286738035131  0.5336251967226499
  0.8749636098502668  0.0001032360925685  0.4653208614599094
  0.1230537747262531  0.2479422436277890  0.6063891286167847
 -0.0000134437421510  0.3750551685066459  0.3930284128740421
 -0.0000017162326969  0.3751430789490852  0.5341099901441383
  0.1248356949919801  0.2500149873299176  0.4656632812159250
  0.3744997864620470  0.2501535839000811  0.6078496819075186
  0.2496243317090641  0.3746294346848057  0.3938468569928968
  0.2507996479445096  0.3758235114232554  0.5355619716952910
  0.3748100529211329  0.2508035945963345  0.4662968385794337
  0.6264888991526223  0.2486036244954898  0.6058796914984296
  0.5001972007312421  0.3747485809658806  0.3938848910086015
  0.4986009539412521  0.3763407389764142  0.5354812541408158
  0.6249428397202399  0.2501523746568381  0.4656085438018087
  0.8750946734699917  0.2496094773152972  0.6066645147612973
  0.7498889098900544  0.3751299126404821  0.3929845606722422
  0.7498442165569448  0.3753051338857578  0.5340456826017107
  0.8749075465534444  0.2501148546877686  0.4653387735729207
  0.1258936439750173  0.4998798236690512  0.6078339660778030
  0.0000366881948320  0.6251548385966410  0.3930219006945792
  0.0001963079667112  0.6249686282394071  0.5340572309866637
  0.1257627227371352  0.5000049771057780  0.4663776517363976
  0.3749850635393961  0.4985478056604280  0.6202787012334176
  0.2497082065537915  0.6253353263395809  0.3940886144937834
  0.2513996506458899  0.6239157448784671  0.5356887980976455
  0.3749423024570222  0.5001613103532412  0.4668244048461911
  0.6244512630311192  0.5008364543189163  0.6077146552097235
  0.5002952114933645  0.6253874919499147  0.3940392001433821
  0.4989877279703495  0.6242745701476469  0.5356272744989578
  0.6242080903793705  0.5002527250836257  0.4663526827209142
  0.8751492916287833  0.5002701350206119  0.6068613833913510
  0.7499699923731244  0.6252078371295856  0.3930231575249205
  0.7499948277692496  0.6250440855656767  0.5341172046629610
  0.8749915808000212  0.5001098939763203  0.4657552207433418
  0.1234080975452789  0.7521243870848241  0.6058641881782598
  0.0001985440870548  0.8748242830869440  0.3925065731984319
 -0.0002828381221790  0.8753891932849253  0.5336022438119139
  0.1250197563811929  0.7500924434943763  0.4656515182180582
  0.3754772714510559  0.7499365574518835  0.6079793663827344
  0.2500176506937982  0.8750327236844100  0.3930558457741311
  0.2502128736868288  0.8751493887792322  0.5341259223552679
  0.3750920959828406  0.7493617983515619  0.4664706702977958
  0.6271995472772425  0.7524111032764628  0.6062636947288678
  0.4999325012863262  0.8750688829718408  0.3930718942624989
  0.4999580183339051  0.8752005582036911  0.5341926894042079
  0.6250623902176615  0.7501724344658591  0.4656861057718793
  0.8750969759986064  0.7508408088450542  0.6066507694150570
  0.7496360144662506  0.8748247991769417  0.3926204732274187
  0.7503901341936527  0.8754578397735062  0.5336368289891099
  0.8750396738724296  0.7500837421266398  0.4653518185081907
  0.9992589420721348  0.1245306127946364  0.6637329591942552
  0.1253216027828382 -0.0000589928740965  0.3362439705399599
  0.2496104788805549  0.1238667208680430  0.6633201296528909
  0.3749508227471865  0.0001221135321625  0.3365274742279605
  0.5001284295438547  0.1242391899086272  0.6631544834933402
  0.6245753789974575  0.0000748246570106  0.3362169513908339
  0.7505157375717856  0.1247525125696780  0.6633926871160036
  0.8748542148915340 -0.0000431321312885  0.3362810904764509
  0.9990572212175859  0.3748367454025361  0.6632443485178188
  0.1250176888813363  0.2500211746580552  0.3363539827995068
  0.2426689988055125  0.3679391378662595  0.6636687568766287
  0.3749069229036882  0.2500885131124963  0.3368531583136868
  0.5057854676622499  0.3695322998447106  0.6624943105365324
  0.6248138263905988  0.2501090593853932  0.3363284850492627
  0.7507956081953888  0.3750805522849389  0.6629475753586387
  0.8747323935914021  0.2503867282884079  0.3362330004373614
  0.9993535949794158  0.6254257750994546  0.6630173843753914
  0.1250066641327284  0.5001192892998108  0.3370198789717483
  0.2438812508873530  0.6314321126743321  0.6632461083156415
  0.3749951916593504  0.5000146599678377  0.3378741479685392
  0.5070747491656742  0.6324506086858751  0.6636284260572833
  0.6250901335417196  0.5001847592329399  0.3369723067414341
  0.7510952851137254  0.6257031062444797  0.6632491324789404
  0.8749488748942605  0.5001429780501307  0.3364941409217452
  0.9995351047784439  0.8755449978894331  0.6636558669344081
  0.1251593767791278  0.7500846030202958  0.3363192861320872
  0.2499465970029846  0.8759383991357480  0.6631770064478145
  0.3749809524930868  0.7499784101961854  0.3370934293249228
  0.5004080141644608  0.8762124634475852  0.6634796761849318
  0.6249277482801023  0.7501763579925705  0.3363287341994899
  0.7508303753119000  0.8758387768098179  0.6637124284907757
  0.8748324119446510  0.7497451271159736  0.3361824426748041
  0.3669859345464229  0.5127630425761585  0.7173074928962503
  0.3919075848973100  0.4305779021051782  0.7594274185618805
  0.3778727546766560  0.4655632952794646  0.7970401903436458
 
  0.00000000E+00  0.00000000E+00  0.00000000E+00
  0.00000000E+00  0.00000000E+00  0.00000000E+00
  0.00000000E+00  0.00000000E+00  0.00000000E+00
  0.00000000E+00  0.00000000E+00  0.00000000E+00
  0.00000000E+00  0.00000000E+00  0.00000000E+00
  0.00000000E+00  0.00000000E+00  0.00000000E+00
  0.00000000E+00  0.00000000E+00  0.00000000E+00
  0.00000000E+00  0.00000000E+00  0.00000000E+00
  0.00000000E+00  0.00000000E+00  0.00000000E+00
  0.00000000E+00  0.00000000E+00  0.00000000E+00
  0.00000000E+00  0.00000000E+00  0.00000000E+00
  0.00000000E+00  0.00000000E+00  0.00000000E+00
  0.00000000E+00  0.00000000E+00  0.00000000E+00
  0.00000000E+00  0.00000000E+00  0.00000000E+00
  0.00000000E+00  0.00000000E+00  0.00000000E+00
  0.00000000E+00  0.00000000E+00  0.00000000E+00
  0.00000000E+00  0.00000000E+00  0.00000000E+00
  0.00000000E+00  0.00000000E+00  0.00000000E+00
  0.00000000E+00  0.00000000E+00  0.00000000E+00
  0.00000000E+00  0.00000000E+00  0.00000000E+00
  0.00000000E+00  0.00000000E+00  0.00000000E+00
  0.00000000E+00  0.00000000E+00  0.00000000E+00
  0.00000000E+00  0.00000000E+00  0.00000000E+00
  0.00000000E+00  0.00000000E+00  0.00000000E+00
  0.00000000E+00  0.00000000E+00  0.00000000E+00
  0.00000000E+00  0.00000000E+00  0.00000000E+00
  0.00000000E+00  0.00000000E+00  0.00000000E+00
  0.00000000E+00  0.00000000E+00  0.00000000E+00
  0.00000000E+00  0.00000000E+00  0.00000000E+00
  0.00000000E+00  0.00000000E+00  0.00000000E+00
  0.00000000E+00  0.00000000E+00  0.00000000E+00
  0.00000000E+00  0.00000000E+00  0.00000000E+00
  0.00000000E+00  0.00000000E+00  0.00000000E+00
  0.00000000E+00  0.00000000E+00  0.00000000E+00
  0.00000000E+00  0.00000000E+00  0.00000000E+00
  0.00000000E+00  0.00000000E+00  0.00000000E+00
  0.00000000E+00  0.00000000E+00  0.00000000E+00
  0.00000000E+00  0.00000000E+00  0.00000000E+00
  0.00000000E+00  0.00000000E+00  0.00000000E+00
  0.00000000E+00  0.00000000E+00  0.00000000E+00
  0.00000000E+00  0.00000000E+00  0.00000000E+00
  0.00000000E+00  0.00000000E+00  0.00000000E+00
  0.00000000E+00  0.00000000E+00  0.00000000E+00
  0.00000000E+00  0.00000000E+00  0.00000000E+00
  0.00000000E+00  0.00000000E+00  0.00000000E+00
  0.00000000E+00  0.00000000E+00  0.00000000E+00
  0.00000000E+00  0.00000000E+00  0.00000000E+00
  0.00000000E+00  0.00000000E+00  0.00000000E+00
  0.00000000E+00  0.00000000E+00  0.00000000E+00
  0.00000000E+00  0.00000000E+00  0.00000000E+00
  0.00000000E+00  0.00000000E+00  0.00000000E+00
  0.00000000E+00  0.00000000E+00  0.00000000E+00
  0.00000000E+00  0.00000000E+00  0.00000000E+00
  0.00000000E+00  0.00000000E+00  0.00000000E+00
  0.00000000E+00  0.00000000E+00  0.00000000E+00
  0.00000000E+00  0.00000000E+00  0.00000000E+00
  0.00000000E+00  0.00000000E+00  0.00000000E+00
  0.00000000E+00  0.00000000E+00  0.00000000E+00
  0.00000000E+00  0.00000000E+00  0.00000000E+00
  0.00000000E+00  0.00000000E+00  0.00000000E+00
  0.00000000E+00  0.00000000E+00  0.00000000E+00
  0.00000000E+00  0.00000000E+00  0.00000000E+00
  0.00000000E+00  0.00000000E+00  0.00000000E+00
  0.00000000E+00  0.00000000E+00  0.00000000E+00
  0.00000000E+00  0.00000000E+00  0.00000000E+00
  0.00000000E+00  0.00000000E+00  0.00000000E+00
  0.00000000E+00  0.00000000E+00  0.00000000E+00
  0.00000000E+00  0.00000000E+00  0.00000000E+00
  0.00000000E+00  0.00000000E+00  0.00000000E+00
  0.00000000E+00  0.00000000E+00  0.00000000E+00
  0.00000000E+00  0.00000000E+00  0.00000000E+00
  0.00000000E+00  0.00000000E+00  0.00000000E+00
  0.00000000E+00  0.00000000E+00  0.00000000E+00
  0.00000000E+00  0.00000000E+00  0.00000000E+00
  0.00000000E+00  0.00000000E+00  0.00000000E+00
  0.00000000E+00  0.00000000E+00  0.00000000E+00
  0.00000000E+00  0.00000000E+00  0.00000000E+00
  0.00000000E+00  0.00000000E+00  0.00000000E+00
  0.00000000E+00  0.00000000E+00  0.00000000E+00
  0.00000000E+00  0.00000000E+00  0.00000000E+00
  0.00000000E+00  0.00000000E+00  0.00000000E+00
  0.00000000E+00  0.00000000E+00  0.00000000E+00
  0.00000000E+00  0.00000000E+00  0.00000000E+00
  0.00000000E+00  0.00000000E+00  0.00000000E+00
  0.00000000E+00  0.00000000E+00  0.00000000E+00
  0.00000000E+00  0.00000000E+00  0.00000000E+00
  0.00000000E+00  0.00000000E+00  0.00000000E+00
  0.00000000E+00  0.00000000E+00  0.00000000E+00
  0.00000000E+00  0.00000000E+00  0.00000000E+00
  0.00000000E+00  0.00000000E+00  0.00000000E+00
  0.00000000E+00  0.00000000E+00  0.00000000E+00
  0.00000000E+00  0.00000000E+00  0.00000000E+00
  0.00000000E+00  0.00000000E+00  0.00000000E+00
  0.00000000E+00  0.00000000E+00  0.00000000E+00
  0.00000000E+00  0.00000000E+00  0.00000000E+00
  0.00000000E+00  0.00000000E+00  0.00000000E+00
  0.00000000E+00  0.00000000E+00  0.00000000E+00
  0.00000000E+00  0.00000000E+00  0.00000000E+00
  0.00000000E+00  0.00000000E+00  0.00000000E+00
