 Ni1 I2                                 
   1.00000000000000     
     3.9330774360522271    0.0000000000000000    0.0000000000000000
     1.9665392158869155    3.4061416083787548    0.0000000000000000
     0.0000000000000000    0.0000000000000000   18.0077052438300029
   Ni   I 
     1     2
Direct
  0.0000000018154828  0.0000000000712088  0.5000000002175384
  0.3333332311664080  0.3333332693857248  0.5842628934546389
  0.6666667670181093  0.6666667305430665  0.4157371063278228
 
  0.00000000E+00  0.00000000E+00  0.00000000E+00
  0.00000000E+00  0.00000000E+00  0.00000000E+00
  0.00000000E+00  0.00000000E+00  0.00000000E+00
