CONTCAR\(4)                             
   1.00000000000000     
    10.8957996367999996    0.0000000000000000    0.0000000000000000
     0.0000000000000000   12.8001003265000008    0.0000000000000000
     0.0000000000000000    0.0000000000000000   21.8099994658999989
   Cu   Si   P    O    H 
    12    24    36     1     1
Direct
  0.0005335356909108  0.1099201424271103  0.4617000638270057
  0.0041358600548383  0.2919271255045581  0.3603923589714144
  0.3327309482861645  0.1100070477889829  0.4611599007957545
  0.3335077477306496  0.2889606246157469  0.3617743186962156
  0.6647570632923404  0.1098807701458187  0.4616093742389834
  0.6629824348174375  0.2917053245877189  0.3602805348034695
  0.9938900086879517  0.6109450753873003  0.4639892245615760
  0.0010703997257051  0.7905682333853308  0.3617263047469867
  0.3337259527634500  0.6108485174738180  0.4584428336872775
  0.3335167482547409  0.7816058038127133  0.3476842582530451
  0.6742942839771563  0.6109644364817256  0.4640096679798828
  0.6660288772333962  0.7905956508973110  0.3616888860118956
  0.1686305654867214  0.0453911048242103  0.3853539264425449
  0.1672517145040990  0.1982541739506034  0.6073804701332647
  0.1676618436731764  0.3597431501684700  0.4796794044416927
  0.0000544510114987  0.4469624721801005  0.6138570294046811
  0.5001570265808782  0.0452513110826737  0.3853053776082622
  0.4996276513924569  0.1982854426417776  0.6073923975756216
  0.4987820723971107  0.3598478108004557  0.4796413073561406
  0.3334899041729651  0.4462457393315362  0.6146338911604194
  0.8344158903763551  0.0489203455472641  0.3861640794723716
  0.8334362793237318  0.1968484200523902  0.6081918500447921
  0.8331714202154474  0.3552429985702202  0.4805422730201008
  0.6668974342405232  0.4468812930444793  0.6138618826524966
  0.1888743933131206  0.5567564719329091  0.3791843599136691
  0.1681409729139563  0.6970658733090407  0.6078185298107530
  0.1685448137873555  0.8539130396957807  0.4793292378349303
  0.0016048383245890  0.9466862209312760  0.6133486010932416
  0.4768964435677407  0.5565280132212469  0.3786526674538864
  0.4991383351657894  0.6970070230706826  0.6077268508378706
  0.4989241357652081  0.8538434098201040  0.4793548890346475
  0.3336983961542713  0.9469130568419681  0.6134563999565089
  0.8331604864472900  0.5475806976866363  0.3882658825461661
  0.8335910840434029  0.6993161552398661  0.6107535570963176
  0.8336320571431113  0.8574707241298082  0.4813137627145084
  0.6658850285791029  0.9467951048520714  0.6134606513357992
  0.0021187728750168  0.1228752689838662  0.3456411898227280
  0.1667355959458481  0.1923903743347005  0.5045913292017763
  0.1696584487550846  0.3832896625842908  0.3781976821729315
  0.0002576161814352  0.2786435693453758  0.6538255856205335
  0.9991919596056498  0.4510696938971446  0.5107310201131303
  0.1674061670258270  0.0341208740072296  0.6543476567908171
  0.3344559201951658  0.1214269977006218  0.3450683673336743
  0.4987592199558055  0.1924543859976433  0.5045881904110421
  0.4974588729117898  0.3832239087869086  0.3781524852439301
  0.3333999079937356  0.2782613968606008  0.6545626882028278
  0.3332408229685299  0.4531470632093558  0.5120970968678459
  0.4998864503194844  0.0341476950963101  0.6543945960976152
  0.6667249102723715  0.1226775235607862  0.3455725676604833
  0.8326537857533595  0.1885112090747850  0.5056683515675992
  0.8334582933609413  0.3756420437610722  0.3791388700942248
  0.6666221732879520  0.2785958629968041  0.6539009669650121
  0.6673533676697927  0.4511282016506007  0.5107363071649627
  0.8338354684113384  0.0323372247935690  0.6543124225505635
  0.0035980945293950  0.6219647407725893  0.3503332692830981
  0.1670843099051487  0.6870719702656016  0.5047850420303542
  0.1722530582448696  0.8733445381766154  0.3779233902393736
  0.0030004836043884  0.7799336296290484  0.6549437099120331
  0.0026570805056477  0.9501930519017080  0.5100725070962652
  0.1666922188142444  0.5331968189413741  0.6553632897549501
  0.3322252291251763  0.6188110284675916  0.3125408648149265
  0.5008134295639075  0.6868893948763556  0.5046825532183931
  0.4948435878450049  0.8732424667784379  0.3779487377081123
  0.3337102482937236  0.7791321802901183  0.6542050892466618
  0.3337641980039412  0.9502078681905918  0.5101563501697908
  0.5003860028569438  0.5332093451786275  0.6553629226046734
  0.6624956474637271  0.6219940127396859  0.3505574336343516
  0.8340382138414946  0.6937017062148809  0.5095537658010953
  0.8335339434697916  0.8769649116313590  0.3797597832285730
  0.6641750254156772  0.7799110219754897  0.6549527846039986
  0.6646343166943443  0.9502386871241961  0.5101494287066484
  0.8334540220347263  0.5329700376689988  0.6555812528994993
  0.3304539695365686  0.5973391857468413  0.2377119360958203
  0.3275685676675265  0.5230819923545592  0.2274417855554797
 
  0.00000000E+00  0.00000000E+00  0.00000000E+00
  0.00000000E+00  0.00000000E+00  0.00000000E+00
  0.00000000E+00  0.00000000E+00  0.00000000E+00
  0.00000000E+00  0.00000000E+00  0.00000000E+00
  0.00000000E+00  0.00000000E+00  0.00000000E+00
  0.00000000E+00  0.00000000E+00  0.00000000E+00
  0.00000000E+00  0.00000000E+00  0.00000000E+00
  0.00000000E+00  0.00000000E+00  0.00000000E+00
  0.00000000E+00  0.00000000E+00  0.00000000E+00
  0.00000000E+00  0.00000000E+00  0.00000000E+00
  0.00000000E+00  0.00000000E+00  0.00000000E+00
  0.00000000E+00  0.00000000E+00  0.00000000E+00
  0.00000000E+00  0.00000000E+00  0.00000000E+00
  0.00000000E+00  0.00000000E+00  0.00000000E+00
  0.00000000E+00  0.00000000E+00  0.00000000E+00
  0.00000000E+00  0.00000000E+00  0.00000000E+00
  0.00000000E+00  0.00000000E+00  0.00000000E+00
  0.00000000E+00  0.00000000E+00  0.00000000E+00
  0.00000000E+00  0.00000000E+00  0.00000000E+00
  0.00000000E+00  0.00000000E+00  0.00000000E+00
  0.00000000E+00  0.00000000E+00  0.00000000E+00
  0.00000000E+00  0.00000000E+00  0.00000000E+00
  0.00000000E+00  0.00000000E+00  0.00000000E+00
  0.00000000E+00  0.00000000E+00  0.00000000E+00
  0.00000000E+00  0.00000000E+00  0.00000000E+00
  0.00000000E+00  0.00000000E+00  0.00000000E+00
  0.00000000E+00  0.00000000E+00  0.00000000E+00
  0.00000000E+00  0.00000000E+00  0.00000000E+00
  0.00000000E+00  0.00000000E+00  0.00000000E+00
  0.00000000E+00  0.00000000E+00  0.00000000E+00
  0.00000000E+00  0.00000000E+00  0.00000000E+00
  0.00000000E+00  0.00000000E+00  0.00000000E+00
  0.00000000E+00  0.00000000E+00  0.00000000E+00
  0.00000000E+00  0.00000000E+00  0.00000000E+00
  0.00000000E+00  0.00000000E+00  0.00000000E+00
  0.00000000E+00  0.00000000E+00  0.00000000E+00
  0.00000000E+00  0.00000000E+00  0.00000000E+00
  0.00000000E+00  0.00000000E+00  0.00000000E+00
  0.00000000E+00  0.00000000E+00  0.00000000E+00
  0.00000000E+00  0.00000000E+00  0.00000000E+00
  0.00000000E+00  0.00000000E+00  0.00000000E+00
  0.00000000E+00  0.00000000E+00  0.00000000E+00
  0.00000000E+00  0.00000000E+00  0.00000000E+00
  0.00000000E+00  0.00000000E+00  0.00000000E+00
  0.00000000E+00  0.00000000E+00  0.00000000E+00
  0.00000000E+00  0.00000000E+00  0.00000000E+00
  0.00000000E+00  0.00000000E+00  0.00000000E+00
  0.00000000E+00  0.00000000E+00  0.00000000E+00
  0.00000000E+00  0.00000000E+00  0.00000000E+00
  0.00000000E+00  0.00000000E+00  0.00000000E+00
  0.00000000E+00  0.00000000E+00  0.00000000E+00
  0.00000000E+00  0.00000000E+00  0.00000000E+00
  0.00000000E+00  0.00000000E+00  0.00000000E+00
  0.00000000E+00  0.00000000E+00  0.00000000E+00
  0.00000000E+00  0.00000000E+00  0.00000000E+00
  0.00000000E+00  0.00000000E+00  0.00000000E+00
  0.00000000E+00  0.00000000E+00  0.00000000E+00
  0.00000000E+00  0.00000000E+00  0.00000000E+00
  0.00000000E+00  0.00000000E+00  0.00000000E+00
  0.00000000E+00  0.00000000E+00  0.00000000E+00
  0.00000000E+00  0.00000000E+00  0.00000000E+00
  0.00000000E+00  0.00000000E+00  0.00000000E+00
  0.00000000E+00  0.00000000E+00  0.00000000E+00
  0.00000000E+00  0.00000000E+00  0.00000000E+00
  0.00000000E+00  0.00000000E+00  0.00000000E+00
  0.00000000E+00  0.00000000E+00  0.00000000E+00
  0.00000000E+00  0.00000000E+00  0.00000000E+00
  0.00000000E+00  0.00000000E+00  0.00000000E+00
  0.00000000E+00  0.00000000E+00  0.00000000E+00
  0.00000000E+00  0.00000000E+00  0.00000000E+00
  0.00000000E+00  0.00000000E+00  0.00000000E+00
  0.00000000E+00  0.00000000E+00  0.00000000E+00
  0.00000000E+00  0.00000000E+00  0.00000000E+00
  0.00000000E+00  0.00000000E+00  0.00000000E+00
