 Nb4 S12                                
   1.00000000000000     
     4.9519635914221602    0.0000000000000000    0.0000000000000000
     0.0000000000000000    6.7277861122713567    0.0000000000000000
     0.0000000000000000    0.0000000000000000   21.2883967832399996
   Nb   S 
     4    12
Direct
  0.7035822527685269  0.8495779570083712  0.4367480181834935
  0.7038796917276144  0.3997055938784655  0.4330171592195811
  0.2032276049866724  0.1465997107537902  0.5632485966891352
  0.2029095086225681  0.5964614492277391  0.5669833258115418
  0.9957587766555562  0.3665037641218802  0.6457695541091013
  0.7034123514244470  0.1318442263389059  0.5187215980234328
  0.7030525333011610  0.6130259243709020  0.5266580959142928
  0.2037446738201751  0.3831551510640594  0.4733404518530051
  0.5032923549656161  0.6294653796235679  0.3528038984644155
  0.2033702258776628  0.8643386803181556  0.4812770599732872
  0.9988276148041066  0.8749232096034092  0.6348094969664260
  0.9079642527401077  0.1212564401784348  0.3651910211434455
  0.9110493194536886  0.6296636809454341  0.3542305978899023
  0.4035020049042117  0.3666959057138541  0.6472014599063272
  0.4064590056722039  0.8748299969251079  0.6349773329178348
  0.5003303069831304  0.1213519299279184  0.3650223329347639
 
  0.00000000E+00  0.00000000E+00  0.00000000E+00
  0.00000000E+00  0.00000000E+00  0.00000000E+00
  0.00000000E+00  0.00000000E+00  0.00000000E+00
  0.00000000E+00  0.00000000E+00  0.00000000E+00
  0.00000000E+00  0.00000000E+00  0.00000000E+00
  0.00000000E+00  0.00000000E+00  0.00000000E+00
  0.00000000E+00  0.00000000E+00  0.00000000E+00
  0.00000000E+00  0.00000000E+00  0.00000000E+00
  0.00000000E+00  0.00000000E+00  0.00000000E+00
  0.00000000E+00  0.00000000E+00  0.00000000E+00
  0.00000000E+00  0.00000000E+00  0.00000000E+00
  0.00000000E+00  0.00000000E+00  0.00000000E+00
  0.00000000E+00  0.00000000E+00  0.00000000E+00
  0.00000000E+00  0.00000000E+00  0.00000000E+00
  0.00000000E+00  0.00000000E+00  0.00000000E+00
  0.00000000E+00  0.00000000E+00  0.00000000E+00
