G   40   30    1    0.005     # Parameters to Generate KPOINTS (Don't Edit This Line)
     602
Reciprocal lattice
    0.000000000000    0.000000000000    0.000000000000       1
    0.025000000000    0.000000000000    0.000000000000       2
    0.050000000000    0.000000000000    0.000000000000       2
    0.075000000000    0.000000000000    0.000000000000       2
    0.100000000000    0.000000000000    0.000000000000       2
    0.125000000000    0.000000000000    0.000000000000       2
    0.150000000000    0.000000000000    0.000000000000       2
    0.175000000000    0.000000000000    0.000000000000       2
    0.200000000000    0.000000000000    0.000000000000       2
    0.225000000000    0.000000000000    0.000000000000       2
    0.250000000000    0.000000000000    0.000000000000       2
    0.275000000000    0.000000000000    0.000000000000       2
    0.300000000000    0.000000000000    0.000000000000       2
    0.325000000000    0.000000000000    0.000000000000       2
    0.350000000000    0.000000000000    0.000000000000       2
    0.375000000000    0.000000000000    0.000000000000       2
    0.400000000000    0.000000000000    0.000000000000       2
    0.425000000000    0.000000000000    0.000000000000       2
    0.450000000000    0.000000000000    0.000000000000       2
    0.475000000000    0.000000000000    0.000000000000       2
    0.500000000000    0.000000000000    0.000000000000       1
    0.000000000000    0.033333333333    0.000000000000       2
    0.025000000000    0.033333333333    0.000000000000       2
    0.050000000000    0.033333333333    0.000000000000       2
    0.075000000000    0.033333333333    0.000000000000       2
    0.100000000000    0.033333333333    0.000000000000       2
    0.125000000000    0.033333333333    0.000000000000       2
    0.150000000000    0.033333333333    0.000000000000       2
    0.175000000000    0.033333333333    0.000000000000       2
    0.200000000000    0.033333333333    0.000000000000       2
    0.225000000000    0.033333333333    0.000000000000       2
    0.250000000000    0.033333333333    0.000000000000       2
    0.275000000000    0.033333333333    0.000000000000       2
    0.300000000000    0.033333333333    0.000000000000       2
    0.325000000000    0.033333333333    0.000000000000       2
    0.350000000000    0.033333333333    0.000000000000       2
    0.375000000000    0.033333333333    0.000000000000       2
    0.400000000000    0.033333333333    0.000000000000       2
    0.425000000000    0.033333333333    0.000000000000       2
    0.450000000000    0.033333333333    0.000000000000       2
    0.475000000000    0.033333333333    0.000000000000       2
    0.500000000000    0.033333333333    0.000000000000       2
   -0.475000000000    0.033333333333    0.000000000000       2
   -0.450000000000    0.033333333333    0.000000000000       2
   -0.425000000000    0.033333333333    0.000000000000       2
   -0.400000000000    0.033333333333    0.000000000000       2
   -0.375000000000    0.033333333333    0.000000000000       2
   -0.350000000000    0.033333333333    0.000000000000       2
   -0.325000000000    0.033333333333    0.000000000000       2
   -0.300000000000    0.033333333333    0.000000000000       2
   -0.275000000000    0.033333333333    0.000000000000       2
   -0.250000000000    0.033333333333    0.000000000000       2
   -0.225000000000    0.033333333333    0.000000000000       2
   -0.200000000000    0.033333333333    0.000000000000       2
   -0.175000000000    0.033333333333    0.000000000000       2
   -0.150000000000    0.033333333333    0.000000000000       2
   -0.125000000000    0.033333333333    0.000000000000       2
   -0.100000000000    0.033333333333    0.000000000000       2
   -0.075000000000    0.033333333333    0.000000000000       2
   -0.050000000000    0.033333333333    0.000000000000       2
   -0.025000000000    0.033333333333    0.000000000000       2
    0.000000000000    0.066666666667    0.000000000000       2
    0.025000000000    0.066666666667    0.000000000000       2
    0.050000000000    0.066666666667    0.000000000000       2
    0.075000000000    0.066666666667    0.000000000000       2
    0.100000000000    0.066666666667    0.000000000000       2
    0.125000000000    0.066666666667    0.000000000000       2
    0.150000000000    0.066666666667    0.000000000000       2
    0.175000000000    0.066666666667    0.000000000000       2
    0.200000000000    0.066666666667    0.000000000000       2
    0.225000000000    0.066666666667    0.000000000000       2
    0.250000000000    0.066666666667    0.000000000000       2
    0.275000000000    0.066666666667    0.000000000000       2
    0.300000000000    0.066666666667    0.000000000000       2
    0.325000000000    0.066666666667    0.000000000000       2
    0.350000000000    0.066666666667    0.000000000000       2
    0.375000000000    0.066666666667    0.000000000000       2
    0.400000000000    0.066666666667    0.000000000000       2
    0.425000000000    0.066666666667    0.000000000000       2
    0.450000000000    0.066666666667    0.000000000000       2
    0.475000000000    0.066666666667    0.000000000000       2
    0.500000000000    0.066666666667    0.000000000000       2
   -0.475000000000    0.066666666667    0.000000000000       2
   -0.450000000000    0.066666666667    0.000000000000       2
   -0.425000000000    0.066666666667    0.000000000000       2
   -0.400000000000    0.066666666667    0.000000000000       2
   -0.375000000000    0.066666666667    0.000000000000       2
   -0.350000000000    0.066666666667    0.000000000000       2
   -0.325000000000    0.066666666667    0.000000000000       2
   -0.300000000000    0.066666666667    0.000000000000       2
   -0.275000000000    0.066666666667    0.000000000000       2
   -0.250000000000    0.066666666667    0.000000000000       2
   -0.225000000000    0.066666666667    0.000000000000       2
   -0.200000000000    0.066666666667    0.000000000000       2
   -0.175000000000    0.066666666667    0.000000000000       2
   -0.150000000000    0.066666666667    0.000000000000       2
   -0.125000000000    0.066666666667    0.000000000000       2
   -0.100000000000    0.066666666667    0.000000000000       2
   -0.075000000000    0.066666666667    0.000000000000       2
   -0.050000000000    0.066666666667    0.000000000000       2
   -0.025000000000    0.066666666667    0.000000000000       2
    0.000000000000    0.100000000000    0.000000000000       2
    0.025000000000    0.100000000000    0.000000000000       2
    0.050000000000    0.100000000000    0.000000000000       2
    0.075000000000    0.100000000000    0.000000000000       2
    0.100000000000    0.100000000000    0.000000000000       2
    0.125000000000    0.100000000000    0.000000000000       2
    0.150000000000    0.100000000000    0.000000000000       2
    0.175000000000    0.100000000000    0.000000000000       2
    0.200000000000    0.100000000000    0.000000000000       2
    0.225000000000    0.100000000000    0.000000000000       2
    0.250000000000    0.100000000000    0.000000000000       2
    0.275000000000    0.100000000000    0.000000000000       2
    0.300000000000    0.100000000000    0.000000000000       2
    0.325000000000    0.100000000000    0.000000000000       2
    0.350000000000    0.100000000000    0.000000000000       2
    0.375000000000    0.100000000000    0.000000000000       2
    0.400000000000    0.100000000000    0.000000000000       2
    0.425000000000    0.100000000000    0.000000000000       2
    0.450000000000    0.100000000000    0.000000000000       2
    0.475000000000    0.100000000000    0.000000000000       2
    0.500000000000    0.100000000000    0.000000000000       2
   -0.475000000000    0.100000000000    0.000000000000       2
   -0.450000000000    0.100000000000    0.000000000000       2
   -0.425000000000    0.100000000000    0.000000000000       2
   -0.400000000000    0.100000000000    0.000000000000       2
   -0.375000000000    0.100000000000    0.000000000000       2
   -0.350000000000    0.100000000000    0.000000000000       2
   -0.325000000000    0.100000000000    0.000000000000       2
   -0.300000000000    0.100000000000    0.000000000000       2
   -0.275000000000    0.100000000000    0.000000000000       2
   -0.250000000000    0.100000000000    0.000000000000       2
   -0.225000000000    0.100000000000    0.000000000000       2
   -0.200000000000    0.100000000000    0.000000000000       2
   -0.175000000000    0.100000000000    0.000000000000       2
   -0.150000000000    0.100000000000    0.000000000000       2
   -0.125000000000    0.100000000000    0.000000000000       2
   -0.100000000000    0.100000000000    0.000000000000       2
   -0.075000000000    0.100000000000    0.000000000000       2
   -0.050000000000    0.100000000000    0.000000000000       2
   -0.025000000000    0.100000000000    0.000000000000       2
    0.000000000000    0.133333333333    0.000000000000       2
    0.025000000000    0.133333333333    0.000000000000       2
    0.050000000000    0.133333333333    0.000000000000       2
    0.075000000000    0.133333333333    0.000000000000       2
    0.100000000000    0.133333333333    0.000000000000       2
    0.125000000000    0.133333333333    0.000000000000       2
    0.150000000000    0.133333333333    0.000000000000       2
    0.175000000000    0.133333333333    0.000000000000       2
    0.200000000000    0.133333333333    0.000000000000       2
    0.225000000000    0.133333333333    0.000000000000       2
    0.250000000000    0.133333333333    0.000000000000       2
    0.275000000000    0.133333333333    0.000000000000       2
    0.300000000000    0.133333333333    0.000000000000       2
    0.325000000000    0.133333333333    0.000000000000       2
    0.350000000000    0.133333333333    0.000000000000       2
    0.375000000000    0.133333333333    0.000000000000       2
    0.400000000000    0.133333333333    0.000000000000       2
    0.425000000000    0.133333333333    0.000000000000       2
    0.450000000000    0.133333333333    0.000000000000       2
    0.475000000000    0.133333333333    0.000000000000       2
    0.500000000000    0.133333333333    0.000000000000       2
   -0.475000000000    0.133333333333    0.000000000000       2
   -0.450000000000    0.133333333333    0.000000000000       2
   -0.425000000000    0.133333333333    0.000000000000       2
   -0.400000000000    0.133333333333    0.000000000000       2
   -0.375000000000    0.133333333333    0.000000000000       2
   -0.350000000000    0.133333333333    0.000000000000       2
   -0.325000000000    0.133333333333    0.000000000000       2
   -0.300000000000    0.133333333333    0.000000000000       2
   -0.275000000000    0.133333333333    0.000000000000       2
   -0.250000000000    0.133333333333    0.000000000000       2
   -0.225000000000    0.133333333333    0.000000000000       2
   -0.200000000000    0.133333333333    0.000000000000       2
   -0.175000000000    0.133333333333    0.000000000000       2
   -0.150000000000    0.133333333333    0.000000000000       2
   -0.125000000000    0.133333333333    0.000000000000       2
   -0.100000000000    0.133333333333    0.000000000000       2
   -0.075000000000    0.133333333333    0.000000000000       2
   -0.050000000000    0.133333333333    0.000000000000       2
   -0.025000000000    0.133333333333    0.000000000000       2
    0.000000000000    0.166666666667    0.000000000000       2
    0.025000000000    0.166666666667    0.000000000000       2
    0.050000000000    0.166666666667    0.000000000000       2
    0.075000000000    0.166666666667    0.000000000000       2
    0.100000000000    0.166666666667    0.000000000000       2
    0.125000000000    0.166666666667    0.000000000000       2
    0.150000000000    0.166666666667    0.000000000000       2
    0.175000000000    0.166666666667    0.000000000000       2
    0.200000000000    0.166666666667    0.000000000000       2
    0.225000000000    0.166666666667    0.000000000000       2
    0.250000000000    0.166666666667    0.000000000000       2
    0.275000000000    0.166666666667    0.000000000000       2
    0.300000000000    0.166666666667    0.000000000000       2
    0.325000000000    0.166666666667    0.000000000000       2
    0.350000000000    0.166666666667    0.000000000000       2
    0.375000000000    0.166666666667    0.000000000000       2
    0.400000000000    0.166666666667    0.000000000000       2
    0.425000000000    0.166666666667    0.000000000000       2
    0.450000000000    0.166666666667    0.000000000000       2
    0.475000000000    0.166666666667    0.000000000000       2
    0.500000000000    0.166666666667    0.000000000000       2
   -0.475000000000    0.166666666667    0.000000000000       2
   -0.450000000000    0.166666666667    0.000000000000       2
   -0.425000000000    0.166666666667    0.000000000000       2
   -0.400000000000    0.166666666667    0.000000000000       2
   -0.375000000000    0.166666666667    0.000000000000       2
   -0.350000000000    0.166666666667    0.000000000000       2
   -0.325000000000    0.166666666667    0.000000000000       2
   -0.300000000000    0.166666666667    0.000000000000       2
   -0.275000000000    0.166666666667    0.000000000000       2
   -0.250000000000    0.166666666667    0.000000000000       2
   -0.225000000000    0.166666666667    0.000000000000       2
   -0.200000000000    0.166666666667    0.000000000000       2
   -0.175000000000    0.166666666667    0.000000000000       2
   -0.150000000000    0.166666666667    0.000000000000       2
   -0.125000000000    0.166666666667    0.000000000000       2
   -0.100000000000    0.166666666667    0.000000000000       2
   -0.075000000000    0.166666666667    0.000000000000       2
   -0.050000000000    0.166666666667    0.000000000000       2
   -0.025000000000    0.166666666667    0.000000000000       2
    0.000000000000    0.200000000000    0.000000000000       2
    0.025000000000    0.200000000000    0.000000000000       2
    0.050000000000    0.200000000000    0.000000000000       2
    0.075000000000    0.200000000000    0.000000000000       2
    0.100000000000    0.200000000000    0.000000000000       2
    0.125000000000    0.200000000000    0.000000000000       2
    0.150000000000    0.200000000000    0.000000000000       2
    0.175000000000    0.200000000000    0.000000000000       2
    0.200000000000    0.200000000000    0.000000000000       2
    0.225000000000    0.200000000000    0.000000000000       2
    0.250000000000    0.200000000000    0.000000000000       2
    0.275000000000    0.200000000000    0.000000000000       2
    0.300000000000    0.200000000000    0.000000000000       2
    0.325000000000    0.200000000000    0.000000000000       2
    0.350000000000    0.200000000000    0.000000000000       2
    0.375000000000    0.200000000000    0.000000000000       2
    0.400000000000    0.200000000000    0.000000000000       2
    0.425000000000    0.200000000000    0.000000000000       2
    0.450000000000    0.200000000000    0.000000000000       2
    0.475000000000    0.200000000000    0.000000000000       2
    0.500000000000    0.200000000000    0.000000000000       2
   -0.475000000000    0.200000000000    0.000000000000       2
   -0.450000000000    0.200000000000    0.000000000000       2
   -0.425000000000    0.200000000000    0.000000000000       2
   -0.400000000000    0.200000000000    0.000000000000       2
   -0.375000000000    0.200000000000    0.000000000000       2
   -0.350000000000    0.200000000000    0.000000000000       2
   -0.325000000000    0.200000000000    0.000000000000       2
   -0.300000000000    0.200000000000    0.000000000000       2
   -0.275000000000    0.200000000000    0.000000000000       2
   -0.250000000000    0.200000000000    0.000000000000       2
   -0.225000000000    0.200000000000    0.000000000000       2
   -0.200000000000    0.200000000000    0.000000000000       2
   -0.175000000000    0.200000000000    0.000000000000       2
   -0.150000000000    0.200000000000    0.000000000000       2
   -0.125000000000    0.200000000000    0.000000000000       2
   -0.100000000000    0.200000000000    0.000000000000       2
   -0.075000000000    0.200000000000    0.000000000000       2
   -0.050000000000    0.200000000000    0.000000000000       2
   -0.025000000000    0.200000000000    0.000000000000       2
    0.000000000000    0.233333333333    0.000000000000       2
    0.025000000000    0.233333333333    0.000000000000       2
    0.050000000000    0.233333333333    0.000000000000       2
    0.075000000000    0.233333333333    0.000000000000       2
    0.100000000000    0.233333333333    0.000000000000       2
    0.125000000000    0.233333333333    0.000000000000       2
    0.150000000000    0.233333333333    0.000000000000       2
    0.175000000000    0.233333333333    0.000000000000       2
    0.200000000000    0.233333333333    0.000000000000       2
    0.225000000000    0.233333333333    0.000000000000       2
    0.250000000000    0.233333333333    0.000000000000       2
    0.275000000000    0.233333333333    0.000000000000       2
    0.300000000000    0.233333333333    0.000000000000       2
    0.325000000000    0.233333333333    0.000000000000       2
    0.350000000000    0.233333333333    0.000000000000       2
    0.375000000000    0.233333333333    0.000000000000       2
    0.400000000000    0.233333333333    0.000000000000       2
    0.425000000000    0.233333333333    0.000000000000       2
    0.450000000000    0.233333333333    0.000000000000       2
    0.475000000000    0.233333333333    0.000000000000       2
    0.500000000000    0.233333333333    0.000000000000       2
   -0.475000000000    0.233333333333    0.000000000000       2
   -0.450000000000    0.233333333333    0.000000000000       2
   -0.425000000000    0.233333333333    0.000000000000       2
   -0.400000000000    0.233333333333    0.000000000000       2
   -0.375000000000    0.233333333333    0.000000000000       2
   -0.350000000000    0.233333333333    0.000000000000       2
   -0.325000000000    0.233333333333    0.000000000000       2
   -0.300000000000    0.233333333333    0.000000000000       2
   -0.275000000000    0.233333333333    0.000000000000       2
   -0.250000000000    0.233333333333    0.000000000000       2
   -0.225000000000    0.233333333333    0.000000000000       2
   -0.200000000000    0.233333333333    0.000000000000       2
   -0.175000000000    0.233333333333    0.000000000000       2
   -0.150000000000    0.233333333333    0.000000000000       2
   -0.125000000000    0.233333333333    0.000000000000       2
   -0.100000000000    0.233333333333    0.000000000000       2
   -0.075000000000    0.233333333333    0.000000000000       2
   -0.050000000000    0.233333333333    0.000000000000       2
   -0.025000000000    0.233333333333    0.000000000000       2
    0.000000000000    0.266666666667    0.000000000000       2
    0.025000000000    0.266666666667    0.000000000000       2
    0.050000000000    0.266666666667    0.000000000000       2
    0.075000000000    0.266666666667    0.000000000000       2
    0.100000000000    0.266666666667    0.000000000000       2
    0.125000000000    0.266666666667    0.000000000000       2
    0.150000000000    0.266666666667    0.000000000000       2
    0.175000000000    0.266666666667    0.000000000000       2
    0.200000000000    0.266666666667    0.000000000000       2
    0.225000000000    0.266666666667    0.000000000000       2
    0.250000000000    0.266666666667    0.000000000000       2
    0.275000000000    0.266666666667    0.000000000000       2
    0.300000000000    0.266666666667    0.000000000000       2
    0.325000000000    0.266666666667    0.000000000000       2
    0.350000000000    0.266666666667    0.000000000000       2
    0.375000000000    0.266666666667    0.000000000000       2
    0.400000000000    0.266666666667    0.000000000000       2
    0.425000000000    0.266666666667    0.000000000000       2
    0.450000000000    0.266666666667    0.000000000000       2
    0.475000000000    0.266666666667    0.000000000000       2
    0.500000000000    0.266666666667    0.000000000000       2
   -0.475000000000    0.266666666667    0.000000000000       2
   -0.450000000000    0.266666666667    0.000000000000       2
   -0.425000000000    0.266666666667    0.000000000000       2
   -0.400000000000    0.266666666667    0.000000000000       2
   -0.375000000000    0.266666666667    0.000000000000       2
   -0.350000000000    0.266666666667    0.000000000000       2
   -0.325000000000    0.266666666667    0.000000000000       2
   -0.300000000000    0.266666666667    0.000000000000       2
   -0.275000000000    0.266666666667    0.000000000000       2
   -0.250000000000    0.266666666667    0.000000000000       2
   -0.225000000000    0.266666666667    0.000000000000       2
   -0.200000000000    0.266666666667    0.000000000000       2
   -0.175000000000    0.266666666667    0.000000000000       2
   -0.150000000000    0.266666666667    0.000000000000       2
   -0.125000000000    0.266666666667    0.000000000000       2
   -0.100000000000    0.266666666667    0.000000000000       2
   -0.075000000000    0.266666666667    0.000000000000       2
   -0.050000000000    0.266666666667    0.000000000000       2
   -0.025000000000    0.266666666667    0.000000000000       2
    0.000000000000    0.300000000000    0.000000000000       2
    0.025000000000    0.300000000000    0.000000000000       2
    0.050000000000    0.300000000000    0.000000000000       2
    0.075000000000    0.300000000000    0.000000000000       2
    0.100000000000    0.300000000000    0.000000000000       2
    0.125000000000    0.300000000000    0.000000000000       2
    0.150000000000    0.300000000000    0.000000000000       2
    0.175000000000    0.300000000000    0.000000000000       2
    0.200000000000    0.300000000000    0.000000000000       2
    0.225000000000    0.300000000000    0.000000000000       2
    0.250000000000    0.300000000000    0.000000000000       2
    0.275000000000    0.300000000000    0.000000000000       2
    0.300000000000    0.300000000000    0.000000000000       2
    0.325000000000    0.300000000000    0.000000000000       2
    0.350000000000    0.300000000000    0.000000000000       2
    0.375000000000    0.300000000000    0.000000000000       2
    0.400000000000    0.300000000000    0.000000000000       2
    0.425000000000    0.300000000000    0.000000000000       2
    0.450000000000    0.300000000000    0.000000000000       2
    0.475000000000    0.300000000000    0.000000000000       2
    0.500000000000    0.300000000000    0.000000000000       2
   -0.475000000000    0.300000000000    0.000000000000       2
   -0.450000000000    0.300000000000    0.000000000000       2
   -0.425000000000    0.300000000000    0.000000000000       2
   -0.400000000000    0.300000000000    0.000000000000       2
   -0.375000000000    0.300000000000    0.000000000000       2
   -0.350000000000    0.300000000000    0.000000000000       2
   -0.325000000000    0.300000000000    0.000000000000       2
   -0.300000000000    0.300000000000    0.000000000000       2
   -0.275000000000    0.300000000000    0.000000000000       2
   -0.250000000000    0.300000000000    0.000000000000       2
   -0.225000000000    0.300000000000    0.000000000000       2
   -0.200000000000    0.300000000000    0.000000000000       2
   -0.175000000000    0.300000000000    0.000000000000       2
   -0.150000000000    0.300000000000    0.000000000000       2
   -0.125000000000    0.300000000000    0.000000000000       2
   -0.100000000000    0.300000000000    0.000000000000       2
   -0.075000000000    0.300000000000    0.000000000000       2
   -0.050000000000    0.300000000000    0.000000000000       2
   -0.025000000000    0.300000000000    0.000000000000       2
    0.000000000000    0.333333333333    0.000000000000       2
    0.025000000000    0.333333333333    0.000000000000       2
    0.050000000000    0.333333333333    0.000000000000       2
    0.075000000000    0.333333333333    0.000000000000       2
    0.100000000000    0.333333333333    0.000000000000       2
    0.125000000000    0.333333333333    0.000000000000       2
    0.150000000000    0.333333333333    0.000000000000       2
    0.175000000000    0.333333333333    0.000000000000       2
    0.200000000000    0.333333333333    0.000000000000       2
    0.225000000000    0.333333333333    0.000000000000       2
    0.250000000000    0.333333333333    0.000000000000       2
    0.275000000000    0.333333333333    0.000000000000       2
    0.300000000000    0.333333333333    0.000000000000       2
    0.325000000000    0.333333333333    0.000000000000       2
    0.350000000000    0.333333333333    0.000000000000       2
    0.375000000000    0.333333333333    0.000000000000       2
    0.400000000000    0.333333333333    0.000000000000       2
    0.425000000000    0.333333333333    0.000000000000       2
    0.450000000000    0.333333333333    0.000000000000       2
    0.475000000000    0.333333333333    0.000000000000       2
    0.500000000000    0.333333333333    0.000000000000       2
   -0.475000000000    0.333333333333    0.000000000000       2
   -0.450000000000    0.333333333333    0.000000000000       2
   -0.425000000000    0.333333333333    0.000000000000       2
   -0.400000000000    0.333333333333    0.000000000000       2
   -0.375000000000    0.333333333333    0.000000000000       2
   -0.350000000000    0.333333333333    0.000000000000       2
   -0.325000000000    0.333333333333    0.000000000000       2
   -0.300000000000    0.333333333333    0.000000000000       2
   -0.275000000000    0.333333333333    0.000000000000       2
   -0.250000000000    0.333333333333    0.000000000000       2
   -0.225000000000    0.333333333333    0.000000000000       2
   -0.200000000000    0.333333333333    0.000000000000       2
   -0.175000000000    0.333333333333    0.000000000000       2
   -0.150000000000    0.333333333333    0.000000000000       2
   -0.125000000000    0.333333333333    0.000000000000       2
   -0.100000000000    0.333333333333    0.000000000000       2
   -0.075000000000    0.333333333333    0.000000000000       2
   -0.050000000000    0.333333333333    0.000000000000       2
   -0.025000000000    0.333333333333    0.000000000000       2
    0.000000000000    0.366666666667    0.000000000000       2
    0.025000000000    0.366666666667    0.000000000000       2
    0.050000000000    0.366666666667    0.000000000000       2
    0.075000000000    0.366666666667    0.000000000000       2
    0.100000000000    0.366666666667    0.000000000000       2
    0.125000000000    0.366666666667    0.000000000000       2
    0.150000000000    0.366666666667    0.000000000000       2
    0.175000000000    0.366666666667    0.000000000000       2
    0.200000000000    0.366666666667    0.000000000000       2
    0.225000000000    0.366666666667    0.000000000000       2
    0.250000000000    0.366666666667    0.000000000000       2
    0.275000000000    0.366666666667    0.000000000000       2
    0.300000000000    0.366666666667    0.000000000000       2
    0.325000000000    0.366666666667    0.000000000000       2
    0.350000000000    0.366666666667    0.000000000000       2
    0.375000000000    0.366666666667    0.000000000000       2
    0.400000000000    0.366666666667    0.000000000000       2
    0.425000000000    0.366666666667    0.000000000000       2
    0.450000000000    0.366666666667    0.000000000000       2
    0.475000000000    0.366666666667    0.000000000000       2
    0.500000000000    0.366666666667    0.000000000000       2
   -0.475000000000    0.366666666667    0.000000000000       2
   -0.450000000000    0.366666666667    0.000000000000       2
   -0.425000000000    0.366666666667    0.000000000000       2
   -0.400000000000    0.366666666667    0.000000000000       2
   -0.375000000000    0.366666666667    0.000000000000       2
   -0.350000000000    0.366666666667    0.000000000000       2
   -0.325000000000    0.366666666667    0.000000000000       2
   -0.300000000000    0.366666666667    0.000000000000       2
   -0.275000000000    0.366666666667    0.000000000000       2
   -0.250000000000    0.366666666667    0.000000000000       2
   -0.225000000000    0.366666666667    0.000000000000       2
   -0.200000000000    0.366666666667    0.000000000000       2
   -0.175000000000    0.366666666667    0.000000000000       2
   -0.150000000000    0.366666666667    0.000000000000       2
   -0.125000000000    0.366666666667    0.000000000000       2
   -0.100000000000    0.366666666667    0.000000000000       2
   -0.075000000000    0.366666666667    0.000000000000       2
   -0.050000000000    0.366666666667    0.000000000000       2
   -0.025000000000    0.366666666667    0.000000000000       2
    0.000000000000    0.400000000000    0.000000000000       2
    0.025000000000    0.400000000000    0.000000000000       2
    0.050000000000    0.400000000000    0.000000000000       2
    0.075000000000    0.400000000000    0.000000000000       2
    0.100000000000    0.400000000000    0.000000000000       2
    0.125000000000    0.400000000000    0.000000000000       2
    0.150000000000    0.400000000000    0.000000000000       2
    0.175000000000    0.400000000000    0.000000000000       2
    0.200000000000    0.400000000000    0.000000000000       2
    0.225000000000    0.400000000000    0.000000000000       2
    0.250000000000    0.400000000000    0.000000000000       2
    0.275000000000    0.400000000000    0.000000000000       2
    0.300000000000    0.400000000000    0.000000000000       2