CONTCAR                                 
   1.00000000000000     
    12.9397001266000000    0.0000000000000000    0.0000000000000000
     0.0000000000000000   12.9407997131000005    0.0000000000000000
     0.0000000000000000    0.0000000000000000   24.2110004425000014
   Y    Te   O    H 
    18    54     1     1
Direct
  0.9996870229309260  0.1676089544571538  0.5840670530482698
  0.1666616331343319  0.0012413373127062  0.4139053947545984
  0.3333360834183665  0.1666141701356623  0.5841455881827413
  0.4996620254155856  0.0013901585320083  0.4140473192257629
  0.6666684396979199  0.1664237985248868  0.5839015933220205
  0.8327421545250971  0.0013234192078518  0.4139477726603983
  0.9992239415729736  0.5020921315723657  0.5846269108361801
  0.1661302665726603  0.3343755131927363  0.4138287268617878
  0.3249791939037280  0.5010097609874772  0.5829535717984241
  0.4994700916025793  0.3349214472252660  0.4148566569895596
  0.6737988763708643  0.4992543320985373  0.5821573846593431
  0.8334749788645307  0.3344364480898823  0.4135515348420850
  0.9995564770411078  0.8364484064480305  0.5843274249573174
  0.1659670309402031  0.6682084961516700  0.4138005759721776
  0.3338527664354491  0.8352265487187484  0.5837279330623408
  0.4996734594953399  0.6674210423955604  0.4149488691610267
  0.6659798899936697  0.8342985138547943  0.5842223597370232
  0.8331418372380605  0.6681565665904988  0.4139215083080038
  0.1665822788264654  0.1681853543119956  0.3110355536857314
  0.9948892202767063  0.0040851389622180  0.6867660802124812
  0.1676054021799839  0.1657933693698670  0.6871060957161401
 -0.0001792769445218  0.0011608520877603  0.3108749201926050
 -0.0001999428941725  0.1674725090443292  0.4525983201593957
  0.1664708976391328  0.0012081771482941  0.5453935312503072
  0.4999222329774526  0.1683782448880656  0.3114709830572139
  0.3310736312016882  0.0011691192051077  0.6873031828331009
  0.4986120397610976  0.1719435903234401  0.6875196163719423
  0.3336283048661464  0.0019407685006009  0.3111358684868861
  0.3333113104124609  0.1681541720470381  0.4530423714537761
  0.4997646684198748  0.0011301068014190  0.5455695991715059
  0.8330797518940446  0.1680112221160337  0.3109417663350874
  0.6627958867877901  0.9984540373735767  0.6872477376158997
  0.8332005357155310  0.1664793056249867  0.6866002603580669
  0.6661386969534447  0.0017492380736809  0.3112301707518806
  0.6660002288382058  0.1684945951828567  0.4529275622280015
  0.8322395783521687  0.0007335713464816  0.5451720556260808
  0.1662811192043276  0.5017319780089639  0.3109535271499875
  0.0015444909179688  0.3355006603783183  0.6870905610022884
  0.1629604934341759  0.4993887022818008  0.6881524327090964
 -0.0001283932366276  0.3344868909810986  0.3108764875737928
 -0.0001493429841987  0.5011625946984389  0.4529240126147442
  0.1657932909172750  0.3336320912723627  0.5456726955542011
  0.4998655880116164  0.5011470732953344  0.3120702431047749
  0.3359127610790505  0.3384228548484345  0.6891369888853323
  0.4916836541194063  0.5063310839050041  0.7240517254268384
  0.3330437867544138  0.3351538290870593  0.3114093153355878
  0.3318288535013863  0.5015004174466767  0.4526820255556770
  0.4988792703865880  0.3380551821900558  0.5475552235370875
  0.8335239607058872  0.5018250368432452  0.3108572345717016
  0.6635880222657423  0.3379072480807122  0.6841274877550340
  0.8309459532218368  0.4993795277528913  0.6887252835274476
  0.6664390511975378  0.3351137011536008  0.3113190448567822
  0.6673584430279172  0.5010640902374619  0.4521646101395459
  0.8347417862341896  0.3335410478775871  0.5449080885527574
  0.1666378823590086  0.8352215792437743  0.3111557381905790
  0.9979078063611401  0.6704461035882497  0.6872702289595324
  0.1686129702909710  0.8314605504010971  0.6865064864313672
 -0.0001733337182130  0.6683159830455817  0.3108800905661131
 -0.0004005060903354  0.8346903783430067  0.4528196412881815
  0.1647413755497567  0.6687061271241269  0.5453347082659583
  0.4996861495682061  0.8343603446207224  0.3115083321638551
  0.3310124227492467  0.6675490132947939  0.6862116536077083
  0.5007715140022314  0.8348137834279875  0.6868627848001168
  0.3332281001464045  0.6681539024991193  0.3113028514171355
  0.3335344657559078  0.8342797865670961  0.4529758412212636
  0.4998730448011440  0.6631254495415013  0.5478206212382389
  0.8329293050084892  0.8351055003591841  0.3112472589485861
  0.6626266164317312  0.6565523417645808  0.6889421082466662
  0.8316503918497578  0.8327433930089168  0.6866655142836842
  0.6662928408235111  0.6683000098358706  0.3113669297249518
  0.6655943489286599  0.8343192527215583  0.4531605157104526
  0.8335111454544164  0.6684775402217772  0.5458268973587006
  0.4274781388852704  0.5610252164078865  0.7953300324476220
  0.4588716036672825  0.5225350037405394  0.8258708913913768
 
  0.00000000E+00  0.00000000E+00  0.00000000E+00
  0.00000000E+00  0.00000000E+00  0.00000000E+00
  0.00000000E+00  0.00000000E+00  0.00000000E+00
  0.00000000E+00  0.00000000E+00  0.00000000E+00
  0.00000000E+00  0.00000000E+00  0.00000000E+00
  0.00000000E+00  0.00000000E+00  0.00000000E+00
  0.00000000E+00  0.00000000E+00  0.00000000E+00
  0.00000000E+00  0.00000000E+00  0.00000000E+00
  0.00000000E+00  0.00000000E+00  0.00000000E+00
  0.00000000E+00  0.00000000E+00  0.00000000E+00
  0.00000000E+00  0.00000000E+00  0.00000000E+00
  0.00000000E+00  0.00000000E+00  0.00000000E+00
  0.00000000E+00  0.00000000E+00  0.00000000E+00
  0.00000000E+00  0.00000000E+00  0.00000000E+00
  0.00000000E+00  0.00000000E+00  0.00000000E+00
  0.00000000E+00  0.00000000E+00  0.00000000E+00
  0.00000000E+00  0.00000000E+00  0.00000000E+00
  0.00000000E+00  0.00000000E+00  0.00000000E+00
  0.00000000E+00  0.00000000E+00  0.00000000E+00
  0.00000000E+00  0.00000000E+00  0.00000000E+00
  0.00000000E+00  0.00000000E+00  0.00000000E+00
  0.00000000E+00  0.00000000E+00  0.00000000E+00
  0.00000000E+00  0.00000000E+00  0.00000000E+00
  0.00000000E+00  0.00000000E+00  0.00000000E+00
  0.00000000E+00  0.00000000E+00  0.00000000E+00
  0.00000000E+00  0.00000000E+00  0.00000000E+00
  0.00000000E+00  0.00000000E+00  0.00000000E+00
  0.00000000E+00  0.00000000E+00  0.00000000E+00
  0.00000000E+00  0.00000000E+00  0.00000000E+00
  0.00000000E+00  0.00000000E+00  0.00000000E+00
  0.00000000E+00  0.00000000E+00  0.00000000E+00
  0.00000000E+00  0.00000000E+00  0.00000000E+00
  0.00000000E+00  0.00000000E+00  0.00000000E+00
  0.00000000E+00  0.00000000E+00  0.00000000E+00
  0.00000000E+00  0.00000000E+00  0.00000000E+00
  0.00000000E+00  0.00000000E+00  0.00000000E+00
  0.00000000E+00  0.00000000E+00  0.00000000E+00
  0.00000000E+00  0.00000000E+00  0.00000000E+00
  0.00000000E+00  0.00000000E+00  0.00000000E+00
  0.00000000E+00  0.00000000E+00  0.00000000E+00
  0.00000000E+00  0.00000000E+00  0.00000000E+00
  0.00000000E+00  0.00000000E+00  0.00000000E+00
  0.00000000E+00  0.00000000E+00  0.00000000E+00
  0.00000000E+00  0.00000000E+00  0.00000000E+00
  0.00000000E+00  0.00000000E+00  0.00000000E+00
  0.00000000E+00  0.00000000E+00  0.00000000E+00
  0.00000000E+00  0.00000000E+00  0.00000000E+00
  0.00000000E+00  0.00000000E+00  0.00000000E+00
  0.00000000E+00  0.00000000E+00  0.00000000E+00
  0.00000000E+00  0.00000000E+00  0.00000000E+00
  0.00000000E+00  0.00000000E+00  0.00000000E+00
  0.00000000E+00  0.00000000E+00  0.00000000E+00
  0.00000000E+00  0.00000000E+00  0.00000000E+00
  0.00000000E+00  0.00000000E+00  0.00000000E+00
  0.00000000E+00  0.00000000E+00  0.00000000E+00
  0.00000000E+00  0.00000000E+00  0.00000000E+00
  0.00000000E+00  0.00000000E+00  0.00000000E+00
  0.00000000E+00  0.00000000E+00  0.00000000E+00
  0.00000000E+00  0.00000000E+00  0.00000000E+00
  0.00000000E+00  0.00000000E+00  0.00000000E+00
  0.00000000E+00  0.00000000E+00  0.00000000E+00
  0.00000000E+00  0.00000000E+00  0.00000000E+00
  0.00000000E+00  0.00000000E+00  0.00000000E+00
  0.00000000E+00  0.00000000E+00  0.00000000E+00
  0.00000000E+00  0.00000000E+00  0.00000000E+00
  0.00000000E+00  0.00000000E+00  0.00000000E+00
  0.00000000E+00  0.00000000E+00  0.00000000E+00
  0.00000000E+00  0.00000000E+00  0.00000000E+00
  0.00000000E+00  0.00000000E+00  0.00000000E+00
  0.00000000E+00  0.00000000E+00  0.00000000E+00
  0.00000000E+00  0.00000000E+00  0.00000000E+00
  0.00000000E+00  0.00000000E+00  0.00000000E+00
  0.00000000E+00  0.00000000E+00  0.00000000E+00
  0.00000000E+00  0.00000000E+00  0.00000000E+00
