CONTCAR\(2)                             
   1.00000000000000     
    15.0899000167999997    0.0000000000000000    0.0000000000000000
     0.0000000000000000   15.0899000167999997    0.0000000000000000
     0.0000000000000000    0.0000000000000000   20.7000007629000002
   Eu   Br   O    H 
    32    32    33     1
Direct
  0.9995671340976031  0.1244144054593832  0.4296752096155814
  0.1228656005573043  0.0000422733220233  0.5654718714272278
  0.2504252407566412  0.1256619482518602  0.4321633729407779
  0.3748066465059310  0.9999579015420963  0.5716229822421894
  0.4998487367863405  0.1253569025117685  0.4314566102732371
  0.6267894847057249  0.9999890129477009  0.5653320212078938
  0.7503981040811070  0.1247245882861066  0.4299350189499833
  0.8748832563496194  0.0000081210018408  0.5787888851416554
  0.0004211552898568  0.3751716104823331  0.4319734043889696
  0.1258356025516321  0.2506318803535450  0.5673806268465356
  0.2496332559174590  0.3749704028386205  0.4296088699438130
  0.3755600588837993  0.2482386431284240  0.5743370462374671
  0.5003276491548547  0.3744775089330474  0.4301666646599642
  0.6244673353234873  0.2508167021797760  0.5682589041471147
  0.7494923298008942  0.3753292638019303  0.4315803996216019
  0.8751038021752180  0.2480556287541518  0.5654225614618298
  0.0005472062285605  0.6246186920285695  0.4320318730804118
  0.1236887961871957  0.4999288041740968  0.5749367280141300
  0.2497914439519135  0.6250406958083516  0.4295795453520483
  0.3760026600460407  0.4998951989589386  0.5601202745196048
  0.5002963100701052  0.6256398388834370  0.4299858729708674
  0.6272422148819388  0.4999846778693353  0.5740980689726669
  0.7495041202212462  0.6247696865607537  0.4316833521066172
  0.8757834267381028  0.5000117973918918  0.5714090968887930
  0.9997139112682305  0.8754109272677795  0.4295431873861872
  0.1256068555527960  0.7495030408613346  0.5671457039266343
  0.2505749408212168  0.8743786321074936  0.4321514913132987
  0.3754444439174804  0.7518008837044334  0.5743725415280849
  0.5000009263495926  0.8747541153994121  0.4314805192699893
  0.6243765714523377  0.7491762270569211  0.5680496805177100
  0.7505916554728174  0.8754562750708672  0.4299174654297744
  0.8750054506786569  0.7519763437934941  0.5654358622984361
  0.0017054396224196  0.1266525609020306  0.6481306024653009
  0.1254819989416234  0.0000149905622848  0.3532051739925208
  0.2473916174249879  0.1249443728058779  0.6483740958843072
  0.3747858714297010  0.0000441743338371  0.3525220925853247
  0.5026776270401854  0.1242682940862707  0.6486062654102653
  0.6250085374097765  0.0000512093789311  0.3532382565147358
  0.7484022689530079  0.1266513616537992  0.6482443318890887
  0.8748951978470885  0.0000373892175460  0.3494173472843300
  0.9999935234378938  0.3720277411593713  0.6485510650742157
  0.1259677739950718  0.2509267007730216  0.3518088725763135
  0.2496903630890870  0.3743017827288853  0.6555041310350163
  0.3750512414124927  0.2481913959530431  0.3507131039290670
  0.5001776946988556  0.3754070109049863  0.6528385326068857
  0.6240034074095604  0.2510627679784463  0.3516059975028938
  0.7510703969833799  0.3726454754045392  0.6484741862341252
  0.8749560537657501  0.2501478247318190  0.3532442546408419
  0.0002439723697378  0.6280005026168638  0.6485052555482440
  0.1230448364276526  0.4999562377171500  0.3506457470940418
  0.2497443618711728  0.6256361427235078  0.6559021871172845
  0.3753160539067721  0.4999815842668909  0.3540560801882506
  0.5005150003393695  0.6253481332489272  0.6535890424183464
  0.6267510738878457  0.5000386668007550  0.3507227754109152
  0.7510181146819264  0.6273990147040394  0.6484131387884418
  0.8752300989414223  0.5000204052219885  0.3525986305884388
  0.0016989024893377  0.8733413660874945  0.6481167028558232
  0.1262383370874431  0.7488719406759472  0.3519133973568884
  0.2471691634340303  0.8747211940970701  0.6484028687799892
  0.3750985054914864  0.7518900952976040  0.3506785002370876
  0.5026293756199109  0.8758159537180319  0.6485309659700462
  0.6241233225203686  0.7490646333175235  0.3516126699419004
  0.7483431966878271  0.8733295161313492  0.6481725076991225
  0.8750001201225714  0.7497668483702000  0.3532014770762544
  0.1233846122814839  0.1275745219770457  0.4987177311803848
  0.9900083544645426  0.9998310476735099  0.5006341706858848
  0.3756552980677981  0.1252720526371291  0.5021592474883789
  0.2520631833246227  0.0000042418998376  0.5005008440112775
  0.6262154532526552  0.1280011846064397  0.4988565623341472
  0.4972466322148463  0.0000993906073816  0.5002920420936121
  0.8750740610755088  0.1152066435990520  0.5007009521843457
  0.7596288872752837  0.0001164556640418  0.5007382692533469
  0.1269026091167973  0.3803687364000581  0.5012243679033901
  0.0027473808898577  0.2482579142905408  0.4987040657631781
  0.3744170895592447  0.3663286242479558  0.4993835592294147
  0.2554482852136317  0.2526040971766719  0.5011564712235597
  0.6235083045986727  0.3794367410669608  0.5011134239506845
  0.4958945250721527  0.2510122692371581  0.5011304174732132
  0.8746136216870823  0.3772977028900542  0.5003324044791952
  0.7472642811268244  0.2488881733694654  0.4988587422093218
  0.1272201544176284  0.6195689238513182  0.5012578609516822
  0.0017537144950808  0.4998285049329354  0.5023280254036138
  0.3745854023698740  0.6336670801523923  0.4994501953294943
  0.2415935725790206  0.5000664875813428  0.4997261219394673
  0.6232992764118848  0.6203599123776726  0.5010551047583789
  0.5091226520442547  0.5002196329463757  0.4991776327694950
  0.8747540663011364  0.6227672547932599  0.5003485911061247
  0.7505750403149207  0.4999926517199498  0.5019890182643607
  0.1235273429335351  0.8726816730112503  0.4986224375190886
  0.0024329035229798  0.7516002795437160  0.4986017138894212
  0.3758241621776577  0.8746065486544978  0.5021505650531850
  0.2553298087686429  0.7473819466693428  0.5011557184943740
  0.6264634968173368  0.8720014681901489  0.4988005969372580
  0.4955703661694102  0.7490213850841627  0.5010589185880718
  0.8753561110878962  0.8848221080222984  0.5006751274532206
  0.7472159120027726  0.7513597252069815  0.4988253776495597
  0.3694051882683524  0.5014009555200545  0.6744138375311408
  0.3715685839811655  0.5009638440972282  0.7218630785214657
 
  0.00000000E+00  0.00000000E+00  0.00000000E+00
  0.00000000E+00  0.00000000E+00  0.00000000E+00
  0.00000000E+00  0.00000000E+00  0.00000000E+00
  0.00000000E+00  0.00000000E+00  0.00000000E+00
  0.00000000E+00  0.00000000E+00  0.00000000E+00
  0.00000000E+00  0.00000000E+00  0.00000000E+00
  0.00000000E+00  0.00000000E+00  0.00000000E+00
  0.00000000E+00  0.00000000E+00  0.00000000E+00
  0.00000000E+00  0.00000000E+00  0.00000000E+00
  0.00000000E+00  0.00000000E+00  0.00000000E+00
  0.00000000E+00  0.00000000E+00  0.00000000E+00
  0.00000000E+00  0.00000000E+00  0.00000000E+00
  0.00000000E+00  0.00000000E+00  0.00000000E+00
  0.00000000E+00  0.00000000E+00  0.00000000E+00
  0.00000000E+00  0.00000000E+00  0.00000000E+00
  0.00000000E+00  0.00000000E+00  0.00000000E+00
  0.00000000E+00  0.00000000E+00  0.00000000E+00
  0.00000000E+00  0.00000000E+00  0.00000000E+00
  0.00000000E+00  0.00000000E+00  0.00000000E+00
  0.00000000E+00  0.00000000E+00  0.00000000E+00
  0.00000000E+00  0.00000000E+00  0.00000000E+00
  0.00000000E+00  0.00000000E+00  0.00000000E+00
  0.00000000E+00  0.00000000E+00  0.00000000E+00
  0.00000000E+00  0.00000000E+00  0.00000000E+00
  0.00000000E+00  0.00000000E+00  0.00000000E+00
  0.00000000E+00  0.00000000E+00  0.00000000E+00
  0.00000000E+00  0.00000000E+00  0.00000000E+00
  0.00000000E+00  0.00000000E+00  0.00000000E+00
  0.00000000E+00  0.00000000E+00  0.00000000E+00
  0.00000000E+00  0.00000000E+00  0.00000000E+00
  0.00000000E+00  0.00000000E+00  0.00000000E+00
  0.00000000E+00  0.00000000E+00  0.00000000E+00
  0.00000000E+00  0.00000000E+00  0.00000000E+00
  0.00000000E+00  0.00000000E+00  0.00000000E+00
  0.00000000E+00  0.00000000E+00  0.00000000E+00
  0.00000000E+00  0.00000000E+00  0.00000000E+00
  0.00000000E+00  0.00000000E+00  0.00000000E+00
  0.00000000E+00  0.00000000E+00  0.00000000E+00
  0.00000000E+00  0.00000000E+00  0.00000000E+00
  0.00000000E+00  0.00000000E+00  0.00000000E+00
  0.00000000E+00  0.00000000E+00  0.00000000E+00
  0.00000000E+00  0.00000000E+00  0.00000000E+00
  0.00000000E+00  0.00000000E+00  0.00000000E+00
  0.00000000E+00  0.00000000E+00  0.00000000E+00
  0.00000000E+00  0.00000000E+00  0.00000000E+00
  0.00000000E+00  0.00000000E+00  0.00000000E+00
  0.00000000E+00  0.00000000E+00  0.00000000E+00
  0.00000000E+00  0.00000000E+00  0.00000000E+00
  0.00000000E+00  0.00000000E+00  0.00000000E+00
  0.00000000E+00  0.00000000E+00  0.00000000E+00
  0.00000000E+00  0.00000000E+00  0.00000000E+00
  0.00000000E+00  0.00000000E+00  0.00000000E+00
  0.00000000E+00  0.00000000E+00  0.00000000E+00
  0.00000000E+00  0.00000000E+00  0.00000000E+00
  0.00000000E+00  0.00000000E+00  0.00000000E+00
  0.00000000E+00  0.00000000E+00  0.00000000E+00
  0.00000000E+00  0.00000000E+00  0.00000000E+00
  0.00000000E+00  0.00000000E+00  0.00000000E+00
  0.00000000E+00  0.00000000E+00  0.00000000E+00
  0.00000000E+00  0.00000000E+00  0.00000000E+00
  0.00000000E+00  0.00000000E+00  0.00000000E+00
  0.00000000E+00  0.00000000E+00  0.00000000E+00
  0.00000000E+00  0.00000000E+00  0.00000000E+00
  0.00000000E+00  0.00000000E+00  0.00000000E+00
  0.00000000E+00  0.00000000E+00  0.00000000E+00
  0.00000000E+00  0.00000000E+00  0.00000000E+00
  0.00000000E+00  0.00000000E+00  0.00000000E+00
  0.00000000E+00  0.00000000E+00  0.00000000E+00
  0.00000000E+00  0.00000000E+00  0.00000000E+00
  0.00000000E+00  0.00000000E+00  0.00000000E+00
  0.00000000E+00  0.00000000E+00  0.00000000E+00
  0.00000000E+00  0.00000000E+00  0.00000000E+00
  0.00000000E+00  0.00000000E+00  0.00000000E+00
  0.00000000E+00  0.00000000E+00  0.00000000E+00
  0.00000000E+00  0.00000000E+00  0.00000000E+00
  0.00000000E+00  0.00000000E+00  0.00000000E+00
  0.00000000E+00  0.00000000E+00  0.00000000E+00
  0.00000000E+00  0.00000000E+00  0.00000000E+00
  0.00000000E+00  0.00000000E+00  0.00000000E+00
  0.00000000E+00  0.00000000E+00  0.00000000E+00
  0.00000000E+00  0.00000000E+00  0.00000000E+00
  0.00000000E+00  0.00000000E+00  0.00000000E+00
  0.00000000E+00  0.00000000E+00  0.00000000E+00
  0.00000000E+00  0.00000000E+00  0.00000000E+00
  0.00000000E+00  0.00000000E+00  0.00000000E+00
  0.00000000E+00  0.00000000E+00  0.00000000E+00
  0.00000000E+00  0.00000000E+00  0.00000000E+00
  0.00000000E+00  0.00000000E+00  0.00000000E+00
  0.00000000E+00  0.00000000E+00  0.00000000E+00
  0.00000000E+00  0.00000000E+00  0.00000000E+00
  0.00000000E+00  0.00000000E+00  0.00000000E+00
  0.00000000E+00  0.00000000E+00  0.00000000E+00
  0.00000000E+00  0.00000000E+00  0.00000000E+00
  0.00000000E+00  0.00000000E+00  0.00000000E+00
  0.00000000E+00  0.00000000E+00  0.00000000E+00
  0.00000000E+00  0.00000000E+00  0.00000000E+00
  0.00000000E+00  0.00000000E+00  0.00000000E+00
  0.00000000E+00  0.00000000E+00  0.00000000E+00
