 Eu1 Re2 O8                             
   1.00000000000000     
     5.4255825284819279    0.0000000000000000    0.0000000000000000
     2.7130394570511629    4.6992877279797662    0.0000000000000000
     0.0000000000000000    0.0000000000000000   22.4130733179429953
   Eu   Re   O 
     1     2     8
Direct
 -0.0000169437720976  0.0000203136648901  0.5000121002845718
  0.6667006605575627  0.6666095773879039  0.4043176061935785
  0.3332775010098292  0.3334283340773626  0.5956905123233366
  0.3567220815264548  0.6769446498362780  0.4318003719124288
  0.6770371319242187  0.9662155624606467  0.4317797159120527
  0.6666539337901812  0.6665953180534299  0.3274646871289619
  0.0336095854122533  0.6433836378455721  0.5682190662185372
  0.9663431390274753  0.3566744997125042  0.4317832569399960
  0.3332938097066428  0.3334431249686896  0.6725469750407493
  0.3229271568406543  0.0338046560748770  0.5682238506944787
  0.6432509439768137  0.3230823259178483  0.5682089461052888
 
  0.00000000E+00  0.00000000E+00  0.00000000E+00
  0.00000000E+00  0.00000000E+00  0.00000000E+00
  0.00000000E+00  0.00000000E+00  0.00000000E+00
  0.00000000E+00  0.00000000E+00  0.00000000E+00
  0.00000000E+00  0.00000000E+00  0.00000000E+00
  0.00000000E+00  0.00000000E+00  0.00000000E+00
  0.00000000E+00  0.00000000E+00  0.00000000E+00
  0.00000000E+00  0.00000000E+00  0.00000000E+00
  0.00000000E+00  0.00000000E+00  0.00000000E+00
  0.00000000E+00  0.00000000E+00  0.00000000E+00
  0.00000000E+00  0.00000000E+00  0.00000000E+00
