CONTCAR\(14)                            
   1.00000000000000     
    10.5677003860000003    0.0000000000000000    0.0000000000000000
    -1.7612875669000001   15.6418507631000008    0.0000000000000000
     0.0000000000000000    0.0000000000000000   21.6047992706000009
   Sc   Cl
    21    30
Direct
  0.0718714057510206  0.4313228418034424  0.4663665827078465
  0.2614746830076742  0.5686494813283715  0.5336768620605535
  0.0701756174392505  0.4183304431892649  0.6088943877647915
  0.2631591987312891  0.5816635826081946  0.3911416653649861
  0.2134117635482585  0.2792479879994283  0.5325424252335398
  0.1199172023215024  0.7207291789575836  0.4674857412608880
  0.9999960762502337 -0.0000106288541431  0.5000111473334530
  0.4052014057510171  0.4313228418034424  0.4663665827078465
  0.5948146490076713  0.5686494813283715  0.5336768620605535
  0.4035056284392515  0.4183304431892649  0.6088943877647915
  0.5964892267312881  0.5816635826081946  0.3911416653649861
  0.5467417465482572  0.2792479879994283  0.5325424252335398
  0.4532572023215093  0.7207291789575836  0.4674857412608880
  0.3333260702502369 -0.0000106288541431  0.5000111473334530
  0.7385313997510204  0.4313228418034424  0.4663665827078465
  0.9281446890076712  0.5686494813283715  0.5336768620605535
  0.7368356224392548  0.4183304431892649  0.6088943877647915
  0.9298192207312842  0.5816635826081946  0.3911416653649861
  0.8800818025482616  0.2792479879994283  0.5325424252335398
  0.7865871973215089  0.7207291789575836  0.4674857412608880
  0.6666660822502234 -0.0000106288541431  0.5000111473334530
  0.0263361196360646  0.1565200370811551  0.5401623112593835
  0.3069955241031040  0.8434985472128167  0.4598038551799389
  0.2181608402415540  0.3059256928794495  0.6476476733413797
  0.1151813194156599  0.6941118300492404  0.3523599126413906
  0.1730607626965482  0.0376433837390915  0.4226975700796002
  0.1602579219252587  0.9623720608831904  0.5772450675100222
  0.2540444198052753  0.5215248167909543  0.6530355789574396
  0.1140531372403993  0.6850075250415437  0.5775702112039982
  0.2192842104226589  0.3150054720363081  0.4224057329003164
  0.0792797884642370  0.4784575832541092  0.3469431452004794
  0.3596761336360584  0.1565200370811551  0.5401623112593835
  0.6403255411031057  0.8434985472128167  0.4598038551799389
  0.5514908572415556  0.3059256928794495  0.6476476733413797
  0.4485113134156631  0.6941118300492404  0.3523599126413906
  0.5063907236965451  0.0376433837390915  0.4226975700796002
  0.4935979559252613  0.9623720608831904  0.5772450675100222
  0.5873844308052795  0.5215248167909543  0.6530355789574396
  0.4473831542404007  0.6850075250415437  0.5775702112039982
  0.5526241764226628  0.3150054720363081  0.4224057329003164
  0.4126097714642358  0.4784575832541092  0.3469431452004794
  0.6930061276360615  0.1565200370811551  0.5401623112593835
  0.9736654621031096  0.8434985472128167  0.4598038551799389
  0.8848208062415515  0.3059256928794495  0.6476476733413797
  0.7818413754156578  0.6941118300492404  0.3523599126413906
  0.8397307796965495  0.0376433837390915  0.4226975700796002
  0.8269279499252643  0.9623720608831904  0.5772450675100222
  0.9207143798052754  0.5215248167909543  0.6530355789574396
  0.7807231662404086  0.6850075250415437  0.5775702112039982
  0.8859541704226589  0.3150054720363081  0.4224057329003164
  0.7459497384642363  0.4784575832541092  0.3469431452004794
 
  0.00000000E+00  0.00000000E+00  0.00000000E+00
  0.00000000E+00  0.00000000E+00  0.00000000E+00
  0.00000000E+00  0.00000000E+00  0.00000000E+00
  0.00000000E+00  0.00000000E+00  0.00000000E+00
  0.00000000E+00  0.00000000E+00  0.00000000E+00
  0.00000000E+00  0.00000000E+00  0.00000000E+00
  0.00000000E+00  0.00000000E+00  0.00000000E+00
  0.00000000E+00  0.00000000E+00  0.00000000E+00
  0.00000000E+00  0.00000000E+00  0.00000000E+00
  0.00000000E+00  0.00000000E+00  0.00000000E+00
  0.00000000E+00  0.00000000E+00  0.00000000E+00
  0.00000000E+00  0.00000000E+00  0.00000000E+00
  0.00000000E+00  0.00000000E+00  0.00000000E+00
  0.00000000E+00  0.00000000E+00  0.00000000E+00
  0.00000000E+00  0.00000000E+00  0.00000000E+00
  0.00000000E+00  0.00000000E+00  0.00000000E+00
  0.00000000E+00  0.00000000E+00  0.00000000E+00
  0.00000000E+00  0.00000000E+00  0.00000000E+00
  0.00000000E+00  0.00000000E+00  0.00000000E+00
  0.00000000E+00  0.00000000E+00  0.00000000E+00
  0.00000000E+00  0.00000000E+00  0.00000000E+00
  0.00000000E+00  0.00000000E+00  0.00000000E+00
  0.00000000E+00  0.00000000E+00  0.00000000E+00
  0.00000000E+00  0.00000000E+00  0.00000000E+00
  0.00000000E+00  0.00000000E+00  0.00000000E+00
  0.00000000E+00  0.00000000E+00  0.00000000E+00
  0.00000000E+00  0.00000000E+00  0.00000000E+00
  0.00000000E+00  0.00000000E+00  0.00000000E+00
  0.00000000E+00  0.00000000E+00  0.00000000E+00
  0.00000000E+00  0.00000000E+00  0.00000000E+00
  0.00000000E+00  0.00000000E+00  0.00000000E+00
  0.00000000E+00  0.00000000E+00  0.00000000E+00
  0.00000000E+00  0.00000000E+00  0.00000000E+00
  0.00000000E+00  0.00000000E+00  0.00000000E+00
  0.00000000E+00  0.00000000E+00  0.00000000E+00
  0.00000000E+00  0.00000000E+00  0.00000000E+00
  0.00000000E+00  0.00000000E+00  0.00000000E+00
  0.00000000E+00  0.00000000E+00  0.00000000E+00
  0.00000000E+00  0.00000000E+00  0.00000000E+00
  0.00000000E+00  0.00000000E+00  0.00000000E+00
  0.00000000E+00  0.00000000E+00  0.00000000E+00
  0.00000000E+00  0.00000000E+00  0.00000000E+00
  0.00000000E+00  0.00000000E+00  0.00000000E+00
  0.00000000E+00  0.00000000E+00  0.00000000E+00
  0.00000000E+00  0.00000000E+00  0.00000000E+00
  0.00000000E+00  0.00000000E+00  0.00000000E+00
  0.00000000E+00  0.00000000E+00  0.00000000E+00
  0.00000000E+00  0.00000000E+00  0.00000000E+00
  0.00000000E+00  0.00000000E+00  0.00000000E+00
  0.00000000E+00  0.00000000E+00  0.00000000E+00
  0.00000000E+00  0.00000000E+00  0.00000000E+00
