 Ti2 Ge2 Te12                           
   1.00000000000000     
     3.9152313892631199    0.0000000000000000    0.0000000000000000
     0.0000000000000000   17.6870147675844578    0.0000000000000000
     0.0000000000000000    0.0000000000000000   19.5771448927919991
   Ti   Ge   Te
     2     2    12
Direct
  0.2582481889927877  0.4794763795971164  0.5104458489116439
  0.7577421429854496  0.9536855959101871  0.4895569862707490
  0.7586486831306161  0.8037680492551260  0.4789932875949390
  0.2589837338846905  0.6294125857387769  0.5210173023245517
  0.2572243806510599  0.9265061979802240  0.3827035866956692
  0.7582846321740959  0.2555922983915835  0.5678016472073395
  0.7575267425111321  0.0655826940728232  0.3851084939412814
  0.2580088988032330  0.8966514225697821  0.5855331267290822
  0.7580816159544170  0.5065865594203061  0.6173616021392689
  0.2581287379846486  0.3675270626191178  0.6149073010930337
  0.2576239465144994  0.1775368148749479  0.4321457504168507
  0.7592307323078487  0.7070620837960178  0.5898359309824812
  0.2590900528341038  0.7261198666184043  0.4101720096202612
  0.7580243555989057  0.3816725332660127  0.4539037760716624
  0.2576368659059014  0.0515297120486125  0.5460621774033285
  0.7583719390020249  0.5365741438409870  0.4144511725978575
 
  0.00000000E+00  0.00000000E+00  0.00000000E+00
  0.00000000E+00  0.00000000E+00  0.00000000E+00
  0.00000000E+00  0.00000000E+00  0.00000000E+00
  0.00000000E+00  0.00000000E+00  0.00000000E+00
  0.00000000E+00  0.00000000E+00  0.00000000E+00
  0.00000000E+00  0.00000000E+00  0.00000000E+00
  0.00000000E+00  0.00000000E+00  0.00000000E+00
  0.00000000E+00  0.00000000E+00  0.00000000E+00
  0.00000000E+00  0.00000000E+00  0.00000000E+00
  0.00000000E+00  0.00000000E+00  0.00000000E+00
  0.00000000E+00  0.00000000E+00  0.00000000E+00
  0.00000000E+00  0.00000000E+00  0.00000000E+00
  0.00000000E+00  0.00000000E+00  0.00000000E+00
  0.00000000E+00  0.00000000E+00  0.00000000E+00
  0.00000000E+00  0.00000000E+00  0.00000000E+00
  0.00000000E+00  0.00000000E+00  0.00000000E+00
