G   51   11    1    0.005     # Parameters to Generate KPOINTS (Don't Edit This Line)
     281
Reciprocal lattice
    0.000000000000    0.000000000000    0.000000000000       1
    0.019607843137    0.000000000000    0.000000000000       2
    0.039215686275    0.000000000000    0.000000000000       2
    0.058823529412    0.000000000000    0.000000000000       2
    0.078431372549    0.000000000000    0.000000000000       2
    0.098039215686    0.000000000000    0.000000000000       2
    0.117647058824    0.000000000000    0.000000000000       2
    0.137254901961    0.000000000000    0.000000000000       2
    0.156862745098    0.000000000000    0.000000000000       2
    0.176470588235    0.000000000000    0.000000000000       2
    0.196078431373    0.000000000000    0.000000000000       2
    0.215686274510    0.000000000000    0.000000000000       2
    0.235294117647    0.000000000000    0.000000000000       2
    0.254901960784    0.000000000000    0.000000000000       2
    0.274509803922    0.000000000000    0.000000000000       2
    0.294117647059    0.000000000000    0.000000000000       2
    0.313725490196    0.000000000000    0.000000000000       2
    0.333333333333    0.000000000000    0.000000000000       2
    0.352941176471    0.000000000000    0.000000000000       2
    0.372549019608    0.000000000000    0.000000000000       2
    0.392156862745    0.000000000000    0.000000000000       2
    0.411764705882    0.000000000000    0.000000000000       2
    0.431372549020    0.000000000000    0.000000000000       2
    0.450980392157    0.000000000000    0.000000000000       2
    0.470588235294    0.000000000000    0.000000000000       2
    0.490196078431    0.000000000000    0.000000000000       2
    0.000000000000    0.090909090909    0.000000000000       2
    0.019607843137    0.090909090909    0.000000000000       2
    0.039215686275    0.090909090909    0.000000000000       2
    0.058823529412    0.090909090909    0.000000000000       2
    0.078431372549    0.090909090909    0.000000000000       2
    0.098039215686    0.090909090909    0.000000000000       2
    0.117647058824    0.090909090909    0.000000000000       2
    0.137254901961    0.090909090909    0.000000000000       2
    0.156862745098    0.090909090909    0.000000000000       2
    0.176470588235    0.090909090909    0.000000000000       2
    0.196078431373    0.090909090909    0.000000000000       2
    0.215686274510    0.090909090909    0.000000000000       2
    0.235294117647    0.090909090909    0.000000000000       2
    0.254901960784    0.090909090909    0.000000000000       2
    0.274509803922    0.090909090909    0.000000000000       2
    0.294117647059    0.090909090909    0.000000000000       2
    0.313725490196    0.090909090909    0.000000000000       2
    0.333333333333    0.090909090909    0.000000000000       2
    0.352941176471    0.090909090909    0.000000000000       2
    0.372549019608    0.090909090909    0.000000000000       2
    0.392156862745    0.090909090909    0.000000000000       2
    0.411764705882    0.090909090909    0.000000000000       2
    0.431372549020    0.090909090909    0.000000000000       2
    0.450980392157    0.090909090909    0.000000000000       2
    0.470588235294    0.090909090909    0.000000000000       2
    0.490196078431    0.090909090909    0.000000000000       2
   -0.490196078431    0.090909090909    0.000000000000       2
   -0.470588235294    0.090909090909    0.000000000000       2
   -0.450980392157    0.090909090909    0.000000000000       2
   -0.431372549020    0.090909090909    0.000000000000       2
   -0.411764705882    0.090909090909    0.000000000000       2
   -0.392156862745    0.090909090909    0.000000000000       2
   -0.372549019608    0.090909090909    0.000000000000       2
   -0.352941176471    0.090909090909    0.000000000000       2
   -0.333333333333    0.090909090909    0.000000000000       2
   -0.313725490196    0.090909090909    0.000000000000       2
   -0.294117647059    0.090909090909    0.000000000000       2
   -0.274509803922    0.090909090909    0.000000000000       2
   -0.254901960784    0.090909090909    0.000000000000       2
   -0.235294117647    0.090909090909    0.000000000000       2
   -0.215686274510    0.090909090909    0.000000000000       2
   -0.196078431373    0.090909090909    0.000000000000       2
   -0.176470588235    0.090909090909    0.000000000000       2
   -0.156862745098    0.090909090909    0.000000000000       2
   -0.137254901961    0.090909090909    0.000000000000       2
   -0.117647058824    0.090909090909    0.000000000000       2
   -0.098039215686    0.090909090909    0.000000000000       2
   -0.078431372549    0.090909090909    0.000000000000       2
   -0.058823529412    0.090909090909    0.000000000000       2
   -0.039215686275    0.090909090909    0.000000000000       2
   -0.019607843137    0.090909090909    0.000000000000       2
    0.000000000000    0.181818181818    0.000000000000       2
    0.019607843137    0.181818181818    0.000000000000       2
    0.039215686275    0.181818181818    0.000000000000       2
    0.058823529412    0.181818181818    0.000000000000       2
    0.078431372549    0.181818181818    0.000000000000       2
    0.098039215686    0.181818181818    0.000000000000       2
    0.117647058824    0.181818181818    0.000000000000       2
    0.137254901961    0.181818181818    0.000000000000       2
    0.156862745098    0.181818181818    0.000000000000       2
    0.176470588235    0.181818181818    0.000000000000       2
    0.196078431373    0.181818181818    0.000000000000       2
    0.215686274510    0.181818181818    0.000000000000       2
    0.235294117647    0.181818181818    0.000000000000       2
    0.254901960784    0.181818181818    0.000000000000       2
    0.274509803922    0.181818181818    0.000000000000       2
    0.294117647059    0.181818181818    0.000000000000       2
    0.313725490196    0.181818181818    0.000000000000       2
    0.333333333333    0.181818181818    0.000000000000       2
    0.352941176471    0.181818181818    0.000000000000       2
    0.372549019608    0.181818181818    0.000000000000       2
    0.392156862745    0.181818181818    0.000000000000       2
    0.411764705882    0.181818181818    0.000000000000       2
    0.431372549020    0.181818181818    0.000000000000       2
    0.450980392157    0.181818181818    0.000000000000       2
    0.470588235294    0.181818181818    0.000000000000       2
    0.490196078431    0.181818181818    0.000000000000       2
   -0.490196078431    0.181818181818    0.000000000000       2
   -0.470588235294    0.181818181818    0.000000000000       2
   -0.450980392157    0.181818181818    0.000000000000       2
   -0.431372549020    0.181818181818    0.000000000000       2
   -0.411764705882    0.181818181818    0.000000000000       2
   -0.392156862745    0.181818181818    0.000000000000       2
   -0.372549019608    0.181818181818    0.000000000000       2
   -0.352941176471    0.181818181818    0.000000000000       2
   -0.333333333333    0.181818181818    0.000000000000       2
   -0.313725490196    0.181818181818    0.000000000000       2
   -0.294117647059    0.181818181818    0.000000000000       2
   -0.274509803922    0.181818181818    0.000000000000       2
   -0.254901960784    0.181818181818    0.000000000000       2
   -0.235294117647    0.181818181818    0.000000000000       2
   -0.215686274510    0.181818181818    0.000000000000       2
   -0.196078431373    0.181818181818    0.000000000000       2
   -0.176470588235    0.181818181818    0.000000000000       2
   -0.156862745098    0.181818181818    0.000000000000       2
   -0.137254901961    0.181818181818    0.000000000000       2
   -0.117647058824    0.181818181818    0.000000000000       2
   -0.098039215686    0.181818181818    0.000000000000       2
   -0.078431372549    0.181818181818    0.000000000000       2
   -0.058823529412    0.181818181818    0.000000000000       2
   -0.039215686275    0.181818181818    0.000000000000       2
   -0.019607843137    0.181818181818    0.000000000000       2
    0.000000000000    0.272727272727    0.000000000000       2
    0.019607843137    0.272727272727    0.000000000000       2
    0.039215686275    0.272727272727    0.000000000000       2
    0.058823529412    0.272727272727    0.000000000000       2
    0.078431372549    0.272727272727    0.000000000000       2
    0.098039215686    0.272727272727    0.000000000000       2
    0.117647058824    0.272727272727    0.000000000000       2
    0.137254901961    0.272727272727    0.000000000000       2
    0.156862745098    0.272727272727    0.000000000000       2
    0.176470588235    0.272727272727    0.000000000000       2
    0.196078431373    0.272727272727    0.000000000000       2
    0.215686274510    0.272727272727    0.000000000000       2
    0.235294117647    0.272727272727    0.000000000000       2
    0.254901960784    0.272727272727    0.000000000000       2
    0.274509803922    0.272727272727    0.000000000000       2
    0.294117647059    0.272727272727    0.000000000000       2
    0.313725490196    0.272727272727    0.000000000000       2
    0.333333333333    0.272727272727    0.000000000000       2
    0.352941176471    0.272727272727    0.000000000000       2
    0.372549019608    0.272727272727    0.000000000000       2
    0.392156862745    0.272727272727    0.000000000000       2
    0.411764705882    0.272727272727    0.000000000000       2
    0.431372549020    0.272727272727    0.000000000000       2
    0.450980392157    0.272727272727    0.000000000000       2
    0.470588235294    0.272727272727    0.000000000000       2
    0.490196078431    0.272727272727    0.000000000000       2
   -0.490196078431    0.272727272727    0.000000000000       2
   -0.470588235294    0.272727272727    0.000000000000       2
   -0.450980392157    0.272727272727    0.000000000000       2
   -0.431372549020    0.272727272727    0.000000000000       2
   -0.411764705882    0.272727272727    0.000000000000       2
   -0.392156862745    0.272727272727    0.000000000000       2
   -0.372549019608    0.272727272727    0.000000000000       2
   -0.352941176471    0.272727272727    0.000000000000       2
   -0.333333333333    0.272727272727    0.000000000000       2
   -0.313725490196    0.272727272727    0.000000000000       2
   -0.294117647059    0.272727272727    0.000000000000       2
   -0.274509803922    0.272727272727    0.000000000000       2
   -0.254901960784    0.272727272727    0.000000000000       2
   -0.235294117647    0.272727272727    0.000000000000       2
   -0.215686274510    0.272727272727    0.000000000000       2
   -0.196078431373    0.272727272727    0.000000000000       2
   -0.176470588235    0.272727272727    0.000000000000       2
   -0.156862745098    0.272727272727    0.000000000000       2
   -0.137254901961    0.272727272727    0.000000000000       2
   -0.117647058824    0.272727272727    0.000000000000       2
   -0.098039215686    0.272727272727    0.000000000000       2
   -0.078431372549    0.272727272727    0.000000000000       2
   -0.058823529412    0.272727272727    0.000000000000       2
   -0.039215686275    0.272727272727    0.000000000000       2
   -0.019607843137    0.272727272727    0.000000000000       2
    0.000000000000    0.363636363636    0.000000000000       2
    0.019607843137    0.363636363636    0.000000000000       2
    0.039215686275    0.363636363636    0.000000000000       2
    0.058823529412    0.363636363636    0.000000000000       2
    0.078431372549    0.363636363636    0.000000000000       2
    0.098039215686    0.363636363636    0.000000000000       2
    0.117647058824    0.363636363636    0.000000000000       2
    0.137254901961    0.363636363636    0.000000000000       2
    0.156862745098    0.363636363636    0.000000000000       2
    0.176470588235    0.363636363636    0.000000000000       2
    0.196078431373    0.363636363636    0.000000000000       2
    0.215686274510    0.363636363636    0.000000000000       2
    0.235294117647    0.363636363636    0.000000000000       2
    0.254901960784    0.363636363636    0.000000000000       2
    0.274509803922    0.363636363636    0.000000000000       2
    0.294117647059    0.363636363636    0.000000000000       2
    0.313725490196    0.363636363636    0.000000000000       2
    0.333333333333    0.363636363636    0.000000000000       2
    0.352941176471    0.363636363636    0.000000000000       2
    0.372549019608    0.363636363636    0.000000000000       2
    0.392156862745    0.363636363636    0.000000000000       2
    0.411764705882    0.363636363636    0.000000000000       2
    0.431372549020    0.363636363636    0.000000000000       2
    0.450980392157    0.363636363636    0.000000000000       2
    0.470588235294    0.363636363636    0.000000000000       2
    0.490196078431    0.363636363636    0.000000000000       2
   -0.490196078431    0.363636363636    0.000000000000       2
   -0.470588235294    0.363636363636    0.000000000000       2
   -0.450980392157    0.363636363636    0.000000000000       2
   -0.431372549020    0.363636363636    0.000000000000       2
   -0.411764705882    0.363636363636    0.000000000000       2
   -0.392156862745    0.363636363636    0.000000000000       2
   -0.372549019608    0.363636363636    0.000000000000       2
   -0.352941176471    0.363636363636    0.000000000000       2
   -0.333333333333    0.363636363636    0.000000000000       2
   -0.313725490196    0.363636363636    0.000000000000       2
   -0.294117647059    0.363636363636    0.000000000000       2
   -0.274509803922    0.363636363636    0.000000000000       2
   -0.254901960784    0.363636363636    0.000000000000       2
   -0.235294117647    0.363636363636    0.000000000000       2
   -0.215686274510    0.363636363636    0.000000000000       2
   -0.196078431373    0.363636363636    0.000000000000       2
   -0.176470588235    0.363636363636    0.000000000000       2
   -0.156862745098    0.363636363636    0.000000000000       2
   -0.137254901961    0.363636363636    0.000000000000       2
   -0.117647058824    0.363636363636    0.000000000000       2
   -0.098039215686    0.363636363636    0.000000000000       2
   -0.078431372549    0.363636363636    0.000000000000       2
   -0.058823529412    0.363636363636    0.000000000000       2
   -0.039215686275    0.363636363636    0.000000000000       2
   -0.019607843137    0.363636363636    0.000000000000       2
    0.000000000000    0.454545454545    0.000000000000       2
    0.019607843137    0.454545454545    0.000000000000       2
    0.039215686275    0.454545454545    0.000000000000       2
    0.058823529412    0.454545454545    0.000000000000       2
    0.078431372549    0.454545454545    0.000000000000       2
    0.098039215686    0.454545454545    0.000000000000       2
    0.117647058824    0.454545454545    0.000000000000       2
    0.137254901961    0.454545454545    0.000000000000       2
    0.156862745098    0.454545454545    0.000000000000       2
    0.176470588235    0.454545454545    0.000000000000       2
    0.196078431373    0.454545454545    0.000000000000       2
    0.215686274510    0.454545454545    0.000000000000       2
    0.235294117647    0.454545454545    0.000000000000       2
    0.254901960784    0.454545454545    0.000000000000       2
    0.274509803922    0.454545454545    0.000000000000       2
    0.294117647059    0.454545454545    0.000000000000       2
    0.313725490196    0.454545454545    0.000000000000       2
    0.333333333333    0.454545454545    0.000000000000       2
    0.352941176471    0.454545454545    0.000000000000       2
    0.372549019608    0.454545454545    0.000000000000       2
    0.392156862745    0.454545454545    0.000000000000       2
    0.411764705882    0.454545454545    0.000000000000       2
    0.431372549020    0.454545454545    0.000000000000       2
    0.450980392157    0.454545454545    0.000000000000       2
    0.470588235294    0.454545454545    0.000000000000       2
    0.490196078431    0.454545454545    0.000000000000       2
   -0.490196078431    0.454545454545    0.000000000000       2
   -0.470588235294    0.454545454545    0.000000000000       2
   -0.450980392157    0.454545454545    0.000000000000       2
   -0.431372549020    0.454545454545    0.000000000000       2
   -0.411764705882    0.454545454545    0.000000000000       2
   -0.392156862745    0.454545454545    0.000000000000       2
   -0.372549019608    0.454545454545    0.000000000000       2
   -0.352941176471    0.454545454545    0.000000000000       2
   -0.333333333333    0.454545454545    0.000000000000       2
   -0.313725490196    0.454545454545    0.000000000000       2
   -0.294117647059    0.454545454545    0.000000000000       2
   -0.274509803922    0.454545454545    0.000000000000       2
   -0.254901960784    0.454545454545    0.000000000000       2
   -0.235294117647    0.454545454545    0.000000000000       2
   -0.215686274510    0.454545454545    0.000000000000       2
   -0.196078431373    0.454545454545    0.000000000000       2
   -0.176470588235    0.454545454545    0.000000000000       2
   -0.156862745098    0.454545454545    0.000000000000       2
   -0.137254901961    0.454545454545    0.000000000000       2
   -0.117647058824    0.454545454545    0.000000000000       2
   -0.098039215686    0.454545454545    0.000000000000       2
   -0.078431372549    0.454545454545    0.000000000000       2
   -0.058823529412    0.454545454545    0.000000000000       2
   -0.039215686275    0.454545454545    0.000000000000       2
   -0.019607843137    0.454545454545    0.000000000000       2
