CONTCAR\(4)                             
   1.00000000000000     
    15.6891002655000005    0.0000000000000000    0.0000000000000000
     7.8445501328000002   13.5871593924000003    0.0000000000000000
     0.0000000000000000    0.0000000000000000   18.9503002167000005
   Te   Pt   O 
    32    32     1
Direct
  0.1650066352115117  0.1666757248469767  0.6094460889563470
  0.1645984262485357  0.1662823654322689  0.3892653406272769
  0.4142439926419449  0.1665923109715637  0.6095243387441721
  0.4165079148320804  0.1648098691298641  0.3911398382056623
  0.6650407816504200  0.1655601015986571  0.6114231123670476
  0.6662682472270158  0.1646390227074686  0.3919388288107871
  0.9157165851893420  0.1657165191893433  0.6102461874536177
  0.9150245201939711  0.1650244541939726  0.3914385464104512
  0.1651892317505904  0.4151892607505893  0.6090313732653103
  0.1646778344036465  0.4146778634036455  0.3887209150014426
  0.4145842982924883  0.4154715871110968  0.6091319582844116
  0.4162617641993999  0.4138063076550693  0.3899098437726415
  0.6663105706177602  0.4148610527152057  0.6100611858117982
  0.6675036637174468  0.4130199363282499  0.3907493669366651
  0.9166757388469777  0.4150066432115121  0.6094460889563470
  0.9162823794322698  0.4145984342485365  0.3892653406272769
  0.1654715491110938  0.6645844072924869  0.6091319582844116
  0.1638062696550661  0.6662618731993979  0.3899098437726415
  0.4149560296942273  0.6649561476942298  0.6010779340584822
  0.4153837923493645  0.6653839103493600  0.3939549938010985
  0.6664191734960050  0.6648188020763719  0.6098327672832704
  0.6666408493498336  0.6654618614866314  0.3910082942986973
  0.9165923159715607  0.6642440496419461  0.6095243387441721
  0.9148098741298609  0.6665079718320812  0.3911398382056623
  0.1648610407152048  0.9163106266177578  0.6100611858117982
  0.1630199243282489  0.9175037197174444  0.3907493669366651
  0.4148187100763713  0.9164192384960068  0.6098327672832704
  0.4154617694866304  0.9166409143498354  0.3910082942986973
  0.6655608874804915  0.9155609264804911  0.6107282568096344
  0.6658029449170833  0.9158029839170829  0.3918114105484072
  0.9155601325986563  0.9150407856504204  0.6114231123670476
  0.9146390537074678  0.9162682512270162  0.3919388288107871
  0.0819954774625088  0.0829335601796708  0.5414036100069475
  0.9977889425566291  0.9994237908281469  0.4609288233082534
  0.3315153605531709  0.0828894962784012  0.5409256208707333
  0.2474353457831135  0.0009305807018357  0.4580456151807880
  0.5818087809068946  0.0824350081133480  0.5426012258244775
  0.4990869696087871  0.9989373995673372  0.4603332764874367
  0.8319363894385429  0.0819363904385469  0.5433591009143287
  0.7487418501317897  0.9987418801317922  0.4614023429014194
  0.0822415858372041  0.3322415778372037  0.5401973526457207
  0.9986344126535296  0.2486344066535294  0.4586778537145103
  0.3313100528237187  0.3323288063246924  0.5400548826181070
  0.2487825463312653  0.2484877917062388  0.4579106746373198
  0.5823281381010822  0.3316808493921712  0.5423561735299467
  0.4991721939725696  0.2482926710550525  0.4599041003327345
  0.8329335721796717  0.3319954824625128  0.5414036100069475
  0.7494237778281494  0.2477889385566286  0.4609288233082534
  0.0823287973246951  0.5813099878237167  0.5400548826181070
  0.9984877997062394  0.4987825503312657  0.4579106746373198
  0.3302152386997569  0.5802151906997529  0.5383895888844851
  0.2476712146061781  0.4976712016061806  0.4563560026383585
  0.5857015789167358  0.5801378376768213  0.5398286530640409
  0.5003768992543478  0.4961651846686099  0.4583446804410233
  0.8328894302784029  0.5815152785531708  0.5409256208707333
  0.7509305847018360  0.4974353367831164  0.4580456151807880
  0.0816808483921677  0.8323281161010804  0.5423561735299467
  0.9982926580550554  0.7491721819725685  0.4599041003327345
  0.3301378936768188  0.8357015749167355  0.5398286530640409
  0.2461651456686102  0.7503769302543397  0.4583446804410233
  0.5821914621570232  0.8321914491570186  0.5424251841878893
  0.4997537857767525  0.7497538077767469  0.4588979486066592
  0.8324350721133461  0.8318087719068903  0.5426012258244775
  0.7489374125673347  0.7490869746087839  0.4603332764874367
  0.4132111784134789  0.6631711494134811  0.6982176033568995
 
  0.00000000E+00  0.00000000E+00  0.00000000E+00
  0.00000000E+00  0.00000000E+00  0.00000000E+00
  0.00000000E+00  0.00000000E+00  0.00000000E+00
  0.00000000E+00  0.00000000E+00  0.00000000E+00
  0.00000000E+00  0.00000000E+00  0.00000000E+00
  0.00000000E+00  0.00000000E+00  0.00000000E+00
  0.00000000E+00  0.00000000E+00  0.00000000E+00
  0.00000000E+00  0.00000000E+00  0.00000000E+00
  0.00000000E+00  0.00000000E+00  0.00000000E+00
  0.00000000E+00  0.00000000E+00  0.00000000E+00
  0.00000000E+00  0.00000000E+00  0.00000000E+00
  0.00000000E+00  0.00000000E+00  0.00000000E+00
  0.00000000E+00  0.00000000E+00  0.00000000E+00
  0.00000000E+00  0.00000000E+00  0.00000000E+00
  0.00000000E+00  0.00000000E+00  0.00000000E+00
  0.00000000E+00  0.00000000E+00  0.00000000E+00
  0.00000000E+00  0.00000000E+00  0.00000000E+00
  0.00000000E+00  0.00000000E+00  0.00000000E+00
  0.00000000E+00  0.00000000E+00  0.00000000E+00
  0.00000000E+00  0.00000000E+00  0.00000000E+00
  0.00000000E+00  0.00000000E+00  0.00000000E+00
  0.00000000E+00  0.00000000E+00  0.00000000E+00
  0.00000000E+00  0.00000000E+00  0.00000000E+00
  0.00000000E+00  0.00000000E+00  0.00000000E+00
  0.00000000E+00  0.00000000E+00  0.00000000E+00
  0.00000000E+00  0.00000000E+00  0.00000000E+00
  0.00000000E+00  0.00000000E+00  0.00000000E+00
  0.00000000E+00  0.00000000E+00  0.00000000E+00
  0.00000000E+00  0.00000000E+00  0.00000000E+00
  0.00000000E+00  0.00000000E+00  0.00000000E+00
  0.00000000E+00  0.00000000E+00  0.00000000E+00
  0.00000000E+00  0.00000000E+00  0.00000000E+00
  0.00000000E+00  0.00000000E+00  0.00000000E+00
  0.00000000E+00  0.00000000E+00  0.00000000E+00
  0.00000000E+00  0.00000000E+00  0.00000000E+00
  0.00000000E+00  0.00000000E+00  0.00000000E+00
  0.00000000E+00  0.00000000E+00  0.00000000E+00
  0.00000000E+00  0.00000000E+00  0.00000000E+00
  0.00000000E+00  0.00000000E+00  0.00000000E+00
  0.00000000E+00  0.00000000E+00  0.00000000E+00
  0.00000000E+00  0.00000000E+00  0.00000000E+00
  0.00000000E+00  0.00000000E+00  0.00000000E+00
  0.00000000E+00  0.00000000E+00  0.00000000E+00
  0.00000000E+00  0.00000000E+00  0.00000000E+00
  0.00000000E+00  0.00000000E+00  0.00000000E+00
  0.00000000E+00  0.00000000E+00  0.00000000E+00
  0.00000000E+00  0.00000000E+00  0.00000000E+00
  0.00000000E+00  0.00000000E+00  0.00000000E+00
  0.00000000E+00  0.00000000E+00  0.00000000E+00
  0.00000000E+00  0.00000000E+00  0.00000000E+00
  0.00000000E+00  0.00000000E+00  0.00000000E+00
  0.00000000E+00  0.00000000E+00  0.00000000E+00
  0.00000000E+00  0.00000000E+00  0.00000000E+00
  0.00000000E+00  0.00000000E+00  0.00000000E+00
  0.00000000E+00  0.00000000E+00  0.00000000E+00
  0.00000000E+00  0.00000000E+00  0.00000000E+00
  0.00000000E+00  0.00000000E+00  0.00000000E+00
  0.00000000E+00  0.00000000E+00  0.00000000E+00
  0.00000000E+00  0.00000000E+00  0.00000000E+00
  0.00000000E+00  0.00000000E+00  0.00000000E+00
  0.00000000E+00  0.00000000E+00  0.00000000E+00
  0.00000000E+00  0.00000000E+00  0.00000000E+00
  0.00000000E+00  0.00000000E+00  0.00000000E+00
  0.00000000E+00  0.00000000E+00  0.00000000E+00
  0.00000000E+00  0.00000000E+00  0.00000000E+00
