CONTCAR\(6)                             
   1.00000000000000     
    11.4949998856000004    0.0000000000000000    0.0000000000000000
     0.0000000000000000   11.4948997498000001    0.0000000000000000
     0.0000000000000000    0.0000000000000000   21.0240001678000006
   Ca   Cu   Br   O 
    18     9    18    19
Direct
  0.0000055330482231  0.0015619447400932  0.5754031152495083
 -0.0000075989685460  0.0002980661599623  0.4259567524536451
  0.3322070818812134  0.0024019450168407  0.5753571183430348
  0.3335462545587750  0.0010095217746450  0.4260652778541073
  0.6677900605237899  0.0024197594828461  0.5753642691926028
  0.6664454473847098  0.0010081675939630  0.4260706423715107
  0.0000037978655198  0.3345296181927361  0.5755051588342339
  0.0000030340424149  0.3358789352903039  0.4261844724461742
  0.3292244069586843  0.3306809393818378  0.5744660905709964
  0.3337508969617253  0.3356612409322036  0.4262417110505363
  0.6707709054658757  0.3306796001665072  0.5744636994613423
  0.6662681661612150  0.3356391534106020  0.4262395884739430
  0.9999994009215255  0.6683442295890252  0.5760007383363657
  0.0000228187713091  0.6681731530057274  0.4268976652026157
  0.3395419946073925  0.6695511909365183  0.5803399425014677
  0.3331257054282827  0.6692116599855638  0.4289560538929387
  0.6604694720737583  0.6695884867102637  0.5803551075428587
  0.6668720670919737  0.6692012365410031  0.4289639225530457
  0.1662725155129581  0.1679780020276220  0.4998841539259241
  0.4999880355874674  0.1686446691535361  0.5006582480612042
  0.8337323379887859  0.1679868549679318  0.4998852699086044
  0.1672059587949085  0.5020716399702320  0.5025265994647878
  0.5000092683546338  0.5021702560878825  0.5022314573759050
  0.8328015354782461  0.5020613349971491  0.5025300598011153
  0.1668345208288241  0.8345274412419664  0.5020283982333994
  0.4999881511883182  0.8358062357997587  0.5016659249265886
  0.8331723769769295  0.8345193336648975  0.5020355553989286
  0.1659382202000371  0.1676471561288089  0.6459868448403481
  0.1671035864296765  0.1682152333310520  0.3563195896852365
  0.4999968006898033  0.1718234492579924  0.6488269711555406
  0.4999807819011833  0.1697159829368304  0.3563957834247785
  0.8340532566661542  0.1677149463965281  0.6459821069810646
  0.8329073391344557  0.1681993825279755  0.3563368601234029
  0.1687557402689584  0.5007840262054231  0.6464010209029066
  0.1676201851120358  0.5015128493413381  0.3574470851307895
  0.5000135705644737  0.4455153098758632  0.6640994499979898
  0.5000053809362520  0.5017645742000286  0.3578237895005907
  0.8312467506986952  0.5008197615304721  0.6464076410813405
  0.8324557573184865  0.5014622446547689  0.3574493423915664
  0.1662447194038789  0.8349296919141312  0.6460749029685967
  0.1668232451263995  0.8343362524176894  0.3565133240899797
  0.4999916455600230  0.8553927651319658  0.6468023707092819
  0.4999908137677512  0.8359093816341580  0.3567965002104269
  0.8337815212039241  0.8350959813575562  0.6460813277508195
  0.8331594211147476  0.8342978354604014  0.3565255728993608
  0.0000110489043895  0.1685819357468647  0.5008157019431333
  0.1662336948747213  0.0013146230331517  0.5006118916461851
  0.3331920171553218  0.1683170838468122  0.5009185889378428
  0.5000088980939233  0.0024774956475655  0.5000706153962422
  0.6667920226720276  0.1682920389380348  0.5009174695770562
  0.8337527073639825  0.0013330672494422  0.5006053244486903
 -0.0000479196920119  0.5008846961750522  0.5018964524136913
  0.1666314427548291  0.3349181274195397  0.5004602002287197
  0.3343777243991492  0.5013388487747559  0.5054072732704883
  0.4999987990653343  0.3354735902677517  0.5017497885951522
  0.6656728272630954  0.5013481197590549  0.5054115537652927
  0.8333698899121850  0.3349861994267748  0.5004488545213568
  0.0000288500469055  0.8348797260270103  0.5013298329041235
  0.1658728939144102  0.6683219678399650  0.5011080876977284
  0.3334767143199753  0.8359135407730636  0.5022060242888482
  0.5000013334073432  0.6692092873535276  0.4990519038327809
  0.6664940587419085  0.8359260224834372  0.5022266306273411
  0.8341313062340053  0.6682401804178448  0.5011389286629632
  0.5000091529827080  0.5975818756957330  0.6370269819709701
 
  0.00000000E+00  0.00000000E+00  0.00000000E+00
  0.00000000E+00  0.00000000E+00  0.00000000E+00
  0.00000000E+00  0.00000000E+00  0.00000000E+00
  0.00000000E+00  0.00000000E+00  0.00000000E+00
  0.00000000E+00  0.00000000E+00  0.00000000E+00
  0.00000000E+00  0.00000000E+00  0.00000000E+00
  0.00000000E+00  0.00000000E+00  0.00000000E+00
  0.00000000E+00  0.00000000E+00  0.00000000E+00
  0.00000000E+00  0.00000000E+00  0.00000000E+00
  0.00000000E+00  0.00000000E+00  0.00000000E+00
  0.00000000E+00  0.00000000E+00  0.00000000E+00
  0.00000000E+00  0.00000000E+00  0.00000000E+00
  0.00000000E+00  0.00000000E+00  0.00000000E+00
  0.00000000E+00  0.00000000E+00  0.00000000E+00
  0.00000000E+00  0.00000000E+00  0.00000000E+00
  0.00000000E+00  0.00000000E+00  0.00000000E+00
  0.00000000E+00  0.00000000E+00  0.00000000E+00
  0.00000000E+00  0.00000000E+00  0.00000000E+00
  0.00000000E+00  0.00000000E+00  0.00000000E+00
  0.00000000E+00  0.00000000E+00  0.00000000E+00
  0.00000000E+00  0.00000000E+00  0.00000000E+00
  0.00000000E+00  0.00000000E+00  0.00000000E+00
  0.00000000E+00  0.00000000E+00  0.00000000E+00
  0.00000000E+00  0.00000000E+00  0.00000000E+00
  0.00000000E+00  0.00000000E+00  0.00000000E+00
  0.00000000E+00  0.00000000E+00  0.00000000E+00
  0.00000000E+00  0.00000000E+00  0.00000000E+00
  0.00000000E+00  0.00000000E+00  0.00000000E+00
  0.00000000E+00  0.00000000E+00  0.00000000E+00
  0.00000000E+00  0.00000000E+00  0.00000000E+00
  0.00000000E+00  0.00000000E+00  0.00000000E+00
  0.00000000E+00  0.00000000E+00  0.00000000E+00
  0.00000000E+00  0.00000000E+00  0.00000000E+00
  0.00000000E+00  0.00000000E+00  0.00000000E+00
  0.00000000E+00  0.00000000E+00  0.00000000E+00
  0.00000000E+00  0.00000000E+00  0.00000000E+00
  0.00000000E+00  0.00000000E+00  0.00000000E+00
  0.00000000E+00  0.00000000E+00  0.00000000E+00
  0.00000000E+00  0.00000000E+00  0.00000000E+00
  0.00000000E+00  0.00000000E+00  0.00000000E+00
  0.00000000E+00  0.00000000E+00  0.00000000E+00
  0.00000000E+00  0.00000000E+00  0.00000000E+00
  0.00000000E+00  0.00000000E+00  0.00000000E+00
  0.00000000E+00  0.00000000E+00  0.00000000E+00
  0.00000000E+00  0.00000000E+00  0.00000000E+00
  0.00000000E+00  0.00000000E+00  0.00000000E+00
  0.00000000E+00  0.00000000E+00  0.00000000E+00
  0.00000000E+00  0.00000000E+00  0.00000000E+00
  0.00000000E+00  0.00000000E+00  0.00000000E+00
  0.00000000E+00  0.00000000E+00  0.00000000E+00
  0.00000000E+00  0.00000000E+00  0.00000000E+00
  0.00000000E+00  0.00000000E+00  0.00000000E+00
  0.00000000E+00  0.00000000E+00  0.00000000E+00
  0.00000000E+00  0.00000000E+00  0.00000000E+00
  0.00000000E+00  0.00000000E+00  0.00000000E+00
  0.00000000E+00  0.00000000E+00  0.00000000E+00
  0.00000000E+00  0.00000000E+00  0.00000000E+00
  0.00000000E+00  0.00000000E+00  0.00000000E+00
  0.00000000E+00  0.00000000E+00  0.00000000E+00
  0.00000000E+00  0.00000000E+00  0.00000000E+00
  0.00000000E+00  0.00000000E+00  0.00000000E+00
  0.00000000E+00  0.00000000E+00  0.00000000E+00
  0.00000000E+00  0.00000000E+00  0.00000000E+00
  0.00000000E+00  0.00000000E+00  0.00000000E+00
