CONTCAR\(3)                             
   1.00000000000000     
    13.4425001143999996    0.0000000000000000    0.0000000000000000
     3.3606099258000000   18.5762653218000011    0.0000000000000000
     0.0000000000000000    0.0000000000000000   18.6296005248999990
   V    Te   O 
    24    48     1
Direct
  0.0004831000141166  0.9989383341480562  0.5026849596392501
  0.0890444179144785  0.1439747539393529  0.4990515594721311
  0.1619255321020502  0.3538996067150640  0.5037733797171982
  0.2508067612276627  0.9991440589962541  0.5028393497180629
  0.3390531390877688  0.1440934904006697  0.4987985671201554
  0.4118442046105705  0.3542973379987317  0.5040985424982661
  0.4997032405729184  0.9991245530370589  0.5027764394112966
  0.5889583322456304  0.1437955733316051  0.4989363316813185
  0.6613030764067699  0.3541213114735446  0.5040456634922003
  0.7499061922590341  0.9989117531347652  0.5027829097333214
  0.8388940403303875  0.1438773905258642  0.4991722541000186
  0.9113291316796683  0.3537695925657262  0.5036410454892724
  0.0004163472639222  0.4988841501197365  0.4988179036852495
  0.0887230292272662  0.6433433108994737  0.4950561880933039
  0.1621881232795027  0.8541465950977351  0.5057082157595895
  0.2504298185274819  0.4990190039550325  0.4987093330410627
  0.3363460107630798  0.6409635415100148  0.4928095996799764
  0.4103898748407266  0.8581804231523444  0.5064310210757687
  0.5003704242793995  0.4988229038352812  0.4988283404823828
  0.5928170806962677  0.6409478850363787  0.4929277018682132
  0.6607241743169600  0.8541028752000409  0.5059353343200281
  0.7501874642242855  0.4990917455853991  0.4987340612620952
  0.8395498795726171  0.6434929111773114  0.4951548002894376
  0.9114457672556057  0.8539766686283002  0.5050220466397775
  0.1113682920278229  0.0533483164260998  0.6042086035618760
  0.1390722567766454  0.4436247870351793  0.3978178925693725
  0.1940026088519304  0.2240219072673747  0.5825420253942978
  0.0566763233107341  0.2741398103425434  0.4202424798804446
  0.0268696241715036  0.3926494604801871  0.6042493748339206
  0.2232657737270885  0.1059434916993934  0.3980124686126630
  0.3616131512991460  0.0541072369660448  0.6042923775505914
  0.3891041126677525  0.4432612022167571  0.3978196580203868
  0.4440191398994775  0.2241275512248104  0.5824540703671564
  0.3069846501858974  0.2742007885818184  0.4203342165131672
  0.2770516870810985  0.3932758282121100  0.6044979172919265
  0.4735748328430546  0.1059292398263906  0.3980020047995904
  0.6116617214615132  0.0533690509151811  0.6042636919789010
  0.6393274667549523  0.4432158161477113  0.3978809676523915
  0.6938265926569214  0.2237818965422236  0.5825759296670440
  0.5567213997869426  0.2739584826162125  0.4204666406712137
  0.5268263514495848  0.3936040060259093  0.6047291619875501
  0.7237017518395813  0.1054703428488853  0.3981661222756849
  0.8617577568705959  0.0528451715285027  0.6041115916576473
  0.8891823007760103  0.4436921113080018  0.3977762765742441
  0.9438312726059073  0.2238454686510373  0.5825896603848719
  0.8062796289793818  0.2739143281467554  0.4202404672740220
  0.7765360412897412  0.3932444711094939  0.6044059499701030
  0.9733965463974624  0.1057462364038298  0.3982539584226324
  0.1119445982076306  0.5528335886058013  0.6003324745458550
  0.1387645484149343  0.9453372616464975  0.4011534518236077
  0.1957806126386302  0.7211439416023904  0.5795143190857293
  0.0564743923451286  0.7754943338628814  0.4206214464001496
  0.0272040547244543  0.8912543574313188  0.6065559211239074
  0.2218454876235362  0.6042559160802985  0.3922923648143892
  0.3614153640031256  0.5543463499110761  0.6004963393837159
  0.3883147315909957  0.9465283894903245  0.4002059700766042
  0.4434964996247007  0.7248957953259978  0.5686501925823459
  0.3069032014024570  0.7753225380775794  0.4207902983006549
  0.2762676779744913  0.8928365366999722  0.6078119568114863
  0.4741098153940985  0.6036439967109526  0.3930400530135293
  0.6114810123994338  0.5543605940027646  0.6005728414169846
  0.6386227658047151  0.9451253731069125  0.4012154916940910
  0.6934547434018716  0.7209483844881630  0.5797141418161199
  0.5554363116448487  0.7752221607604695  0.4210181834318191
  0.5271349511476410  0.8928256082993029  0.6078701478261972
  0.7258498738615172  0.6044162559074672  0.3925214449436673
  0.8618886951330444  0.5528546245868033  0.6002552305570596
  0.8885749414506221  0.9455638092254024  0.4007948830377398
  0.9446009868954902  0.7219115764872570  0.5800678043133152
  0.8054120640371474  0.7756161625968988  0.4205520457575265
  0.7772592661997969  0.8912287171776181  0.6066799435987508
  0.9736198609080743  0.6050871906472700  0.3936749404953085
  0.4476931767626794  0.7080200532823971  0.6670889819682843
 
  0.00000000E+00  0.00000000E+00  0.00000000E+00
  0.00000000E+00  0.00000000E+00  0.00000000E+00
  0.00000000E+00  0.00000000E+00  0.00000000E+00
  0.00000000E+00  0.00000000E+00  0.00000000E+00
  0.00000000E+00  0.00000000E+00  0.00000000E+00
  0.00000000E+00  0.00000000E+00  0.00000000E+00
  0.00000000E+00  0.00000000E+00  0.00000000E+00
  0.00000000E+00  0.00000000E+00  0.00000000E+00
  0.00000000E+00  0.00000000E+00  0.00000000E+00
  0.00000000E+00  0.00000000E+00  0.00000000E+00
  0.00000000E+00  0.00000000E+00  0.00000000E+00
  0.00000000E+00  0.00000000E+00  0.00000000E+00
  0.00000000E+00  0.00000000E+00  0.00000000E+00
  0.00000000E+00  0.00000000E+00  0.00000000E+00
  0.00000000E+00  0.00000000E+00  0.00000000E+00
  0.00000000E+00  0.00000000E+00  0.00000000E+00
  0.00000000E+00  0.00000000E+00  0.00000000E+00
  0.00000000E+00  0.00000000E+00  0.00000000E+00
  0.00000000E+00  0.00000000E+00  0.00000000E+00
  0.00000000E+00  0.00000000E+00  0.00000000E+00
  0.00000000E+00  0.00000000E+00  0.00000000E+00
  0.00000000E+00  0.00000000E+00  0.00000000E+00
  0.00000000E+00  0.00000000E+00  0.00000000E+00
  0.00000000E+00  0.00000000E+00  0.00000000E+00
  0.00000000E+00  0.00000000E+00  0.00000000E+00
  0.00000000E+00  0.00000000E+00  0.00000000E+00
  0.00000000E+00  0.00000000E+00  0.00000000E+00
  0.00000000E+00  0.00000000E+00  0.00000000E+00
  0.00000000E+00  0.00000000E+00  0.00000000E+00
  0.00000000E+00  0.00000000E+00  0.00000000E+00
  0.00000000E+00  0.00000000E+00  0.00000000E+00
  0.00000000E+00  0.00000000E+00  0.00000000E+00
  0.00000000E+00  0.00000000E+00  0.00000000E+00
  0.00000000E+00  0.00000000E+00  0.00000000E+00
  0.00000000E+00  0.00000000E+00  0.00000000E+00
  0.00000000E+00  0.00000000E+00  0.00000000E+00
  0.00000000E+00  0.00000000E+00  0.00000000E+00
  0.00000000E+00  0.00000000E+00  0.00000000E+00
  0.00000000E+00  0.00000000E+00  0.00000000E+00
  0.00000000E+00  0.00000000E+00  0.00000000E+00
  0.00000000E+00  0.00000000E+00  0.00000000E+00
  0.00000000E+00  0.00000000E+00  0.00000000E+00
  0.00000000E+00  0.00000000E+00  0.00000000E+00
  0.00000000E+00  0.00000000E+00  0.00000000E+00
  0.00000000E+00  0.00000000E+00  0.00000000E+00
  0.00000000E+00  0.00000000E+00  0.00000000E+00
  0.00000000E+00  0.00000000E+00  0.00000000E+00
  0.00000000E+00  0.00000000E+00  0.00000000E+00
  0.00000000E+00  0.00000000E+00  0.00000000E+00
  0.00000000E+00  0.00000000E+00  0.00000000E+00
  0.00000000E+00  0.00000000E+00  0.00000000E+00
  0.00000000E+00  0.00000000E+00  0.00000000E+00
  0.00000000E+00  0.00000000E+00  0.00000000E+00
  0.00000000E+00  0.00000000E+00  0.00000000E+00
  0.00000000E+00  0.00000000E+00  0.00000000E+00
  0.00000000E+00  0.00000000E+00  0.00000000E+00
  0.00000000E+00  0.00000000E+00  0.00000000E+00
  0.00000000E+00  0.00000000E+00  0.00000000E+00
  0.00000000E+00  0.00000000E+00  0.00000000E+00
  0.00000000E+00  0.00000000E+00  0.00000000E+00
  0.00000000E+00  0.00000000E+00  0.00000000E+00
  0.00000000E+00  0.00000000E+00  0.00000000E+00
  0.00000000E+00  0.00000000E+00  0.00000000E+00
  0.00000000E+00  0.00000000E+00  0.00000000E+00
  0.00000000E+00  0.00000000E+00  0.00000000E+00
  0.00000000E+00  0.00000000E+00  0.00000000E+00
  0.00000000E+00  0.00000000E+00  0.00000000E+00
  0.00000000E+00  0.00000000E+00  0.00000000E+00
  0.00000000E+00  0.00000000E+00  0.00000000E+00
  0.00000000E+00  0.00000000E+00  0.00000000E+00
  0.00000000E+00  0.00000000E+00  0.00000000E+00
  0.00000000E+00  0.00000000E+00  0.00000000E+00
  0.00000000E+00  0.00000000E+00  0.00000000E+00
