CONTCAR\(8)                             
   1.00000000000000     
    10.9576997757000001    0.0000000000000000    0.0000000000000000
     0.0000000000000000   18.6480007171999986    0.0000000000000000
     0.0000000000000000    0.0000000000000000   19.2721004485999998
   Ta   Te   Pd
    12    30    18
Direct
  0.0000000000000000  0.9155941051719108  0.5001573447369101
  0.1666699989999998  0.4155940291719115  0.4998426552630899
  0.0000000000000000  0.1676040160597730  0.4962937732360432
  0.1666699989999998  0.6676040030597754  0.5037062267639568
  0.3333300119999976  0.9155941051719108  0.5001573447369101
  0.5000000000000000  0.4155940291719115  0.4998426552630899
  0.3333300119999976  0.1676040160597730  0.4962937732360432
  0.5000000000000000  0.6676040030597754  0.5037062267639568
  0.6666700319999990  0.9155941051719108  0.5001573447369101
  0.8333300119999976  0.4155940291719115  0.4998426552630899
  0.6666700319999990  0.1676040160597730  0.4962937732360432
  0.8333300119999976  0.6676040030597754  0.5037062267639568
  0.0000000000000000  0.7181581303511170  0.6078012419356825
  0.1666699989999998  0.8635466612360935  0.3968837157927257
  0.1666699989999998  0.2181481073511154  0.3921987330643190
  0.0000000000000000  0.3635466102360930  0.6031163092072728
  0.0000000000000000  0.6465703847153839  0.3911378803439510
  0.1666699989999998  0.1465603867153807  0.6088521236560532
  0.1666699989999998  0.5403128221897168  0.5840567789137475
  0.0000000000000000  0.0403028561897164  0.4159332250862567
  0.0000000000000000  0.4389198484736487  0.3881094817577902
  0.1666699989999998  0.9389098754736442  0.6119005392422111
  0.3333300119999976  0.7181581303511170  0.6078012419356825
  0.5000000000000000  0.8635466612360935  0.3968837157927257
  0.5000000000000000  0.2181481073511154  0.3921987330643190
  0.3333300119999976  0.3635466102360930  0.6031163092072728
  0.3333300119999976  0.6465703847153839  0.3911378803439510
  0.5000000000000000  0.1465603867153807  0.6088521236560532
  0.5000000000000000  0.5403128221897168  0.5840567789137475
  0.3333300119999976  0.0403028561897164  0.4159332250862567
  0.3333300119999976  0.4389198484736487  0.3881094817577902
  0.5000000000000000  0.9389098754736442  0.6119005392422111
  0.6666700319999990  0.7181581303511170  0.6078012419356825
  0.8333300119999976  0.8635466612360935  0.3968837157927257
  0.8333300119999976  0.2181481073511154  0.3921987330643190
  0.6666700319999990  0.3635466102360930  0.6031163092072728
  0.6666700319999990  0.6465703847153839  0.3911378803439510
  0.8333300119999976  0.1465603867153807  0.6088521236560532
  0.8333300119999976  0.5403128221897168  0.5840567789137475
  0.6666700319999990  0.0403028561897164  0.4159332250862567
  0.6666700319999990  0.4389198484736487  0.3881094817577902
  0.8333300119999976  0.9389098754736442  0.6119005392422111
  0.0000000000000000  0.3101460892295125  0.4488284223069745
  0.0000000000000000  0.7731690252099641  0.4550100906643424
  0.1666699989999998  0.2731590522099667  0.5449899093356576
  0.1666699989999998  0.8101560612295134  0.5511615816930299
  0.0000000000000000  0.5415990083628810  0.4828794055518386
  0.1666699989999998  0.0415989763628784  0.5171205944481615
  0.3333300119999976  0.3101460892295125  0.4488284223069745
  0.3333300119999976  0.7731690252099641  0.4550100906643424
  0.5000000000000000  0.2731590522099667  0.5449899093356576
  0.5000000000000000  0.8101560612295134  0.5511615816930299
  0.3333300119999976  0.5415990083628810  0.4828794055518386
  0.5000000000000000  0.0415989763628784  0.5171205944481615
  0.6666700319999990  0.3101460892295125  0.4488284223069745
  0.6666700319999990  0.7731690252099641  0.4550100906643424
  0.8333300119999976  0.2731590522099667  0.5449899093356576
  0.8333300119999976  0.8101560612295134  0.5511615816930299
  0.6666700319999990  0.5415990083628810  0.4828794055518386
  0.8333300119999976  0.0415989763628784  0.5171205944481615
 
  0.00000000E+00  0.00000000E+00  0.00000000E+00
  0.00000000E+00  0.00000000E+00  0.00000000E+00
  0.00000000E+00  0.00000000E+00  0.00000000E+00
  0.00000000E+00  0.00000000E+00  0.00000000E+00
  0.00000000E+00  0.00000000E+00  0.00000000E+00
  0.00000000E+00  0.00000000E+00  0.00000000E+00
  0.00000000E+00  0.00000000E+00  0.00000000E+00
  0.00000000E+00  0.00000000E+00  0.00000000E+00
  0.00000000E+00  0.00000000E+00  0.00000000E+00
  0.00000000E+00  0.00000000E+00  0.00000000E+00
  0.00000000E+00  0.00000000E+00  0.00000000E+00
  0.00000000E+00  0.00000000E+00  0.00000000E+00
  0.00000000E+00  0.00000000E+00  0.00000000E+00
  0.00000000E+00  0.00000000E+00  0.00000000E+00
  0.00000000E+00  0.00000000E+00  0.00000000E+00
  0.00000000E+00  0.00000000E+00  0.00000000E+00
  0.00000000E+00  0.00000000E+00  0.00000000E+00
  0.00000000E+00  0.00000000E+00  0.00000000E+00
  0.00000000E+00  0.00000000E+00  0.00000000E+00
  0.00000000E+00  0.00000000E+00  0.00000000E+00
  0.00000000E+00  0.00000000E+00  0.00000000E+00
  0.00000000E+00  0.00000000E+00  0.00000000E+00
  0.00000000E+00  0.00000000E+00  0.00000000E+00
  0.00000000E+00  0.00000000E+00  0.00000000E+00
  0.00000000E+00  0.00000000E+00  0.00000000E+00
  0.00000000E+00  0.00000000E+00  0.00000000E+00
  0.00000000E+00  0.00000000E+00  0.00000000E+00
  0.00000000E+00  0.00000000E+00  0.00000000E+00
  0.00000000E+00  0.00000000E+00  0.00000000E+00
  0.00000000E+00  0.00000000E+00  0.00000000E+00
  0.00000000E+00  0.00000000E+00  0.00000000E+00
  0.00000000E+00  0.00000000E+00  0.00000000E+00
  0.00000000E+00  0.00000000E+00  0.00000000E+00
  0.00000000E+00  0.00000000E+00  0.00000000E+00
  0.00000000E+00  0.00000000E+00  0.00000000E+00
  0.00000000E+00  0.00000000E+00  0.00000000E+00
  0.00000000E+00  0.00000000E+00  0.00000000E+00
  0.00000000E+00  0.00000000E+00  0.00000000E+00
  0.00000000E+00  0.00000000E+00  0.00000000E+00
  0.00000000E+00  0.00000000E+00  0.00000000E+00
  0.00000000E+00  0.00000000E+00  0.00000000E+00
  0.00000000E+00  0.00000000E+00  0.00000000E+00
  0.00000000E+00  0.00000000E+00  0.00000000E+00
  0.00000000E+00  0.00000000E+00  0.00000000E+00
  0.00000000E+00  0.00000000E+00  0.00000000E+00
  0.00000000E+00  0.00000000E+00  0.00000000E+00
  0.00000000E+00  0.00000000E+00  0.00000000E+00
  0.00000000E+00  0.00000000E+00  0.00000000E+00
  0.00000000E+00  0.00000000E+00  0.00000000E+00
  0.00000000E+00  0.00000000E+00  0.00000000E+00
  0.00000000E+00  0.00000000E+00  0.00000000E+00
  0.00000000E+00  0.00000000E+00  0.00000000E+00
  0.00000000E+00  0.00000000E+00  0.00000000E+00
  0.00000000E+00  0.00000000E+00  0.00000000E+00
  0.00000000E+00  0.00000000E+00  0.00000000E+00
  0.00000000E+00  0.00000000E+00  0.00000000E+00
  0.00000000E+00  0.00000000E+00  0.00000000E+00
  0.00000000E+00  0.00000000E+00  0.00000000E+00
  0.00000000E+00  0.00000000E+00  0.00000000E+00
  0.00000000E+00  0.00000000E+00  0.00000000E+00
