 Nb2 Pd1 S6                             
   1.00000000000000     
     3.2548190468549119    0.0000000000000000    0.0000000000000000
    -1.6274090292621124    9.0662729334683583    0.0000000000000000
     0.0000000000000000    0.0000000000000000   18.6888558921119987
   Nb   Pd   S 
     2     1     6
Direct
  0.1493688560642781  0.2986954358207825  0.4762414467598575
  0.8506310615073218  0.7013045917481122  0.5237585510981617
  0.4999999758082225  0.9999999899676340  0.5000000039238088
  0.3922908733543835  0.7845924758756482  0.4307955821230394
  0.6077092189803253  0.2154075185558639  0.5692044129584204
  0.2572879967631465  0.5145746531186433  0.5688860822850188
  0.7427119902876527  0.4854253679525016  0.4311139116898630
  0.5803346454917317  0.1606664870543995  0.4017068976004481
  0.4196653817429379  0.8393334799064149  0.5982931115613894
 
  0.00000000E+00  0.00000000E+00  0.00000000E+00
  0.00000000E+00  0.00000000E+00  0.00000000E+00
  0.00000000E+00  0.00000000E+00  0.00000000E+00
  0.00000000E+00  0.00000000E+00  0.00000000E+00
  0.00000000E+00  0.00000000E+00  0.00000000E+00
  0.00000000E+00  0.00000000E+00  0.00000000E+00
  0.00000000E+00  0.00000000E+00  0.00000000E+00
  0.00000000E+00  0.00000000E+00  0.00000000E+00
  0.00000000E+00  0.00000000E+00  0.00000000E+00
