G   62   22    1    0.005     # Parameters to Generate KPOINTS (Don't Edit This Line)
     684
Reciprocal lattice
    0.000000000000    0.000000000000    0.000000000000       1
    0.016129032258    0.000000000000    0.000000000000       2
    0.032258064516    0.000000000000    0.000000000000       2
    0.048387096774    0.000000000000    0.000000000000       2
    0.064516129032    0.000000000000    0.000000000000       2
    0.080645161290    0.000000000000    0.000000000000       2
    0.096774193548    0.000000000000    0.000000000000       2
    0.112903225806    0.000000000000    0.000000000000       2
    0.129032258065    0.000000000000    0.000000000000       2
    0.145161290323    0.000000000000    0.000000000000       2
    0.161290322581    0.000000000000    0.000000000000       2
    0.177419354839    0.000000000000    0.000000000000       2
    0.193548387097    0.000000000000    0.000000000000       2
    0.209677419355    0.000000000000    0.000000000000       2
    0.225806451613    0.000000000000    0.000000000000       2
    0.241935483871    0.000000000000    0.000000000000       2
    0.258064516129    0.000000000000    0.000000000000       2
    0.274193548387    0.000000000000    0.000000000000       2
    0.290322580645    0.000000000000    0.000000000000       2
    0.306451612903    0.000000000000    0.000000000000       2
    0.322580645161    0.000000000000    0.000000000000       2
    0.338709677419    0.000000000000    0.000000000000       2
    0.354838709677    0.000000000000    0.000000000000       2
    0.370967741935    0.000000000000    0.000000000000       2
    0.387096774194    0.000000000000    0.000000000000       2
    0.403225806452    0.000000000000    0.000000000000       2
    0.419354838710    0.000000000000    0.000000000000       2
    0.435483870968    0.000000000000    0.000000000000       2
    0.451612903226    0.000000000000    0.000000000000       2
    0.467741935484    0.000000000000    0.000000000000       2
    0.483870967742    0.000000000000    0.000000000000       2
    0.500000000000    0.000000000000    0.000000000000       1
    0.000000000000    0.045454545455    0.000000000000       2
    0.016129032258    0.045454545455    0.000000000000       2
    0.032258064516    0.045454545455    0.000000000000       2
    0.048387096774    0.045454545455    0.000000000000       2
    0.064516129032    0.045454545455    0.000000000000       2
    0.080645161290    0.045454545455    0.000000000000       2
    0.096774193548    0.045454545455    0.000000000000       2
    0.112903225806    0.045454545455    0.000000000000       2
    0.129032258065    0.045454545455    0.000000000000       2
    0.145161290323    0.045454545455    0.000000000000       2
    0.161290322581    0.045454545455    0.000000000000       2
    0.177419354839    0.045454545455    0.000000000000       2
    0.193548387097    0.045454545455    0.000000000000       2
    0.209677419355    0.045454545455    0.000000000000       2
    0.225806451613    0.045454545455    0.000000000000       2
    0.241935483871    0.045454545455    0.000000000000       2
    0.258064516129    0.045454545455    0.000000000000       2
    0.274193548387    0.045454545455    0.000000000000       2
    0.290322580645    0.045454545455    0.000000000000       2
    0.306451612903    0.045454545455    0.000000000000       2
    0.322580645161    0.045454545455    0.000000000000       2
    0.338709677419    0.045454545455    0.000000000000       2
    0.354838709677    0.045454545455    0.000000000000       2
    0.370967741935    0.045454545455    0.000000000000       2
    0.387096774194    0.045454545455    0.000000000000       2
    0.403225806452    0.045454545455    0.000000000000       2
    0.419354838710    0.045454545455    0.000000000000       2
    0.435483870968    0.045454545455    0.000000000000       2
    0.451612903226    0.045454545455    0.000000000000       2
    0.467741935484    0.045454545455    0.000000000000       2
    0.483870967742    0.045454545455    0.000000000000       2
    0.500000000000    0.045454545455    0.000000000000       2
   -0.483870967742    0.045454545455    0.000000000000       2
   -0.467741935484    0.045454545455    0.000000000000       2
   -0.451612903226    0.045454545455    0.000000000000       2
   -0.435483870968    0.045454545455    0.000000000000       2
   -0.419354838710    0.045454545455    0.000000000000       2
   -0.403225806452    0.045454545455    0.000000000000       2
   -0.387096774194    0.045454545455    0.000000000000       2
   -0.370967741935    0.045454545455    0.000000000000       2
   -0.354838709677    0.045454545455    0.000000000000       2
   -0.338709677419    0.045454545455    0.000000000000       2
   -0.322580645161    0.045454545455    0.000000000000       2
   -0.306451612903    0.045454545455    0.000000000000       2
   -0.290322580645    0.045454545455    0.000000000000       2
   -0.274193548387    0.045454545455    0.000000000000       2
   -0.258064516129    0.045454545455    0.000000000000       2
   -0.241935483871    0.045454545455    0.000000000000       2
   -0.225806451613    0.045454545455    0.000000000000       2
   -0.209677419355    0.045454545455    0.000000000000       2
   -0.193548387097    0.045454545455    0.000000000000       2
   -0.177419354839    0.045454545455    0.000000000000       2
   -0.161290322581    0.045454545455    0.000000000000       2
   -0.145161290323    0.045454545455    0.000000000000       2
   -0.129032258065    0.045454545455    0.000000000000       2
   -0.112903225806    0.045454545455    0.000000000000       2
   -0.096774193548    0.045454545455    0.000000000000       2
   -0.080645161290    0.045454545455    0.000000000000       2
   -0.064516129032    0.045454545455    0.000000000000       2
   -0.048387096774    0.045454545455    0.000000000000       2
   -0.032258064516    0.045454545455    0.000000000000       2
   -0.016129032258    0.045454545455    0.000000000000       2
    0.000000000000    0.090909090909    0.000000000000       2
    0.016129032258    0.090909090909    0.000000000000       2
    0.032258064516    0.090909090909    0.000000000000       2
    0.048387096774    0.090909090909    0.000000000000       2
    0.064516129032    0.090909090909    0.000000000000       2
    0.080645161290    0.090909090909    0.000000000000       2
    0.096774193548    0.090909090909    0.000000000000       2
    0.112903225806    0.090909090909    0.000000000000       2
    0.129032258065    0.090909090909    0.000000000000       2
    0.145161290323    0.090909090909    0.000000000000       2
    0.161290322581    0.090909090909    0.000000000000       2
    0.177419354839    0.090909090909    0.000000000000       2
    0.193548387097    0.090909090909    0.000000000000       2
    0.209677419355    0.090909090909    0.000000000000       2
    0.225806451613    0.090909090909    0.000000000000       2
    0.241935483871    0.090909090909    0.000000000000       2
    0.258064516129    0.090909090909    0.000000000000       2
    0.274193548387    0.090909090909    0.000000000000       2
    0.290322580645    0.090909090909    0.000000000000       2
    0.306451612903    0.090909090909    0.000000000000       2
    0.322580645161    0.090909090909    0.000000000000       2
    0.338709677419    0.090909090909    0.000000000000       2
    0.354838709677    0.090909090909    0.000000000000       2
    0.370967741935    0.090909090909    0.000000000000       2
    0.387096774194    0.090909090909    0.000000000000       2
    0.403225806452    0.090909090909    0.000000000000       2
    0.419354838710    0.090909090909    0.000000000000       2
    0.435483870968    0.090909090909    0.000000000000       2
    0.451612903226    0.090909090909    0.000000000000       2
    0.467741935484    0.090909090909    0.000000000000       2
    0.483870967742    0.090909090909    0.000000000000       2
    0.500000000000    0.090909090909    0.000000000000       2
   -0.483870967742    0.090909090909    0.000000000000       2
   -0.467741935484    0.090909090909    0.000000000000       2
   -0.451612903226    0.090909090909    0.000000000000       2
   -0.435483870968    0.090909090909    0.000000000000       2
   -0.419354838710    0.090909090909    0.000000000000       2
   -0.403225806452    0.090909090909    0.000000000000       2
   -0.387096774194    0.090909090909    0.000000000000       2
   -0.370967741935    0.090909090909    0.000000000000       2
   -0.354838709677    0.090909090909    0.000000000000       2
   -0.338709677419    0.090909090909    0.000000000000       2
   -0.322580645161    0.090909090909    0.000000000000       2
   -0.306451612903    0.090909090909    0.000000000000       2
   -0.290322580645    0.090909090909    0.000000000000       2
   -0.274193548387    0.090909090909    0.000000000000       2
   -0.258064516129    0.090909090909    0.000000000000       2
   -0.241935483871    0.090909090909    0.000000000000       2
   -0.225806451613    0.090909090909    0.000000000000       2
   -0.209677419355    0.090909090909    0.000000000000       2
   -0.193548387097    0.090909090909    0.000000000000       2
   -0.177419354839    0.090909090909    0.000000000000       2
   -0.161290322581    0.090909090909    0.000000000000       2
   -0.145161290323    0.090909090909    0.000000000000       2
   -0.129032258065    0.090909090909    0.000000000000       2
   -0.112903225806    0.090909090909    0.000000000000       2
   -0.096774193548    0.090909090909    0.000000000000       2
   -0.080645161290    0.090909090909    0.000000000000       2
   -0.064516129032    0.090909090909    0.000000000000       2
   -0.048387096774    0.090909090909    0.000000000000       2
   -0.032258064516    0.090909090909    0.000000000000       2
   -0.016129032258    0.090909090909    0.000000000000       2
    0.000000000000    0.136363636364    0.000000000000       2
    0.016129032258    0.136363636364    0.000000000000       2
    0.032258064516    0.136363636364    0.000000000000       2
    0.048387096774    0.136363636364    0.000000000000       2
    0.064516129032    0.136363636364    0.000000000000       2
    0.080645161290    0.136363636364    0.000000000000       2
    0.096774193548    0.136363636364    0.000000000000       2
    0.112903225806    0.136363636364    0.000000000000       2
    0.129032258065    0.136363636364    0.000000000000       2
    0.145161290323    0.136363636364    0.000000000000       2
    0.161290322581    0.136363636364    0.000000000000       2
    0.177419354839    0.136363636364    0.000000000000       2
    0.193548387097    0.136363636364    0.000000000000       2
    0.209677419355    0.136363636364    0.000000000000       2
    0.225806451613    0.136363636364    0.000000000000       2
    0.241935483871    0.136363636364    0.000000000000       2
    0.258064516129    0.136363636364    0.000000000000       2
    0.274193548387    0.136363636364    0.000000000000       2
    0.290322580645    0.136363636364    0.000000000000       2
    0.306451612903    0.136363636364    0.000000000000       2
    0.322580645161    0.136363636364    0.000000000000       2
    0.338709677419    0.136363636364    0.000000000000       2
    0.354838709677    0.136363636364    0.000000000000       2
    0.370967741935    0.136363636364    0.000000000000       2
    0.387096774194    0.136363636364    0.000000000000       2
    0.403225806452    0.136363636364    0.000000000000       2
    0.419354838710    0.136363636364    0.000000000000       2
    0.435483870968    0.136363636364    0.000000000000       2
    0.451612903226    0.136363636364    0.000000000000       2
    0.467741935484    0.136363636364    0.000000000000       2
    0.483870967742    0.136363636364    0.000000000000       2
    0.500000000000    0.136363636364    0.000000000000       2
   -0.483870967742    0.136363636364    0.000000000000       2
   -0.467741935484    0.136363636364    0.000000000000       2
   -0.451612903226    0.136363636364    0.000000000000       2
   -0.435483870968    0.136363636364    0.000000000000       2
   -0.419354838710    0.136363636364    0.000000000000       2
   -0.403225806452    0.136363636364    0.000000000000       2
   -0.387096774194    0.136363636364    0.000000000000       2
   -0.370967741935    0.136363636364    0.000000000000       2
   -0.354838709677    0.136363636364    0.000000000000       2
   -0.338709677419    0.136363636364    0.000000000000       2
   -0.322580645161    0.136363636364    0.000000000000       2
   -0.306451612903    0.136363636364    0.000000000000       2
   -0.290322580645    0.136363636364    0.000000000000       2
   -0.274193548387    0.136363636364    0.000000000000       2
   -0.258064516129    0.136363636364    0.000000000000       2
   -0.241935483871    0.136363636364    0.000000000000       2
   -0.225806451613    0.136363636364    0.000000000000       2
   -0.209677419355    0.136363636364    0.000000000000       2
   -0.193548387097    0.136363636364    0.000000000000       2
   -0.177419354839    0.136363636364    0.000000000000       2
   -0.161290322581    0.136363636364    0.000000000000       2
   -0.145161290323    0.136363636364    0.000000000000       2
   -0.129032258065    0.136363636364    0.000000000000       2
   -0.112903225806    0.136363636364    0.000000000000       2
   -0.096774193548    0.136363636364    0.000000000000       2
   -0.080645161290    0.136363636364    0.000000000000       2
   -0.064516129032    0.136363636364    0.000000000000       2
   -0.048387096774    0.136363636364    0.000000000000       2
   -0.032258064516    0.136363636364    0.000000000000       2
   -0.016129032258    0.136363636364    0.000000000000       2
    0.000000000000    0.181818181818    0.000000000000       2
    0.016129032258    0.181818181818    0.000000000000       2
    0.032258064516    0.181818181818    0.000000000000       2
    0.048387096774    0.181818181818    0.000000000000       2
    0.064516129032    0.181818181818    0.000000000000       2
    0.080645161290    0.181818181818    0.000000000000       2
    0.096774193548    0.181818181818    0.000000000000       2
    0.112903225806    0.181818181818    0.000000000000       2
    0.129032258065    0.181818181818    0.000000000000       2
    0.145161290323    0.181818181818    0.000000000000       2
    0.161290322581    0.181818181818    0.000000000000       2
    0.177419354839    0.181818181818    0.000000000000       2
    0.193548387097    0.181818181818    0.000000000000       2
    0.209677419355    0.181818181818    0.000000000000       2
    0.225806451613    0.181818181818    0.000000000000       2
    0.241935483871    0.181818181818    0.000000000000       2
    0.258064516129    0.181818181818    0.000000000000       2
    0.274193548387    0.181818181818    0.000000000000       2
    0.290322580645    0.181818181818    0.000000000000       2
    0.306451612903    0.181818181818    0.000000000000       2
    0.322580645161    0.181818181818    0.000000000000       2
    0.338709677419    0.181818181818    0.000000000000       2
    0.354838709677    0.181818181818    0.000000000000       2
    0.370967741935    0.181818181818    0.000000000000       2
    0.387096774194    0.181818181818    0.000000000000       2
    0.403225806452    0.181818181818    0.000000000000       2
    0.419354838710    0.181818181818    0.000000000000       2
    0.435483870968    0.181818181818    0.000000000000       2
    0.451612903226    0.181818181818    0.000000000000       2
    0.467741935484    0.181818181818    0.000000000000       2
    0.483870967742    0.181818181818    0.000000000000       2
    0.500000000000    0.181818181818    0.000000000000       2
   -0.483870967742    0.181818181818    0.000000000000       2
   -0.467741935484    0.181818181818    0.000000000000       2
   -0.451612903226    0.181818181818    0.000000000000       2
   -0.435483870968    0.181818181818    0.000000000000       2
   -0.419354838710    0.181818181818    0.000000000000       2
   -0.403225806452    0.181818181818    0.000000000000       2
   -0.387096774194    0.181818181818    0.000000000000       2
   -0.370967741935    0.181818181818    0.000000000000       2
   -0.354838709677    0.181818181818    0.000000000000       2
   -0.338709677419    0.181818181818    0.000000000000       2
   -0.322580645161    0.181818181818    0.000000000000       2
   -0.306451612903    0.181818181818    0.000000000000       2
   -0.290322580645    0.181818181818    0.000000000000       2
   -0.274193548387    0.181818181818    0.000000000000       2
   -0.258064516129    0.181818181818    0.000000000000       2
   -0.241935483871    0.181818181818    0.000000000000       2
   -0.225806451613    0.181818181818    0.000000000000       2
   -0.209677419355    0.181818181818    0.000000000000       2
   -0.193548387097    0.181818181818    0.000000000000       2
   -0.177419354839    0.181818181818    0.000000000000       2
   -0.161290322581    0.181818181818    0.000000000000       2
   -0.145161290323    0.181818181818    0.000000000000       2
   -0.129032258065    0.181818181818    0.000000000000       2
   -0.112903225806    0.181818181818    0.000000000000       2
   -0.096774193548    0.181818181818    0.000000000000       2
   -0.080645161290    0.181818181818    0.000000000000       2
   -0.064516129032    0.181818181818    0.000000000000       2
   -0.048387096774    0.181818181818    0.000000000000       2
   -0.032258064516    0.181818181818    0.000000000000       2
   -0.016129032258    0.181818181818    0.000000000000       2
    0.000000000000    0.227272727273    0.000000000000       2
    0.016129032258    0.227272727273    0.000000000000       2
    0.032258064516    0.227272727273    0.000000000000       2
    0.048387096774    0.227272727273    0.000000000000       2
    0.064516129032    0.227272727273    0.000000000000       2
    0.080645161290    0.227272727273    0.000000000000       2
    0.096774193548    0.227272727273    0.000000000000       2
    0.112903225806    0.227272727273    0.000000000000       2
    0.129032258065    0.227272727273    0.000000000000       2
    0.145161290323    0.227272727273    0.000000000000       2
    0.161290322581    0.227272727273    0.000000000000       2
    0.177419354839    0.227272727273    0.000000000000       2
    0.193548387097    0.227272727273    0.000000000000       2
    0.209677419355    0.227272727273    0.000000000000       2
    0.225806451613    0.227272727273    0.000000000000       2
    0.241935483871    0.227272727273    0.000000000000       2
    0.258064516129    0.227272727273    0.000000000000       2
    0.274193548387    0.227272727273    0.000000000000       2
    0.290322580645    0.227272727273    0.000000000000       2
    0.306451612903    0.227272727273    0.000000000000       2
    0.322580645161    0.227272727273    0.000000000000       2
    0.338709677419    0.227272727273    0.000000000000       2
    0.354838709677    0.227272727273    0.000000000000       2
    0.370967741935    0.227272727273    0.000000000000       2
    0.387096774194    0.227272727273    0.000000000000       2
    0.403225806452    0.227272727273    0.000000000000       2
    0.419354838710    0.227272727273    0.000000000000       2
    0.435483870968    0.227272727273    0.000000000000       2
    0.451612903226    0.227272727273    0.000000000000       2
    0.467741935484    0.227272727273    0.000000000000       2
    0.483870967742    0.227272727273    0.000000000000       2
    0.500000000000    0.227272727273    0.000000000000       2
   -0.483870967742    0.227272727273    0.000000000000       2
   -0.467741935484    0.227272727273    0.000000000000       2
   -0.451612903226    0.227272727273    0.000000000000       2
   -0.435483870968    0.227272727273    0.000000000000       2
   -0.419354838710    0.227272727273    0.000000000000       2
   -0.403225806452    0.227272727273    0.000000000000       2
   -0.387096774194    0.227272727273    0.000000000000       2
   -0.370967741935    0.227272727273    0.000000000000       2
   -0.354838709677    0.227272727273    0.000000000000       2
   -0.338709677419    0.227272727273    0.000000000000       2
   -0.322580645161    0.227272727273    0.000000000000       2
   -0.306451612903    0.227272727273    0.000000000000       2
   -0.290322580645    0.227272727273    0.000000000000       2
   -0.274193548387    0.227272727273    0.000000000000       2
   -0.258064516129    0.227272727273    0.000000000000       2
   -0.241935483871    0.227272727273    0.000000000000       2
   -0.225806451613    0.227272727273    0.000000000000       2
   -0.209677419355    0.227272727273    0.000000000000       2
   -0.193548387097    0.227272727273    0.000000000000       2
   -0.177419354839    0.227272727273    0.000000000000       2
   -0.161290322581    0.227272727273    0.000000000000       2
   -0.145161290323    0.227272727273    0.000000000000       2
   -0.129032258065    0.227272727273    0.000000000000       2
   -0.112903225806    0.227272727273    0.000000000000       2
   -0.096774193548    0.227272727273    0.000000000000       2
   -0.080645161290    0.227272727273    0.000000000000       2
   -0.064516129032    0.227272727273    0.000000000000       2
   -0.048387096774    0.227272727273    0.000000000000       2
   -0.032258064516    0.227272727273    0.000000000000       2
   -0.016129032258    0.227272727273    0.000000000000       2
    0.000000000000    0.272727272727    0.000000000000       2
    0.016129032258    0.272727272727    0.000000000000       2
    0.032258064516    0.272727272727    0.000000000000       2
    0.048387096774    0.272727272727    0.000000000000       2
    0.064516129032    0.272727272727    0.000000000000       2
    0.080645161290    0.272727272727    0.000000000000       2
    0.096774193548    0.272727272727    0.000000000000       2
    0.112903225806    0.272727272727    0.000000000000       2
    0.129032258065    0.272727272727    0.000000000000       2
    0.145161290323    0.272727272727    0.000000000000       2
    0.161290322581    0.272727272727    0.000000000000       2
    0.177419354839    0.272727272727    0.000000000000       2
    0.193548387097    0.272727272727    0.000000000000       2
    0.209677419355    0.272727272727    0.000000000000       2
    0.225806451613    0.272727272727    0.000000000000       2
    0.241935483871    0.272727272727    0.000000000000       2
    0.258064516129    0.272727272727    0.000000000000       2
    0.274193548387    0.272727272727    0.000000000000       2
    0.290322580645    0.272727272727    0.000000000000       2
    0.306451612903    0.272727272727    0.000000000000       2
    0.322580645161    0.272727272727    0.000000000000       2
    0.338709677419    0.272727272727    0.000000000000       2
    0.354838709677    0.272727272727    0.000000000000       2
    0.370967741935    0.272727272727    0.000000000000       2
    0.387096774194    0.272727272727    0.000000000000       2
    0.403225806452    0.272727272727    0.000000000000       2
    0.419354838710    0.272727272727    0.000000000000       2
    0.435483870968    0.272727272727    0.000000000000       2
    0.451612903226    0.272727272727    0.000000000000       2
    0.467741935484    0.272727272727    0.000000000000       2
    0.483870967742    0.272727272727    0.000000000000       2
    0.500000000000    0.272727272727    0.000000000000       2
   -0.483870967742    0.272727272727    0.000000000000       2
   -0.467741935484    0.272727272727    0.000000000000       2
   -0.451612903226    0.272727272727    0.000000000000       2
   -0.435483870968    0.272727272727    0.000000000000       2
   -0.419354838710    0.272727272727    0.000000000000       2
   -0.403225806452    0.272727272727    0.000000000000       2
   -0.387096774194    0.272727272727    0.000000000000       2
   -0.370967741935    0.272727272727    0.000000000000       2
   -0.354838709677    0.272727272727    0.000000000000       2
   -0.338709677419    0.272727272727    0.000000000000       2
   -0.322580645161    0.272727272727    0.000000000000       2
   -0.306451612903    0.272727272727    0.000000000000       2
   -0.290322580645    0.272727272727    0.000000000000       2
   -0.274193548387    0.272727272727    0.000000000000       2
   -0.258064516129    0.272727272727    0.000000000000       2
   -0.241935483871    0.272727272727    0.000000000000       2
   -0.225806451613    0.272727272727    0.000000000000       2
   -0.209677419355    0.272727272727    0.000000000000       2
   -0.193548387097    0.272727272727    0.000000000000       2
   -0.177419354839    0.272727272727    0.000000000000       2
   -0.161290322581    0.272727272727    0.000000000000       2
   -0.145161290323    0.272727272727    0.000000000000       2
   -0.129032258065    0.272727272727    0.000000000000       2
   -0.112903225806    0.272727272727    0.000000000000       2
   -0.096774193548    0.272727272727    0.000000000000       2
   -0.080645161290    0.272727272727    0.000000000000       2
   -0.064516129032    0.272727272727    0.000000000000       2
   -0.048387096774    0.272727272727    0.000000000000       2
   -0.032258064516    0.272727272727    0.000000000000       2
   -0.016129032258    0.272727272727    0.000000000000       2
    0.000000000000    0.318181818182    0.000000000000       2
    0.016129032258    0.318181818182    0.000000000000       2
    0.032258064516    0.318181818182    0.000000000000       2
    0.048387096774    0.318181818182    0.000000000000       2
    0.064516129032    0.318181818182    0.000000000000       2
    0.080645161290    0.318181818182    0.000000000000       2
    0.096774193548    0.318181818182    0.000000000000       2
    0.112903225806    0.318181818182    0.000000000000       2
    0.129032258065    0.318181818182    0.000000000000       2
    0.145161290323    0.318181818182    0.000000000000       2
    0.161290322581    0.318181818182    0.000000000000       2
    0.177419354839    0.318181818182    0.000000000000       2
    0.193548387097    0.318181818182    0.000000000000       2
    0.209677419355    0.318181818182    0.000000000000       2
    0.225806451613    0.318181818182    0.000000000000       2
    0.241935483871    0.318181818182    0.000000000000       2
    0.258064516129    0.318181818182    0.000000000000       2
    0.274193548387    0.318181818182    0.000000000000       2
    0.290322580645    0.318181818182    0.000000000000       2
    0.306451612903    0.318181818182    0.000000000000       2
    0.322580645161    0.318181818182    0.000000000000       2
    0.338709677419    0.318181818182    0.000000000000       2
    0.354838709677    0.318181818182    0.000000000000       2
    0.370967741935    0.318181818182    0.000000000000       2
    0.387096774194    0.318181818182    0.000000000000       2
    0.403225806452    0.318181818182    0.000000000000       2
    0.419354838710    0.318181818182    0.000000000000       2
    0.435483870968    0.318181818182    0.000000000000       2
    0.451612903226    0.318181818182    0.000000000000       2
    0.467741935484    0.318181818182    0.000000000000       2
    0.483870967742    0.318181818182    0.000000000000       2
    0.500000000000    0.318181818182    0.000000000000       2
   -0.483870967742    0.318181818182    0.000000000000       2
   -0.467741935484    0.318181818182    0.000000000000       2
   -0.451612903226    0.318181818182    0.000000000000       2
   -0.435483870968    0.318181818182    0.000000000000       2
   -0.419354838710    0.318181818182    0.000000000000       2
   -0.403225806452    0.318181818182    0.000000000000       2
   -0.387096774194    0.318181818182    0.000000000000       2
   -0.370967741935    0.318181818182    0.000000000000       2
   -0.354838709677    0.318181818182    0.000000000000       2
   -0.338709677419    0.318181818182    0.000000000000       2
   -0.322580645161    0.318181818182    0.000000000000       2
   -0.306451612903    0.318181818182    0.000000000000       2
   -0.290322580645    0.318181818182    0.000000000000       2
   -0.274193548387    0.318181818182    0.000000000000       2
   -0.258064516129    0.318181818182    0.000000000000       2
   -0.241935483871    0.318181818182    0.000000000000       2
   -0.225806451613    0.318181818182    0.000000000000       2
   -0.209677419355    0.318181818182    0.000000000000       2
   -0.193548387097    0.318181818182    0.000000000000       2
   -0.177419354839    0.318181818182    0.000000000000       2
   -0.161290322581    0.318181818182    0.000000000000       2
   -0.145161290323    0.318181818182    0.000000000000       2
   -0.129032258065    0.318181818182    0.000000000000       2
   -0.112903225806    0.318181818182    0.000000000000       2
   -0.096774193548    0.318181818182    0.000000000000       2
   -0.080645161290    0.318181818182    0.000000000000       2
   -0.064516129032    0.318181818182    0.000000000000       2
   -0.048387096774    0.318181818182    0.000000000000       2
   -0.032258064516    0.318181818182    0.000000000000       2
   -0.016129032258    0.318181818182    0.000000000000       2
    0.000000000000    0.363636363636    0.000000000000       2
    0.016129032258    0.363636363636    0.000000000000       2
    0.032258064516    0.363636363636    0.000000000000       2
    0.048387096774    0.363636363636    0.000000000000       2
    0.064516129032    0.363636363636    0.000000000000       2
    0.080645161290    0.363636363636    0.000000000000       2
    0.096774193548    0.363636363636    0.000000000000       2
    0.112903225806    0.363636363636    0.000000000000       2