CONTCAR\(9)                             
   1.00000000000000     
    11.7685003281000000    0.0000000000000000    0.0000000000000000
     0.0000000000000000   11.7685003281000000    0.0000000000000000
     0.0000000000000000    0.0000000000000000   18.8055992126000007
   La   I    O 
     9    18     1
Direct
  0.0018297990824192 -0.0003334620499076  0.5056754258993650
  0.3395281206414347  0.0030271576241743  0.5056979443310494
  0.6697417836720645  0.0022661428615842  0.5121791207558802
  0.0018424383966962  0.3354801506790898  0.5056151621459358
  0.3404796879193899  0.3297455551347986  0.5061527175026437
  0.6693472652177308  0.3305657875501351  0.5122931576955869
  0.9941329952279788  0.6675875782671904  0.5021757439277449
  0.3178224935140568  0.6664477709864174  0.4705721921494917
  0.6300872661620138  0.6648003869709067  0.5315818992220983
  0.1745012157085354  0.1682573165582278  0.4052933273439008
  0.1686379332607942  0.1673091663092393  0.6073813184761070
  0.5080064967371104  0.1654846578967585  0.4065078033754652
  0.4950428788358415  0.1656843371935156  0.6054440922587414
  0.8391247252452566  0.1676318835540293  0.4068441143345478
  0.8368934326663989  0.1670650440803117  0.6108430086731425
  0.1479605451425374  0.4903010879640532  0.3900820854879869
  0.1796270313051674  0.5053216928289285  0.5952744792621639
  0.5024388101190181  0.4865254431993979  0.4013113176096062
  0.5280301477840821  0.4615571252874702  0.6341938825674169
  0.8244363893548884  0.5011420666511800  0.4098006217948054
  0.8487059753572507  0.5016014321044421  0.6111797124348065
  0.1505129721133076  0.8466060359134904  0.3910244384427849
  0.1783366645721481  0.8287878568500917  0.5957005950742011
  0.5038970043267099  0.8439335768712490  0.4027008718802519
  0.5251351496700033  0.8689133784929924  0.6318417695505523
  0.8268579735588824  0.8349382887389317  0.4086848816063937
  0.8470702509886188  0.8333115225587093  0.6107674056427603
  0.4528124844196605  0.6623009429226087  0.5391704815545548
 
  0.00000000E+00  0.00000000E+00  0.00000000E+00
  0.00000000E+00  0.00000000E+00  0.00000000E+00
  0.00000000E+00  0.00000000E+00  0.00000000E+00
  0.00000000E+00  0.00000000E+00  0.00000000E+00
  0.00000000E+00  0.00000000E+00  0.00000000E+00
  0.00000000E+00  0.00000000E+00  0.00000000E+00
  0.00000000E+00  0.00000000E+00  0.00000000E+00
  0.00000000E+00  0.00000000E+00  0.00000000E+00
  0.00000000E+00  0.00000000E+00  0.00000000E+00
  0.00000000E+00  0.00000000E+00  0.00000000E+00
  0.00000000E+00  0.00000000E+00  0.00000000E+00
  0.00000000E+00  0.00000000E+00  0.00000000E+00
  0.00000000E+00  0.00000000E+00  0.00000000E+00
  0.00000000E+00  0.00000000E+00  0.00000000E+00
  0.00000000E+00  0.00000000E+00  0.00000000E+00
  0.00000000E+00  0.00000000E+00  0.00000000E+00
  0.00000000E+00  0.00000000E+00  0.00000000E+00
  0.00000000E+00  0.00000000E+00  0.00000000E+00
  0.00000000E+00  0.00000000E+00  0.00000000E+00
  0.00000000E+00  0.00000000E+00  0.00000000E+00
  0.00000000E+00  0.00000000E+00  0.00000000E+00
  0.00000000E+00  0.00000000E+00  0.00000000E+00
  0.00000000E+00  0.00000000E+00  0.00000000E+00
  0.00000000E+00  0.00000000E+00  0.00000000E+00
  0.00000000E+00  0.00000000E+00  0.00000000E+00
  0.00000000E+00  0.00000000E+00  0.00000000E+00
  0.00000000E+00  0.00000000E+00  0.00000000E+00
  0.00000000E+00  0.00000000E+00  0.00000000E+00
