CONTCAR                                 
   1.00000000000000     
    11.7709999084000003    0.0000000000000000    0.0000000000000000
    -5.8855350711999996   11.1688637170000007    0.0000000000000000
     0.0000000000000000    0.0000000000000000   18.2658004761000008
   Cr   I    O    H 
     9    18     2     1
Direct
 -0.0037880633638819 -0.0006483222708635  0.4939993514016216
  0.3303085745400957  0.0002677423448963  0.4936694296131720
  0.6637924167492416  0.0007052854332338  0.4939337907643034
 -0.0010662003461968  0.3359063576164957  0.4942465916686398
  0.3350405828514234  0.3414394672482785  0.4957814962034134
  0.6646164332992042  0.3342323296272118  0.4935771599537553
 -0.0032884587403067  0.6659463064156200  0.4943677698880679
  0.3344321283630732  0.6734145199679766  0.4977114002411606
  0.6628608108754807  0.6653426263826411  0.4940563005994076
  0.1206903185941225  0.2470561553174211  0.5847940150580003
  0.2088471757770318  0.0919632229837754  0.4046304291836525
  0.4543323821555818  0.2466907130919886  0.5844138854727299
  0.5414745627767961  0.0891143673549056  0.4030558310891314
  0.7873088279661187  0.2462455978395007  0.5842715773575284
  0.8746993849573517  0.0884978636738772  0.4033113965733457
  0.1208030583177288  0.5804238572883951  0.5859023758387643
  0.2084715580371532  0.4227873628246556  0.4031306698645783
  0.4504685310374655  0.5722235080199755  0.5831768293744448
  0.5431101483712989  0.4235052267109027  0.4028011092195856
  0.7872094356076181  0.5796513609051892  0.5855034549913314
  0.8758863848419522  0.4231998205044218  0.4032124093337236
  0.1205937879760615  0.9138778740997666  0.5851707851444768
  0.2086764257810198  0.7563902651097980  0.4045398187504723
  0.4532124800876265  0.9128688516956132  0.5844384840669222
  0.5412637210489128  0.7558722120931621  0.4041154016676634
  0.7857559906914643  0.9121828412522929  0.5848536487819894
  0.8756097563512697  0.7563912175055364  0.4039450896957006
  0.4050059583951249  0.7031201900879847  0.7046573715912882
  0.3641809245894088  0.6411580247321392  0.7697151104072200
  0.2703709044107542  0.5935128501432312  0.7634668462039196
 
  0.00000000E+00  0.00000000E+00  0.00000000E+00
  0.00000000E+00  0.00000000E+00  0.00000000E+00
  0.00000000E+00  0.00000000E+00  0.00000000E+00
  0.00000000E+00  0.00000000E+00  0.00000000E+00
  0.00000000E+00  0.00000000E+00  0.00000000E+00
  0.00000000E+00  0.00000000E+00  0.00000000E+00
  0.00000000E+00  0.00000000E+00  0.00000000E+00
  0.00000000E+00  0.00000000E+00  0.00000000E+00
  0.00000000E+00  0.00000000E+00  0.00000000E+00
  0.00000000E+00  0.00000000E+00  0.00000000E+00
  0.00000000E+00  0.00000000E+00  0.00000000E+00
  0.00000000E+00  0.00000000E+00  0.00000000E+00
  0.00000000E+00  0.00000000E+00  0.00000000E+00
  0.00000000E+00  0.00000000E+00  0.00000000E+00
  0.00000000E+00  0.00000000E+00  0.00000000E+00
  0.00000000E+00  0.00000000E+00  0.00000000E+00
  0.00000000E+00  0.00000000E+00  0.00000000E+00
  0.00000000E+00  0.00000000E+00  0.00000000E+00
  0.00000000E+00  0.00000000E+00  0.00000000E+00
  0.00000000E+00  0.00000000E+00  0.00000000E+00
  0.00000000E+00  0.00000000E+00  0.00000000E+00
  0.00000000E+00  0.00000000E+00  0.00000000E+00
  0.00000000E+00  0.00000000E+00  0.00000000E+00
  0.00000000E+00  0.00000000E+00  0.00000000E+00
  0.00000000E+00  0.00000000E+00  0.00000000E+00
  0.00000000E+00  0.00000000E+00  0.00000000E+00
  0.00000000E+00  0.00000000E+00  0.00000000E+00
  0.00000000E+00  0.00000000E+00  0.00000000E+00
  0.00000000E+00  0.00000000E+00  0.00000000E+00
  0.00000000E+00  0.00000000E+00  0.00000000E+00
