CONTCAR                                 
   1.00000000000000     
    13.9573001861999995    0.0000000000000000    0.0000000000000000
     0.0000000000000000   20.3449993133999989    0.0000000000000000
     0.0000000000000000    0.0000000000000000   22.8059997559000003
   Nb   Cr   Se   O    H 
    16    16    80     2     1
Direct
  0.1871273419931709  0.2286341543621300  0.5841263116822026
  0.0619982953290375  0.2702880154727839  0.4137838194380651
  0.4387296903395673  0.2281840910619432  0.5840102279217152
  0.3124245564034776  0.2697823821745179  0.4138559022953319
  0.6885407414091387  0.2287314611876452  0.5846906904497785
  0.5633132401054766  0.2703471718017472  0.4137626815610139
  0.9366128755337109  0.2291224034610225  0.5846944670032306
  0.8124842030972100  0.2703176096169482  0.4137251584713659
  0.1866272443267895  0.7277813476375855  0.5850384453441957
  0.0631519303691523  0.7715490708088993  0.4145928972508091
  0.4373275308180157  0.7276411964715750  0.5851463132714078
  0.3110465849806712  0.7716269484783121  0.4148342364018359
  0.6881768752156091  0.7286208985274216  0.5848656057315293
  0.5607635748183113  0.7724158719742948  0.4154361058470918
  0.9374471667396455  0.7283048671531150  0.5849752061266785
  0.8125668921845384  0.7723467076779942  0.4150729775249233
  0.0578414822065144  0.0658527715665377  0.5256758114884109
  0.1891919797713488  0.4334398092648294  0.4716663252722977
  0.3109584827705105  0.0643876932162524  0.5256368906751301
  0.4365566975649543  0.4334896956296725  0.4716133444004267
  0.5701724140127776  0.0660323289371608  0.5257221075274786
  0.6873555947755039  0.4338121186441400  0.4712179725152667
  0.8127428668211910  0.0637324811832898  0.5248611971073657
  0.9381175819409717  0.4338703356171738  0.4712137295695733
  0.0602471698684204  0.5645779354329228  0.5248364605168258
  0.1869159774707999  0.9361598975795788  0.4757348989340702
  0.3126507298878498  0.5654313081727584  0.5264314340406521
  0.4290690189370008  0.9336919086653133  0.4753014256690747
  0.5652275148156258  0.5647677600324834  0.5247544398640865
  0.6880725298472739  0.9354111145893741  0.4750252503813128
  0.8121641815432125  0.5657789695669639  0.5253141652005394
  0.9415876149446590  0.9340980101010606  0.4748068147079803
  0.1876118765558843  0.3131915544033387  0.4917819780100684
  0.0628408745456040  0.4471817321348621  0.5495213667841854
  0.0616131388815098  0.1857290297744021  0.5063701727747018
  0.1871674699671824  0.1802877197918461  0.3729926985562505
  0.0626216000525397  0.3185620785160848  0.6256834858349760
  0.0625860817042249  0.2122745906761402  0.6700684053159152
  0.0635124549679644  0.4043574786674091  0.3969501654049523
  0.1873331975844523  0.2867534683083783  0.3280143930768897
  0.1857429114390836  0.0950737054006980  0.6005144221318400
  0.1857120390746715  0.0537074301216097  0.4474603280705282
  0.4375541583035279  0.3131292628395554  0.4916840822648235
  0.3129204539788594  0.4476792121594489  0.5506280107390058
  0.3125899693916380  0.1848821949045666  0.5064216778554964
  0.4376913929802747  0.1801873861356208  0.3732435682741960
  0.3131437167852313  0.3175373047788436  0.6260267317396159
  0.3126270431959957  0.2107512190351418  0.6695398493142080
  0.3129445685091701  0.4037763001296929  0.3964561965324170
  0.4375693653237416  0.2857610641894710  0.3278451000742423
  0.4396128480219480  0.0944600181648842  0.5995883496060073
  0.4393574481519736  0.0510644561749791  0.4500173878597958
  0.6878441253760836  0.3135902780065619  0.4918751033647662
  0.5625774646092430  0.4473873904969669  0.5495119680165310
  0.5640428642093251  0.1856245061607143  0.5060257404065531
  0.6876678349523784  0.1810440065673384  0.3716147930616763
  0.5629549670707071  0.3179705218310135  0.6259933596321462
  0.5627818023444200  0.2115605285592991  0.6701072750782755
  0.5622143204111851  0.4042694004164715  0.3968169687954334
  0.6876284719594192  0.2874400838202522  0.3276873107347132
  0.6904034843007459  0.0949093317488826  0.6028309009542649
  0.6888572923864705  0.0514402149048571  0.4449217377140242
  0.9373091194438250  0.3135801892869108  0.4917725644220407
  0.8127360299090113  0.4479221622390202  0.5492570241870741
  0.8128679519920466  0.1848819223697958  0.5063401921576509
  0.9373736950602901  0.1807319209621600  0.3722983004590988
  0.8124250707655999  0.3191440801690944  0.6257400131866221
  0.8127509832990182  0.2133010437025942  0.6709117054103100
  0.8128779921400817  0.4041086851104703  0.3966959167590794
  0.9373721974211126  0.2867739976083648  0.3276610254490323
  0.9357219944260995  0.0952732566464644  0.6024970580943533
  0.9369848500618124  0.0510718816857141  0.4455538777779902
  0.1868518138969928  0.8147116042217321  0.4935689848041911
  0.0623744523771540  0.9488132960029627  0.5550132283592623
  0.0623060224841005  0.6855086348365197  0.5064149629098100
  0.1872021724783973  0.6817131183437547  0.3729084372828215
  0.0623123322493696  0.8171000602535334  0.6273891972547778
  0.0621662691001649  0.7105676969279980  0.6709548684703582
  0.0640911075475257  0.9053948537390557  0.3978379996345679
  0.1869979803005931  0.7879474006859650  0.3285737919606693
  0.1851541934637117  0.5941052551506691  0.5996355999262587
  0.1878077977454195  0.5512585667461709  0.4478859904778250
  0.4357271623722579  0.8138798882649981  0.4940234794960779
  0.3103256729216865  0.9486309877990571  0.5560994622038442
  0.3120778435169764  0.6857058478841904  0.5066710418184522
  0.4368121773771599  0.6827910157450845  0.3729133086280562
  0.3122664791730531  0.8150759477281178  0.6288715199976966
  0.3120991697862518  0.7079460104989773  0.6708075487200241
  0.3092746899396516  0.9054308226667667  0.3976697926043437
  0.4365890905830037  0.7894806555433074  0.3294371943334830
  0.4399006397261742  0.5940550174309361  0.5995370988888219
  0.4373847607066549  0.5513715917928854  0.4478359196765558
  0.6871167388829222  0.8148386062186996  0.4933393533752469
  0.5600077996280469  0.9486201028506183  0.5510333834828038
  0.5625130561793529  0.6858195542023635  0.5066547198492964
  0.6866153347186661  0.6841058724012548  0.3724655944204990
  0.5624084646248576  0.8173506624905922  0.6265981792651112
  0.5629899429236027  0.7112148796579523  0.6708279206924254
  0.5594084804390252  0.9062044529502717  0.4009885081777043
  0.6866135932087641  0.7911141786430992  0.3300196062527114
  0.6879867156116064  0.5944640769528136  0.6007515576365292
  0.6885998569954039  0.5515490764357127  0.4461291236305497
  0.9381716501948725  0.8140890918752560  0.4932776508855958
  0.8137015347830424  0.9461063107619334  0.5530618663709039
  0.8124707181423438  0.6862938366804733  0.5062932773998268
  0.9370184912555286  0.6830162456045434  0.3723502093368074
  0.8127836579602606  0.8180953616710875  0.6265375180555363
  0.8125402308564652  0.7114292152553522  0.6709190367136807
  0.8134501587005677  0.9059065161626784  0.3999083693309441
  0.9370434598297811  0.7898639563393852  0.3293865330418511
  0.9368620246369570  0.5942275824800809  0.6005870152024732
  0.9364566877023017  0.5514909465909411  0.4464194179027640
  0.3127352187241184  0.5487874896479165  0.6883640437046388
  0.3121048924015422  0.5021882041030009  0.7318647379424265
  0.3111533254571786  0.4601747230939914  0.7099879378082614
 
  0.00000000E+00  0.00000000E+00  0.00000000E+00
  0.00000000E+00  0.00000000E+00  0.00000000E+00
  0.00000000E+00  0.00000000E+00  0.00000000E+00
  0.00000000E+00  0.00000000E+00  0.00000000E+00
  0.00000000E+00  0.00000000E+00  0.00000000E+00
  0.00000000E+00  0.00000000E+00  0.00000000E+00
  0.00000000E+00  0.00000000E+00  0.00000000E+00
  0.00000000E+00  0.00000000E+00  0.00000000E+00
  0.00000000E+00  0.00000000E+00  0.00000000E+00
  0.00000000E+00  0.00000000E+00  0.00000000E+00
  0.00000000E+00  0.00000000E+00  0.00000000E+00
  0.00000000E+00  0.00000000E+00  0.00000000E+00
  0.00000000E+00  0.00000000E+00  0.00000000E+00
  0.00000000E+00  0.00000000E+00  0.00000000E+00
  0.00000000E+00  0.00000000E+00  0.00000000E+00
  0.00000000E+00  0.00000000E+00  0.00000000E+00
  0.00000000E+00  0.00000000E+00  0.00000000E+00
  0.00000000E+00  0.00000000E+00  0.00000000E+00
  0.00000000E+00  0.00000000E+00  0.00000000E+00
  0.00000000E+00  0.00000000E+00  0.00000000E+00
  0.00000000E+00  0.00000000E+00  0.00000000E+00
  0.00000000E+00  0.00000000E+00  0.00000000E+00
  0.00000000E+00  0.00000000E+00  0.00000000E+00
  0.00000000E+00  0.00000000E+00  0.00000000E+00
  0.00000000E+00  0.00000000E+00  0.00000000E+00
  0.00000000E+00  0.00000000E+00  0.00000000E+00
  0.00000000E+00  0.00000000E+00  0.00000000E+00
  0.00000000E+00  0.00000000E+00  0.00000000E+00
  0.00000000E+00  0.00000000E+00  0.00000000E+00
  0.00000000E+00  0.00000000E+00  0.00000000E+00
  0.00000000E+00  0.00000000E+00  0.00000000E+00
  0.00000000E+00  0.00000000E+00  0.00000000E+00
  0.00000000E+00  0.00000000E+00  0.00000000E+00
  0.00000000E+00  0.00000000E+00  0.00000000E+00
  0.00000000E+00  0.00000000E+00  0.00000000E+00
  0.00000000E+00  0.00000000E+00  0.00000000E+00
  0.00000000E+00  0.00000000E+00  0.00000000E+00
  0.00000000E+00  0.00000000E+00  0.00000000E+00
  0.00000000E+00  0.00000000E+00  0.00000000E+00
  0.00000000E+00  0.00000000E+00  0.00000000E+00
  0.00000000E+00  0.00000000E+00  0.00000000E+00
  0.00000000E+00  0.00000000E+00  0.00000000E+00
  0.00000000E+00  0.00000000E+00  0.00000000E+00
  0.00000000E+00  0.00000000E+00  0.00000000E+00
  0.00000000E+00  0.00000000E+00  0.00000000E+00
  0.00000000E+00  0.00000000E+00  0.00000000E+00
  0.00000000E+00  0.00000000E+00  0.00000000E+00
  0.00000000E+00  0.00000000E+00  0.00000000E+00
  0.00000000E+00  0.00000000E+00  0.00000000E+00
  0.00000000E+00  0.00000000E+00  0.00000000E+00
  0.00000000E+00  0.00000000E+00  0.00000000E+00
  0.00000000E+00  0.00000000E+00  0.00000000E+00
  0.00000000E+00  0.00000000E+00  0.00000000E+00
  0.00000000E+00  0.00000000E+00  0.00000000E+00
  0.00000000E+00  0.00000000E+00  0.00000000E+00
  0.00000000E+00  0.00000000E+00  0.00000000E+00
  0.00000000E+00  0.00000000E+00  0.00000000E+00
  0.00000000E+00  0.00000000E+00  0.00000000E+00
  0.00000000E+00  0.00000000E+00  0.00000000E+00
  0.00000000E+00  0.00000000E+00  0.00000000E+00
  0.00000000E+00  0.00000000E+00  0.00000000E+00
  0.00000000E+00  0.00000000E+00  0.00000000E+00
  0.00000000E+00  0.00000000E+00  0.00000000E+00
  0.00000000E+00  0.00000000E+00  0.00000000E+00
  0.00000000E+00  0.00000000E+00  0.00000000E+00
  0.00000000E+00  0.00000000E+00  0.00000000E+00
  0.00000000E+00  0.00000000E+00  0.00000000E+00
  0.00000000E+00  0.00000000E+00  0.00000000E+00
  0.00000000E+00  0.00000000E+00  0.00000000E+00
  0.00000000E+00  0.00000000E+00  0.00000000E+00
  0.00000000E+00  0.00000000E+00  0.00000000E+00
  0.00000000E+00  0.00000000E+00  0.00000000E+00
  0.00000000E+00  0.00000000E+00  0.00000000E+00
  0.00000000E+00  0.00000000E+00  0.00000000E+00
  0.00000000E+00  0.00000000E+00  0.00000000E+00
  0.00000000E+00  0.00000000E+00  0.00000000E+00
  0.00000000E+00  0.00000000E+00  0.00000000E+00
  0.00000000E+00  0.00000000E+00  0.00000000E+00
  0.00000000E+00  0.00000000E+00  0.00000000E+00
  0.00000000E+00  0.00000000E+00  0.00000000E+00
  0.00000000E+00  0.00000000E+00  0.00000000E+00
  0.00000000E+00  0.00000000E+00  0.00000000E+00
  0.00000000E+00  0.00000000E+00  0.00000000E+00
  0.00000000E+00  0.00000000E+00  0.00000000E+00
  0.00000000E+00  0.00000000E+00  0.00000000E+00
  0.00000000E+00  0.00000000E+00  0.00000000E+00
  0.00000000E+00  0.00000000E+00  0.00000000E+00
  0.00000000E+00  0.00000000E+00  0.00000000E+00
  0.00000000E+00  0.00000000E+00  0.00000000E+00
  0.00000000E+00  0.00000000E+00  0.00000000E+00
  0.00000000E+00  0.00000000E+00  0.00000000E+00
  0.00000000E+00  0.00000000E+00  0.00000000E+00
  0.00000000E+00  0.00000000E+00  0.00000000E+00
  0.00000000E+00  0.00000000E+00  0.00000000E+00
  0.00000000E+00  0.00000000E+00  0.00000000E+00
  0.00000000E+00  0.00000000E+00  0.00000000E+00
  0.00000000E+00  0.00000000E+00  0.00000000E+00
  0.00000000E+00  0.00000000E+00  0.00000000E+00
  0.00000000E+00  0.00000000E+00  0.00000000E+00
  0.00000000E+00  0.00000000E+00  0.00000000E+00
  0.00000000E+00  0.00000000E+00  0.00000000E+00
  0.00000000E+00  0.00000000E+00  0.00000000E+00
  0.00000000E+00  0.00000000E+00  0.00000000E+00
  0.00000000E+00  0.00000000E+00  0.00000000E+00
  0.00000000E+00  0.00000000E+00  0.00000000E+00
  0.00000000E+00  0.00000000E+00  0.00000000E+00
  0.00000000E+00  0.00000000E+00  0.00000000E+00
  0.00000000E+00  0.00000000E+00  0.00000000E+00
  0.00000000E+00  0.00000000E+00  0.00000000E+00
  0.00000000E+00  0.00000000E+00  0.00000000E+00
  0.00000000E+00  0.00000000E+00  0.00000000E+00
  0.00000000E+00  0.00000000E+00  0.00000000E+00
  0.00000000E+00  0.00000000E+00  0.00000000E+00
  0.00000000E+00  0.00000000E+00  0.00000000E+00
  0.00000000E+00  0.00000000E+00  0.00000000E+00
