 Fe1 C2 O6                              
   1.00000000000000     
     4.4768125908930170    0.0000000000000000    0.0000000000000000
     2.2384062954465085    3.8770665823247641    0.0000000000000000
     0.0000000000000000    0.0000000000000000   17.3265638038920002
   Fe   C    O 
     1     2     6
Direct
  0.0000000522165700  0.9999999616951227  0.5000001911870025
  0.6666227129014330  0.6666689860438791  0.4364864778071326
  0.3333770883878655  0.3333307252853244  0.5635135704998061
  0.3081602237705033  0.6334300896613436  0.5645227607172075
  0.3665808755156887  0.9415711046686563  0.4354810142392184
  0.9416067640215880  0.6918420643078320  0.4354779616577794
  0.0583920767313794  0.3081578551495773  0.5645219403605912
  0.6334206064056469  0.0584273826970874  0.5645188417372625
  0.6918396000493160  0.3665718304911703  0.4354772417939851
 
  0.00000000E+00  0.00000000E+00  0.00000000E+00
  0.00000000E+00  0.00000000E+00  0.00000000E+00
  0.00000000E+00  0.00000000E+00  0.00000000E+00
  0.00000000E+00  0.00000000E+00  0.00000000E+00
  0.00000000E+00  0.00000000E+00  0.00000000E+00
  0.00000000E+00  0.00000000E+00  0.00000000E+00
  0.00000000E+00  0.00000000E+00  0.00000000E+00
  0.00000000E+00  0.00000000E+00  0.00000000E+00
  0.00000000E+00  0.00000000E+00  0.00000000E+00
