CONTCAR\(4)                             
   1.00000000000000     
    11.0504999160999997    0.0000000000000000    0.0000000000000000
     0.0000000000000000   15.0270004272000008    0.0000000000000000
     0.0000000000000000    0.0000000000000000   19.5720996856999996
   Ta   Ni   Te   O 
     6     6    30     1
Direct
  0.9965773712083532  0.7472287322050732  0.4954496281444918
  0.0019500533549319  0.2488903614828004  0.5045494336706682
  0.3444032383476880  0.7503405394635365  0.5063538970204746
  0.3340668360959498  0.2458755924794715  0.5051977373288494
  0.6751109360246161  0.7462100469656079  0.4944813345617689
  0.6679332378229503  0.2495545042193328  0.5043214559334643
  0.1677014786066877  0.4966742971647307  0.4980750973013457
  0.1571122353988414  0.9946398109430135  0.5069032605409163
  0.5015807757891437  0.4988420393781610  0.5015215223591269
  0.5081344089151258  0.9995033742864123  0.5016335139659773
  0.8365516850108179  0.4980611881495207  0.5001697649824948
  0.8320161824663757  0.0003295032470305  0.4993232989378029
  0.0022938334638738  0.4217395423255681  0.5723547194846361
  0.1695880363051003  0.3515216507886194  0.4267364127320619
  0.0010463976494464  0.5743211641353696  0.4274309701766796
  0.9984765633756822  0.9208234456245776  0.4272782756460529
  0.9943296025021553  0.0783807220342965  0.5745880179322072
  0.1757502713321273  0.7523470327376742  0.3919194906869023
  0.1164488610397214  0.8630541079416929  0.5904966658874287
  0.1677363440908763  0.2468036487157121  0.6168454354701254
  0.1669417298902474  0.1365634072203150  0.4321381180020651
  0.1657376801914339  0.6371030617013034  0.5699893501938931
  0.3337504794158477  0.4204090126239066  0.5716415471274701
  0.4996874035716772  0.3543423635894456  0.4292556740738149
  0.3366940536251803  0.5775158276725634  0.4304528086519497
  0.3313386480508456  0.9232543414191028  0.4385430365796523
  0.3342513173663804  0.0700635692828016  0.5727050081536404
  0.5024624003227913  0.7496950174672179  0.3871633246588999
  0.5255209442587514  0.8562482303360639  0.5730167797020584
  0.5008544011246840  0.2489659982250743  0.6162470900149799
  0.5016349877196191  0.1436323574353011  0.4277842854043996
  0.5098625468052447  0.6425809898516874  0.5763618511762800
  0.6691990266409604  0.4227088064345779  0.5714399416996443
  0.8353115187046356  0.3543842769629535  0.4277199072825439
  0.6687342316212224  0.5725451160659674  0.4279731946337790
  0.6686677199926905  0.9202065731504518  0.4272508609167431
  0.6692303772545998  0.0783195404688612  0.5737953727028824
  0.8371112801793146  0.7465747373007687  0.3821798543385597
  0.8333314540790795  0.8578996158261987  0.5722058015151461
  0.8343872933421537  0.2533547541241390  0.6157876086844141
  0.8343223220958365  0.1440491151121819  0.4275434978494488
  0.8374657530853042  0.6413223230511065  0.5736465287607757
  0.2864036598610298  0.8138996373897882  0.5875485161134648
 
  0.00000000E+00  0.00000000E+00  0.00000000E+00
  0.00000000E+00  0.00000000E+00  0.00000000E+00
  0.00000000E+00  0.00000000E+00  0.00000000E+00
  0.00000000E+00  0.00000000E+00  0.00000000E+00
  0.00000000E+00  0.00000000E+00  0.00000000E+00
  0.00000000E+00  0.00000000E+00  0.00000000E+00
  0.00000000E+00  0.00000000E+00  0.00000000E+00
  0.00000000E+00  0.00000000E+00  0.00000000E+00
  0.00000000E+00  0.00000000E+00  0.00000000E+00
  0.00000000E+00  0.00000000E+00  0.00000000E+00
  0.00000000E+00  0.00000000E+00  0.00000000E+00
  0.00000000E+00  0.00000000E+00  0.00000000E+00
  0.00000000E+00  0.00000000E+00  0.00000000E+00
  0.00000000E+00  0.00000000E+00  0.00000000E+00
  0.00000000E+00  0.00000000E+00  0.00000000E+00
  0.00000000E+00  0.00000000E+00  0.00000000E+00
  0.00000000E+00  0.00000000E+00  0.00000000E+00
  0.00000000E+00  0.00000000E+00  0.00000000E+00
  0.00000000E+00  0.00000000E+00  0.00000000E+00
  0.00000000E+00  0.00000000E+00  0.00000000E+00
  0.00000000E+00  0.00000000E+00  0.00000000E+00
  0.00000000E+00  0.00000000E+00  0.00000000E+00
  0.00000000E+00  0.00000000E+00  0.00000000E+00
  0.00000000E+00  0.00000000E+00  0.00000000E+00
  0.00000000E+00  0.00000000E+00  0.00000000E+00
  0.00000000E+00  0.00000000E+00  0.00000000E+00
  0.00000000E+00  0.00000000E+00  0.00000000E+00
  0.00000000E+00  0.00000000E+00  0.00000000E+00
  0.00000000E+00  0.00000000E+00  0.00000000E+00
  0.00000000E+00  0.00000000E+00  0.00000000E+00
  0.00000000E+00  0.00000000E+00  0.00000000E+00
  0.00000000E+00  0.00000000E+00  0.00000000E+00
  0.00000000E+00  0.00000000E+00  0.00000000E+00
  0.00000000E+00  0.00000000E+00  0.00000000E+00
  0.00000000E+00  0.00000000E+00  0.00000000E+00
  0.00000000E+00  0.00000000E+00  0.00000000E+00
  0.00000000E+00  0.00000000E+00  0.00000000E+00
  0.00000000E+00  0.00000000E+00  0.00000000E+00
  0.00000000E+00  0.00000000E+00  0.00000000E+00
  0.00000000E+00  0.00000000E+00  0.00000000E+00
  0.00000000E+00  0.00000000E+00  0.00000000E+00
  0.00000000E+00  0.00000000E+00  0.00000000E+00
  0.00000000E+00  0.00000000E+00  0.00000000E+00
