G   53   53    1    0.005     # Parameters to Generate KPOINTS (Don't Edit This Line)
     378
Reciprocal lattice
    0.000000000000    0.000000000000    0.000000000000       1
    0.018867924528    0.000000000000    0.000000000000       4
    0.037735849057    0.000000000000    0.000000000000       4
    0.056603773585    0.000000000000    0.000000000000       4
    0.075471698113    0.000000000000    0.000000000000       4
    0.094339622642    0.000000000000    0.000000000000       4
    0.113207547170    0.000000000000    0.000000000000       4
    0.132075471698    0.000000000000    0.000000000000       4
    0.150943396226    0.000000000000    0.000000000000       4
    0.169811320755    0.000000000000    0.000000000000       4
    0.188679245283    0.000000000000    0.000000000000       4
    0.207547169811    0.000000000000    0.000000000000       4
    0.226415094340    0.000000000000    0.000000000000       4
    0.245283018868    0.000000000000    0.000000000000       4
    0.264150943396    0.000000000000    0.000000000000       4
    0.283018867925    0.000000000000    0.000000000000       4
    0.301886792453    0.000000000000    0.000000000000       4
    0.320754716981    0.000000000000    0.000000000000       4
    0.339622641509    0.000000000000    0.000000000000       4
    0.358490566038    0.000000000000    0.000000000000       4
    0.377358490566    0.000000000000    0.000000000000       4
    0.396226415094    0.000000000000    0.000000000000       4
    0.415094339623    0.000000000000    0.000000000000       4
    0.433962264151    0.000000000000    0.000000000000       4
    0.452830188679    0.000000000000    0.000000000000       4
    0.471698113208    0.000000000000    0.000000000000       4
    0.490566037736    0.000000000000    0.000000000000       4
    0.018867924528    0.018867924528    0.000000000000       4
    0.037735849057    0.018867924528    0.000000000000       8
    0.056603773585    0.018867924528    0.000000000000       8
    0.075471698113    0.018867924528    0.000000000000       8
    0.094339622642    0.018867924528    0.000000000000       8
    0.113207547170    0.018867924528    0.000000000000       8
    0.132075471698    0.018867924528    0.000000000000       8
    0.150943396226    0.018867924528    0.000000000000       8
    0.169811320755    0.018867924528    0.000000000000       8
    0.188679245283    0.018867924528    0.000000000000       8
    0.207547169811    0.018867924528    0.000000000000       8
    0.226415094340    0.018867924528    0.000000000000       8
    0.245283018868    0.018867924528    0.000000000000       8
    0.264150943396    0.018867924528    0.000000000000       8
    0.283018867925    0.018867924528    0.000000000000       8
    0.301886792453    0.018867924528    0.000000000000       8
    0.320754716981    0.018867924528    0.000000000000       8
    0.339622641509    0.018867924528    0.000000000000       8
    0.358490566038    0.018867924528    0.000000000000       8
    0.377358490566    0.018867924528    0.000000000000       8
    0.396226415094    0.018867924528    0.000000000000       8
    0.415094339623    0.018867924528    0.000000000000       8
    0.433962264151    0.018867924528    0.000000000000       8
    0.452830188679    0.018867924528    0.000000000000       8
    0.471698113208    0.018867924528    0.000000000000       8
    0.490566037736    0.018867924528    0.000000000000       8
    0.037735849057    0.037735849057    0.000000000000       4
    0.056603773585    0.037735849057    0.000000000000       8
    0.075471698113    0.037735849057    0.000000000000       8
    0.094339622642    0.037735849057    0.000000000000       8
    0.113207547170    0.037735849057    0.000000000000       8
    0.132075471698    0.037735849057    0.000000000000       8
    0.150943396226    0.037735849057    0.000000000000       8
    0.169811320755    0.037735849057    0.000000000000       8
    0.188679245283    0.037735849057    0.000000000000       8
    0.207547169811    0.037735849057    0.000000000000       8
    0.226415094340    0.037735849057    0.000000000000       8
    0.245283018868    0.037735849057    0.000000000000       8
    0.264150943396    0.037735849057    0.000000000000       8
    0.283018867925    0.037735849057    0.000000000000       8
    0.301886792453    0.037735849057    0.000000000000       8
    0.320754716981    0.037735849057    0.000000000000       8
    0.339622641509    0.037735849057    0.000000000000       8
    0.358490566038    0.037735849057    0.000000000000       8
    0.377358490566    0.037735849057    0.000000000000       8
    0.396226415094    0.037735849057    0.000000000000       8
    0.415094339623    0.037735849057    0.000000000000       8
    0.433962264151    0.037735849057    0.000000000000       8
    0.452830188679    0.037735849057    0.000000000000       8
    0.471698113208    0.037735849057    0.000000000000       8
    0.490566037736    0.037735849057    0.000000000000       8
    0.056603773585    0.056603773585    0.000000000000       4
    0.075471698113    0.056603773585    0.000000000000       8
    0.094339622642    0.056603773585    0.000000000000       8
    0.113207547170    0.056603773585    0.000000000000       8
    0.132075471698    0.056603773585    0.000000000000       8
    0.150943396226    0.056603773585    0.000000000000       8
    0.169811320755    0.056603773585    0.000000000000       8
    0.188679245283    0.056603773585    0.000000000000       8
    0.207547169811    0.056603773585    0.000000000000       8
    0.226415094340    0.056603773585    0.000000000000       8
    0.245283018868    0.056603773585    0.000000000000       8
    0.264150943396    0.056603773585    0.000000000000       8
    0.283018867925    0.056603773585    0.000000000000       8
    0.301886792453    0.056603773585    0.000000000000       8
    0.320754716981    0.056603773585    0.000000000000       8
    0.339622641509    0.056603773585    0.000000000000       8
    0.358490566038    0.056603773585    0.000000000000       8
    0.377358490566    0.056603773585    0.000000000000       8
    0.396226415094    0.056603773585    0.000000000000       8
    0.415094339623    0.056603773585    0.000000000000       8
    0.433962264151    0.056603773585    0.000000000000       8
    0.452830188679    0.056603773585    0.000000000000       8
    0.471698113208    0.056603773585    0.000000000000       8
    0.490566037736    0.056603773585    0.000000000000       8
    0.075471698113    0.075471698113    0.000000000000       4
    0.094339622642    0.075471698113    0.000000000000       8
    0.113207547170    0.075471698113    0.000000000000       8
    0.132075471698    0.075471698113    0.000000000000       8
    0.150943396226    0.075471698113    0.000000000000       8
    0.169811320755    0.075471698113    0.000000000000       8
    0.188679245283    0.075471698113    0.000000000000       8
    0.207547169811    0.075471698113    0.000000000000       8
    0.226415094340    0.075471698113    0.000000000000       8
    0.245283018868    0.075471698113    0.000000000000       8
    0.264150943396    0.075471698113    0.000000000000       8
    0.283018867925    0.075471698113    0.000000000000       8
    0.301886792453    0.075471698113    0.000000000000       8
    0.320754716981    0.075471698113    0.000000000000       8
    0.339622641509    0.075471698113    0.000000000000       8
    0.358490566038    0.075471698113    0.000000000000       8
    0.377358490566    0.075471698113    0.000000000000       8
    0.396226415094    0.075471698113    0.000000000000       8
    0.415094339623    0.075471698113    0.000000000000       8
    0.433962264151    0.075471698113    0.000000000000       8
    0.452830188679    0.075471698113    0.000000000000       8
    0.471698113208    0.075471698113    0.000000000000       8
    0.490566037736    0.075471698113    0.000000000000       8
    0.094339622642    0.094339622642    0.000000000000       4
    0.113207547170    0.094339622642    0.000000000000       8
    0.132075471698    0.094339622642    0.000000000000       8
    0.150943396226    0.094339622642    0.000000000000       8
    0.169811320755    0.094339622642    0.000000000000       8
    0.188679245283    0.094339622642    0.000000000000       8
    0.207547169811    0.094339622642    0.000000000000       8
    0.226415094340    0.094339622642    0.000000000000       8
    0.245283018868    0.094339622642    0.000000000000       8
    0.264150943396    0.094339622642    0.000000000000       8
    0.283018867925    0.094339622642    0.000000000000       8
    0.301886792453    0.094339622642    0.000000000000       8
    0.320754716981    0.094339622642    0.000000000000       8
    0.339622641509    0.094339622642    0.000000000000       8
    0.358490566038    0.094339622642    0.000000000000       8
    0.377358490566    0.094339622642    0.000000000000       8
    0.396226415094    0.094339622642    0.000000000000       8
    0.415094339623    0.094339622642    0.000000000000       8
    0.433962264151    0.094339622642    0.000000000000       8
    0.452830188679    0.094339622642    0.000000000000       8
    0.471698113208    0.094339622642    0.000000000000       8
    0.490566037736    0.094339622642    0.000000000000       8
    0.113207547170    0.113207547170    0.000000000000       4
    0.132075471698    0.113207547170    0.000000000000       8
    0.150943396226    0.113207547170    0.000000000000       8
    0.169811320755    0.113207547170    0.000000000000       8
    0.188679245283    0.113207547170    0.000000000000       8
    0.207547169811    0.113207547170    0.000000000000       8
    0.226415094340    0.113207547170    0.000000000000       8
    0.245283018868    0.113207547170    0.000000000000       8
    0.264150943396    0.113207547170    0.000000000000       8
    0.283018867925    0.113207547170    0.000000000000       8
    0.301886792453    0.113207547170    0.000000000000       8
    0.320754716981    0.113207547170    0.000000000000       8
    0.339622641509    0.113207547170    0.000000000000       8
    0.358490566038    0.113207547170    0.000000000000       8
    0.377358490566    0.113207547170    0.000000000000       8
    0.396226415094    0.113207547170    0.000000000000       8
    0.415094339623    0.113207547170    0.000000000000       8
    0.433962264151    0.113207547170    0.000000000000       8
    0.452830188679    0.113207547170    0.000000000000       8
    0.471698113208    0.113207547170    0.000000000000       8
    0.490566037736    0.113207547170    0.000000000000       8
    0.132075471698    0.132075471698    0.000000000000       4
    0.150943396226    0.132075471698    0.000000000000       8
    0.169811320755    0.132075471698    0.000000000000       8
    0.188679245283    0.132075471698    0.000000000000       8
    0.207547169811    0.132075471698    0.000000000000       8
    0.226415094340    0.132075471698    0.000000000000       8
    0.245283018868    0.132075471698    0.000000000000       8
    0.264150943396    0.132075471698    0.000000000000       8
    0.283018867925    0.132075471698    0.000000000000       8
    0.301886792453    0.132075471698    0.000000000000       8
    0.320754716981    0.132075471698    0.000000000000       8
    0.339622641509    0.132075471698    0.000000000000       8
    0.358490566038    0.132075471698    0.000000000000       8
    0.377358490566    0.132075471698    0.000000000000       8
    0.396226415094    0.132075471698    0.000000000000       8
    0.415094339623    0.132075471698    0.000000000000       8
    0.433962264151    0.132075471698    0.000000000000       8
    0.452830188679    0.132075471698    0.000000000000       8
    0.471698113208    0.132075471698    0.000000000000       8
    0.490566037736    0.132075471698    0.000000000000       8
    0.150943396226    0.150943396226    0.000000000000       4
    0.169811320755    0.150943396226    0.000000000000       8
    0.188679245283    0.150943396226    0.000000000000       8
    0.207547169811    0.150943396226    0.000000000000       8
    0.226415094340    0.150943396226    0.000000000000       8
    0.245283018868    0.150943396226    0.000000000000       8
    0.264150943396    0.150943396226    0.000000000000       8
    0.283018867925    0.150943396226    0.000000000000       8
    0.301886792453    0.150943396226    0.000000000000       8
    0.320754716981    0.150943396226    0.000000000000       8
    0.339622641509    0.150943396226    0.000000000000       8
    0.358490566038    0.150943396226    0.000000000000       8
    0.377358490566    0.150943396226    0.000000000000       8
    0.396226415094    0.150943396226    0.000000000000       8
    0.415094339623    0.150943396226    0.000000000000       8
    0.433962264151    0.150943396226    0.000000000000       8
    0.452830188679    0.150943396226    0.000000000000       8
    0.471698113208    0.150943396226    0.000000000000       8
    0.490566037736    0.150943396226    0.000000000000       8
    0.169811320755    0.169811320755    0.000000000000       4
    0.188679245283    0.169811320755    0.000000000000       8
    0.207547169811    0.169811320755    0.000000000000       8
    0.226415094340    0.169811320755    0.000000000000       8
    0.245283018868    0.169811320755    0.000000000000       8
    0.264150943396    0.169811320755    0.000000000000       8
    0.283018867925    0.169811320755    0.000000000000       8
    0.301886792453    0.169811320755    0.000000000000       8
    0.320754716981    0.169811320755    0.000000000000       8
    0.339622641509    0.169811320755    0.000000000000       8
    0.358490566038    0.169811320755    0.000000000000       8
    0.377358490566    0.169811320755    0.000000000000       8
    0.396226415094    0.169811320755    0.000000000000       8
    0.415094339623    0.169811320755    0.000000000000       8
    0.433962264151    0.169811320755    0.000000000000       8
    0.452830188679    0.169811320755    0.000000000000       8
    0.471698113208    0.169811320755    0.000000000000       8
    0.490566037736    0.169811320755    0.000000000000       8
    0.188679245283    0.188679245283    0.000000000000       4
    0.207547169811    0.188679245283    0.000000000000       8
    0.226415094340    0.188679245283    0.000000000000       8
    0.245283018868    0.188679245283    0.000000000000       8
    0.264150943396    0.188679245283    0.000000000000       8
    0.283018867925    0.188679245283    0.000000000000       8
    0.301886792453    0.188679245283    0.000000000000       8
    0.320754716981    0.188679245283    0.000000000000       8
    0.339622641509    0.188679245283    0.000000000000       8
    0.358490566038    0.188679245283    0.000000000000       8
    0.377358490566    0.188679245283    0.000000000000       8
    0.396226415094    0.188679245283    0.000000000000       8
    0.415094339623    0.188679245283    0.000000000000       8
    0.433962264151    0.188679245283    0.000000000000       8
    0.452830188679    0.188679245283    0.000000000000       8
    0.471698113208    0.188679245283    0.000000000000       8
    0.490566037736    0.188679245283    0.000000000000       8
    0.207547169811    0.207547169811    0.000000000000       4
    0.226415094340    0.207547169811    0.000000000000       8
    0.245283018868    0.207547169811    0.000000000000       8
    0.264150943396    0.207547169811    0.000000000000       8
    0.283018867925    0.207547169811    0.000000000000       8
    0.301886792453    0.207547169811    0.000000000000       8
    0.320754716981    0.207547169811    0.000000000000       8
    0.339622641509    0.207547169811    0.000000000000       8
    0.358490566038    0.207547169811    0.000000000000       8
    0.377358490566    0.207547169811    0.000000000000       8
    0.396226415094    0.207547169811    0.000000000000       8
    0.415094339623    0.207547169811    0.000000000000       8
    0.433962264151    0.207547169811    0.000000000000       8
    0.452830188679    0.207547169811    0.000000000000       8
    0.471698113208    0.207547169811    0.000000000000       8
    0.490566037736    0.207547169811    0.000000000000       8
    0.226415094340    0.226415094340    0.000000000000       4
    0.245283018868    0.226415094340    0.000000000000       8
    0.264150943396    0.226415094340    0.000000000000       8
    0.283018867925    0.226415094340    0.000000000000       8
    0.301886792453    0.226415094340    0.000000000000       8
    0.320754716981    0.226415094340    0.000000000000       8
    0.339622641509    0.226415094340    0.000000000000       8
    0.358490566038    0.226415094340    0.000000000000       8
    0.377358490566    0.226415094340    0.000000000000       8
    0.396226415094    0.226415094340    0.000000000000       8
    0.415094339623    0.226415094340    0.000000000000       8
    0.433962264151    0.226415094340    0.000000000000       8
    0.452830188679    0.226415094340    0.000000000000       8
    0.471698113208    0.226415094340    0.000000000000       8
    0.490566037736    0.226415094340    0.000000000000       8
    0.245283018868    0.245283018868    0.000000000000       4
    0.264150943396    0.245283018868    0.000000000000       8
    0.283018867925    0.245283018868    0.000000000000       8
    0.301886792453    0.245283018868    0.000000000000       8
    0.320754716981    0.245283018868    0.000000000000       8
    0.339622641509    0.245283018868    0.000000000000       8
    0.358490566038    0.245283018868    0.000000000000       8
    0.377358490566    0.245283018868    0.000000000000       8
    0.396226415094    0.245283018868    0.000000000000       8
    0.415094339623    0.245283018868    0.000000000000       8
    0.433962264151    0.245283018868    0.000000000000       8
    0.452830188679    0.245283018868    0.000000000000       8
    0.471698113208    0.245283018868    0.000000000000       8
    0.490566037736    0.245283018868    0.000000000000       8
    0.264150943396    0.264150943396    0.000000000000       4
    0.283018867925    0.264150943396    0.000000000000       8
    0.301886792453    0.264150943396    0.000000000000       8
    0.320754716981    0.264150943396    0.000000000000       8
    0.339622641509    0.264150943396    0.000000000000       8
    0.358490566038    0.264150943396    0.000000000000       8
    0.377358490566    0.264150943396    0.000000000000       8
    0.396226415094    0.264150943396    0.000000000000       8
    0.415094339623    0.264150943396    0.000000000000       8
    0.433962264151    0.264150943396    0.000000000000       8
    0.452830188679    0.264150943396    0.000000000000       8
    0.471698113208    0.264150943396    0.000000000000       8
    0.490566037736    0.264150943396    0.000000000000       8
    0.283018867925    0.283018867925    0.000000000000       4
    0.301886792453    0.283018867925    0.000000000000       8
    0.320754716981    0.283018867925    0.000000000000       8
    0.339622641509    0.283018867925    0.000000000000       8
    0.358490566038    0.283018867925    0.000000000000       8
    0.377358490566    0.283018867925    0.000000000000       8
    0.396226415094    0.283018867925    0.000000000000       8
    0.415094339623    0.283018867925    0.000000000000       8
    0.433962264151    0.283018867925    0.000000000000       8
    0.452830188679    0.283018867925    0.000000000000       8
    0.471698113208    0.283018867925    0.000000000000       8
    0.490566037736    0.283018867925    0.000000000000       8
    0.301886792453    0.301886792453    0.000000000000       4
    0.320754716981    0.301886792453    0.000000000000       8
    0.339622641509    0.301886792453    0.000000000000       8
    0.358490566038    0.301886792453    0.000000000000       8
    0.377358490566    0.301886792453    0.000000000000       8
    0.396226415094    0.301886792453    0.000000000000       8
    0.415094339623    0.301886792453    0.000000000000       8
    0.433962264151    0.301886792453    0.000000000000       8
    0.452830188679    0.301886792453    0.000000000000       8
    0.471698113208    0.301886792453    0.000000000000       8
    0.490566037736    0.301886792453    0.000000000000       8
    0.320754716981    0.320754716981    0.000000000000       4
    0.339622641509    0.320754716981    0.000000000000       8
    0.358490566038    0.320754716981    0.000000000000       8
    0.377358490566    0.320754716981    0.000000000000       8
    0.396226415094    0.320754716981    0.000000000000       8
    0.415094339623    0.320754716981    0.000000000000       8
    0.433962264151    0.320754716981    0.000000000000       8
    0.452830188679    0.320754716981    0.000000000000       8
    0.471698113208    0.320754716981    0.000000000000       8
    0.490566037736    0.320754716981    0.000000000000       8
    0.339622641509    0.339622641509    0.000000000000       4
    0.358490566038    0.339622641509    0.000000000000       8
    0.377358490566    0.339622641509    0.000000000000       8
    0.396226415094    0.339622641509    0.000000000000       8
    0.415094339623    0.339622641509    0.000000000000       8
    0.433962264151    0.339622641509    0.000000000000       8
    0.452830188679    0.339622641509    0.000000000000       8
    0.471698113208    0.339622641509    0.000000000000       8
    0.490566037736    0.339622641509    0.000000000000       8
    0.358490566038    0.358490566038    0.000000000000       4
    0.377358490566    0.358490566038    0.000000000000       8
    0.396226415094    0.358490566038    0.000000000000       8
    0.415094339623    0.358490566038    0.000000000000       8
    0.433962264151    0.358490566038    0.000000000000       8
    0.452830188679    0.358490566038    0.000000000000       8
    0.471698113208    0.358490566038    0.000000000000       8
    0.490566037736    0.358490566038    0.000000000000       8
    0.377358490566    0.377358490566    0.000000000000       4
    0.396226415094    0.377358490566    0.000000000000       8
    0.415094339623    0.377358490566    0.000000000000       8
    0.433962264151    0.377358490566    0.000000000000       8
    0.452830188679    0.377358490566    0.000000000000       8
    0.471698113208    0.377358490566    0.000000000000       8
    0.490566037736    0.377358490566    0.000000000000       8
    0.396226415094    0.396226415094    0.000000000000       4
    0.415094339623    0.396226415094    0.000000000000       8
    0.433962264151    0.396226415094    0.000000000000       8
    0.452830188679    0.396226415094    0.000000000000       8
    0.471698113208    0.396226415094    0.000000000000       8
    0.490566037736    0.396226415094    0.000000000000       8
    0.415094339623    0.415094339623    0.000000000000       4
    0.433962264151    0.415094339623    0.000000000000       8
    0.452830188679    0.415094339623    0.000000000000       8
    0.471698113208    0.415094339623    0.000000000000       8
    0.490566037736    0.415094339623    0.000000000000       8
    0.433962264151    0.433962264151    0.000000000000       4
    0.452830188679    0.433962264151    0.000000000000       8
    0.471698113208    0.433962264151    0.000000000000       8
    0.490566037736    0.433962264151    0.000000000000       8
    0.452830188679    0.452830188679    0.000000000000       4
    0.471698113208    0.452830188679    0.000000000000       8
    0.490566037736    0.452830188679    0.000000000000       8
    0.471698113208    0.471698113208    0.000000000000       4
    0.490566037736    0.471698113208    0.000000000000       8
    0.490566037736    0.490566037736    0.000000000000       4
