 Sm2 Te6                                
   1.00000000000000     
     4.3448965991332056    0.0000000000000000    0.0000000000000000
     0.0000000000000000    4.3448965280587402    0.0000000000000000
     0.0000000000000000    0.0000000000000000   24.3212619822999976
   Sm   Te
     2     6
Direct
  0.0000000325399104  0.4999999589568798  0.4135427766469951
  0.4999999551271111  0.0000000459947679  0.5864574353456385
 -0.0000000242117991  0.5000000248597596  0.5472161952205555
  0.5000000232433133 -0.0000000299518546  0.4527839312931858
  0.4999999916761554  0.5000000149245665  0.6910016465833678
  0.0000000179415053 -0.0000000137911982  0.3089981848620252
 -0.0000000115716828  0.0000000120716706  0.6910016476869602
  0.5000000152554870  0.4999999869354083  0.3089981823612646
 
  0.00000000E+00  0.00000000E+00  0.00000000E+00
  0.00000000E+00  0.00000000E+00  0.00000000E+00
  0.00000000E+00  0.00000000E+00  0.00000000E+00
  0.00000000E+00  0.00000000E+00  0.00000000E+00
  0.00000000E+00  0.00000000E+00  0.00000000E+00
  0.00000000E+00  0.00000000E+00  0.00000000E+00
  0.00000000E+00  0.00000000E+00  0.00000000E+00
  0.00000000E+00  0.00000000E+00  0.00000000E+00
