CONTCAR\(5)                             
   1.00000000000000     
    11.0214996337999995    0.0000000000000000    0.0000000000000000
     0.0000000000000000   14.9139995575000004    0.0000000000000000
     0.0000000000000000    0.0000000000000000   19.5716991425000018
   Nb   Ni   Te   O    H 
     6     6    30     1     1
Selective dynamics
Direct
  0.9990177679339141  0.2498649156954329  0.4994308577219684   F   F   F
  0.0011088160195030  0.7501275025782519  0.5017429233541080   F   F   F
  0.3330926539029662  0.2506315281313576  0.5121877232344474   F   F   F
  0.3335339035997222  0.7508957562403111  0.4999154528636822   F   F   F
  0.6671070752092660  0.2500619809807532  0.4997449836785677   F   F   F
  0.6660984415631930  0.7504863214667523  0.5020240261658131   F   F   F
  0.1639400052489179  0.9978035480784371  0.4984838070475277   F   F   F
  0.1654004259104056  0.5040555692017108  0.4991862559475067   F   F   F
  0.5026196136953303  0.9984075207714369  0.4995966365419378   F   F   F
  0.5028854878793041  0.5041605910558076  0.4988903115302250   F   F   F
  0.8338151871786508  0.0005586727545364  0.5004744814995306   F   F   F
  0.8331922753528858  0.5006478972962825  0.5015758658674159   F   F   F
  0.9981892852784213  0.0775448793051723  0.4283337646701710   F   F   F
  0.9985824335983793  0.9223166558534217  0.5716688311831319   F   F   F
  0.9991398539233387  0.5782084759541632  0.5723202791711230   F   F   F
  0.9994133895848449  0.4232324649564845  0.4313037048364237   F   F   F
  0.1737238600234150  0.2509046720878985  0.3921067126663615   F   F   F
  0.1684617684684397  0.7505546046701355  0.6131515504961698   F   F   F
  0.1670011425683597  0.8575872069221759  0.4239144075526013   F   F   F
  0.1567981115625869  0.1338944599228995  0.5744911595108988   F   F   F
  0.1571875536901501  0.3668671052228305  0.5746307755517179   F   F   F
  0.1677997128874154  0.6443598499585264  0.4236149869405779   F   F   F
  0.3336061435892788  0.0807842672718309  0.4337697550427038   F   F   F
  0.3330422981276158  0.9223412649204548  0.5701831923562608   F   F   F
  0.3339302000975479  0.5794386484527934  0.5707746718963023   F   F   F
  0.3337916276454891  0.4206528346635210  0.4335158465301205   F   F   F
  0.4930514411007820  0.2504074587592910  0.3923008695913452   F   F   F
  0.4986156080306330  0.7512638894040080  0.6132653515569686   F   F   F
  0.5000980609801857  0.8582861164631126  0.4246434909641152   F   F   F
  0.5089440455226111  0.1349910215755443  0.5757437438487543   F   F   F
  0.5089827355799201  0.3673297948992484  0.5745336241730570   F   F   F
  0.4997678672473640  0.6447299459981579  0.4235878015732411   F   F   F
  0.6684328164811362  0.0774550637869069  0.4292627927190793   F   F   F
  0.6688999916285141  0.9229502746776319  0.5718491212091337   F   F   F
  0.6680412997764620  0.5784454445120986  0.5726303186832453   F   F   F
  0.6680940706368546  0.4230186549906350  0.4307112496015151   F   F   F
  0.8330151284825220  0.2500584574836964  0.3875820514080601   F   F   F
  0.8338615969033327  0.7506488989339459  0.6137824391878652   F   F   F
  0.8335922810646323  0.8558330845071822  0.4260034883923325   F   F   F
  0.8331925048722013  0.1444193966699032  0.5763940553380280   F   F   F
  0.8333049580294514  0.3559749841011026  0.5761446579723923   F   F   F
  0.8333660919783625  0.6446215781869071  0.4258520397454859   F   F   F
  0.3319347764901295  0.2648850825105740  0.6254912013617826   T   T   T
  0.3276559266556021  0.2084314021266422  0.6507322960541436   T   T   T
 
  0.00000000E+00  0.00000000E+00  0.00000000E+00
  0.00000000E+00  0.00000000E+00  0.00000000E+00
  0.00000000E+00  0.00000000E+00  0.00000000E+00
  0.00000000E+00  0.00000000E+00  0.00000000E+00
  0.00000000E+00  0.00000000E+00  0.00000000E+00
  0.00000000E+00  0.00000000E+00  0.00000000E+00
  0.00000000E+00  0.00000000E+00  0.00000000E+00
  0.00000000E+00  0.00000000E+00  0.00000000E+00
  0.00000000E+00  0.00000000E+00  0.00000000E+00
  0.00000000E+00  0.00000000E+00  0.00000000E+00
  0.00000000E+00  0.00000000E+00  0.00000000E+00
  0.00000000E+00  0.00000000E+00  0.00000000E+00
  0.00000000E+00  0.00000000E+00  0.00000000E+00
  0.00000000E+00  0.00000000E+00  0.00000000E+00
  0.00000000E+00  0.00000000E+00  0.00000000E+00
  0.00000000E+00  0.00000000E+00  0.00000000E+00
  0.00000000E+00  0.00000000E+00  0.00000000E+00
  0.00000000E+00  0.00000000E+00  0.00000000E+00
  0.00000000E+00  0.00000000E+00  0.00000000E+00
  0.00000000E+00  0.00000000E+00  0.00000000E+00
  0.00000000E+00  0.00000000E+00  0.00000000E+00
  0.00000000E+00  0.00000000E+00  0.00000000E+00
  0.00000000E+00  0.00000000E+00  0.00000000E+00
  0.00000000E+00  0.00000000E+00  0.00000000E+00
  0.00000000E+00  0.00000000E+00  0.00000000E+00
  0.00000000E+00  0.00000000E+00  0.00000000E+00
  0.00000000E+00  0.00000000E+00  0.00000000E+00
  0.00000000E+00  0.00000000E+00  0.00000000E+00
  0.00000000E+00  0.00000000E+00  0.00000000E+00
  0.00000000E+00  0.00000000E+00  0.00000000E+00
  0.00000000E+00  0.00000000E+00  0.00000000E+00
  0.00000000E+00  0.00000000E+00  0.00000000E+00
  0.00000000E+00  0.00000000E+00  0.00000000E+00
  0.00000000E+00  0.00000000E+00  0.00000000E+00
  0.00000000E+00  0.00000000E+00  0.00000000E+00
  0.00000000E+00  0.00000000E+00  0.00000000E+00
  0.00000000E+00  0.00000000E+00  0.00000000E+00
  0.00000000E+00  0.00000000E+00  0.00000000E+00
  0.00000000E+00  0.00000000E+00  0.00000000E+00
  0.00000000E+00  0.00000000E+00  0.00000000E+00
  0.00000000E+00  0.00000000E+00  0.00000000E+00
  0.00000000E+00  0.00000000E+00  0.00000000E+00
  0.00000000E+00  0.00000000E+00  0.00000000E+00
  0.00000000E+00  0.00000000E+00  0.00000000E+00
