CONTCAR\(10)                            
   1.00000000000000     
    10.6047000884999996    0.0000000000000000    0.0000000000000000
     0.0000000000000000   11.2699003219999998    0.0000000000000000
     0.0000000000000000    0.0000000000000000   19.2775993346999996
   Cr   Cu   O 
     8     8    32
Direct
  0.2500000000000000  0.1250000000000000  0.4261778049340954
  0.2500000000000000  0.3749999890000026  0.5738222450659087
  0.7500000000000000  0.1250000000000000  0.4261778049340954
  0.7500000000000000  0.3749999890000026  0.5738222450659087
  0.2500000000000000  0.6250000109999974  0.4261778049340954
  0.2500000000000000  0.8750000320000026  0.5738222450659087
  0.7500000000000000  0.6250000109999974  0.4261778049340954
  0.7500000000000000  0.8750000320000026  0.5738222450659087
  0.0000000000000000  0.2500000000000000  0.5000000000000000
 -0.0000000000000000  0.0000000000000000  0.5000000000000000
  0.5000000000000000  0.2500000000000000  0.5000000000000000
  0.5000000000000000  0.0000000000000000  0.5000000000000000
 -0.0000000000000000  0.7499999790000018  0.5000000000000000
 -0.0000000000000000  0.5000000000000000  0.5000000000000000
  0.5000000000000000  0.7499999790000018  0.5000000000000000
  0.5000000000000000  0.5000000000000000  0.5000000000000000
  0.1173713834474438  0.3749999890000026  0.5189679417219282
  0.3826186235525572  0.1250000000000000  0.4810320082780676
  0.1173713834474438  0.1250000000000000  0.4810320082780676
  0.3826286055525589  0.3749999890000026  0.5189679417219282
  0.2500000000000000  0.4911249760515595  0.6206111901876242
  0.2500000000000000  0.2411249550515614  0.3793888588123766
  0.2500000000000000  0.2588750239484405  0.6206111901876242
  0.2500000000000000  0.0088650339484381  0.3793988278123807
  0.6173713944474409  0.3749999890000026  0.5189679417219282
  0.8826186235525574  0.1250000000000000  0.4810320082780676
  0.6173713944474409  0.1250000000000000  0.4810320082780676
  0.8826286055525591  0.3749999890000026  0.5189679417219282
  0.7500000000000000  0.4911249760515595  0.6206111901876242
  0.7500000000000000  0.2411249550515614  0.3793888588123766
  0.7500000000000000  0.2588750239484405  0.6206111901876242
  0.7500000000000000  0.0088650339484381  0.3793988278123807
  0.1173713834474438  0.8750000320000026  0.5189679417219282
  0.3826186235525572  0.6250000109999974  0.4810320082780676
  0.1173713834474438  0.6250000109999974  0.4810320082780676
  0.3826286055525589  0.8750000320000026  0.5189679417219282
  0.2500000000000000  0.9911249760515595  0.6206111901876242
  0.2500000000000000  0.7411249550515613  0.3793888588123766
  0.2500000000000000  0.7588750029484423  0.6206111901876242
  0.2500000000000000  0.5088649959484421  0.3793988278123807
  0.6173713944474409  0.8750000320000026  0.5189679417219282
  0.8826186235525574  0.6250000109999974  0.4810320082780676
  0.6173713944474409  0.6250000109999974  0.4810320082780676
  0.8826286055525591  0.8750000320000026  0.5189679417219282
  0.7500000000000000  0.9911249760515595  0.6206111901876242
  0.7500000000000000  0.7411249550515613  0.3793888588123766
  0.7500000000000000  0.7588750029484423  0.6206111901876242
  0.7500000000000000  0.5088649959484421  0.3793988278123807
 
  0.00000000E+00  0.00000000E+00  0.00000000E+00
  0.00000000E+00  0.00000000E+00  0.00000000E+00
  0.00000000E+00  0.00000000E+00  0.00000000E+00
  0.00000000E+00  0.00000000E+00  0.00000000E+00
  0.00000000E+00  0.00000000E+00  0.00000000E+00
  0.00000000E+00  0.00000000E+00  0.00000000E+00
  0.00000000E+00  0.00000000E+00  0.00000000E+00
  0.00000000E+00  0.00000000E+00  0.00000000E+00
  0.00000000E+00  0.00000000E+00  0.00000000E+00
  0.00000000E+00  0.00000000E+00  0.00000000E+00
  0.00000000E+00  0.00000000E+00  0.00000000E+00
  0.00000000E+00  0.00000000E+00  0.00000000E+00
  0.00000000E+00  0.00000000E+00  0.00000000E+00
  0.00000000E+00  0.00000000E+00  0.00000000E+00
  0.00000000E+00  0.00000000E+00  0.00000000E+00
  0.00000000E+00  0.00000000E+00  0.00000000E+00
  0.00000000E+00  0.00000000E+00  0.00000000E+00
  0.00000000E+00  0.00000000E+00  0.00000000E+00
  0.00000000E+00  0.00000000E+00  0.00000000E+00
  0.00000000E+00  0.00000000E+00  0.00000000E+00
  0.00000000E+00  0.00000000E+00  0.00000000E+00
  0.00000000E+00  0.00000000E+00  0.00000000E+00
  0.00000000E+00  0.00000000E+00  0.00000000E+00
  0.00000000E+00  0.00000000E+00  0.00000000E+00
  0.00000000E+00  0.00000000E+00  0.00000000E+00
  0.00000000E+00  0.00000000E+00  0.00000000E+00
  0.00000000E+00  0.00000000E+00  0.00000000E+00
  0.00000000E+00  0.00000000E+00  0.00000000E+00
  0.00000000E+00  0.00000000E+00  0.00000000E+00
  0.00000000E+00  0.00000000E+00  0.00000000E+00
  0.00000000E+00  0.00000000E+00  0.00000000E+00
  0.00000000E+00  0.00000000E+00  0.00000000E+00
  0.00000000E+00  0.00000000E+00  0.00000000E+00
  0.00000000E+00  0.00000000E+00  0.00000000E+00
  0.00000000E+00  0.00000000E+00  0.00000000E+00
  0.00000000E+00  0.00000000E+00  0.00000000E+00
  0.00000000E+00  0.00000000E+00  0.00000000E+00
  0.00000000E+00  0.00000000E+00  0.00000000E+00
  0.00000000E+00  0.00000000E+00  0.00000000E+00
  0.00000000E+00  0.00000000E+00  0.00000000E+00
  0.00000000E+00  0.00000000E+00  0.00000000E+00
  0.00000000E+00  0.00000000E+00  0.00000000E+00
  0.00000000E+00  0.00000000E+00  0.00000000E+00
  0.00000000E+00  0.00000000E+00  0.00000000E+00
  0.00000000E+00  0.00000000E+00  0.00000000E+00
  0.00000000E+00  0.00000000E+00  0.00000000E+00
  0.00000000E+00  0.00000000E+00  0.00000000E+00
  0.00000000E+00  0.00000000E+00  0.00000000E+00
