CONTCAR\(5)                             
   1.00000000000000     
    11.7456998825000003    0.0000000000000000    0.0000000000000000
     0.0000000000000000   17.6870002747000008    0.0000000000000000
     0.0000000000000000    0.0000000000000000   19.5771007537999999
   Ti   Ge   Te   O 
     6     6    36     1
Selective dynamics
Direct
  0.0857044690615822  0.4789497629504282  0.5122779371444111   F   F   F
  0.2532060731218664  0.9519284032424409  0.4886167841061635   F   F   F
  0.4172878316442663  0.4772420536965427  0.5129729244185413   F   F   F
  0.5862914384734665  0.9519402319261943  0.4897183122157358   F   F   F
  0.7548343934267976  0.4773987747167894  0.5127302170088228   F   F   F
  0.9190907584812678  0.9518472997301970  0.4884928478467288   F   F   F
  0.2516596363636765  0.8023181532704484  0.4783871341364261   F   F   F
  0.0855761781864786  0.6286512910415141  0.5201679754036164   F   F   F
  0.5861418074028819  0.8017445359973507  0.4796546201558982   F   F   F
  0.4171688506903095  0.6281382317304960  0.5226813160294839   F   F   F
  0.9202488315153730  0.8023371790113316  0.4782368021236536   F   F   F
  0.7546464154503312  0.6281809267738723  0.5225531534515326   F   F   F
  0.0865208838128453  0.9260254784066504  0.3811349395664223   F   F   F
  0.2485564588546154  0.2566237679032994  0.5745086138092148   F   F   F
  0.2531498416559543  0.0640207742032715  0.3851448451208626   F   F   F
  0.0858174179449236  0.8945692166011199  0.5845911981349587   F   F   F
  0.2503704720935147  0.5087331702448878  0.6184117448397473   F   F   F
  0.0852964745614884  0.3725448780884335  0.6205610538556741   F   F   F
  0.0857454133324964  0.1745937063391096  0.4309217489619641   F   F   F
  0.2510917105571266  0.7065282470910645  0.5897716587312516   F   F   F
  0.0860277575936621  0.7253968012328613  0.4089819336230107   F   F   F
  0.2509560630404977  0.3782780057577853  0.4587661052240009   F   F   F
  0.0860820505612452  0.0495882153410392  0.5449790853678351   F   F   F
  0.2541162549239147  0.5329096322427915  0.4154714534524544   F   F   F
  0.4203027844865659  0.9247469933253143  0.3824848601786215   F   F   F
  0.5863147267485971  0.2526222099325963  0.5648850808321129   F   F   F
  0.5861155693253721  0.0644051405798152  0.3859035423511727   F   F   F
  0.4184978654092006  0.8944917051202737  0.5854770310219379   F   F   F
  0.5858414676018455  0.5059485226639637  0.6159735166575260   F   F   F
  0.4217803081591924  0.3637583495696646  0.6174523790813495   F   F   F
  0.4202112438094474  0.1764936081289434  0.4306687046835336   F   F   F
  0.5860361664870766  0.7050749219546049  0.5905340769755867   F   F   F
  0.4196989564476397  0.7241404669074498  0.4106179473357443   F   F   F
  0.5863656665546841  0.3885586046474074  0.4385452369884177   F   F   F
  0.4193499875994604  0.0480303019534247  0.5476425245076513   F   F   F
  0.5854910437472540  0.5410206435781859  0.4170801967882696   F   F   F
  0.7519064546746819  0.9246987668873956  0.3822261363963122   F   F   F
  0.9224465709474785  0.2565031217734060  0.5736120298724359   F   F   F
  0.9186654821127433  0.0635685005985778  0.3849961992663467   F   F   F
  0.7537146276682662  0.8945413034671219  0.5855786962886000   F   F   F
  0.9210938320757549  0.5091233193597517  0.6182692830344649   F   F   F
  0.7497409596364406  0.3641481136708222  0.6172043222856800   F   F   F
  0.7522882219502449  0.1763966556236269  0.4303288187503256   F   F   F
  0.9206514933439891  0.7068349352363654  0.5897922978768761   F   F   F
  0.7524419457551801  0.7240528218053939  0.4104983874531598   F   F   F
  0.9210863590402951  0.3780502137107788  0.4585255677038518   F   F   F
  0.7531553002514144  0.0479859068494974  0.5477386516715868   F   F   F
  0.9179581089516660  0.5330601891659796  0.4151831373827690   F   F   F
  0.5891176824649449  0.1688557899496601  0.6205609375897082   T   T   T
 
  0.00000000E+00  0.00000000E+00  0.00000000E+00
  0.00000000E+00  0.00000000E+00  0.00000000E+00
  0.00000000E+00  0.00000000E+00  0.00000000E+00
  0.00000000E+00  0.00000000E+00  0.00000000E+00
  0.00000000E+00  0.00000000E+00  0.00000000E+00
  0.00000000E+00  0.00000000E+00  0.00000000E+00
  0.00000000E+00  0.00000000E+00  0.00000000E+00
  0.00000000E+00  0.00000000E+00  0.00000000E+00
  0.00000000E+00  0.00000000E+00  0.00000000E+00
  0.00000000E+00  0.00000000E+00  0.00000000E+00
  0.00000000E+00  0.00000000E+00  0.00000000E+00
  0.00000000E+00  0.00000000E+00  0.00000000E+00
  0.00000000E+00  0.00000000E+00  0.00000000E+00
  0.00000000E+00  0.00000000E+00  0.00000000E+00
  0.00000000E+00  0.00000000E+00  0.00000000E+00
  0.00000000E+00  0.00000000E+00  0.00000000E+00
  0.00000000E+00  0.00000000E+00  0.00000000E+00
  0.00000000E+00  0.00000000E+00  0.00000000E+00
  0.00000000E+00  0.00000000E+00  0.00000000E+00
  0.00000000E+00  0.00000000E+00  0.00000000E+00
  0.00000000E+00  0.00000000E+00  0.00000000E+00
  0.00000000E+00  0.00000000E+00  0.00000000E+00
  0.00000000E+00  0.00000000E+00  0.00000000E+00
  0.00000000E+00  0.00000000E+00  0.00000000E+00
  0.00000000E+00  0.00000000E+00  0.00000000E+00
  0.00000000E+00  0.00000000E+00  0.00000000E+00
  0.00000000E+00  0.00000000E+00  0.00000000E+00
  0.00000000E+00  0.00000000E+00  0.00000000E+00
  0.00000000E+00  0.00000000E+00  0.00000000E+00
  0.00000000E+00  0.00000000E+00  0.00000000E+00
  0.00000000E+00  0.00000000E+00  0.00000000E+00
  0.00000000E+00  0.00000000E+00  0.00000000E+00
  0.00000000E+00  0.00000000E+00  0.00000000E+00
  0.00000000E+00  0.00000000E+00  0.00000000E+00
  0.00000000E+00  0.00000000E+00  0.00000000E+00
  0.00000000E+00  0.00000000E+00  0.00000000E+00
  0.00000000E+00  0.00000000E+00  0.00000000E+00
  0.00000000E+00  0.00000000E+00  0.00000000E+00
  0.00000000E+00  0.00000000E+00  0.00000000E+00
  0.00000000E+00  0.00000000E+00  0.00000000E+00
  0.00000000E+00  0.00000000E+00  0.00000000E+00
  0.00000000E+00  0.00000000E+00  0.00000000E+00
  0.00000000E+00  0.00000000E+00  0.00000000E+00
  0.00000000E+00  0.00000000E+00  0.00000000E+00
  0.00000000E+00  0.00000000E+00  0.00000000E+00
  0.00000000E+00  0.00000000E+00  0.00000000E+00
  0.00000000E+00  0.00000000E+00  0.00000000E+00
  0.00000000E+00  0.00000000E+00  0.00000000E+00
  0.00000000E+00  0.00000000E+00  0.00000000E+00
