CONTCAR\(2)                             
   1.00000000000000     
    13.0193004608000003    0.0000000000000000    0.0000000000000000
    -1.6274128543999999    9.0662962906000004    0.0000000000000000
     0.0000000000000000    0.0000000000000000   18.6888999939000016
   Nb   Pd   S    O    H 
     8     4    24     1     1
Direct
  0.0345801127703701  0.2917125071271112  0.4801029807862371
  0.2148358521302743  0.7082554897481246  0.5248543694137714
  0.2855686420300451  0.2998411718420645  0.4815419326515056
  0.4615494539748685  0.7047234285205298  0.5292453828155909
  0.5355722114713386  0.3008530988216437  0.4824291224434205
  0.7104710093259564  0.7041247210536884  0.5295088598110645
  0.7849653304338463  0.2997038345953937  0.4821862384280121
  0.9579886339187961  0.7078341580237050  0.5266348688169945
  0.1232461086475681 -0.0001786677917578  0.5043889135171984
  0.3738901470809273  0.0030024874055763  0.5045484661619836
  0.6234773842876482  0.0026648615237522  0.5057717525450873
  0.8723506288932126  0.0003875766906366  0.5047734915952918
  0.0952314778273641  0.7868536033694020  0.4345530094047240
  0.1502295754441158  0.2149871170108640  0.5736304637063168
  0.0619678165697017  0.5134650906669229  0.5649493121556696
  0.1822604561950242  0.4849260647173886  0.4350787652850223
  0.1446033232874682  0.1593957177761564  0.4057893857787119
  0.1031326310685477  0.8384634786811731  0.6026168403327936
  0.3486274437669095  0.7883929510555487  0.4342120551210514
  0.3998860723603448  0.2170319108747315  0.5745954281580673
  0.3098705684746135  0.5181095825557313  0.5746014103859843
  0.4332849248953096  0.4870800693504487  0.4375838337758890
  0.3939864062791823  0.1643847048971276  0.4066696944631170
  0.3533123004725705  0.8425105754285278  0.6029378966264592
  0.5960155894793280  0.7876085272913893  0.4366245360940127
  0.6507554234755952  0.2179490719278765  0.5751766342042476
  0.5622729623991476  0.5182281292230275  0.5751397574792958
  0.6843393455490570  0.4865267878850408  0.4375791103198265
  0.6428647857234907  0.1633690786973134  0.4073688203870960
  0.6030890343262493  0.8422600599855520  0.6042582422096625
  0.8437030992942134  0.7863154688149301  0.4349075463053582
  0.9001053949122827  0.2148279814419551  0.5739869516647715
  0.8141043415477592  0.5183427211220091  0.5745822853300957
  0.9361788125336193  0.4860150568018635  0.4368632211475255
  0.8909355946956762  0.1595924680346406  0.4060845487743399
  0.8526531973073418  0.8418968442075930  0.6039365327416801
  0.0639836284248659  0.4978724820623068  0.6533166574247785
  0.1322105867253614  0.4726801175600048  0.6660103317373461
 
  0.00000000E+00  0.00000000E+00  0.00000000E+00
  0.00000000E+00  0.00000000E+00  0.00000000E+00
  0.00000000E+00  0.00000000E+00  0.00000000E+00
  0.00000000E+00  0.00000000E+00  0.00000000E+00
  0.00000000E+00  0.00000000E+00  0.00000000E+00
  0.00000000E+00  0.00000000E+00  0.00000000E+00
  0.00000000E+00  0.00000000E+00  0.00000000E+00
  0.00000000E+00  0.00000000E+00  0.00000000E+00
  0.00000000E+00  0.00000000E+00  0.00000000E+00
  0.00000000E+00  0.00000000E+00  0.00000000E+00
  0.00000000E+00  0.00000000E+00  0.00000000E+00
  0.00000000E+00  0.00000000E+00  0.00000000E+00
  0.00000000E+00  0.00000000E+00  0.00000000E+00
  0.00000000E+00  0.00000000E+00  0.00000000E+00
  0.00000000E+00  0.00000000E+00  0.00000000E+00
  0.00000000E+00  0.00000000E+00  0.00000000E+00
  0.00000000E+00  0.00000000E+00  0.00000000E+00
  0.00000000E+00  0.00000000E+00  0.00000000E+00
  0.00000000E+00  0.00000000E+00  0.00000000E+00
  0.00000000E+00  0.00000000E+00  0.00000000E+00
  0.00000000E+00  0.00000000E+00  0.00000000E+00
  0.00000000E+00  0.00000000E+00  0.00000000E+00
  0.00000000E+00  0.00000000E+00  0.00000000E+00
  0.00000000E+00  0.00000000E+00  0.00000000E+00
  0.00000000E+00  0.00000000E+00  0.00000000E+00
  0.00000000E+00  0.00000000E+00  0.00000000E+00
  0.00000000E+00  0.00000000E+00  0.00000000E+00
  0.00000000E+00  0.00000000E+00  0.00000000E+00
  0.00000000E+00  0.00000000E+00  0.00000000E+00
  0.00000000E+00  0.00000000E+00  0.00000000E+00
  0.00000000E+00  0.00000000E+00  0.00000000E+00
  0.00000000E+00  0.00000000E+00  0.00000000E+00
  0.00000000E+00  0.00000000E+00  0.00000000E+00
  0.00000000E+00  0.00000000E+00  0.00000000E+00
  0.00000000E+00  0.00000000E+00  0.00000000E+00
  0.00000000E+00  0.00000000E+00  0.00000000E+00
  0.00000000E+00  0.00000000E+00  0.00000000E+00
  0.00000000E+00  0.00000000E+00  0.00000000E+00
