CONTCAR\(4)                             
   1.00000000000000     
    11.4651002884000004    0.0000000000000000    0.0000000000000000
     0.0000000000000000   11.4651002884000004    0.0000000000000000
     0.0000000000000000    0.0000000000000000   29.1504001616999986
   Sr   Mn   Cl   O 
    36    27    18    73
Direct
  0.0003875368214919 -0.0000538483437717  0.3007669667259606
  0.0003342667505807  0.0000868833222335  0.6996917682945983
 -0.0001190268368096  0.9990215949060167  0.4356970777096172
 -0.0001329593232336  0.9986979461336910  0.5656479279994558
  0.3335876132679411  0.9997067320984205  0.3005272557668583
  0.3315851839823859  0.0022257528922270  0.6993641396096879
  0.3348136083503728 -0.0016881282907081  0.4359448879703822
  0.3343327874727238  0.9992436612190738  0.5657712216530955
  0.6661146293293444  0.9992617366594012  0.3001548855325667
  0.6679865168332503  0.0017761539392715  0.6997553167243143
  0.6653250723150755 -0.0016200076104014  0.4363942190022033
  0.6658391144842718  0.9994021828179241  0.5653179797175651
  0.0003981027398737  0.3331460906596534  0.3008861064259275
  0.0003682752437471  0.3332181373812395  0.6996435943721397
 -0.0001186144634582  0.3337253135101417  0.4355699531119738
 -0.0000903059592549  0.3345051758716161  0.5655371047081407
  0.3334288576744663  0.3330246842539923  0.3004928086565468
  0.3312881934626422  0.3309481268989211  0.6995337156322405
  0.3341186877688640  0.3336130750237684  0.4357150765030344
  0.3339155493001321  0.3335546853671842  0.5656267689760200
  0.6663039666811805  0.3334924304875874  0.3001126593261721
  0.6682925538741945  0.3314303384830448  0.6999294343764380
  0.6659912525074055  0.3335252693117021  0.4361595318373023
  0.6662552328024641  0.3334033307067307  0.5651843920486043
 -0.0000169452043755  0.6669321024318585  0.3002092376296016
 -0.0000196998806822  0.6664881867502945  0.7006580597752544
  0.0000006475928109  0.6671952185223766  0.4364284146980048
 -0.0000058043614736  0.6666925010252006  0.5656063821863774
  0.3341196382841409  0.6672772512823942  0.2999712876807977
  0.3402731646629755  0.6666750393312627  0.7071259457915224
  0.3348007694382384  0.6679590023904401  0.4365736855398613
  0.3341427959770158  0.6670418713480086  0.5660380364576192
  0.6660126514246520  0.6672657931393934  0.2998852575964254
  0.6600829116719357  0.6666577092698981  0.7071266503790505
  0.6652602708642072  0.6679866934923505  0.4365627162687405
  0.6659349254526372  0.6670353877207742  0.5660197620994646
  0.1666752028899493  0.1665872858515147  0.5001428427316500
  0.1660460707188036  0.1666845198700078  0.6316409266359082
  0.1671503005239506  0.1664957517999607  0.3681481997405114
  0.4988661083391885  0.1666156174990970  0.5002467806212415
  0.5002888231653279  0.1669903308271968  0.6323470338426207
  0.5003342951284090  0.1657263819890284  0.3672989086093171
  0.8343427636318161  0.1665697060519040  0.5001166838423310
  0.8336696101904740  0.1667196986787930  0.6322269603426764
  0.8325481463613673  0.1664687951766878  0.3675143018399020
  0.1671255823015529  0.4992301938456261  0.5004919005245709
  0.1679053113964731  0.5016528959577047  0.6332250956038541
  0.1672625294006904  0.5007923411499015  0.3676092223197009
  0.4999495281420617  0.5002006462537461  0.5005593535448425
  0.5001389329394547  0.5009773430950554  0.6337185484090777
  0.5001393332363780  0.5011893669702889  0.3673042453770408
  0.8329770103946315  0.5002058424488213  0.5004872819465223
  0.8320585434431574  0.5014684806257453  0.6332854463114596
  0.8326911692192059  0.5006272844743478  0.3675244756238932
  0.1669420810926092  0.8341267477006975  0.5005812772084569
  0.1676977955921259  0.8314604314053270  0.6333413817898471
  0.1678183768504983  0.8327234509424074  0.3674178858562399
  0.4999319238253402  0.8329233478308626  0.5003367346107350
  0.5001366483265555  0.8319704220020304  0.6337947279703310
  0.5001326094504017  0.8330320322990289  0.3665602280445436
  0.8330867265850160  0.8330981598770064  0.5005909777136688
  0.8322271284450643  0.8316311665801850  0.6334248658064514
  0.8321482700220802  0.8329103205035630  0.3673287097432780
  0.1665769195303320  0.1665111196272983  0.2560818030950233
  0.1650892041313807  0.1665239495978424  0.7441379435468948
  0.4998344591027210  0.1665279944596324  0.2558612149105009
  0.4997390212976157  0.1669674869553754  0.7404894373483539
  0.8337072087560188  0.1665660482825408  0.2564204781885340
  0.8349742950885584  0.1665516149672283  0.7437693907674851
  0.1667616922304762  0.4997872030467503  0.2562882893147093
  0.1645632349202177  0.4977641077388169  0.7437221669927824
  0.4997170135637632  0.4996817443720217  0.2555465952014871
  0.4993453354684659  0.4633964459555687  0.7480288375543596
  0.8335964688084944  0.4997521349820930  0.2560786703033833
  0.8356843514400606  0.4976740733919118  0.7439011500683718
  0.1666190358549585  0.8336756312351848  0.2559807186571089
  0.1646285107617313  0.8353023436504701  0.7436248867018868
  0.4997970952438669  0.8337990682889774  0.2544413750877673
  0.4993643091170988  0.8720224370946524  0.7490558788533412
  0.8336644394116051  0.8337106486253791  0.2557975183266116
  0.8356103606575888  0.8353741673493210  0.7437860466946006
  0.1670685936031839  0.9989026084387878  0.3571454126702550
 -0.0006150074969137  0.1667493455258632  0.6427845452423722
  0.1666844561381493  0.0008427593537335  0.5003835899482031
  0.0009705157984492  0.1667696459974617  0.4992375354019825
 -0.0006319361018380  0.1667080032829013  0.3576496778430279
  0.1682571216309225  0.1662801249304943  0.4343090897351610
  0.1656630833075227  0.9991107010961084  0.6420425631297376
  0.1647616966653699  0.1672032411820699  0.5655485679193109
  0.5002001996693803 -0.0004814896381687  0.3576764161433224
  0.3331354103063476  0.1669155407103908  0.6412236798133347
  0.4996442058595884  0.0006725456062229  0.5009140702055497
  0.3322713646151074  0.1668025355185069  0.5005540709928478
  0.3344266195497910  0.1665244889271150  0.3567964987489075
  0.4999796869586736  0.1664416796093123  0.4320052208290965
  0.5002055893005783  0.0004639494260511  0.6417508604825867
  0.5001750590258778  0.1676587225586805  0.5684522440401583
  0.8328376950869828  0.9994611433932664  0.3565659445299985
  0.6674868497054947  0.1669460975949459  0.6420330243221674
  0.8336606778380835  0.0001442018571333  0.5003876974352911
  0.6667375490673725  0.1668600322436425  0.5004827034448107
  0.6662577366622480  0.1664922034041020  0.3560433958806314
  0.8317991048093976  0.1661653380657087  0.4316569720319064
  0.8341516309863906 -0.0002311633098782  0.6425825170008225
  0.8350274653991445  0.1672326369363352  0.5681636354354949
  0.1671678232544367  0.3340809659837046  0.3575680636562674
 -0.0000334588674230  0.5009408294440393  0.6430833943421249
  0.1667770542947153  0.3325045736528571  0.4999570105144527
  0.0003384865545146  0.4997234986090476  0.5004844712891818
 -0.0000218929353324  0.5005317834333144  0.3571442553568676
  0.1673947174215571  0.5010914672104447  0.4318206690616240
  0.1656975951337567  0.3341830824474999  0.6420742459215945
  0.1677577918297442  0.5001675680436083  0.5690073637815465
  0.5002385925606960  0.3333369498291933  0.3573771046803563
  0.3336759185737250  0.5004158513465298  0.6446185982844103
  0.4996202709561552  0.3331581007089683  0.5003861689872480
  0.3331364011114210  0.4995087160130945  0.5005573572272591
  0.3338681991691009  0.5004595263693885  0.3562894212385352
  0.5000079637898499  0.5005972923614480  0.4322332258557124
  0.5001990432304455  0.3331106827087806  0.6421712968115255
  0.4999908593178982  0.5006504482689280  0.5691473430761881
  0.8326951368117473  0.3335021389495125  0.3570190351625133
  0.6664358088155315  0.5004094863328714  0.6448148447372264
  0.8336314884452011  0.3331603480571278  0.4998756069862828
  0.6666007320805503  0.4997018753799333  0.5005939215296735
  0.6662446423241266  0.5004496979267830  0.3561182654282606
  0.8326761436406660  0.5011344039426128  0.4319407365917928
  0.8341388714560478  0.3335818235728547  0.6426084020532541
  0.8323591753020663  0.4998609934447816  0.5688827640479721
  0.1672641020522277  0.6670262654800615  0.3560173585681928
 -0.0000439675621129  0.8322180354121385  0.6433643816777835
  0.1668272693915180  0.6666194320890230  0.5006681825250755
  0.0003182289510659  0.8333663807449145  0.5008305251848740
 -0.0000019193730696  0.8328273568018271  0.3574582747084691
  0.1670349661499351  0.8326993421644372  0.4321535315083237
  0.1664934822906271  0.6665475510702180  0.6437115215173369
  0.1671851326869015  0.8326340406247429  0.5691618210436317
  0.5001170503982217  0.6670840403290915  0.3571802511094032
  0.3334544886831889  0.8325988920108034  0.6444555401501812
  0.4998858693588923  0.6660708183389469  0.5008310103881460
  0.3325560377893313  0.8335201941048281  0.5009568081055213
  0.3337951756476652  0.8330100234112349  0.3575522804245719
  0.4998658269378344  0.8329759502368762  0.4339224788705033
  0.5000977677333244  0.6662594909705725  0.6448902021244624
  0.5000107019947064  0.8318235090593844  0.5680710919027493
  0.8327199351208393  0.6670589224725963  0.3559983826919839
  0.6666338837714192  0.8325953106370383  0.6446991146797642
  0.8333466827387371  0.6665909077031843  0.5007411970638528
  0.6671229348626156  0.8332940255883008  0.5009223146308911
  0.6662910055817559  0.8330730355905400  0.3574524960874549
  0.8330804796291847  0.8326952482205062  0.4322905948012425
  0.8335324313279164  0.6665285792625421  0.6436085320069572
  0.8328300678842295  0.8328529667209547  0.5690357776413248
  0.5001940752972611  0.6685214714762744  0.7579642877310429
 
  0.00000000E+00  0.00000000E+00  0.00000000E+00
  0.00000000E+00  0.00000000E+00  0.00000000E+00
  0.00000000E+00  0.00000000E+00  0.00000000E+00
  0.00000000E+00  0.00000000E+00  0.00000000E+00
  0.00000000E+00  0.00000000E+00  0.00000000E+00
  0.00000000E+00  0.00000000E+00  0.00000000E+00
  0.00000000E+00  0.00000000E+00  0.00000000E+00
  0.00000000E+00  0.00000000E+00  0.00000000E+00
  0.00000000E+00  0.00000000E+00  0.00000000E+00
  0.00000000E+00  0.00000000E+00  0.00000000E+00
  0.00000000E+00  0.00000000E+00  0.00000000E+00
  0.00000000E+00  0.00000000E+00  0.00000000E+00
  0.00000000E+00  0.00000000E+00  0.00000000E+00
  0.00000000E+00  0.00000000E+00  0.00000000E+00
  0.00000000E+00  0.00000000E+00  0.00000000E+00
  0.00000000E+00  0.00000000E+00  0.00000000E+00
  0.00000000E+00  0.00000000E+00  0.00000000E+00
  0.00000000E+00  0.00000000E+00  0.00000000E+00
  0.00000000E+00  0.00000000E+00  0.00000000E+00
  0.00000000E+00  0.00000000E+00  0.00000000E+00
  0.00000000E+00  0.00000000E+00  0.00000000E+00
  0.00000000E+00  0.00000000E+00  0.00000000E+00
  0.00000000E+00  0.00000000E+00  0.00000000E+00
  0.00000000E+00  0.00000000E+00  0.00000000E+00
  0.00000000E+00  0.00000000E+00  0.00000000E+00
  0.00000000E+00  0.00000000E+00  0.00000000E+00
  0.00000000E+00  0.00000000E+00  0.00000000E+00
  0.00000000E+00  0.00000000E+00  0.00000000E+00
  0.00000000E+00  0.00000000E+00  0.00000000E+00
  0.00000000E+00  0.00000000E+00  0.00000000E+00
  0.00000000E+00  0.00000000E+00  0.00000000E+00
  0.00000000E+00  0.00000000E+00  0.00000000E+00
  0.00000000E+00  0.00000000E+00  0.00000000E+00
  0.00000000E+00  0.00000000E+00  0.00000000E+00
  0.00000000E+00  0.00000000E+00  0.00000000E+00
  0.00000000E+00  0.00000000E+00  0.00000000E+00
  0.00000000E+00  0.00000000E+00  0.00000000E+00
  0.00000000E+00  0.00000000E+00  0.00000000E+00
  0.00000000E+00  0.00000000E+00  0.00000000E+00
  0.00000000E+00  0.00000000E+00  0.00000000E+00
  0.00000000E+00  0.00000000E+00  0.00000000E+00
  0.00000000E+00  0.00000000E+00  0.00000000E+00
  0.00000000E+00  0.00000000E+00  0.00000000E+00
  0.00000000E+00  0.00000000E+00  0.00000000E+00
  0.00000000E+00  0.00000000E+00  0.00000000E+00
  0.00000000E+00  0.00000000E+00  0.00000000E+00
  0.00000000E+00  0.00000000E+00  0.00000000E+00
  0.00000000E+00  0.00000000E+00  0.00000000E+00
  0.00000000E+00  0.00000000E+00  0.00000000E+00
  0.00000000E+00  0.00000000E+00  0.00000000E+00
  0.00000000E+00  0.00000000E+00  0.00000000E+00
  0.00000000E+00  0.00000000E+00  0.00000000E+00
  0.00000000E+00  0.00000000E+00  0.00000000E+00
  0.00000000E+00  0.00000000E+00  0.00000000E+00
  0.00000000E+00  0.00000000E+00  0.00000000E+00
  0.00000000E+00  0.00000000E+00  0.00000000E+00
  0.00000000E+00  0.00000000E+00  0.00000000E+00
  0.00000000E+00  0.00000000E+00  0.00000000E+00
  0.00000000E+00  0.00000000E+00  0.00000000E+00
  0.00000000E+00  0.00000000E+00  0.00000000E+00
  0.00000000E+00  0.00000000E+00  0.00000000E+00
  0.00000000E+00  0.00000000E+00  0.00000000E+00
  0.00000000E+00  0.00000000E+00  0.00000000E+00
  0.00000000E+00  0.00000000E+00  0.00000000E+00
  0.00000000E+00  0.00000000E+00  0.00000000E+00
  0.00000000E+00  0.00000000E+00  0.00000000E+00
  0.00000000E+00  0.00000000E+00  0.00000000E+00
  0.00000000E+00  0.00000000E+00  0.00000000E+00
  0.00000000E+00  0.00000000E+00  0.00000000E+00
  0.00000000E+00  0.00000000E+00  0.00000000E+00
  0.00000000E+00  0.00000000E+00  0.00000000E+00
  0.00000000E+00  0.00000000E+00  0.00000000E+00
  0.00000000E+00  0.00000000E+00  0.00000000E+00
  0.00000000E+00  0.00000000E+00  0.00000000E+00
  0.00000000E+00  0.00000000E+00  0.00000000E+00
  0.00000000E+00  0.00000000E+00  0.00000000E+00
  0.00000000E+00  0.00000000E+00  0.00000000E+00
  0.00000000E+00  0.00000000E+00  0.00000000E+00
  0.00000000E+00  0.00000000E+00  0.00000000E+00
  0.00000000E+00  0.00000000E+00  0.00000000E+00
  0.00000000E+00  0.00000000E+00  0.00000000E+00
  0.00000000E+00  0.00000000E+00  0.00000000E+00
  0.00000000E+00  0.00000000E+00  0.00000000E+00
  0.00000000E+00  0.00000000E+00  0.00000000E+00
  0.00000000E+00  0.00000000E+00  0.00000000E+00
  0.00000000E+00  0.00000000E+00  0.00000000E+00
  0.00000000E+00  0.00000000E+00  0.00000000E+00
  0.00000000E+00  0.00000000E+00  0.00000000E+00
  0.00000000E+00  0.00000000E+00  0.00000000E+00
  0.00000000E+00  0.00000000E+00  0.00000000E+00
  0.00000000E+00  0.00000000E+00  0.00000000E+00
  0.00000000E+00  0.00000000E+00  0.00000000E+00
  0.00000000E+00  0.00000000E+00  0.00000000E+00
  0.00000000E+00  0.00000000E+00  0.00000000E+00
  0.00000000E+00  0.00000000E+00  0.00000000E+00
  0.00000000E+00  0.00000000E+00  0.00000000E+00
  0.00000000E+00  0.00000000E+00  0.00000000E+00
  0.00000000E+00  0.00000000E+00  0.00000000E+00
  0.00000000E+00  0.00000000E+00  0.00000000E+00
  0.00000000E+00  0.00000000E+00  0.00000000E+00
  0.00000000E+00  0.00000000E+00  0.00000000E+00
  0.00000000E+00  0.00000000E+00  0.00000000E+00
  0.00000000E+00  0.00000000E+00  0.00000000E+00
  0.00000000E+00  0.00000000E+00  0.00000000E+00
  0.00000000E+00  0.00000000E+00  0.00000000E+00
  0.00000000E+00  0.00000000E+00  0.00000000E+00
  0.00000000E+00  0.00000000E+00  0.00000000E+00
  0.00000000E+00  0.00000000E+00  0.00000000E+00
  0.00000000E+00  0.00000000E+00  0.00000000E+00
  0.00000000E+00  0.00000000E+00  0.00000000E+00
  0.00000000E+00  0.00000000E+00  0.00000000E+00
  0.00000000E+00  0.00000000E+00  0.00000000E+00
  0.00000000E+00  0.00000000E+00  0.00000000E+00
  0.00000000E+00  0.00000000E+00  0.00000000E+00
  0.00000000E+00  0.00000000E+00  0.00000000E+00
  0.00000000E+00  0.00000000E+00  0.00000000E+00
  0.00000000E+00  0.00000000E+00  0.00000000E+00
  0.00000000E+00  0.00000000E+00  0.00000000E+00
  0.00000000E+00  0.00000000E+00  0.00000000E+00
  0.00000000E+00  0.00000000E+00  0.00000000E+00
  0.00000000E+00  0.00000000E+00  0.00000000E+00
  0.00000000E+00  0.00000000E+00  0.00000000E+00
  0.00000000E+00  0.00000000E+00  0.00000000E+00
  0.00000000E+00  0.00000000E+00  0.00000000E+00
  0.00000000E+00  0.00000000E+00  0.00000000E+00
  0.00000000E+00  0.00000000E+00  0.00000000E+00
  0.00000000E+00  0.00000000E+00  0.00000000E+00
  0.00000000E+00  0.00000000E+00  0.00000000E+00
  0.00000000E+00  0.00000000E+00  0.00000000E+00
  0.00000000E+00  0.00000000E+00  0.00000000E+00
  0.00000000E+00  0.00000000E+00  0.00000000E+00
  0.00000000E+00  0.00000000E+00  0.00000000E+00
  0.00000000E+00  0.00000000E+00  0.00000000E+00
  0.00000000E+00  0.00000000E+00  0.00000000E+00
  0.00000000E+00  0.00000000E+00  0.00000000E+00
  0.00000000E+00  0.00000000E+00  0.00000000E+00
  0.00000000E+00  0.00000000E+00  0.00000000E+00
  0.00000000E+00  0.00000000E+00  0.00000000E+00
  0.00000000E+00  0.00000000E+00  0.00000000E+00
  0.00000000E+00  0.00000000E+00  0.00000000E+00
  0.00000000E+00  0.00000000E+00  0.00000000E+00
  0.00000000E+00  0.00000000E+00  0.00000000E+00
  0.00000000E+00  0.00000000E+00  0.00000000E+00
  0.00000000E+00  0.00000000E+00  0.00000000E+00
  0.00000000E+00  0.00000000E+00  0.00000000E+00
  0.00000000E+00  0.00000000E+00  0.00000000E+00
  0.00000000E+00  0.00000000E+00  0.00000000E+00
  0.00000000E+00  0.00000000E+00  0.00000000E+00
  0.00000000E+00  0.00000000E+00  0.00000000E+00
  0.00000000E+00  0.00000000E+00  0.00000000E+00
  0.00000000E+00  0.00000000E+00  0.00000000E+00
  0.00000000E+00  0.00000000E+00  0.00000000E+00
  0.00000000E+00  0.00000000E+00  0.00000000E+00
  0.00000000E+00  0.00000000E+00  0.00000000E+00
