CONTCAR\(15)                            
   1.00000000000000     
    11.7923002242999999    0.0000000000000000    0.0000000000000000
     0.0000000000000000   21.3097991942999982    0.0000000000000000
     0.0000000000000000    0.0000000000000000   18.7763004303000010
   V    Ag   P    S    O    H 
     8     8    16    48     2     1
Direct
  0.1174861645781731  0.4639210119697734  0.5057856646593992
  0.3680281827975065  0.0382916934407404  0.5013848246064002
  0.6115615646966459  0.4620725055398361  0.5055949388549144
  0.8659138855566193  0.0393205921768686  0.5001809114290781
  0.1358279901392717  0.9637770174636173  0.4979900696561351
  0.3795487319690674  0.5382066620040765  0.5057045269984674
  0.6342059007058607  0.9640866715669818  0.4981522365465931
  0.8836093697626152  0.5396828116880997  0.5042238576370826
  0.3680573727440009  0.2147057685357824  0.5054758969743561
  0.1168608473623014  0.2865956531781353  0.5068618079646746
  0.8689478224743132  0.2149805926239420  0.5101633665087594
  0.6196641694322732  0.2870965584641188  0.5090903477963916
  0.4101980049126154  0.7228089319241461  0.4891285570782443
  0.1466486994673937  0.7835512732280210  0.5072216869535929
  0.8766236153177360  0.7072084874946071  0.4966458113287049
  0.6477968618511741  0.7834466461066200  0.4713864979000478
  0.1168382883085594  0.1258104595262255  0.5625015371248115
  0.3645302773444368  0.3755012745200385  0.5652068532613259
  0.3715715294803415  0.3758460269214965  0.4459541244976212
  0.1236792437140084  0.1272219542375038  0.4435195772178235
  0.6161271511376448  0.1250139173173161  0.5639602454482233
  0.8651068144852423  0.3751584987985886  0.5663835734400058
  0.8719879385154896  0.3751543849807404  0.4475319586057973
  0.6234269843779883  0.1276424012067831  0.4448415569284151
  0.1253672022703877  0.6249210870895354  0.5672119429186535
  0.3785020491069113  0.8757766301179236  0.5582482520793502
  0.3846274836370482  0.8764510737957165  0.4392461299708824
  0.1321573771091000  0.6265561928638537  0.4480762009643398
  0.6253463909200190  0.6288960259336280  0.5838092623720469
  0.8783426454716969  0.8750367304786792  0.5514961488509726
  0.8885275637021116  0.8786686077048398  0.4325381538967473
  0.6317217936778418  0.6246127000928968  0.4525385859135246
  0.4541924083535546  0.4609651672332092  0.5871420667365589
  0.2965890920100555  0.3011962712235398  0.4057762636564676
  0.4491351773766153  0.1138822870370961  0.5875067390638467
  0.2915922733355155  0.1173965699149623  0.4197455658177222
  0.0491822131130034  0.2026689389328873  0.4051087485343401
  0.1977776861249788  0.3855283538395609  0.5896095463169895
  0.0396788904876267  0.3850412590122997  0.4235466408592037
  0.2865072207493658  0.4614918120351091  0.4267488671458459
  0.0383133353046225  0.0425044510493009  0.4233344403349775
  0.2075419310570374  0.0404882971072147  0.5815886008289837
  0.1904413464191335  0.2000212575526053  0.6050678632977768
  0.4394701750033007  0.3009514349078216  0.6060762816477662
  0.9561085376951786  0.4598958714688782  0.5857541943531971
  0.7979621364610017  0.2995611980532413  0.4085540711770724
  0.9501371392849147  0.1142072245757407  0.5871770818649334
  0.7911763453100821  0.1199445080806271  0.4205578130114228
  0.5478651014933394  0.2031718953996119  0.4070327329834208
  0.6978736938202196  0.3860710880375900  0.5908647984647544
  0.5392568801830797  0.3847745315267941  0.4220317245503504
  0.7860990170713233  0.4598814052772568  0.4294831589824163
  0.5382893362409006  0.0425714787130547  0.4232049735065134
  0.7077769348858350  0.0395895136834814  0.5820198590036360
  0.6887002952389759  0.1987463009526080  0.6079870378799158
  0.9384764037485914  0.3007190068991141  0.6086755166331201
  0.4639742211869339  0.9607661714819227  0.5776822803889011
  0.3076066639048096  0.8018706080640691  0.3990058426433397
  0.4480052592575562  0.6233292539587532  0.5717712140847060
  0.2961445352215329  0.6161512446550752  0.4197714896140303
  0.0553914402662368  0.7028312286070630  0.4102557669085959
  0.2091541132912411  0.8863234565138185  0.5803182661113194
  0.0548317884353106  0.8916838571799192  0.4097912512345088
  0.2962461053477488  0.9618961330876231  0.4178025597913211
  0.0429814962412709  0.5417237380296489  0.4243336114645978
  0.2105950842977493  0.5390591021680677  0.5846193699432026
  0.1972848810466719  0.6987415988235357  0.6098211294733523
  0.4492823716920369  0.8004934241304575  0.5985619303752761
  0.9627757158215349  0.9603647521810126  0.5734680487202480
  0.8198270096511324  0.8061567313414859  0.3839605524958323
  0.9566396417598788  0.6125835321841375  0.5903807782995872
  0.7978099978970504  0.6089021644057987  0.4195085331218960
  0.5652295577158850  0.6929275058869010  0.3916909542637789
  0.7104179673069594  0.8823350619327780  0.5751551118784798
  0.5509879542713950  0.8869568135079564  0.4132010479736735
  0.7930509616691930  0.9639234124406840  0.4167218889208806
  0.5401844689571702  0.5399424804544094  0.4266484263904755
  0.7120598696837651  0.5392115123460759  0.5754902991211166
  0.7054482449415512  0.7128867359116505  0.5853366755229356
  0.9545385877190563  0.8001087767557392  0.5901908014668986
  0.6269662910148449  0.6283707830268220  0.6746029552858159
  0.5664562575600965  0.5728065212309899  0.7032707930101600
  0.6318460200467034  0.5462220471888795  0.7155489294603984
 
  0.00000000E+00  0.00000000E+00  0.00000000E+00
  0.00000000E+00  0.00000000E+00  0.00000000E+00
  0.00000000E+00  0.00000000E+00  0.00000000E+00
  0.00000000E+00  0.00000000E+00  0.00000000E+00
  0.00000000E+00  0.00000000E+00  0.00000000E+00
  0.00000000E+00  0.00000000E+00  0.00000000E+00
  0.00000000E+00  0.00000000E+00  0.00000000E+00
  0.00000000E+00  0.00000000E+00  0.00000000E+00
  0.00000000E+00  0.00000000E+00  0.00000000E+00
  0.00000000E+00  0.00000000E+00  0.00000000E+00
  0.00000000E+00  0.00000000E+00  0.00000000E+00
  0.00000000E+00  0.00000000E+00  0.00000000E+00
  0.00000000E+00  0.00000000E+00  0.00000000E+00
  0.00000000E+00  0.00000000E+00  0.00000000E+00
  0.00000000E+00  0.00000000E+00  0.00000000E+00
  0.00000000E+00  0.00000000E+00  0.00000000E+00
  0.00000000E+00  0.00000000E+00  0.00000000E+00
  0.00000000E+00  0.00000000E+00  0.00000000E+00
  0.00000000E+00  0.00000000E+00  0.00000000E+00
  0.00000000E+00  0.00000000E+00  0.00000000E+00
  0.00000000E+00  0.00000000E+00  0.00000000E+00
  0.00000000E+00  0.00000000E+00  0.00000000E+00
  0.00000000E+00  0.00000000E+00  0.00000000E+00
  0.00000000E+00  0.00000000E+00  0.00000000E+00
  0.00000000E+00  0.00000000E+00  0.00000000E+00
  0.00000000E+00  0.00000000E+00  0.00000000E+00
  0.00000000E+00  0.00000000E+00  0.00000000E+00
  0.00000000E+00  0.00000000E+00  0.00000000E+00
  0.00000000E+00  0.00000000E+00  0.00000000E+00
  0.00000000E+00  0.00000000E+00  0.00000000E+00
  0.00000000E+00  0.00000000E+00  0.00000000E+00
  0.00000000E+00  0.00000000E+00  0.00000000E+00
  0.00000000E+00  0.00000000E+00  0.00000000E+00
  0.00000000E+00  0.00000000E+00  0.00000000E+00
  0.00000000E+00  0.00000000E+00  0.00000000E+00
  0.00000000E+00  0.00000000E+00  0.00000000E+00
  0.00000000E+00  0.00000000E+00  0.00000000E+00
  0.00000000E+00  0.00000000E+00  0.00000000E+00
  0.00000000E+00  0.00000000E+00  0.00000000E+00
  0.00000000E+00  0.00000000E+00  0.00000000E+00
  0.00000000E+00  0.00000000E+00  0.00000000E+00
  0.00000000E+00  0.00000000E+00  0.00000000E+00
  0.00000000E+00  0.00000000E+00  0.00000000E+00
  0.00000000E+00  0.00000000E+00  0.00000000E+00
  0.00000000E+00  0.00000000E+00  0.00000000E+00
  0.00000000E+00  0.00000000E+00  0.00000000E+00
  0.00000000E+00  0.00000000E+00  0.00000000E+00
  0.00000000E+00  0.00000000E+00  0.00000000E+00
  0.00000000E+00  0.00000000E+00  0.00000000E+00
  0.00000000E+00  0.00000000E+00  0.00000000E+00
  0.00000000E+00  0.00000000E+00  0.00000000E+00
  0.00000000E+00  0.00000000E+00  0.00000000E+00
  0.00000000E+00  0.00000000E+00  0.00000000E+00
  0.00000000E+00  0.00000000E+00  0.00000000E+00
  0.00000000E+00  0.00000000E+00  0.00000000E+00
  0.00000000E+00  0.00000000E+00  0.00000000E+00
  0.00000000E+00  0.00000000E+00  0.00000000E+00
  0.00000000E+00  0.00000000E+00  0.00000000E+00
  0.00000000E+00  0.00000000E+00  0.00000000E+00
  0.00000000E+00  0.00000000E+00  0.00000000E+00
  0.00000000E+00  0.00000000E+00  0.00000000E+00
  0.00000000E+00  0.00000000E+00  0.00000000E+00
  0.00000000E+00  0.00000000E+00  0.00000000E+00
  0.00000000E+00  0.00000000E+00  0.00000000E+00
  0.00000000E+00  0.00000000E+00  0.00000000E+00
  0.00000000E+00  0.00000000E+00  0.00000000E+00
  0.00000000E+00  0.00000000E+00  0.00000000E+00
  0.00000000E+00  0.00000000E+00  0.00000000E+00
  0.00000000E+00  0.00000000E+00  0.00000000E+00
  0.00000000E+00  0.00000000E+00  0.00000000E+00
  0.00000000E+00  0.00000000E+00  0.00000000E+00
  0.00000000E+00  0.00000000E+00  0.00000000E+00
  0.00000000E+00  0.00000000E+00  0.00000000E+00
  0.00000000E+00  0.00000000E+00  0.00000000E+00
  0.00000000E+00  0.00000000E+00  0.00000000E+00
  0.00000000E+00  0.00000000E+00  0.00000000E+00
  0.00000000E+00  0.00000000E+00  0.00000000E+00
  0.00000000E+00  0.00000000E+00  0.00000000E+00
  0.00000000E+00  0.00000000E+00  0.00000000E+00
  0.00000000E+00  0.00000000E+00  0.00000000E+00
  0.00000000E+00  0.00000000E+00  0.00000000E+00
  0.00000000E+00  0.00000000E+00  0.00000000E+00
  0.00000000E+00  0.00000000E+00  0.00000000E+00
