CONTCAR\(6)                             
   1.00000000000000     
    11.2666997910000006    0.0000000000000000    0.0000000000000000
     0.0000000000000000   10.8214998245000000    0.0000000000000000
     0.0000000000000000    0.0000000000000000   21.2649002074999984
   Zr   Se   O 
    12    36     1
Direct
  0.0801035864230125  0.3607767252126016  0.4304552292364190
  0.2453825622044227  0.1098028098008846  0.5728093266469398
  0.4114493139449483  0.3612874605203667  0.4308596033480989
  0.5759450202500085  0.1096460299024397  0.5756474110429138
  0.7474972859711692  0.3614181018352569  0.4321143626401033
  0.9118496241999779  0.1109190938147094  0.5723620754999931
  0.0806933166406550  0.8610516598706262  0.4306741634964195
  0.2577736556034323  0.6100071840997139  0.5738523436443014
  0.4124287201574444  0.8611411871878614  0.4307738476350641
  0.5898211731635101  0.6144888045434442  0.5690278836559398
  0.7472705690653121  0.8620168329065030  0.4316532583169070
  0.9208807950566772  0.6118205892759553  0.5705869751747108
  0.2459797714609827  0.2500243998882178  0.3534479538271162
  0.0784157823879628  0.2199711851054723  0.6496908133870253
  0.2465095826363167  0.4706882499046317  0.3533653667958500
  0.0768222306895063  0.9996179166060344  0.6489694081650086
  0.2435853691428343  0.3600830527622887  0.5242542502630694
  0.0791482828977054  0.1108721428692512  0.4780040321112097
  0.5799738892976964  0.2503186914397439  0.3559142435883582
  0.4094142016258466  0.2190163534014395  0.6524045768188886
  0.5803556738304196  0.4709173218859488  0.3553750927294270
  0.4068158334524990  0.9964150056967467  0.6510302275014012
  0.5758206700795750  0.3597018672032367  0.5279337814760137
  0.4128114013821197  0.1110482741147846  0.4789184100271453
  0.9111535126850369  0.2501613042728235  0.3547701386912779
  0.7453278442456976  0.2208152264837703  0.6506001504989928
  0.9120788393225308  0.4706341740173316  0.3540546646332586
  0.7450345157408546  0.0006568702270945  0.6507162090794292
  0.9136476625966073  0.3606907387742051  0.5255289807450577
  0.7430075103523622  0.1117897009204896  0.4796925868702097
  0.2471651041039757  0.7515781026058354  0.3533621141199174
  0.0873062892750636  0.7197248352530526  0.6492092926741259
  0.2463837323216420  0.9721267433618895  0.3537088050369373
  0.0841572386119221  0.4998546925299004  0.6478382938772201
  0.2455368891417829  0.8600576756278852  0.5246003879077852
  0.0864196221308222  0.6108528909300166  0.4776904685395762
  0.5809301817987408  0.7514936221980482  0.3549731172462134
  0.4281478697659409  0.7374202307294654  0.6427904945460795
  0.5800201875417471  0.9720073635383393  0.3546000972852859
  0.4360268917862737  0.4718234924697148  0.6314629029972516
  0.5780643743470907  0.8626943370002891  0.5266071442486425
  0.4174705470211055  0.6115444903750529  0.4754566355325824
  0.9126616601250001  0.7515174812127892  0.3543152805508171
  0.7561066965141812  0.7219258828424421  0.6482095056970033
  0.9123776557881204  0.9719112317770577  0.3542483884848955
  0.7553452402816151  0.5024844886692416  0.6472971892311821
  0.9140792094830139  0.8619329543235142  0.5252566755167110
  0.7538643960174027  0.6115434659681734  0.4760899108999672
  0.3410974264373766  0.5970466990433763  0.6735256820612525
 
  0.00000000E+00  0.00000000E+00  0.00000000E+00
  0.00000000E+00  0.00000000E+00  0.00000000E+00
  0.00000000E+00  0.00000000E+00  0.00000000E+00
  0.00000000E+00  0.00000000E+00  0.00000000E+00
  0.00000000E+00  0.00000000E+00  0.00000000E+00
  0.00000000E+00  0.00000000E+00  0.00000000E+00
  0.00000000E+00  0.00000000E+00  0.00000000E+00
  0.00000000E+00  0.00000000E+00  0.00000000E+00
  0.00000000E+00  0.00000000E+00  0.00000000E+00
  0.00000000E+00  0.00000000E+00  0.00000000E+00
  0.00000000E+00  0.00000000E+00  0.00000000E+00
  0.00000000E+00  0.00000000E+00  0.00000000E+00
  0.00000000E+00  0.00000000E+00  0.00000000E+00
  0.00000000E+00  0.00000000E+00  0.00000000E+00
  0.00000000E+00  0.00000000E+00  0.00000000E+00
  0.00000000E+00  0.00000000E+00  0.00000000E+00
  0.00000000E+00  0.00000000E+00  0.00000000E+00
  0.00000000E+00  0.00000000E+00  0.00000000E+00
  0.00000000E+00  0.00000000E+00  0.00000000E+00
  0.00000000E+00  0.00000000E+00  0.00000000E+00
  0.00000000E+00  0.00000000E+00  0.00000000E+00
  0.00000000E+00  0.00000000E+00  0.00000000E+00
  0.00000000E+00  0.00000000E+00  0.00000000E+00
  0.00000000E+00  0.00000000E+00  0.00000000E+00
  0.00000000E+00  0.00000000E+00  0.00000000E+00
  0.00000000E+00  0.00000000E+00  0.00000000E+00
  0.00000000E+00  0.00000000E+00  0.00000000E+00
  0.00000000E+00  0.00000000E+00  0.00000000E+00
  0.00000000E+00  0.00000000E+00  0.00000000E+00
  0.00000000E+00  0.00000000E+00  0.00000000E+00
  0.00000000E+00  0.00000000E+00  0.00000000E+00
  0.00000000E+00  0.00000000E+00  0.00000000E+00
  0.00000000E+00  0.00000000E+00  0.00000000E+00
  0.00000000E+00  0.00000000E+00  0.00000000E+00
  0.00000000E+00  0.00000000E+00  0.00000000E+00
  0.00000000E+00  0.00000000E+00  0.00000000E+00
  0.00000000E+00  0.00000000E+00  0.00000000E+00
  0.00000000E+00  0.00000000E+00  0.00000000E+00
  0.00000000E+00  0.00000000E+00  0.00000000E+00
  0.00000000E+00  0.00000000E+00  0.00000000E+00
  0.00000000E+00  0.00000000E+00  0.00000000E+00
  0.00000000E+00  0.00000000E+00  0.00000000E+00
  0.00000000E+00  0.00000000E+00  0.00000000E+00
  0.00000000E+00  0.00000000E+00  0.00000000E+00
  0.00000000E+00  0.00000000E+00  0.00000000E+00
  0.00000000E+00  0.00000000E+00  0.00000000E+00
  0.00000000E+00  0.00000000E+00  0.00000000E+00
  0.00000000E+00  0.00000000E+00  0.00000000E+00
  0.00000000E+00  0.00000000E+00  0.00000000E+00
