CONTCAR\(2)                             
   1.00000000000000     
    13.8427000045999993    0.0000000000000000    0.0000000000000000
    -6.9212999344000004   11.9880431408000003    0.0000000000000000
     0.0000000000000000    0.0000000000000000   18.3542995453000017
   Ta   Se   O 
    16    32     1
Direct
  0.0031800386346763  0.9945880026316322  0.5008446418819901
  0.2520762445736335  0.9985285804257132  0.5008916862082007
  0.4962913448010038  0.9949645706141634  0.5009280760290903
  0.7518151276966467  0.9986090371385404  0.5009456061646319
  0.0008060700912063  0.2484777870051391  0.5016770359659710
  0.2555004902405850  0.2464366447377316  0.5008396960017096
  0.4962452501323451  0.2463876727499626  0.5009811219020652
  0.7524853284445264  0.2488230255232359  0.5016938774288124
  0.0008318588862581  0.4974216876114209  0.5015878917602926
  0.2515440565028779  0.4982123664824944  0.5010005336455635
  0.4940166665789805  0.4823259670282186  0.4996411368851355
  0.7519712814444297  0.4981084463303215  0.5011686429449199
  0.0033308450225332  0.7538182783145881  0.5009380397115107
  0.2554166467968990  0.7539891819091837  0.5008643248988227
  0.4939465120333423  0.7564230445224134  0.4996713718842923
  0.7677016460625247  0.7561951630161559  0.4995773460395697
  0.0849901568181922  0.1651035001625117  0.4111403733645294
  0.0854864517077043  0.1646237942582028  0.5911102540049131
  0.3342912736585504  0.1634219723519296  0.4072261810432358
  0.3340673832036126  0.1632019558771948  0.5943789132677447
  0.5848855916646402  0.1650999953816447  0.4110794098495062
  0.5842056032813145  0.1646365894662836  0.5913468264892853
  0.8350359769065695  0.1654778994089779  0.4096392483168440
  0.8345489122300186  0.1642055704948967  0.5933130567754754
  0.0844448535862279  0.4146788407256231  0.4098639776133113
  0.0856553985104704  0.4154147465797198  0.5931131101180115
  0.3313262287489739  0.4130062410498812  0.4080980272182361
  0.3336572041163674  0.4139982900699500  0.5930271387209767
  0.5869086493366948  0.4128889468869458  0.4080982865150680
  0.5856852458220029  0.4140411915626783  0.5932393437474859
  0.8350658152870423  0.4146223265770114  0.4096348089640085
  0.8347586139168623  0.4151097318984405  0.5933950372873762
  0.0850372789448675  0.6651404193187951  0.4111501636229817
  0.0854997597159074  0.6659047637442672  0.5911570103734701
  0.3312533190894169  0.6632731807545994  0.4080804697986324
  0.3335341913850724  0.6644796167089864  0.5930052318660869
  0.5849406367644069  0.6649602635367087  0.4200156293416926
  0.5851666863862870  0.6648862607632929  0.5799739453959399
  0.8370277412377769  0.6630942760216234  0.4079866622975093
  0.8359701198468893  0.6643981070198350  0.5932025695269832
  0.0867273575865057  0.9160162339065590  0.4074670318729832
  0.0868453295547951  0.9160176652212811  0.5941724848153959
  0.3342774529046402  0.9158507772371610  0.4072617505283415
  0.3342607055722430  0.9158350454819515  0.5943625676245444
  0.5866090839506359  0.9188003041747649  0.4080282426142685
  0.5856244402720445  0.9165545069080644  0.5930721353653431
  0.8367036317645169  0.9185548198618619  0.4079013573165362
  0.8358516728801942  0.9164096959454958  0.5930149204202543
  0.5857566844061264  0.6645923296018943  0.6716332555704629
 
  0.00000000E+00  0.00000000E+00  0.00000000E+00
  0.00000000E+00  0.00000000E+00  0.00000000E+00
  0.00000000E+00  0.00000000E+00  0.00000000E+00
  0.00000000E+00  0.00000000E+00  0.00000000E+00
  0.00000000E+00  0.00000000E+00  0.00000000E+00
  0.00000000E+00  0.00000000E+00  0.00000000E+00
  0.00000000E+00  0.00000000E+00  0.00000000E+00
  0.00000000E+00  0.00000000E+00  0.00000000E+00
  0.00000000E+00  0.00000000E+00  0.00000000E+00
  0.00000000E+00  0.00000000E+00  0.00000000E+00
  0.00000000E+00  0.00000000E+00  0.00000000E+00
  0.00000000E+00  0.00000000E+00  0.00000000E+00
  0.00000000E+00  0.00000000E+00  0.00000000E+00
  0.00000000E+00  0.00000000E+00  0.00000000E+00
  0.00000000E+00  0.00000000E+00  0.00000000E+00
  0.00000000E+00  0.00000000E+00  0.00000000E+00
  0.00000000E+00  0.00000000E+00  0.00000000E+00
  0.00000000E+00  0.00000000E+00  0.00000000E+00
  0.00000000E+00  0.00000000E+00  0.00000000E+00
  0.00000000E+00  0.00000000E+00  0.00000000E+00
  0.00000000E+00  0.00000000E+00  0.00000000E+00
  0.00000000E+00  0.00000000E+00  0.00000000E+00
  0.00000000E+00  0.00000000E+00  0.00000000E+00
  0.00000000E+00  0.00000000E+00  0.00000000E+00
  0.00000000E+00  0.00000000E+00  0.00000000E+00
  0.00000000E+00  0.00000000E+00  0.00000000E+00
  0.00000000E+00  0.00000000E+00  0.00000000E+00
  0.00000000E+00  0.00000000E+00  0.00000000E+00
  0.00000000E+00  0.00000000E+00  0.00000000E+00
  0.00000000E+00  0.00000000E+00  0.00000000E+00
  0.00000000E+00  0.00000000E+00  0.00000000E+00
  0.00000000E+00  0.00000000E+00  0.00000000E+00
  0.00000000E+00  0.00000000E+00  0.00000000E+00
  0.00000000E+00  0.00000000E+00  0.00000000E+00
  0.00000000E+00  0.00000000E+00  0.00000000E+00
  0.00000000E+00  0.00000000E+00  0.00000000E+00
  0.00000000E+00  0.00000000E+00  0.00000000E+00
  0.00000000E+00  0.00000000E+00  0.00000000E+00
  0.00000000E+00  0.00000000E+00  0.00000000E+00
  0.00000000E+00  0.00000000E+00  0.00000000E+00
  0.00000000E+00  0.00000000E+00  0.00000000E+00
  0.00000000E+00  0.00000000E+00  0.00000000E+00
  0.00000000E+00  0.00000000E+00  0.00000000E+00
  0.00000000E+00  0.00000000E+00  0.00000000E+00
  0.00000000E+00  0.00000000E+00  0.00000000E+00
  0.00000000E+00  0.00000000E+00  0.00000000E+00
  0.00000000E+00  0.00000000E+00  0.00000000E+00
  0.00000000E+00  0.00000000E+00  0.00000000E+00
  0.00000000E+00  0.00000000E+00  0.00000000E+00
