CONTCAR\(2)                             
   1.00000000000000     
    11.8035001755000000    0.0000000000000000    0.0000000000000000
    -5.9028060597999996   10.2219826981999997    0.0000000000000000
     0.0000000000000000    0.0000000000000000   24.2695999146000005
   Cr   Te   O 
    27    36     1
Direct
 -0.0029796427496809 -0.0016746032301661  0.4992411682103168
 -0.0001885881454811  0.3329214913696302  0.6337392511470831
  0.3329119627136933 -0.0000733044815348  0.3672679133005298
  0.3345345776811658 -0.0017413494273002  0.4992796570917942
  0.3304222500390573  0.3274273506282037  0.6317612314339944
  0.6664145603250961 -0.0003412754754076  0.3669888040113429
  0.6664285450144737 -0.0003316896248641  0.5002434454394464
  0.6663448444756900  0.3327686634995812  0.6337601008190556
  0.0000828541623604 -0.0001438385370575  0.3673013495134655
 -0.0006733280389287  0.3322634517419785  0.5007148570798570
 -0.0003509103138977  0.6658974538387192  0.6340728659045047
  0.3332998558101600  0.3334429785440587  0.3668794632972063
  0.3346797080841669  0.3362554125627736  0.4987212326761868
  0.3346662930581581  0.6629470185322819  0.6342385003238602
  0.6670296955492040  0.3335696046871099  0.3674652486438525
  0.6660944726364483  0.3320809452952276  0.5006904076481981
  0.6617394851336338  0.6628541355080754  0.6340645934177274
 -0.0002582212807993  0.3336018584532068  0.3674389573054686
  0.0004285238017710  0.6675199959281126  0.5021954064097598
  0.0095077597189724  0.0048916296151159  0.6317217908172625
  0.3332838277970626  0.6667160213647114  0.3668538622130338
  0.3323223509105599  0.6660787687337305  0.5002200675173559
  0.3285560344304747  0.0048027652610041  0.6316986506973925
  0.6666114340152155  0.6667035885582764  0.3668776322454776
  0.6670228197360274  0.6660457338984309  0.5002144593862353
  0.6669971265331708  0.0003005252731804  0.6292097887806924
  0.9997631309127466  0.6663010273015455  0.3675065118835419
  0.1104902298572664  0.2213112641194690  0.6929222288896966
  0.1106218080285379  0.2222647394926068  0.4348932836200644
  0.2219567739475985  0.1109438610571124  0.3079927942283117
  0.2225030936217784  0.1118129256910939  0.5606174160320142
  0.4440791291379361  0.2211755140602798  0.6929447575822055
  0.4448087057537283  0.2222430701952294  0.4348766926455822
  0.5554235166238429  0.1113144693220782  0.3082217737213367
  0.5529059758698791  0.1092301312318490  0.5660814061859671
  0.7757988063054015  0.2181238214517230  0.6915140953003827
  0.7774298595923761  0.2215784591076253  0.4355594047180732
  0.8889908638700772  0.1112565111260611  0.3081958242041233
  0.8897220956909265  0.1093303628469699  0.5659933208989234
  0.1113693544031745  0.5546620330090595  0.6929546287124937
  0.1104999758066712  0.5555837119976283  0.4358911035573395
  0.2215868879660430  0.4443341981543751  0.3080289122599121
  0.2219033336204846  0.4434934428382936  0.5653320866040089
  0.4394419300018793  0.5452323444960105  0.6926465756077131
  0.4449244746232729  0.5566961895623784  0.4343457008978081
  0.5559292442647487  0.4443352190411911  0.3080525379169476
  0.5548447514063618  0.4433683830363110  0.5652629491162643
  0.7766104090339392  0.5546382532361546  0.6928787336988378
  0.7782979271222669  0.5555223186662043  0.4359172968949157
  0.8888526770266897  0.4444741332591561  0.3080984195955383
  0.8883877295104492  0.4435250178553639  0.5658632504757926
  0.1109387648356423  0.8885762059247087  0.6937953804073149
  0.1102624778510699  0.8872273775628352  0.4356341842496237
  0.2216273146970736  0.7776636163329993  0.3080840959414525
  0.2260422909460159  0.7791859705683573  0.5679423432099318
  0.4631454952176917  0.8780622748773116  0.6981471973563881
  0.4444393817131608  0.8881825898100701  0.4346125541446146
  0.5555699847818604  0.7779194992808758  0.3074325192902027
  0.5541335029497382  0.7749786033264451  0.5643357505359911
  0.7488502176934905  0.8780290646933342  0.6979278285629219
  0.7769417896163474  0.8881632501662208  0.4346183697277304
  0.8892028499186418  0.7776186269541824  0.3080933424344037
  0.8867384616840360  0.7793279877778735  0.5678750484046656
  0.5862669439993785  0.8383311290519397  0.7446190141558584
 
  0.00000000E+00  0.00000000E+00  0.00000000E+00
  0.00000000E+00  0.00000000E+00  0.00000000E+00
  0.00000000E+00  0.00000000E+00  0.00000000E+00
  0.00000000E+00  0.00000000E+00  0.00000000E+00
  0.00000000E+00  0.00000000E+00  0.00000000E+00
  0.00000000E+00  0.00000000E+00  0.00000000E+00
  0.00000000E+00  0.00000000E+00  0.00000000E+00
  0.00000000E+00  0.00000000E+00  0.00000000E+00
  0.00000000E+00  0.00000000E+00  0.00000000E+00
  0.00000000E+00  0.00000000E+00  0.00000000E+00
  0.00000000E+00  0.00000000E+00  0.00000000E+00
  0.00000000E+00  0.00000000E+00  0.00000000E+00
  0.00000000E+00  0.00000000E+00  0.00000000E+00
  0.00000000E+00  0.00000000E+00  0.00000000E+00
  0.00000000E+00  0.00000000E+00  0.00000000E+00
  0.00000000E+00  0.00000000E+00  0.00000000E+00
  0.00000000E+00  0.00000000E+00  0.00000000E+00
  0.00000000E+00  0.00000000E+00  0.00000000E+00
  0.00000000E+00  0.00000000E+00  0.00000000E+00
  0.00000000E+00  0.00000000E+00  0.00000000E+00
  0.00000000E+00  0.00000000E+00  0.00000000E+00
  0.00000000E+00  0.00000000E+00  0.00000000E+00
  0.00000000E+00  0.00000000E+00  0.00000000E+00
  0.00000000E+00  0.00000000E+00  0.00000000E+00
  0.00000000E+00  0.00000000E+00  0.00000000E+00
  0.00000000E+00  0.00000000E+00  0.00000000E+00
  0.00000000E+00  0.00000000E+00  0.00000000E+00
  0.00000000E+00  0.00000000E+00  0.00000000E+00
  0.00000000E+00  0.00000000E+00  0.00000000E+00
  0.00000000E+00  0.00000000E+00  0.00000000E+00
  0.00000000E+00  0.00000000E+00  0.00000000E+00
  0.00000000E+00  0.00000000E+00  0.00000000E+00
  0.00000000E+00  0.00000000E+00  0.00000000E+00
  0.00000000E+00  0.00000000E+00  0.00000000E+00
  0.00000000E+00  0.00000000E+00  0.00000000E+00
  0.00000000E+00  0.00000000E+00  0.00000000E+00
  0.00000000E+00  0.00000000E+00  0.00000000E+00
  0.00000000E+00  0.00000000E+00  0.00000000E+00
  0.00000000E+00  0.00000000E+00  0.00000000E+00
  0.00000000E+00  0.00000000E+00  0.00000000E+00
  0.00000000E+00  0.00000000E+00  0.00000000E+00
  0.00000000E+00  0.00000000E+00  0.00000000E+00
  0.00000000E+00  0.00000000E+00  0.00000000E+00
  0.00000000E+00  0.00000000E+00  0.00000000E+00
  0.00000000E+00  0.00000000E+00  0.00000000E+00
  0.00000000E+00  0.00000000E+00  0.00000000E+00
  0.00000000E+00  0.00000000E+00  0.00000000E+00
  0.00000000E+00  0.00000000E+00  0.00000000E+00
  0.00000000E+00  0.00000000E+00  0.00000000E+00
  0.00000000E+00  0.00000000E+00  0.00000000E+00
  0.00000000E+00  0.00000000E+00  0.00000000E+00
  0.00000000E+00  0.00000000E+00  0.00000000E+00
  0.00000000E+00  0.00000000E+00  0.00000000E+00
  0.00000000E+00  0.00000000E+00  0.00000000E+00
  0.00000000E+00  0.00000000E+00  0.00000000E+00
  0.00000000E+00  0.00000000E+00  0.00000000E+00
  0.00000000E+00  0.00000000E+00  0.00000000E+00
  0.00000000E+00  0.00000000E+00  0.00000000E+00
  0.00000000E+00  0.00000000E+00  0.00000000E+00
  0.00000000E+00  0.00000000E+00  0.00000000E+00
  0.00000000E+00  0.00000000E+00  0.00000000E+00
  0.00000000E+00  0.00000000E+00  0.00000000E+00
  0.00000000E+00  0.00000000E+00  0.00000000E+00
  0.00000000E+00  0.00000000E+00  0.00000000E+00
