CONTCAR\(2)                             
   1.00000000000000     
    12.1478996276999993    0.0000000000000000    0.0000000000000000
     0.0000000000000000   12.1478996276999993    0.0000000000000000
     0.0000000000000000    0.0000000000000000   26.4330997467000017
   Sr   Sb   Se   F    O    H 
    18    18    36    18     1     1
Selective dynamics
Direct
  0.0029599881449229  0.1673254295490239  0.4448086600988006   F   F   F
  0.1694397527901756  0.0001072329928746  0.5555847136159784   F   F   F
  0.3356510891316944  0.1670342402224136  0.4444818333215963   F   F   F
  0.5023766428980565  0.0001707676266491  0.5555170829938518   F   F   F
  0.6685047120945455  0.1673558973402436  0.4447240948408151   F   F   F
  0.8358256193243250  0.0004635947353933  0.5555546469290675   F   F   F
  0.0024910576557673  0.5003390066016067  0.4443976900814590   F   F   F
  0.1716995610854042  0.3361103909032579  0.5564206006031895   F   F   F
  0.3355749809962632  0.5004435854825573  0.4446083102667373   F   F   F
  0.5001320348711431  0.3363353990863018  0.5562682705344599   F   F   F
  0.6690814711371047  0.5002402908110639  0.4442289746856929   F   F   F
  0.8359986372697321  0.3337755273237946  0.5553257769580000   F   F   F
  0.0028314217086773  0.8333136165576818  0.4447606696319966   F   F   F
  0.1718814230656989  0.6648525393155609  0.5564705536725825   F   F   F
  0.3356629184149398  0.8337518026334294  0.4444033028413941   F   F   F
  0.5000680660468788  0.6644452956957849  0.5561294031611155   F   F   F
  0.6686344340743133  0.8333026891216093  0.4446911041995492   F   F   F
  0.8358657304805988  0.6669107941460837  0.5552970967534208   F   F   F
  0.0043852066416150  0.1624859782281476  0.7025386928165958   F   F   F
  0.1720298784310330  0.0001331520934826  0.2974142112526508   F   F   F
  0.3339364158759679  0.1653021281525184  0.7026322727228234   F   F   F
  0.5054096304493072  0.0001883198460817  0.2974184850572001   F   F   F
  0.6645368924937713  0.1671178838525265  0.7021730923230649   F   F   F
  0.8387053591314881  0.0001886516489833  0.2975761792843841   F   F   F
  0.0021562809080677  0.4978300332546937  0.7022471855813919   F   F   F
  0.1719261545531410  0.3335257167816508  0.2973141834022428   F   F   F
  0.3346363306808939  0.4995428615195863  0.7135294677501633   F   F   F
  0.5053448197918584  0.3334830518855796  0.2973059926182202   F   F   F
  0.6710811575401578  0.4958746458351939  0.7027012520880334   F   F   F
  0.8387329627103313  0.3333039304519403  0.2973747540355944   F   F   F
  0.9974417683926191  0.8339874529514333  0.7025482342326370   F   F   F
  0.1719288005223802  0.6669142774900294  0.2973012779374855   F   F   F
  0.3372947390276124  0.8276455329536603  0.7032423163791464   F   F   F
  0.5054037743726880  0.6669055323723825  0.2972916312549501   F   F   F
  0.6667701094416643  0.8309295610200493  0.7022901152959236   F   F   F
  0.8387072584802127  0.6668701575895355  0.2973901142687723   F   F   F
  0.1691628542347061  0.0005427423143942  0.3935401348633434   F   F   F
  0.1750012162084786  0.0166176051732663  0.7210934468566563   F   F   F
  0.9861453463787200  0.1659032340115232  0.2795382919062348   F   F   F
  0.0036181598568845  0.1668246952257562  0.6064982041668472   F   F   F
  0.5028084570598921  0.0005034377937818  0.3935622764604503   F   F   F
  0.5074360390877786  0.0177421463386267  0.7208598849511603   F   F   F
  0.3194055326768179  0.1658476466093788  0.2796546054772833   F   F   F
  0.3358835612095206  0.1657086818724736  0.6066986393787701   F   F   F
  0.8361073405123918  0.0004409790835851  0.3937126397155382   F   F   F
  0.8476862784680250  0.0098733819458090  0.7207787075166863   F   F   F
  0.6528736676578575  0.1659360441281805  0.2796289727039394   F   F   F
  0.6685614265811139  0.1679016213846012  0.6062674635926442   F   F   F
  0.1692989697315426  0.3338552497762350  0.3933736026544281   F   F   F
  0.1712735384483679  0.3495797711744828  0.7218330841541984   F   F   F
  0.9861184193507171  0.4993114774805179  0.2796186520669011   F   F   F
  0.0016515020545569  0.5003871708409164  0.6063636381865436   F   F   F
  0.5025394756099359  0.3338336452722572  0.3933646081566522   F   F   F
  0.5163764361629575  0.3436604966644765  0.7216923153222581   F   F   F
  0.3193919150607130  0.4993058115938638  0.2795581722066203   F   F   F
  0.3360229207563776  0.5008459037630928  0.6075895917169447   F   F   F
  0.8361096020493051  0.3330852966565558  0.3935279749029803   F   F   F
  0.8421617552494638  0.3493385786199283  0.7207998485389169   F   F   F
  0.6528887551036036  0.4993045312248086  0.2796590608802063   F   F   F
  0.6710591474206993  0.5000118213019391  0.6066599763613567   F   F   F
  0.1692598655196491  0.6673470369465733  0.3933456666200712   F   F   F
  0.1816505106930109  0.6759423200814041  0.7212466133709512   F   F   F
  0.9861199227827342  0.8326473953785651  0.2795998241678888   F   F   F
  0.0023339784935388  0.8338584119971912  0.6066083837737963   F   F   F
  0.5026483705242342  0.6673282948180272  0.3933433804039268   F   F   F
  0.5079914325885611  0.6821761143780094  0.7218698277495008   F   F   F
  0.3194890607353855  0.8327608240325972  0.2795926176318844   F   F   F
  0.3366710084054958  0.8341847075878732  0.6071913343958997   F   F   F
  0.8360787844531927  0.6673154713790836  0.3935312715479853   F   F   F
  0.8396926543691308  0.6853408243101455  0.7210101086522229   F   F   F
  0.6528775208351902  0.8327643251133807  0.2795769530227403   F   F   F
  0.6690646725892861  0.8329675962425256  0.6063192896367156   F   F   F
  0.0024894013225492  0.0001744791773675  0.5001407782834519   F   F   F
  0.1693622509362598  0.1671754057916033  0.5003186456420607   F   F   F
  0.3358108862004343  0.0000789854656773  0.5000407539686762   F   F   F
  0.5019176728590793  0.1672135255031719  0.5002616016046630   F   F   F
  0.6691985286503837  0.0002796916808521  0.5001512020497287   F   F   F
  0.8356497937677645  0.1668762379456581  0.5001410395122221   F   F   F
  0.0029804623061693  0.3336868383784832  0.5002569605083735   F   F   F
  0.1682891803207625  0.5004287917254686  0.4992372653155499   F   F   F
  0.3357873306859531  0.3330203551591353  0.4992456207334541   F   F   F
  0.5031024100381671  0.5002659770046023  0.4990331764453160   F   F   F
  0.6689153522818145  0.3337550061240435  0.5001084724728884   F   F   F
  0.8357253086619636  0.5002524462803279  0.4997189610158088   F   F   F
  0.0029264853562196  0.6667947195899089  0.5002907099852507   F   F   F
  0.1691991437352982  0.8333876033412508  0.5004043320344778   F   F   F
  0.3357577120405963  0.6677190733482803  0.4990387128489289   F   F   F
  0.5021139518295854  0.8333775448978713  0.5001899547610265   F   F   F
  0.6689243955747699  0.6665268400688404  0.5001272183695349   F   F   F
  0.8355610436408369  0.8338179238856895  0.5000142562109104   F   F   F
  0.3522753890857899  0.5015459507321083  0.7904981967430089   T   T   T
  0.2807564521507686  0.5000406853110633  0.8068733259563489   T   T   T
 
  0.00000000E+00  0.00000000E+00  0.00000000E+00
  0.00000000E+00  0.00000000E+00  0.00000000E+00
  0.00000000E+00  0.00000000E+00  0.00000000E+00
  0.00000000E+00  0.00000000E+00  0.00000000E+00
  0.00000000E+00  0.00000000E+00  0.00000000E+00
  0.00000000E+00  0.00000000E+00  0.00000000E+00
  0.00000000E+00  0.00000000E+00  0.00000000E+00
  0.00000000E+00  0.00000000E+00  0.00000000E+00
  0.00000000E+00  0.00000000E+00  0.00000000E+00
  0.00000000E+00  0.00000000E+00  0.00000000E+00
  0.00000000E+00  0.00000000E+00  0.00000000E+00
  0.00000000E+00  0.00000000E+00  0.00000000E+00
  0.00000000E+00  0.00000000E+00  0.00000000E+00
  0.00000000E+00  0.00000000E+00  0.00000000E+00
  0.00000000E+00  0.00000000E+00  0.00000000E+00
  0.00000000E+00  0.00000000E+00  0.00000000E+00
  0.00000000E+00  0.00000000E+00  0.00000000E+00
  0.00000000E+00  0.00000000E+00  0.00000000E+00
  0.00000000E+00  0.00000000E+00  0.00000000E+00
  0.00000000E+00  0.00000000E+00  0.00000000E+00
  0.00000000E+00  0.00000000E+00  0.00000000E+00
  0.00000000E+00  0.00000000E+00  0.00000000E+00
  0.00000000E+00  0.00000000E+00  0.00000000E+00
  0.00000000E+00  0.00000000E+00  0.00000000E+00
  0.00000000E+00  0.00000000E+00  0.00000000E+00
  0.00000000E+00  0.00000000E+00  0.00000000E+00
  0.00000000E+00  0.00000000E+00  0.00000000E+00
  0.00000000E+00  0.00000000E+00  0.00000000E+00
  0.00000000E+00  0.00000000E+00  0.00000000E+00
  0.00000000E+00  0.00000000E+00  0.00000000E+00
  0.00000000E+00  0.00000000E+00  0.00000000E+00
  0.00000000E+00  0.00000000E+00  0.00000000E+00
  0.00000000E+00  0.00000000E+00  0.00000000E+00
  0.00000000E+00  0.00000000E+00  0.00000000E+00
  0.00000000E+00  0.00000000E+00  0.00000000E+00
  0.00000000E+00  0.00000000E+00  0.00000000E+00
  0.00000000E+00  0.00000000E+00  0.00000000E+00
  0.00000000E+00  0.00000000E+00  0.00000000E+00
  0.00000000E+00  0.00000000E+00  0.00000000E+00
  0.00000000E+00  0.00000000E+00  0.00000000E+00
  0.00000000E+00  0.00000000E+00  0.00000000E+00
  0.00000000E+00  0.00000000E+00  0.00000000E+00
  0.00000000E+00  0.00000000E+00  0.00000000E+00
  0.00000000E+00  0.00000000E+00  0.00000000E+00
  0.00000000E+00  0.00000000E+00  0.00000000E+00
  0.00000000E+00  0.00000000E+00  0.00000000E+00
  0.00000000E+00  0.00000000E+00  0.00000000E+00
  0.00000000E+00  0.00000000E+00  0.00000000E+00
  0.00000000E+00  0.00000000E+00  0.00000000E+00
  0.00000000E+00  0.00000000E+00  0.00000000E+00
  0.00000000E+00  0.00000000E+00  0.00000000E+00
  0.00000000E+00  0.00000000E+00  0.00000000E+00
  0.00000000E+00  0.00000000E+00  0.00000000E+00
  0.00000000E+00  0.00000000E+00  0.00000000E+00
  0.00000000E+00  0.00000000E+00  0.00000000E+00
  0.00000000E+00  0.00000000E+00  0.00000000E+00
  0.00000000E+00  0.00000000E+00  0.00000000E+00
  0.00000000E+00  0.00000000E+00  0.00000000E+00
  0.00000000E+00  0.00000000E+00  0.00000000E+00
  0.00000000E+00  0.00000000E+00  0.00000000E+00
  0.00000000E+00  0.00000000E+00  0.00000000E+00
  0.00000000E+00  0.00000000E+00  0.00000000E+00
  0.00000000E+00  0.00000000E+00  0.00000000E+00
  0.00000000E+00  0.00000000E+00  0.00000000E+00
  0.00000000E+00  0.00000000E+00  0.00000000E+00
  0.00000000E+00  0.00000000E+00  0.00000000E+00
  0.00000000E+00  0.00000000E+00  0.00000000E+00
  0.00000000E+00  0.00000000E+00  0.00000000E+00
  0.00000000E+00  0.00000000E+00  0.00000000E+00
  0.00000000E+00  0.00000000E+00  0.00000000E+00
  0.00000000E+00  0.00000000E+00  0.00000000E+00
  0.00000000E+00  0.00000000E+00  0.00000000E+00
  0.00000000E+00  0.00000000E+00  0.00000000E+00
  0.00000000E+00  0.00000000E+00  0.00000000E+00
  0.00000000E+00  0.00000000E+00  0.00000000E+00
  0.00000000E+00  0.00000000E+00  0.00000000E+00
  0.00000000E+00  0.00000000E+00  0.00000000E+00
  0.00000000E+00  0.00000000E+00  0.00000000E+00
  0.00000000E+00  0.00000000E+00  0.00000000E+00
  0.00000000E+00  0.00000000E+00  0.00000000E+00
  0.00000000E+00  0.00000000E+00  0.00000000E+00
  0.00000000E+00  0.00000000E+00  0.00000000E+00
  0.00000000E+00  0.00000000E+00  0.00000000E+00
  0.00000000E+00  0.00000000E+00  0.00000000E+00
  0.00000000E+00  0.00000000E+00  0.00000000E+00
  0.00000000E+00  0.00000000E+00  0.00000000E+00
  0.00000000E+00  0.00000000E+00  0.00000000E+00
  0.00000000E+00  0.00000000E+00  0.00000000E+00
  0.00000000E+00  0.00000000E+00  0.00000000E+00
  0.00000000E+00  0.00000000E+00  0.00000000E+00
  0.00000000E+00  0.00000000E+00  0.00000000E+00
  0.00000000E+00  0.00000000E+00  0.00000000E+00
