CONTCAR                                 
   1.00000000000000     
    11.8599996566999994    0.0000000000000000    0.0000000000000000
     0.0000000000000000   16.8432006835999992    0.0000000000000000
     0.0000000000000000    0.0000000000000000   21.2530994415000016
   Y    C    I    O    H 
    24     6    30     2     1
Direct
  0.1662211793654631  0.0000226469634573  0.3877670559846709
  0.9994689689047452  0.0963536727639087  0.4992701437408478
  0.1775443499693750  0.4999053148689046  0.6189855979681815
  0.0008043060484030  0.4037125013737466  0.5036767407716419
  0.5002784298600264  0.0000179728397009  0.3879029141240354
  0.3330522539805312  0.0964152674941555  0.4993731380338648
  0.4827488921505739  0.4998759600530155  0.6254842902856119
  0.3330591824854018  0.4035632077931504  0.5001690402452009
  0.8329441302677165  0.9999941964813551  0.3881063825771678
  0.6668224560020293  0.0963704189807244  0.4994500933485573
  0.8340805928726353  0.4999459714495021  0.6167870637271109
  0.6641202642835519  0.4036069581277787  0.5040027150998145
  0.1643243741480037  0.4999850502506137  0.3916367665954832
  0.0008630777662809  0.5962579549317609  0.5037732074231039
  0.1652401737951104  0.9999137980204661  0.6107581752317244
  0.9994620865786551  0.9036041370519116  0.4992640180099943
  0.5005124456170270  0.5000301136538533  0.3919153050061879
  0.3330833011299038  0.5963587058843044  0.5002020559293086
  0.5013214999575950  0.9998652238816707  0.6108101165882420
  0.3330442972458983  0.9034919897655933  0.4992669334367382
  0.8330080908813061  0.5000661740900163  0.3930632916288024
  0.6640714628637651  0.5963391852512003  0.5040757633310362
  0.8331790658537347 -0.0000409700731152  0.6110192314666986
  0.6668442040341203  0.9035758889185763  0.4994130314453145
  0.1665275239768593 -0.0000352649247735  0.4992623165190480
  0.4997518492932538  0.9999478004403330  0.4993528379659987
  0.8331565304250157 -0.0000041130408586  0.4995825665670239
  0.1666152850176396  0.4999753298997007  0.5040585826923925
  0.4999831148338746  0.4999537389611498  0.5042878931847701
  0.8316921836414961  0.4999883893399020  0.5056785083198965
  0.9990581569897272  0.1299215622079974  0.3528173588496438
  0.9984396559166481  0.3701785659603454  0.3563272379971582
  0.9997769831074987  0.1306998802298387  0.6452185788868580
  0.1641510290678772  0.2481459328072474  0.4956937475085524
  0.0021413157703349  0.3707318549313245  0.6498376380419161
  0.3332789646250824  0.1297357065622686  0.3526040789992221
  0.3324705787819829  0.3715126449024304  0.3533224310724968
  0.3332590197718103  0.1277726348711432  0.6461640234184186
  0.5009331296202341  0.2489015495313015  0.4968367583957095
  0.3290306328136745  0.3510290422289121  0.6342934269939184
  0.6669020126213164  0.1303758188618580  0.3533361826250465
  0.6668166067018103  0.3702005332346192  0.3567851278063943
  0.6666418150646648  0.1306896153017268  0.6453649758724641
  0.8327545753759380  0.2505691436725046  0.5025250275352350
  0.6635932124046524  0.3713015507385621  0.6496672671050360
  0.9987056764851664  0.6298966789904274  0.3565512088418264
  0.9991167363666676  0.8700173700870520  0.3529666308933037
  0.0022099672375596  0.6291355828433128  0.6499178332171704
  0.1641958025943832  0.7517590295376075  0.4958983648481965
  0.9997705203209472  0.8692228975146205  0.6452157461771439
  0.3325516434620258  0.6285839822908106  0.3533609496924945
  0.3332508836579406  0.8704325424610307  0.3524169665452086
  0.3290178100390889  0.6487272932962911  0.6343232381345791
  0.5009257029154368  0.7510319724748759  0.4968377603717022
  0.3333207979804881  0.8719692825042998  0.6460348902715123
  0.6668427073165624  0.6298789402305601  0.3568421171587412
  0.6669659454996981  0.8696192931428202  0.3533407230048425
  0.6635756694463071  0.6284466030917436  0.6497574792559220
  0.8327882122019186  0.7493863559067521  0.5026616336762313
  0.6668124914854457  0.8690608469823377  0.6452841644268095
  0.2766637886448134  0.5002667991171517  0.7241534412238432
  0.4003550197811095  0.4998328845858175  0.7185348942249254
  0.2664875606812198  0.4983683574086785  0.7696722046790022
 
  0.00000000E+00  0.00000000E+00  0.00000000E+00
  0.00000000E+00  0.00000000E+00  0.00000000E+00
  0.00000000E+00  0.00000000E+00  0.00000000E+00
  0.00000000E+00  0.00000000E+00  0.00000000E+00
  0.00000000E+00  0.00000000E+00  0.00000000E+00
  0.00000000E+00  0.00000000E+00  0.00000000E+00
  0.00000000E+00  0.00000000E+00  0.00000000E+00
  0.00000000E+00  0.00000000E+00  0.00000000E+00
  0.00000000E+00  0.00000000E+00  0.00000000E+00
  0.00000000E+00  0.00000000E+00  0.00000000E+00
  0.00000000E+00  0.00000000E+00  0.00000000E+00
  0.00000000E+00  0.00000000E+00  0.00000000E+00
  0.00000000E+00  0.00000000E+00  0.00000000E+00
  0.00000000E+00  0.00000000E+00  0.00000000E+00
  0.00000000E+00  0.00000000E+00  0.00000000E+00
  0.00000000E+00  0.00000000E+00  0.00000000E+00
  0.00000000E+00  0.00000000E+00  0.00000000E+00
  0.00000000E+00  0.00000000E+00  0.00000000E+00
  0.00000000E+00  0.00000000E+00  0.00000000E+00
  0.00000000E+00  0.00000000E+00  0.00000000E+00
  0.00000000E+00  0.00000000E+00  0.00000000E+00
  0.00000000E+00  0.00000000E+00  0.00000000E+00
  0.00000000E+00  0.00000000E+00  0.00000000E+00
  0.00000000E+00  0.00000000E+00  0.00000000E+00
  0.00000000E+00  0.00000000E+00  0.00000000E+00
  0.00000000E+00  0.00000000E+00  0.00000000E+00
  0.00000000E+00  0.00000000E+00  0.00000000E+00
  0.00000000E+00  0.00000000E+00  0.00000000E+00
  0.00000000E+00  0.00000000E+00  0.00000000E+00
  0.00000000E+00  0.00000000E+00  0.00000000E+00
  0.00000000E+00  0.00000000E+00  0.00000000E+00
  0.00000000E+00  0.00000000E+00  0.00000000E+00
  0.00000000E+00  0.00000000E+00  0.00000000E+00
  0.00000000E+00  0.00000000E+00  0.00000000E+00
  0.00000000E+00  0.00000000E+00  0.00000000E+00
  0.00000000E+00  0.00000000E+00  0.00000000E+00
  0.00000000E+00  0.00000000E+00  0.00000000E+00
  0.00000000E+00  0.00000000E+00  0.00000000E+00
  0.00000000E+00  0.00000000E+00  0.00000000E+00
  0.00000000E+00  0.00000000E+00  0.00000000E+00
  0.00000000E+00  0.00000000E+00  0.00000000E+00
  0.00000000E+00  0.00000000E+00  0.00000000E+00
  0.00000000E+00  0.00000000E+00  0.00000000E+00
  0.00000000E+00  0.00000000E+00  0.00000000E+00
  0.00000000E+00  0.00000000E+00  0.00000000E+00
  0.00000000E+00  0.00000000E+00  0.00000000E+00
  0.00000000E+00  0.00000000E+00  0.00000000E+00
  0.00000000E+00  0.00000000E+00  0.00000000E+00
  0.00000000E+00  0.00000000E+00  0.00000000E+00
  0.00000000E+00  0.00000000E+00  0.00000000E+00
  0.00000000E+00  0.00000000E+00  0.00000000E+00
  0.00000000E+00  0.00000000E+00  0.00000000E+00
  0.00000000E+00  0.00000000E+00  0.00000000E+00
  0.00000000E+00  0.00000000E+00  0.00000000E+00
  0.00000000E+00  0.00000000E+00  0.00000000E+00
  0.00000000E+00  0.00000000E+00  0.00000000E+00
  0.00000000E+00  0.00000000E+00  0.00000000E+00
  0.00000000E+00  0.00000000E+00  0.00000000E+00
  0.00000000E+00  0.00000000E+00  0.00000000E+00
  0.00000000E+00  0.00000000E+00  0.00000000E+00
  0.00000000E+00  0.00000000E+00  0.00000000E+00
  0.00000000E+00  0.00000000E+00  0.00000000E+00
  0.00000000E+00  0.00000000E+00  0.00000000E+00
