CONTCAR\(4)                             
   1.00000000000000     
    12.1478996276999993    0.0000000000000000    0.0000000000000000
     0.0000000000000000   12.1478996276999993    0.0000000000000000
     0.0000000000000000    0.0000000000000000   26.4330997467000017
   Sr   Sb   Se   F    O 
    18    18    36    18     1
Direct
  0.9997691900017442  0.1627441665978516  0.4444100022796461
  0.1663131179406606  0.9964179217276581  0.5569121940444267
  0.3334274629163128  0.1626498900594722  0.4447151339270938
  0.4997317628101020  0.9965659176659983  0.5572291868615629
  0.6665048631677003  0.1630352927273964  0.4449264335733641
  0.8327846789065816  0.9968132421833322  0.5569192385929224
  0.9997610208324291  0.4976651606510441  0.4445791551267381
  0.1645921856107663  0.3279383029202295  0.5548186215376778
  0.3334442394537671  0.4974274192214700  0.4456999409595515
  0.4995439902642381  0.3284582465738281  0.5557126390978483
  0.6662210407995314  0.4975432547370621  0.4456154128463996
  0.8337944900515528  0.3296015239686166  0.5555061407424186
  0.9997961704841272  0.8304229700858170  0.4456294609261894
  0.1655021489965078  0.6635584298960736  0.5566982771267605
  0.3340403827749751  0.8296584395671609  0.4462660498776939
  0.4992055415956509  0.6603459751013578  0.5598562828727160
  0.6655743267461715  0.8296456623626486  0.4464708018881299
  0.8330094257402363  0.6635590704559705  0.5569478010664151
  0.0034011604189498  0.1693954379729189  0.7028973203704729
  0.1641352696858767  0.9978332414062480  0.2981695988577619
  0.3311202443859775  0.1670651183953066  0.7040860452435006
  0.4973422862523972  0.9977649901013687  0.2981884427943508
  0.6730035647241902  0.1699969668977823  0.7037219310830443
  0.8305989707843214  0.9976288189319704  0.2982753319955565
  0.0064043391545119  0.5015787975532779  0.7031514265267410
  0.1641840699361345  0.3312967787358707  0.2981743255785226
  0.3411697688367069  0.4972884535382441  0.6986773634650140
  0.4975835882129502  0.3313500538719421  0.2981933722489499
  0.6646481549864826  0.4960282428866718  0.7019896507281498
  0.8304940031135513  0.3314124468383127  0.2982461824983778
  0.9992939965630214  0.8276965041652347  0.7042659312846924
  0.1641445958916088  0.6648863336053662  0.2984128625006159
  0.3290932523827834  0.8492425019525062  0.7060167196006750
  0.4972902752975112  0.6646798005049668  0.2983896338844688
  0.6777907941127114  0.8412014282262327  0.7055892815992764
  0.8304767156708242  0.6647948529303809  0.2984576578511783
  0.1669986249787468  0.9959572471732642  0.3943639230679641
  0.1519101014273185  0.0108701011442257  0.7219527291234641
  0.0166334745916609  0.1637633964199310  0.2811238172132419
 -0.0003208484337674  0.1642051586700329  0.6066920240844837
  0.4998513878103393  0.9962141240902003  0.3944437642698748
  0.4829826577587489  0.0120720465025500  0.7238233973067288
  0.3501537613815305  0.1639172781820052  0.2805732916552760
  0.3325357059438685  0.1622872355491810  0.6077835242738751
  0.8324714147622475  0.9960105331318225  0.3944827090670341
  0.8277072076662181  0.0158172947989791  0.7210385759672148
  0.6834440571422543  0.1638063755086712  0.2807121434883196
  0.6674540297285328  0.1640690852749374  0.6076375438987355
  0.1669391606808401  0.3305016576294277  0.3942874688002305
  0.1563116632150418  0.3446794468193093  0.7209079078216901
  0.0167633663313507  0.4976325734587421  0.2811495104317802
  0.0001956305528385  0.4971081266573903  0.6070430511908058
  0.4997244759670081  0.3307032841109730  0.3943511324213790
  0.4875596455598196  0.3371191081830922  0.7200625405274000
  0.3502278177107857  0.4973488870292518  0.2804355123322430
  0.3271614941904509  0.4893574096729794  0.6034791540900071
  0.8326860135819963  0.3306011799951200  0.3943721323459131
  0.8167105386320264  0.3431377537905408  0.7217186415810486
  0.6832339541483957  0.4975589161445474  0.2806154102596211
  0.6692879708593813  0.4927119702352495  0.6061411233400161
  0.1668207741267507  0.6643670474150596  0.3946103763918932
  0.1531071077884514  0.6752486134159511  0.7212913473513674
  0.0167682995763076  0.8306855655902090  0.2804648239974958
  0.9989795233955251  0.8303458171748483  0.6078457028428934
  0.4995731638636638  0.6639930502005957  0.3946143797146309
  0.4913701956239802  0.7013125393021595  0.7351830541813227
  0.3501329941486554  0.8306735810714742  0.2802730338349250
  0.3353011359545730  0.8293048382477146  0.6105434855850479
  0.8323916370652030  0.6645005724322113  0.3946585832618125
  0.8212917121783712  0.6758255527886172  0.7211439765945661
  0.6833523399084366  0.8305375107309441  0.2802634444431028
  0.6646890266696928  0.8293714753047638  0.6097729216233591
  0.9995750628481261  0.9967340465910397  0.5011387471684178
  0.1663974732656728  0.1616977256997072  0.5000955415214707
  0.3331831107280360  0.9962952477622299  0.5015615289285499
  0.4999432091795716  0.1622430203688260  0.5007513717071705
  0.6660161818452924  0.9966832445725853  0.5015967803101621
  0.8332875183650869  0.1626206166572565  0.5004488260588630
  0.9990728933618412  0.3299583430704050  0.4995394778527939
  0.1657497493854395  0.4971746641766741  0.5001382352190377
  0.3327807296448784  0.3287059531689789  0.4997991010911764
  0.5000535751906168  0.4966402068872669  0.5011197760938951
  0.6664822380600706  0.3295419563262226  0.5002651304959511
  0.8335490379771954  0.4974547858094340  0.5006137070474265
  0.9994144710422024  0.6640463042972756  0.5008989607608316
  0.1669539534514664  0.8302477064155733  0.5015592759858831
  0.3333873875379037  0.6638992593839866  0.5022194661584557
  0.4997157444832737  0.8289184398431990  0.5028080681561389
  0.6654952808361597  0.6635301810302732  0.5022321113006859
  0.8326983175634161  0.8303536197047773  0.5014938012021265
  0.4782920342429520  0.6062869763697796  0.6816580941013386
 
  0.00000000E+00  0.00000000E+00  0.00000000E+00
  0.00000000E+00  0.00000000E+00  0.00000000E+00
  0.00000000E+00  0.00000000E+00  0.00000000E+00
  0.00000000E+00  0.00000000E+00  0.00000000E+00
  0.00000000E+00  0.00000000E+00  0.00000000E+00
  0.00000000E+00  0.00000000E+00  0.00000000E+00
  0.00000000E+00  0.00000000E+00  0.00000000E+00
  0.00000000E+00  0.00000000E+00  0.00000000E+00
  0.00000000E+00  0.00000000E+00  0.00000000E+00
  0.00000000E+00  0.00000000E+00  0.00000000E+00
  0.00000000E+00  0.00000000E+00  0.00000000E+00
  0.00000000E+00  0.00000000E+00  0.00000000E+00
  0.00000000E+00  0.00000000E+00  0.00000000E+00
  0.00000000E+00  0.00000000E+00  0.00000000E+00
  0.00000000E+00  0.00000000E+00  0.00000000E+00
  0.00000000E+00  0.00000000E+00  0.00000000E+00
  0.00000000E+00  0.00000000E+00  0.00000000E+00
  0.00000000E+00  0.00000000E+00  0.00000000E+00
  0.00000000E+00  0.00000000E+00  0.00000000E+00
  0.00000000E+00  0.00000000E+00  0.00000000E+00
  0.00000000E+00  0.00000000E+00  0.00000000E+00
  0.00000000E+00  0.00000000E+00  0.00000000E+00
  0.00000000E+00  0.00000000E+00  0.00000000E+00
  0.00000000E+00  0.00000000E+00  0.00000000E+00
  0.00000000E+00  0.00000000E+00  0.00000000E+00
  0.00000000E+00  0.00000000E+00  0.00000000E+00
  0.00000000E+00  0.00000000E+00  0.00000000E+00
  0.00000000E+00  0.00000000E+00  0.00000000E+00
  0.00000000E+00  0.00000000E+00  0.00000000E+00
  0.00000000E+00  0.00000000E+00  0.00000000E+00
  0.00000000E+00  0.00000000E+00  0.00000000E+00
  0.00000000E+00  0.00000000E+00  0.00000000E+00
  0.00000000E+00  0.00000000E+00  0.00000000E+00
  0.00000000E+00  0.00000000E+00  0.00000000E+00
  0.00000000E+00  0.00000000E+00  0.00000000E+00
  0.00000000E+00  0.00000000E+00  0.00000000E+00
  0.00000000E+00  0.00000000E+00  0.00000000E+00
  0.00000000E+00  0.00000000E+00  0.00000000E+00
  0.00000000E+00  0.00000000E+00  0.00000000E+00
  0.00000000E+00  0.00000000E+00  0.00000000E+00
  0.00000000E+00  0.00000000E+00  0.00000000E+00
  0.00000000E+00  0.00000000E+00  0.00000000E+00
  0.00000000E+00  0.00000000E+00  0.00000000E+00
  0.00000000E+00  0.00000000E+00  0.00000000E+00
  0.00000000E+00  0.00000000E+00  0.00000000E+00
  0.00000000E+00  0.00000000E+00  0.00000000E+00
  0.00000000E+00  0.00000000E+00  0.00000000E+00
  0.00000000E+00  0.00000000E+00  0.00000000E+00
  0.00000000E+00  0.00000000E+00  0.00000000E+00
  0.00000000E+00  0.00000000E+00  0.00000000E+00
  0.00000000E+00  0.00000000E+00  0.00000000E+00
  0.00000000E+00  0.00000000E+00  0.00000000E+00
  0.00000000E+00  0.00000000E+00  0.00000000E+00
  0.00000000E+00  0.00000000E+00  0.00000000E+00
  0.00000000E+00  0.00000000E+00  0.00000000E+00
  0.00000000E+00  0.00000000E+00  0.00000000E+00
  0.00000000E+00  0.00000000E+00  0.00000000E+00
  0.00000000E+00  0.00000000E+00  0.00000000E+00
  0.00000000E+00  0.00000000E+00  0.00000000E+00
  0.00000000E+00  0.00000000E+00  0.00000000E+00
  0.00000000E+00  0.00000000E+00  0.00000000E+00
  0.00000000E+00  0.00000000E+00  0.00000000E+00
  0.00000000E+00  0.00000000E+00  0.00000000E+00
  0.00000000E+00  0.00000000E+00  0.00000000E+00
  0.00000000E+00  0.00000000E+00  0.00000000E+00
  0.00000000E+00  0.00000000E+00  0.00000000E+00
  0.00000000E+00  0.00000000E+00  0.00000000E+00
  0.00000000E+00  0.00000000E+00  0.00000000E+00
  0.00000000E+00  0.00000000E+00  0.00000000E+00
  0.00000000E+00  0.00000000E+00  0.00000000E+00
  0.00000000E+00  0.00000000E+00  0.00000000E+00
  0.00000000E+00  0.00000000E+00  0.00000000E+00
  0.00000000E+00  0.00000000E+00  0.00000000E+00
  0.00000000E+00  0.00000000E+00  0.00000000E+00
  0.00000000E+00  0.00000000E+00  0.00000000E+00
  0.00000000E+00  0.00000000E+00  0.00000000E+00
  0.00000000E+00  0.00000000E+00  0.00000000E+00
  0.00000000E+00  0.00000000E+00  0.00000000E+00
  0.00000000E+00  0.00000000E+00  0.00000000E+00
  0.00000000E+00  0.00000000E+00  0.00000000E+00
  0.00000000E+00  0.00000000E+00  0.00000000E+00
  0.00000000E+00  0.00000000E+00  0.00000000E+00
  0.00000000E+00  0.00000000E+00  0.00000000E+00
  0.00000000E+00  0.00000000E+00  0.00000000E+00
  0.00000000E+00  0.00000000E+00  0.00000000E+00
  0.00000000E+00  0.00000000E+00  0.00000000E+00
  0.00000000E+00  0.00000000E+00  0.00000000E+00
  0.00000000E+00  0.00000000E+00  0.00000000E+00
  0.00000000E+00  0.00000000E+00  0.00000000E+00
  0.00000000E+00  0.00000000E+00  0.00000000E+00
  0.00000000E+00  0.00000000E+00  0.00000000E+00
