CONTCAR\(6)                             
   1.00000000000000     
    12.5545997620000005    0.0000000000000000    0.0000000000000000
     6.2753582318000003   10.8725691462000000    0.0000000000000000
     0.0000000000000000    0.0000000000000000   18.6128997803000011
   Ta   Se   O 
    13    26     1
Direct
  0.0023079659161881  0.9990395372821940  0.4992784319617499
  0.7917093945580548  0.9283519381191521  0.4988621755332905
  0.2148112772947998  0.0714358159493106  0.5002487141711967
  0.2803457199377873  0.7911012205973006  0.5006440900072359
  0.7229311412785427  0.1998276774138120  0.5017297278105273
  0.0710850536645042  0.7218281225914288  0.4983842910669864
  0.9341185204671372  0.2842053676815313  0.5014928512591988
  0.8529622200966952  0.6463377747931248  0.5019887440234267
  0.1499787017335752  0.3643362942646032  0.4974620410962208
  0.5130950173447683  0.8544828532009776  0.5010968906600495
  0.4915018590165312  0.1498550800450183  0.5001532144344155
  0.3454150920469419  0.4935628788863488  0.5000167415203224
  0.6254516346736511  0.5205613389213987  0.5258323149346118
  0.9528779047711162  0.8766245307617985  0.5977126157452656
  0.0489656712665503  0.1281039644457780  0.4032718923179429
  0.1725941846422008  0.9545339400653433  0.5981081059648118
  0.8302966721580881  0.0498737683778871  0.3999232277594398
  0.8772958554225423  0.1745845500279536  0.5981514178383249
  0.1268962232443633  0.8287910180858213  0.3998306389001631
  0.2469925733434722  0.6544127778776466  0.5960753339236496
  0.7381388713172278  0.3636097323506754  0.4215442708224682
  0.1035022153447410  0.2529364106599729  0.5945595662471868
  0.9012117241597121  0.7523554999367001  0.4023428702665008
  0.6533682557984191  0.0900049535009096  0.5964379781009063
  0.3525034744304253  0.9002534755701762  0.4061648772296311
  0.0351499921919269  0.5672105807485861  0.5827534461810920
  0.9672816127286978  0.4391857317629219  0.4166663449874689
  0.4044150281277350  0.0342641128694544  0.5848050475579416
  0.5965462449988098  0.9700271772813090  0.4162160476071278
  0.5502434055421437  0.3783454738829906  0.5887010897494319
  0.4417738242364595  0.5920834241275228  0.4267068681841305
  0.7127764705966856  0.8074698332365009  0.5865131685828198
  0.2914718724019796  0.1974939947781244  0.4155802853297013
  0.4748380687312666  0.7286726342999538  0.5912497552994190
  0.5156448864470274  0.2927385756628059  0.4188014681067011
  0.8179848042579306  0.4933855991122450  0.5844612171417002
  0.1926971217810556  0.5193467457488181  0.4101944450203805
  0.3308605361865537  0.3338078643919903  0.5840643432883277
  0.6664295620229905  0.6597946292865007  0.4284061447489945
  0.6244190728206961  0.4657530174034235  0.6239671356192459
 
  0.00000000E+00  0.00000000E+00  0.00000000E+00
  0.00000000E+00  0.00000000E+00  0.00000000E+00
  0.00000000E+00  0.00000000E+00  0.00000000E+00
  0.00000000E+00  0.00000000E+00  0.00000000E+00
  0.00000000E+00  0.00000000E+00  0.00000000E+00
  0.00000000E+00  0.00000000E+00  0.00000000E+00
  0.00000000E+00  0.00000000E+00  0.00000000E+00
  0.00000000E+00  0.00000000E+00  0.00000000E+00
  0.00000000E+00  0.00000000E+00  0.00000000E+00
  0.00000000E+00  0.00000000E+00  0.00000000E+00
  0.00000000E+00  0.00000000E+00  0.00000000E+00
  0.00000000E+00  0.00000000E+00  0.00000000E+00
  0.00000000E+00  0.00000000E+00  0.00000000E+00
  0.00000000E+00  0.00000000E+00  0.00000000E+00
  0.00000000E+00  0.00000000E+00  0.00000000E+00
  0.00000000E+00  0.00000000E+00  0.00000000E+00
  0.00000000E+00  0.00000000E+00  0.00000000E+00
  0.00000000E+00  0.00000000E+00  0.00000000E+00
  0.00000000E+00  0.00000000E+00  0.00000000E+00
  0.00000000E+00  0.00000000E+00  0.00000000E+00
  0.00000000E+00  0.00000000E+00  0.00000000E+00
  0.00000000E+00  0.00000000E+00  0.00000000E+00
  0.00000000E+00  0.00000000E+00  0.00000000E+00
  0.00000000E+00  0.00000000E+00  0.00000000E+00
  0.00000000E+00  0.00000000E+00  0.00000000E+00
  0.00000000E+00  0.00000000E+00  0.00000000E+00
  0.00000000E+00  0.00000000E+00  0.00000000E+00
  0.00000000E+00  0.00000000E+00  0.00000000E+00
  0.00000000E+00  0.00000000E+00  0.00000000E+00
  0.00000000E+00  0.00000000E+00  0.00000000E+00
  0.00000000E+00  0.00000000E+00  0.00000000E+00
  0.00000000E+00  0.00000000E+00  0.00000000E+00
  0.00000000E+00  0.00000000E+00  0.00000000E+00
  0.00000000E+00  0.00000000E+00  0.00000000E+00
  0.00000000E+00  0.00000000E+00  0.00000000E+00
  0.00000000E+00  0.00000000E+00  0.00000000E+00
  0.00000000E+00  0.00000000E+00  0.00000000E+00
  0.00000000E+00  0.00000000E+00  0.00000000E+00
  0.00000000E+00  0.00000000E+00  0.00000000E+00
  0.00000000E+00  0.00000000E+00  0.00000000E+00
