CONTCAR\(3)                             
   1.00000000000000     
    13.5844001769999991    0.0000000000000000    0.0000000000000000
    -6.7922094263000004   11.7645458840000003    0.0000000000000000
     0.0000000000000000    0.0000000000000000   17.8367004394999995
   Ti   S    O    H 
    16    32     1     1
Direct
 -0.0063887996686435 -0.0012242848081670  0.5029531692548157
  0.2411174878524864 -0.0072804087752867  0.5003633911573153
  0.4901723739146022 -0.0036897365352245  0.5000574119412606
  0.7400023931966663  0.9955318884286237  0.5017335982630303
 -0.0081359789769076  0.2455216842250149  0.5045578332129245
  0.2400973090633756  0.2412852186308183  0.5027428856195526
  0.4918849893242702  0.2456184796812476  0.4989956738629141
  0.7424111671580464  0.2415236593230533  0.5022365301416020
 -0.0052649925362708  0.4964652780742822  0.5022489278896487
  0.2381683840718152  0.4935920402770813  0.5034337187794928
  0.4770820760470433  0.4896875612754544  0.4975398697997999
  0.7484969899007452  0.4868446888379754  0.4952528833062557
 -0.0071285307965320  0.7456490109650743  0.4973511157924838
  0.2437985948631640  0.7456602623649973  0.5003867372936223
  0.4917691403509706  0.7463956190009038  0.4980835403946495
  0.7485212433136460  0.7566891897658017  0.4925505146146364
  0.0742838643336576  0.1617473051534747  0.4224566098156409
  0.1586082081255159  0.0774006655382695  0.5826100740912090
  0.3238840737729439  0.1622607921323825  0.4206760650006114
  0.4089808522463844  0.0784541051923424  0.5804123340802119
  0.5754901251727322  0.1613108681075356  0.4202529237003036
  0.6571160512440860  0.0775621921108302  0.5819816017435084
  0.8263350301841307  0.1628977839537429  0.4218401347987292
  0.9077600452823514  0.0769061672445659  0.5829174834277514
  0.0751830176773870  0.4099570265693120  0.4223312681300000
  0.1583584370092478  0.3286889745784369  0.5834063515160228
  0.3181970900663279  0.4087686342851790  0.4195817662250362
  0.4083445045490814  0.3285107753758445  0.5805491679086821
  0.5760563088652830  0.4140311898531751  0.4222192518244302
  0.6593472551140332  0.3301550200605562  0.5797460972275955
  0.8293819602311409  0.4083308964088010  0.4182915190527479
  0.9077333645805369  0.3279560214801560  0.5828215274845790
  0.0754136311885986  0.6599359228774290  0.4201100092833360
  0.1589048619795549  0.5801390542451563  0.5827177520844607
  0.3233257029534276  0.6609246495048288  0.4205405644166950
  0.4093443122025548  0.5783903953820867  0.5806817644458111
  0.5737290849202240  0.6595332204902281  0.4201898891464714
  0.6599537887881483  0.5801733221536606  0.5695022300503431
  0.8246350309449589  0.6611769832452175  0.4192901858298297
  0.9075412396541391  0.5779097659332552  0.5795367963113031
  0.0757442754639562  0.9130421506421015  0.4203870483174847
  0.1573591600185479  0.8283988361819086  0.5800725578590604
  0.3249604028562016  0.9119744011962952  0.4196107883165610
  0.4085306076755645  0.8279065265665629  0.5801549608571774
  0.5760899338197603  0.9126821419451298  0.4199033027729954
  0.6590559092977890  0.8273005787898673  0.5786933021803849
  0.8292544393786292  0.9198696609713930  0.4178535918091182
  0.9050660375233848  0.8252279156489569  0.5793455239646244
  0.6648535280531511  0.5891354357266091  0.6618400038605891
  0.7374231417481205  0.6576295437230654  0.6744277201426760
 
  0.00000000E+00  0.00000000E+00  0.00000000E+00
  0.00000000E+00  0.00000000E+00  0.00000000E+00
  0.00000000E+00  0.00000000E+00  0.00000000E+00
  0.00000000E+00  0.00000000E+00  0.00000000E+00
  0.00000000E+00  0.00000000E+00  0.00000000E+00
  0.00000000E+00  0.00000000E+00  0.00000000E+00
  0.00000000E+00  0.00000000E+00  0.00000000E+00
  0.00000000E+00  0.00000000E+00  0.00000000E+00
  0.00000000E+00  0.00000000E+00  0.00000000E+00
  0.00000000E+00  0.00000000E+00  0.00000000E+00
  0.00000000E+00  0.00000000E+00  0.00000000E+00
  0.00000000E+00  0.00000000E+00  0.00000000E+00
  0.00000000E+00  0.00000000E+00  0.00000000E+00
  0.00000000E+00  0.00000000E+00  0.00000000E+00
  0.00000000E+00  0.00000000E+00  0.00000000E+00
  0.00000000E+00  0.00000000E+00  0.00000000E+00
  0.00000000E+00  0.00000000E+00  0.00000000E+00
  0.00000000E+00  0.00000000E+00  0.00000000E+00
  0.00000000E+00  0.00000000E+00  0.00000000E+00
  0.00000000E+00  0.00000000E+00  0.00000000E+00
  0.00000000E+00  0.00000000E+00  0.00000000E+00
  0.00000000E+00  0.00000000E+00  0.00000000E+00
  0.00000000E+00  0.00000000E+00  0.00000000E+00
  0.00000000E+00  0.00000000E+00  0.00000000E+00
  0.00000000E+00  0.00000000E+00  0.00000000E+00
  0.00000000E+00  0.00000000E+00  0.00000000E+00
  0.00000000E+00  0.00000000E+00  0.00000000E+00
  0.00000000E+00  0.00000000E+00  0.00000000E+00
  0.00000000E+00  0.00000000E+00  0.00000000E+00
  0.00000000E+00  0.00000000E+00  0.00000000E+00
  0.00000000E+00  0.00000000E+00  0.00000000E+00
  0.00000000E+00  0.00000000E+00  0.00000000E+00
  0.00000000E+00  0.00000000E+00  0.00000000E+00
  0.00000000E+00  0.00000000E+00  0.00000000E+00
  0.00000000E+00  0.00000000E+00  0.00000000E+00
  0.00000000E+00  0.00000000E+00  0.00000000E+00
  0.00000000E+00  0.00000000E+00  0.00000000E+00
  0.00000000E+00  0.00000000E+00  0.00000000E+00
  0.00000000E+00  0.00000000E+00  0.00000000E+00
  0.00000000E+00  0.00000000E+00  0.00000000E+00
  0.00000000E+00  0.00000000E+00  0.00000000E+00
  0.00000000E+00  0.00000000E+00  0.00000000E+00
  0.00000000E+00  0.00000000E+00  0.00000000E+00
  0.00000000E+00  0.00000000E+00  0.00000000E+00
  0.00000000E+00  0.00000000E+00  0.00000000E+00
  0.00000000E+00  0.00000000E+00  0.00000000E+00
  0.00000000E+00  0.00000000E+00  0.00000000E+00
  0.00000000E+00  0.00000000E+00  0.00000000E+00
  0.00000000E+00  0.00000000E+00  0.00000000E+00
  0.00000000E+00  0.00000000E+00  0.00000000E+00
