CONTCAR\(3)                             
   1.00000000000000     
    13.2834997176999998    0.0000000000000000    0.0000000000000000
     0.0000000000000000   13.2517004013000008    0.0000000000000000
     0.0000000000000000    0.0000000000000000   28.4766006470000015
   Bi   I    O 
    48    12     1
Selective dynamics
Direct
  0.0000000000000000  0.9385715437310367  0.5984653792630610   F   F   F
  0.0000000000000000  0.0571694624845307  0.3993781614722707   F   F   F
  0.1630321649179578  0.7951740331511843  0.3618363545986369   F   F   F
  0.1659184072832431  0.3372235691825196  0.4410264882604267   F   F   F
  0.0000000000000000  0.1628655278494051  0.5697897345273759   F   F   F
  0.0000000000000000  0.6099518426403492  0.4879721409856259   F   F   F
  0.0000000000000000  0.8395067802109537  0.4374353120353405   F   F   F
  0.0000000000000000  0.5196576644452691  0.3127375668462875   F   F   F
  0.1659504956116180  0.1123092124567791  0.4694122505168181   F   F   F
  0.1663565846958548  0.6646618969937634  0.5575061054109369   F   F   F
  0.0000000000000000  0.3838713390686124  0.5120443977701257   F   F   F
  0.1694330096529200  0.8904543457852228  0.5301173732920290   F   F   F
  0.1647617092003202  0.2086647026941151  0.6413581488195419   F   F   F
  0.1652297334105555  0.4318087448119883  0.6150091880309105   F   F   F
  0.1643030968725583  0.5704530584197869  0.3853667975843749   F   F   F
  0.0000000000000000  0.4814600622306386  0.6870590318111027   F   F   F
  0.3520622847584960  0.9429062772639583  0.6062844159561180   F   F   F
  0.3334845525101073  0.0568600982736811  0.4009867346572946   F   F   F
  0.5000000000000000  0.7943734146662891  0.3595360601104360   F   F   F
  0.5000000000000000  0.3337866997904726  0.4416991855852430   F   F   F
  0.3276887106409134  0.1636351617114329  0.5694495593929432   F   F   F
  0.3322518714671929  0.6092140096035408  0.4880879255354955   F   F   F
  0.3323313147405074  0.8340143959669106  0.4320123147511765   F   F   F
  0.3322382166463100  0.5228518507888893  0.3143276189258017   F   F   F
  0.5000000000000000  0.1078967765514918  0.4712372090926849   F   F   F
  0.5000000000000000  0.6503643113312592  0.5590409241604775   F   F   F
  0.3332707180463785  0.3816915613811602  0.5117394915236773   F   F   F
  0.5000000000000000  0.8805299158651252  0.5298281801138742   F   F   F
  0.5000000000000000  0.1774750302044126  0.6428441023215541   F   F   F
  0.5000000000000000  0.4311092252499478  0.6118539572617010   F   F   F
  0.5000000000000000  0.5711270178917900  0.3856390578818392   F   F   F
  0.3363166841590441  0.4821776611186266  0.6843856151425314   F   F   F
  0.6479377512415070  0.9429062772639583  0.6062844159561180   F   F   F
  0.6665154834898956  0.0568600982736811  0.4009867346572946   F   F   F
  0.8369677810820448  0.7951740331511843  0.3618363545986369   F   F   F
  0.8340815387167595  0.3372235691825196  0.4410264882604267   F   F   F
  0.6723113253590896  0.1636351617114329  0.5694495593929432   F   F   F
  0.6677481645328101  0.6092140096035408  0.4880879255354955   F   F   F
  0.6676687212594956  0.8340143959669106  0.4320123147511765   F   F   F
  0.6677618193536929  0.5228518507888893  0.3143276189258017   F   F   F
  0.8340494503883846  0.1123092124567791  0.4694122505168181   F   F   F
  0.8336433613041478  0.6646618969937634  0.5575061054109369   F   F   F
  0.6667293179536244  0.3816915613811602  0.5117394915236773   F   F   F
  0.8305669363470827  0.8904543457852228  0.5301173732920290   F   F   F
  0.8352382367996825  0.2086647026941151  0.6413581488195419   F   F   F
  0.8347702125894472  0.4318087448119883  0.6150091880309105   F   F   F
  0.8356968491274444  0.5704530584197869  0.3853667975843749   F   F   F
  0.6636833518409588  0.4821776611186266  0.6843856151425314   F   F   F
  0.0000000000000000  0.2699297435230719  0.7330660279322458   F   F   F
  0.0000000000000000  0.7295600424071296  0.2672975222629859   F   F   F
  0.0000000000000000  0.2922172817008217  0.3429088833915941   F   F   F
  0.0000000000000000  0.7074447972768567  0.6572027302933989   F   F   F
  0.3384703044337982  0.2724946642574935  0.7311646800832889   F   F   F
  0.3318393497475753  0.7368586668134185  0.2697001667293506   F   F   F
  0.3330972333934170  0.2957178957141622  0.3426271410343986   F   F   F
  0.3315544179866734  0.7114451665956594  0.6572002808372517   F   F   F
  0.6615297315661977  0.2724946642574935  0.7311646800832889   F   F   F
  0.6681606862524276  0.7368586668134185  0.2697001667293506   F   F   F
  0.6669028026065860  0.2957178957141622  0.3426271410343986   F   F   F
  0.6684456180133296  0.7114451665956594  0.6572002808372517   F   F   F
  0.4999000270000025  0.0100076059119587  0.6353506974491966   T   T   T
 
  0.00000000E+00  0.00000000E+00  0.00000000E+00
  0.00000000E+00  0.00000000E+00  0.00000000E+00
  0.00000000E+00  0.00000000E+00  0.00000000E+00
  0.00000000E+00  0.00000000E+00  0.00000000E+00
  0.00000000E+00  0.00000000E+00  0.00000000E+00
  0.00000000E+00  0.00000000E+00  0.00000000E+00
  0.00000000E+00  0.00000000E+00  0.00000000E+00
  0.00000000E+00  0.00000000E+00  0.00000000E+00
  0.00000000E+00  0.00000000E+00  0.00000000E+00
  0.00000000E+00  0.00000000E+00  0.00000000E+00
  0.00000000E+00  0.00000000E+00  0.00000000E+00
  0.00000000E+00  0.00000000E+00  0.00000000E+00
  0.00000000E+00  0.00000000E+00  0.00000000E+00
  0.00000000E+00  0.00000000E+00  0.00000000E+00
  0.00000000E+00  0.00000000E+00  0.00000000E+00
  0.00000000E+00  0.00000000E+00  0.00000000E+00
  0.00000000E+00  0.00000000E+00  0.00000000E+00
  0.00000000E+00  0.00000000E+00  0.00000000E+00
  0.00000000E+00  0.00000000E+00  0.00000000E+00
  0.00000000E+00  0.00000000E+00  0.00000000E+00
  0.00000000E+00  0.00000000E+00  0.00000000E+00
  0.00000000E+00  0.00000000E+00  0.00000000E+00
  0.00000000E+00  0.00000000E+00  0.00000000E+00
  0.00000000E+00  0.00000000E+00  0.00000000E+00
  0.00000000E+00  0.00000000E+00  0.00000000E+00
  0.00000000E+00  0.00000000E+00  0.00000000E+00
  0.00000000E+00  0.00000000E+00  0.00000000E+00
  0.00000000E+00  0.00000000E+00  0.00000000E+00
  0.00000000E+00  0.00000000E+00  0.00000000E+00
  0.00000000E+00  0.00000000E+00  0.00000000E+00
  0.00000000E+00  0.00000000E+00  0.00000000E+00
  0.00000000E+00  0.00000000E+00  0.00000000E+00
  0.00000000E+00  0.00000000E+00  0.00000000E+00
  0.00000000E+00  0.00000000E+00  0.00000000E+00
  0.00000000E+00  0.00000000E+00  0.00000000E+00
  0.00000000E+00  0.00000000E+00  0.00000000E+00
  0.00000000E+00  0.00000000E+00  0.00000000E+00
  0.00000000E+00  0.00000000E+00  0.00000000E+00
  0.00000000E+00  0.00000000E+00  0.00000000E+00
  0.00000000E+00  0.00000000E+00  0.00000000E+00
  0.00000000E+00  0.00000000E+00  0.00000000E+00
  0.00000000E+00  0.00000000E+00  0.00000000E+00
  0.00000000E+00  0.00000000E+00  0.00000000E+00
  0.00000000E+00  0.00000000E+00  0.00000000E+00
  0.00000000E+00  0.00000000E+00  0.00000000E+00
  0.00000000E+00  0.00000000E+00  0.00000000E+00
  0.00000000E+00  0.00000000E+00  0.00000000E+00
  0.00000000E+00  0.00000000E+00  0.00000000E+00
  0.00000000E+00  0.00000000E+00  0.00000000E+00
  0.00000000E+00  0.00000000E+00  0.00000000E+00
  0.00000000E+00  0.00000000E+00  0.00000000E+00
  0.00000000E+00  0.00000000E+00  0.00000000E+00
  0.00000000E+00  0.00000000E+00  0.00000000E+00
  0.00000000E+00  0.00000000E+00  0.00000000E+00
  0.00000000E+00  0.00000000E+00  0.00000000E+00
  0.00000000E+00  0.00000000E+00  0.00000000E+00
  0.00000000E+00  0.00000000E+00  0.00000000E+00
  0.00000000E+00  0.00000000E+00  0.00000000E+00
  0.00000000E+00  0.00000000E+00  0.00000000E+00
  0.00000000E+00  0.00000000E+00  0.00000000E+00
  0.00000000E+00  0.00000000E+00  0.00000000E+00
