CONTCAR\(21)                            
   1.00000000000000     
    11.0214996337999995    0.0000000000000000    0.0000000000000000
     0.0000000000000000   14.9139995575000004    0.0000000000000000
     0.0000000000000000    0.0000000000000000   19.5716991425000018
   Nb   Ni   Te
     6     6    30
Direct
  0.0000000000000000  0.2500000000000000  0.4952437107591104
  0.0000000000000000  0.7499999679999974  0.5047562892408894
  0.3333299949999997  0.2500000000000000  0.4952437107591104
  0.3333299949999997  0.7499999679999974  0.5047562892408894
  0.6666700270000021  0.2500000000000000  0.4952437107591104
  0.6666700270000021  0.7499999679999974  0.5047562892408894
  0.1666699940000029 -0.0000000000000000  0.5000000000000000
  0.1666699940000029  0.5000000000000000  0.5000000000000000
  0.5000000000000000 -0.0000000000000000  0.5000000000000000
  0.5000000000000000  0.5000000000000000  0.5000000000000000
  0.8333300159999979 -0.0000000000000000  0.5000000000000000
  0.8333300159999979  0.5000000000000000  0.5000000000000000
  0.0000000000000000  0.0758436552604271  0.4277628037478394
  0.0000000000000000  0.9241563447395730  0.5722371962521606
  0.0000000000000000  0.5758436552604270  0.5722371962521606
  0.0000000000000000  0.4241563447395729  0.4277628037478394
  0.1666699940000029  0.2500000000000000  0.3835139946436394
  0.1666699940000029  0.7499999679999974  0.6164859813563658
  0.1666699940000029  0.8550338140792008  0.4272383204642009
  0.1666699940000029  0.1449661219208010  0.5727716685357978
  0.1666699940000029  0.3550338780791990  0.5727716685357978
  0.1666699940000029  0.6449661859207992  0.4272383204642009
  0.3333299949999997  0.0758436552604271  0.4277628037478394
  0.3333299949999997  0.9241563447395730  0.5722371962521606
  0.3333299949999997  0.5758436552604270  0.5722371962521606
  0.3333299949999997  0.4241563447395729  0.4277628037478394
  0.5000000000000000  0.2500000000000000  0.3835139946436394
  0.5000000000000000  0.7499999679999974  0.6164859813563658
  0.5000000000000000  0.8550338140792008  0.4272383204642009
  0.5000000000000000  0.1449661219208010  0.5727716685357978
  0.5000000000000000  0.3550338780791990  0.5727716685357978
  0.5000000000000000  0.6449661859207992  0.4272383204642009
  0.6666700270000021  0.0758436552604271  0.4277628037478394
  0.6666700270000021  0.9241563447395730  0.5722371962521606
  0.6666700270000021  0.5758436552604270  0.5722371962521606
  0.6666700270000021  0.4241563447395729  0.4277628037478394
  0.8333300159999979  0.2500000000000000  0.3835139946436394
  0.8333300159999979  0.7499999679999974  0.6164859813563658
  0.8333300159999979  0.8550338140792008  0.4272383204642009
  0.8333300159999979  0.1449661219208010  0.5727716685357978
  0.8333300159999979  0.3550338780791990  0.5727716685357978
  0.8333300159999979  0.6449661859207992  0.4272383204642009
 
  0.00000000E+00  0.00000000E+00  0.00000000E+00
  0.00000000E+00  0.00000000E+00  0.00000000E+00
  0.00000000E+00  0.00000000E+00  0.00000000E+00
  0.00000000E+00  0.00000000E+00  0.00000000E+00
  0.00000000E+00  0.00000000E+00  0.00000000E+00
  0.00000000E+00  0.00000000E+00  0.00000000E+00
  0.00000000E+00  0.00000000E+00  0.00000000E+00
  0.00000000E+00  0.00000000E+00  0.00000000E+00
  0.00000000E+00  0.00000000E+00  0.00000000E+00
  0.00000000E+00  0.00000000E+00  0.00000000E+00
  0.00000000E+00  0.00000000E+00  0.00000000E+00
  0.00000000E+00  0.00000000E+00  0.00000000E+00
  0.00000000E+00  0.00000000E+00  0.00000000E+00
  0.00000000E+00  0.00000000E+00  0.00000000E+00
  0.00000000E+00  0.00000000E+00  0.00000000E+00
  0.00000000E+00  0.00000000E+00  0.00000000E+00
  0.00000000E+00  0.00000000E+00  0.00000000E+00
  0.00000000E+00  0.00000000E+00  0.00000000E+00
  0.00000000E+00  0.00000000E+00  0.00000000E+00
  0.00000000E+00  0.00000000E+00  0.00000000E+00
  0.00000000E+00  0.00000000E+00  0.00000000E+00
  0.00000000E+00  0.00000000E+00  0.00000000E+00
  0.00000000E+00  0.00000000E+00  0.00000000E+00
  0.00000000E+00  0.00000000E+00  0.00000000E+00
  0.00000000E+00  0.00000000E+00  0.00000000E+00
  0.00000000E+00  0.00000000E+00  0.00000000E+00
  0.00000000E+00  0.00000000E+00  0.00000000E+00
  0.00000000E+00  0.00000000E+00  0.00000000E+00
  0.00000000E+00  0.00000000E+00  0.00000000E+00
  0.00000000E+00  0.00000000E+00  0.00000000E+00
  0.00000000E+00  0.00000000E+00  0.00000000E+00
  0.00000000E+00  0.00000000E+00  0.00000000E+00
  0.00000000E+00  0.00000000E+00  0.00000000E+00
  0.00000000E+00  0.00000000E+00  0.00000000E+00
  0.00000000E+00  0.00000000E+00  0.00000000E+00
  0.00000000E+00  0.00000000E+00  0.00000000E+00
  0.00000000E+00  0.00000000E+00  0.00000000E+00
  0.00000000E+00  0.00000000E+00  0.00000000E+00
  0.00000000E+00  0.00000000E+00  0.00000000E+00
  0.00000000E+00  0.00000000E+00  0.00000000E+00
  0.00000000E+00  0.00000000E+00  0.00000000E+00
  0.00000000E+00  0.00000000E+00  0.00000000E+00
