CONTCAR\(2)                             
   1.00000000000000     
    13.7474002837999993    0.0000000000000000    0.0000000000000000
     6.8496988029999999   13.0331533396000001    0.0000000000000000
     0.0000000000000000    0.0000000000000000   18.5631008147999985
   Li   Cu   C    O 
     9    18    18    55
Direct
  0.2056599697007705  0.0767770771286087  0.4713693756528649
  0.5673964702546521  0.0294838713988359  0.4965856562412501
  0.9055161741461206  0.0244470962192018  0.5048723102843702
  0.2307094878574679  0.3602305420631171  0.5098087682378526
  0.5298268753083308  0.4227146238253575  0.4759951884180872
  0.8664842644195339  0.4067165057966329  0.4748190353300302
  0.2551960413502899  0.6925884119186813  0.5456280938872529
  0.5418861804210643  0.6956309046500374  0.5411201714967142
  0.8811780230431048  0.7460962618061708  0.4463741409786383
  0.1073211788340899  0.2404194969153977  0.5858182148745084
  0.3373544945129511  0.1699635055102401  0.3919578132861550
  0.4772090271713360  0.2551393522069594  0.5734113799105450
  0.6383303038226004  0.1833468831983165  0.4077082741380944
  0.7825526727884302  0.2631649341493379  0.5707382076755736
  0.9502874020011710  0.1855469768081528  0.4131201737388436
  0.0909915208367622  0.6024552677981231  0.5622115624541741
  0.2775375199610688  0.5256983081970440  0.3996365092687151
  0.4622496406332102  0.5609357267265273  0.6433971005015966
  0.6330255331539013  0.5489107819150822  0.3993083350154158
  0.8029576766375561  0.5961189249797293  0.5751553406051665
  0.0150356300896018  0.4978344788101224  0.4072298471124253
  0.1387913766979227  0.9305776410813292  0.5930330610047125
  0.3358608477025486  0.8280179063302228  0.4256653896247630
  0.4174082484919021  0.9400330971393331  0.5735885924791596
  0.6288836245686863  0.8415781197411224  0.3983938936648909
  0.7884212041959711  0.9020759351255629  0.5672872466936302
  0.0027760125387624  0.8505186054679708  0.3672394030549630
  0.3431892758887365  0.1456477328345406  0.5544867011956969
  0.0959360383890778  0.2858729546170464  0.4224462415234734
  0.6809115614871533  0.1248567577027463  0.5701492065031644
  0.4257941257283849  0.3080389473502275  0.4066558552291841
  0.9886470275824762  0.1457926242400194  0.5890951277269648
  0.7453689556685160  0.3190329121755747  0.4024169679598699
  0.3316891065363459  0.4793637020461642  0.5756808741446604
  0.0890515161617431  0.6507256336135652  0.3735663513043679
  0.6627947403914920  0.4879869832582690  0.5569164445195333
  0.4008844352822774  0.6327169849809705  0.4331665990108245
  0.0029847038221830  0.4593622291442428  0.5755892858937385
  0.7777731202225315  0.6181284588969119  0.4092488272597770
  0.3336687521184437  0.7953281084040413  0.6096954128233328
  0.1027886634050098  0.9660932840304245  0.4140000669146480
  0.6526247433028900  0.8188287551112998  0.5682127958107619
  0.4230716575496894  0.9679649464778787  0.3993648365818012
  0.0212825607901383  0.8079681228425690  0.5425138374079082
  0.7638922916637587  0.9565196725462959  0.4082107947402018
  0.2516598006115632  0.1400063004280832  0.5582802209223973
  0.3437305159774749  0.2330115143185812  0.5554482918035927
  0.0893697331612291  0.0747975641373085  0.5916923804004861
  0.0088965851811879  0.0434788769060495  0.4324125665342965
  0.0894099353679744  0.2006383867245076  0.4258940070983712
  0.1902664999485475  0.2854797294576862  0.4201233775815472
  0.5904771613640198  0.1169607516045483  0.5714298617191944
  0.6679450429694715  0.2184094185512790  0.5729698214483523
  0.4326752152669183  0.0600710486707350  0.5485538499541961
  0.3256723591707706  0.0446099618735095  0.3994182204804561
  0.4422625343643005  0.2180172908677389  0.3861829185165684
  0.5126538768628344  0.3187868938078096  0.4192645937931330
  0.9077945078992993  0.1258601889729120  0.5786959617457098
  0.9668875421508810  0.2412892026363199  0.5951120768530052
  0.7739271917648413  0.0442689351716819  0.5646201772236031
  0.6742726056240418  0.0410843585128774  0.4197566226626158
  0.7549618656855249  0.2264868747889011  0.4065431962925748
  0.8382179686679071  0.3227956751703662  0.4000886239115142
  0.2415953855284460  0.4782037739410562  0.5567695976743414
  0.3312201625773002  0.5647084397588318  0.5933094535709423
  0.0975055294413749  0.3799376813024149  0.5743559586285842
  0.0069218115909563  0.3728683442882244  0.4233674299115567
  0.1099545300552756  0.5565078036230952  0.3899922936747858
  0.1736823996994392  0.6642883223473069  0.3632367622661121
  0.5663093063100899  0.4928434166501837  0.5577075883956318
  0.6706006423250851  0.5726724131318986  0.5630322890096751
  0.4249293543762037  0.3969501010092115  0.5756625828153582
  0.3281112063730949  0.3818373982080709  0.4155144019700850
  0.4070573213436933  0.5431417866570503  0.4276784389906006
  0.4850383671841620  0.6479273260137475  0.4187523692417000
  0.9123369056484344  0.4533440914198837  0.5701281324228918
  0.9906028449548878  0.5526547894739057  0.5819469739058107
  0.7495738395640538  0.4016835094967475  0.5465372723740526
  0.6532519680297506  0.4011961584772737  0.4026521070608109
  0.7821490467187586  0.5282635081362950  0.4072155208537798
  0.8659223527329585  0.6262572360070512  0.4203606333422233
  0.2424781857902059  0.7905489918101760  0.6194427516857510
  0.3205380524603305  0.8888050300903645  0.6006668930741325
  0.1103929986542817  0.7214188961427105  0.5423175650823771
  0.9904314075713652  0.7246451637769181  0.3710334631352452
  0.1068203827115350  0.8997789959568235  0.3679127103023304
  0.1924918911389937  0.9555141192029633  0.4445374530257901
  0.5640293358067792  0.8098567619290509  0.5628117182250352
  0.6454918363099116  0.9098290551653374  0.5669253357288991
  0.4260644389998982  0.7150733230728070  0.6053090527749756
  0.3117301843629663  0.7120410532254271  0.4539011958578460
  0.4407125758661354  0.8735235206540642  0.4012878160281087
  0.5093272211953808  0.9826049184770438  0.3977519884210244
  0.9294209502650999  0.8026443045471819  0.5356955669436716
  0.0214825980936561  0.8948301611612958  0.5477717972415599
  0.7493359086150325  0.7407240323094738  0.5743878542951759
  0.6819692203692467  0.6971466923551374  0.4006559529251575
  0.7598489032345309  0.8695788634813646  0.4071024324214608
  0.8561115390629996  0.9588699937816006  0.4013309774625787
  0.5088280928682949  0.5367975801371142  0.7314314421378910
 
  0.00000000E+00  0.00000000E+00  0.00000000E+00
  0.00000000E+00  0.00000000E+00  0.00000000E+00
  0.00000000E+00  0.00000000E+00  0.00000000E+00
  0.00000000E+00  0.00000000E+00  0.00000000E+00
  0.00000000E+00  0.00000000E+00  0.00000000E+00
  0.00000000E+00  0.00000000E+00  0.00000000E+00
  0.00000000E+00  0.00000000E+00  0.00000000E+00
  0.00000000E+00  0.00000000E+00  0.00000000E+00
  0.00000000E+00  0.00000000E+00  0.00000000E+00
  0.00000000E+00  0.00000000E+00  0.00000000E+00
  0.00000000E+00  0.00000000E+00  0.00000000E+00
  0.00000000E+00  0.00000000E+00  0.00000000E+00
  0.00000000E+00  0.00000000E+00  0.00000000E+00
  0.00000000E+00  0.00000000E+00  0.00000000E+00
  0.00000000E+00  0.00000000E+00  0.00000000E+00
  0.00000000E+00  0.00000000E+00  0.00000000E+00
  0.00000000E+00  0.00000000E+00  0.00000000E+00
  0.00000000E+00  0.00000000E+00  0.00000000E+00
  0.00000000E+00  0.00000000E+00  0.00000000E+00
  0.00000000E+00  0.00000000E+00  0.00000000E+00
  0.00000000E+00  0.00000000E+00  0.00000000E+00
  0.00000000E+00  0.00000000E+00  0.00000000E+00
  0.00000000E+00  0.00000000E+00  0.00000000E+00
  0.00000000E+00  0.00000000E+00  0.00000000E+00
  0.00000000E+00  0.00000000E+00  0.00000000E+00
  0.00000000E+00  0.00000000E+00  0.00000000E+00
  0.00000000E+00  0.00000000E+00  0.00000000E+00
  0.00000000E+00  0.00000000E+00  0.00000000E+00
  0.00000000E+00  0.00000000E+00  0.00000000E+00
  0.00000000E+00  0.00000000E+00  0.00000000E+00
  0.00000000E+00  0.00000000E+00  0.00000000E+00
  0.00000000E+00  0.00000000E+00  0.00000000E+00
  0.00000000E+00  0.00000000E+00  0.00000000E+00
  0.00000000E+00  0.00000000E+00  0.00000000E+00
  0.00000000E+00  0.00000000E+00  0.00000000E+00
  0.00000000E+00  0.00000000E+00  0.00000000E+00
  0.00000000E+00  0.00000000E+00  0.00000000E+00
  0.00000000E+00  0.00000000E+00  0.00000000E+00
  0.00000000E+00  0.00000000E+00  0.00000000E+00
  0.00000000E+00  0.00000000E+00  0.00000000E+00
  0.00000000E+00  0.00000000E+00  0.00000000E+00
  0.00000000E+00  0.00000000E+00  0.00000000E+00
  0.00000000E+00  0.00000000E+00  0.00000000E+00
  0.00000000E+00  0.00000000E+00  0.00000000E+00
  0.00000000E+00  0.00000000E+00  0.00000000E+00
  0.00000000E+00  0.00000000E+00  0.00000000E+00
  0.00000000E+00  0.00000000E+00  0.00000000E+00
  0.00000000E+00  0.00000000E+00  0.00000000E+00
  0.00000000E+00  0.00000000E+00  0.00000000E+00
  0.00000000E+00  0.00000000E+00  0.00000000E+00
  0.00000000E+00  0.00000000E+00  0.00000000E+00
  0.00000000E+00  0.00000000E+00  0.00000000E+00
  0.00000000E+00  0.00000000E+00  0.00000000E+00
  0.00000000E+00  0.00000000E+00  0.00000000E+00
  0.00000000E+00  0.00000000E+00  0.00000000E+00
  0.00000000E+00  0.00000000E+00  0.00000000E+00
  0.00000000E+00  0.00000000E+00  0.00000000E+00
  0.00000000E+00  0.00000000E+00  0.00000000E+00
  0.00000000E+00  0.00000000E+00  0.00000000E+00
  0.00000000E+00  0.00000000E+00  0.00000000E+00
  0.00000000E+00  0.00000000E+00  0.00000000E+00
  0.00000000E+00  0.00000000E+00  0.00000000E+00
  0.00000000E+00  0.00000000E+00  0.00000000E+00
  0.00000000E+00  0.00000000E+00  0.00000000E+00
  0.00000000E+00  0.00000000E+00  0.00000000E+00
  0.00000000E+00  0.00000000E+00  0.00000000E+00
  0.00000000E+00  0.00000000E+00  0.00000000E+00
  0.00000000E+00  0.00000000E+00  0.00000000E+00
  0.00000000E+00  0.00000000E+00  0.00000000E+00
  0.00000000E+00  0.00000000E+00  0.00000000E+00
  0.00000000E+00  0.00000000E+00  0.00000000E+00
  0.00000000E+00  0.00000000E+00  0.00000000E+00
  0.00000000E+00  0.00000000E+00  0.00000000E+00
  0.00000000E+00  0.00000000E+00  0.00000000E+00
  0.00000000E+00  0.00000000E+00  0.00000000E+00
  0.00000000E+00  0.00000000E+00  0.00000000E+00
  0.00000000E+00  0.00000000E+00  0.00000000E+00
  0.00000000E+00  0.00000000E+00  0.00000000E+00
  0.00000000E+00  0.00000000E+00  0.00000000E+00
  0.00000000E+00  0.00000000E+00  0.00000000E+00
  0.00000000E+00  0.00000000E+00  0.00000000E+00
  0.00000000E+00  0.00000000E+00  0.00000000E+00
  0.00000000E+00  0.00000000E+00  0.00000000E+00
  0.00000000E+00  0.00000000E+00  0.00000000E+00
  0.00000000E+00  0.00000000E+00  0.00000000E+00
  0.00000000E+00  0.00000000E+00  0.00000000E+00
  0.00000000E+00  0.00000000E+00  0.00000000E+00
  0.00000000E+00  0.00000000E+00  0.00000000E+00
  0.00000000E+00  0.00000000E+00  0.00000000E+00
  0.00000000E+00  0.00000000E+00  0.00000000E+00
  0.00000000E+00  0.00000000E+00  0.00000000E+00
  0.00000000E+00  0.00000000E+00  0.00000000E+00
  0.00000000E+00  0.00000000E+00  0.00000000E+00
  0.00000000E+00  0.00000000E+00  0.00000000E+00
  0.00000000E+00  0.00000000E+00  0.00000000E+00
  0.00000000E+00  0.00000000E+00  0.00000000E+00
  0.00000000E+00  0.00000000E+00  0.00000000E+00
  0.00000000E+00  0.00000000E+00  0.00000000E+00
  0.00000000E+00  0.00000000E+00  0.00000000E+00
  0.00000000E+00  0.00000000E+00  0.00000000E+00
