CONTCAR                                 
   1.00000000000000     
    12.3274002075000002    0.0000000000000000    0.0000000000000000
     0.0000000000000000   15.7540998459000008    0.0000000000000000
     0.0000000000000000    0.0000000000000000   20.2700004577999984
   Pr   Br   O    H 
    12    30     1     1
Selective dynamics
Direct
  0.2509771289534299  0.6438301232403063  0.5226943867749796   F   F   F
  0.0833553483355587  0.3615208366940621  0.4738828590859185   F   F   F
  0.2298437871609096  0.1301835852571713  0.5133690649965672   F   F   F
  0.0833630231805316  0.8588427493057154  0.4580668913508958   F   F   F
  0.5827367962455483  0.6441032826798505  0.5232261245698879   F   F   F
  0.4173465228402193  0.3730616235147508  0.5736751658856676   F   F   F
  0.6035075808154815  0.1301169069828916  0.5136779725159784   F   F   F
  0.4167250131161424  0.8659891076539523  0.4582336577095916   F   F   F
  0.9169166924397700  0.6391120420492840  0.5133951043461451   F   F   F
  0.7501625984219942  0.3614361449709804  0.4743667433752137   F   F   F
  0.9166966798908689  0.1332020650700088  0.5126575360017966   F   F   F
  0.7501653046866679  0.8589076922996952  0.4583017508205316   F   F   F
  0.2506147335575406  0.8721966765497413  0.3559206213991857   F   F   F
  0.0741263105990058  0.1063733047285780  0.6193697053590057   F   F   F
  0.2750610731389571  0.4743489304415434  0.4533917222845503   F   F   F
  0.0766709462244464  0.5216501038794021  0.5769026836564777   F   F   F
  0.0768468327754945  0.0528439693194613  0.4182258870955593   F   F   F
  0.2479648693746412  0.9432614726085333  0.5487527044873062   F   F   F
  0.0793583966829559  0.7507317967361047  0.5852332922450216   F   F   F
  0.2476369389347397  0.2576344969525692  0.4080390897593560   F   F   F
  0.0909812055666350  0.6743651174613987  0.4134203083327961   F   F   F
  0.2000980538011845  0.3034365592417174  0.5903781897178675   F   F   F
  0.5830574261651051  0.8722228483408045  0.3561081187420285   F   F   F
  0.4166903823726571  0.1589007221376946  0.6024534357666553   F   F   F
  0.5585542500276972  0.4744122206601915  0.4541759192428216   F   F   F
  0.4165423514252637  0.5543603882282540  0.6103432205884260   F   F   F
  0.4167332423710590  0.0616016884597954  0.4276078371681677   F   F   F
  0.5853051647115919  0.9430880492502496  0.5490069742239072   F   F   F
  0.4165033906938049  0.7641951751733984  0.5843538643305948   F   F   F
  0.5846982283061095  0.2581910548077389  0.4088715476992348   F   F   F
  0.4172080028456904  0.6792770137259723  0.4179753608483665   F   F   F
  0.6342734789786064  0.3032217080504438  0.5911385890130987   F   F   F
  0.9165386915381788  0.8623741912244185  0.3553853017835138   F   F   F
  0.7595959956692013  0.1057636066388312  0.6194529144728591   F   F   F
  0.9164236962556060  0.4838726563792477  0.4174263839535328   F   F   F
  0.7574109254365879  0.5217867294371032  0.5773108529577513   F   F   F
  0.7561531576171845  0.0529515702889185  0.4183656204139652   F   F   F
  0.9170055635858674  0.9379654641535282  0.5453421310385878   F   F   F
  0.7547998102883042  0.7508171716015042  0.5854639331774507   F   F   F
  0.9163602376103697  0.2595484166470285  0.3970158910337247   F   F   F
  0.7423453803212041  0.6743700646469222  0.4137462340428897   F   F   F
  0.9171057873388975  0.3127140393032803  0.5727800960866887   F   F   F
  0.4172922068980327  0.3681742331191415  0.6760740459806627   T   T   T
  0.4187270638003184  0.3690420110878279  0.7230400538147055   T   T   T
 
  0.00000000E+00  0.00000000E+00  0.00000000E+00
  0.00000000E+00  0.00000000E+00  0.00000000E+00
  0.00000000E+00  0.00000000E+00  0.00000000E+00
  0.00000000E+00  0.00000000E+00  0.00000000E+00
  0.00000000E+00  0.00000000E+00  0.00000000E+00
  0.00000000E+00  0.00000000E+00  0.00000000E+00
  0.00000000E+00  0.00000000E+00  0.00000000E+00
  0.00000000E+00  0.00000000E+00  0.00000000E+00
  0.00000000E+00  0.00000000E+00  0.00000000E+00
  0.00000000E+00  0.00000000E+00  0.00000000E+00
  0.00000000E+00  0.00000000E+00  0.00000000E+00
  0.00000000E+00  0.00000000E+00  0.00000000E+00
  0.00000000E+00  0.00000000E+00  0.00000000E+00
  0.00000000E+00  0.00000000E+00  0.00000000E+00
  0.00000000E+00  0.00000000E+00  0.00000000E+00
  0.00000000E+00  0.00000000E+00  0.00000000E+00
  0.00000000E+00  0.00000000E+00  0.00000000E+00
  0.00000000E+00  0.00000000E+00  0.00000000E+00
  0.00000000E+00  0.00000000E+00  0.00000000E+00
  0.00000000E+00  0.00000000E+00  0.00000000E+00
  0.00000000E+00  0.00000000E+00  0.00000000E+00
  0.00000000E+00  0.00000000E+00  0.00000000E+00
  0.00000000E+00  0.00000000E+00  0.00000000E+00
  0.00000000E+00  0.00000000E+00  0.00000000E+00
  0.00000000E+00  0.00000000E+00  0.00000000E+00
  0.00000000E+00  0.00000000E+00  0.00000000E+00
  0.00000000E+00  0.00000000E+00  0.00000000E+00
  0.00000000E+00  0.00000000E+00  0.00000000E+00
  0.00000000E+00  0.00000000E+00  0.00000000E+00
  0.00000000E+00  0.00000000E+00  0.00000000E+00
  0.00000000E+00  0.00000000E+00  0.00000000E+00
  0.00000000E+00  0.00000000E+00  0.00000000E+00
  0.00000000E+00  0.00000000E+00  0.00000000E+00
  0.00000000E+00  0.00000000E+00  0.00000000E+00
  0.00000000E+00  0.00000000E+00  0.00000000E+00
  0.00000000E+00  0.00000000E+00  0.00000000E+00
  0.00000000E+00  0.00000000E+00  0.00000000E+00
  0.00000000E+00  0.00000000E+00  0.00000000E+00
  0.00000000E+00  0.00000000E+00  0.00000000E+00
  0.00000000E+00  0.00000000E+00  0.00000000E+00
  0.00000000E+00  0.00000000E+00  0.00000000E+00
  0.00000000E+00  0.00000000E+00  0.00000000E+00
  0.00000000E+00  0.00000000E+00  0.00000000E+00
  0.00000000E+00  0.00000000E+00  0.00000000E+00
