CONTCAR\(16)                            
   1.00000000000000     
    12.9092998505000001    0.0000000000000000    0.0000000000000000
     0.0000000000000000   11.5581998825000003    0.0000000000000000
     0.0000000000000000    0.0000000000000000   18.7824001311999993
   Nb   Ge   Te
    12     4    24
Direct
  0.3488320735495423  0.7161720606246472  0.5000000000000000
  0.0988320545495443  0.2838279393753528  0.5000000000000000
  0.4818528405876216  0.0641197346321761  0.5000000000000000
  0.2318528405876216  0.9358802863678292  0.5000000000000000
  0.3359414173750293  0.4163448299444050  0.5000000000000000
  0.0859414263750265  0.5836551700555950  0.5000000000000000
  0.8488320735495423  0.7161720606246472  0.5000000000000000
  0.5988320735495423  0.2838279393753528  0.5000000000000000
  0.9818528405876216  0.0641197346321761  0.5000000000000000
  0.7318528035876221  0.9358802863678292  0.5000000000000000
  0.8359414543750288  0.4163448299444050  0.5000000000000000
  0.5859414173750292  0.5836551700555950  0.5000000000000000
  0.2876218279956354  0.1750254612993252  0.5000000000000000
  0.0376218299956356  0.8249745387006748  0.5000000000000000
  0.7876218649956349  0.1750254612993252  0.5000000000000000
  0.5376218649956349  0.8249745387006748  0.5000000000000000
  0.4272433374364131  0.5673104614835245  0.6017039159950809
  0.1772433184364151  0.4326795135164738  0.3982961100049213
  0.1772433184364151  0.4326795135164738  0.6017039159950809
  0.4272433374364131  0.5673104614835245  0.3982961100049213
  0.3923296380863304  0.9090726738120279  0.6005883241478689
  0.1423396480863273  0.0909273261879720  0.3994116498521361
  0.1423396480863273  0.0909273261879720  0.6005883241478689
  0.3923296380863304  0.9090726738120279  0.3994116498521361
  0.1824579372233421  0.7427693979555539  0.5980486842731622
  0.4324579372233421  0.2572306020444461  0.4019513157268378
  0.4324579372233421  0.2572306020444461  0.5980486842731622
  0.1824579372233421  0.7427693979555539  0.4019513157268378
  0.9272433374364131  0.5673104614835245  0.6017039159950809
  0.6772433004364136  0.4326795135164738  0.3982961100049213
  0.6772433004364136  0.4326795135164738  0.6017039159950809
  0.9272433374364131  0.5673104614835245  0.3982961100049213
  0.8923296380863304  0.9090726738120279  0.6005883241478689
  0.6423396480863273  0.0909273261879720  0.3994116498521361
  0.6423396480863273  0.0909273261879720  0.6005883241478689
  0.8923296380863304  0.9090726738120279  0.3994116498521361
  0.6824579002233425  0.7427693979555539  0.5980486842731622
  0.9324579372233420  0.2572306020444461  0.4019513157268378
  0.9324579372233420  0.2572306020444461  0.5980486842731622
  0.6824579002233425  0.7427693979555539  0.4019513157268378
 
  0.00000000E+00  0.00000000E+00  0.00000000E+00
  0.00000000E+00  0.00000000E+00  0.00000000E+00
  0.00000000E+00  0.00000000E+00  0.00000000E+00
  0.00000000E+00  0.00000000E+00  0.00000000E+00
  0.00000000E+00  0.00000000E+00  0.00000000E+00
  0.00000000E+00  0.00000000E+00  0.00000000E+00
  0.00000000E+00  0.00000000E+00  0.00000000E+00
  0.00000000E+00  0.00000000E+00  0.00000000E+00
  0.00000000E+00  0.00000000E+00  0.00000000E+00
  0.00000000E+00  0.00000000E+00  0.00000000E+00
  0.00000000E+00  0.00000000E+00  0.00000000E+00
  0.00000000E+00  0.00000000E+00  0.00000000E+00
  0.00000000E+00  0.00000000E+00  0.00000000E+00
  0.00000000E+00  0.00000000E+00  0.00000000E+00
  0.00000000E+00  0.00000000E+00  0.00000000E+00
  0.00000000E+00  0.00000000E+00  0.00000000E+00
  0.00000000E+00  0.00000000E+00  0.00000000E+00
  0.00000000E+00  0.00000000E+00  0.00000000E+00
  0.00000000E+00  0.00000000E+00  0.00000000E+00
  0.00000000E+00  0.00000000E+00  0.00000000E+00
  0.00000000E+00  0.00000000E+00  0.00000000E+00
  0.00000000E+00  0.00000000E+00  0.00000000E+00
  0.00000000E+00  0.00000000E+00  0.00000000E+00
  0.00000000E+00  0.00000000E+00  0.00000000E+00
  0.00000000E+00  0.00000000E+00  0.00000000E+00
  0.00000000E+00  0.00000000E+00  0.00000000E+00
  0.00000000E+00  0.00000000E+00  0.00000000E+00
  0.00000000E+00  0.00000000E+00  0.00000000E+00
  0.00000000E+00  0.00000000E+00  0.00000000E+00
  0.00000000E+00  0.00000000E+00  0.00000000E+00
  0.00000000E+00  0.00000000E+00  0.00000000E+00
  0.00000000E+00  0.00000000E+00  0.00000000E+00
  0.00000000E+00  0.00000000E+00  0.00000000E+00
  0.00000000E+00  0.00000000E+00  0.00000000E+00
  0.00000000E+00  0.00000000E+00  0.00000000E+00
  0.00000000E+00  0.00000000E+00  0.00000000E+00
  0.00000000E+00  0.00000000E+00  0.00000000E+00
  0.00000000E+00  0.00000000E+00  0.00000000E+00
  0.00000000E+00  0.00000000E+00  0.00000000E+00
  0.00000000E+00  0.00000000E+00  0.00000000E+00
