CONTCAR\(3)                             
   1.00000000000000     
    10.4272003174000005    0.0000000000000000    0.0000000000000000
     0.0000000000000000   15.5413999556999993    0.0000000000000000
     0.0000000000000000    0.0000000000000000   22.9932003021000000
   Nb   Se   O 
    18    54     1
Direct
  0.0779480587138871  0.4931362464313910  0.4161873328566459
  0.2473998772321788  0.5061111966397445  0.5866942287007265
  0.0809793795838952  0.2470781792376852  0.5718719127727804
  0.2479834129062110  0.7521398997767359  0.4277241145831157
  0.0809593102429025  0.9155322692497944  0.5646321232420942
  0.2477440790191962  0.0841520101357150  0.4337134553555692
  0.4178287672404657  0.4928996266967943  0.4163048586941697
  0.5890122992510339  0.5080745831940148  0.5915323134482610
  0.4141977762258813  0.2470439286797681  0.5720105258663228
  0.5829356264774913  0.7544659238429361  0.4265741767786765
  0.4153826830864067  0.9154280445882110  0.5646800044958376
  0.5801798421510624  0.0849811718131318  0.4333659374630558
  0.7477945975333837  0.4932691406119661  0.4155509288866696
  0.9062670594289810  0.5081218885990829  0.5913374453703431
  0.7475681314560751  0.2462892399250790  0.5718353479001038
  0.9130051748634119  0.7545296572663004  0.4264716469925428
  0.7481583350699477  0.9163885091527481  0.5641279844749224
  0.9150865263140353  0.0849595535848100  0.4333897555139358
  0.0799878160096668  0.6315221131057324  0.6078442534788911
  0.2476459543265824  0.3679515966340695  0.3964075570815996
  0.0780264278851177  0.4187100798646903  0.5255114920233187
  0.2478525988191053  0.5815102477606038  0.4782164364434637
  0.0816694175667420  0.5122048679728003  0.6750696243776590
  0.2481642327473819  0.4878848548617943  0.3293784519452247
  0.2480278592392317  0.9192373503220674  0.4772392071823207
  0.0807687822605555  0.0803318466618798  0.5213096244973002
  0.2481414866709422  0.9892134986371087  0.6366534047586344
  0.0812483806013748  0.0097918040349177  0.3615667269359936
  0.2482720558346532  0.8265692506811230  0.6270506981079833
  0.0815048753371858  0.1732436514484479  0.3710487770329585
  0.2476682056758656  0.1606476142684908  0.6355079005454091
  0.0824017394033239  0.8386966456909593  0.3631087755571781
  0.2471137717847682  0.3441242451485639  0.6311350197270214
  0.0805780552158418  0.6542948679614022  0.3700191808033436
  0.2474864176600722  0.2439085621892613  0.4852435286107221
  0.0799859049345135  0.7561021346968326  0.5142667772257185
  0.4151459993149874  0.6314020263760285  0.6078322200993513
  0.5818487684990133  0.3665476822500017  0.3942557822905283
  0.4171153258395000  0.4185815787355315  0.5257999631173484
  0.5825269221474638  0.5814323581661047  0.4793381330037453
  0.4128442228506845  0.5120338600881086  0.6749813315191092
  0.5814127319543652  0.4873839445913889  0.3279104098350715
  0.5811371166304579  0.9206569948292264  0.4767072268713481
  0.4142827587150865  0.0802838425773795  0.5213409043456324
  0.5815874063542519  0.9896818668850487  0.6365704720267781
  0.4139532198658659  0.0097335071486384  0.3615098826764863
  0.5828155014012233  0.8257393959118567  0.6260194215520615
  0.4135710344070042  0.1732105458817969  0.3709202105578643
  0.5807926377410083  0.1601326750943508  0.6356477342542211
  0.4137509541094114  0.8385886476619679  0.3631199152771759
  0.5822179871897790  0.3412043405120931  0.6314239873837476
  0.4151948825669493  0.6541523476744652  0.3701684342080246
  0.5800611068558202  0.2437595505513990  0.4848115388682386
  0.4158077298040762  0.7560848742640690  0.5142622765112242
  0.7477749761070840  0.6301045311395307  0.6074272766975307
  0.9138381797330181  0.3668181521477257  0.3941485568580845
  0.7474116282569266  0.4174665522413907  0.5250905469393382
  0.9129324285147002  0.5816355905434251  0.4792025556508788
  0.7471338112890032  0.4906108733431361  0.6858272319772615
  0.9144618978317186  0.4875473861758981  0.3278460725914927
  0.9146561494841007  0.9206916049171709  0.4766716953307769
  0.7474571206444306  0.0810832804844756  0.5209979331641742
  0.9146840812002567  0.9899371846434512  0.6365015215649937
  0.7475198998670356  0.0110589474226113  0.3612445110725055
  0.9140713243134100  0.8259842418108527  0.6260495686214493
  0.7477285427718761  0.1742959335470488  0.3716354926033051
  0.9147040736826225  0.1603229210477135  0.6355842543938183
  0.7477788823728689  0.8399541251269755  0.3613401930269671
  0.9129921986013521  0.3414937225361040  0.6311569964170636
  0.7476713073626362  0.6554327340296506  0.3688556025088965
  0.9147783525626827  0.2438070520846445  0.4847113384716878
  0.7480747270568776  0.7599068976283581  0.5114894629429579
  0.7458887963310951  0.3933117155637760  0.7209678670383213
 
  0.00000000E+00  0.00000000E+00  0.00000000E+00
  0.00000000E+00  0.00000000E+00  0.00000000E+00
  0.00000000E+00  0.00000000E+00  0.00000000E+00
  0.00000000E+00  0.00000000E+00  0.00000000E+00
  0.00000000E+00  0.00000000E+00  0.00000000E+00
  0.00000000E+00  0.00000000E+00  0.00000000E+00
  0.00000000E+00  0.00000000E+00  0.00000000E+00
  0.00000000E+00  0.00000000E+00  0.00000000E+00
  0.00000000E+00  0.00000000E+00  0.00000000E+00
  0.00000000E+00  0.00000000E+00  0.00000000E+00
  0.00000000E+00  0.00000000E+00  0.00000000E+00
  0.00000000E+00  0.00000000E+00  0.00000000E+00
  0.00000000E+00  0.00000000E+00  0.00000000E+00
  0.00000000E+00  0.00000000E+00  0.00000000E+00
  0.00000000E+00  0.00000000E+00  0.00000000E+00
  0.00000000E+00  0.00000000E+00  0.00000000E+00
  0.00000000E+00  0.00000000E+00  0.00000000E+00
  0.00000000E+00  0.00000000E+00  0.00000000E+00
  0.00000000E+00  0.00000000E+00  0.00000000E+00
  0.00000000E+00  0.00000000E+00  0.00000000E+00
  0.00000000E+00  0.00000000E+00  0.00000000E+00
  0.00000000E+00  0.00000000E+00  0.00000000E+00
  0.00000000E+00  0.00000000E+00  0.00000000E+00
  0.00000000E+00  0.00000000E+00  0.00000000E+00
  0.00000000E+00  0.00000000E+00  0.00000000E+00
  0.00000000E+00  0.00000000E+00  0.00000000E+00
  0.00000000E+00  0.00000000E+00  0.00000000E+00
  0.00000000E+00  0.00000000E+00  0.00000000E+00
  0.00000000E+00  0.00000000E+00  0.00000000E+00
  0.00000000E+00  0.00000000E+00  0.00000000E+00
  0.00000000E+00  0.00000000E+00  0.00000000E+00
  0.00000000E+00  0.00000000E+00  0.00000000E+00
  0.00000000E+00  0.00000000E+00  0.00000000E+00
  0.00000000E+00  0.00000000E+00  0.00000000E+00
  0.00000000E+00  0.00000000E+00  0.00000000E+00
  0.00000000E+00  0.00000000E+00  0.00000000E+00
  0.00000000E+00  0.00000000E+00  0.00000000E+00
  0.00000000E+00  0.00000000E+00  0.00000000E+00
  0.00000000E+00  0.00000000E+00  0.00000000E+00
  0.00000000E+00  0.00000000E+00  0.00000000E+00
  0.00000000E+00  0.00000000E+00  0.00000000E+00
  0.00000000E+00  0.00000000E+00  0.00000000E+00
  0.00000000E+00  0.00000000E+00  0.00000000E+00
  0.00000000E+00  0.00000000E+00  0.00000000E+00
  0.00000000E+00  0.00000000E+00  0.00000000E+00
  0.00000000E+00  0.00000000E+00  0.00000000E+00
  0.00000000E+00  0.00000000E+00  0.00000000E+00
  0.00000000E+00  0.00000000E+00  0.00000000E+00
  0.00000000E+00  0.00000000E+00  0.00000000E+00
  0.00000000E+00  0.00000000E+00  0.00000000E+00
  0.00000000E+00  0.00000000E+00  0.00000000E+00
  0.00000000E+00  0.00000000E+00  0.00000000E+00
  0.00000000E+00  0.00000000E+00  0.00000000E+00
  0.00000000E+00  0.00000000E+00  0.00000000E+00
  0.00000000E+00  0.00000000E+00  0.00000000E+00
  0.00000000E+00  0.00000000E+00  0.00000000E+00
  0.00000000E+00  0.00000000E+00  0.00000000E+00
  0.00000000E+00  0.00000000E+00  0.00000000E+00
  0.00000000E+00  0.00000000E+00  0.00000000E+00
  0.00000000E+00  0.00000000E+00  0.00000000E+00
  0.00000000E+00  0.00000000E+00  0.00000000E+00
  0.00000000E+00  0.00000000E+00  0.00000000E+00
  0.00000000E+00  0.00000000E+00  0.00000000E+00
  0.00000000E+00  0.00000000E+00  0.00000000E+00
  0.00000000E+00  0.00000000E+00  0.00000000E+00
  0.00000000E+00  0.00000000E+00  0.00000000E+00
  0.00000000E+00  0.00000000E+00  0.00000000E+00
  0.00000000E+00  0.00000000E+00  0.00000000E+00
  0.00000000E+00  0.00000000E+00  0.00000000E+00
  0.00000000E+00  0.00000000E+00  0.00000000E+00
  0.00000000E+00  0.00000000E+00  0.00000000E+00
  0.00000000E+00  0.00000000E+00  0.00000000E+00
  0.00000000E+00  0.00000000E+00  0.00000000E+00
