CONTCAR\(5)                             
   1.00000000000000     
    12.9137001038000001    0.0000000000000000    0.0000000000000000
     0.0000000000000000   12.9135999679999998    0.0000000000000000
     0.0000000000000000    0.0000000000000000   24.0200996398999997
   Er   Te   O    H 
    18    54     1     1
Selective dynamics
Direct
  0.1633091196793046  0.0023462851323046  0.5856636634956445   F   F   F
  0.9965909099830910  0.1689822786103647  0.4165129732015060   F   F   F
  0.4982067863006492  0.0024115562284095  0.5851801475868186   F   F   F
  0.3294527472461013  0.1677115532155398  0.4149939886440919   F   F   F
  0.8329861676476753  0.0024765614590336  0.5862566455520550   F   F   F
  0.6638817936739869  0.1680097528777580  0.4157268408137114   F   F   F
  0.1635986119368980  0.3362598659763094  0.5857003112963639   F   F   F
  0.9965956411676800  0.5018770980905884  0.4168007346773663   F   F   F
  0.4941173362475979  0.3237496523014229  0.5818823071831432   F   F   F
  0.3300540034917034  0.5020942912509696  0.4158065211797037   F   F   F
  0.8316166081837864  0.3356259576804064  0.5868390341630558   F   F   F
  0.6619234294353404  0.5019449466278374  0.4167337279556946   F   F   F
  0.1632760208163475  0.6683942911933869  0.5856674724831379   F   F   F
  0.9965545907505629  0.8347975589266028  0.4164168375624371   F   F   F
  0.4938344139895605  0.6814122685394466  0.5819631128090776   F   F   F
  0.3295077582973249  0.8361466117971830  0.4149524169192276   F   F   F
  0.8313433068357412  0.6693201649189504  0.5867206876757862   F   F   F
  0.6639741685737590  0.8358847370803630  0.4156248164496645   F   F   F
  0.9967790261965561  0.0015764329444892  0.3134165935737840   F   F   F
  0.1638630932030338  0.1696859747349819  0.6891381562433949   F   F   F
  0.0033485761757106  0.0033025208676918  0.6895258365258599   F   F   F
  0.1631966573146002  0.1683104741317010  0.3130883477708579   F   F   F
  0.1622128436495061  0.0020118719212476  0.4543503829277000   F   F   F
  0.9970782622980678  0.1695495643229492  0.5476184160822513   F   F   F
  0.3295862256781064  0.0016291788021690  0.3122305292302983   F   F   F
  0.4960804328430442  0.1680591392208797  0.6875405258109595   F   F   F
  0.3324175868092638  0.0030807438097540  0.6885619153750540   F   F   F
  0.4967485439338191  0.1680353390316895  0.3125718175160941   F   F   F
  0.4971737469516384  0.0020048607948908  0.4541336499905313   F   F   F
  0.3282118046557372  0.1661695167033912  0.5459038133142329   F   F   F
  0.6637714407569462  0.0020504337479110  0.3128908547824949   F   F   F
  0.8312761057528348  0.1681473892546492  0.6902949979779081   F   F   F
  0.6675711430333706  0.0025154837610870  0.6891889240397191   F   F   F
  0.8305446760202884  0.1686196321190394  0.3138094107017437   F   F   F
  0.8308779678681049  0.0019093690857090  0.4548500780570279   F   F   F
  0.6656890799332373  0.1671586895624060  0.5469616518934117   F   F   F
  0.9966747773656337  0.3354073497715646  0.3141374565326416   F   F   F
  0.1689746533726719  0.5023299217516453  0.6887293821538805   F   F   F
  0.9978294483080106  0.3364647338491906  0.6895128083724842   F   F   F
  0.1634513496982066  0.5019435113901523  0.3134708193009459   F   F   F
  0.1641413688432323  0.3358454459466813  0.4549415784921820   F   F   F
  0.9965822763561647  0.5022534110499564  0.5478526610282017   F   F   F
  0.3301950867484109  0.3350265930402259  0.3128218647406342   F   F   F
  0.5096813581289723  0.5041565343902761  0.6780683320474239   F   F   F
  0.3313584686598361  0.3362029241224107  0.6863328385296725   F   F   F
  0.4968659056791722  0.5017286338771356  0.3135466617401761   F   F   F
  0.4961520854615955  0.3336883364081658  0.4532210838626654   F   F   F
  0.3327666601756079  0.5025851663921870  0.5475976290500952   F   F   F
  0.6633990757446142  0.3348976515856279  0.3136229394105641   F   F   F
  0.8346567196851780  0.5030349546348774  0.6900805735749813   F   F   F
  0.6670259730280605  0.3320066751435320  0.6888387993460583   F   F   F
  0.8293787431075117  0.5014369629115265  0.3143966829897735   F   F   F
  0.8282544744713718  0.3367939308585832  0.4558393920155481   F   F   F
  0.6579408076513502  0.5021779659964949  0.5510703119252938   F   F   F
  0.9964884375277805  0.6676707164241762  0.3140965718479265   F   F   F
  0.1637252840356851  0.8358565230439012  0.6891375784263047   F   F   F
  0.9974797824504478  0.6689528161737286  0.6893530540587349   F   F   F
  0.1629841317938201  0.8348452308758425  0.3130310609671696   F   F   F
  0.1640480181939168  0.6680727274020555  0.4548105802160620   F   F   F
  0.9969492730701077  0.8350606051067260  0.5475478951073143   F   F   F
  0.3301590362287641  0.6688421931622841  0.3126612055388875   F   F   F
  0.4961489984019423  0.8372165746991556  0.6875498850872290   F   F   F
  0.3297152939154699  0.6704367974549541  0.6863840549593050   F   F   F
  0.4969719951430704  0.8355811092106080  0.3125354575038131   F   F   F
  0.4964963438769416  0.6703841386358320  0.4532237064965230   F   F   F
  0.3280699977966464  0.8386027481450284  0.5458680048412674   F   F   F
  0.6634824090962894  0.6681838494450929  0.3133535871868176   F   F   F
  0.8322117122512083  0.8383335191754497  0.6900542528505724   F   F   F
  0.6671665261345154  0.6736745966387332  0.6884112171054326   F   F   F
  0.8304112995555926  0.8347204932410222  0.3136644545095706   F   F   F
  0.8283614257674614  0.6672863054684086  0.4557379029908120   F   F   F
  0.6656554065398979  0.8374940462269009  0.5469171772128902   F   F   F
  0.4792437123358653  0.5088703829831687  0.7611500553265316   T   T   T
  0.5453112920680425  0.4955116426432583  0.7792989601818525   T   T   T
 
  0.00000000E+00  0.00000000E+00  0.00000000E+00
  0.00000000E+00  0.00000000E+00  0.00000000E+00
  0.00000000E+00  0.00000000E+00  0.00000000E+00
  0.00000000E+00  0.00000000E+00  0.00000000E+00
  0.00000000E+00  0.00000000E+00  0.00000000E+00
  0.00000000E+00  0.00000000E+00  0.00000000E+00
  0.00000000E+00  0.00000000E+00  0.00000000E+00
  0.00000000E+00  0.00000000E+00  0.00000000E+00
  0.00000000E+00  0.00000000E+00  0.00000000E+00
  0.00000000E+00  0.00000000E+00  0.00000000E+00
  0.00000000E+00  0.00000000E+00  0.00000000E+00
  0.00000000E+00  0.00000000E+00  0.00000000E+00
  0.00000000E+00  0.00000000E+00  0.00000000E+00
  0.00000000E+00  0.00000000E+00  0.00000000E+00
  0.00000000E+00  0.00000000E+00  0.00000000E+00
  0.00000000E+00  0.00000000E+00  0.00000000E+00
  0.00000000E+00  0.00000000E+00  0.00000000E+00
  0.00000000E+00  0.00000000E+00  0.00000000E+00
  0.00000000E+00  0.00000000E+00  0.00000000E+00
  0.00000000E+00  0.00000000E+00  0.00000000E+00
  0.00000000E+00  0.00000000E+00  0.00000000E+00
  0.00000000E+00  0.00000000E+00  0.00000000E+00
  0.00000000E+00  0.00000000E+00  0.00000000E+00
  0.00000000E+00  0.00000000E+00  0.00000000E+00
  0.00000000E+00  0.00000000E+00  0.00000000E+00
  0.00000000E+00  0.00000000E+00  0.00000000E+00
  0.00000000E+00  0.00000000E+00  0.00000000E+00
  0.00000000E+00  0.00000000E+00  0.00000000E+00
  0.00000000E+00  0.00000000E+00  0.00000000E+00
  0.00000000E+00  0.00000000E+00  0.00000000E+00
  0.00000000E+00  0.00000000E+00  0.00000000E+00
  0.00000000E+00  0.00000000E+00  0.00000000E+00
  0.00000000E+00  0.00000000E+00  0.00000000E+00
  0.00000000E+00  0.00000000E+00  0.00000000E+00
  0.00000000E+00  0.00000000E+00  0.00000000E+00
  0.00000000E+00  0.00000000E+00  0.00000000E+00
  0.00000000E+00  0.00000000E+00  0.00000000E+00
  0.00000000E+00  0.00000000E+00  0.00000000E+00
  0.00000000E+00  0.00000000E+00  0.00000000E+00
  0.00000000E+00  0.00000000E+00  0.00000000E+00
  0.00000000E+00  0.00000000E+00  0.00000000E+00
  0.00000000E+00  0.00000000E+00  0.00000000E+00
  0.00000000E+00  0.00000000E+00  0.00000000E+00
  0.00000000E+00  0.00000000E+00  0.00000000E+00
  0.00000000E+00  0.00000000E+00  0.00000000E+00
  0.00000000E+00  0.00000000E+00  0.00000000E+00
  0.00000000E+00  0.00000000E+00  0.00000000E+00
  0.00000000E+00  0.00000000E+00  0.00000000E+00
  0.00000000E+00  0.00000000E+00  0.00000000E+00
  0.00000000E+00  0.00000000E+00  0.00000000E+00
  0.00000000E+00  0.00000000E+00  0.00000000E+00
  0.00000000E+00  0.00000000E+00  0.00000000E+00
  0.00000000E+00  0.00000000E+00  0.00000000E+00
  0.00000000E+00  0.00000000E+00  0.00000000E+00
  0.00000000E+00  0.00000000E+00  0.00000000E+00
  0.00000000E+00  0.00000000E+00  0.00000000E+00
  0.00000000E+00  0.00000000E+00  0.00000000E+00
  0.00000000E+00  0.00000000E+00  0.00000000E+00
  0.00000000E+00  0.00000000E+00  0.00000000E+00
  0.00000000E+00  0.00000000E+00  0.00000000E+00
  0.00000000E+00  0.00000000E+00  0.00000000E+00
  0.00000000E+00  0.00000000E+00  0.00000000E+00
  0.00000000E+00  0.00000000E+00  0.00000000E+00
  0.00000000E+00  0.00000000E+00  0.00000000E+00
  0.00000000E+00  0.00000000E+00  0.00000000E+00
  0.00000000E+00  0.00000000E+00  0.00000000E+00
  0.00000000E+00  0.00000000E+00  0.00000000E+00
  0.00000000E+00  0.00000000E+00  0.00000000E+00
  0.00000000E+00  0.00000000E+00  0.00000000E+00
  0.00000000E+00  0.00000000E+00  0.00000000E+00
  0.00000000E+00  0.00000000E+00  0.00000000E+00
  0.00000000E+00  0.00000000E+00  0.00000000E+00
  0.00000000E+00  0.00000000E+00  0.00000000E+00
  0.00000000E+00  0.00000000E+00  0.00000000E+00
