CONTCAR                                 
   1.00000000000000     
    13.3121995926000007    0.0000000000000000    0.0000000000000000
    -6.6560997963000004   11.5287030274000006    0.0000000000000000
     0.0000000000000000    0.0000000000000000   18.1287994384999998
   Nb   S    H 
    16    32     1
Direct
  0.0025659755695983 -0.0024553906126383  0.5008421718788366
  0.2497629674050624 -0.0023563081392168  0.5005931578571219
  0.5047043375336137 -0.0014682747255591  0.5005345759074677
  0.7485055312218456 -0.0014530487423434  0.5007576395634686
  0.0015978907580746  0.2516400379870837  0.5008737919503675
  0.2513887027975170  0.2483271744700644  0.5002270546278396
  0.5046348732642288  0.2517847587045066  0.5002506760072726
  0.7516385350263607  0.2486250698365071  0.5004978070676990
  0.0016600898316697  0.4955011336278365  0.5006874357056921
  0.2397447948871073  0.4925844897682889  0.5002350763183389
  0.5073973670778050  0.4926608925913031  0.4997234221341479
  0.7483572756792228  0.4955157241449996  0.5003189764658883
  0.0024955363843504  0.7503777283638445  0.5006491417714795
  0.2514975991773745  0.7486603163284697  0.5003443442763432
  0.5075205475575673  0.7603615966701932  0.5001281812933734
  0.7517651982302792  0.7486983120962682  0.5001488231955390
  0.1681645500377881  0.0819410556127441  0.4139224759001759
  0.1688252345121338  0.0826442616633662  0.5872554977935247
  0.4181672371041060  0.0817574389210739  0.4155778104620745
  0.4186329789335282  0.0822145284520410  0.5852828970593266
  0.6690748385806881  0.0832504755670364  0.4134446437472623
  0.6689712398023877  0.0834688875069190  0.5878061873545517
  0.9184021883831242  0.0818524025553174  0.4160300915961732
  0.9181893345352933  0.0818413488410765  0.5857079731391265
  0.1668881177024550  0.3298310121896885  0.4135415236087793
  0.1672977599628750  0.3302644995820740  0.5877349456289700
  0.4169185562159836  0.3296516053309651  0.4131563152903484
  0.4176075659495933  0.3302934175332325  0.5872973380439280
  0.6690736957582903  0.3311633507194940  0.4132116688954731
  0.6688184282092254  0.3313234564246677  0.5875577945597320
  0.9170989504689051  0.3312348306362974  0.4135144426668442
  0.9166603583658196  0.3311831193576031  0.5878990464899205
  0.1671988906794849  0.5829245262082910  0.4135653823913741
  0.1673189446324091  0.5825894306434151  0.5877200331391313
  0.4180916603538840  0.5819377393973025  0.4228451136562948
  0.4184656599524830  0.5817346669897369  0.5795519951887695
  0.6704214073332718  0.5831178848333242  0.4131409404103897
  0.6697706889213508  0.5825425767547980  0.5872983192769271
  0.9184367544010075  0.5819248126739865  0.4157153651403701
  0.9178948324547920  0.5815477381117149  0.5853890759863256
  0.1683817023525576  0.8317475235440700  0.4138796054741051
  0.1685487797734202  0.8316163200107521  0.5872446570990564
  0.4171774551461028  0.8329366107719699  0.4134883952377009
  0.4176275962632246  0.8328945616320513  0.5876265896905430
  0.6702699119658186  0.8332178896747183  0.4134329211649879
  0.6698509801311041  0.8328036962971195  0.5876200495287793
  0.9182402285555391  0.8319511340304773  0.4139197105907494
  0.9173603252285869  0.8312837499509734  0.5872395446344548
  0.4188759519311039  0.5814888612121120  0.6545993411329530
 
  0.00000000E+00  0.00000000E+00  0.00000000E+00
  0.00000000E+00  0.00000000E+00  0.00000000E+00
  0.00000000E+00  0.00000000E+00  0.00000000E+00
  0.00000000E+00  0.00000000E+00  0.00000000E+00
  0.00000000E+00  0.00000000E+00  0.00000000E+00
  0.00000000E+00  0.00000000E+00  0.00000000E+00
  0.00000000E+00  0.00000000E+00  0.00000000E+00
  0.00000000E+00  0.00000000E+00  0.00000000E+00
  0.00000000E+00  0.00000000E+00  0.00000000E+00
  0.00000000E+00  0.00000000E+00  0.00000000E+00
  0.00000000E+00  0.00000000E+00  0.00000000E+00
  0.00000000E+00  0.00000000E+00  0.00000000E+00
  0.00000000E+00  0.00000000E+00  0.00000000E+00
  0.00000000E+00  0.00000000E+00  0.00000000E+00
  0.00000000E+00  0.00000000E+00  0.00000000E+00
  0.00000000E+00  0.00000000E+00  0.00000000E+00
  0.00000000E+00  0.00000000E+00  0.00000000E+00
  0.00000000E+00  0.00000000E+00  0.00000000E+00
  0.00000000E+00  0.00000000E+00  0.00000000E+00
  0.00000000E+00  0.00000000E+00  0.00000000E+00
  0.00000000E+00  0.00000000E+00  0.00000000E+00
  0.00000000E+00  0.00000000E+00  0.00000000E+00
  0.00000000E+00  0.00000000E+00  0.00000000E+00
  0.00000000E+00  0.00000000E+00  0.00000000E+00
  0.00000000E+00  0.00000000E+00  0.00000000E+00
  0.00000000E+00  0.00000000E+00  0.00000000E+00
  0.00000000E+00  0.00000000E+00  0.00000000E+00
  0.00000000E+00  0.00000000E+00  0.00000000E+00
  0.00000000E+00  0.00000000E+00  0.00000000E+00
  0.00000000E+00  0.00000000E+00  0.00000000E+00
  0.00000000E+00  0.00000000E+00  0.00000000E+00
  0.00000000E+00  0.00000000E+00  0.00000000E+00
  0.00000000E+00  0.00000000E+00  0.00000000E+00
  0.00000000E+00  0.00000000E+00  0.00000000E+00
  0.00000000E+00  0.00000000E+00  0.00000000E+00
  0.00000000E+00  0.00000000E+00  0.00000000E+00
  0.00000000E+00  0.00000000E+00  0.00000000E+00
  0.00000000E+00  0.00000000E+00  0.00000000E+00
  0.00000000E+00  0.00000000E+00  0.00000000E+00
  0.00000000E+00  0.00000000E+00  0.00000000E+00
  0.00000000E+00  0.00000000E+00  0.00000000E+00
  0.00000000E+00  0.00000000E+00  0.00000000E+00
  0.00000000E+00  0.00000000E+00  0.00000000E+00
  0.00000000E+00  0.00000000E+00  0.00000000E+00
  0.00000000E+00  0.00000000E+00  0.00000000E+00
  0.00000000E+00  0.00000000E+00  0.00000000E+00
  0.00000000E+00  0.00000000E+00  0.00000000E+00
  0.00000000E+00  0.00000000E+00  0.00000000E+00
  0.00000000E+00  0.00000000E+00  0.00000000E+00
