CONTCAR\(5)                             
   1.00000000000000     
    12.6589002608999994    0.0000000000000000    0.0000000000000000
    -6.3294555933999996   10.9637343354999999    0.0000000000000000
     0.0000000000000000    0.0000000000000000   35.9861984253000031
   Bi   Se   O    H 
    54    54     1     1
Direct
  0.2215713452488544  0.1098823597402472  0.5256760899135031
  0.1105017861495270  0.2200160970632083  0.4747007092355204
  0.2221159021156041  0.1111170482207271  0.3592908598495654
  0.1128424783168072  0.2226145378680826  0.6388131028526232
  0.0004827184185316  0.0006298285387984  0.2533032122470047
  0.0009789389481227  0.3346831628719400  0.7451838484271391
  0.5555597057287116  0.1114291197181743  0.5254156161878356
  0.4429056751856209  0.2208913327220188  0.4749444865925270
  0.5556474390063997  0.1112467133798489  0.3590211040299423
  0.4466416351108720  0.2254924139900965  0.6401762947629379
  0.3338873489401450  0.0000139011504032  0.2534871791009934
  0.3345632706367780  0.3347722851889117  0.7447799220971021
  0.8878916619836588  0.1109087534885234  0.5247863665953147
  0.7766060991136996  0.2219895836596422  0.4743385608077091
  0.8890456808923588  0.1111541097141568  0.3593560308398978
  0.7766849592457916  0.2231814586642642  0.6388476639574492
  0.6669876308657052  0.0000544464757155  0.2533621963031223
  0.6680739855870428  0.3346968042817693  0.7446896071633091
  0.2218014414695944  0.4430610294148920  0.5247090371197842
  0.1116543448877962  0.5559079958568347  0.4746096300734735
  0.2224075531360299  0.4448936391817924  0.3595091126088192
  0.1123546289948081  0.5569281211718931  0.6388369981479869
  0.0002037243782524  0.3340911643708324  0.2534870574715811
  0.9998391933416926  0.6674537643130236  0.7447964728838059
  0.5556549531132546  0.4443795252955880  0.5247489311591238
  0.4441979406604659  0.5555184168217480  0.4745136503793290
  0.5555434830385835  0.4444817467864937  0.3590005087933292
  0.4484270185310280  0.5579267535934633  0.6412758101410034
  0.3339167324501062  0.3340780336623723  0.2534959611524030
  0.3334645293425922  0.6665851293774878  0.7447507313201740
  0.8886812945118976  0.4444400188429682  0.5246199089279813
  0.7772862186873297  0.5546728963604934  0.4741326145681839
  0.8886952137101574  0.4442998154672964  0.3592548400607285
  0.7772297811452233  0.5582250620811209  0.6413065779053113
  0.6668949339406751  0.3335348122730082  0.2533838771145795
  0.6692142021732295  0.6723617217202573  0.7782305714644693
  0.2223015734546507  0.7769470774927214  0.5256637968909814
  0.1121642871667632  0.8884651485358646  0.4749959728609312
  0.2224670677366092  0.7778190142967603  0.3593412433140912
  0.1090248532994593  0.8886485417953125  0.6404140071594000
  0.0001533681237831  0.6670899136711270  0.2534382041503278
  0.0006630699165342  0.0031439306118841  0.7446084682065148
  0.5550271017518114  0.7767040995066949  0.5252890459418680
  0.4442773939223059  0.8888658062496475  0.4751931307213013
  0.5554537387679517  0.7779220522567343  0.3593549448594970
  0.4461437279101617  0.8880883776947428  0.6402978491466271
  0.3333326775563847  0.6666303699834373  0.2533633688110299
  0.3337539176935991  0.0003413060973330  0.7453084434833386
  0.8883982540852458  0.7767090650199933  0.5247014702406361
  0.7769851525410303  0.8883303924131667  0.4747431127334210
  0.8889564294424162  0.7778831226732379  0.3593224435100595
  0.7770797623664976  0.8875526041877890  0.6412875015513890
  0.6671706246564995  0.6674139247169535  0.2534792783434483
  0.6690332430253960  0.0016308643773684  0.7447704227461784
  0.0000184624212949  0.9998829060933048  0.4028700765217081
  0.3350712530443545  0.3358399040780000  0.5960503058938116
  0.2239418672127798  0.1117827172387962  0.6907011574775694
  0.1113181429202683  0.2225693477000235  0.3072263242636311
  0.2227914149917467  0.1116460685026084  0.2111224722191380
  0.1136793779136980  0.2229560417290344  0.7867561924992970
  0.3340071932349886  0.0002072930600079  0.4027022175807389
  0.6682775407949890  0.3364833001206975  0.5959542605946950
  0.5553484115522807  0.1111932338529229  0.6908163082489125
  0.4443504558222600  0.2222004465741989  0.3070719338837691
  0.5556902300462525  0.1110201039194578  0.2110396613045467
  0.4456365982082318  0.2234778833495170  0.7875267468096325
  0.6661887033364451  0.0002264194111206  0.4027764418625850
  0.0006015730368176  0.3340085452101249  0.5955128695322500
  0.8903769893247500  0.1140931866730455  0.6910445053014058
  0.7778643997532271  0.2222045670821871  0.3070935117977172
  0.8893880952593847  0.1116636520363983  0.2110522138498681
  0.7763611770188561  0.2222762832098795  0.7866954980971457
  0.9999084288499773  0.3338260729640510  0.4028820312377590
  0.3346702716456065  0.6662926820985930  0.5961053277705801
  0.2216747762107119  0.4444468752416952  0.6912326619497762
  0.1112072759394351  0.5558117232576265  0.3070869124943201
  0.2221210758681877  0.4442323521263916  0.2110528133681910
  0.1126465928431344  0.5587667918599877  0.7867374216525818
  0.3339906090016882  0.3338987678029497  0.4027969776133702
  0.6675520161479582  0.6677712387799843  0.5964363714024756
  0.5567898377351597  0.4465707103599073  0.6915392052189233
  0.4443541835300593  0.5559999199959975  0.3071431601274170
  0.5560113763946717  0.4452029599513025  0.2110978000593704
  0.4102863765633487  0.5372822035479956  0.7922440272064009
  0.6662250351113954  0.3332686467136838  0.4026889220035486
  0.9990326254406838  0.6663845651714695  0.5962957670971747
  0.8902334895304946  0.4445826145302192  0.6912801171141965
  0.7778571937550964  0.5555796693974528  0.3070786842514650
  0.8890658664251987  0.4448981513007055  0.2110318784470167
  0.7942120029498412  0.5380924181133153  0.7921228488216059
  0.0000736296053248  0.6662329408619314  0.4027761460224468
  0.3337381997128119  0.0000221662525917  0.5966299127294619
  0.2229589509237329  0.7782737857986390  0.6913345970527729
  0.1111945946566664  0.8890328611954388  0.3072249971549539
  0.2221783040189607  0.7780189185949027  0.2110480611025665
  0.1108747204896687  0.8898147040328510  0.7873402801148686
  0.3335785191526739  0.6671991656607617  0.4029390377190367
  0.6675670921405654  0.9998912554337664  0.5961958522130004
  0.5568780614776827  0.7772207570223486  0.6917849044621818
  0.4445365932101097  0.8888166208302337  0.3070117987189818
  0.5558741584246931  0.7779534239748855  0.2110193615784226
  0.4456668060131932  0.8891888895275812  0.7873539018364468
  0.6661384456148340  0.6660777207056086  0.4027451767534274
  0.9987053597729769  0.9994498662104974  0.5961016360225884
  0.8877647340220776  0.7780001710368225  0.6917918065100679
  0.7779301143690560  0.8891541869549329  0.3072636665423047
  0.8891488201942579  0.7784170863556668  0.2110222698334923
  0.7994320611588037  0.9300828663034508  0.7925311021802557
  0.6763807089634781  0.6875493008533056  0.8367183207600632
  0.6282490818191278  0.6070454914302772  0.8480733251914074
 
  0.00000000E+00  0.00000000E+00  0.00000000E+00
  0.00000000E+00  0.00000000E+00  0.00000000E+00
  0.00000000E+00  0.00000000E+00  0.00000000E+00
  0.00000000E+00  0.00000000E+00  0.00000000E+00
  0.00000000E+00  0.00000000E+00  0.00000000E+00
  0.00000000E+00  0.00000000E+00  0.00000000E+00
  0.00000000E+00  0.00000000E+00  0.00000000E+00
  0.00000000E+00  0.00000000E+00  0.00000000E+00
  0.00000000E+00  0.00000000E+00  0.00000000E+00
  0.00000000E+00  0.00000000E+00  0.00000000E+00
  0.00000000E+00  0.00000000E+00  0.00000000E+00
  0.00000000E+00  0.00000000E+00  0.00000000E+00
  0.00000000E+00  0.00000000E+00  0.00000000E+00
  0.00000000E+00  0.00000000E+00  0.00000000E+00
  0.00000000E+00  0.00000000E+00  0.00000000E+00
  0.00000000E+00  0.00000000E+00  0.00000000E+00
  0.00000000E+00  0.00000000E+00  0.00000000E+00
  0.00000000E+00  0.00000000E+00  0.00000000E+00
  0.00000000E+00  0.00000000E+00  0.00000000E+00
  0.00000000E+00  0.00000000E+00  0.00000000E+00
  0.00000000E+00  0.00000000E+00  0.00000000E+00
  0.00000000E+00  0.00000000E+00  0.00000000E+00
  0.00000000E+00  0.00000000E+00  0.00000000E+00
  0.00000000E+00  0.00000000E+00  0.00000000E+00
  0.00000000E+00  0.00000000E+00  0.00000000E+00
  0.00000000E+00  0.00000000E+00  0.00000000E+00
  0.00000000E+00  0.00000000E+00  0.00000000E+00
  0.00000000E+00  0.00000000E+00  0.00000000E+00
  0.00000000E+00  0.00000000E+00  0.00000000E+00
  0.00000000E+00  0.00000000E+00  0.00000000E+00
  0.00000000E+00  0.00000000E+00  0.00000000E+00
  0.00000000E+00  0.00000000E+00  0.00000000E+00
  0.00000000E+00  0.00000000E+00  0.00000000E+00
  0.00000000E+00  0.00000000E+00  0.00000000E+00
  0.00000000E+00  0.00000000E+00  0.00000000E+00
  0.00000000E+00  0.00000000E+00  0.00000000E+00
  0.00000000E+00  0.00000000E+00  0.00000000E+00
  0.00000000E+00  0.00000000E+00  0.00000000E+00
  0.00000000E+00  0.00000000E+00  0.00000000E+00
  0.00000000E+00  0.00000000E+00  0.00000000E+00
  0.00000000E+00  0.00000000E+00  0.00000000E+00
  0.00000000E+00  0.00000000E+00  0.00000000E+00
  0.00000000E+00  0.00000000E+00  0.00000000E+00
  0.00000000E+00  0.00000000E+00  0.00000000E+00
  0.00000000E+00  0.00000000E+00  0.00000000E+00
  0.00000000E+00  0.00000000E+00  0.00000000E+00
  0.00000000E+00  0.00000000E+00  0.00000000E+00
  0.00000000E+00  0.00000000E+00  0.00000000E+00
  0.00000000E+00  0.00000000E+00  0.00000000E+00
  0.00000000E+00  0.00000000E+00  0.00000000E+00
  0.00000000E+00  0.00000000E+00  0.00000000E+00
  0.00000000E+00  0.00000000E+00  0.00000000E+00
  0.00000000E+00  0.00000000E+00  0.00000000E+00
  0.00000000E+00  0.00000000E+00  0.00000000E+00
  0.00000000E+00  0.00000000E+00  0.00000000E+00
  0.00000000E+00  0.00000000E+00  0.00000000E+00
  0.00000000E+00  0.00000000E+00  0.00000000E+00
  0.00000000E+00  0.00000000E+00  0.00000000E+00
  0.00000000E+00  0.00000000E+00  0.00000000E+00
  0.00000000E+00  0.00000000E+00  0.00000000E+00
  0.00000000E+00  0.00000000E+00  0.00000000E+00
  0.00000000E+00  0.00000000E+00  0.00000000E+00
  0.00000000E+00  0.00000000E+00  0.00000000E+00
  0.00000000E+00  0.00000000E+00  0.00000000E+00
  0.00000000E+00  0.00000000E+00  0.00000000E+00
  0.00000000E+00  0.00000000E+00  0.00000000E+00
  0.00000000E+00  0.00000000E+00  0.00000000E+00
  0.00000000E+00  0.00000000E+00  0.00000000E+00
  0.00000000E+00  0.00000000E+00  0.00000000E+00
  0.00000000E+00  0.00000000E+00  0.00000000E+00
  0.00000000E+00  0.00000000E+00  0.00000000E+00
  0.00000000E+00  0.00000000E+00  0.00000000E+00
  0.00000000E+00  0.00000000E+00  0.00000000E+00
  0.00000000E+00  0.00000000E+00  0.00000000E+00
  0.00000000E+00  0.00000000E+00  0.00000000E+00
  0.00000000E+00  0.00000000E+00  0.00000000E+00
  0.00000000E+00  0.00000000E+00  0.00000000E+00
  0.00000000E+00  0.00000000E+00  0.00000000E+00
  0.00000000E+00  0.00000000E+00  0.00000000E+00
  0.00000000E+00  0.00000000E+00  0.00000000E+00
  0.00000000E+00  0.00000000E+00  0.00000000E+00
  0.00000000E+00  0.00000000E+00  0.00000000E+00
  0.00000000E+00  0.00000000E+00  0.00000000E+00
  0.00000000E+00  0.00000000E+00  0.00000000E+00
  0.00000000E+00  0.00000000E+00  0.00000000E+00
  0.00000000E+00  0.00000000E+00  0.00000000E+00
  0.00000000E+00  0.00000000E+00  0.00000000E+00
  0.00000000E+00  0.00000000E+00  0.00000000E+00
  0.00000000E+00  0.00000000E+00  0.00000000E+00
  0.00000000E+00  0.00000000E+00  0.00000000E+00
  0.00000000E+00  0.00000000E+00  0.00000000E+00
  0.00000000E+00  0.00000000E+00  0.00000000E+00
  0.00000000E+00  0.00000000E+00  0.00000000E+00
  0.00000000E+00  0.00000000E+00  0.00000000E+00
  0.00000000E+00  0.00000000E+00  0.00000000E+00
  0.00000000E+00  0.00000000E+00  0.00000000E+00
  0.00000000E+00  0.00000000E+00  0.00000000E+00
  0.00000000E+00  0.00000000E+00  0.00000000E+00
  0.00000000E+00  0.00000000E+00  0.00000000E+00
  0.00000000E+00  0.00000000E+00  0.00000000E+00
  0.00000000E+00  0.00000000E+00  0.00000000E+00
  0.00000000E+00  0.00000000E+00  0.00000000E+00
  0.00000000E+00  0.00000000E+00  0.00000000E+00
  0.00000000E+00  0.00000000E+00  0.00000000E+00
  0.00000000E+00  0.00000000E+00  0.00000000E+00
  0.00000000E+00  0.00000000E+00  0.00000000E+00
  0.00000000E+00  0.00000000E+00  0.00000000E+00
  0.00000000E+00  0.00000000E+00  0.00000000E+00
  0.00000000E+00  0.00000000E+00  0.00000000E+00
  0.00000000E+00  0.00000000E+00  0.00000000E+00
