 Sr4 Mn2 Cl2 O6                         
   1.00000000000000     
     3.8261063823297565    0.0000000000000000    0.0000000000000000
     0.0000000000000000    3.8261063696651800    0.0000000000000000
     0.0000000000000000    0.0000000000000000   27.5627029195860018
   Sr   Mn   Cl   O 
     4     2     2     6
Direct
  0.5000000008934080  0.9999999998852260  0.4506118166832067
  0.9999999989926991  0.4999999998085514  0.5493884573892487
  0.5000000034658427  0.9999999993275637  0.3164721524351890
  0.9999999962063129  0.5000000009161099  0.6835224283858210
  0.9999999995882121  0.4999999999374580  0.3882480972642810
  0.5000000023516975  0.9999999992758788  0.6117606338875916
  0.9999999988751398  0.5000000012341559  0.2692837841170999
  0.4999999979829468  0.0000000013501236  0.7307211903478077
  0.5000000002766143  0.4999999987683097  0.3772338133742252
  0.0000000050082534  0.9999999998017017  0.3772338131534383
  0.0000000002199343  0.0000000009609451  0.6227684690523674
  0.4999999960819537  0.4999999997976019  0.6227684693956448
  0.0000000043531045  0.4999999980864303  0.4601568339058701
  0.4999999957038668  0.0000000008499370  0.5398300406082157
 
  0.00000000E+00  0.00000000E+00  0.00000000E+00
  0.00000000E+00  0.00000000E+00  0.00000000E+00
  0.00000000E+00  0.00000000E+00  0.00000000E+00
  0.00000000E+00  0.00000000E+00  0.00000000E+00
  0.00000000E+00  0.00000000E+00  0.00000000E+00
  0.00000000E+00  0.00000000E+00  0.00000000E+00
  0.00000000E+00  0.00000000E+00  0.00000000E+00
  0.00000000E+00  0.00000000E+00  0.00000000E+00
  0.00000000E+00  0.00000000E+00  0.00000000E+00
  0.00000000E+00  0.00000000E+00  0.00000000E+00
  0.00000000E+00  0.00000000E+00  0.00000000E+00
  0.00000000E+00  0.00000000E+00  0.00000000E+00
  0.00000000E+00  0.00000000E+00  0.00000000E+00
  0.00000000E+00  0.00000000E+00  0.00000000E+00
