 Cu8 H8 C4 O20                          
   1.00000000000000     
    10.1940345950900184    0.0000000000000000    0.0000000000000000
     0.0000000000000000   11.6066220032732392    0.0000000000000000
     0.0000000000000000    0.0000000000000000   16.7477922459139990
   Cu   H    C    O 
     8     8     4    20
Direct
  0.7477866771235209  0.2805528962908872  0.4978220440238421
  0.2762615820861309  0.7831269527172001  0.5059676654952225
  0.7731246709195571  0.7193099384085543  0.5023072958061987
  0.2446721703246465  0.2169427557148751  0.4943075797364517
  0.4825963791650983  0.3811576264088849  0.5095328759816469
  0.5376374676732345  0.8799072323293013  0.4917539908717333
  0.0382907174584639  0.6188166756327195  0.4910106358022153
  0.9830262100012446  0.1201361471345282  0.5080873082401556
  0.2622906741163374  0.4092417302291793  0.4520240150982993
  0.7588162349890792  0.9095805952480757  0.5484088632083270
  0.2586082542374458  0.5908874133369950  0.5485293694035661
  0.7620551226317824  0.0905354914506856  0.4511335836033150
  0.6796265021659205  0.4673894337263265  0.5570528401101585
  0.3452107016249837  0.9670145075676022  0.4409497004114342
  0.8415526508538773  0.5322734005643488  0.4435584125844839
  0.1754685319385587  0.0330857548350386  0.5592710303311086
  0.5125345650515873  0.1230840637420934  0.4755942782427032
  0.5076517228809245  0.6238554456156473  0.5234831665683057
  0.0081650823886991  0.8769460803963740  0.5244390370673659
  0.0132734132035677  0.3761147033101248  0.4768044668569865
  0.3879441373852907  0.1077701509980171  0.4788117360532379
  0.6309520726272150  0.6081249527388948  0.5127852802108449
  0.1327586331222875  0.8922276322974753  0.5214661940988050
  0.8900072430286133  0.3917939481836164  0.4877589979694912
  0.5625437428046880  0.2264800026519452  0.4807983894470306
  0.4585761875971072  0.7276080710568484  0.5247098388996692
  0.9582291053684913  0.7735165016210129  0.5193558002724001
  0.0623216108107898  0.2723602568141079  0.4751097989858866
  0.5929603325276100  0.0379846855257167  0.4679628393170484
  0.4277628858409823  0.5386893610160239  0.5331025176231822
  0.9276435557152464  0.9620559185953402  0.5316970889462438
  0.0931724199885493  0.4613410511700155  0.4673735475813874
  0.3295391468670014  0.3477860276736321  0.4513972379075125
  0.6916531378829031  0.8481499937051427  0.5506397561738668
  0.1913984029976437  0.6523830339082202  0.5491339900856765
  0.8291588889378645  0.1520096074388163  0.4490137784782143
  0.6493994135468817  0.3870379094935300  0.5605926700352480
  0.3724391975548904  0.8854966570987473  0.4382713561714363
  0.8716146370540985  0.6126533693070682  0.4397538879831419
  0.1480879175071719  0.1145720240463801  0.5617534672455806
 
  0.00000000E+00  0.00000000E+00  0.00000000E+00
  0.00000000E+00  0.00000000E+00  0.00000000E+00
  0.00000000E+00  0.00000000E+00  0.00000000E+00
  0.00000000E+00  0.00000000E+00  0.00000000E+00
  0.00000000E+00  0.00000000E+00  0.00000000E+00
  0.00000000E+00  0.00000000E+00  0.00000000E+00
  0.00000000E+00  0.00000000E+00  0.00000000E+00
  0.00000000E+00  0.00000000E+00  0.00000000E+00
  0.00000000E+00  0.00000000E+00  0.00000000E+00
  0.00000000E+00  0.00000000E+00  0.00000000E+00
  0.00000000E+00  0.00000000E+00  0.00000000E+00
  0.00000000E+00  0.00000000E+00  0.00000000E+00
  0.00000000E+00  0.00000000E+00  0.00000000E+00
  0.00000000E+00  0.00000000E+00  0.00000000E+00
  0.00000000E+00  0.00000000E+00  0.00000000E+00
  0.00000000E+00  0.00000000E+00  0.00000000E+00
  0.00000000E+00  0.00000000E+00  0.00000000E+00
  0.00000000E+00  0.00000000E+00  0.00000000E+00
  0.00000000E+00  0.00000000E+00  0.00000000E+00
  0.00000000E+00  0.00000000E+00  0.00000000E+00
  0.00000000E+00  0.00000000E+00  0.00000000E+00
  0.00000000E+00  0.00000000E+00  0.00000000E+00
  0.00000000E+00  0.00000000E+00  0.00000000E+00
  0.00000000E+00  0.00000000E+00  0.00000000E+00
  0.00000000E+00  0.00000000E+00  0.00000000E+00
  0.00000000E+00  0.00000000E+00  0.00000000E+00
  0.00000000E+00  0.00000000E+00  0.00000000E+00
  0.00000000E+00  0.00000000E+00  0.00000000E+00
  0.00000000E+00  0.00000000E+00  0.00000000E+00
  0.00000000E+00  0.00000000E+00  0.00000000E+00
  0.00000000E+00  0.00000000E+00  0.00000000E+00
  0.00000000E+00  0.00000000E+00  0.00000000E+00
  0.00000000E+00  0.00000000E+00  0.00000000E+00
  0.00000000E+00  0.00000000E+00  0.00000000E+00
  0.00000000E+00  0.00000000E+00  0.00000000E+00
  0.00000000E+00  0.00000000E+00  0.00000000E+00
  0.00000000E+00  0.00000000E+00  0.00000000E+00
  0.00000000E+00  0.00000000E+00  0.00000000E+00
  0.00000000E+00  0.00000000E+00  0.00000000E+00
  0.00000000E+00  0.00000000E+00  0.00000000E+00
