CONTCAR\(4)                             
   1.00000000000000     
    15.7967996596999996    0.0000000000000000    0.0000000000000000
    -7.8983998298999998   13.6804298037999992    0.0000000000000000
     0.0000000000000000    0.0000000000000000   18.1074008942000013
   Co   I    O    H 
    16    32     1     1
Direct
  0.0011858148377292 -0.0000206019075361  0.4997318093666623
  0.2477908363904921 -0.0004638699300252  0.5007220093257262
  0.4947069069771945 -0.0068553427380384  0.5039645152123851
  0.7460130559163631 -0.0080155095675195  0.5023624806705220
  0.0023232131343783  0.2508970009384774  0.5005302847849484
  0.2487748337954156  0.2453404145945758  0.5064095497686573
  0.4947429038723912  0.2484486808314215  0.5048349143139895
  0.7484587568592654  0.2486175527994954  0.5008341108705561
  0.0016270421808776  0.5013157973114398  0.5006915701435591
  0.2355295165234511  0.4934410152320386  0.5026726294034262
  0.5023735605414160  0.4995384741885922  0.5091388051960932
  0.7519089024017045  0.5031412516404589  0.5011303241420993
 -0.0008459030196453  0.7493468440504720  0.4999727757357322
  0.2519670449082509  0.7538462854904138  0.5041263985008009
  0.5048021971401423  0.7572392594709342  0.5031939292126819
  0.7503441309552370  0.7522489361398509  0.5002070968214283
  0.0845715001202879  0.1685457112395697  0.4154647243132638
  0.1648940437807724  0.0809242618462672  0.5893702589239068
  0.3335903546208581  0.1678944841963448  0.4160758473682311
  0.4149895556275971  0.0808042151772633  0.5878825833433700
  0.5887490421582222  0.1701918045292783  0.4207965499962206
  0.6693142329276873  0.0888682151503893  0.5823522496572727
  0.8279499845354684  0.1693163821842272  0.4191941085878590
  0.9149263181428327  0.0814914255429637  0.5850291116070677
  0.0812632802285391  0.4156036881049188  0.4122170042342186
  0.1615898343253482  0.3298946807070905  0.5925248457101303
  0.3331582340349373  0.4185746589503008  0.4274488030494285
  0.4161902332049773  0.3295806475110866  0.5959782442547817
  0.5798496285287865  0.4170725360284329  0.4196243042345497
  0.6700188171467084  0.3279282823363950  0.5835055199969921
  0.8274103357840117  0.4084192509171778  0.4193620550346748
  0.9082538771597815  0.3287958697941758  0.5816355188028408
  0.0828946438878879  0.6656369776575943  0.4157648927554698
  0.1634084154425511  0.5810966561329836  0.5906067929983277
  0.3314968302911058  0.6666818949871919  0.4209544948845531
  0.4174467887352433  0.5808764897457130  0.5784734409726172
  0.5856111563316637  0.6699072027609468  0.4163732575022832
  0.6686525967972564  0.5828927753712640  0.5898700767262616
  0.8325527193630683  0.6656052916495528  0.4136576503626427
  0.9161547224358705  0.5827382749435269  0.5873324209734843
  0.0833880096870658  0.9168359572370705  0.4133482372295300
  0.1658432229711858  0.8326447727112063  0.5873126930787986
  0.3337391985194939  0.9172835861094953  0.4152376071518806
  0.4171848901157381  0.8325554059672998  0.5933321504664425
  0.5818653094009111  0.9173114969562892  0.4151069872162807
  0.6666918370538291  0.8329715484123836  0.5918797853132274
  0.8330250692630145  0.9182242658708630  0.4133335592723937
  0.9157635482272520  0.8326469722093822  0.5851117680679997
  0.4608346066764238  0.6313056065954911  0.6859289138214995
  0.4255441920589761  0.5731520319207566  0.7171703606222309
 
  0.00000000E+00  0.00000000E+00  0.00000000E+00
  0.00000000E+00  0.00000000E+00  0.00000000E+00
  0.00000000E+00  0.00000000E+00  0.00000000E+00
  0.00000000E+00  0.00000000E+00  0.00000000E+00
  0.00000000E+00  0.00000000E+00  0.00000000E+00
  0.00000000E+00  0.00000000E+00  0.00000000E+00
  0.00000000E+00  0.00000000E+00  0.00000000E+00
  0.00000000E+00  0.00000000E+00  0.00000000E+00
  0.00000000E+00  0.00000000E+00  0.00000000E+00
  0.00000000E+00  0.00000000E+00  0.00000000E+00
  0.00000000E+00  0.00000000E+00  0.00000000E+00
  0.00000000E+00  0.00000000E+00  0.00000000E+00
  0.00000000E+00  0.00000000E+00  0.00000000E+00
  0.00000000E+00  0.00000000E+00  0.00000000E+00
  0.00000000E+00  0.00000000E+00  0.00000000E+00
  0.00000000E+00  0.00000000E+00  0.00000000E+00
  0.00000000E+00  0.00000000E+00  0.00000000E+00
  0.00000000E+00  0.00000000E+00  0.00000000E+00
  0.00000000E+00  0.00000000E+00  0.00000000E+00
  0.00000000E+00  0.00000000E+00  0.00000000E+00
  0.00000000E+00  0.00000000E+00  0.00000000E+00
  0.00000000E+00  0.00000000E+00  0.00000000E+00
  0.00000000E+00  0.00000000E+00  0.00000000E+00
  0.00000000E+00  0.00000000E+00  0.00000000E+00
  0.00000000E+00  0.00000000E+00  0.00000000E+00
  0.00000000E+00  0.00000000E+00  0.00000000E+00
  0.00000000E+00  0.00000000E+00  0.00000000E+00
  0.00000000E+00  0.00000000E+00  0.00000000E+00
  0.00000000E+00  0.00000000E+00  0.00000000E+00
  0.00000000E+00  0.00000000E+00  0.00000000E+00
  0.00000000E+00  0.00000000E+00  0.00000000E+00
  0.00000000E+00  0.00000000E+00  0.00000000E+00
  0.00000000E+00  0.00000000E+00  0.00000000E+00
  0.00000000E+00  0.00000000E+00  0.00000000E+00
  0.00000000E+00  0.00000000E+00  0.00000000E+00
  0.00000000E+00  0.00000000E+00  0.00000000E+00
  0.00000000E+00  0.00000000E+00  0.00000000E+00
  0.00000000E+00  0.00000000E+00  0.00000000E+00
  0.00000000E+00  0.00000000E+00  0.00000000E+00
  0.00000000E+00  0.00000000E+00  0.00000000E+00
  0.00000000E+00  0.00000000E+00  0.00000000E+00
  0.00000000E+00  0.00000000E+00  0.00000000E+00
  0.00000000E+00  0.00000000E+00  0.00000000E+00
  0.00000000E+00  0.00000000E+00  0.00000000E+00
  0.00000000E+00  0.00000000E+00  0.00000000E+00
  0.00000000E+00  0.00000000E+00  0.00000000E+00
  0.00000000E+00  0.00000000E+00  0.00000000E+00
  0.00000000E+00  0.00000000E+00  0.00000000E+00
  0.00000000E+00  0.00000000E+00  0.00000000E+00
  0.00000000E+00  0.00000000E+00  0.00000000E+00
