CONTCAR\(5)                             
   1.00000000000000     
    10.8359003066999993    0.0000000000000000    0.0000000000000000
    -5.4179501533999996    9.3841649384999997    0.0000000000000000
     0.0000000000000000    0.0000000000000000   23.8684997559000003
   Ga   Ni   S 
    18     9    36
Direct
  0.1111099969999998  0.2222199950000032  0.6413445504496588
  0.2222199970000034  0.1111099969999998  0.3586554495503413
  0.4444399939999997  0.2222199950000032  0.6413445504496588
  0.5555600149999975  0.1111099969999998  0.3586554495503413
  0.7777799790000017  0.2222199950000032  0.6413445504496588
  0.8888899900000027  0.1111099969999998  0.3586554495503413
  0.1111099949999996  0.5555599970000031  0.6413445504496588
  0.2222199950000032  0.4444399890000028  0.3586554495503413
  0.4444399910000030  0.5555599970000031  0.6413445504496588
  0.5555600020000000  0.4444399890000028  0.3586554495503413
  0.7777799540000032  0.5555599970000031  0.6413445504496588
  0.8888900199999981  0.4444399890000028  0.3586554495503413
  0.1111100070000006  0.8888900399999997  0.6413445504496588
  0.2222200140000012  0.7777799919999993  0.3586554495503413
  0.4444400029999969  0.8888900399999997  0.6413445504496588
  0.5555600220000017  0.7777799919999993  0.3586554495503413
  0.7777799670000007  0.8888900399999997  0.6413445504496588
  0.8888900399999997  0.7777799919999993  0.3586554495503413
 -0.0000000000000000 -0.0000000000000000  0.5000000000000000
  0.3333299960000033  0.0000000000000000  0.5000000000000000
  0.6666700259999985  0.0000000000000000  0.5000000000000000
  0.9999999979999998  0.3333299920000030  0.5000000000000000
  0.3333299940000032  0.3333299920000030  0.5000000000000000
  0.6666700130000009  0.3333299920000030  0.5000000000000000
  0.9999999839999987  0.6666699940000029  0.5000000000000000
  0.3333299809999986  0.6666699940000029  0.5000000000000000
  0.6666700099999971  0.6666699940000029  0.5000000000000000
  0.2222199970000034  0.1111099969999998  0.4516901633789689
  0.1111099969999998  0.2222199950000032  0.5483098766210345
  0.2222199970000034  0.1111099969999998  0.6858915817680078
  0.1111099969999998  0.2222199950000032  0.3141083782319959
  0.5555600149999975  0.1111099969999998  0.4516901633789689
  0.4444399939999997  0.2222199950000032  0.5483098766210345
  0.5555600149999975  0.1111099969999998  0.6858915817680078
  0.4444399939999997  0.2222199950000032  0.3141083782319959
  0.8888899900000027  0.1111099969999998  0.4516901633789689
  0.7777799790000017  0.2222199950000032  0.5483098766210345
  0.8888899900000027  0.1111099969999998  0.6858915817680078
  0.7777799790000017  0.2222199950000032  0.3141083782319959
  0.2222199950000032  0.4444399890000028  0.4516901633789689
  0.1111099949999996  0.5555599970000031  0.5483098766210345
  0.2222199950000032  0.4444399890000028  0.6858915817680078
  0.1111099949999996  0.5555599970000031  0.3141083782319959
  0.5555600020000000  0.4444399890000028  0.4516901633789689
  0.4444399910000030  0.5555599970000031  0.5483098766210345
  0.5555600020000000  0.4444399890000028  0.6858915817680078
  0.4444399910000030  0.5555599970000031  0.3141083782319959
  0.8888900199999981  0.4444399890000028  0.4516901633789689
  0.7777799540000032  0.5555599970000031  0.5483098766210345
  0.8888900199999981  0.4444399890000028  0.6858915817680078
  0.7777799540000032  0.5555599970000031  0.3141083782319959
  0.2222200140000012  0.7777799919999993  0.4516901633789689
  0.1111100070000006  0.8888900399999997  0.5483098766210345
  0.2222200140000012  0.7777799919999993  0.6858915817680078
  0.1111100070000006  0.8888900399999997  0.3141083782319959
  0.5555600220000017  0.7777799919999993  0.4516901633789689
  0.4444400029999969  0.8888900399999997  0.5483098766210345
  0.5555600220000017  0.7777799919999993  0.6858915817680078
  0.4444400029999969  0.8888900399999997  0.3141083782319959
  0.8888900399999997  0.7777799919999993  0.4516901633789689
  0.7777799670000007  0.8888900399999997  0.5483098766210345
  0.8888900399999997  0.7777799919999993  0.6858915817680078
  0.7777799670000007  0.8888900399999997  0.3141083782319959
 
  0.00000000E+00  0.00000000E+00  0.00000000E+00
  0.00000000E+00  0.00000000E+00  0.00000000E+00
  0.00000000E+00  0.00000000E+00  0.00000000E+00
  0.00000000E+00  0.00000000E+00  0.00000000E+00
  0.00000000E+00  0.00000000E+00  0.00000000E+00
  0.00000000E+00  0.00000000E+00  0.00000000E+00
  0.00000000E+00  0.00000000E+00  0.00000000E+00
  0.00000000E+00  0.00000000E+00  0.00000000E+00
  0.00000000E+00  0.00000000E+00  0.00000000E+00
  0.00000000E+00  0.00000000E+00  0.00000000E+00
  0.00000000E+00  0.00000000E+00  0.00000000E+00
  0.00000000E+00  0.00000000E+00  0.00000000E+00
  0.00000000E+00  0.00000000E+00  0.00000000E+00
  0.00000000E+00  0.00000000E+00  0.00000000E+00
  0.00000000E+00  0.00000000E+00  0.00000000E+00
  0.00000000E+00  0.00000000E+00  0.00000000E+00
  0.00000000E+00  0.00000000E+00  0.00000000E+00
  0.00000000E+00  0.00000000E+00  0.00000000E+00
  0.00000000E+00  0.00000000E+00  0.00000000E+00
  0.00000000E+00  0.00000000E+00  0.00000000E+00
  0.00000000E+00  0.00000000E+00  0.00000000E+00
  0.00000000E+00  0.00000000E+00  0.00000000E+00
  0.00000000E+00  0.00000000E+00  0.00000000E+00
  0.00000000E+00  0.00000000E+00  0.00000000E+00
  0.00000000E+00  0.00000000E+00  0.00000000E+00
  0.00000000E+00  0.00000000E+00  0.00000000E+00
  0.00000000E+00  0.00000000E+00  0.00000000E+00
  0.00000000E+00  0.00000000E+00  0.00000000E+00
  0.00000000E+00  0.00000000E+00  0.00000000E+00
  0.00000000E+00  0.00000000E+00  0.00000000E+00
  0.00000000E+00  0.00000000E+00  0.00000000E+00
  0.00000000E+00  0.00000000E+00  0.00000000E+00
  0.00000000E+00  0.00000000E+00  0.00000000E+00
  0.00000000E+00  0.00000000E+00  0.00000000E+00
  0.00000000E+00  0.00000000E+00  0.00000000E+00
  0.00000000E+00  0.00000000E+00  0.00000000E+00
  0.00000000E+00  0.00000000E+00  0.00000000E+00
  0.00000000E+00  0.00000000E+00  0.00000000E+00
  0.00000000E+00  0.00000000E+00  0.00000000E+00
  0.00000000E+00  0.00000000E+00  0.00000000E+00
  0.00000000E+00  0.00000000E+00  0.00000000E+00
  0.00000000E+00  0.00000000E+00  0.00000000E+00
  0.00000000E+00  0.00000000E+00  0.00000000E+00
  0.00000000E+00  0.00000000E+00  0.00000000E+00
  0.00000000E+00  0.00000000E+00  0.00000000E+00
  0.00000000E+00  0.00000000E+00  0.00000000E+00
  0.00000000E+00  0.00000000E+00  0.00000000E+00
  0.00000000E+00  0.00000000E+00  0.00000000E+00
  0.00000000E+00  0.00000000E+00  0.00000000E+00
  0.00000000E+00  0.00000000E+00  0.00000000E+00
  0.00000000E+00  0.00000000E+00  0.00000000E+00
  0.00000000E+00  0.00000000E+00  0.00000000E+00
  0.00000000E+00  0.00000000E+00  0.00000000E+00
  0.00000000E+00  0.00000000E+00  0.00000000E+00
  0.00000000E+00  0.00000000E+00  0.00000000E+00
  0.00000000E+00  0.00000000E+00  0.00000000E+00
  0.00000000E+00  0.00000000E+00  0.00000000E+00
  0.00000000E+00  0.00000000E+00  0.00000000E+00
  0.00000000E+00  0.00000000E+00  0.00000000E+00
  0.00000000E+00  0.00000000E+00  0.00000000E+00
  0.00000000E+00  0.00000000E+00  0.00000000E+00
  0.00000000E+00  0.00000000E+00  0.00000000E+00
  0.00000000E+00  0.00000000E+00  0.00000000E+00
