CONTCAR\(8)                             
   1.00000000000000     
    12.6962003707999997    0.0000000000000000    0.0000000000000000
     6.3480846718999997   11.0165970520999998    0.0000000000000000
     0.0000000000000000    0.0000000000000000   18.4927997588999986
   V    Ag   P    Se
     4     4     8    24
Direct
  0.1642540670035413  0.1714818829929120  0.5000000000000000
  0.6642540670035413  0.1714818829929120  0.5000000000000000
  0.1642540480035433  0.6714819039929102  0.5000000000000000
  0.6642540860035464  0.6714819039929102  0.5000000000000000
  0.3326172595734982  0.3347554048530083  0.5000000000000000
  0.8326172975734943  0.3347554048530083  0.5000000000000000
  0.3326172725734957  0.8347554368530110  0.5000000000000000
  0.8326173105734990  0.8347554368530110  0.5000000000000000
  0.4986052932751906  0.0034399525925429  0.5601513865052103
  0.4979546871322645  0.0034399525925429  0.4398486134947895
  0.9986053312751866  0.0034399525925429  0.5601513865052103
  0.9979547251322678  0.0034399525925429  0.4398486134947895
  0.4986053272751863  0.5034399425925421  0.5601513865052103
  0.4979547211322674  0.5034399425925421  0.4398486134947895
  0.9986053652751894  0.5034399425925421  0.5601513865052103
  0.9979547591322635  0.5034399425925421  0.4398486134947895
  0.1554742772820764  0.3252774876703287  0.4065881458496063
  0.0192482040475959  0.3252774876703287  0.5934119061503910
  0.3197547588242446  0.1610482734068311  0.5929644512819501
  0.0192069107689263  0.1610482734068311  0.4070355487180498
  0.3196071548830016  0.0238156059073361  0.4072608002542024
  0.1565772222096645  0.0238156059073361  0.5927291947457974
  0.6554742022820736  0.3252774876703287  0.4065881458496063
  0.5192481660475999  0.3252774876703287  0.5934119061503910
  0.8197547958242442  0.1610482734068311  0.5929644512819501
  0.5192069007689255  0.1610482734068311  0.4070355487180498
  0.8196071548830016  0.0238156059073361  0.4072608002542024
  0.6565772602096607  0.0238156059073361  0.5927291947457974
  0.1554742742820726  0.8252774756703278  0.4065881458496063
  0.0192482010475993  0.8252774756703278  0.5934119061503910
  0.3197547288242493  0.6610482404068247  0.5929644512819501
  0.0192069087689261  0.6610482404068247  0.4070355487180498
  0.3196071638829988  0.5238155699073401  0.4072608002542024
  0.1565772312096617  0.5238155699073401  0.5927291947457974
  0.6554742372820730  0.8252774756703278  0.4065881458496063
  0.5192482010475993  0.8252774756703278  0.5934119061503910
  0.8197547668242453  0.6610482404068247  0.5929644512819501
  0.5192068717689267  0.6610482404068247  0.4070355487180498
  0.8196071268829993  0.5238155699073401  0.4072608002542024
  0.6565772312096618  0.5238155699073401  0.5927291947457974
 
  0.00000000E+00  0.00000000E+00  0.00000000E+00
  0.00000000E+00  0.00000000E+00  0.00000000E+00
  0.00000000E+00  0.00000000E+00  0.00000000E+00
  0.00000000E+00  0.00000000E+00  0.00000000E+00
  0.00000000E+00  0.00000000E+00  0.00000000E+00
  0.00000000E+00  0.00000000E+00  0.00000000E+00
  0.00000000E+00  0.00000000E+00  0.00000000E+00
  0.00000000E+00  0.00000000E+00  0.00000000E+00
  0.00000000E+00  0.00000000E+00  0.00000000E+00
  0.00000000E+00  0.00000000E+00  0.00000000E+00
  0.00000000E+00  0.00000000E+00  0.00000000E+00
  0.00000000E+00  0.00000000E+00  0.00000000E+00
  0.00000000E+00  0.00000000E+00  0.00000000E+00
  0.00000000E+00  0.00000000E+00  0.00000000E+00
  0.00000000E+00  0.00000000E+00  0.00000000E+00
  0.00000000E+00  0.00000000E+00  0.00000000E+00
  0.00000000E+00  0.00000000E+00  0.00000000E+00
  0.00000000E+00  0.00000000E+00  0.00000000E+00
  0.00000000E+00  0.00000000E+00  0.00000000E+00
  0.00000000E+00  0.00000000E+00  0.00000000E+00
  0.00000000E+00  0.00000000E+00  0.00000000E+00
  0.00000000E+00  0.00000000E+00  0.00000000E+00
  0.00000000E+00  0.00000000E+00  0.00000000E+00
  0.00000000E+00  0.00000000E+00  0.00000000E+00
  0.00000000E+00  0.00000000E+00  0.00000000E+00
  0.00000000E+00  0.00000000E+00  0.00000000E+00
  0.00000000E+00  0.00000000E+00  0.00000000E+00
  0.00000000E+00  0.00000000E+00  0.00000000E+00
  0.00000000E+00  0.00000000E+00  0.00000000E+00
  0.00000000E+00  0.00000000E+00  0.00000000E+00
  0.00000000E+00  0.00000000E+00  0.00000000E+00
  0.00000000E+00  0.00000000E+00  0.00000000E+00
  0.00000000E+00  0.00000000E+00  0.00000000E+00
  0.00000000E+00  0.00000000E+00  0.00000000E+00
  0.00000000E+00  0.00000000E+00  0.00000000E+00
  0.00000000E+00  0.00000000E+00  0.00000000E+00
  0.00000000E+00  0.00000000E+00  0.00000000E+00
  0.00000000E+00  0.00000000E+00  0.00000000E+00
  0.00000000E+00  0.00000000E+00  0.00000000E+00
  0.00000000E+00  0.00000000E+00  0.00000000E+00
