CONTCAR\(9)                             
   1.00000000000000     
    11.7566995620999997    0.0000000000000000    0.0000000000000000
     0.0000000000000000   11.8254995346000005    0.0000000000000000
     0.0000000000000000    0.0000000000000000   21.8330993651999989
   Zr   Te   O    H 
    12    36     2     1
Direct
  0.0799468948345705  0.3320580245759643  0.5754575119962055
  0.2458849981931834  0.0821439829034176  0.4221274032241027
  0.4133156074284159  0.3315241125706407  0.5745702905430434
  0.5790532049460069  0.0824229658201219  0.4220302472546038
  0.7472699199446069  0.3312198560505948  0.5750941390435429
  0.9120555969082531  0.0815567620802184  0.4221826805028428
  0.0788217730779976  0.8316119188116886  0.5755132415863571
  0.2452765492118303  0.5822677045078493  0.4218170259708671
  0.4138702777144090  0.8328603695328809  0.5766233799939329
  0.5787066083217951  0.5816260319150217  0.4215513231895827
  0.7436128688181611  0.8324185530240555  0.5769370314448992
  0.9120816548851707  0.5815012618981257  0.4224582380546380
  0.2457471340788828  0.2115970109875036  0.6538128803792205
  0.2445910771370663  0.3319319465555068  0.4733185873188859
  0.0783016734285411  0.2007763703451531  0.3426920714394512
  0.0784500096621272  0.4635650518285175  0.3423470789837708
  0.2485587453864966  0.4495917511918535  0.6567993706593214
  0.0792087569332409  0.0820543632902186  0.5238346742998345
  0.5789020657151482  0.2221658205004999  0.6570187932150660
  0.5793558485257435  0.3319555145286515  0.4725387066162270
  0.4119445849409402  0.2010602868865519  0.3426241070574960
  0.4118273085054014  0.4637740198391356  0.3420952820724921
  0.5776126360511142  0.4651264453024737  0.6418750409511489
  0.4127799023280190  0.0825404767785187  0.5234249666290225
  0.9133532930797159  0.2127196641890450  0.6547669250647772
  0.9134420718786416  0.3309622957552278  0.4736762067639972
  0.7452090389699464  0.1999371891210941  0.3422676157312452
  0.7461034422111013  0.4626074954005901  0.3428795438072001
  0.9125346290225949  0.4498827519887243  0.6558261029367642
  0.7455939172959631  0.0823084002081202  0.5237202023226502
  0.2454266167401258  0.7118825699786271  0.6540879146725160
  0.2464151749780399  0.8324374017004033  0.4743396606714398
  0.0779425718665436  0.7011426666510943  0.3429889351606903
  0.0791125584757211  0.9632442992904515  0.3427439242908932
  0.2452636967431019  0.9494583457279049  0.6565056410924797
  0.0791977426068726  0.5819338579064421  0.5238497386078294
  0.5782247510208762  0.7195478384266139  0.6603531068039388
  0.5789154477588170  0.8319616817022037  0.4740808299716619
  0.4116352285393887  0.7013678255619737  0.3424320565499102
  0.4123932963228611  0.9635401706315818  0.3422295536965905
  0.5787411993999640  0.9600382175213937  0.6512623603780128
  0.4118848493150935  0.5835132967503895  0.5228328945763678
  0.9122442186977437  0.7126872812252145  0.6550429412402039
  0.9108546970684088  0.8317663848209733  0.4745347115863510
  0.7453497625882903  0.7001609122311905  0.3423340960287860
  0.7459456344966355  0.9625093829576912  0.3426464596313323
  0.9118407504636181  0.9499578757226956  0.6559654608203260
  0.7449677527015197  0.5826488499481641  0.5237550997058875
  0.5024298508046101  0.3746282087594821  0.7703778819639737
  0.5415173063809036  0.4755101496197653  0.7410203368834232
  0.4198145255958181  0.3775541694778042  0.7627762606141673
 
  0.00000000E+00  0.00000000E+00  0.00000000E+00
  0.00000000E+00  0.00000000E+00  0.00000000E+00
  0.00000000E+00  0.00000000E+00  0.00000000E+00
  0.00000000E+00  0.00000000E+00  0.00000000E+00
  0.00000000E+00  0.00000000E+00  0.00000000E+00
  0.00000000E+00  0.00000000E+00  0.00000000E+00
  0.00000000E+00  0.00000000E+00  0.00000000E+00
  0.00000000E+00  0.00000000E+00  0.00000000E+00
  0.00000000E+00  0.00000000E+00  0.00000000E+00
  0.00000000E+00  0.00000000E+00  0.00000000E+00
  0.00000000E+00  0.00000000E+00  0.00000000E+00
  0.00000000E+00  0.00000000E+00  0.00000000E+00
  0.00000000E+00  0.00000000E+00  0.00000000E+00
  0.00000000E+00  0.00000000E+00  0.00000000E+00
  0.00000000E+00  0.00000000E+00  0.00000000E+00
  0.00000000E+00  0.00000000E+00  0.00000000E+00
  0.00000000E+00  0.00000000E+00  0.00000000E+00
  0.00000000E+00  0.00000000E+00  0.00000000E+00
  0.00000000E+00  0.00000000E+00  0.00000000E+00
  0.00000000E+00  0.00000000E+00  0.00000000E+00
  0.00000000E+00  0.00000000E+00  0.00000000E+00
  0.00000000E+00  0.00000000E+00  0.00000000E+00
  0.00000000E+00  0.00000000E+00  0.00000000E+00
  0.00000000E+00  0.00000000E+00  0.00000000E+00
  0.00000000E+00  0.00000000E+00  0.00000000E+00
  0.00000000E+00  0.00000000E+00  0.00000000E+00
  0.00000000E+00  0.00000000E+00  0.00000000E+00
  0.00000000E+00  0.00000000E+00  0.00000000E+00
  0.00000000E+00  0.00000000E+00  0.00000000E+00
  0.00000000E+00  0.00000000E+00  0.00000000E+00
  0.00000000E+00  0.00000000E+00  0.00000000E+00
  0.00000000E+00  0.00000000E+00  0.00000000E+00
  0.00000000E+00  0.00000000E+00  0.00000000E+00
  0.00000000E+00  0.00000000E+00  0.00000000E+00
  0.00000000E+00  0.00000000E+00  0.00000000E+00
  0.00000000E+00  0.00000000E+00  0.00000000E+00
  0.00000000E+00  0.00000000E+00  0.00000000E+00
  0.00000000E+00  0.00000000E+00  0.00000000E+00
  0.00000000E+00  0.00000000E+00  0.00000000E+00
  0.00000000E+00  0.00000000E+00  0.00000000E+00
  0.00000000E+00  0.00000000E+00  0.00000000E+00
  0.00000000E+00  0.00000000E+00  0.00000000E+00
  0.00000000E+00  0.00000000E+00  0.00000000E+00
  0.00000000E+00  0.00000000E+00  0.00000000E+00
  0.00000000E+00  0.00000000E+00  0.00000000E+00
  0.00000000E+00  0.00000000E+00  0.00000000E+00
  0.00000000E+00  0.00000000E+00  0.00000000E+00
  0.00000000E+00  0.00000000E+00  0.00000000E+00
  0.00000000E+00  0.00000000E+00  0.00000000E+00
  0.00000000E+00  0.00000000E+00  0.00000000E+00
  0.00000000E+00  0.00000000E+00  0.00000000E+00
