 K1 V4 O10                              
   1.00000000000000     
     3.5999781192210176    0.0000000000000000    0.0000000000000000
    -1.7999885742227748    5.5365899968013279    0.0000000000000000
     0.0000000000000000    0.0000000000000000   23.2911750450979973
   K    V    O 
     1     4    10
Direct
  0.4001293487273992  0.7998522995067134  0.5000009117178796
  0.2270369812714987  0.4542871256140691  0.3496617078462174
  0.2270277283736609  0.4542758325591135  0.6503403974211245
  0.9330353583315273  0.8660073832555298  0.3485287028755135
  0.9330445168390720  0.8660245834753938  0.6514706381280495
  0.0800786236158264  0.1601243728696710  0.3182591332373750
  0.2119905254680213  0.4241644844899914  0.5815397827806873
  0.2119883666297620  0.4241601755960648  0.4184538824857364
  0.0800785036692191  0.1601238384448355  0.6817525771514236
  0.4020767913860743  0.8041515010901531  0.3296562584511470
  0.4020722189052466  0.8041421055376025  0.6703425013245174
  0.7580637176468240  0.5162282893494015  0.3299753036522970
  0.9494307023419364  0.8986591329556954  0.4177215828526332
  0.7580739528433114  0.5162545320504892  0.6700237338699280
  0.9494356639506307  0.8986683432052796  0.5822728862054655
 
  0.00000000E+00  0.00000000E+00  0.00000000E+00
  0.00000000E+00  0.00000000E+00  0.00000000E+00
  0.00000000E+00  0.00000000E+00  0.00000000E+00
  0.00000000E+00  0.00000000E+00  0.00000000E+00
  0.00000000E+00  0.00000000E+00  0.00000000E+00
  0.00000000E+00  0.00000000E+00  0.00000000E+00
  0.00000000E+00  0.00000000E+00  0.00000000E+00
  0.00000000E+00  0.00000000E+00  0.00000000E+00
  0.00000000E+00  0.00000000E+00  0.00000000E+00
  0.00000000E+00  0.00000000E+00  0.00000000E+00
  0.00000000E+00  0.00000000E+00  0.00000000E+00
  0.00000000E+00  0.00000000E+00  0.00000000E+00
  0.00000000E+00  0.00000000E+00  0.00000000E+00
  0.00000000E+00  0.00000000E+00  0.00000000E+00
  0.00000000E+00  0.00000000E+00  0.00000000E+00
