CONTCAR\(3)                             
   1.00000000000000     
    10.9738998412999997    0.0000000000000000    0.0000000000000000
     0.0000000000000000   10.9738998412999997    0.0000000000000000
     0.0000000000000000    0.0000000000000000   19.0231990814000014
   Li   Co   As   O    H 
    18    18    18     1     1
Direct
  0.1622724215678701  0.0000290863299170  0.6066254285160539
  0.9947371831737613  0.1634122987912860  0.3947296704708592
  0.4948148343664869  0.0000096048694331  0.6066844073281672
  0.3294379909719538  0.1633413728386159  0.3946495329983364
  0.8287316924207815  0.0001175037282408  0.6069483517912673
  0.6614815306771646  0.1635756319021837  0.3951756782278721
  0.1618127953746082  0.3357645002699172  0.6048149702897376
  0.9939387380792297  0.5000778227220337  0.3906929202319276
  0.4942600840703832  0.3678775129164507  0.6364954063024015
  0.3279993570329225  0.4999615825981536  0.3933122203960835
  0.8291385043933417  0.3354775365915259  0.6051999979260998
  0.6629605429027734  0.5000662119511148  0.3941326083413017
  0.1618489314212539  0.6643500942357008  0.6048159999378200
  0.9946344100817228  0.8366323639968982  0.3947652213219612
  0.4943305435485570  0.6322358764160683  0.6364971832976636
  0.3293853778824527  0.8368224798495376  0.3946468583914040
  0.8290786015156684  0.6645976545147292  0.6052011392841479
  0.6614659045646292  0.8365337401153923  0.3951774103344903
  0.1627758128068919  0.1669753064388786  0.5008765319662416
  0.9958017052685406  0.9999622322571113  0.5007890064642453
  0.4955851964572418  0.1691807277390396  0.5024265324433301
  0.3283969876065456  0.0001282075088795  0.5035210102287238
  0.8287003713433094  0.1667483145668882  0.5014143527135531
  0.6623311356320514  0.0000230091636979  0.5037435903104495
  0.1574868421261542  0.5000177594940070  0.4935310868141798
  0.9959483634058515  0.3323440183555917  0.4991724724948057
  0.4953247154579188  0.4999742959900075  0.4974918275405926
  0.3278140029747405  0.3313724979596628  0.4971418358173665
  0.8320434100219813  0.5000292050957071  0.4961026554894303
  0.6622988356582482  0.3315097441983426  0.4983990021135156
  0.1628073866706572  0.8331372859384487  0.5008340272905016
  0.9960256210342280  0.6678995259283056  0.4992384821076641
  0.4954949232877226  0.8309859649059348  0.5019884817236786
  0.3277960607304280  0.6686907212634949  0.4969952492257690
  0.8284923500167451  0.8333783865094802  0.5016715269844667
  0.6622122577161136  0.6685941922098309  0.4984245995833874
  0.9960529805447464  0.1669757271889125  0.5777074385624985
  0.1630900541426783  0.0000547264954207  0.4250694142474529
  0.3296184299828440  0.1700635885549886  0.5783252648255797
  0.4953577629824721  0.0002611097083118  0.4278354969910083
  0.6612905376471474  0.1696760586014747  0.5788209991273021
  0.8273983177504931  0.9999584999108109  0.4255905209351383
  0.9959082702027189  0.5001160782240817  0.5749745413069220
  0.1610306406821493  0.3299476054264403  0.4204472222684643
  0.3225090830758646  0.5000886923891983  0.5677953271284224
  0.4956158579524015  0.3324414729653284  0.4215431179672322
  0.6658551941051698  0.5000326882592532  0.5698009998814371
  0.8291718415901812  0.3305735978178035  0.4220640005171390
  0.9960180373389136  0.8331220024868031  0.5777599243557603
  0.1609437631681701  0.6701071980901290  0.4203856848512189
  0.3297380793793181  0.8300041573980650  0.5781861554100942
  0.4956262549737929  0.6675474393476364  0.4214056028176927
  0.6608830256724119  0.8304473231970562  0.5788319129305961
  0.8292114009565523  0.6695833676759477  0.4222485507829248
  0.4838074198514235  0.5000543357477980  0.6974443905132119
  0.4418272187395900  0.5000696103540250  0.7422762978803945
 
  0.00000000E+00  0.00000000E+00  0.00000000E+00
  0.00000000E+00  0.00000000E+00  0.00000000E+00
  0.00000000E+00  0.00000000E+00  0.00000000E+00
  0.00000000E+00  0.00000000E+00  0.00000000E+00
  0.00000000E+00  0.00000000E+00  0.00000000E+00
  0.00000000E+00  0.00000000E+00  0.00000000E+00
  0.00000000E+00  0.00000000E+00  0.00000000E+00
  0.00000000E+00  0.00000000E+00  0.00000000E+00
  0.00000000E+00  0.00000000E+00  0.00000000E+00
  0.00000000E+00  0.00000000E+00  0.00000000E+00
  0.00000000E+00  0.00000000E+00  0.00000000E+00
  0.00000000E+00  0.00000000E+00  0.00000000E+00
  0.00000000E+00  0.00000000E+00  0.00000000E+00
  0.00000000E+00  0.00000000E+00  0.00000000E+00
  0.00000000E+00  0.00000000E+00  0.00000000E+00
  0.00000000E+00  0.00000000E+00  0.00000000E+00
  0.00000000E+00  0.00000000E+00  0.00000000E+00
  0.00000000E+00  0.00000000E+00  0.00000000E+00
  0.00000000E+00  0.00000000E+00  0.00000000E+00
  0.00000000E+00  0.00000000E+00  0.00000000E+00
  0.00000000E+00  0.00000000E+00  0.00000000E+00
  0.00000000E+00  0.00000000E+00  0.00000000E+00
  0.00000000E+00  0.00000000E+00  0.00000000E+00
  0.00000000E+00  0.00000000E+00  0.00000000E+00
  0.00000000E+00  0.00000000E+00  0.00000000E+00
  0.00000000E+00  0.00000000E+00  0.00000000E+00
  0.00000000E+00  0.00000000E+00  0.00000000E+00
  0.00000000E+00  0.00000000E+00  0.00000000E+00
  0.00000000E+00  0.00000000E+00  0.00000000E+00
  0.00000000E+00  0.00000000E+00  0.00000000E+00
  0.00000000E+00  0.00000000E+00  0.00000000E+00
  0.00000000E+00  0.00000000E+00  0.00000000E+00
  0.00000000E+00  0.00000000E+00  0.00000000E+00
  0.00000000E+00  0.00000000E+00  0.00000000E+00
  0.00000000E+00  0.00000000E+00  0.00000000E+00
  0.00000000E+00  0.00000000E+00  0.00000000E+00
  0.00000000E+00  0.00000000E+00  0.00000000E+00
  0.00000000E+00  0.00000000E+00  0.00000000E+00
  0.00000000E+00  0.00000000E+00  0.00000000E+00
  0.00000000E+00  0.00000000E+00  0.00000000E+00
  0.00000000E+00  0.00000000E+00  0.00000000E+00
  0.00000000E+00  0.00000000E+00  0.00000000E+00
  0.00000000E+00  0.00000000E+00  0.00000000E+00
  0.00000000E+00  0.00000000E+00  0.00000000E+00
  0.00000000E+00  0.00000000E+00  0.00000000E+00
  0.00000000E+00  0.00000000E+00  0.00000000E+00
  0.00000000E+00  0.00000000E+00  0.00000000E+00
  0.00000000E+00  0.00000000E+00  0.00000000E+00
  0.00000000E+00  0.00000000E+00  0.00000000E+00
  0.00000000E+00  0.00000000E+00  0.00000000E+00
  0.00000000E+00  0.00000000E+00  0.00000000E+00
  0.00000000E+00  0.00000000E+00  0.00000000E+00
  0.00000000E+00  0.00000000E+00  0.00000000E+00
  0.00000000E+00  0.00000000E+00  0.00000000E+00
  0.00000000E+00  0.00000000E+00  0.00000000E+00
  0.00000000E+00  0.00000000E+00  0.00000000E+00
