La4 Br10                                
   1.00000000000000     
     7.8441393770056358    0.0000000000000000   -0.0669856721827725
     0.0000000000000000    4.2703779925272940    0.0000000000000000
    -0.3598516443089246    0.0000000000000000   13.3966960337422503
   La   Br
     4    10
Direct
  0.0722666598874177  0.2500000000000000  0.8377192795330858
  0.9277333311125781  0.7500000280000023  0.1622807104669134
  0.4272957581600339  0.7500000280000023  0.6591689458004433
  0.5727042408399624  0.2500000000000000  0.3408310791995552
  0.0431120832063194  0.7500000280000023  0.6743508731714830
  0.6939588438486961  0.7500000280000023  0.4899670337642424
  0.1518142808383210  0.2500000000000000  0.0689873111683491
  0.6517968683446824  0.2500000000000000  0.1186224668775113
  0.6737934233759274  0.2500000000000000  0.7309147617907881
  0.3262066366240706  0.7500000280000023  0.2690853162092112
  0.9568879147936804  0.2500000000000000  0.3256491868285147
  0.3060411561513039  0.2500000000000000  0.5100329912357561
  0.3482031026553191  0.7500000280000023  0.8813775931224868
  0.8481856881616801  0.7500000280000023  0.9310126828316505
 
  0.00000000E+00  0.00000000E+00  0.00000000E+00
  0.00000000E+00  0.00000000E+00  0.00000000E+00
  0.00000000E+00  0.00000000E+00  0.00000000E+00
  0.00000000E+00  0.00000000E+00  0.00000000E+00
  0.00000000E+00  0.00000000E+00  0.00000000E+00
  0.00000000E+00  0.00000000E+00  0.00000000E+00
  0.00000000E+00  0.00000000E+00  0.00000000E+00
  0.00000000E+00  0.00000000E+00  0.00000000E+00
  0.00000000E+00  0.00000000E+00  0.00000000E+00
  0.00000000E+00  0.00000000E+00  0.00000000E+00
  0.00000000E+00  0.00000000E+00  0.00000000E+00
  0.00000000E+00  0.00000000E+00  0.00000000E+00
  0.00000000E+00  0.00000000E+00  0.00000000E+00
  0.00000000E+00  0.00000000E+00  0.00000000E+00
