CONTCAR\(3)                             
   1.00000000000000     
    12.4035997391000006    0.0000000000000000    0.0000000000000000
     6.2017683962000003   10.7417350166999999    0.0000000000000000
     0.0000000000000000    0.0000000000000000   17.7593994140999989
   Fe   Br   O    H 
     8    24     1     1
Direct
  0.9945055875719151  0.0098843366273515  0.4979072022631596
  0.1603419578509496  0.1774338645140960  0.5007124439886198
  0.4924422177634610  0.0102320752934595  0.5003596944962505
  0.6892667239964743  0.1536663531783941  0.4879800995793433
  0.9935833969176147  0.5114776951248062  0.5012985243717423
  0.1603496729959394  0.6792217108554042  0.5022925767022953
  0.4933179002730603  0.5128236639844240  0.5055581326585732
  0.6595879876713018  0.6782467026301713  0.5012160515173441
  0.0073654536068745  0.1653130048167277  0.4227856083468118
  0.1464857706010138  0.3448364186111891  0.4240483543353448
  0.3257743450995593  0.0246261300832591  0.4230562626925834
  0.1488571022112535  0.0222750638359021  0.5768211402670406
  0.0081534329437595  0.3443339558737694  0.5790532937599371
  0.3273992930304606  0.1627007909663562  0.5790648775694077
  0.5014969735456780  0.1646452092022672  0.4206351097519621
  0.6472806705048337  0.3505185828864958  0.4230742619415359
  0.8498413243018891  0.0062371770012745  0.4065370375577189
  0.6476788457950560  0.0206925470542440  0.5791134072231936
  0.4836149930998068  0.3611664337333860  0.5768091021102451
  0.8342464665437972  0.1643172075321018  0.5825450127897216
  0.0101558711596117  0.6622208293938469  0.4229921822909718
  0.1563507054009890  0.8411902083748481  0.4249183250500088
  0.3278632246587540  0.5222531105035778  0.4262928861756176
  0.1433112110042580  0.5283584589235926  0.5804923638697781
  0.0031808087196127  0.8468284174292051  0.5758564456872913
  0.3241469233881819  0.6710041116377584  0.5806858962537357
  0.5058895254460019  0.6645830517128770  0.4248688605587496
  0.6456614423728873  0.8442847765935871  0.4227724369941790
  0.8269236325666838  0.5252163046967341  0.4237817104077207
  0.6461110464892336  0.5269287765657906  0.5805866034936333
  0.5063977505932351  0.8445071602181283  0.5783268473012596
  0.8264180067634568  0.6648243053681016  0.5782965276184944
  0.5518285159942103  0.3483558680871818  0.6736427440191336
  0.6406911931181806  0.2869461336897166  0.6657579713566382
 
  0.00000000E+00  0.00000000E+00  0.00000000E+00
  0.00000000E+00  0.00000000E+00  0.00000000E+00
  0.00000000E+00  0.00000000E+00  0.00000000E+00
  0.00000000E+00  0.00000000E+00  0.00000000E+00
  0.00000000E+00  0.00000000E+00  0.00000000E+00
  0.00000000E+00  0.00000000E+00  0.00000000E+00
  0.00000000E+00  0.00000000E+00  0.00000000E+00
  0.00000000E+00  0.00000000E+00  0.00000000E+00
  0.00000000E+00  0.00000000E+00  0.00000000E+00
  0.00000000E+00  0.00000000E+00  0.00000000E+00
  0.00000000E+00  0.00000000E+00  0.00000000E+00
  0.00000000E+00  0.00000000E+00  0.00000000E+00
  0.00000000E+00  0.00000000E+00  0.00000000E+00
  0.00000000E+00  0.00000000E+00  0.00000000E+00
  0.00000000E+00  0.00000000E+00  0.00000000E+00
  0.00000000E+00  0.00000000E+00  0.00000000E+00
  0.00000000E+00  0.00000000E+00  0.00000000E+00
  0.00000000E+00  0.00000000E+00  0.00000000E+00
  0.00000000E+00  0.00000000E+00  0.00000000E+00
  0.00000000E+00  0.00000000E+00  0.00000000E+00
  0.00000000E+00  0.00000000E+00  0.00000000E+00
  0.00000000E+00  0.00000000E+00  0.00000000E+00
  0.00000000E+00  0.00000000E+00  0.00000000E+00
  0.00000000E+00  0.00000000E+00  0.00000000E+00
  0.00000000E+00  0.00000000E+00  0.00000000E+00
  0.00000000E+00  0.00000000E+00  0.00000000E+00
  0.00000000E+00  0.00000000E+00  0.00000000E+00
  0.00000000E+00  0.00000000E+00  0.00000000E+00
  0.00000000E+00  0.00000000E+00  0.00000000E+00
  0.00000000E+00  0.00000000E+00  0.00000000E+00
  0.00000000E+00  0.00000000E+00  0.00000000E+00
  0.00000000E+00  0.00000000E+00  0.00000000E+00
  0.00000000E+00  0.00000000E+00  0.00000000E+00
  0.00000000E+00  0.00000000E+00  0.00000000E+00
