 Ti1 Te2                                
   1.00000000000000     
     3.7318619356038250    0.0000000000000000    0.0000000000000000
    -1.8659309678019125    3.2318844651620608    0.0000000000000000
     0.0000000000000000    0.0000000000000000   18.4460211688199998
   Ti   Te
     1     2
Direct
 -0.0000035401687469  0.0000032657657557  0.5000019960524795
  0.6666678890201607  0.3333310625766062  0.5950067547401838
  0.3333356511485854  0.6666656716576387  0.4049912492073368
 
  0.00000000E+00  0.00000000E+00  0.00000000E+00
  0.00000000E+00  0.00000000E+00  0.00000000E+00
  0.00000000E+00  0.00000000E+00  0.00000000E+00
