CONTCAR\(17)                            
   1.00000000000000     
    11.2035999297999993    0.0000000000000000    0.0000000000000000
     0.0000000000000000   12.2031002045000001    0.0000000000000000
     0.0000000000000000    0.0000000000000000   20.4333000182999989
   Cu   Sb   S 
    12    12    24
Direct
  0.0000000000000000  0.1284700040000004  0.5535400010000018
  0.0000000000000000  0.3784700040000004  0.4464599989999982
  0.3333300139999977  0.1284700040000004  0.5535400010000018
  0.3333300139999977  0.3784700040000004  0.4464599989999982
  0.6666700290000023  0.1284700040000004  0.5535400010000018
  0.6666700290000023  0.3784700040000004  0.4464599989999982
  0.0000000000000000  0.6284700040000004  0.5535400010000018
  0.0000000000000000  0.8784700040000004  0.4464599989999982
  0.3333300139999977  0.6284700040000004  0.5535400010000018
  0.3333300139999977  0.8784700040000004  0.4464599989999982
  0.6666700290000023  0.6284700040000004  0.5535400010000018
  0.6666700290000023  0.8784700040000004  0.4464599989999982
  0.1666699969999996  0.1281499990000015  0.3710800189999972
  0.1666699969999996  0.3781499789999998  0.6289200049999977
  0.5000000000000000  0.1281499990000015  0.3710800189999972
  0.5000000000000000  0.3781499789999998  0.6289200049999977
  0.8333300139999977  0.1281499990000015  0.3710800189999972
  0.8333300139999977  0.3781499789999998  0.6289200049999977
  0.1666699969999996  0.6281499789999998  0.3710800189999972
  0.1666699969999996  0.8781499789999998  0.6289200049999977
  0.5000000000000000  0.6281499789999998  0.3710800189999972
  0.5000000000000000  0.8781499789999998  0.6289200049999977
  0.8333300139999977  0.6281499789999998  0.3710800189999972
  0.8333300139999977  0.8781499789999998  0.6289200049999977
  0.1666699969999996  0.4356799899999970  0.3913199919999997
  0.1666699969999996  0.1856800099999987  0.6086800309999987
  0.0000000000000000  0.4410700070000004  0.5510699960000025
  0.0000000000000000  0.1910700070000004  0.4489300039999975
  0.5000000000000000  0.4356799899999970  0.3913199919999997
  0.5000000000000000  0.1856800099999987  0.6086800309999987
  0.3333300139999977  0.4410700070000004  0.5510699960000025
  0.3333300139999977  0.1910700070000004  0.4489300039999975
  0.8333300139999977  0.4356799899999970  0.3913199919999997
  0.8333300139999977  0.1856800099999987  0.6086800309999987
  0.6666700290000023  0.4410700070000004  0.5510699960000025
  0.6666700290000023  0.1910700070000004  0.4489300039999975
  0.1666699969999996  0.9356799899999970  0.3913199919999997
  0.1666699969999996  0.6856799509999973  0.6086800309999987
  0.0000000000000000  0.9410700070000004  0.5510699960000025
  0.0000000000000000  0.6910700460000001  0.4489300039999975
  0.5000000000000000  0.9356799899999970  0.3913199919999997
  0.5000000000000000  0.6856799509999973  0.6086800309999987
  0.3333300139999977  0.9410700070000004  0.5510699960000025
  0.3333300139999977  0.6910700460000001  0.4489300039999975
  0.8333300139999977  0.9356799899999970  0.3913199919999997
  0.8333300139999977  0.6856799509999973  0.6086800309999987
  0.6666700290000023  0.9410700070000004  0.5510699960000025
  0.6666700290000023  0.6910700460000001  0.4489300039999975
 
  0.00000000E+00  0.00000000E+00  0.00000000E+00
  0.00000000E+00  0.00000000E+00  0.00000000E+00
  0.00000000E+00  0.00000000E+00  0.00000000E+00
  0.00000000E+00  0.00000000E+00  0.00000000E+00
  0.00000000E+00  0.00000000E+00  0.00000000E+00
  0.00000000E+00  0.00000000E+00  0.00000000E+00
  0.00000000E+00  0.00000000E+00  0.00000000E+00
  0.00000000E+00  0.00000000E+00  0.00000000E+00
  0.00000000E+00  0.00000000E+00  0.00000000E+00
  0.00000000E+00  0.00000000E+00  0.00000000E+00
  0.00000000E+00  0.00000000E+00  0.00000000E+00
  0.00000000E+00  0.00000000E+00  0.00000000E+00
  0.00000000E+00  0.00000000E+00  0.00000000E+00
  0.00000000E+00  0.00000000E+00  0.00000000E+00
  0.00000000E+00  0.00000000E+00  0.00000000E+00
  0.00000000E+00  0.00000000E+00  0.00000000E+00
  0.00000000E+00  0.00000000E+00  0.00000000E+00
  0.00000000E+00  0.00000000E+00  0.00000000E+00
  0.00000000E+00  0.00000000E+00  0.00000000E+00
  0.00000000E+00  0.00000000E+00  0.00000000E+00
  0.00000000E+00  0.00000000E+00  0.00000000E+00
  0.00000000E+00  0.00000000E+00  0.00000000E+00
  0.00000000E+00  0.00000000E+00  0.00000000E+00
  0.00000000E+00  0.00000000E+00  0.00000000E+00
  0.00000000E+00  0.00000000E+00  0.00000000E+00
  0.00000000E+00  0.00000000E+00  0.00000000E+00
  0.00000000E+00  0.00000000E+00  0.00000000E+00
  0.00000000E+00  0.00000000E+00  0.00000000E+00
  0.00000000E+00  0.00000000E+00  0.00000000E+00
  0.00000000E+00  0.00000000E+00  0.00000000E+00
  0.00000000E+00  0.00000000E+00  0.00000000E+00
  0.00000000E+00  0.00000000E+00  0.00000000E+00
  0.00000000E+00  0.00000000E+00  0.00000000E+00
  0.00000000E+00  0.00000000E+00  0.00000000E+00
  0.00000000E+00  0.00000000E+00  0.00000000E+00
  0.00000000E+00  0.00000000E+00  0.00000000E+00
  0.00000000E+00  0.00000000E+00  0.00000000E+00
  0.00000000E+00  0.00000000E+00  0.00000000E+00
  0.00000000E+00  0.00000000E+00  0.00000000E+00
  0.00000000E+00  0.00000000E+00  0.00000000E+00
  0.00000000E+00  0.00000000E+00  0.00000000E+00
  0.00000000E+00  0.00000000E+00  0.00000000E+00
  0.00000000E+00  0.00000000E+00  0.00000000E+00
  0.00000000E+00  0.00000000E+00  0.00000000E+00
  0.00000000E+00  0.00000000E+00  0.00000000E+00
  0.00000000E+00  0.00000000E+00  0.00000000E+00
  0.00000000E+00  0.00000000E+00  0.00000000E+00
  0.00000000E+00  0.00000000E+00  0.00000000E+00
