CONTCAR\(11)                            
   1.00000000000000     
    11.4335002898999996    0.0000000000000000    0.0000000000000000
     5.7167501449999998    9.9017017052000007    0.0000000000000000
     0.0000000000000000    0.0000000000000000   21.6627006530999999
   Zr   Te   P    O 
    18    18     9     1
Selective dynamics
Direct
  0.1158348358735921  0.1089506096361603  0.5662519701020514   F   F   F
  0.0030513451638328  0.9992526040029475  0.4342587962563158   F   F   F
  0.4496213722326416  0.1070943142992746  0.5656078746907625   F   F   F
  0.3381950429201126  0.9991913721188652  0.4342429652059039   F   F   F
  0.7837351342606169  0.1069638895853373  0.5656102540370824   F   F   F
  0.6710678012034705  0.9981986566339955  0.4344209608310052   F   F   F
  0.1153629726112939  0.4429274400559393  0.5683316038414077   F   F   F
  0.0037699003212168  0.3327758749654208  0.4349850841206333   F   F   F
  0.4454265225572058  0.4502193362089812  0.5777466142587500   F   F   F
  0.3358656777622713  0.3342707301623378  0.4360948244477214   F   F   F
  0.7825143586375418  0.4427152185030181  0.5683904981166492   F   F   F
  0.6701891151297232  0.3342663581956771  0.4360946143186197   F   F   F
  0.1066853564495176  0.7850852267759265  0.5653346096699323   F   F   F
  0.0043780803158242  0.6651572994742310  0.4356752122653234   F   F   F
  0.4485985976691609  0.7852293497018863  0.5653490641309418   F   F   F
  0.3367069285330544  0.6672417408306757  0.4374115457702032   F   F   F
  0.7820964081852466  0.7762412179757305  0.5663812209627750   F   F   F
  0.6710114283330668  0.6650325401087116  0.4356223533374575   F   F   F
  0.0010039836380855  0.0034224212817264  0.6568346852274161   F   F   F
  0.1148191492451076  0.1108121981111765  0.3466275388667484   F   F   F
  0.3360040539105498  0.0039463865582263  0.6567649143400374   F   F   F
  0.4476245384351714  0.1132411685739925  0.3468606614730874   F   F   F
  0.6708461079968444  0.9985517473968457  0.6548295416843217   F   F   F
  0.7792845840641505  0.1133295857967269  0.3469107219693441   F   F   F
  0.0053375050070983  0.3299593175780373  0.6560971519910836   F   F   F
  0.1159588962515983  0.4436991675832900  0.3471159760519953   F   F   F
  0.3337527787198269  0.3176109050626295  0.6571219661456666   F   F   F
  0.4470830727847996  0.4458715910442947  0.3483824491787004   F   F   F
  0.6899646153735475  0.3168063814629960  0.6572343576062707   F   F   F
  0.7805993475050741  0.4435279758850541  0.3470501140048370   F   F   F
  0.0040059329825723  0.6685648650307101  0.6558336838207453   F   F   F
  0.1161178442650623  0.7754537117201252  0.3472918129472973   F   F   F
  0.3066441433148555  0.7272812482828357  0.6645859093773581   F   F   F
  0.4489356014553181  0.7752265729827243  0.3472479190467581   F   F   F
  0.6677197360693370  0.6684547509371228  0.6558243751811474   F   F   F
  0.7825233120142556  0.7754687324676368  0.3468706542858158   F   F   F
  0.2255082072106092  0.2218870736857568  0.5010792147020595   F   F   F
  0.5574370731029816  0.2256263267022263  0.5028800230248862   F   F   F
  0.8930275378908519  0.2218404797650990  0.5011097281179886   F   F   F
  0.2284335904732160  0.5545568715732827  0.5043150767097231   F   F   F
  0.5578790924225032  0.5544796418544564  0.5043186253494127   F   F   F
  0.8935835430813768  0.5533092720862456  0.5015792799523524   F   F   F
  0.2250035023020871  0.8903900242905465  0.5002951761972341   F   F   F
  0.5609572269227741  0.8884276509055766  0.4997557479555255   F   F   F
  0.8910180277372817  0.8884670494909699  0.4997775020214661   F   F   F
  0.4102662056637100  0.5245238116545535  0.6634927409669812   T   T   T
 
  0.00000000E+00  0.00000000E+00  0.00000000E+00
  0.00000000E+00  0.00000000E+00  0.00000000E+00
  0.00000000E+00  0.00000000E+00  0.00000000E+00
  0.00000000E+00  0.00000000E+00  0.00000000E+00
  0.00000000E+00  0.00000000E+00  0.00000000E+00
  0.00000000E+00  0.00000000E+00  0.00000000E+00
  0.00000000E+00  0.00000000E+00  0.00000000E+00
  0.00000000E+00  0.00000000E+00  0.00000000E+00
  0.00000000E+00  0.00000000E+00  0.00000000E+00
  0.00000000E+00  0.00000000E+00  0.00000000E+00
  0.00000000E+00  0.00000000E+00  0.00000000E+00
  0.00000000E+00  0.00000000E+00  0.00000000E+00
  0.00000000E+00  0.00000000E+00  0.00000000E+00
  0.00000000E+00  0.00000000E+00  0.00000000E+00
  0.00000000E+00  0.00000000E+00  0.00000000E+00
  0.00000000E+00  0.00000000E+00  0.00000000E+00
  0.00000000E+00  0.00000000E+00  0.00000000E+00
  0.00000000E+00  0.00000000E+00  0.00000000E+00
  0.00000000E+00  0.00000000E+00  0.00000000E+00
  0.00000000E+00  0.00000000E+00  0.00000000E+00
  0.00000000E+00  0.00000000E+00  0.00000000E+00
  0.00000000E+00  0.00000000E+00  0.00000000E+00
  0.00000000E+00  0.00000000E+00  0.00000000E+00
  0.00000000E+00  0.00000000E+00  0.00000000E+00
  0.00000000E+00  0.00000000E+00  0.00000000E+00
  0.00000000E+00  0.00000000E+00  0.00000000E+00
  0.00000000E+00  0.00000000E+00  0.00000000E+00
  0.00000000E+00  0.00000000E+00  0.00000000E+00
  0.00000000E+00  0.00000000E+00  0.00000000E+00
  0.00000000E+00  0.00000000E+00  0.00000000E+00
  0.00000000E+00  0.00000000E+00  0.00000000E+00
  0.00000000E+00  0.00000000E+00  0.00000000E+00
  0.00000000E+00  0.00000000E+00  0.00000000E+00
  0.00000000E+00  0.00000000E+00  0.00000000E+00
  0.00000000E+00  0.00000000E+00  0.00000000E+00
  0.00000000E+00  0.00000000E+00  0.00000000E+00
  0.00000000E+00  0.00000000E+00  0.00000000E+00
  0.00000000E+00  0.00000000E+00  0.00000000E+00
  0.00000000E+00  0.00000000E+00  0.00000000E+00
  0.00000000E+00  0.00000000E+00  0.00000000E+00
  0.00000000E+00  0.00000000E+00  0.00000000E+00
  0.00000000E+00  0.00000000E+00  0.00000000E+00
  0.00000000E+00  0.00000000E+00  0.00000000E+00
  0.00000000E+00  0.00000000E+00  0.00000000E+00
  0.00000000E+00  0.00000000E+00  0.00000000E+00
  0.00000000E+00  0.00000000E+00  0.00000000E+00
