CONTCAR\(10)                            
   1.00000000000000     
    12.0179996490000001    0.0000000000000000    0.0000000000000000
     5.5443836140000000   17.3830097696000010    0.0000000000000000
     0.0000000000000000    0.0000000000000000   18.4081001282000010
   Nb   Ir   Se   O    H 
    16     4    40     2     1
Direct
  0.3132206696974086  0.4181957177801713  0.4987011532233365
  0.3771556765794712  0.1945098727707334  0.5025158675613071
  0.0450446961150237  0.9965179861616963  0.5023729569988961
  0.0866283059591563  0.3145630883488359  0.4978949660928036
  0.8165897777398182  0.4175655489409748  0.4991594396052439
  0.8743294669892726  0.1984919943124076  0.5049091500406128
  0.5445474572231868  0.9960412336076048  0.5033966725885133
  0.5807653475976714  0.3093611049421892  0.4982699147315977
  0.3167576076098770  0.9151542163597105  0.4997758306998215
  0.3711103380872261  0.7050884020978651  0.5036203272867122
  0.0445029784199228  0.4991773351892098  0.5013571643318552
  0.0820192928066197  0.8136589882200298  0.4954076938609294
  0.8134376127954777  0.9166742651026252  0.4994695966369547
  0.8751317022069727  0.6992242351578307  0.5013226485936864
  0.5452058960923368  0.5010361665527554  0.4995706099820965
  0.5900553801164821  0.8176439448724169  0.4968016303982077
  0.2131878510403568  0.0920637559692630  0.5017899275156427
  0.7142579116011796  0.0925833043406755  0.5021155522586984
  0.2136529916677865  0.5936468634337125  0.5003716162250098
  0.7118151355133095  0.5944922685859034  0.4999949391928022
  0.1869651916827477  0.0025755069099898  0.6006214046750553
  0.0433119372880514  0.1035167164489251  0.4156910168548956
  0.2718118423388214  0.3044259445523861  0.5840866503928750
  0.1526875080441500  0.4005471073523966  0.4068830243368211
  0.3769312914948488  0.0936080750156324  0.5908130459876934
  0.2249578092210047  0.1968967366209691  0.4107509778039210
  0.4789627403145872  0.4054744656528874  0.5928904490381435
  0.3554042843721071  0.0058514351218537  0.4119306615831686
  0.0723265630069756  0.1971624505308149  0.5755613563034518
  0.4273900592015704  0.3033308891866987  0.4100685251138446
  0.6862079681496478  0.0035872651218632  0.6012625959537067
  0.5447449099807415  0.1031682745768637  0.4153500025971778
  0.7686616564376786  0.3050252544118948  0.5860802455585619
  0.6540056950768381  0.3972723457157326  0.4109783671515354
  0.8791663158634966  0.0930431744968075  0.5901221011667532
  0.7260484271911372  0.1969424361567903  0.4107920515195774
  0.9789726379636761  0.4060148890291047  0.5954613773073488
  0.8550562075337137  0.0072719673584240  0.4115324031538006
  0.5722673551952783  0.1952511762644168  0.5779799503686781
  0.9305552424955983  0.3027089978343093  0.4119385459090419
  0.1860707449532288  0.5054937471271699  0.5997779937146296
  0.0442385058768234  0.6046249445721095  0.4133966319573563
  0.2656546745054637  0.8049674600652512  0.5886253650666168
  0.1540566228649587  0.8998645366803570  0.4075155395586894
  0.3806258224593679  0.5945815617682586  0.5863880988337021
  0.2244673996156988  0.6995687579570927  0.4097479680528425
  0.4780561005883901  0.9048868840511219  0.5966084622246043
  0.3553495798318594  0.5076986976329120  0.4097362253337465
  0.0718565764346295  0.6976242318558563  0.5744788534201097
  0.4320895866383618  0.8026090576231395  0.4112387194043136
  0.6861736464254300  0.5052429995740295  0.5990608219378333
  0.5439563877025649  0.6049242937566476  0.4126035899426476
  0.7702559447054321  0.8044246894945174  0.5860685532837498
  0.6529657604807860  0.9025446618597173  0.4045604371207466
  0.8769817251232770  0.5953307246412015  0.5880392906455807
  0.7245279547743636  0.6998391616195766  0.4092987606187591
  0.9770342783636118  0.9040933124230099  0.5949754242680240
  0.8547058111444743  0.5074567202481444  0.4103761472030265
  0.5709914843826481  0.6995151053816676  0.5734924101311833
  0.9272080968525196  0.8045930541113632  0.4087794299358650
  0.5285594626287262  0.4173336107054860  0.7475991084584950
  0.4492284050080015  0.4051917557648588  0.7953371942376420
  0.4764742389281508  0.3491129679811281  0.8044219910490013
 
  0.00000000E+00  0.00000000E+00  0.00000000E+00
  0.00000000E+00  0.00000000E+00  0.00000000E+00
  0.00000000E+00  0.00000000E+00  0.00000000E+00
  0.00000000E+00  0.00000000E+00  0.00000000E+00
  0.00000000E+00  0.00000000E+00  0.00000000E+00
  0.00000000E+00  0.00000000E+00  0.00000000E+00
  0.00000000E+00  0.00000000E+00  0.00000000E+00
  0.00000000E+00  0.00000000E+00  0.00000000E+00
  0.00000000E+00  0.00000000E+00  0.00000000E+00
  0.00000000E+00  0.00000000E+00  0.00000000E+00
  0.00000000E+00  0.00000000E+00  0.00000000E+00
  0.00000000E+00  0.00000000E+00  0.00000000E+00
  0.00000000E+00  0.00000000E+00  0.00000000E+00
  0.00000000E+00  0.00000000E+00  0.00000000E+00
  0.00000000E+00  0.00000000E+00  0.00000000E+00
  0.00000000E+00  0.00000000E+00  0.00000000E+00
  0.00000000E+00  0.00000000E+00  0.00000000E+00
  0.00000000E+00  0.00000000E+00  0.00000000E+00
  0.00000000E+00  0.00000000E+00  0.00000000E+00
  0.00000000E+00  0.00000000E+00  0.00000000E+00
  0.00000000E+00  0.00000000E+00  0.00000000E+00
  0.00000000E+00  0.00000000E+00  0.00000000E+00
  0.00000000E+00  0.00000000E+00  0.00000000E+00
  0.00000000E+00  0.00000000E+00  0.00000000E+00
  0.00000000E+00  0.00000000E+00  0.00000000E+00
  0.00000000E+00  0.00000000E+00  0.00000000E+00
  0.00000000E+00  0.00000000E+00  0.00000000E+00
  0.00000000E+00  0.00000000E+00  0.00000000E+00
  0.00000000E+00  0.00000000E+00  0.00000000E+00
  0.00000000E+00  0.00000000E+00  0.00000000E+00
  0.00000000E+00  0.00000000E+00  0.00000000E+00
  0.00000000E+00  0.00000000E+00  0.00000000E+00
  0.00000000E+00  0.00000000E+00  0.00000000E+00
  0.00000000E+00  0.00000000E+00  0.00000000E+00
  0.00000000E+00  0.00000000E+00  0.00000000E+00
  0.00000000E+00  0.00000000E+00  0.00000000E+00
  0.00000000E+00  0.00000000E+00  0.00000000E+00
  0.00000000E+00  0.00000000E+00  0.00000000E+00
  0.00000000E+00  0.00000000E+00  0.00000000E+00
  0.00000000E+00  0.00000000E+00  0.00000000E+00
  0.00000000E+00  0.00000000E+00  0.00000000E+00
  0.00000000E+00  0.00000000E+00  0.00000000E+00
  0.00000000E+00  0.00000000E+00  0.00000000E+00
  0.00000000E+00  0.00000000E+00  0.00000000E+00
  0.00000000E+00  0.00000000E+00  0.00000000E+00
  0.00000000E+00  0.00000000E+00  0.00000000E+00
  0.00000000E+00  0.00000000E+00  0.00000000E+00
  0.00000000E+00  0.00000000E+00  0.00000000E+00
  0.00000000E+00  0.00000000E+00  0.00000000E+00
  0.00000000E+00  0.00000000E+00  0.00000000E+00
  0.00000000E+00  0.00000000E+00  0.00000000E+00
  0.00000000E+00  0.00000000E+00  0.00000000E+00
  0.00000000E+00  0.00000000E+00  0.00000000E+00
  0.00000000E+00  0.00000000E+00  0.00000000E+00
  0.00000000E+00  0.00000000E+00  0.00000000E+00
  0.00000000E+00  0.00000000E+00  0.00000000E+00
  0.00000000E+00  0.00000000E+00  0.00000000E+00
  0.00000000E+00  0.00000000E+00  0.00000000E+00
  0.00000000E+00  0.00000000E+00  0.00000000E+00
  0.00000000E+00  0.00000000E+00  0.00000000E+00
  0.00000000E+00  0.00000000E+00  0.00000000E+00
  0.00000000E+00  0.00000000E+00  0.00000000E+00
  0.00000000E+00  0.00000000E+00  0.00000000E+00
