CONTCAR                                 
   1.00000000000000     
    14.0611000061000002    0.0000000000000000    0.0000000000000000
     0.0000000000000000   17.2483997345000013    0.0000000000000000
     0.0000000000000000    0.0000000000000000   18.5618991852000015
   Cu   H    Se   O 
     8    17    16    49
Direct
  0.0003593236646893  0.9987324234848813  0.5047081104622322
  0.2547407075428794  0.2512884203581152  0.4973767044751227
  0.5000483185071474  0.9969570747062022  0.5020460212019628
  0.7501884992068284  0.2487227721575067  0.4995145437692443
  0.9998766696607504  0.4985838171342394  0.4975044480180202
  0.2533309520176346  0.7442278787094594  0.5092389094746750
  0.5073610050246842  0.4985662177577552  0.4998250188164732
  0.7473754889368607  0.7474430754980474  0.5056083757870979
  0.3123665865768572  0.0147836935742802  0.4432254137852922
  0.0643730681014318  0.2291145798472698  0.5612455149625291
  0.4409345446678401  0.2686083825914665  0.4337012156234650
  0.1911085723718813  0.4785626909813203  0.5548554858490249
  0.8129702659004181  0.0179954779625007  0.4373881591371429
  0.5627843698548745  0.2283809085892372  0.5657972758338943
  0.9402409359578243  0.2659070463486657  0.4336233763986783
  0.6894198300338843  0.4785502397663919  0.5667673740927768
  0.3181846528319028  0.5326525471975501  0.4341199504932263
  0.0596843635905131  0.7251915542847556  0.5762626581141745
  0.4408216996143111  0.7587306337856319  0.4340988198863300
  0.1914457105518395  0.9745607288158240  0.5722131578664786
  0.8037398353655902  0.5310131303529602  0.4365623560815948
  0.5617953372448312  0.7202946669623671  0.5628275286401774
  0.9414785474110516  0.7673294578643279  0.4446541025106114
  0.6864763152068178  0.9777197832809748  0.5645163353275962
  0.3881325487397476  0.7479464361669343  0.6624898500302976
  0.3293839669614727  0.4096980835118842  0.5542024897202396
  0.0731537481658862  0.3404684527390600  0.4363688761484710
  0.4280125482052810  0.1565984009752697  0.5592219299524714
  0.1792271653916373  0.0889617745371609  0.4453745919792524
  0.8239643476418550  0.4070142879461969  0.5585839015676513
  0.5743024770089065  0.3414808985228532  0.4394415797469904
  0.9284934291584293  0.1574176186029348  0.5588514864444534
  0.6776925174738011  0.0894205004190738  0.4407352416487171
  0.3274947526403125  0.9034814103951163  0.5669945007189767
  0.0769372212770350  0.8395513255935612  0.4522350192448314
  0.4209906513066741  0.6561115297964477  0.5719427319342927
  0.1756281220468097  0.5949726096682042  0.4418515743039890
  0.8216282430560966  0.9061253774749005  0.5623281721062341
  0.5693154847148278  0.8389243167844285  0.4395433827317277
  0.9254198614466631  0.6525188020173047  0.5646664583235790
  0.6626181318719659  0.5987435659567453  0.4474432593736068
  0.1197831127940248  0.2628265822455873  0.4843959576471590
  0.3892205139903808  0.2375970686825397  0.5118640765968792
  0.3743607410001175  0.4924313473807871  0.5101212716706058
  0.2357107258913871  0.1406520903328854  0.5119695626242304
  0.1364414230442534  0.0114434585573520  0.4955193246962111
  0.4835210045392841  0.1076915585439053  0.4906064364658533
  0.2774869840631879  0.3620447803674836  0.4834251140626336
  0.0156595677715785  0.3876616600973932  0.5050933750282383
  0.2759383913062692  0.0409368438283408  0.4031069524081801
  0.0274564941323945  0.2025430520322828  0.6008506521775985
  0.2298622144384979  0.4543348686779254  0.5949721061037181
  0.4774025649281910  0.2969565061041024  0.3948245615234711
  0.6149079252769525  0.2609246001434471  0.4856200458367184
  0.8854054888783551  0.2372864666608621  0.5121698868165723
  0.8645784105681358  0.4883043634764306  0.5132142020969681
  0.7314971959311620  0.1378491618545183  0.5106041149129652
  0.6349467175909780  0.0083777427451750  0.4861005431150502
  0.9815935986135784  0.1086524450502111  0.4890310623419438
  0.7667037921723505  0.3596840547040330  0.4895664100053736
  0.5171071951774238  0.3888440970827389  0.5095485507867039
  0.7763308563198876  0.0449288161780075  0.3978141939067683
  0.5255586765906699  0.2007910984819574  0.6043176542582529
  0.7269763945256855  0.4507304574239086  0.6048554420249346
  0.9777438326830534  0.2913512897346848  0.3936861450897524
  0.1176575059129448  0.7616024698593478  0.5022204201910796
  0.3869430887313712  0.7200036123316096  0.5038119485935155
  0.3660851642926275  0.9863689870558972  0.5220500361875509
  0.2237602567349342  0.6346275577891518  0.5180799385478920
  0.1346258984797046  0.5079383559925645  0.4782153216208371
  0.5067650752376451  0.6033993342509021  0.4915918795040497
  0.2758879668358176  0.8544294457487496  0.4969753123556515
  0.0183227430600681  0.8890173242791732  0.5192747921682042
  0.2778831005838640  0.5588534209246774  0.3965781468632201
  0.0192358578695107  0.6971201651705314  0.6129013851219298
  0.2279659233200562  0.9460225292225672  0.6106986405114299
  0.4736408278365616  0.7917922858114679  0.3960648902612220
  0.6140171117236832  0.7590298922992460  0.4850221624644036
  0.8819102637646807  0.7336071954610333  0.5200404856106928
  0.8646363990621992  0.9864958019933781  0.5160202802435592
  0.7192484448947809  0.6385653880534790  0.5209992886664807
  0.6360617978303651  0.5054319514110475  0.4838732380000792
  0.9852195733022455  0.6096214779557698  0.4942658221409602
  0.7683393049152443  0.8574422242351289  0.4925584941688612
  0.5144861468811754  0.8859359004344896  0.5100596449916921
  0.7656220317682170  0.5609936731600982  0.4006880710703058
  0.5237834879590864  0.7041907072245408  0.6060270866964999
  0.7227076018413428  0.9512767565840008  0.6045580174684844
  0.9813910377409698  0.7935418647748449  0.4065593242396943
  0.3466989312423436  0.7076344904699639  0.6425815915313393
 
  0.00000000E+00  0.00000000E+00  0.00000000E+00
  0.00000000E+00  0.00000000E+00  0.00000000E+00
  0.00000000E+00  0.00000000E+00  0.00000000E+00
  0.00000000E+00  0.00000000E+00  0.00000000E+00
  0.00000000E+00  0.00000000E+00  0.00000000E+00
  0.00000000E+00  0.00000000E+00  0.00000000E+00
  0.00000000E+00  0.00000000E+00  0.00000000E+00
  0.00000000E+00  0.00000000E+00  0.00000000E+00
  0.00000000E+00  0.00000000E+00  0.00000000E+00
  0.00000000E+00  0.00000000E+00  0.00000000E+00
  0.00000000E+00  0.00000000E+00  0.00000000E+00
  0.00000000E+00  0.00000000E+00  0.00000000E+00
  0.00000000E+00  0.00000000E+00  0.00000000E+00
  0.00000000E+00  0.00000000E+00  0.00000000E+00
  0.00000000E+00  0.00000000E+00  0.00000000E+00
  0.00000000E+00  0.00000000E+00  0.00000000E+00
  0.00000000E+00  0.00000000E+00  0.00000000E+00
  0.00000000E+00  0.00000000E+00  0.00000000E+00
  0.00000000E+00  0.00000000E+00  0.00000000E+00
  0.00000000E+00  0.00000000E+00  0.00000000E+00
  0.00000000E+00  0.00000000E+00  0.00000000E+00
  0.00000000E+00  0.00000000E+00  0.00000000E+00
  0.00000000E+00  0.00000000E+00  0.00000000E+00
  0.00000000E+00  0.00000000E+00  0.00000000E+00
  0.00000000E+00  0.00000000E+00  0.00000000E+00
  0.00000000E+00  0.00000000E+00  0.00000000E+00
  0.00000000E+00  0.00000000E+00  0.00000000E+00
  0.00000000E+00  0.00000000E+00  0.00000000E+00
  0.00000000E+00  0.00000000E+00  0.00000000E+00
  0.00000000E+00  0.00000000E+00  0.00000000E+00
  0.00000000E+00  0.00000000E+00  0.00000000E+00
  0.00000000E+00  0.00000000E+00  0.00000000E+00
  0.00000000E+00  0.00000000E+00  0.00000000E+00
  0.00000000E+00  0.00000000E+00  0.00000000E+00
  0.00000000E+00  0.00000000E+00  0.00000000E+00
  0.00000000E+00  0.00000000E+00  0.00000000E+00
  0.00000000E+00  0.00000000E+00  0.00000000E+00
  0.00000000E+00  0.00000000E+00  0.00000000E+00
  0.00000000E+00  0.00000000E+00  0.00000000E+00
  0.00000000E+00  0.00000000E+00  0.00000000E+00
  0.00000000E+00  0.00000000E+00  0.00000000E+00
  0.00000000E+00  0.00000000E+00  0.00000000E+00
  0.00000000E+00  0.00000000E+00  0.00000000E+00
  0.00000000E+00  0.00000000E+00  0.00000000E+00
  0.00000000E+00  0.00000000E+00  0.00000000E+00
  0.00000000E+00  0.00000000E+00  0.00000000E+00
  0.00000000E+00  0.00000000E+00  0.00000000E+00
  0.00000000E+00  0.00000000E+00  0.00000000E+00
  0.00000000E+00  0.00000000E+00  0.00000000E+00
  0.00000000E+00  0.00000000E+00  0.00000000E+00
  0.00000000E+00  0.00000000E+00  0.00000000E+00
  0.00000000E+00  0.00000000E+00  0.00000000E+00
  0.00000000E+00  0.00000000E+00  0.00000000E+00
  0.00000000E+00  0.00000000E+00  0.00000000E+00
  0.00000000E+00  0.00000000E+00  0.00000000E+00
  0.00000000E+00  0.00000000E+00  0.00000000E+00
  0.00000000E+00  0.00000000E+00  0.00000000E+00
  0.00000000E+00  0.00000000E+00  0.00000000E+00
  0.00000000E+00  0.00000000E+00  0.00000000E+00
  0.00000000E+00  0.00000000E+00  0.00000000E+00
  0.00000000E+00  0.00000000E+00  0.00000000E+00
  0.00000000E+00  0.00000000E+00  0.00000000E+00
  0.00000000E+00  0.00000000E+00  0.00000000E+00
  0.00000000E+00  0.00000000E+00  0.00000000E+00
  0.00000000E+00  0.00000000E+00  0.00000000E+00
  0.00000000E+00  0.00000000E+00  0.00000000E+00
  0.00000000E+00  0.00000000E+00  0.00000000E+00
  0.00000000E+00  0.00000000E+00  0.00000000E+00
  0.00000000E+00  0.00000000E+00  0.00000000E+00
  0.00000000E+00  0.00000000E+00  0.00000000E+00
  0.00000000E+00  0.00000000E+00  0.00000000E+00
  0.00000000E+00  0.00000000E+00  0.00000000E+00
  0.00000000E+00  0.00000000E+00  0.00000000E+00
  0.00000000E+00  0.00000000E+00  0.00000000E+00
  0.00000000E+00  0.00000000E+00  0.00000000E+00
  0.00000000E+00  0.00000000E+00  0.00000000E+00
  0.00000000E+00  0.00000000E+00  0.00000000E+00
  0.00000000E+00  0.00000000E+00  0.00000000E+00
  0.00000000E+00  0.00000000E+00  0.00000000E+00
  0.00000000E+00  0.00000000E+00  0.00000000E+00
  0.00000000E+00  0.00000000E+00  0.00000000E+00
  0.00000000E+00  0.00000000E+00  0.00000000E+00
  0.00000000E+00  0.00000000E+00  0.00000000E+00
  0.00000000E+00  0.00000000E+00  0.00000000E+00
  0.00000000E+00  0.00000000E+00  0.00000000E+00
  0.00000000E+00  0.00000000E+00  0.00000000E+00
  0.00000000E+00  0.00000000E+00  0.00000000E+00
  0.00000000E+00  0.00000000E+00  0.00000000E+00
  0.00000000E+00  0.00000000E+00  0.00000000E+00
  0.00000000E+00  0.00000000E+00  0.00000000E+00
