CONTCAR\(2)                             
   1.00000000000000     
    14.0806999207000008    0.0000000000000000    0.0000000000000000
     0.0000000000000000   14.0806999207000008    0.0000000000000000
     0.0000000000000000    0.0000000000000000   21.7063999175999989
   Zr   Si   Se   H 
    32    32    32     1
Direct
  0.1247341814458439 -0.0010265199007137  0.5997025982881653
  0.0000167325733833  0.1237891510378899  0.4003327654956663
  0.3749269662732194 -0.0011238061425390  0.5997715695422184
  0.2500828658073007  0.1237740586707536  0.4003948037704124
  0.6250597292333728 -0.0011491981956272  0.5997340281299397
  0.5000187356667372  0.1237742475737654  0.4004854103988914
  0.8752793820703498 -0.0010335804802689  0.5996666387489729
  0.7499593282999880  0.1237663321020333  0.4003638676499581
  0.1247441473452075  0.2484056126187221  0.5997543439426105
  0.0000294013195801  0.3737056803035441  0.4003719263296546
  0.3748784321603862  0.2484958807967095  0.5998360656981161
  0.2500663538282104  0.3736911220882303  0.4005564283080398
  0.6251153128845712  0.2484816817595784  0.5998015866021893
  0.5000203910720333  0.3738892035657750  0.4007395846069746
  0.8752553574359385  0.2484269193456947  0.5997123219745603
  0.7499712923287877  0.3736813274286295  0.4005211411575986
  0.1248545709290285  0.4986067066121702  0.5998166931227236
  0.0000304974416443  0.6237230608129409  0.4004508569373808
  0.3720967962194926  0.4958396469575301  0.5993223537892453
  0.2500950631454635  0.6237641479606161  0.4007106604466445
  0.6279761637767445  0.4958341519278358  0.5992767901380252
  0.5000105130793343  0.6237762050616628  0.4014436006891626
  0.8751938588820720  0.4986036206569723  0.5997816430877981
  0.7499340657109816  0.6237244672924677  0.4006621219991533
  0.1247870674624273  0.7487957990418168  0.5997557602595730
  0.0000143408413971  0.8736946293825161  0.4003394562760083
  0.3721201542834695  0.7516771497013007  0.5992680324226499
  0.2499775125425722  0.8737170247767058  0.4004940491654367
  0.6279345209990540  0.7516861508405106  0.5992170721278173
  0.5000030190994703  0.8736200383853848  0.4006803578787513
  0.8752573722544351  0.7487953101366238  0.5997186714484520
  0.7500452548202848  0.8737084951096195  0.4004396692904623
  0.0000179275213209 -0.0012362262346276  0.4999163109014677
  0.1250130882024948  0.1237225671455117  0.4999383085941229
  0.2497699338392435 -0.0010548905667774  0.5001228028406333
  0.3749880559153417  0.1236920581979595  0.5001134585664250
  0.4999964306189004 -0.0011412765656744  0.5002063672279127
  0.6250173530027751  0.1236761173676617  0.5000872688366313
  0.7502332768598617 -0.0010593515474367  0.5000782857826698
  0.8750026148258375  0.1237036571288315  0.4999063780764743
  0.0000202900829014  0.2488022747936786  0.4999286444260430
  0.1247881065200407  0.3734596326837678  0.5001827727891571
  0.2497626392832618  0.2483892825894212  0.5002238479105394
  0.3749201493096821  0.3732999517728382  0.5001849862945591
  0.4999998068135270  0.2486239035287325  0.5003051728827362
  0.6251370944902629  0.3733112970414493  0.5001388514459062
  0.7502524959128087  0.2484051236836530  0.5001888076665566
  0.8752436691295052  0.3734581831688090  0.5001546505423048
  0.0000198438155494  0.4987316598174725  0.5000832738286154
  0.1248862046293393  0.6236567627533490  0.5002482955048254
  0.2496294662111051  0.4985385981631220  0.5001260241103749
  0.3748862364883694  0.6237174493276983  0.5008675154120596
  0.5000228589528356  0.4986860473908794  0.5008386213908328
  0.6251597181002388  0.6237327800995239  0.5008219491413003
  0.7504250462107461  0.4985422658873906  0.5000804646364015
  0.8751485785537045  0.6236723171242874  0.5001897538193376
  0.0000194510911151  0.7487900556547508  0.5000594468133623
  0.1246944998662164  0.8739553570668472  0.5001251269969851
  0.2495066759875315  0.7488113556845072  0.5001140291742399
  0.3748226447988506  0.8741369282238176  0.5000825919766188
  0.5000088866895708  0.7489060206477315  0.5008762317048436
  0.6252104189747855  0.8741631490822160  0.5000283220980155
  0.7505241221107490  0.7488058300508086  0.5000437177616134
  0.8753065678527564  0.8739766500701628  0.5001012991165235
 -0.0000135463214406  0.1237251120399873  0.6543418158512245
  0.1250689742467994 -0.0012538528404436  0.3460416272313064
  0.2499265748241289  0.1235675571662061  0.6544678812354773
  0.3751465121874435 -0.0013419639784791  0.3461790257935809
  0.4999919665196155  0.1237123438710541  0.6542737762186557
  0.6248981817089100 -0.0013523170756652  0.3461408979773843
  0.7500378173230188  0.1235722033998768  0.6542981260768510
  0.8749740960788482 -0.0012593112105934  0.3460209124916964
 -0.0000067878448692  0.3735981241421166  0.6543570263927490
  0.1250854482786889  0.2487982395420966  0.3459209805243750
  0.2491645326166229  0.3727264558815138  0.6546784773390042
  0.3752708836796077  0.2489181237289600  0.3460677858630315
  0.5000178429232143  0.3743109697758320  0.6548990600904910
  0.6247727642131523  0.2488625286884041  0.3460436253143635
  0.7508474027289495  0.3727220749743959  0.6546635962858816
  0.8749853502621975  0.2488166986452360  0.3459131527744303
  0.0000139006514529  0.6237643652178035  0.6542873467719815
  0.1251478898146486  0.4988388246739671  0.3462038366834750
  0.2505645950028752  0.6237135630494843  0.6549343056818867
  0.3751783038873273  0.4989901631234968  0.3464899181897612
  0.5001037949177215  0.6238973691267249  0.6497926447954622
  0.6248292505788748  0.4989451568037744  0.3464536328859590
  0.7495333712385974  0.6237343759775132  0.6548407921646645
  0.8749215608280696  0.4987992344475661  0.3461351000180204
  0.0000041340036699  0.8737877991568460  0.6542823273938257
  0.1251116438798094  0.7486285984062611  0.3459652882607557
  0.2490796214732458  0.8745513415953380  0.6546183136221245
  0.3751981614877822  0.7485492424362268  0.3463933088153610
  0.5000144327261486  0.8732039900664501  0.6549776366032135
  0.6247809614860702  0.7485399014640146  0.3463792428139353
  0.7509488874971498  0.8745616282691280  0.6545852373171273
  0.8749530150372276  0.7485945977814176  0.3459795689968039
  0.5006449531704259  0.6253966251922731  0.7185569195318866
 
  0.00000000E+00  0.00000000E+00  0.00000000E+00
  0.00000000E+00  0.00000000E+00  0.00000000E+00
  0.00000000E+00  0.00000000E+00  0.00000000E+00
  0.00000000E+00  0.00000000E+00  0.00000000E+00
  0.00000000E+00  0.00000000E+00  0.00000000E+00
  0.00000000E+00  0.00000000E+00  0.00000000E+00
  0.00000000E+00  0.00000000E+00  0.00000000E+00
  0.00000000E+00  0.00000000E+00  0.00000000E+00
  0.00000000E+00  0.00000000E+00  0.00000000E+00
  0.00000000E+00  0.00000000E+00  0.00000000E+00
  0.00000000E+00  0.00000000E+00  0.00000000E+00
  0.00000000E+00  0.00000000E+00  0.00000000E+00
  0.00000000E+00  0.00000000E+00  0.00000000E+00
  0.00000000E+00  0.00000000E+00  0.00000000E+00
  0.00000000E+00  0.00000000E+00  0.00000000E+00
  0.00000000E+00  0.00000000E+00  0.00000000E+00
  0.00000000E+00  0.00000000E+00  0.00000000E+00
  0.00000000E+00  0.00000000E+00  0.00000000E+00
  0.00000000E+00  0.00000000E+00  0.00000000E+00
  0.00000000E+00  0.00000000E+00  0.00000000E+00
  0.00000000E+00  0.00000000E+00  0.00000000E+00
  0.00000000E+00  0.00000000E+00  0.00000000E+00
  0.00000000E+00  0.00000000E+00  0.00000000E+00
  0.00000000E+00  0.00000000E+00  0.00000000E+00
  0.00000000E+00  0.00000000E+00  0.00000000E+00
  0.00000000E+00  0.00000000E+00  0.00000000E+00
  0.00000000E+00  0.00000000E+00  0.00000000E+00
  0.00000000E+00  0.00000000E+00  0.00000000E+00
  0.00000000E+00  0.00000000E+00  0.00000000E+00
  0.00000000E+00  0.00000000E+00  0.00000000E+00
  0.00000000E+00  0.00000000E+00  0.00000000E+00
  0.00000000E+00  0.00000000E+00  0.00000000E+00
  0.00000000E+00  0.00000000E+00  0.00000000E+00
  0.00000000E+00  0.00000000E+00  0.00000000E+00
  0.00000000E+00  0.00000000E+00  0.00000000E+00
  0.00000000E+00  0.00000000E+00  0.00000000E+00
  0.00000000E+00  0.00000000E+00  0.00000000E+00
  0.00000000E+00  0.00000000E+00  0.00000000E+00
  0.00000000E+00  0.00000000E+00  0.00000000E+00
  0.00000000E+00  0.00000000E+00  0.00000000E+00
  0.00000000E+00  0.00000000E+00  0.00000000E+00
  0.00000000E+00  0.00000000E+00  0.00000000E+00
  0.00000000E+00  0.00000000E+00  0.00000000E+00
  0.00000000E+00  0.00000000E+00  0.00000000E+00
  0.00000000E+00  0.00000000E+00  0.00000000E+00
  0.00000000E+00  0.00000000E+00  0.00000000E+00
  0.00000000E+00  0.00000000E+00  0.00000000E+00
  0.00000000E+00  0.00000000E+00  0.00000000E+00
  0.00000000E+00  0.00000000E+00  0.00000000E+00
  0.00000000E+00  0.00000000E+00  0.00000000E+00
  0.00000000E+00  0.00000000E+00  0.00000000E+00
  0.00000000E+00  0.00000000E+00  0.00000000E+00
  0.00000000E+00  0.00000000E+00  0.00000000E+00
  0.00000000E+00  0.00000000E+00  0.00000000E+00
  0.00000000E+00  0.00000000E+00  0.00000000E+00
  0.00000000E+00  0.00000000E+00  0.00000000E+00
  0.00000000E+00  0.00000000E+00  0.00000000E+00
  0.00000000E+00  0.00000000E+00  0.00000000E+00
  0.00000000E+00  0.00000000E+00  0.00000000E+00
  0.00000000E+00  0.00000000E+00  0.00000000E+00
  0.00000000E+00  0.00000000E+00  0.00000000E+00
  0.00000000E+00  0.00000000E+00  0.00000000E+00
  0.00000000E+00  0.00000000E+00  0.00000000E+00
  0.00000000E+00  0.00000000E+00  0.00000000E+00
  0.00000000E+00  0.00000000E+00  0.00000000E+00
  0.00000000E+00  0.00000000E+00  0.00000000E+00
  0.00000000E+00  0.00000000E+00  0.00000000E+00
  0.00000000E+00  0.00000000E+00  0.00000000E+00
  0.00000000E+00  0.00000000E+00  0.00000000E+00
  0.00000000E+00  0.00000000E+00  0.00000000E+00
  0.00000000E+00  0.00000000E+00  0.00000000E+00
  0.00000000E+00  0.00000000E+00  0.00000000E+00
  0.00000000E+00  0.00000000E+00  0.00000000E+00
  0.00000000E+00  0.00000000E+00  0.00000000E+00
  0.00000000E+00  0.00000000E+00  0.00000000E+00
  0.00000000E+00  0.00000000E+00  0.00000000E+00
  0.00000000E+00  0.00000000E+00  0.00000000E+00
  0.00000000E+00  0.00000000E+00  0.00000000E+00
  0.00000000E+00  0.00000000E+00  0.00000000E+00
  0.00000000E+00  0.00000000E+00  0.00000000E+00
  0.00000000E+00  0.00000000E+00  0.00000000E+00
  0.00000000E+00  0.00000000E+00  0.00000000E+00
  0.00000000E+00  0.00000000E+00  0.00000000E+00
  0.00000000E+00  0.00000000E+00  0.00000000E+00
  0.00000000E+00  0.00000000E+00  0.00000000E+00
  0.00000000E+00  0.00000000E+00  0.00000000E+00
  0.00000000E+00  0.00000000E+00  0.00000000E+00
  0.00000000E+00  0.00000000E+00  0.00000000E+00
  0.00000000E+00  0.00000000E+00  0.00000000E+00
  0.00000000E+00  0.00000000E+00  0.00000000E+00
  0.00000000E+00  0.00000000E+00  0.00000000E+00
  0.00000000E+00  0.00000000E+00  0.00000000E+00
  0.00000000E+00  0.00000000E+00  0.00000000E+00
  0.00000000E+00  0.00000000E+00  0.00000000E+00
  0.00000000E+00  0.00000000E+00  0.00000000E+00
  0.00000000E+00  0.00000000E+00  0.00000000E+00
  0.00000000E+00  0.00000000E+00  0.00000000E+00
