Bi2 Te5 Pb2                             
   1.00000000000000     
     4.5107547134311581   -0.0000000000001098    0.0000000000000000
    -2.2553773566657687    3.9064281720696994   -0.0000000000000000
     0.0000000000000000    0.0000000000000000   18.4081099640233958
   Bi   Te   Pb
     2     5     2
Direct
  0.3333333289999985  0.6666666579999969  0.1094050336750000
  0.6666666650000010  0.3333333289999985  0.8905949923250022
  0.6666666650000010  0.3333333289999985  0.5727033122847568
  0.6666666650000010  0.3333333289999985  0.2016509185815149
  0.3333333289999985  0.6666666579999969  0.7983490944184826
  0.0000000000000000 -0.0000000000000000 -0.0000000000000000
  0.3333333289999985  0.6666666579999969  0.4272966877152431
  0.0000000000000000  0.0000000000000000  0.3404399806046450
 -0.0000000000000000 -0.0000000000000000  0.6595600453953501
 
  0.00000000E+00  0.00000000E+00  0.00000000E+00
  0.00000000E+00  0.00000000E+00  0.00000000E+00
  0.00000000E+00  0.00000000E+00  0.00000000E+00
  0.00000000E+00  0.00000000E+00  0.00000000E+00
  0.00000000E+00  0.00000000E+00  0.00000000E+00
  0.00000000E+00  0.00000000E+00  0.00000000E+00
  0.00000000E+00  0.00000000E+00  0.00000000E+00
  0.00000000E+00  0.00000000E+00  0.00000000E+00
  0.00000000E+00  0.00000000E+00  0.00000000E+00
