CONTCAR\(2)                             
   1.00000000000000     
    14.0088996886999997    0.0000000000000000    0.0000000000000000
     5.5188320969999998   13.5818590718000003    0.0000000000000000
     0.0000000000000000    0.0000000000000000   20.1937999724999990
   Cu   H    S    O 
    12    25    12    62
Direct
  0.1679405375413169  0.2498090024208564  0.5004845938375228
 -0.0011982957102040  0.0013153362901342  0.5007284192769309
  0.4997477723844349  0.2483830872262160  0.4999177081161433
  0.3324863023207811 -0.0007367817161852  0.5015329588364505
  0.8344159601224900  0.2501617505183297  0.4991529882437197
  0.6662459004153186  0.0000620907761050  0.5004410333128940
  0.1668573132939819  0.7501335727411299  0.5005683723330656
  0.0012440676148490  0.4997943493514242  0.4999158204849326
  0.4988535048436576  0.7504137549566354  0.5053777702998026
  0.3350896343097780  0.4978249416482656  0.4953965057454858
  0.8345420069158573  0.7504702887027273  0.4996010389792855
  0.6701237367332422  0.4970051982221708  0.4972319033734257
  0.2609712590736075  0.2160886167419829  0.3936122486785258
  0.0737014138336700  0.2830530316275636  0.6072540682916472
  0.0036678223015748  0.1648089082348726  0.4529918747440609
  0.3334176196526107  0.3352532548904305  0.5495133088581172
  0.5947651238245649  0.2103147491549157  0.3924720813961147
  0.4074829978215712  0.2802281513923404  0.6070771121657573
  0.3349110572112725  0.1637640104876874  0.4520730527590042
  0.6635172703856553  0.3335724796697475  0.5453818560916037
  0.9313448713805789  0.2131163534691741  0.3930188690014669
  0.7371568772482934  0.2973226833549260  0.6067693019959594
  0.6681739417719531  0.1646690054012013  0.4524043032220688
  0.0004373119499365  0.3345009647423233  0.5484744484005135
  0.2619849440820446  0.7170019325377279  0.3940432028568097
  0.0729850548349512  0.7800632955737754  0.6067769015802794
  0.0023141665686692  0.6653284513275327  0.4510118304363459
  0.3296923811790246  0.8333574551878117  0.5550347774193435
  0.5902900293544705  0.7127703349071725  0.3971637909450940
  0.4049799218400398  0.7960730413118793  0.6162476212484123
  0.3346898074907212  0.6663089927501722  0.4530450502522527
  0.6668536431284131  0.8343722338177810  0.5484901274594473
  0.9280812355357959  0.7185172527279988  0.3930208874312507
  0.7412999370721993  0.7831918168598383  0.6067110169781612
  0.6657630856819121  0.6665484686577332  0.4559439709821502
  0.9992294322635690  0.8350117130329705  0.5488231202932169
  0.4522920776951926  0.5554304065708320  0.6910782231850644
  0.1281150326291463  0.0986736926959381  0.5712117866499273
  0.2052429737445849  0.4001482955865429  0.4289346869745929
  0.4614171029966253  0.0976850325899100  0.5709167435816896
  0.5401469959403158  0.3985681581102688  0.4273924108433091
  0.7934963813392053  0.1011837272738134  0.5697853590703612
  0.8752094953339427  0.4001831136290843  0.4294212526863685
  0.1321943887070778  0.5965657461442585  0.5692524674929333
  0.2050727631874307  0.9007919998982762  0.4318743726812577
  0.4658157036230148  0.5906311480823031  0.5697046431055351
  0.5380748678643160  0.8988884395501039  0.4327534425495642
  0.7958017766277754  0.5990260162235673  0.5687602042124220
  0.8713834548181962  0.9022484414703953  0.4302050077275812
  0.2276704532606832  0.4906481060901454  0.4364985121865735
  0.1043967039659851  0.0092377858365620  0.5618127687491011
  0.0904665878838996  0.4287775166790161  0.4272752578733210
  0.2430091285866914  0.0687128587469403  0.5745251343179739
  0.2414424194007637  0.3398273193920931  0.4930929285131126
  0.0946660155522114  0.1601538485080422  0.5072417282477319
  0.2517059914263693  0.3408738075578118  0.3713657245554610
  0.0806409178037123  0.1574881025392916  0.6287637528634294
  0.0669743928427849  0.3295127302279128  0.5698245730126384
  0.2679038669716216  0.1695687716770602  0.4310814642703307
  0.5628295502516796  0.4886745857151905  0.4372834838786925
  0.4383321930589069  0.0078287582857097  0.5621363611567518
  0.4252726416717889  0.4282769059533620  0.4228751127070297
  0.5761511546332394  0.0686985391879336  0.5736613786836454
  0.5723673571125409  0.3380662201309817  0.4918710670212832
  0.4266234001409577  0.1587562013906889  0.5068127329763387
  0.5896160165628023  0.3392867615663185  0.3705723078371487
  0.4141392099399893  0.1564713351906211  0.6285494891591885
  0.4008643218087783  0.3278290069706034  0.5703173407460540
  0.6020000824817714  0.1669731992689739  0.4315505957170274
  0.8958708916647741  0.4912143180763173  0.4391660116168707
  0.7718674827855312  0.0106001196633020  0.5603584550942198
  0.7605463216536704  0.4278578760433814  0.4250738325315925
  0.9084467029887726  0.0726918934549473  0.5727634108117671
  0.9084106707254278  0.3394361241597146  0.4938059228536708
  0.7596994239169815  0.1615886983356094  0.5052611460710043
  0.9245487363938473  0.3415687059661442  0.3722776681973795
  0.7451988130949102  0.1598056035202389  0.6269841871288164
  0.7291374223399851  0.3346316987062095  0.5649240517762842
  0.9375685670015380  0.1686714256657339  0.4314381374262570
  0.2265096338483673  0.9915281580781756  0.4406093306000303
  0.1074139301861728  0.5076834213499467  0.5606713207558169
  0.0904387209431693  0.9280103478910325  0.4294034234980212
  0.2472891886437499  0.5664831733292490  0.5698101104764147
  0.2409780953314089  0.8392777499020705  0.4957891256888966
  0.0947577965468174  0.6594279855865696  0.5062259679734897
  0.2525139806137263  0.8425644936255667  0.3740792717045399
  0.0884728018372627  0.6541589139433344  0.6280613168256667
  0.0660404070730087  0.8284470316540924  0.5704479928131155
  0.2690689950397020  0.6702477174377558  0.4314094700184941
  0.5605113154815484  0.9891655719383881  0.4405862361167022
  0.4430249050870448  0.5020896670449221  0.5563490139152860
  0.4233194567620269  0.9270210997163991  0.4298501229733655
  0.5794490720580111  0.5655194745337627  0.5702807687267776
  0.5723661796266049  0.8395295268802458  0.4976255219306402
  0.4224021741788698  0.6624009019195186  0.5125619130153212
  0.5860163496006028  0.8387723992726572  0.3758586122375249
  0.4234051184047023  0.6377373371737562  0.6332093741647419
  0.3960943685178824  0.8321452234718141  0.5742339913005783
  0.5988342057489143  0.6688113853890794  0.4362042011377350
  0.8936216932838732  0.9924648259532562  0.4393656081135759
  0.7740090827549423  0.5087993850486956  0.5589084329150336
  0.7566082377292539  0.9302489858229205  0.4278701578526679
  0.9104061216090120  0.5714315639944050  0.5720790602168648
  0.9073316501463502  0.8406151260014377  0.4939861760250736
  0.7612920167098076  0.6609610662759788  0.5049951182876884
  0.9183968338613849  0.8442216500787687  0.3722203782536432
  0.7473305837140101  0.6567816047712128  0.6265473187273233
  0.7338029482848788  0.8297292276316386  0.5692848300345583
  0.9353572986899834  0.6712297708744088  0.4300422263229273
  0.5427424222086190  0.4218297938785685  0.6900635072066340
  0.4768554457762608  0.4963568612008866  0.7235406701022580
 
  0.00000000E+00  0.00000000E+00  0.00000000E+00
  0.00000000E+00  0.00000000E+00  0.00000000E+00
  0.00000000E+00  0.00000000E+00  0.00000000E+00
  0.00000000E+00  0.00000000E+00  0.00000000E+00
  0.00000000E+00  0.00000000E+00  0.00000000E+00
  0.00000000E+00  0.00000000E+00  0.00000000E+00
  0.00000000E+00  0.00000000E+00  0.00000000E+00
  0.00000000E+00  0.00000000E+00  0.00000000E+00
  0.00000000E+00  0.00000000E+00  0.00000000E+00
  0.00000000E+00  0.00000000E+00  0.00000000E+00
  0.00000000E+00  0.00000000E+00  0.00000000E+00
  0.00000000E+00  0.00000000E+00  0.00000000E+00
  0.00000000E+00  0.00000000E+00  0.00000000E+00
  0.00000000E+00  0.00000000E+00  0.00000000E+00
  0.00000000E+00  0.00000000E+00  0.00000000E+00
  0.00000000E+00  0.00000000E+00  0.00000000E+00
  0.00000000E+00  0.00000000E+00  0.00000000E+00
  0.00000000E+00  0.00000000E+00  0.00000000E+00
  0.00000000E+00  0.00000000E+00  0.00000000E+00
  0.00000000E+00  0.00000000E+00  0.00000000E+00
  0.00000000E+00  0.00000000E+00  0.00000000E+00
  0.00000000E+00  0.00000000E+00  0.00000000E+00
  0.00000000E+00  0.00000000E+00  0.00000000E+00
  0.00000000E+00  0.00000000E+00  0.00000000E+00
  0.00000000E+00  0.00000000E+00  0.00000000E+00
  0.00000000E+00  0.00000000E+00  0.00000000E+00
  0.00000000E+00  0.00000000E+00  0.00000000E+00
  0.00000000E+00  0.00000000E+00  0.00000000E+00
  0.00000000E+00  0.00000000E+00  0.00000000E+00
  0.00000000E+00  0.00000000E+00  0.00000000E+00
  0.00000000E+00  0.00000000E+00  0.00000000E+00
  0.00000000E+00  0.00000000E+00  0.00000000E+00
  0.00000000E+00  0.00000000E+00  0.00000000E+00
  0.00000000E+00  0.00000000E+00  0.00000000E+00
  0.00000000E+00  0.00000000E+00  0.00000000E+00
  0.00000000E+00  0.00000000E+00  0.00000000E+00
  0.00000000E+00  0.00000000E+00  0.00000000E+00
  0.00000000E+00  0.00000000E+00  0.00000000E+00
  0.00000000E+00  0.00000000E+00  0.00000000E+00
  0.00000000E+00  0.00000000E+00  0.00000000E+00
  0.00000000E+00  0.00000000E+00  0.00000000E+00
  0.00000000E+00  0.00000000E+00  0.00000000E+00
  0.00000000E+00  0.00000000E+00  0.00000000E+00
  0.00000000E+00  0.00000000E+00  0.00000000E+00
  0.00000000E+00  0.00000000E+00  0.00000000E+00
  0.00000000E+00  0.00000000E+00  0.00000000E+00
  0.00000000E+00  0.00000000E+00  0.00000000E+00
  0.00000000E+00  0.00000000E+00  0.00000000E+00
  0.00000000E+00  0.00000000E+00  0.00000000E+00
  0.00000000E+00  0.00000000E+00  0.00000000E+00
  0.00000000E+00  0.00000000E+00  0.00000000E+00
  0.00000000E+00  0.00000000E+00  0.00000000E+00
  0.00000000E+00  0.00000000E+00  0.00000000E+00
  0.00000000E+00  0.00000000E+00  0.00000000E+00
  0.00000000E+00  0.00000000E+00  0.00000000E+00
  0.00000000E+00  0.00000000E+00  0.00000000E+00
  0.00000000E+00  0.00000000E+00  0.00000000E+00
  0.00000000E+00  0.00000000E+00  0.00000000E+00
  0.00000000E+00  0.00000000E+00  0.00000000E+00
  0.00000000E+00  0.00000000E+00  0.00000000E+00
  0.00000000E+00  0.00000000E+00  0.00000000E+00
  0.00000000E+00  0.00000000E+00  0.00000000E+00
  0.00000000E+00  0.00000000E+00  0.00000000E+00
  0.00000000E+00  0.00000000E+00  0.00000000E+00
  0.00000000E+00  0.00000000E+00  0.00000000E+00
  0.00000000E+00  0.00000000E+00  0.00000000E+00
  0.00000000E+00  0.00000000E+00  0.00000000E+00
  0.00000000E+00  0.00000000E+00  0.00000000E+00
  0.00000000E+00  0.00000000E+00  0.00000000E+00
  0.00000000E+00  0.00000000E+00  0.00000000E+00
  0.00000000E+00  0.00000000E+00  0.00000000E+00
  0.00000000E+00  0.00000000E+00  0.00000000E+00
  0.00000000E+00  0.00000000E+00  0.00000000E+00
  0.00000000E+00  0.00000000E+00  0.00000000E+00
  0.00000000E+00  0.00000000E+00  0.00000000E+00
  0.00000000E+00  0.00000000E+00  0.00000000E+00
  0.00000000E+00  0.00000000E+00  0.00000000E+00
  0.00000000E+00  0.00000000E+00  0.00000000E+00
  0.00000000E+00  0.00000000E+00  0.00000000E+00
  0.00000000E+00  0.00000000E+00  0.00000000E+00
  0.00000000E+00  0.00000000E+00  0.00000000E+00
  0.00000000E+00  0.00000000E+00  0.00000000E+00
  0.00000000E+00  0.00000000E+00  0.00000000E+00
  0.00000000E+00  0.00000000E+00  0.00000000E+00
  0.00000000E+00  0.00000000E+00  0.00000000E+00
  0.00000000E+00  0.00000000E+00  0.00000000E+00
  0.00000000E+00  0.00000000E+00  0.00000000E+00
  0.00000000E+00  0.00000000E+00  0.00000000E+00
  0.00000000E+00  0.00000000E+00  0.00000000E+00
  0.00000000E+00  0.00000000E+00  0.00000000E+00
  0.00000000E+00  0.00000000E+00  0.00000000E+00
  0.00000000E+00  0.00000000E+00  0.00000000E+00
  0.00000000E+00  0.00000000E+00  0.00000000E+00
  0.00000000E+00  0.00000000E+00  0.00000000E+00
  0.00000000E+00  0.00000000E+00  0.00000000E+00
  0.00000000E+00  0.00000000E+00  0.00000000E+00
  0.00000000E+00  0.00000000E+00  0.00000000E+00
  0.00000000E+00  0.00000000E+00  0.00000000E+00
  0.00000000E+00  0.00000000E+00  0.00000000E+00
  0.00000000E+00  0.00000000E+00  0.00000000E+00
  0.00000000E+00  0.00000000E+00  0.00000000E+00
  0.00000000E+00  0.00000000E+00  0.00000000E+00
  0.00000000E+00  0.00000000E+00  0.00000000E+00
  0.00000000E+00  0.00000000E+00  0.00000000E+00
  0.00000000E+00  0.00000000E+00  0.00000000E+00
  0.00000000E+00  0.00000000E+00  0.00000000E+00
  0.00000000E+00  0.00000000E+00  0.00000000E+00
  0.00000000E+00  0.00000000E+00  0.00000000E+00
  0.00000000E+00  0.00000000E+00  0.00000000E+00
  0.00000000E+00  0.00000000E+00  0.00000000E+00
  0.00000000E+00  0.00000000E+00  0.00000000E+00
