CONTCAR                                 
   1.00000000000000     
    10.2920999526999992    0.0000000000000000    0.0000000000000000
     1.7153529658000000    9.6351993213000000    0.0000000000000000
     0.0000000000000000    0.0000000000000000   19.1306991577000005
   Nb   Te
     9    17
Direct
  0.0040342083091458  0.0011792240595506  0.5009503671240638
  0.1179737184889589  0.2869456525968475  0.4983841813124846
  0.2152418207773342  0.7140019105861062  0.5057754672994286
  0.3268546551413500  0.0019634552910048  0.5011782986813141
  0.4426161514123596  0.2807428026680626  0.4915282640003634
  0.5480209114023937  0.7158647746467671  0.4982264992948022
  0.6680708379767575  0.0037035472675350  0.4993647548456467
  0.7973635618622449  0.2818823444687287  0.4917593613480902
  0.8799709458954376  0.7152263337538231  0.5055849825568300
  0.1477014452944364  0.1114860121378507  0.6082369542322625
  0.1843986008912697  0.8881687751589754  0.3948071091773525
  0.2707093980756067  0.4484616180161246  0.5815431812619690
  0.0749817808435523  0.5492616738890366  0.4202734012925568
  0.0348452940416392  0.7898355981556081  0.6104124890787386
  0.2920253789137227  0.2043378665997456  0.3900491074419759
  0.4805204256082162  0.1155374076780440  0.6038716686054395
  0.5159142253872417  0.8983843109225285  0.3952220755274626
  0.4097076570008867  0.5448469194354263  0.4220041096803818
  0.3736956065252660  0.7880937901685354  0.6080568549995946
  0.6321619243461276  0.2122264145925385  0.3900642281878973
  0.8136242181299000  0.1167084042884672  0.6042034123132193
  0.8535320678328887  0.8910025832143391  0.3955162649766405
  0.9132978628937034  0.4496928236062608  0.5816642463666480
  0.7424085777723239  0.5455415611518167  0.4217020348463628
  0.6969950341749191  0.7915724506957691  0.6074633761696757
  0.9717360410023280  0.2030383669505101  0.3899545863788246
 
  0.00000000E+00  0.00000000E+00  0.00000000E+00
  0.00000000E+00  0.00000000E+00  0.00000000E+00
  0.00000000E+00  0.00000000E+00  0.00000000E+00
  0.00000000E+00  0.00000000E+00  0.00000000E+00
  0.00000000E+00  0.00000000E+00  0.00000000E+00
  0.00000000E+00  0.00000000E+00  0.00000000E+00
  0.00000000E+00  0.00000000E+00  0.00000000E+00
  0.00000000E+00  0.00000000E+00  0.00000000E+00
  0.00000000E+00  0.00000000E+00  0.00000000E+00
  0.00000000E+00  0.00000000E+00  0.00000000E+00
  0.00000000E+00  0.00000000E+00  0.00000000E+00
  0.00000000E+00  0.00000000E+00  0.00000000E+00
  0.00000000E+00  0.00000000E+00  0.00000000E+00
  0.00000000E+00  0.00000000E+00  0.00000000E+00
  0.00000000E+00  0.00000000E+00  0.00000000E+00
  0.00000000E+00  0.00000000E+00  0.00000000E+00
  0.00000000E+00  0.00000000E+00  0.00000000E+00
  0.00000000E+00  0.00000000E+00  0.00000000E+00
  0.00000000E+00  0.00000000E+00  0.00000000E+00
  0.00000000E+00  0.00000000E+00  0.00000000E+00
  0.00000000E+00  0.00000000E+00  0.00000000E+00
  0.00000000E+00  0.00000000E+00  0.00000000E+00
  0.00000000E+00  0.00000000E+00  0.00000000E+00
  0.00000000E+00  0.00000000E+00  0.00000000E+00
  0.00000000E+00  0.00000000E+00  0.00000000E+00
  0.00000000E+00  0.00000000E+00  0.00000000E+00
