G   59   59    1    0.005     # Parameters to Generate KPOINTS (Don't Edit This Line)
     465
Reciprocal lattice
    0.000000000000    0.000000000000    0.000000000000       1
    0.016949152542    0.000000000000    0.000000000000       4
    0.033898305085    0.000000000000    0.000000000000       4
    0.050847457627    0.000000000000    0.000000000000       4
    0.067796610169    0.000000000000    0.000000000000       4
    0.084745762712    0.000000000000    0.000000000000       4
    0.101694915254    0.000000000000    0.000000000000       4
    0.118644067797    0.000000000000    0.000000000000       4
    0.135593220339    0.000000000000    0.000000000000       4
    0.152542372881    0.000000000000    0.000000000000       4
    0.169491525424    0.000000000000    0.000000000000       4
    0.186440677966    0.000000000000    0.000000000000       4
    0.203389830508    0.000000000000    0.000000000000       4
    0.220338983051    0.000000000000    0.000000000000       4
    0.237288135593    0.000000000000    0.000000000000       4
    0.254237288136    0.000000000000    0.000000000000       4
    0.271186440678    0.000000000000    0.000000000000       4
    0.288135593220    0.000000000000    0.000000000000       4
    0.305084745763    0.000000000000    0.000000000000       4
    0.322033898305    0.000000000000    0.000000000000       4
    0.338983050847    0.000000000000    0.000000000000       4
    0.355932203390    0.000000000000    0.000000000000       4
    0.372881355932    0.000000000000    0.000000000000       4
    0.389830508475    0.000000000000    0.000000000000       4
    0.406779661017    0.000000000000    0.000000000000       4
    0.423728813559    0.000000000000    0.000000000000       4
    0.440677966102    0.000000000000    0.000000000000       4
    0.457627118644    0.000000000000    0.000000000000       4
    0.474576271186    0.000000000000    0.000000000000       4
    0.491525423729    0.000000000000    0.000000000000       4
    0.016949152542    0.016949152542    0.000000000000       4
    0.033898305085    0.016949152542    0.000000000000       8
    0.050847457627    0.016949152542    0.000000000000       8
    0.067796610169    0.016949152542    0.000000000000       8
    0.084745762712    0.016949152542    0.000000000000       8
    0.101694915254    0.016949152542    0.000000000000       8
    0.118644067797    0.016949152542    0.000000000000       8
    0.135593220339    0.016949152542    0.000000000000       8
    0.152542372881    0.016949152542    0.000000000000       8
    0.169491525424    0.016949152542    0.000000000000       8
    0.186440677966    0.016949152542    0.000000000000       8
    0.203389830508    0.016949152542    0.000000000000       8
    0.220338983051    0.016949152542    0.000000000000       8
    0.237288135593    0.016949152542    0.000000000000       8
    0.254237288136    0.016949152542    0.000000000000       8
    0.271186440678    0.016949152542    0.000000000000       8
    0.288135593220    0.016949152542    0.000000000000       8
    0.305084745763    0.016949152542    0.000000000000       8
    0.322033898305    0.016949152542    0.000000000000       8
    0.338983050847    0.016949152542    0.000000000000       8
    0.355932203390    0.016949152542    0.000000000000       8
    0.372881355932    0.016949152542    0.000000000000       8
    0.389830508475    0.016949152542    0.000000000000       8
    0.406779661017    0.016949152542    0.000000000000       8
    0.423728813559    0.016949152542    0.000000000000       8
    0.440677966102    0.016949152542    0.000000000000       8
    0.457627118644    0.016949152542    0.000000000000       8
    0.474576271186    0.016949152542    0.000000000000       8
    0.491525423729    0.016949152542    0.000000000000       8
    0.033898305085    0.033898305085    0.000000000000       4
    0.050847457627    0.033898305085    0.000000000000       8
    0.067796610169    0.033898305085    0.000000000000       8
    0.084745762712    0.033898305085    0.000000000000       8
    0.101694915254    0.033898305085    0.000000000000       8
    0.118644067797    0.033898305085    0.000000000000       8
    0.135593220339    0.033898305085    0.000000000000       8
    0.152542372881    0.033898305085    0.000000000000       8
    0.169491525424    0.033898305085    0.000000000000       8
    0.186440677966    0.033898305085    0.000000000000       8
    0.203389830508    0.033898305085    0.000000000000       8
    0.220338983051    0.033898305085    0.000000000000       8
    0.237288135593    0.033898305085    0.000000000000       8
    0.254237288136    0.033898305085    0.000000000000       8
    0.271186440678    0.033898305085    0.000000000000       8
    0.288135593220    0.033898305085    0.000000000000       8
    0.305084745763    0.033898305085    0.000000000000       8
    0.322033898305    0.033898305085    0.000000000000       8
    0.338983050847    0.033898305085    0.000000000000       8
    0.355932203390    0.033898305085    0.000000000000       8
    0.372881355932    0.033898305085    0.000000000000       8
    0.389830508475    0.033898305085    0.000000000000       8
    0.406779661017    0.033898305085    0.000000000000       8
    0.423728813559    0.033898305085    0.000000000000       8
    0.440677966102    0.033898305085    0.000000000000       8
    0.457627118644    0.033898305085    0.000000000000       8
    0.474576271186    0.033898305085    0.000000000000       8
    0.491525423729    0.033898305085    0.000000000000       8
    0.050847457627    0.050847457627    0.000000000000       4
    0.067796610169    0.050847457627    0.000000000000       8
    0.084745762712    0.050847457627    0.000000000000       8
    0.101694915254    0.050847457627    0.000000000000       8
    0.118644067797    0.050847457627    0.000000000000       8
    0.135593220339    0.050847457627    0.000000000000       8
    0.152542372881    0.050847457627    0.000000000000       8
    0.169491525424    0.050847457627    0.000000000000       8
    0.186440677966    0.050847457627    0.000000000000       8
    0.203389830508    0.050847457627    0.000000000000       8
    0.220338983051    0.050847457627    0.000000000000       8
    0.237288135593    0.050847457627    0.000000000000       8
    0.254237288136    0.050847457627    0.000000000000       8
    0.271186440678    0.050847457627    0.000000000000       8
    0.288135593220    0.050847457627    0.000000000000       8
    0.305084745763    0.050847457627    0.000000000000       8
    0.322033898305    0.050847457627    0.000000000000       8
    0.338983050847    0.050847457627    0.000000000000       8
    0.355932203390    0.050847457627    0.000000000000       8
    0.372881355932    0.050847457627    0.000000000000       8
    0.389830508475    0.050847457627    0.000000000000       8
    0.406779661017    0.050847457627    0.000000000000       8
    0.423728813559    0.050847457627    0.000000000000       8
    0.440677966102    0.050847457627    0.000000000000       8
    0.457627118644    0.050847457627    0.000000000000       8
    0.474576271186    0.050847457627    0.000000000000       8
    0.491525423729    0.050847457627    0.000000000000       8
    0.067796610169    0.067796610169    0.000000000000       4
    0.084745762712    0.067796610169    0.000000000000       8
    0.101694915254    0.067796610169    0.000000000000       8
    0.118644067797    0.067796610169    0.000000000000       8
    0.135593220339    0.067796610169    0.000000000000       8
    0.152542372881    0.067796610169    0.000000000000       8
    0.169491525424    0.067796610169    0.000000000000       8
    0.186440677966    0.067796610169    0.000000000000       8
    0.203389830508    0.067796610169    0.000000000000       8
    0.220338983051    0.067796610169    0.000000000000       8
    0.237288135593    0.067796610169    0.000000000000       8
    0.254237288136    0.067796610169    0.000000000000       8
    0.271186440678    0.067796610169    0.000000000000       8
    0.288135593220    0.067796610169    0.000000000000       8
    0.305084745763    0.067796610169    0.000000000000       8
    0.322033898305    0.067796610169    0.000000000000       8
    0.338983050847    0.067796610169    0.000000000000       8
    0.355932203390    0.067796610169    0.000000000000       8
    0.372881355932    0.067796610169    0.000000000000       8
    0.389830508475    0.067796610169    0.000000000000       8
    0.406779661017    0.067796610169    0.000000000000       8
    0.423728813559    0.067796610169    0.000000000000       8
    0.440677966102    0.067796610169    0.000000000000       8
    0.457627118644    0.067796610169    0.000000000000       8
    0.474576271186    0.067796610169    0.000000000000       8
    0.491525423729    0.067796610169    0.000000000000       8
    0.084745762712    0.084745762712    0.000000000000       4
    0.101694915254    0.084745762712    0.000000000000       8
    0.118644067797    0.084745762712    0.000000000000       8
    0.135593220339    0.084745762712    0.000000000000       8
    0.152542372881    0.084745762712    0.000000000000       8
    0.169491525424    0.084745762712    0.000000000000       8
    0.186440677966    0.084745762712    0.000000000000       8
    0.203389830508    0.084745762712    0.000000000000       8
    0.220338983051    0.084745762712    0.000000000000       8
    0.237288135593    0.084745762712    0.000000000000       8
    0.254237288136    0.084745762712    0.000000000000       8
    0.271186440678    0.084745762712    0.000000000000       8
    0.288135593220    0.084745762712    0.000000000000       8
    0.305084745763    0.084745762712    0.000000000000       8
    0.322033898305    0.084745762712    0.000000000000       8
    0.338983050847    0.084745762712    0.000000000000       8
    0.355932203390    0.084745762712    0.000000000000       8
    0.372881355932    0.084745762712    0.000000000000       8
    0.389830508475    0.084745762712    0.000000000000       8
    0.406779661017    0.084745762712    0.000000000000       8
    0.423728813559    0.084745762712    0.000000000000       8
    0.440677966102    0.084745762712    0.000000000000       8
    0.457627118644    0.084745762712    0.000000000000       8
    0.474576271186    0.084745762712    0.000000000000       8
    0.491525423729    0.084745762712    0.000000000000       8
    0.101694915254    0.101694915254    0.000000000000       4
    0.118644067797    0.101694915254    0.000000000000       8
    0.135593220339    0.101694915254    0.000000000000       8
    0.152542372881    0.101694915254    0.000000000000       8
    0.169491525424    0.101694915254    0.000000000000       8
    0.186440677966    0.101694915254    0.000000000000       8
    0.203389830508    0.101694915254    0.000000000000       8
    0.220338983051    0.101694915254    0.000000000000       8
    0.237288135593    0.101694915254    0.000000000000       8
    0.254237288136    0.101694915254    0.000000000000       8
    0.271186440678    0.101694915254    0.000000000000       8
    0.288135593220    0.101694915254    0.000000000000       8
    0.305084745763    0.101694915254    0.000000000000       8
    0.322033898305    0.101694915254    0.000000000000       8
    0.338983050847    0.101694915254    0.000000000000       8
    0.355932203390    0.101694915254    0.000000000000       8
    0.372881355932    0.101694915254    0.000000000000       8
    0.389830508475    0.101694915254    0.000000000000       8
    0.406779661017    0.101694915254    0.000000000000       8
    0.423728813559    0.101694915254    0.000000000000       8
    0.440677966102    0.101694915254    0.000000000000       8
    0.457627118644    0.101694915254    0.000000000000       8
    0.474576271186    0.101694915254    0.000000000000       8
    0.491525423729    0.101694915254    0.000000000000       8
    0.118644067797    0.118644067797    0.000000000000       4
    0.135593220339    0.118644067797    0.000000000000       8
    0.152542372881    0.118644067797    0.000000000000       8
    0.169491525424    0.118644067797    0.000000000000       8
    0.186440677966    0.118644067797    0.000000000000       8
    0.203389830508    0.118644067797    0.000000000000       8
    0.220338983051    0.118644067797    0.000000000000       8
    0.237288135593    0.118644067797    0.000000000000       8
    0.254237288136    0.118644067797    0.000000000000       8
    0.271186440678    0.118644067797    0.000000000000       8
    0.288135593220    0.118644067797    0.000000000000       8
    0.305084745763    0.118644067797    0.000000000000       8
    0.322033898305    0.118644067797    0.000000000000       8
    0.338983050847    0.118644067797    0.000000000000       8
    0.355932203390    0.118644067797    0.000000000000       8
    0.372881355932    0.118644067797    0.000000000000       8
    0.389830508475    0.118644067797    0.000000000000       8
    0.406779661017    0.118644067797    0.000000000000       8
    0.423728813559    0.118644067797    0.000000000000       8
    0.440677966102    0.118644067797    0.000000000000       8
    0.457627118644    0.118644067797    0.000000000000       8
    0.474576271186    0.118644067797    0.000000000000       8
    0.491525423729    0.118644067797    0.000000000000       8
    0.135593220339    0.135593220339    0.000000000000       4
    0.152542372881    0.135593220339    0.000000000000       8
    0.169491525424    0.135593220339    0.000000000000       8
    0.186440677966    0.135593220339    0.000000000000       8
    0.203389830508    0.135593220339    0.000000000000       8
    0.220338983051    0.135593220339    0.000000000000       8
    0.237288135593    0.135593220339    0.000000000000       8
    0.254237288136    0.135593220339    0.000000000000       8
    0.271186440678    0.135593220339    0.000000000000       8
    0.288135593220    0.135593220339    0.000000000000       8
    0.305084745763    0.135593220339    0.000000000000       8
    0.322033898305    0.135593220339    0.000000000000       8
    0.338983050847    0.135593220339    0.000000000000       8
    0.355932203390    0.135593220339    0.000000000000       8
    0.372881355932    0.135593220339    0.000000000000       8
    0.389830508475    0.135593220339    0.000000000000       8
    0.406779661017    0.135593220339    0.000000000000       8
    0.423728813559    0.135593220339    0.000000000000       8
    0.440677966102    0.135593220339    0.000000000000       8
    0.457627118644    0.135593220339    0.000000000000       8
    0.474576271186    0.135593220339    0.000000000000       8
    0.491525423729    0.135593220339    0.000000000000       8
    0.152542372881    0.152542372881    0.000000000000       4
    0.169491525424    0.152542372881    0.000000000000       8
    0.186440677966    0.152542372881    0.000000000000       8
    0.203389830508    0.152542372881    0.000000000000       8
    0.220338983051    0.152542372881    0.000000000000       8
    0.237288135593    0.152542372881    0.000000000000       8
    0.254237288136    0.152542372881    0.000000000000       8
    0.271186440678    0.152542372881    0.000000000000       8
    0.288135593220    0.152542372881    0.000000000000       8
    0.305084745763    0.152542372881    0.000000000000       8
    0.322033898305    0.152542372881    0.000000000000       8
    0.338983050847    0.152542372881    0.000000000000       8
    0.355932203390    0.152542372881    0.000000000000       8
    0.372881355932    0.152542372881    0.000000000000       8
    0.389830508475    0.152542372881    0.000000000000       8
    0.406779661017    0.152542372881    0.000000000000       8
    0.423728813559    0.152542372881    0.000000000000       8
    0.440677966102    0.152542372881    0.000000000000       8
    0.457627118644    0.152542372881    0.000000000000       8
    0.474576271186    0.152542372881    0.000000000000       8
    0.491525423729    0.152542372881    0.000000000000       8
    0.169491525424    0.169491525424    0.000000000000       4
    0.186440677966    0.169491525424    0.000000000000       8
    0.203389830508    0.169491525424    0.000000000000       8
    0.220338983051    0.169491525424    0.000000000000       8
    0.237288135593    0.169491525424    0.000000000000       8
    0.254237288136    0.169491525424    0.000000000000       8
    0.271186440678    0.169491525424    0.000000000000       8
    0.288135593220    0.169491525424    0.000000000000       8
    0.305084745763    0.169491525424    0.000000000000       8
    0.322033898305    0.169491525424    0.000000000000       8
    0.338983050847    0.169491525424    0.000000000000       8
    0.355932203390    0.169491525424    0.000000000000       8
    0.372881355932    0.169491525424    0.000000000000       8
    0.389830508475    0.169491525424    0.000000000000       8
    0.406779661017    0.169491525424    0.000000000000       8
    0.423728813559    0.169491525424    0.000000000000       8
    0.440677966102    0.169491525424    0.000000000000       8
    0.457627118644    0.169491525424    0.000000000000       8
    0.474576271186    0.169491525424    0.000000000000       8
    0.491525423729    0.169491525424    0.000000000000       8
    0.186440677966    0.186440677966    0.000000000000       4
    0.203389830508    0.186440677966    0.000000000000       8
    0.220338983051    0.186440677966    0.000000000000       8
    0.237288135593    0.186440677966    0.000000000000       8
    0.254237288136    0.186440677966    0.000000000000       8
    0.271186440678    0.186440677966    0.000000000000       8
    0.288135593220    0.186440677966    0.000000000000       8
    0.305084745763    0.186440677966    0.000000000000       8
    0.322033898305    0.186440677966    0.000000000000       8
    0.338983050847    0.186440677966    0.000000000000       8
    0.355932203390    0.186440677966    0.000000000000       8
    0.372881355932    0.186440677966    0.000000000000       8
    0.389830508475    0.186440677966    0.000000000000       8
    0.406779661017    0.186440677966    0.000000000000       8
    0.423728813559    0.186440677966    0.000000000000       8
    0.440677966102    0.186440677966    0.000000000000       8
    0.457627118644    0.186440677966    0.000000000000       8
    0.474576271186    0.186440677966    0.000000000000       8
    0.491525423729    0.186440677966    0.000000000000       8
    0.203389830508    0.203389830508    0.000000000000       4
    0.220338983051    0.203389830508    0.000000000000       8
    0.237288135593    0.203389830508    0.000000000000       8
    0.254237288136    0.203389830508    0.000000000000       8
    0.271186440678    0.203389830508    0.000000000000       8
    0.288135593220    0.203389830508    0.000000000000       8
    0.305084745763    0.203389830508    0.000000000000       8
    0.322033898305    0.203389830508    0.000000000000       8
    0.338983050847    0.203389830508    0.000000000000       8
    0.355932203390    0.203389830508    0.000000000000       8
    0.372881355932    0.203389830508    0.000000000000       8
    0.389830508475    0.203389830508    0.000000000000       8
    0.406779661017    0.203389830508    0.000000000000       8
    0.423728813559    0.203389830508    0.000000000000       8
    0.440677966102    0.203389830508    0.000000000000       8
    0.457627118644    0.203389830508    0.000000000000       8
    0.474576271186    0.203389830508    0.000000000000       8
    0.491525423729    0.203389830508    0.000000000000       8
    0.220338983051    0.220338983051    0.000000000000       4
    0.237288135593    0.220338983051    0.000000000000       8
    0.254237288136    0.220338983051    0.000000000000       8
    0.271186440678    0.220338983051    0.000000000000       8
    0.288135593220    0.220338983051    0.000000000000       8
    0.305084745763    0.220338983051    0.000000000000       8
    0.322033898305    0.220338983051    0.000000000000       8
    0.338983050847    0.220338983051    0.000000000000       8
    0.355932203390    0.220338983051    0.000000000000       8
    0.372881355932    0.220338983051    0.000000000000       8
    0.389830508475    0.220338983051    0.000000000000       8
    0.406779661017    0.220338983051    0.000000000000       8
    0.423728813559    0.220338983051    0.000000000000       8
    0.440677966102    0.220338983051    0.000000000000       8
    0.457627118644    0.220338983051    0.000000000000       8
    0.474576271186    0.220338983051    0.000000000000       8
    0.491525423729    0.220338983051    0.000000000000       8
    0.237288135593    0.237288135593    0.000000000000       4
    0.254237288136    0.237288135593    0.000000000000       8
    0.271186440678    0.237288135593    0.000000000000       8
    0.288135593220    0.237288135593    0.000000000000       8
    0.305084745763    0.237288135593    0.000000000000       8
    0.322033898305    0.237288135593    0.000000000000       8
    0.338983050847    0.237288135593    0.000000000000       8
    0.355932203390    0.237288135593    0.000000000000       8
    0.372881355932    0.237288135593    0.000000000000       8
    0.389830508475    0.237288135593    0.000000000000       8
    0.406779661017    0.237288135593    0.000000000000       8
    0.423728813559    0.237288135593    0.000000000000       8
    0.440677966102    0.237288135593    0.000000000000       8
    0.457627118644    0.237288135593    0.000000000000       8
    0.474576271186    0.237288135593    0.000000000000       8
    0.491525423729    0.237288135593    0.000000000000       8
    0.254237288136    0.254237288136    0.000000000000       4
    0.271186440678    0.254237288136    0.000000000000       8
    0.288135593220    0.254237288136    0.000000000000       8
    0.305084745763    0.254237288136    0.000000000000       8
    0.322033898305    0.254237288136    0.000000000000       8
    0.338983050847    0.254237288136    0.000000000000       8
    0.355932203390    0.254237288136    0.000000000000       8
    0.372881355932    0.254237288136    0.000000000000       8
    0.389830508475    0.254237288136    0.000000000000       8
    0.406779661017    0.254237288136    0.000000000000       8
    0.423728813559    0.254237288136    0.000000000000       8
    0.440677966102    0.254237288136    0.000000000000       8
    0.457627118644    0.254237288136    0.000000000000       8
    0.474576271186    0.254237288136    0.000000000000       8
    0.491525423729    0.254237288136    0.000000000000       8
    0.271186440678    0.271186440678    0.000000000000       4
    0.288135593220    0.271186440678    0.000000000000       8
    0.305084745763    0.271186440678    0.000000000000       8
    0.322033898305    0.271186440678    0.000000000000       8
    0.338983050847    0.271186440678    0.000000000000       8
    0.355932203390    0.271186440678    0.000000000000       8
    0.372881355932    0.271186440678    0.000000000000       8
    0.389830508475    0.271186440678    0.000000000000       8
    0.406779661017    0.271186440678    0.000000000000       8
    0.423728813559    0.271186440678    0.000000000000       8
    0.440677966102    0.271186440678    0.000000000000       8
    0.457627118644    0.271186440678    0.000000000000       8
    0.474576271186    0.271186440678    0.000000000000       8
    0.491525423729    0.271186440678    0.000000000000       8
    0.288135593220    0.288135593220    0.000000000000       4
    0.305084745763    0.288135593220    0.000000000000       8
    0.322033898305    0.288135593220    0.000000000000       8
    0.338983050847    0.288135593220    0.000000000000       8
    0.355932203390    0.288135593220    0.000000000000       8
    0.372881355932    0.288135593220    0.000000000000       8
    0.389830508475    0.288135593220    0.000000000000       8
    0.406779661017    0.288135593220    0.000000000000       8
    0.423728813559    0.288135593220    0.000000000000       8
    0.440677966102    0.288135593220    0.000000000000       8
    0.457627118644    0.288135593220    0.000000000000       8
    0.474576271186    0.288135593220    0.000000000000       8
    0.491525423729    0.288135593220    0.000000000000       8
    0.305084745763    0.305084745763    0.000000000000       4
    0.322033898305    0.305084745763    0.000000000000       8
    0.338983050847    0.305084745763    0.000000000000       8
    0.355932203390    0.305084745763    0.000000000000       8
    0.372881355932    0.305084745763    0.000000000000       8
    0.389830508475    0.305084745763    0.000000000000       8
    0.406779661017    0.305084745763    0.000000000000       8
    0.423728813559    0.305084745763    0.000000000000       8
    0.440677966102    0.305084745763    0.000000000000       8
    0.457627118644    0.305084745763    0.000000000000       8
    0.474576271186    0.305084745763    0.000000000000       8
    0.491525423729    0.305084745763    0.000000000000       8
    0.322033898305    0.322033898305    0.000000000000       4
    0.338983050847    0.322033898305    0.000000000000       8
    0.355932203390    0.322033898305    0.000000000000       8
    0.372881355932    0.322033898305    0.000000000000       8
    0.389830508475    0.322033898305    0.000000000000       8
    0.406779661017    0.322033898305    0.000000000000       8
    0.423728813559    0.322033898305    0.000000000000       8
    0.440677966102    0.322033898305    0.000000000000       8
    0.457627118644    0.322033898305    0.000000000000       8
    0.474576271186    0.322033898305    0.000000000000       8
    0.491525423729    0.322033898305    0.000000000000       8
    0.338983050847    0.338983050847    0.000000000000       4
    0.355932203390    0.338983050847    0.000000000000       8
    0.372881355932    0.338983050847    0.000000000000       8
    0.389830508475    0.338983050847    0.000000000000       8
    0.406779661017    0.338983050847    0.000000000000       8
    0.423728813559    0.338983050847    0.000000000000       8
    0.440677966102    0.338983050847    0.000000000000       8
    0.457627118644    0.338983050847    0.000000000000       8
    0.474576271186    0.338983050847    0.000000000000       8
    0.491525423729    0.338983050847    0.000000000000       8
    0.355932203390    0.355932203390    0.000000000000       4
    0.372881355932    0.355932203390    0.000000000000       8
    0.389830508475    0.355932203390    0.000000000000       8
    0.406779661017    0.355932203390    0.000000000000       8
    0.423728813559    0.355932203390    0.000000000000       8
    0.440677966102    0.355932203390    0.000000000000       8
    0.457627118644    0.355932203390    0.000000000000       8
    0.474576271186    0.355932203390    0.000000000000       8
    0.491525423729    0.355932203390    0.000000000000       8
    0.372881355932    0.372881355932    0.000000000000       4
    0.389830508475    0.372881355932    0.000000000000       8
    0.406779661017    0.372881355932    0.000000000000       8
    0.423728813559    0.372881355932    0.000000000000       8
    0.440677966102    0.372881355932    0.000000000000       8
    0.457627118644    0.372881355932    0.000000000000       8
    0.474576271186    0.372881355932    0.000000000000       8
    0.491525423729    0.372881355932    0.000000000000       8
    0.389830508475    0.389830508475    0.000000000000       4
    0.406779661017    0.389830508475    0.000000000000       8
    0.423728813559    0.389830508475    0.000000000000       8
    0.440677966102    0.389830508475    0.000000000000       8
    0.457627118644    0.389830508475    0.000000000000       8
    0.474576271186    0.389830508475    0.000000000000       8
    0.491525423729    0.389830508475    0.000000000000       8
    0.406779661017    0.406779661017    0.000000000000       4
    0.423728813559    0.406779661017    0.000000000000       8
    0.440677966102    0.406779661017    0.000000000000       8
    0.457627118644    0.406779661017    0.000000000000       8
    0.474576271186    0.406779661017    0.000000000000       8
    0.491525423729    0.406779661017    0.000000000000       8
    0.423728813559    0.423728813559    0.000000000000       4
    0.440677966102    0.423728813559    0.000000000000       8
    0.457627118644    0.423728813559    0.000000000000       8
    0.474576271186    0.423728813559    0.000000000000       8
    0.491525423729    0.423728813559    0.000000000000       8
    0.440677966102    0.440677966102    0.000000000000       4
    0.457627118644    0.440677966102    0.000000000000       8
    0.474576271186    0.440677966102    0.000000000000       8
    0.491525423729    0.440677966102    0.000000000000       8
    0.457627118644    0.457627118644    0.000000000000       4
    0.474576271186    0.457627118644    0.000000000000       8
    0.491525423729    0.457627118644    0.000000000000       8
    0.474576271186    0.474576271186    0.000000000000       4
    0.491525423729    0.474576271186    0.000000000000       8
    0.491525423729    0.491525423729    0.000000000000       4
