CONTCAR\(3)                             
   1.00000000000000     
    13.4954004288000000    0.0000000000000000    0.0000000000000000
    -3.3738461598999998   19.0216094057000014    0.0000000000000000
     0.0000000000000000    0.0000000000000000   18.9101009369000010
   Ta   Pd   Se   O    H 
    16     8    48     2     1
Direct
  0.0866272462546797  0.3516242470375046  0.5259443244561586
  0.1604655680862890  0.1486280157228305  0.4765660169707671
  0.3365421741312852  0.3513458109561895  0.5262525225840637
  0.4112059268917912  0.1487321788865303  0.4764334857622872
  0.5866282224161391  0.3516583107908878  0.5262033917401261
  0.6604826113367306  0.1490721111803675  0.4765662142366959
  0.8368418610807734  0.3522041776042742  0.5257259190340245
  0.9108437695045847  0.1488838465584968  0.4766893585784066
  0.0964151991620827  0.8529256975475635  0.5248340898842524
  0.1694399806568699  0.6476361164494500  0.4789689956870118
  0.3434646459062595  0.8554845012490684  0.5209737240856781
  0.4181926639518664  0.6436308876606887  0.4777273728053619
  0.6000999691204224  0.8556907397185721  0.5215788208337934
  0.6705060971104955  0.6476546488367431  0.4791083094537693
  0.8462980064258346  0.8529088181240548  0.5249549182450847
  0.9200018301889383  0.6481884198960688  0.4787237133546818
  0.0033042039058567  0.0012150830236748  0.5000599907702472
  0.2529477038635339  0.9993841834315672  0.5001622214268600
  0.5042765686891452  0.0024084646961016  0.4983162607766803
  0.7536390915656743  0.9994137724186216  0.5007420832162353
  0.0042228037371597  0.5004451097903255  0.5024690053300715
  0.2531325488030411  0.4994317097894673  0.5022354482856353
  0.5031163683593658  0.4987995485015120  0.5034609795769202
  0.7526716807437753  0.5009072964517249  0.5023941284126834
  0.2290369697391861  0.4203144611474743  0.6059187107915425
  0.0187029797753893  0.0806922768877454  0.3960652615996328
  0.0597454062367486  0.2439735636550821  0.4282900352508884
  0.2223133954493369  0.3927586111409401  0.4284679653087429
  0.0260564934460686  0.1079094415451505  0.5742828060727916
  0.1877170084276897  0.2563125925301299  0.5743135812790139
  0.4788683407633605  0.4192216169309560  0.6069742111715047
  0.2684727700292835  0.0790753565774376  0.3972049842112657
  0.3097032551565982  0.2435850546038520  0.4282762621964158
  0.4716127459695693  0.3927570730091055  0.4288417127839607
  0.2757385720583117  0.1062075070361103  0.5737972711475070
  0.4376628320164273  0.2562287368397970  0.5744331389939835
  0.7293741613730719  0.4210983651399969  0.6056211955723035
  0.5196092992271357  0.0823412813421480  0.3946403221111183
  0.5599678762245274  0.2444280830618698  0.4285682446650515
  0.7221810120193481  0.3940784607820105  0.4285568725926218
  0.5261894166773766  0.1079814836527758  0.5740350185280916
  0.6883698323464308  0.2569619108414420  0.5743781394818428
  0.9793432121721818  0.4207105058240471  0.6057717875763111
  0.7683373585676724  0.0789521636623665  0.3976342731108488
  0.8098089753099751  0.2438731415885882  0.4281625650148864
  0.9724122565938301  0.3936674177417840  0.4283733622770962
  0.7756929209186385  0.1064756501932993  0.5740439511803719
  0.9375480374178475  0.2568382526974101  0.5743356266271219
  0.2382654841706449  0.9211757160215946  0.6049593603772050
  0.0274103295636432  0.5795032600647659  0.3985986854685381
  0.0689773104115935  0.7422526398918311  0.4299712068592523
  0.2282165110121835  0.8930198575943358  0.4244482130366890
  0.0346987213364653  0.6073106793504254  0.5767798368019903
  0.1992138440128071  0.7586149629609684  0.5736701073136559
  0.4884178194527966  0.9225775335308738  0.6016098465202977
  0.2753312669873275  0.5778267627537210  0.3977030587556158
  0.3198798178244276  0.7417327900014330  0.4285507175151433
  0.4819742423826384  0.8958544855210501  0.4244693644685897
  0.2841054315855067  0.6061805227971635  0.5764944792218374
  0.4476699738844679  0.7593551221640736  0.5614748016326725
  0.7381293311610790  0.9209135352685349  0.6054725194939465
  0.5283331475825973  0.5770532076364454  0.3988879757048621
  0.5658713233809372  0.7418569273298790  0.4298799062847028
  0.7339150929343653  0.8932763596470766  0.4248531647742249
  0.5344275044672314  0.6063042578744459  0.5766937457407404
  0.6968350136965452  0.7583981652295524  0.5733236147522656
  0.9887997710274659  0.9226307287942170  0.6041579304521196
  0.7775613649530522  0.5798293989251680  0.3983566199142326
  0.8179613535693412  0.7423155891777871  0.4295582963432592
  0.9814430561665556  0.8937686947049045  0.4270378934576839
  0.7848574706966669  0.6077467914821234  0.5768768969205973
  0.9477595073068208  0.7587379199532597  0.5745245906121934
  0.4316647690157386  0.7557015057932195  0.6651251618107167
  0.5251266854569464  0.7745110904523933  0.7020062886704850
  0.5494424301515906  0.7293966293249824  0.7047077160441076
 
  0.00000000E+00  0.00000000E+00  0.00000000E+00
  0.00000000E+00  0.00000000E+00  0.00000000E+00
  0.00000000E+00  0.00000000E+00  0.00000000E+00
  0.00000000E+00  0.00000000E+00  0.00000000E+00
  0.00000000E+00  0.00000000E+00  0.00000000E+00
  0.00000000E+00  0.00000000E+00  0.00000000E+00
  0.00000000E+00  0.00000000E+00  0.00000000E+00
  0.00000000E+00  0.00000000E+00  0.00000000E+00
  0.00000000E+00  0.00000000E+00  0.00000000E+00
  0.00000000E+00  0.00000000E+00  0.00000000E+00
  0.00000000E+00  0.00000000E+00  0.00000000E+00
  0.00000000E+00  0.00000000E+00  0.00000000E+00
  0.00000000E+00  0.00000000E+00  0.00000000E+00
  0.00000000E+00  0.00000000E+00  0.00000000E+00
  0.00000000E+00  0.00000000E+00  0.00000000E+00
  0.00000000E+00  0.00000000E+00  0.00000000E+00
  0.00000000E+00  0.00000000E+00  0.00000000E+00
  0.00000000E+00  0.00000000E+00  0.00000000E+00
  0.00000000E+00  0.00000000E+00  0.00000000E+00
  0.00000000E+00  0.00000000E+00  0.00000000E+00
  0.00000000E+00  0.00000000E+00  0.00000000E+00
  0.00000000E+00  0.00000000E+00  0.00000000E+00
  0.00000000E+00  0.00000000E+00  0.00000000E+00
  0.00000000E+00  0.00000000E+00  0.00000000E+00
  0.00000000E+00  0.00000000E+00  0.00000000E+00
  0.00000000E+00  0.00000000E+00  0.00000000E+00
  0.00000000E+00  0.00000000E+00  0.00000000E+00
  0.00000000E+00  0.00000000E+00  0.00000000E+00
  0.00000000E+00  0.00000000E+00  0.00000000E+00
  0.00000000E+00  0.00000000E+00  0.00000000E+00
  0.00000000E+00  0.00000000E+00  0.00000000E+00
  0.00000000E+00  0.00000000E+00  0.00000000E+00
  0.00000000E+00  0.00000000E+00  0.00000000E+00
  0.00000000E+00  0.00000000E+00  0.00000000E+00
  0.00000000E+00  0.00000000E+00  0.00000000E+00
  0.00000000E+00  0.00000000E+00  0.00000000E+00
  0.00000000E+00  0.00000000E+00  0.00000000E+00
  0.00000000E+00  0.00000000E+00  0.00000000E+00
  0.00000000E+00  0.00000000E+00  0.00000000E+00
  0.00000000E+00  0.00000000E+00  0.00000000E+00
  0.00000000E+00  0.00000000E+00  0.00000000E+00
  0.00000000E+00  0.00000000E+00  0.00000000E+00
  0.00000000E+00  0.00000000E+00  0.00000000E+00
  0.00000000E+00  0.00000000E+00  0.00000000E+00
  0.00000000E+00  0.00000000E+00  0.00000000E+00
  0.00000000E+00  0.00000000E+00  0.00000000E+00
  0.00000000E+00  0.00000000E+00  0.00000000E+00
  0.00000000E+00  0.00000000E+00  0.00000000E+00
  0.00000000E+00  0.00000000E+00  0.00000000E+00
  0.00000000E+00  0.00000000E+00  0.00000000E+00
  0.00000000E+00  0.00000000E+00  0.00000000E+00
  0.00000000E+00  0.00000000E+00  0.00000000E+00
  0.00000000E+00  0.00000000E+00  0.00000000E+00
  0.00000000E+00  0.00000000E+00  0.00000000E+00
  0.00000000E+00  0.00000000E+00  0.00000000E+00
  0.00000000E+00  0.00000000E+00  0.00000000E+00
  0.00000000E+00  0.00000000E+00  0.00000000E+00
  0.00000000E+00  0.00000000E+00  0.00000000E+00
  0.00000000E+00  0.00000000E+00  0.00000000E+00
  0.00000000E+00  0.00000000E+00  0.00000000E+00
  0.00000000E+00  0.00000000E+00  0.00000000E+00
  0.00000000E+00  0.00000000E+00  0.00000000E+00
  0.00000000E+00  0.00000000E+00  0.00000000E+00
  0.00000000E+00  0.00000000E+00  0.00000000E+00
  0.00000000E+00  0.00000000E+00  0.00000000E+00
  0.00000000E+00  0.00000000E+00  0.00000000E+00
  0.00000000E+00  0.00000000E+00  0.00000000E+00
  0.00000000E+00  0.00000000E+00  0.00000000E+00
  0.00000000E+00  0.00000000E+00  0.00000000E+00
  0.00000000E+00  0.00000000E+00  0.00000000E+00
  0.00000000E+00  0.00000000E+00  0.00000000E+00
  0.00000000E+00  0.00000000E+00  0.00000000E+00
  0.00000000E+00  0.00000000E+00  0.00000000E+00
  0.00000000E+00  0.00000000E+00  0.00000000E+00
  0.00000000E+00  0.00000000E+00  0.00000000E+00
