G   55   33    1    0.005     # Parameters to Generate KPOINTS (Don't Edit This Line)
     908
Reciprocal lattice
    0.000000000000    0.000000000000    0.000000000000       1
    0.018181818182    0.000000000000    0.000000000000       2
    0.036363636364    0.000000000000    0.000000000000       2
    0.054545454545    0.000000000000    0.000000000000       2
    0.072727272727    0.000000000000    0.000000000000       2
    0.090909090909    0.000000000000    0.000000000000       2
    0.109090909091    0.000000000000    0.000000000000       2
    0.127272727273    0.000000000000    0.000000000000       2
    0.145454545455    0.000000000000    0.000000000000       2
    0.163636363636    0.000000000000    0.000000000000       2
    0.181818181818    0.000000000000    0.000000000000       2
    0.200000000000    0.000000000000    0.000000000000       2
    0.218181818182    0.000000000000    0.000000000000       2
    0.236363636364    0.000000000000    0.000000000000       2
    0.254545454545    0.000000000000    0.000000000000       2
    0.272727272727    0.000000000000    0.000000000000       2
    0.290909090909    0.000000000000    0.000000000000       2
    0.309090909091    0.000000000000    0.000000000000       2
    0.327272727273    0.000000000000    0.000000000000       2
    0.345454545455    0.000000000000    0.000000000000       2
    0.363636363636    0.000000000000    0.000000000000       2
    0.381818181818    0.000000000000    0.000000000000       2
    0.400000000000    0.000000000000    0.000000000000       2
    0.418181818182    0.000000000000    0.000000000000       2
    0.436363636364    0.000000000000    0.000000000000       2
    0.454545454545    0.000000000000    0.000000000000       2
    0.472727272727    0.000000000000    0.000000000000       2
    0.490909090909    0.000000000000    0.000000000000       2
    0.000000000000    0.030303030303    0.000000000000       2
    0.018181818182    0.030303030303    0.000000000000       2
    0.036363636364    0.030303030303    0.000000000000       2
    0.054545454545    0.030303030303    0.000000000000       2
    0.072727272727    0.030303030303    0.000000000000       2
    0.090909090909    0.030303030303    0.000000000000       2
    0.109090909091    0.030303030303    0.000000000000       2
    0.127272727273    0.030303030303    0.000000000000       2
    0.145454545455    0.030303030303    0.000000000000       2
    0.163636363636    0.030303030303    0.000000000000       2
    0.181818181818    0.030303030303    0.000000000000       2
    0.200000000000    0.030303030303    0.000000000000       2
    0.218181818182    0.030303030303    0.000000000000       2
    0.236363636364    0.030303030303    0.000000000000       2
    0.254545454545    0.030303030303    0.000000000000       2
    0.272727272727    0.030303030303    0.000000000000       2
    0.290909090909    0.030303030303    0.000000000000       2
    0.309090909091    0.030303030303    0.000000000000       2
    0.327272727273    0.030303030303    0.000000000000       2
    0.345454545455    0.030303030303    0.000000000000       2
    0.363636363636    0.030303030303    0.000000000000       2
    0.381818181818    0.030303030303    0.000000000000       2
    0.400000000000    0.030303030303    0.000000000000       2
    0.418181818182    0.030303030303    0.000000000000       2
    0.436363636364    0.030303030303    0.000000000000       2
    0.454545454545    0.030303030303    0.000000000000       2
    0.472727272727    0.030303030303    0.000000000000       2
    0.490909090909    0.030303030303    0.000000000000       2
   -0.490909090909    0.030303030303    0.000000000000       2
   -0.472727272727    0.030303030303    0.000000000000       2
   -0.454545454545    0.030303030303    0.000000000000       2
   -0.436363636364    0.030303030303    0.000000000000       2
   -0.418181818182    0.030303030303    0.000000000000       2
   -0.400000000000    0.030303030303    0.000000000000       2
   -0.381818181818    0.030303030303    0.000000000000       2
   -0.363636363636    0.030303030303    0.000000000000       2
   -0.345454545455    0.030303030303    0.000000000000       2
   -0.327272727273    0.030303030303    0.000000000000       2
   -0.309090909091    0.030303030303    0.000000000000       2
   -0.290909090909    0.030303030303    0.000000000000       2
   -0.272727272727    0.030303030303    0.000000000000       2
   -0.254545454545    0.030303030303    0.000000000000       2
   -0.236363636364    0.030303030303    0.000000000000       2
   -0.218181818182    0.030303030303    0.000000000000       2
   -0.200000000000    0.030303030303    0.000000000000       2
   -0.181818181818    0.030303030303    0.000000000000       2
   -0.163636363636    0.030303030303    0.000000000000       2
   -0.145454545455    0.030303030303    0.000000000000       2
   -0.127272727273    0.030303030303    0.000000000000       2
   -0.109090909091    0.030303030303    0.000000000000       2
   -0.090909090909    0.030303030303    0.000000000000       2
   -0.072727272727    0.030303030303    0.000000000000       2
   -0.054545454545    0.030303030303    0.000000000000       2
   -0.036363636364    0.030303030303    0.000000000000       2
   -0.018181818182    0.030303030303    0.000000000000       2
    0.000000000000    0.060606060606    0.000000000000       2
    0.018181818182    0.060606060606    0.000000000000       2
    0.036363636364    0.060606060606    0.000000000000       2
    0.054545454545    0.060606060606    0.000000000000       2
    0.072727272727    0.060606060606    0.000000000000       2
    0.090909090909    0.060606060606    0.000000000000       2
    0.109090909091    0.060606060606    0.000000000000       2
    0.127272727273    0.060606060606    0.000000000000       2
    0.145454545455    0.060606060606    0.000000000000       2
    0.163636363636    0.060606060606    0.000000000000       2
    0.181818181818    0.060606060606    0.000000000000       2
    0.200000000000    0.060606060606    0.000000000000       2
    0.218181818182    0.060606060606    0.000000000000       2
    0.236363636364    0.060606060606    0.000000000000       2
    0.254545454545    0.060606060606    0.000000000000       2
    0.272727272727    0.060606060606    0.000000000000       2
    0.290909090909    0.060606060606    0.000000000000       2
    0.309090909091    0.060606060606    0.000000000000       2
    0.327272727273    0.060606060606    0.000000000000       2
    0.345454545455    0.060606060606    0.000000000000       2
    0.363636363636    0.060606060606    0.000000000000       2
    0.381818181818    0.060606060606    0.000000000000       2
    0.400000000000    0.060606060606    0.000000000000       2
    0.418181818182    0.060606060606    0.000000000000       2
    0.436363636364    0.060606060606    0.000000000000       2
    0.454545454545    0.060606060606    0.000000000000       2
    0.472727272727    0.060606060606    0.000000000000       2
    0.490909090909    0.060606060606    0.000000000000       2
   -0.490909090909    0.060606060606    0.000000000000       2
   -0.472727272727    0.060606060606    0.000000000000       2
   -0.454545454545    0.060606060606    0.000000000000       2
   -0.436363636364    0.060606060606    0.000000000000       2
   -0.418181818182    0.060606060606    0.000000000000       2
   -0.400000000000    0.060606060606    0.000000000000       2
   -0.381818181818    0.060606060606    0.000000000000       2
   -0.363636363636    0.060606060606    0.000000000000       2
   -0.345454545455    0.060606060606    0.000000000000       2
   -0.327272727273    0.060606060606    0.000000000000       2
   -0.309090909091    0.060606060606    0.000000000000       2
   -0.290909090909    0.060606060606    0.000000000000       2
   -0.272727272727    0.060606060606    0.000000000000       2
   -0.254545454545    0.060606060606    0.000000000000       2
   -0.236363636364    0.060606060606    0.000000000000       2
   -0.218181818182    0.060606060606    0.000000000000       2
   -0.200000000000    0.060606060606    0.000000000000       2
   -0.181818181818    0.060606060606    0.000000000000       2
   -0.163636363636    0.060606060606    0.000000000000       2
   -0.145454545455    0.060606060606    0.000000000000       2
   -0.127272727273    0.060606060606    0.000000000000       2
   -0.109090909091    0.060606060606    0.000000000000       2
   -0.090909090909    0.060606060606    0.000000000000       2
   -0.072727272727    0.060606060606    0.000000000000       2
   -0.054545454545    0.060606060606    0.000000000000       2
   -0.036363636364    0.060606060606    0.000000000000       2
   -0.018181818182    0.060606060606    0.000000000000       2
    0.000000000000    0.090909090909    0.000000000000       2
    0.018181818182    0.090909090909    0.000000000000       2
    0.036363636364    0.090909090909    0.000000000000       2
    0.054545454545    0.090909090909    0.000000000000       2
    0.072727272727    0.090909090909    0.000000000000       2
    0.090909090909    0.090909090909    0.000000000000       2
    0.109090909091    0.090909090909    0.000000000000       2
    0.127272727273    0.090909090909    0.000000000000       2
    0.145454545455    0.090909090909    0.000000000000       2
    0.163636363636    0.090909090909    0.000000000000       2
    0.181818181818    0.090909090909    0.000000000000       2
    0.200000000000    0.090909090909    0.000000000000       2
    0.218181818182    0.090909090909    0.000000000000       2
    0.236363636364    0.090909090909    0.000000000000       2
    0.254545454545    0.090909090909    0.000000000000       2
    0.272727272727    0.090909090909    0.000000000000       2
    0.290909090909    0.090909090909    0.000000000000       2
    0.309090909091    0.090909090909    0.000000000000       2
    0.327272727273    0.090909090909    0.000000000000       2
    0.345454545455    0.090909090909    0.000000000000       2
    0.363636363636    0.090909090909    0.000000000000       2
    0.381818181818    0.090909090909    0.000000000000       2
    0.400000000000    0.090909090909    0.000000000000       2
    0.418181818182    0.090909090909    0.000000000000       2
    0.436363636364    0.090909090909    0.000000000000       2
    0.454545454545    0.090909090909    0.000000000000       2
    0.472727272727    0.090909090909    0.000000000000       2
    0.490909090909    0.090909090909    0.000000000000       2
   -0.490909090909    0.090909090909    0.000000000000       2
   -0.472727272727    0.090909090909    0.000000000000       2
   -0.454545454545    0.090909090909    0.000000000000       2
   -0.436363636364    0.090909090909    0.000000000000       2
   -0.418181818182    0.090909090909    0.000000000000       2
   -0.400000000000    0.090909090909    0.000000000000       2
   -0.381818181818    0.090909090909    0.000000000000       2
   -0.363636363636    0.090909090909    0.000000000000       2
   -0.345454545455    0.090909090909    0.000000000000       2
   -0.327272727273    0.090909090909    0.000000000000       2
   -0.309090909091    0.090909090909    0.000000000000       2
   -0.290909090909    0.090909090909    0.000000000000       2
   -0.272727272727    0.090909090909    0.000000000000       2
   -0.254545454545    0.090909090909    0.000000000000       2
   -0.236363636364    0.090909090909    0.000000000000       2
   -0.218181818182    0.090909090909    0.000000000000       2
   -0.200000000000    0.090909090909    0.000000000000       2
   -0.181818181818    0.090909090909    0.000000000000       2
   -0.163636363636    0.090909090909    0.000000000000       2
   -0.145454545455    0.090909090909    0.000000000000       2
   -0.127272727273    0.090909090909    0.000000000000       2
   -0.109090909091    0.090909090909    0.000000000000       2
   -0.090909090909    0.090909090909    0.000000000000       2
   -0.072727272727    0.090909090909    0.000000000000       2
   -0.054545454545    0.090909090909    0.000000000000       2
   -0.036363636364    0.090909090909    0.000000000000       2
   -0.018181818182    0.090909090909    0.000000000000       2
    0.000000000000    0.121212121212    0.000000000000       2
    0.018181818182    0.121212121212    0.000000000000       2
    0.036363636364    0.121212121212    0.000000000000       2
    0.054545454545    0.121212121212    0.000000000000       2
    0.072727272727    0.121212121212    0.000000000000       2
    0.090909090909    0.121212121212    0.000000000000       2
    0.109090909091    0.121212121212    0.000000000000       2
    0.127272727273    0.121212121212    0.000000000000       2
    0.145454545455    0.121212121212    0.000000000000       2
    0.163636363636    0.121212121212    0.000000000000       2
    0.181818181818    0.121212121212    0.000000000000       2
    0.200000000000    0.121212121212    0.000000000000       2
    0.218181818182    0.121212121212    0.000000000000       2
    0.236363636364    0.121212121212    0.000000000000       2
    0.254545454545    0.121212121212    0.000000000000       2
    0.272727272727    0.121212121212    0.000000000000       2
    0.290909090909    0.121212121212    0.000000000000       2
    0.309090909091    0.121212121212    0.000000000000       2
    0.327272727273    0.121212121212    0.000000000000       2
    0.345454545455    0.121212121212    0.000000000000       2
    0.363636363636    0.121212121212    0.000000000000       2
    0.381818181818    0.121212121212    0.000000000000       2
    0.400000000000    0.121212121212    0.000000000000       2
    0.418181818182    0.121212121212    0.000000000000       2
    0.436363636364    0.121212121212    0.000000000000       2
    0.454545454545    0.121212121212    0.000000000000       2
    0.472727272727    0.121212121212    0.000000000000       2
    0.490909090909    0.121212121212    0.000000000000       2
   -0.490909090909    0.121212121212    0.000000000000       2
   -0.472727272727    0.121212121212    0.000000000000       2
   -0.454545454545    0.121212121212    0.000000000000       2
   -0.436363636364    0.121212121212    0.000000000000       2
   -0.418181818182    0.121212121212    0.000000000000       2
   -0.400000000000    0.121212121212    0.000000000000       2
   -0.381818181818    0.121212121212    0.000000000000       2
   -0.363636363636    0.121212121212    0.000000000000       2
   -0.345454545455    0.121212121212    0.000000000000       2
   -0.327272727273    0.121212121212    0.000000000000       2
   -0.309090909091    0.121212121212    0.000000000000       2
   -0.290909090909    0.121212121212    0.000000000000       2
   -0.272727272727    0.121212121212    0.000000000000       2
   -0.254545454545    0.121212121212    0.000000000000       2
   -0.236363636364    0.121212121212    0.000000000000       2
   -0.218181818182    0.121212121212    0.000000000000       2
   -0.200000000000    0.121212121212    0.000000000000       2
   -0.181818181818    0.121212121212    0.000000000000       2
   -0.163636363636    0.121212121212    0.000000000000       2
   -0.145454545455    0.121212121212    0.000000000000       2
   -0.127272727273    0.121212121212    0.000000000000       2
   -0.109090909091    0.121212121212    0.000000000000       2
   -0.090909090909    0.121212121212    0.000000000000       2
   -0.072727272727    0.121212121212    0.000000000000       2
   -0.054545454545    0.121212121212    0.000000000000       2
   -0.036363636364    0.121212121212    0.000000000000       2
   -0.018181818182    0.121212121212    0.000000000000       2
    0.000000000000    0.151515151515    0.000000000000       2
    0.018181818182    0.151515151515    0.000000000000       2
    0.036363636364    0.151515151515    0.000000000000       2
    0.054545454545    0.151515151515    0.000000000000       2
    0.072727272727    0.151515151515    0.000000000000       2
    0.090909090909    0.151515151515    0.000000000000       2
    0.109090909091    0.151515151515    0.000000000000       2
    0.127272727273    0.151515151515    0.000000000000       2
    0.145454545455    0.151515151515    0.000000000000       2
    0.163636363636    0.151515151515    0.000000000000       2
    0.181818181818    0.151515151515    0.000000000000       2
    0.200000000000    0.151515151515    0.000000000000       2
    0.218181818182    0.151515151515    0.000000000000       2
    0.236363636364    0.151515151515    0.000000000000       2
    0.254545454545    0.151515151515    0.000000000000       2
    0.272727272727    0.151515151515    0.000000000000       2
    0.290909090909    0.151515151515    0.000000000000       2
    0.309090909091    0.151515151515    0.000000000000       2
    0.327272727273    0.151515151515    0.000000000000       2
    0.345454545455    0.151515151515    0.000000000000       2
    0.363636363636    0.151515151515    0.000000000000       2
    0.381818181818    0.151515151515    0.000000000000       2
    0.400000000000    0.151515151515    0.000000000000       2
    0.418181818182    0.151515151515    0.000000000000       2
    0.436363636364    0.151515151515    0.000000000000       2
    0.454545454545    0.151515151515    0.000000000000       2
    0.472727272727    0.151515151515    0.000000000000       2
    0.490909090909    0.151515151515    0.000000000000       2
   -0.490909090909    0.151515151515    0.000000000000       2
   -0.472727272727    0.151515151515    0.000000000000       2
   -0.454545454545    0.151515151515    0.000000000000       2
   -0.436363636364    0.151515151515    0.000000000000       2
   -0.418181818182    0.151515151515    0.000000000000       2
   -0.400000000000    0.151515151515    0.000000000000       2
   -0.381818181818    0.151515151515    0.000000000000       2
   -0.363636363636    0.151515151515    0.000000000000       2
   -0.345454545455    0.151515151515    0.000000000000       2
   -0.327272727273    0.151515151515    0.000000000000       2
   -0.309090909091    0.151515151515    0.000000000000       2
   -0.290909090909    0.151515151515    0.000000000000       2
   -0.272727272727    0.151515151515    0.000000000000       2
   -0.254545454545    0.151515151515    0.000000000000       2
   -0.236363636364    0.151515151515    0.000000000000       2
   -0.218181818182    0.151515151515    0.000000000000       2
   -0.200000000000    0.151515151515    0.000000000000       2
   -0.181818181818    0.151515151515    0.000000000000       2
   -0.163636363636    0.151515151515    0.000000000000       2
   -0.145454545455    0.151515151515    0.000000000000       2
   -0.127272727273    0.151515151515    0.000000000000       2
   -0.109090909091    0.151515151515    0.000000000000       2
   -0.090909090909    0.151515151515    0.000000000000       2
   -0.072727272727    0.151515151515    0.000000000000       2
   -0.054545454545    0.151515151515    0.000000000000       2
   -0.036363636364    0.151515151515    0.000000000000       2
   -0.018181818182    0.151515151515    0.000000000000       2
    0.000000000000    0.181818181818    0.000000000000       2
    0.018181818182    0.181818181818    0.000000000000       2
    0.036363636364    0.181818181818    0.000000000000       2
    0.054545454545    0.181818181818    0.000000000000       2
    0.072727272727    0.181818181818    0.000000000000       2
    0.090909090909    0.181818181818    0.000000000000       2
    0.109090909091    0.181818181818    0.000000000000       2
    0.127272727273    0.181818181818    0.000000000000       2
    0.145454545455    0.181818181818    0.000000000000       2
    0.163636363636    0.181818181818    0.000000000000       2
    0.181818181818    0.181818181818    0.000000000000       2
    0.200000000000    0.181818181818    0.000000000000       2
    0.218181818182    0.181818181818    0.000000000000       2
    0.236363636364    0.181818181818    0.000000000000       2
    0.254545454545    0.181818181818    0.000000000000       2
    0.272727272727    0.181818181818    0.000000000000       2
    0.290909090909    0.181818181818    0.000000000000       2
    0.309090909091    0.181818181818    0.000000000000       2
    0.327272727273    0.181818181818    0.000000000000       2
    0.345454545455    0.181818181818    0.000000000000       2
    0.363636363636    0.181818181818    0.000000000000       2
    0.381818181818    0.181818181818    0.000000000000       2
    0.400000000000    0.181818181818    0.000000000000       2
    0.418181818182    0.181818181818    0.000000000000       2
    0.436363636364    0.181818181818    0.000000000000       2
    0.454545454545    0.181818181818    0.000000000000       2
    0.472727272727    0.181818181818    0.000000000000       2
    0.490909090909    0.181818181818    0.000000000000       2
   -0.490909090909    0.181818181818    0.000000000000       2
   -0.472727272727    0.181818181818    0.000000000000       2
   -0.454545454545    0.181818181818    0.000000000000       2
   -0.436363636364    0.181818181818    0.000000000000       2
   -0.418181818182    0.181818181818    0.000000000000       2
   -0.400000000000    0.181818181818    0.000000000000       2
   -0.381818181818    0.181818181818    0.000000000000       2
   -0.363636363636    0.181818181818    0.000000000000       2
   -0.345454545455    0.181818181818    0.000000000000       2
   -0.327272727273    0.181818181818    0.000000000000       2
   -0.309090909091    0.181818181818    0.000000000000       2
   -0.290909090909    0.181818181818    0.000000000000       2
   -0.272727272727    0.181818181818    0.000000000000       2
   -0.254545454545    0.181818181818    0.000000000000       2
   -0.236363636364    0.181818181818    0.000000000000       2
   -0.218181818182    0.181818181818    0.000000000000       2
   -0.200000000000    0.181818181818    0.000000000000       2
   -0.181818181818    0.181818181818    0.000000000000       2
   -0.163636363636    0.181818181818    0.000000000000       2
   -0.145454545455    0.181818181818    0.000000000000       2
   -0.127272727273    0.181818181818    0.000000000000       2
   -0.109090909091    0.181818181818    0.000000000000       2
   -0.090909090909    0.181818181818    0.000000000000       2
   -0.072727272727    0.181818181818    0.000000000000       2
   -0.054545454545    0.181818181818    0.000000000000       2
   -0.036363636364    0.181818181818    0.000000000000       2
   -0.018181818182    0.181818181818    0.000000000000       2
    0.000000000000    0.212121212121    0.000000000000       2
    0.018181818182    0.212121212121    0.000000000000       2
    0.036363636364    0.212121212121    0.000000000000       2
    0.054545454545    0.212121212121    0.000000000000       2
    0.072727272727    0.212121212121    0.000000000000       2
    0.090909090909    0.212121212121    0.000000000000       2
    0.109090909091    0.212121212121    0.000000000000       2
    0.127272727273    0.212121212121    0.000000000000       2
    0.145454545455    0.212121212121    0.000000000000       2
    0.163636363636    0.212121212121    0.000000000000       2
    0.181818181818    0.212121212121    0.000000000000       2
    0.200000000000    0.212121212121    0.000000000000       2
    0.218181818182    0.212121212121    0.000000000000       2
    0.236363636364    0.212121212121    0.000000000000       2
    0.254545454545    0.212121212121    0.000000000000       2
    0.272727272727    0.212121212121    0.000000000000       2
    0.290909090909    0.212121212121    0.000000000000       2
    0.309090909091    0.212121212121    0.000000000000       2
    0.327272727273    0.212121212121    0.000000000000       2
    0.345454545455    0.212121212121    0.000000000000       2
    0.363636363636    0.212121212121    0.000000000000       2
    0.381818181818    0.212121212121    0.000000000000       2
    0.400000000000    0.212121212121    0.000000000000       2
    0.418181818182    0.212121212121    0.000000000000       2
    0.436363636364    0.212121212121    0.000000000000       2
    0.454545454545    0.212121212121    0.000000000000       2
    0.472727272727    0.212121212121    0.000000000000       2
    0.490909090909    0.212121212121    0.000000000000       2
   -0.490909090909    0.212121212121    0.000000000000       2
   -0.472727272727    0.212121212121    0.000000000000       2
   -0.454545454545    0.212121212121    0.000000000000       2
   -0.436363636364    0.212121212121    0.000000000000       2
   -0.418181818182    0.212121212121    0.000000000000       2
   -0.400000000000    0.212121212121    0.000000000000       2
   -0.381818181818    0.212121212121    0.000000000000       2
   -0.363636363636    0.212121212121    0.000000000000       2
   -0.345454545455    0.212121212121    0.000000000000       2
   -0.327272727273    0.212121212121    0.000000000000       2
   -0.309090909091    0.212121212121    0.000000000000       2
   -0.290909090909    0.212121212121    0.000000000000       2
   -0.272727272727    0.212121212121    0.000000000000       2
   -0.254545454545    0.212121212121    0.000000000000       2
   -0.236363636364    0.212121212121    0.000000000000       2
   -0.218181818182    0.212121212121    0.000000000000       2
   -0.200000000000    0.212121212121    0.000000000000       2
   -0.181818181818    0.212121212121    0.000000000000       2
   -0.163636363636    0.212121212121    0.000000000000       2
   -0.145454545455    0.212121212121    0.000000000000       2
   -0.127272727273    0.212121212121    0.000000000000       2
   -0.109090909091    0.212121212121    0.000000000000       2
   -0.090909090909    0.212121212121    0.000000000000       2
   -0.072727272727    0.212121212121    0.000000000000       2
   -0.054545454545    0.212121212121    0.000000000000       2
   -0.036363636364    0.212121212121    0.000000000000       2
   -0.018181818182    0.212121212121    0.000000000000       2
    0.000000000000    0.242424242424    0.000000000000       2
    0.018181818182    0.242424242424    0.000000000000       2
    0.036363636364    0.242424242424    0.000000000000       2
    0.054545454545    0.242424242424    0.000000000000       2
    0.072727272727    0.242424242424    0.000000000000       2
    0.090909090909    0.242424242424    0.000000000000       2
    0.109090909091    0.242424242424    0.000000000000       2
    0.127272727273    0.242424242424    0.000000000000       2
    0.145454545455    0.242424242424    0.000000000000       2
    0.163636363636    0.242424242424    0.000000000000       2
    0.181818181818    0.242424242424    0.000000000000       2
    0.200000000000    0.242424242424    0.000000000000       2
    0.218181818182    0.242424242424    0.000000000000       2
    0.236363636364    0.242424242424    0.000000000000       2
    0.254545454545    0.242424242424    0.000000000000       2
    0.272727272727    0.242424242424    0.000000000000       2
    0.290909090909    0.242424242424    0.000000000000       2
    0.309090909091    0.242424242424    0.000000000000       2
    0.327272727273    0.242424242424    0.000000000000       2
    0.345454545455    0.242424242424    0.000000000000       2
    0.363636363636    0.242424242424    0.000000000000       2
    0.381818181818    0.242424242424    0.000000000000       2
    0.400000000000    0.242424242424    0.000000000000       2
    0.418181818182    0.242424242424    0.000000000000       2
    0.436363636364    0.242424242424    0.000000000000       2
    0.454545454545    0.242424242424    0.000000000000       2
    0.472727272727    0.242424242424    0.000000000000       2
    0.490909090909    0.242424242424    0.000000000000       2
   -0.490909090909    0.242424242424    0.000000000000       2
   -0.472727272727    0.242424242424    0.000000000000       2
   -0.454545454545    0.242424242424    0.000000000000       2
   -0.436363636364    0.242424242424    0.000000000000       2
   -0.418181818182    0.242424242424    0.000000000000       2
   -0.400000000000    0.242424242424    0.000000000000       2
   -0.381818181818    0.242424242424    0.000000000000       2
   -0.363636363636    0.242424242424    0.000000000000       2
   -0.345454545455    0.242424242424    0.000000000000       2
   -0.327272727273    0.242424242424    0.000000000000       2
   -0.309090909091    0.242424242424    0.000000000000       2
   -0.290909090909    0.242424242424    0.000000000000       2
   -0.272727272727    0.242424242424    0.000000000000       2
   -0.254545454545    0.242424242424    0.000000000000       2
   -0.236363636364    0.242424242424    0.000000000000       2
   -0.218181818182    0.242424242424    0.000000000000       2
   -0.200000000000    0.242424242424    0.000000000000       2
   -0.181818181818    0.242424242424    0.000000000000       2
   -0.163636363636    0.242424242424    0.000000000000       2
   -0.145454545455    0.242424242424    0.000000000000       2
   -0.127272727273    0.242424242424    0.000000000000       2
   -0.109090909091    0.242424242424    0.000000000000       2
   -0.090909090909    0.242424242424    0.000000000000       2
   -0.072727272727    0.242424242424    0.000000000000       2
   -0.054545454545    0.242424242424    0.000000000000       2
   -0.036363636364    0.242424242424    0.000000000000       2
   -0.018181818182    0.242424242424    0.000000000000       2
    0.000000000000    0.272727272727    0.000000000000       2
    0.018181818182    0.272727272727    0.000000000000       2
    0.036363636364    0.272727272727    0.000000000000       2
    0.054545454545    0.272727272727    0.000000000000       2
    0.072727272727    0.272727272727    0.000000000000       2
    0.090909090909    0.272727272727    0.000000000000       2