CONTCAR\(14)                            
   1.00000000000000     
    14.9264001846000003    0.0000000000000000    0.0000000000000000
     0.0000000000000000   14.9455995559999995    0.0000000000000000
     0.0000000000000000    0.0000000000000000   18.3726005553999983
   Li   H    Pt
    50    50    25
Direct
  0.1000000000000014  0.0000000000000000  0.4206183679003420
  0.1000000000000014 -0.0000000000000000  0.5793816580996531
  0.2999999999999972  0.0000000000000000  0.4206183679003420
  0.2999999999999972  0.0000000000000000  0.5793816580996531
  0.5000000000000000 -0.0000000000000000  0.4206183679003420
  0.5000000000000000 -0.0000000000000000  0.5793816580996531
  0.6999999680000002  0.0000000000000000  0.4206183679003420
  0.6999999680000002  0.0000000000000000  0.5793816580996531
  0.8999999680000030  0.0000000000000000  0.4206183679003420
  0.8999999680000030  0.0000000000000000  0.5793816580996531
  0.1000000000000014  0.2000000060000033  0.4206183679003420
  0.1000000000000014  0.2000000060000033  0.5793816580996531
  0.2999999999999972  0.2000000060000033  0.4206183679003420
  0.2999999999999972  0.2000000060000033  0.5793816580996531
  0.5000000000000000  0.2000000060000033  0.4206183679003420
  0.5000000000000000  0.2000000060000033  0.5793816580996531
  0.6999999680000002  0.2000000060000033  0.4206183679003420
  0.6999999680000002  0.2000000060000033  0.5793816580996531
  0.8999999680000030  0.2000000060000033  0.4206183679003420
  0.8999999680000030  0.2000000060000033  0.5793816580996531
  0.1000000000000014  0.4000000130000032  0.4206183679003420
  0.1000000000000014  0.4000000130000032  0.5793816580996531
  0.2999999999999972  0.4000000130000032  0.4206183679003420
  0.2999999999999972  0.4000000130000032  0.5793816580996531
  0.5000000000000000  0.4000000130000032  0.4206183679003420
  0.5000000000000000  0.4000000130000032  0.5793816580996531
  0.6999999680000002  0.4000000130000032  0.4206183679003420
  0.6999999680000002  0.4000000130000032  0.5793816580996531
  0.8999999680000030  0.4000000130000032  0.4206183679003420
  0.8999999680000030  0.4000000130000032  0.5793816580996531
  0.1000000000000014  0.6000000510000021  0.4206183679003420
  0.1000000000000014  0.6000000510000021  0.5793816580996531
  0.2999999999999972  0.6000000510000021  0.4206183679003420
  0.2999999999999972  0.6000000510000021  0.5793816580996531
  0.5000000000000000  0.6000000510000021  0.4206183679003420
  0.5000000000000000  0.6000000510000021  0.5793816580996531
  0.6999999680000002  0.6000000510000021  0.4206183679003420
  0.6999999680000002  0.6000000510000021  0.5793816580996531
  0.8999999680000030  0.6000000510000021  0.4206183679003420
  0.8999999680000030  0.6000000510000021  0.5793816580996531
  0.1000000000000014  0.8000000259999993  0.4206183679003420
  0.1000000000000014  0.8000000259999993  0.5793816580996531
  0.2999999999999972  0.8000000259999993  0.4206183679003420
  0.2999999999999972  0.8000000259999993  0.5793816580996531
  0.5000000000000000  0.8000000259999993  0.4206183679003420
  0.5000000000000000  0.8000000259999993  0.5793816580996531
  0.6999999680000002  0.8000000259999993  0.4206183679003420
  0.6999999680000002  0.8000000259999993  0.5793816580996531
  0.8999999680000030  0.8000000259999993  0.4206183679003420
  0.8999999680000030  0.8000000259999993  0.5793816580996531
 -0.0000000000000000  0.1000000029999981  0.5913896973684568
 -0.0000000000000000  0.1000000029999981  0.4086103546315403
  0.2000000000000028  0.1000000029999981  0.5913896973684568
  0.2000000000000028  0.1000000029999981  0.4086103546315403
  0.3999999999999986  0.1000000029999981  0.5913896973684568
  0.3999999999999986  0.1000000029999981  0.4086103546315403
  0.6000000000000014  0.1000000029999981  0.5913896973684568
  0.6000000000000014  0.1000000029999981  0.4086103546315403
  0.7999999999999972  0.1000000029999981  0.5913896973684568
  0.7999999999999972  0.1000000029999981  0.4086103546315403
 -0.0000000000000000  0.3000000259999993  0.5913896973684568
 -0.0000000000000000  0.3000000259999993  0.4086103546315403
  0.2000000000000028  0.3000000259999993  0.5913896973684568
  0.2000000000000028  0.3000000259999993  0.4086103546315403
  0.3999999999999986  0.3000000259999993  0.5913896973684568
  0.3999999999999986  0.3000000259999993  0.4086103546315403
  0.6000000000000014  0.3000000259999993  0.5913896973684568
  0.6000000000000014  0.3000000259999993  0.4086103546315403
  0.7999999999999972  0.3000000259999993  0.5913896973684568
  0.7999999999999972  0.3000000259999993  0.4086103546315403
 -0.0000000000000000  0.5000000000000000  0.5913896973684568
 -0.0000000000000000  0.5000000000000000  0.4086103546315403
  0.2000000000000028  0.5000000000000000  0.5913896973684568
  0.2000000000000028  0.5000000000000000  0.4086103546315403
  0.3999999999999986  0.5000000000000000  0.5913896973684568
  0.3999999999999986  0.5000000000000000  0.4086103546315403
  0.6000000000000014  0.5000000000000000  0.5913896973684568
  0.6000000000000014  0.5000000000000000  0.4086103546315403
  0.7999999999999972  0.5000000000000000  0.5913896973684568
  0.7999999999999972  0.5000000000000000  0.4086103546315403
 -0.0000000000000000  0.7000000060000033  0.5913896973684568
 -0.0000000000000000  0.7000000060000033  0.4086103546315403
  0.2000000000000028  0.7000000060000033  0.5913896973684568
  0.2000000000000028  0.7000000060000033  0.4086103546315403
  0.3999999999999986  0.7000000060000033  0.5913896973684568
  0.3999999999999986  0.7000000060000033  0.4086103546315403
  0.6000000000000014  0.7000000060000033  0.5913896973684568
  0.6000000000000014  0.7000000060000033  0.4086103546315403
  0.7999999999999972  0.7000000060000033  0.5913896973684568
  0.7999999999999972  0.7000000060000033  0.4086103546315403
  0.0000000000000000  0.8999999810000006  0.5913896973684568
 -0.0000000000000000  0.8999999810000006  0.4086103546315403
  0.2000000000000028  0.8999999810000006  0.5913896973684568
  0.2000000000000028  0.8999999810000006  0.4086103546315403
  0.3999999999999986  0.8999999810000006  0.5913896973684568
  0.3999999999999986  0.8999999810000006  0.4086103546315403
  0.6000000000000014  0.8999999810000006  0.5913896973684568
  0.6000000000000014  0.8999999810000006  0.4086103546315403
  0.7999999999999972  0.8999999810000006  0.5913896973684568
  0.7999999999999972  0.8999999810000006  0.4086103546315403
  0.0000000000000000  0.1000000029999981  0.5000000000000000
  0.2000000000000028  0.1000000029999981  0.5000000000000000
  0.3999999999999986  0.1000000029999981  0.5000000000000000
  0.6000000000000014  0.1000000029999981  0.5000000000000000
  0.7999999999999972  0.1000000029999981  0.5000000000000000
 -0.0000000000000000  0.3000000259999993  0.5000000000000000
  0.2000000000000028  0.3000000259999993  0.5000000000000000
  0.3999999999999986  0.3000000259999993  0.5000000000000000
  0.6000000000000014  0.3000000259999993  0.5000000000000000
  0.7999999999999972  0.3000000259999993  0.5000000000000000
 -0.0000000000000000  0.5000000000000000  0.5000000000000000
  0.2000000000000028  0.5000000000000000  0.5000000000000000
  0.3999999999999986  0.5000000000000000  0.5000000000000000
  0.6000000000000014  0.5000000000000000  0.5000000000000000
  0.7999999999999972  0.5000000000000000  0.5000000000000000
  0.0000000000000000  0.7000000060000033  0.5000000000000000
  0.2000000000000028  0.7000000060000033  0.5000000000000000
  0.3999999999999986  0.7000000060000033  0.5000000000000000
  0.6000000000000014  0.7000000060000033  0.5000000000000000
  0.7999999999999972  0.7000000060000033  0.5000000000000000
  0.0000000000000000  0.8999999810000006  0.5000000000000000
  0.2000000000000028  0.8999999810000006  0.5000000000000000
  0.3999999999999986  0.8999999810000006  0.5000000000000000
  0.6000000000000014  0.8999999810000006  0.5000000000000000
  0.7999999999999972  0.8999999810000006  0.5000000000000000
 
  0.00000000E+00  0.00000000E+00  0.00000000E+00
  0.00000000E+00  0.00000000E+00  0.00000000E+00
  0.00000000E+00  0.00000000E+00  0.00000000E+00
  0.00000000E+00  0.00000000E+00  0.00000000E+00
  0.00000000E+00  0.00000000E+00  0.00000000E+00
  0.00000000E+00  0.00000000E+00  0.00000000E+00
  0.00000000E+00  0.00000000E+00  0.00000000E+00
  0.00000000E+00  0.00000000E+00  0.00000000E+00
  0.00000000E+00  0.00000000E+00  0.00000000E+00
  0.00000000E+00  0.00000000E+00  0.00000000E+00
  0.00000000E+00  0.00000000E+00  0.00000000E+00
  0.00000000E+00  0.00000000E+00  0.00000000E+00
  0.00000000E+00  0.00000000E+00  0.00000000E+00
  0.00000000E+00  0.00000000E+00  0.00000000E+00
  0.00000000E+00  0.00000000E+00  0.00000000E+00
  0.00000000E+00  0.00000000E+00  0.00000000E+00
  0.00000000E+00  0.00000000E+00  0.00000000E+00
  0.00000000E+00  0.00000000E+00  0.00000000E+00
  0.00000000E+00  0.00000000E+00  0.00000000E+00
  0.00000000E+00  0.00000000E+00  0.00000000E+00
  0.00000000E+00  0.00000000E+00  0.00000000E+00
  0.00000000E+00  0.00000000E+00  0.00000000E+00
  0.00000000E+00  0.00000000E+00  0.00000000E+00
  0.00000000E+00  0.00000000E+00  0.00000000E+00
  0.00000000E+00  0.00000000E+00  0.00000000E+00
  0.00000000E+00  0.00000000E+00  0.00000000E+00
  0.00000000E+00  0.00000000E+00  0.00000000E+00
  0.00000000E+00  0.00000000E+00  0.00000000E+00
  0.00000000E+00  0.00000000E+00  0.00000000E+00
  0.00000000E+00  0.00000000E+00  0.00000000E+00
  0.00000000E+00  0.00000000E+00  0.00000000E+00
  0.00000000E+00  0.00000000E+00  0.00000000E+00
  0.00000000E+00  0.00000000E+00  0.00000000E+00
  0.00000000E+00  0.00000000E+00  0.00000000E+00
  0.00000000E+00  0.00000000E+00  0.00000000E+00
  0.00000000E+00  0.00000000E+00  0.00000000E+00
  0.00000000E+00  0.00000000E+00  0.00000000E+00
  0.00000000E+00  0.00000000E+00  0.00000000E+00
  0.00000000E+00  0.00000000E+00  0.00000000E+00
  0.00000000E+00  0.00000000E+00  0.00000000E+00
  0.00000000E+00  0.00000000E+00  0.00000000E+00
  0.00000000E+00  0.00000000E+00  0.00000000E+00
  0.00000000E+00  0.00000000E+00  0.00000000E+00
  0.00000000E+00  0.00000000E+00  0.00000000E+00
  0.00000000E+00  0.00000000E+00  0.00000000E+00
  0.00000000E+00  0.00000000E+00  0.00000000E+00
  0.00000000E+00  0.00000000E+00  0.00000000E+00
  0.00000000E+00  0.00000000E+00  0.00000000E+00
  0.00000000E+00  0.00000000E+00  0.00000000E+00
  0.00000000E+00  0.00000000E+00  0.00000000E+00
  0.00000000E+00  0.00000000E+00  0.00000000E+00
  0.00000000E+00  0.00000000E+00  0.00000000E+00
  0.00000000E+00  0.00000000E+00  0.00000000E+00
  0.00000000E+00  0.00000000E+00  0.00000000E+00
  0.00000000E+00  0.00000000E+00  0.00000000E+00
  0.00000000E+00  0.00000000E+00  0.00000000E+00
  0.00000000E+00  0.00000000E+00  0.00000000E+00
  0.00000000E+00  0.00000000E+00  0.00000000E+00
  0.00000000E+00  0.00000000E+00  0.00000000E+00
  0.00000000E+00  0.00000000E+00  0.00000000E+00
  0.00000000E+00  0.00000000E+00  0.00000000E+00
  0.00000000E+00  0.00000000E+00  0.00000000E+00
  0.00000000E+00  0.00000000E+00  0.00000000E+00
  0.00000000E+00  0.00000000E+00  0.00000000E+00
  0.00000000E+00  0.00000000E+00  0.00000000E+00
  0.00000000E+00  0.00000000E+00  0.00000000E+00
  0.00000000E+00  0.00000000E+00  0.00000000E+00
  0.00000000E+00  0.00000000E+00  0.00000000E+00
  0.00000000E+00  0.00000000E+00  0.00000000E+00
  0.00000000E+00  0.00000000E+00  0.00000000E+00
  0.00000000E+00  0.00000000E+00  0.00000000E+00
  0.00000000E+00  0.00000000E+00  0.00000000E+00
  0.00000000E+00  0.00000000E+00  0.00000000E+00
  0.00000000E+00  0.00000000E+00  0.00000000E+00
  0.00000000E+00  0.00000000E+00  0.00000000E+00
  0.00000000E+00  0.00000000E+00  0.00000000E+00
  0.00000000E+00  0.00000000E+00  0.00000000E+00
  0.00000000E+00  0.00000000E+00  0.00000000E+00
  0.00000000E+00  0.00000000E+00  0.00000000E+00
  0.00000000E+00  0.00000000E+00  0.00000000E+00
  0.00000000E+00  0.00000000E+00  0.00000000E+00
  0.00000000E+00  0.00000000E+00  0.00000000E+00
  0.00000000E+00  0.00000000E+00  0.00000000E+00
  0.00000000E+00  0.00000000E+00  0.00000000E+00
  0.00000000E+00  0.00000000E+00  0.00000000E+00
  0.00000000E+00  0.00000000E+00  0.00000000E+00
  0.00000000E+00  0.00000000E+00  0.00000000E+00
  0.00000000E+00  0.00000000E+00  0.00000000E+00
  0.00000000E+00  0.00000000E+00  0.00000000E+00
  0.00000000E+00  0.00000000E+00  0.00000000E+00
  0.00000000E+00  0.00000000E+00  0.00000000E+00
  0.00000000E+00  0.00000000E+00  0.00000000E+00
  0.00000000E+00  0.00000000E+00  0.00000000E+00
  0.00000000E+00  0.00000000E+00  0.00000000E+00
  0.00000000E+00  0.00000000E+00  0.00000000E+00
  0.00000000E+00  0.00000000E+00  0.00000000E+00
  0.00000000E+00  0.00000000E+00  0.00000000E+00
  0.00000000E+00  0.00000000E+00  0.00000000E+00
  0.00000000E+00  0.00000000E+00  0.00000000E+00
  0.00000000E+00  0.00000000E+00  0.00000000E+00
  0.00000000E+00  0.00000000E+00  0.00000000E+00
  0.00000000E+00  0.00000000E+00  0.00000000E+00
  0.00000000E+00  0.00000000E+00  0.00000000E+00
  0.00000000E+00  0.00000000E+00  0.00000000E+00
  0.00000000E+00  0.00000000E+00  0.00000000E+00
  0.00000000E+00  0.00000000E+00  0.00000000E+00
  0.00000000E+00  0.00000000E+00  0.00000000E+00
  0.00000000E+00  0.00000000E+00  0.00000000E+00
  0.00000000E+00  0.00000000E+00  0.00000000E+00
  0.00000000E+00  0.00000000E+00  0.00000000E+00
  0.00000000E+00  0.00000000E+00  0.00000000E+00
  0.00000000E+00  0.00000000E+00  0.00000000E+00
  0.00000000E+00  0.00000000E+00  0.00000000E+00
  0.00000000E+00  0.00000000E+00  0.00000000E+00
  0.00000000E+00  0.00000000E+00  0.00000000E+00
  0.00000000E+00  0.00000000E+00  0.00000000E+00
  0.00000000E+00  0.00000000E+00  0.00000000E+00
  0.00000000E+00  0.00000000E+00  0.00000000E+00
  0.00000000E+00  0.00000000E+00  0.00000000E+00
  0.00000000E+00  0.00000000E+00  0.00000000E+00
  0.00000000E+00  0.00000000E+00  0.00000000E+00
  0.00000000E+00  0.00000000E+00  0.00000000E+00
  0.00000000E+00  0.00000000E+00  0.00000000E+00
  0.00000000E+00  0.00000000E+00  0.00000000E+00
  0.00000000E+00  0.00000000E+00  0.00000000E+00
