CONTCAR\(6)                             
   1.00000000000000     
    13.8203001021999992    0.0000000000000000    0.0000000000000000
     1.7075399424000000   15.0073707208999991    0.0000000000000000
     0.0000000000000000    0.0000000000000000   18.4675998688000007
   Nb   Ir   Se   O    H 
    18     2    40     2     1
Direct
  0.0914983350256235  0.1800202282478116  0.5014171883949574
  0.0000492927215575  0.9757896352159658  0.4935574111719022
  0.4195578792765371  0.7998183888588155  0.4972864025785626
  0.3072566309645271  0.6202192693881567  0.5013845126660037
  0.2651119964283462  0.9804855232688324  0.4950921569053970
  0.1993661865622624  0.4227614923320059  0.5046228555495128
  0.1572030771836963  0.7978520252262423  0.4994166250601873
  0.0469651563011865  0.6189354701693379  0.5007823190988379
  0.4550358209853663  0.3795967621848784  0.4972297927808390
  0.5920684525843034  0.1804299348695953  0.5019321693805316
  0.5165591908931023  0.9778844818333542  0.4949787747620417
  0.8907782830326589  0.7998409416296025  0.4971326713860685
  0.7960150938167248  0.6210642378715285  0.4979406664046235
  0.7494526250335624  0.9819581660247328  0.4967007058558738
  0.6996728968425153  0.4237519507783408  0.5026159506633542
  0.6535952611515881  0.8024279642426775  0.4965470384870699
  0.5549940465882734  0.6196111965537403  0.4978781543669925
  0.9539963718115297  0.3798008686342624  0.4961889160202432
  0.3751304321772028  0.2086856036674807  0.4972775071136261
  0.8746309817087158  0.2073587742366922  0.4965947355975264
  0.4769110422820176  0.2639920695064085  0.5969518152262014
  0.0880990357008458  0.3320471815258840  0.4125383708568206
  0.3748592412859311  0.0695338572750648  0.5739775440746797
  0.4896087746548144  0.1263946571347837  0.4056272037452856
  0.2776712362389143  0.8640237523026237  0.5911906651012350
  0.2266090828300358  0.2644253897403719  0.5709022190160304
  0.3927067421014897  0.9298097008890399  0.4000998477147147
  0.3309316067403895  0.3354615403983841  0.4101348114914499
  0.1703026409122286  0.6703770923542764  0.5896904454558693
  0.1191935585549588  0.0535055598265813  0.5863898446258132
  0.2480332212060837  0.1381202711514754  0.4224424470148959
  0.2906096323401746  0.7380330258252096  0.4052889726835193
  0.0623905250191729  0.4699904388122835  0.5876614092846014
  0.0170787726374697  0.8612420936695765  0.5903928410785777
  0.1865382817471476  0.5411868985683973  0.4100186496136300
  0.1401727865828019  0.9322592128460279  0.4037489016125718
  0.4253546435544160  0.6713536464833393  0.5953619134470005
  0.0352588985453144  0.7381277070743506  0.4058660307499926
  0.3230610533063467  0.4714060837353624  0.5882908900834671
  0.4370981852815014  0.5325221810923543  0.4193874363319581
  0.9759826017195763  0.2635923994397011  0.5957575848097567
  0.5877442703778853  0.3309484389564355  0.4125895853282465
  0.8713732221476402  0.0689731726544181  0.5740144315739295
  0.9890596601179635  0.1261232164991225  0.4046573269431247
  0.7692340295821459  0.8649109736882862  0.5954882387414042
  0.7270560000553018  0.2658891579943950  0.5705318487978144
  0.8817857716208707  0.9296351330374881  0.3995666655607006
  0.8304446781080372  0.3342700986888217  0.4091831643746777
  0.6694337465723709  0.6728568257626903  0.5949343369978733
  0.6200445090859138  0.0566604317927648  0.5924287874043683
  0.7460055175355439  0.1379421240046101  0.4219200976447569
  0.7850760375253900  0.7366741212109632  0.3984062725412902
  0.5641164577357357  0.4718756700199990  0.5866220513355184
  0.5245490750228865  0.8637715597872087  0.5960031064309316
  0.6859195047550126  0.5406092427536611  0.4050621018635857
  0.6405119389759620  0.9297146115408907  0.3959433350639274
  0.9153744423575516  0.6703010112221615  0.5945261325880073
  0.5398471419159441  0.7358700845740243  0.3984033322063720
  0.8218571916485046  0.4729927857892123  0.5862443017051043
  0.9359186967795369  0.5332330111862184  0.4191352117769283
  0.1699760449357926  0.6828861145387595  0.7013761935933436
  0.1572368857718836  0.5986491686418152  0.7324406517313302
  0.2248055030412128  0.5713958187705013  0.7388766225345574
 
  0.00000000E+00  0.00000000E+00  0.00000000E+00
  0.00000000E+00  0.00000000E+00  0.00000000E+00
  0.00000000E+00  0.00000000E+00  0.00000000E+00
  0.00000000E+00  0.00000000E+00  0.00000000E+00
  0.00000000E+00  0.00000000E+00  0.00000000E+00
  0.00000000E+00  0.00000000E+00  0.00000000E+00
  0.00000000E+00  0.00000000E+00  0.00000000E+00
  0.00000000E+00  0.00000000E+00  0.00000000E+00
  0.00000000E+00  0.00000000E+00  0.00000000E+00
  0.00000000E+00  0.00000000E+00  0.00000000E+00
  0.00000000E+00  0.00000000E+00  0.00000000E+00
  0.00000000E+00  0.00000000E+00  0.00000000E+00
  0.00000000E+00  0.00000000E+00  0.00000000E+00
  0.00000000E+00  0.00000000E+00  0.00000000E+00
  0.00000000E+00  0.00000000E+00  0.00000000E+00
  0.00000000E+00  0.00000000E+00  0.00000000E+00
  0.00000000E+00  0.00000000E+00  0.00000000E+00
  0.00000000E+00  0.00000000E+00  0.00000000E+00
  0.00000000E+00  0.00000000E+00  0.00000000E+00
  0.00000000E+00  0.00000000E+00  0.00000000E+00
  0.00000000E+00  0.00000000E+00  0.00000000E+00
  0.00000000E+00  0.00000000E+00  0.00000000E+00
  0.00000000E+00  0.00000000E+00  0.00000000E+00
  0.00000000E+00  0.00000000E+00  0.00000000E+00
  0.00000000E+00  0.00000000E+00  0.00000000E+00
  0.00000000E+00  0.00000000E+00  0.00000000E+00
  0.00000000E+00  0.00000000E+00  0.00000000E+00
  0.00000000E+00  0.00000000E+00  0.00000000E+00
  0.00000000E+00  0.00000000E+00  0.00000000E+00
  0.00000000E+00  0.00000000E+00  0.00000000E+00
  0.00000000E+00  0.00000000E+00  0.00000000E+00
  0.00000000E+00  0.00000000E+00  0.00000000E+00
  0.00000000E+00  0.00000000E+00  0.00000000E+00
  0.00000000E+00  0.00000000E+00  0.00000000E+00
  0.00000000E+00  0.00000000E+00  0.00000000E+00
  0.00000000E+00  0.00000000E+00  0.00000000E+00
  0.00000000E+00  0.00000000E+00  0.00000000E+00
  0.00000000E+00  0.00000000E+00  0.00000000E+00
  0.00000000E+00  0.00000000E+00  0.00000000E+00
  0.00000000E+00  0.00000000E+00  0.00000000E+00
  0.00000000E+00  0.00000000E+00  0.00000000E+00
  0.00000000E+00  0.00000000E+00  0.00000000E+00
  0.00000000E+00  0.00000000E+00  0.00000000E+00
  0.00000000E+00  0.00000000E+00  0.00000000E+00
  0.00000000E+00  0.00000000E+00  0.00000000E+00
  0.00000000E+00  0.00000000E+00  0.00000000E+00
  0.00000000E+00  0.00000000E+00  0.00000000E+00
  0.00000000E+00  0.00000000E+00  0.00000000E+00
  0.00000000E+00  0.00000000E+00  0.00000000E+00
  0.00000000E+00  0.00000000E+00  0.00000000E+00
  0.00000000E+00  0.00000000E+00  0.00000000E+00
  0.00000000E+00  0.00000000E+00  0.00000000E+00
  0.00000000E+00  0.00000000E+00  0.00000000E+00
  0.00000000E+00  0.00000000E+00  0.00000000E+00
  0.00000000E+00  0.00000000E+00  0.00000000E+00
  0.00000000E+00  0.00000000E+00  0.00000000E+00
  0.00000000E+00  0.00000000E+00  0.00000000E+00
  0.00000000E+00  0.00000000E+00  0.00000000E+00
  0.00000000E+00  0.00000000E+00  0.00000000E+00
  0.00000000E+00  0.00000000E+00  0.00000000E+00
  0.00000000E+00  0.00000000E+00  0.00000000E+00
  0.00000000E+00  0.00000000E+00  0.00000000E+00
  0.00000000E+00  0.00000000E+00  0.00000000E+00
