CONTCAR\(6)                             
   1.00000000000000     
    10.2920999526999992    0.0000000000000000    0.0000000000000000
     1.7153529658000000    9.6351993213000000    0.0000000000000000
     0.0000000000000000    0.0000000000000000   19.1306991577000005
   Nb   Te   O    H 
     9    18     1     1
Selective dynamics
Direct
  0.9998097034406328  0.0008852136005828  0.5058962133239575   F   F   F
  0.1224787435232386  0.2832564869439693  0.5010687079989609   F   F   F
  0.2137502813837457  0.7163732715749589  0.5121421663222421   F   F   F
  0.3325758799559964  0.0024313246719174  0.5068082074348723   F   F   F
  0.4522080504427706  0.2871694177313131  0.5012863929635500   F   F   F
  0.5470447315016216  0.7169509692301759  0.5121196081437702   F   F   F
  0.6661505308991735  0.0042649329221405  0.5064948269414487   F   F   F
  0.7822825984387194  0.2846350127461932  0.5010759967582885   F   F   F
  0.8789180239957304  0.7277735688477875  0.5106649079844203   F   F   F
  0.1479045754683241  0.1116173425213560  0.6120679205073998   F   F   F
  0.1858700770290369  0.8894008810012579  0.4014083545724745   F   F   F
  0.2591655285459140  0.4522991201068507  0.5878084174907130   F   F   F
  0.0744519557802832  0.5506272562997694  0.4268804073897243   F   F   F
  0.0346500494112121  0.7945903964455496  0.6167280325203706   F   F   F
  0.2994580310812083  0.2097447042154954  0.3958546425651051   F   F   F
  0.4804917529075041  0.1136112466569088  0.6118380004808728   F   F   F
  0.5180402181913308  0.8901573101448861  0.4016608766379690   F   F   F
  0.5899201073574503  0.4529571875855112  0.5878538627879522   F   F   F
  0.4080472556844867  0.5507691459326622  0.4252369518829511   F   F   F
  0.3678727067366481  0.7921885260444910  0.6168601015544368   F   F   F
  0.6300635593903010  0.2117013557113339  0.3956075042673817   F   F   F
  0.8146630296307436  0.1131110612850037  0.6119158287261328   F   F   F
  0.8500108348642570  0.8964836996892984  0.3993451965733996   F   F   F
  0.9231971420961642  0.4631305620184136  0.5697919858440983   F   F   F
  0.7413212420082829  0.5513767235322149  0.4267646044801126   F   F   F
  0.7003245484814755  0.7955314420779800  0.6164865811823361   F   F   F
  0.9649474310456014  0.2102672196413025  0.3966678881950330   F   F   F
  0.9227754420922025  0.4641294880292151  0.6755531088577769   T   T   T
  0.9444559626159474  0.3684553797914702  0.6917185915388621   T   T   T
 
  0.00000000E+00  0.00000000E+00  0.00000000E+00
  0.00000000E+00  0.00000000E+00  0.00000000E+00
  0.00000000E+00  0.00000000E+00  0.00000000E+00
  0.00000000E+00  0.00000000E+00  0.00000000E+00
  0.00000000E+00  0.00000000E+00  0.00000000E+00
  0.00000000E+00  0.00000000E+00  0.00000000E+00
  0.00000000E+00  0.00000000E+00  0.00000000E+00
  0.00000000E+00  0.00000000E+00  0.00000000E+00
  0.00000000E+00  0.00000000E+00  0.00000000E+00
  0.00000000E+00  0.00000000E+00  0.00000000E+00
  0.00000000E+00  0.00000000E+00  0.00000000E+00
  0.00000000E+00  0.00000000E+00  0.00000000E+00
  0.00000000E+00  0.00000000E+00  0.00000000E+00
  0.00000000E+00  0.00000000E+00  0.00000000E+00
  0.00000000E+00  0.00000000E+00  0.00000000E+00
  0.00000000E+00  0.00000000E+00  0.00000000E+00
  0.00000000E+00  0.00000000E+00  0.00000000E+00
  0.00000000E+00  0.00000000E+00  0.00000000E+00
  0.00000000E+00  0.00000000E+00  0.00000000E+00
  0.00000000E+00  0.00000000E+00  0.00000000E+00
  0.00000000E+00  0.00000000E+00  0.00000000E+00
  0.00000000E+00  0.00000000E+00  0.00000000E+00
  0.00000000E+00  0.00000000E+00  0.00000000E+00
  0.00000000E+00  0.00000000E+00  0.00000000E+00
  0.00000000E+00  0.00000000E+00  0.00000000E+00
  0.00000000E+00  0.00000000E+00  0.00000000E+00
  0.00000000E+00  0.00000000E+00  0.00000000E+00
  0.00000000E+00  0.00000000E+00  0.00000000E+00
  0.00000000E+00  0.00000000E+00  0.00000000E+00
