CONTCAR\(5)                             
   1.00000000000000     
    10.0733995438000008    0.0000000000000000    0.0000000000000000
     0.0000000000000000    9.7955999374000005    0.0000000000000000
     0.0000000000000000    0.0000000000000000   18.6921005248999990
   Ta   Se
    12    18
Direct
  0.0833299999999966  0.5522674380367986  0.5002273974158853
  0.2500000000000000  0.3033351608690574  0.4996858539872976
  0.0833299999999966  0.8649596090940204  0.5504543201384532
  0.2500000000000000  0.9906355003757596  0.4496723074088766
  0.4166699880000024  0.5522674380367986  0.5002273974158853
  0.5833299649999972  0.3033351608690574  0.4996858539872976
  0.4166699880000024  0.8649596090940204  0.5504543201384532
  0.5833299649999972  0.9906355003757596  0.4496723074088766
  0.7500000240000020  0.5522674380367986  0.5002273974158853
  0.9166699880000024  0.3033351608690574  0.4996858539872976
  0.7500000240000020  0.8649596090940204  0.5504543201384532
  0.9166699880000024  0.9906355003757596  0.4496723074088766
  0.0833299999999966  0.3683779084135089  0.5995681331804833
  0.2500000000000000  0.4871516043764298  0.4003020905694034
  0.0833299999999966  0.1794268118698169  0.4051389250663781
  0.2500000000000000  0.6760665468441861  0.5948282337315762
  0.2500000000000000  0.0586236257441965  0.5843399599664474
  0.0833299999999966  0.7969858393762205  0.4157926775352043
  0.4166699880000024  0.3683779084135089  0.5995681331804833
  0.5833299649999972  0.4871516043764298  0.4003020905694034
  0.4166699880000024  0.1794268118698169  0.4051389250663781
  0.5833299649999972  0.6760665468441861  0.5948282337315762
  0.5833299649999972  0.0586236257441965  0.5843399599664474
  0.4166699880000024  0.7969858393762205  0.4157926775352043
  0.7500000240000020  0.3683779084135089  0.5995681331804833
  0.9166699880000024  0.4871516043764298  0.4003020905694034
  0.7500000240000020  0.1794268118698169  0.4051389250663781
  0.9166699880000024  0.6760665468441861  0.5948282337315762
  0.9166699880000024  0.0586236257441965  0.5843399599664474
  0.7500000240000020  0.7969858393762205  0.4157926775352043
 
  0.00000000E+00  0.00000000E+00  0.00000000E+00
  0.00000000E+00  0.00000000E+00  0.00000000E+00
  0.00000000E+00  0.00000000E+00  0.00000000E+00
  0.00000000E+00  0.00000000E+00  0.00000000E+00
  0.00000000E+00  0.00000000E+00  0.00000000E+00
  0.00000000E+00  0.00000000E+00  0.00000000E+00
  0.00000000E+00  0.00000000E+00  0.00000000E+00
  0.00000000E+00  0.00000000E+00  0.00000000E+00
  0.00000000E+00  0.00000000E+00  0.00000000E+00
  0.00000000E+00  0.00000000E+00  0.00000000E+00
  0.00000000E+00  0.00000000E+00  0.00000000E+00
  0.00000000E+00  0.00000000E+00  0.00000000E+00
  0.00000000E+00  0.00000000E+00  0.00000000E+00
  0.00000000E+00  0.00000000E+00  0.00000000E+00
  0.00000000E+00  0.00000000E+00  0.00000000E+00
  0.00000000E+00  0.00000000E+00  0.00000000E+00
  0.00000000E+00  0.00000000E+00  0.00000000E+00
  0.00000000E+00  0.00000000E+00  0.00000000E+00
  0.00000000E+00  0.00000000E+00  0.00000000E+00
  0.00000000E+00  0.00000000E+00  0.00000000E+00
  0.00000000E+00  0.00000000E+00  0.00000000E+00
  0.00000000E+00  0.00000000E+00  0.00000000E+00
  0.00000000E+00  0.00000000E+00  0.00000000E+00
  0.00000000E+00  0.00000000E+00  0.00000000E+00
  0.00000000E+00  0.00000000E+00  0.00000000E+00
  0.00000000E+00  0.00000000E+00  0.00000000E+00
  0.00000000E+00  0.00000000E+00  0.00000000E+00
  0.00000000E+00  0.00000000E+00  0.00000000E+00
  0.00000000E+00  0.00000000E+00  0.00000000E+00
  0.00000000E+00  0.00000000E+00  0.00000000E+00
