CONTCAR                                 
   1.00000000000000     
    10.7180004120000003    0.0000000000000000    0.0000000000000000
     0.0000000000000000   11.1470003127999995    0.0000000000000000
     0.0000000000000000    0.0000000000000000   18.2015991210999992
   Os   Cl   O 
     9    18     9
Direct
  0.0000000000000000  0.0000000000000000  0.5000000000000000
  0.3333300039999969  0.0000000000000000  0.5000000000000000
  0.6666700179999978  0.0000000000000000  0.5000000000000000
  0.0000000000000000  0.3333299969999999  0.5000000000000000
  0.3333300039999969  0.3333299969999999  0.5000000000000000
  0.6666700179999978  0.3333299969999999  0.5000000000000000
  0.0000000000000000  0.6666700030000001  0.5000000000000000
  0.3333300039999969  0.6666700030000001  0.5000000000000000
  0.6666700179999978  0.6666700030000001  0.5000000000000000
  0.1666699960000031  0.3333299969999999  0.5879600290000013
  0.1666699960000031  0.0000100000000032  0.4120300160000028
  0.5000000000000000  0.3333299969999999  0.5879600290000013
  0.5000000000000000  0.0000100000000032  0.4120300160000028
  0.8333299820000022  0.3333299969999999  0.5879600290000013
  0.8333299820000022  0.0000100000000032  0.4120300160000028
  0.1666699960000031  0.6666599930000032  0.5879600290000013
  0.1666699960000031  0.3333399850000021  0.4120300160000028
  0.5000000000000000  0.6666599930000032  0.5879600290000013
  0.5000000000000000  0.3333399850000021  0.4120300160000028
  0.8333299820000022  0.6666599930000032  0.5879600290000013
  0.8333299820000022  0.3333399850000021  0.4120300160000028
  0.1666699960000031  0.9999899900000031  0.5879600290000013
  0.1666699960000031  0.6666700030000001  0.4120300160000028
  0.5000000000000000  0.9999899900000031  0.5879600290000013
  0.5000000000000000  0.6666700030000001  0.4120300160000028
  0.8333299820000022  0.9999899900000031  0.5879600290000013
  0.8333299820000022  0.6666700030000001  0.4120300160000028
  0.0000000000000000  0.1666699929999993  0.5000000000000000
  0.3333300039999969  0.1666699929999993  0.5000000000000000
  0.6666700179999978  0.1666699929999993  0.5000000000000000
  0.0000000000000000  0.5000000000000000  0.5000000000000000
  0.3333300039999969  0.5000000000000000  0.5000000000000000
  0.6666700179999978  0.5000000000000000  0.5000000000000000
  0.0000000000000000  0.8333299539999999  0.5000000000000000
  0.3333300039999969  0.8333299539999999  0.5000000000000000
  0.6666700179999978  0.8333299539999999  0.5000000000000000
 
  0.00000000E+00  0.00000000E+00  0.00000000E+00
  0.00000000E+00  0.00000000E+00  0.00000000E+00
  0.00000000E+00  0.00000000E+00  0.00000000E+00
  0.00000000E+00  0.00000000E+00  0.00000000E+00
  0.00000000E+00  0.00000000E+00  0.00000000E+00
  0.00000000E+00  0.00000000E+00  0.00000000E+00
  0.00000000E+00  0.00000000E+00  0.00000000E+00
  0.00000000E+00  0.00000000E+00  0.00000000E+00
  0.00000000E+00  0.00000000E+00  0.00000000E+00
  0.00000000E+00  0.00000000E+00  0.00000000E+00
  0.00000000E+00  0.00000000E+00  0.00000000E+00
  0.00000000E+00  0.00000000E+00  0.00000000E+00
  0.00000000E+00  0.00000000E+00  0.00000000E+00
  0.00000000E+00  0.00000000E+00  0.00000000E+00
  0.00000000E+00  0.00000000E+00  0.00000000E+00
  0.00000000E+00  0.00000000E+00  0.00000000E+00
  0.00000000E+00  0.00000000E+00  0.00000000E+00
  0.00000000E+00  0.00000000E+00  0.00000000E+00
  0.00000000E+00  0.00000000E+00  0.00000000E+00
  0.00000000E+00  0.00000000E+00  0.00000000E+00
  0.00000000E+00  0.00000000E+00  0.00000000E+00
  0.00000000E+00  0.00000000E+00  0.00000000E+00
  0.00000000E+00  0.00000000E+00  0.00000000E+00
  0.00000000E+00  0.00000000E+00  0.00000000E+00
  0.00000000E+00  0.00000000E+00  0.00000000E+00
  0.00000000E+00  0.00000000E+00  0.00000000E+00
  0.00000000E+00  0.00000000E+00  0.00000000E+00
  0.00000000E+00  0.00000000E+00  0.00000000E+00
  0.00000000E+00  0.00000000E+00  0.00000000E+00
  0.00000000E+00  0.00000000E+00  0.00000000E+00
  0.00000000E+00  0.00000000E+00  0.00000000E+00
  0.00000000E+00  0.00000000E+00  0.00000000E+00
  0.00000000E+00  0.00000000E+00  0.00000000E+00
  0.00000000E+00  0.00000000E+00  0.00000000E+00
  0.00000000E+00  0.00000000E+00  0.00000000E+00
  0.00000000E+00  0.00000000E+00  0.00000000E+00
