CONTCAR\(3)                             
   1.00000000000000     
    11.3336000443000007    0.0000000000000000    0.0000000000000000
     0.0000000000000000   11.3336000443000007    0.0000000000000000
     0.0000000000000000    0.0000000000000000   27.5830993651999989
   Sr   Co   Cl   O 
    36    18    18    55
Direct
  0.1644173224996550 -0.0000000000000000  0.4507911379733311
  0.0001297209841782  0.1667058523715651  0.5498670516699257
  0.1668120612179370 -0.0000000000000000  0.3170160258013185
  0.9993780358348556  0.1659750886310562  0.6827249562356970
  0.5021066449207634 -0.0000000000000000  0.4507115191296615
  0.3334237226921540  0.1669123478739891  0.5499486006535966
  0.4997134800909360 -0.0000000000000000  0.3172132709222775
  0.3334138129779208  0.1667372224729525  0.6835266603545164
  0.8334505632854992 -0.0000000000000000  0.4509554080878879
  0.6664684290290668  0.1666860877707711  0.5498150236449112
  0.8333995299114770 -0.0000000000000000  0.3167998422941128
  0.6672377171879703  0.1659880927110516  0.6828439113835226
  0.1633165962017122  0.3302274250782555  0.4510798575834250
  0.0002594089878755  0.5000000000000000  0.5500533925606784
  0.1668519432328529  0.3338314322572070  0.3167599899251857
  0.0000398198438946  0.5000000000000000  0.6833434091215462
  0.5032623258155010  0.3300857785129404  0.4509969671887918
  0.3334008907360828  0.5000000000000000  0.5510170967285272
  0.4997561160871699  0.3336267779928169  0.3168249598038097
  0.3334319969893569  0.5000000000000000  0.6871978343217880
  0.8333412498013379  0.3311757373195435  0.4508557946948544
  0.6663174416163322  0.5000000000000000  0.5499824584889831
  0.8334042177297242  0.3336586678563402  0.3169242088404614
  0.6665557623437952  0.5000000000000000  0.6834301586446722
  0.1633165962017122  0.6697725959217425  0.4510798575834250
  0.0001297209841782  0.8332941266284363  0.5498670516699257
  0.1668519432328529  0.6661685887427911  0.3167599899251857
  0.9993780358348556  0.8340248903689457  0.6827249562356970
  0.5032623258155010  0.6699142424870576  0.4509969671887918
  0.3334237226921540  0.8330876311260127  0.5499486006535966
  0.4997561160871699  0.6663732430071811  0.3168249598038097
  0.3334138129779208  0.8332627565270493  0.6835266603545164
  0.8333412498013379  0.6688242836804549  0.4508557946948544
  0.6664684290290668  0.8333138912292304  0.5498150236449112
  0.8334042177297242  0.6663413531436579  0.3169242088404614
  0.6672377171879703  0.8340118862889504  0.6828439113835226
 -0.0003522765172072  0.1666095385648220  0.3876702545031303
  0.1670851381971365 -0.0000000000000000  0.6122765276220333
  0.3328224364765155  0.1677167007980651  0.3892998772713557
  0.4997588563156349 -0.0000000000000000  0.6123759051079725
  0.6672236425032658  0.1665060274784019  0.3877096011365740
  0.8330759663079021 -0.0000000000000000  0.6120654150247803
  0.0004161728949578  0.5000000000000000  0.3894350687048809
  0.1672952363588596  0.3337625848654013  0.6129688417400562
  0.3334104223067055  0.5000000000000000  0.3924687349774978
  0.4995239200502402  0.3337320664876994  0.6128999710964721
  0.6661783737148705  0.5000000000000000  0.3893470568897553
  0.8332017222115383  0.3334150237054881  0.6122665126490954
 -0.0003522765172072  0.8333904404351795  0.3876702545031303
  0.1672952363588596  0.6662374361345965  0.6129688417400562
  0.3328224364765155  0.8322832782019367  0.3892998772713557
  0.4995239200502402  0.6662679545122986  0.6128999710964721
  0.6672236425032658  0.8334939515215999  0.3877096011365740
  0.8332017222115383  0.6665849972945102  0.6122665126490954
  0.0001112454793232  0.1667873100400036  0.2689428121021142
  0.1663216613148940 -0.0000000000000000  0.7306330582114926
  0.3332860910492260  0.1667010004497808  0.2688844717854303
  0.5003242283719095 -0.0000000000000000  0.7307550965787540
  0.6666044951341591  0.1667453562958549  0.2690500833514775
  0.8333503681594904 -0.0000000000000000  0.7309443486910001
  0.0000123419906755  0.5000000000000000  0.2686573084608606
  0.1621258374106786  0.3288829766989605  0.7296414305136952
  0.3334064101202627  0.5000000000000000  0.2678865638974048
  0.5045651077190239  0.3288135004075515  0.7297761881574342
  0.6665695090914452  0.5000000000000000  0.2687342719688873
  0.8333704282358229  0.3330126731236595  0.7305993588409510
  0.0001112454793232  0.8332126689599983  0.2689428121021142
  0.1621258374106786  0.6711170443010380  0.7296414305136952
  0.3332860910492260  0.8332989785502211  0.2688844717854303
  0.5045651077190239  0.6711865205924465  0.7297761881574342
  0.6666044951341591  0.8332546227041469  0.2690500833514775
  0.8333704282358229  0.6669873478763382  0.7305993588409510
  0.1675614106995451 -0.0000000000000000  0.5399207879232647
 -0.0004218028317768  0.1664639742594726  0.4606525999638461
  0.1670144009505277  0.1666008054220828  0.6213918448856879
  0.1653352698130632  0.1667222901413596  0.3793938465004427
 -0.0002537379752457 -0.0000000000000000  0.3782711828845706
  0.0000075764007628 -0.0000000000000000  0.6210851642930258
  0.4993654801777774 -0.0000000000000000  0.5398721478123968
  0.3329413894348190  0.1672404031032673  0.4598894729748682
  0.4998720707457024  0.1666441570260919  0.6213981698608529
  0.5011406488792404  0.1666166785808006  0.3795169988612474
  0.3330128627336999 -0.0000000000000000  0.3760766657592676
  0.3333644108106573 -0.0000000000000000  0.6217798757339287
  0.8330576229879952 -0.0000000000000000  0.5401025808391314
  0.6673857277263548  0.1664923648612438  0.4606214668842049
  0.8331183471961245  0.1666354192528425  0.6211936775622541
  0.8334167117983166  0.1666604241940004  0.3781613943422391
  0.6672528582903761 -0.0000000000000000  0.3783279871146195
  0.6665916261104835 -0.0000000000000000  0.6212312373423279
  0.1675747533994174  0.3338233218898989  0.5400191206514342
  0.0001275094162663  0.5000000000000000  0.4600392341886518
  0.1667737802218640  0.5000000000000000  0.6218512393188276
  0.1666267222395185  0.5000000000000000  0.3766120327198231
 -0.0003245817675012  0.3322781551123816  0.3794401534612294
  0.9999392035495838  0.3332395368837360  0.6212808580878644
  0.4993092199618738  0.3337837452983130  0.5399461795473686
  0.3331658806801018  0.5000000000000000  0.4596903722724128
  0.5001304423255465  0.5000000000000000  0.6218110549577778
  0.5001006785624971  0.5000000000000000  0.3766151726731260
  0.3331767419082705  0.3334517862477464  0.3765061190427988
  0.3333882560330639  0.3331277682185771  0.6219408886010478
  0.8330690562108006  0.3337250117464169  0.5399620755666359
  0.6666740330368945  0.5000000000000000  0.4599479473192667
  0.8330919695843463  0.5000000000000000  0.6216442960012363
  0.8333037996506942  0.5000000000000000  0.3758325542938957
  0.6671461162475734  0.3322525171531414  0.3794313342068510
  0.6667265446759475  0.3332459102830137  0.6213855881338274
  0.1675747533994174  0.6661766991100996  0.5400191206514342
 -0.0004218028317768  0.8335360047405292  0.4606525999638461
  0.1670144009505277  0.8333991735779187  0.6213918448856879
  0.1653352698130632  0.8332776888586423  0.3793938465004427
 -0.0003245817675012  0.6677218658876166  0.3794401534612294
  0.9999392035495838  0.6667604841162622  0.6212808580878644
  0.4993092199618738  0.6662162757016852  0.5399461795473686
  0.3329413894348190  0.8327595758967345  0.4598894729748682
  0.4998720707457024  0.8333558219739101  0.6213981698608529
  0.5011406488792404  0.8333833004192012  0.3795169988612474
  0.3331767419082705  0.6665482347522519  0.3765061190427988
  0.3333882560330639  0.6668722527814208  0.6219408886010478
  0.8330690562108006  0.6662750092535811  0.5399620755666359
  0.6673857277263548  0.8335076141387582  0.4606214668842049
  0.8331183471961245  0.8333645597471593  0.6211936775622541
  0.8334167117983166  0.8333395548060015  0.3781613943422391
  0.6671461162475734  0.6677475038468567  0.3794313342068510
  0.6667265446759475  0.6667541107169846  0.6213855881338274
  0.3340210025821416  0.5000000000000000  0.7784501708199887
 
  0.00000000E+00  0.00000000E+00  0.00000000E+00
  0.00000000E+00  0.00000000E+00  0.00000000E+00
  0.00000000E+00  0.00000000E+00  0.00000000E+00
  0.00000000E+00  0.00000000E+00  0.00000000E+00
  0.00000000E+00  0.00000000E+00  0.00000000E+00
  0.00000000E+00  0.00000000E+00  0.00000000E+00
  0.00000000E+00  0.00000000E+00  0.00000000E+00
  0.00000000E+00  0.00000000E+00  0.00000000E+00
  0.00000000E+00  0.00000000E+00  0.00000000E+00
  0.00000000E+00  0.00000000E+00  0.00000000E+00
  0.00000000E+00  0.00000000E+00  0.00000000E+00
  0.00000000E+00  0.00000000E+00  0.00000000E+00
  0.00000000E+00  0.00000000E+00  0.00000000E+00
  0.00000000E+00  0.00000000E+00  0.00000000E+00
  0.00000000E+00  0.00000000E+00  0.00000000E+00
  0.00000000E+00  0.00000000E+00  0.00000000E+00
  0.00000000E+00  0.00000000E+00  0.00000000E+00
  0.00000000E+00  0.00000000E+00  0.00000000E+00
  0.00000000E+00  0.00000000E+00  0.00000000E+00
  0.00000000E+00  0.00000000E+00  0.00000000E+00
  0.00000000E+00  0.00000000E+00  0.00000000E+00
  0.00000000E+00  0.00000000E+00  0.00000000E+00
  0.00000000E+00  0.00000000E+00  0.00000000E+00
  0.00000000E+00  0.00000000E+00  0.00000000E+00
  0.00000000E+00  0.00000000E+00  0.00000000E+00
  0.00000000E+00  0.00000000E+00  0.00000000E+00
  0.00000000E+00  0.00000000E+00  0.00000000E+00
  0.00000000E+00  0.00000000E+00  0.00000000E+00
  0.00000000E+00  0.00000000E+00  0.00000000E+00
  0.00000000E+00  0.00000000E+00  0.00000000E+00
  0.00000000E+00  0.00000000E+00  0.00000000E+00
  0.00000000E+00  0.00000000E+00  0.00000000E+00
  0.00000000E+00  0.00000000E+00  0.00000000E+00
  0.00000000E+00  0.00000000E+00  0.00000000E+00
  0.00000000E+00  0.00000000E+00  0.00000000E+00
  0.00000000E+00  0.00000000E+00  0.00000000E+00
  0.00000000E+00  0.00000000E+00  0.00000000E+00
  0.00000000E+00  0.00000000E+00  0.00000000E+00
  0.00000000E+00  0.00000000E+00  0.00000000E+00
  0.00000000E+00  0.00000000E+00  0.00000000E+00
  0.00000000E+00  0.00000000E+00  0.00000000E+00
  0.00000000E+00  0.00000000E+00  0.00000000E+00
  0.00000000E+00  0.00000000E+00  0.00000000E+00
  0.00000000E+00  0.00000000E+00  0.00000000E+00
  0.00000000E+00  0.00000000E+00  0.00000000E+00
  0.00000000E+00  0.00000000E+00  0.00000000E+00
  0.00000000E+00  0.00000000E+00  0.00000000E+00
  0.00000000E+00  0.00000000E+00  0.00000000E+00
  0.00000000E+00  0.00000000E+00  0.00000000E+00
  0.00000000E+00  0.00000000E+00  0.00000000E+00
  0.00000000E+00  0.00000000E+00  0.00000000E+00
  0.00000000E+00  0.00000000E+00  0.00000000E+00
  0.00000000E+00  0.00000000E+00  0.00000000E+00
  0.00000000E+00  0.00000000E+00  0.00000000E+00
  0.00000000E+00  0.00000000E+00  0.00000000E+00
  0.00000000E+00  0.00000000E+00  0.00000000E+00
  0.00000000E+00  0.00000000E+00  0.00000000E+00
  0.00000000E+00  0.00000000E+00  0.00000000E+00
  0.00000000E+00  0.00000000E+00  0.00000000E+00
  0.00000000E+00  0.00000000E+00  0.00000000E+00
  0.00000000E+00  0.00000000E+00  0.00000000E+00
  0.00000000E+00  0.00000000E+00  0.00000000E+00
  0.00000000E+00  0.00000000E+00  0.00000000E+00
  0.00000000E+00  0.00000000E+00  0.00000000E+00
  0.00000000E+00  0.00000000E+00  0.00000000E+00
  0.00000000E+00  0.00000000E+00  0.00000000E+00
  0.00000000E+00  0.00000000E+00  0.00000000E+00
  0.00000000E+00  0.00000000E+00  0.00000000E+00
  0.00000000E+00  0.00000000E+00  0.00000000E+00
  0.00000000E+00  0.00000000E+00  0.00000000E+00
  0.00000000E+00  0.00000000E+00  0.00000000E+00
  0.00000000E+00  0.00000000E+00  0.00000000E+00
  0.00000000E+00  0.00000000E+00  0.00000000E+00
  0.00000000E+00  0.00000000E+00  0.00000000E+00
  0.00000000E+00  0.00000000E+00  0.00000000E+00
  0.00000000E+00  0.00000000E+00  0.00000000E+00
  0.00000000E+00  0.00000000E+00  0.00000000E+00
  0.00000000E+00  0.00000000E+00  0.00000000E+00
  0.00000000E+00  0.00000000E+00  0.00000000E+00
  0.00000000E+00  0.00000000E+00  0.00000000E+00
  0.00000000E+00  0.00000000E+00  0.00000000E+00
  0.00000000E+00  0.00000000E+00  0.00000000E+00
  0.00000000E+00  0.00000000E+00  0.00000000E+00
  0.00000000E+00  0.00000000E+00  0.00000000E+00
  0.00000000E+00  0.00000000E+00  0.00000000E+00
  0.00000000E+00  0.00000000E+00  0.00000000E+00
  0.00000000E+00  0.00000000E+00  0.00000000E+00
  0.00000000E+00  0.00000000E+00  0.00000000E+00
  0.00000000E+00  0.00000000E+00  0.00000000E+00
  0.00000000E+00  0.00000000E+00  0.00000000E+00
  0.00000000E+00  0.00000000E+00  0.00000000E+00
  0.00000000E+00  0.00000000E+00  0.00000000E+00
  0.00000000E+00  0.00000000E+00  0.00000000E+00
  0.00000000E+00  0.00000000E+00  0.00000000E+00
  0.00000000E+00  0.00000000E+00  0.00000000E+00
  0.00000000E+00  0.00000000E+00  0.00000000E+00
  0.00000000E+00  0.00000000E+00  0.00000000E+00
  0.00000000E+00  0.00000000E+00  0.00000000E+00
  0.00000000E+00  0.00000000E+00  0.00000000E+00
  0.00000000E+00  0.00000000E+00  0.00000000E+00
  0.00000000E+00  0.00000000E+00  0.00000000E+00
  0.00000000E+00  0.00000000E+00  0.00000000E+00
  0.00000000E+00  0.00000000E+00  0.00000000E+00
  0.00000000E+00  0.00000000E+00  0.00000000E+00
  0.00000000E+00  0.00000000E+00  0.00000000E+00
  0.00000000E+00  0.00000000E+00  0.00000000E+00
  0.00000000E+00  0.00000000E+00  0.00000000E+00
  0.00000000E+00  0.00000000E+00  0.00000000E+00
  0.00000000E+00  0.00000000E+00  0.00000000E+00
  0.00000000E+00  0.00000000E+00  0.00000000E+00
  0.00000000E+00  0.00000000E+00  0.00000000E+00
  0.00000000E+00  0.00000000E+00  0.00000000E+00
  0.00000000E+00  0.00000000E+00  0.00000000E+00
  0.00000000E+00  0.00000000E+00  0.00000000E+00
  0.00000000E+00  0.00000000E+00  0.00000000E+00
  0.00000000E+00  0.00000000E+00  0.00000000E+00
  0.00000000E+00  0.00000000E+00  0.00000000E+00
  0.00000000E+00  0.00000000E+00  0.00000000E+00
  0.00000000E+00  0.00000000E+00  0.00000000E+00
  0.00000000E+00  0.00000000E+00  0.00000000E+00
  0.00000000E+00  0.00000000E+00  0.00000000E+00
  0.00000000E+00  0.00000000E+00  0.00000000E+00
  0.00000000E+00  0.00000000E+00  0.00000000E+00
  0.00000000E+00  0.00000000E+00  0.00000000E+00
  0.00000000E+00  0.00000000E+00  0.00000000E+00
  0.00000000E+00  0.00000000E+00  0.00000000E+00
  0.00000000E+00  0.00000000E+00  0.00000000E+00
