 Ti2 Ge2 Te12                           
   1.00000000000000     
     3.9338641841602877    0.0000000000000000    0.0000000000000000
     0.0000000000000000   17.8363839911168931    0.0000000000000000
     0.0000000000000000    0.0000000000000000   19.5771448927919991
   Ti   Ge   Te
     2     2    12
Direct
  0.2583034740310209  0.4792296232466590  0.5106592290851588
  0.7580950729754038  0.9539037523130903  0.4893874174548772
  0.7589316567295590  0.8035207680240972  0.4786271307764933
  0.2591224686580977  0.6296462229391689  0.5213389951655308
  0.2576646583591455  0.9268819439897121  0.3830378904227393
  0.7578568319761423  0.2552893722999153  0.5682427972833685
  0.7574647419720989  0.0664597604382656  0.3845705534964448
  0.2579254398251135  0.8969163647988935  0.5857844566592258
  0.7581770677404480  0.5062428117387129  0.6169493714479992
  0.2580164073490440  0.3666616341365108  0.6154479323406531
  0.2578022017426376  0.1779397173839116  0.4317276249439125
  0.7585881280735582  0.7072662860721669  0.5901843995867065
  0.2584709265591223  0.7259512622019628  0.4097965147762129
  0.7579870725261135  0.3823030129698983  0.4530771864022436
  0.2578431643972603  0.0508327985827839  0.5469076468993747
  0.7586063363206484  0.5362386688642763  0.4142608532590591
 
  0.00000000E+00  0.00000000E+00  0.00000000E+00
  0.00000000E+00  0.00000000E+00  0.00000000E+00
  0.00000000E+00  0.00000000E+00  0.00000000E+00
  0.00000000E+00  0.00000000E+00  0.00000000E+00
  0.00000000E+00  0.00000000E+00  0.00000000E+00
  0.00000000E+00  0.00000000E+00  0.00000000E+00
  0.00000000E+00  0.00000000E+00  0.00000000E+00
  0.00000000E+00  0.00000000E+00  0.00000000E+00
  0.00000000E+00  0.00000000E+00  0.00000000E+00
  0.00000000E+00  0.00000000E+00  0.00000000E+00
  0.00000000E+00  0.00000000E+00  0.00000000E+00
  0.00000000E+00  0.00000000E+00  0.00000000E+00
  0.00000000E+00  0.00000000E+00  0.00000000E+00
  0.00000000E+00  0.00000000E+00  0.00000000E+00
  0.00000000E+00  0.00000000E+00  0.00000000E+00
  0.00000000E+00  0.00000000E+00  0.00000000E+00
