CONTCAR\(5)                             
   1.00000000000000     
    15.7967996596999996    0.0000000000000000    0.0000000000000000
    -7.8983998298999998   13.6804298037999992    0.0000000000000000
     0.0000000000000000    0.0000000000000000   18.1074008942000013
   Co   I    O 
    16    32     1
Direct
  0.0046033219618309  0.0045734941796596  0.4972437041876816
  0.2540686328221469  0.0080537445150028  0.4973507770126204
  0.4977378990315202  0.9984888609444482  0.5014205152785181
  0.7420068837312073  0.9910024028172089  0.5060905864652483
  0.9925082807405943  0.2467008676936544  0.4979678251418704
  0.2415274027534124  0.2410741009023596  0.4974295292117290
  0.4927439652215639  0.2441062304683683  0.5059621554523019
  0.7467844159767552  0.2486368417755429  0.5041467251708980
  0.0032264445022534  0.4993029283072730  0.4989562059458166
  0.2420003885805571  0.4986457876561161  0.4997298325270236
  0.4869546934000724  0.4933014856141256  0.5102450772871165
  0.7524305996811762  0.5013250051712106  0.5067177252292012
  0.0043449824203208  0.7526095394530188  0.4964888674322410
  0.2485046305947662  0.7503492116932335  0.4999746412894055
  0.5013026637103550  0.7530562219552763  0.5077327443353425
  0.7534905766267741  0.7508357648664585  0.5071261053631133
  0.0745743431040324  0.1684309348917310  0.4139848392641596
  0.1641100369570196  0.0806023850544051  0.5875661381501303
  0.3341062711158926  0.1682588848826825  0.4098453798095534
  0.4119871093664003  0.0805643505937610  0.5904314609157453
  0.5869734783145404  0.1705104719381438  0.4225184692507185
  0.6664858604887414  0.0861987368887753  0.5848561877620639
  0.8300738213327321  0.1703608487606800  0.4224318253366377
  0.9162831572258057  0.0872059351330918  0.5810365938677577
  0.0744794504080133  0.4070906733043316  0.4144890342605265
  0.1501221131757973  0.3257203788674516  0.5790137624266976
  0.3388200188192698  0.4201805627405406  0.4171641044125707
  0.4023588399544025  0.3278664206658206  0.5840745446468247
  0.5843411765917566  0.4257276172821278  0.4353330828051938
  0.6681414654396534  0.3266894746583233  0.5909073463235046
  0.8218060344075226  0.4098449630747538  0.4225930380792065
  0.9118535738991298  0.3278056269531859  0.5801593879579983
  0.0887091360684238  0.6702923901759874  0.4171940711980398
  0.1667804358374312  0.5903348252790863  0.5835070439618519
  0.3268455944818953  0.6693953549379472  0.4189257477223833
  0.4030262951776322  0.5734521499577383  0.5853319040647449
  0.5838123664377122  0.6592087118647427  0.4353548929087125
  0.7103831117441004  0.6044964117333080  0.5881442465878450
  0.8505592557382400  0.6747824393154644  0.4098043756629579
  0.9219249843596131  0.5889999840265290  0.5791557929530384
  0.0842978525501579  0.9163430781165403  0.4154894462709464
  0.1632795263631692  0.8274924401535273  0.5764459181525652
  0.3316429851643790  0.9121973386785527  0.4185179623829356
  0.4066316785472779  0.8281415373724599  0.5846483808270975
  0.5818805214157834  0.9132584426272601  0.4167664824974082
  0.6640447272605385  0.8310770147643467  0.5982024415969107
  0.8253099795827481  0.9091387804714799  0.4197250366953824
  0.9232376570153207  0.8338090758570331  0.5802978496289484
  0.5672411898995833  0.5326587719652025  0.5920101572888754
 
  0.00000000E+00  0.00000000E+00  0.00000000E+00
  0.00000000E+00  0.00000000E+00  0.00000000E+00
  0.00000000E+00  0.00000000E+00  0.00000000E+00
  0.00000000E+00  0.00000000E+00  0.00000000E+00
  0.00000000E+00  0.00000000E+00  0.00000000E+00
  0.00000000E+00  0.00000000E+00  0.00000000E+00
  0.00000000E+00  0.00000000E+00  0.00000000E+00
  0.00000000E+00  0.00000000E+00  0.00000000E+00
  0.00000000E+00  0.00000000E+00  0.00000000E+00
  0.00000000E+00  0.00000000E+00  0.00000000E+00
  0.00000000E+00  0.00000000E+00  0.00000000E+00
  0.00000000E+00  0.00000000E+00  0.00000000E+00
  0.00000000E+00  0.00000000E+00  0.00000000E+00
  0.00000000E+00  0.00000000E+00  0.00000000E+00
  0.00000000E+00  0.00000000E+00  0.00000000E+00
  0.00000000E+00  0.00000000E+00  0.00000000E+00
  0.00000000E+00  0.00000000E+00  0.00000000E+00
  0.00000000E+00  0.00000000E+00  0.00000000E+00
  0.00000000E+00  0.00000000E+00  0.00000000E+00
  0.00000000E+00  0.00000000E+00  0.00000000E+00
  0.00000000E+00  0.00000000E+00  0.00000000E+00
  0.00000000E+00  0.00000000E+00  0.00000000E+00
  0.00000000E+00  0.00000000E+00  0.00000000E+00
  0.00000000E+00  0.00000000E+00  0.00000000E+00
  0.00000000E+00  0.00000000E+00  0.00000000E+00
  0.00000000E+00  0.00000000E+00  0.00000000E+00
  0.00000000E+00  0.00000000E+00  0.00000000E+00
  0.00000000E+00  0.00000000E+00  0.00000000E+00
  0.00000000E+00  0.00000000E+00  0.00000000E+00
  0.00000000E+00  0.00000000E+00  0.00000000E+00
  0.00000000E+00  0.00000000E+00  0.00000000E+00
  0.00000000E+00  0.00000000E+00  0.00000000E+00
  0.00000000E+00  0.00000000E+00  0.00000000E+00
  0.00000000E+00  0.00000000E+00  0.00000000E+00
  0.00000000E+00  0.00000000E+00  0.00000000E+00
  0.00000000E+00  0.00000000E+00  0.00000000E+00
  0.00000000E+00  0.00000000E+00  0.00000000E+00
  0.00000000E+00  0.00000000E+00  0.00000000E+00
  0.00000000E+00  0.00000000E+00  0.00000000E+00
  0.00000000E+00  0.00000000E+00  0.00000000E+00
  0.00000000E+00  0.00000000E+00  0.00000000E+00
  0.00000000E+00  0.00000000E+00  0.00000000E+00
  0.00000000E+00  0.00000000E+00  0.00000000E+00
  0.00000000E+00  0.00000000E+00  0.00000000E+00
  0.00000000E+00  0.00000000E+00  0.00000000E+00
  0.00000000E+00  0.00000000E+00  0.00000000E+00
  0.00000000E+00  0.00000000E+00  0.00000000E+00
  0.00000000E+00  0.00000000E+00  0.00000000E+00
  0.00000000E+00  0.00000000E+00  0.00000000E+00
