CONTCAR\(5)                             
   1.00000000000000     
    10.2070999146000005    0.0000000000000000    0.0000000000000000
    -1.7011927660999999   18.1179073708000011    0.0000000000000000
     0.0000000000000000    0.0000000000000000   20.2910003661999987
   Ta   Co   Pd   Se   O    H 
    12     6     3    36     2     1
Direct
  0.0248746133325923  0.1518484608654305  0.4639394920312867
  0.3083727673615897  0.8496315893425930  0.5290085663253805
  0.0682106737553099  0.4083734134762054  0.4691111682959814
  0.2641326612922086  0.5933618834265815  0.5258419623012998
  0.3582608982234845  0.1518240350123250  0.4639055906709046
  0.6414931821053784  0.8493745393847334  0.5286217962555710
  0.4015174648917608  0.4082647977357325  0.4689438751181285
  0.5974000085268472  0.5931248964715437  0.5256431676525608
  0.6913402640233315  0.1518214176338262  0.4640165406654049
  0.9749040379523208  0.8493458916695431  0.5287543676740185
  0.7349114591259678  0.4083197494819260  0.4691401200394338
  0.9308018322750371  0.5932215556106186  0.5254900215908194
  0.2144300602037532  0.2856815908123309  0.4382100091114083
  0.1176691697954766  0.7157930277707223  0.5552732670722520
  0.5477219731559302  0.2859529121297228  0.4382438946414808
  0.4518223091795477  0.7158331022610227  0.5554688519395441
  0.8806871957011424  0.2855634022028042  0.4383061748686501
  0.7849240172309209  0.7159056563000945  0.5552519663467166
  0.1659739268842699  0.0004830980700419  0.4959626756284763
  0.4991683201801820  0.0004662382479168  0.4954898675460484
  0.8329087136932927  0.0004246770169729  0.4961018060398175
  0.1857586998418057  0.1180090456224363  0.5565926378231225
  0.1471980553279479  0.8825438302727449  0.4358397853990468
  0.1001312896124489  0.6054803351483926  0.6190177037181712
  0.2321047490330272  0.3967328951332121  0.3756489190440817
  0.2406909456320250  0.4486963144098794  0.5601349924372201
  0.0920798622826595  0.5526546504396919  0.4346114583397380
  0.0396197605920747  0.2393559379991785  0.3674081604320207
  0.2925089292070240  0.7622489043641423  0.6259968216499132
  0.1788035680816122  0.0758277173524817  0.3942740676568590
  0.1544894709425222  0.9261299877734714  0.5979738701990343
  0.0469641186390461  0.2809840233239385  0.5224299556840108
  0.2854199669266890  0.7201034375608941  0.4714212248959413
  0.5189270824688705  0.1178614231026600  0.5566684492070877
  0.4802132709340583  0.8824742906919951  0.4355689410270713
  0.4337628409347971  0.6054544616164321  0.6190884327034567
  0.5658639072215195  0.3968350726079564  0.3755500528142690
  0.5735757402628607  0.4486423270134381  0.5601465558794274
  0.4252480772299307  0.5525759318080858  0.4346884975342817
  0.3733103376247584  0.2395066232916818  0.3674188081544969
  0.6266052040582863  0.7629534892768959  0.6258845945422777
  0.5119472940502447  0.0759986966373134  0.3939809151612508
  0.4880580869699784  0.9264130797045809  0.5974758740705894
  0.3803772216527861  0.2809653926554674  0.5224127375359302
  0.6186657600305665  0.7197201066533339  0.4709683107907452
  0.8524499334598943  0.1180371811368346  0.5567309115855181
  0.8137680660323738  0.8825479161584013  0.4356950271661049
  0.7670431196484486  0.6054788026176254  0.6188883782645718
  0.8988849353842454  0.3965380066054607  0.3757379158112997
  0.9072619425684465  0.4486779440314592  0.5601718857862537
  0.7586709796788895  0.5525149908948421  0.4345712026642161
  0.7061986714594610  0.2393614058737441  0.3674990529054796
  0.9593774077722301  0.7626802556389265  0.6259217687928711
  0.8452856493850973  0.0755719192242523  0.3945322079212161
  0.8211494777865553  0.9258571682824837  0.5979251533977958
  0.7133261271821638  0.2809701699271230  0.5226796455266864
  0.9517728066512703  0.7198239809706379  0.4707941645370894
  0.3574651981323740  0.8681953121083907  0.7192901348634066
  0.3381844214108298  0.8637125514463406  0.7860451887354074
  0.2565813339998186  0.8878870317004584  0.7930607965268166
 
  0.00000000E+00  0.00000000E+00  0.00000000E+00
  0.00000000E+00  0.00000000E+00  0.00000000E+00
  0.00000000E+00  0.00000000E+00  0.00000000E+00
  0.00000000E+00  0.00000000E+00  0.00000000E+00
  0.00000000E+00  0.00000000E+00  0.00000000E+00
  0.00000000E+00  0.00000000E+00  0.00000000E+00
  0.00000000E+00  0.00000000E+00  0.00000000E+00
  0.00000000E+00  0.00000000E+00  0.00000000E+00
  0.00000000E+00  0.00000000E+00  0.00000000E+00
  0.00000000E+00  0.00000000E+00  0.00000000E+00
  0.00000000E+00  0.00000000E+00  0.00000000E+00
  0.00000000E+00  0.00000000E+00  0.00000000E+00
  0.00000000E+00  0.00000000E+00  0.00000000E+00
  0.00000000E+00  0.00000000E+00  0.00000000E+00
  0.00000000E+00  0.00000000E+00  0.00000000E+00
  0.00000000E+00  0.00000000E+00  0.00000000E+00
  0.00000000E+00  0.00000000E+00  0.00000000E+00
  0.00000000E+00  0.00000000E+00  0.00000000E+00
  0.00000000E+00  0.00000000E+00  0.00000000E+00
  0.00000000E+00  0.00000000E+00  0.00000000E+00
  0.00000000E+00  0.00000000E+00  0.00000000E+00
  0.00000000E+00  0.00000000E+00  0.00000000E+00
  0.00000000E+00  0.00000000E+00  0.00000000E+00
  0.00000000E+00  0.00000000E+00  0.00000000E+00
  0.00000000E+00  0.00000000E+00  0.00000000E+00
  0.00000000E+00  0.00000000E+00  0.00000000E+00
  0.00000000E+00  0.00000000E+00  0.00000000E+00
  0.00000000E+00  0.00000000E+00  0.00000000E+00
  0.00000000E+00  0.00000000E+00  0.00000000E+00
  0.00000000E+00  0.00000000E+00  0.00000000E+00
  0.00000000E+00  0.00000000E+00  0.00000000E+00
  0.00000000E+00  0.00000000E+00  0.00000000E+00
  0.00000000E+00  0.00000000E+00  0.00000000E+00
  0.00000000E+00  0.00000000E+00  0.00000000E+00
  0.00000000E+00  0.00000000E+00  0.00000000E+00
  0.00000000E+00  0.00000000E+00  0.00000000E+00
  0.00000000E+00  0.00000000E+00  0.00000000E+00
  0.00000000E+00  0.00000000E+00  0.00000000E+00
  0.00000000E+00  0.00000000E+00  0.00000000E+00
  0.00000000E+00  0.00000000E+00  0.00000000E+00
  0.00000000E+00  0.00000000E+00  0.00000000E+00
  0.00000000E+00  0.00000000E+00  0.00000000E+00
  0.00000000E+00  0.00000000E+00  0.00000000E+00
  0.00000000E+00  0.00000000E+00  0.00000000E+00
  0.00000000E+00  0.00000000E+00  0.00000000E+00
  0.00000000E+00  0.00000000E+00  0.00000000E+00
  0.00000000E+00  0.00000000E+00  0.00000000E+00
  0.00000000E+00  0.00000000E+00  0.00000000E+00
  0.00000000E+00  0.00000000E+00  0.00000000E+00
  0.00000000E+00  0.00000000E+00  0.00000000E+00
  0.00000000E+00  0.00000000E+00  0.00000000E+00
  0.00000000E+00  0.00000000E+00  0.00000000E+00
  0.00000000E+00  0.00000000E+00  0.00000000E+00
  0.00000000E+00  0.00000000E+00  0.00000000E+00
  0.00000000E+00  0.00000000E+00  0.00000000E+00
  0.00000000E+00  0.00000000E+00  0.00000000E+00
  0.00000000E+00  0.00000000E+00  0.00000000E+00
  0.00000000E+00  0.00000000E+00  0.00000000E+00
  0.00000000E+00  0.00000000E+00  0.00000000E+00
  0.00000000E+00  0.00000000E+00  0.00000000E+00
