 Pr2 Te4 Se2                            
   1.00000000000000     
     4.2902472091663171    0.0000000000000000    0.0000000000000000
     0.0000000000000000    4.2920634835848261    0.0000000000000000
     0.0000000000000000    0.0000000000000000   24.0523903687840033
   Pr   Te   Se
     2     4     2
Direct
  0.5000000003093277  0.9999999995459206  0.5773285687902856
  0.9999999997039808  0.5000000004520828  0.4226714366111537
  0.4999999998188684  0.4999999991962198  0.6880297967268163
  0.9999999991311483  0.0000000003852989  0.3119702058727114
  0.5000000003765521  0.4999999995231903  0.3118678293328543
  0.0000000007095267  0.0000000009215313  0.6881321730948713
  0.4999999992404085  0.0000000006804370  0.4514298534514722
  0.0000000007101804  0.4999999992953050  0.5485701361198352
 
  0.00000000E+00  0.00000000E+00  0.00000000E+00
  0.00000000E+00  0.00000000E+00  0.00000000E+00
  0.00000000E+00  0.00000000E+00  0.00000000E+00
  0.00000000E+00  0.00000000E+00  0.00000000E+00
  0.00000000E+00  0.00000000E+00  0.00000000E+00
  0.00000000E+00  0.00000000E+00  0.00000000E+00
  0.00000000E+00  0.00000000E+00  0.00000000E+00
  0.00000000E+00  0.00000000E+00  0.00000000E+00
