CONTCAR\(16)                            
   1.00000000000000     
    13.4193000792999992    0.0000000000000000    0.0000000000000000
    -6.7096904058000000   11.6164658410000001    0.0000000000000000
     0.0000000000000000    0.0000000000000000   30.7367992401000016
   Bi   Te   Pb   O 
    18    45    18     1
Direct
  0.1122198725324637  0.2214137654952495  0.4350093630729646
  0.2227602293949289  0.1091782280127589  0.5651695676378665
  0.4453969803372004  0.2220704825554449  0.4352024792745723
  0.5565858436349274  0.1085681792394695  0.5650581339084724
  0.7783596590171626  0.2215365853996758  0.4350920757916370
  0.8892340032812456  0.1093424199340873  0.5650061805323219
  0.1105189665594821  0.5544178099373767  0.4351766152499152
  0.2227364249094776  0.4432316752773957  0.5648897813302369
  0.4453105121105665  0.5551951543573708  0.4353863869415093
  0.5568777676513932  0.4425998535027773  0.5658415980105715
  0.7779517918365570  0.5550972675429975  0.4352258951617713
  0.8909754136019004  0.4428684185867411  0.5650850530347569
  0.1120935908569365  0.8886836593148999  0.4351236148250948
  0.2225132464943869  0.7763232370475563  0.5651589717663725
  0.4455940099840561  0.8895176543310299  0.4351969594285805
  0.5552227812084567  0.7764615915479567  0.5649841513384075
  0.7785870463662548  0.8877724134316409  0.4349704715612361
  0.8899355461323708  0.7766218838431342  0.5652425686481664
  0.2236501226245267  0.1130161466605557  0.7581869631463221
  0.2229044539825935  0.1102982629563414  0.3799525843998097
  0.1117860379979589  0.2212195650145290  0.6199517076424215
  0.0007650166489199  0.9985589097967136  0.5003712568663232
  0.1116870683002631  0.2225497437385755  0.2411564079199096
  0.5550662501618149  0.1061678206219696  0.7593664281557082
  0.5565199302021639  0.1110839842614553  0.3799543072738203
  0.4453190835630139  0.2192827218078222  0.6203922541213274
  0.3342243619567924  0.9993723051260730  0.5001166857005401
  0.4448612273683636  0.2215459922491760  0.2414159994807434
  0.8894156296381155  0.1106164102348473  0.7591753388087312
  0.8896024401329896  0.1103642847457067  0.3801449341230594
  0.7789089958984405  0.2205102352215036  0.6201481983777200
  0.6676792802922904  0.9992176688574332  0.4999504283703260
  0.7777117136725664  0.2212923216612026  0.2408833588436252
  0.2256684934197040  0.4359498893844744  0.7596841592378283
  0.2226004911360207  0.4434492903943053  0.3802576545355336
  0.1124270570344450  0.5543669166972265  0.6202609255723743
  0.0005301260310162  0.3319959743308729  0.4999304393052171
  0.1112281798811807  0.5554295124274446  0.2413263086685120
  0.5590346310071155  0.4411654433940413  0.7579998511171340
  0.5558798184875684  0.4440096388411732  0.3800483633470222
  0.4444603259401703  0.5547912683700886  0.6200720281831167
  0.3345866720527155  0.3324204211978667  0.5002400851438082
  0.4444652547192689  0.5553395606247733  0.2415177151263634
  0.8930326633067978  0.4436902125303845  0.7597721364850898
  0.8888258315373250  0.4434822763437793  0.3799984046126283
  0.7800459896297269  0.5537593901465101  0.6203172623793023
  0.6671274228488500  0.3325989947914110  0.5001175167467622
  0.7779828200390355  0.5547109323160413  0.2414323960129252
  0.1956752745964820  0.8063075983840591  0.7726373981524759
  0.2228114707842224  0.7772338256634512  0.3803324137350259
  0.1117378974565852  0.8873868348888223  0.6203948750201533
  0.0002943539751428  0.6654112468891071  0.5000562876853465
  0.1112044649824782  0.8885358166335848  0.2411640781616455
  0.5667532895735903  0.7742543319862207  0.7595210198636906
  0.5562148203478614  0.7773507083461340  0.3802359097567205
  0.4447443107436442  0.8872790261869810  0.6203240508694776
  0.3335813582296510  0.6660186809722219  0.4999312094337682
  0.4441293357266645  0.8881630334684019  0.2413317506449317
  0.8892988556295265  0.7767229819020898  0.7585153647152296
  0.8899411913680240  0.7773753131656349  0.3799674385030656
  0.7780209472850217  0.8874643799585940  0.6199655723586801
  0.6671316335239794  0.6652579436636614  0.5002956448296558
  0.7770948185395667  0.8879177620571923  0.2412113925661430
  0.9999946952767758  0.9999585914555098  0.2934340181245716
  0.9999422558445232  0.0000617381826800  0.7064037058860322
  0.3331894830948841  0.9993628822908818  0.2939061150476334
  0.3326920585369137  0.0006734327545743  0.7069272313900115
  0.6666914631945318  0.9995957012927050  0.2936944330581284
  0.6673298901794880  0.9955353545049377  0.7066629227374932
  0.9997066049459988  0.3328608412270313  0.2936242122471313
  0.0042621552199833  0.3327323676732448  0.7067057647326180
  0.3337213382111841  0.3330474571019693  0.2939122261667109
  0.3376863448759693  0.3331377259284309  0.7047766440395691
  0.6672569902636809  0.3324161529828160  0.2938213019639733
  0.6710286171652413  0.3286959918004229  0.7067353614698035
  0.0004039544193049  0.6666530590512849  0.2939131180357393
  0.0008889283366145  0.6663544722413306  0.7074800585657144
  0.3331887768981403  0.6663442094938787  0.2941138760912878
  0.3354632817024807  0.6676828577299219  0.7147797846738939
  0.6667665693695852  0.6659848399541985  0.2939863663890350
  0.6697348564101588  0.6622066336972807  0.7047716080646325
  0.2837762988706629  0.7277288983688592  0.7737851008015184
 
  0.00000000E+00  0.00000000E+00  0.00000000E+00
  0.00000000E+00  0.00000000E+00  0.00000000E+00
  0.00000000E+00  0.00000000E+00  0.00000000E+00
  0.00000000E+00  0.00000000E+00  0.00000000E+00
  0.00000000E+00  0.00000000E+00  0.00000000E+00
  0.00000000E+00  0.00000000E+00  0.00000000E+00
  0.00000000E+00  0.00000000E+00  0.00000000E+00
  0.00000000E+00  0.00000000E+00  0.00000000E+00
  0.00000000E+00  0.00000000E+00  0.00000000E+00
  0.00000000E+00  0.00000000E+00  0.00000000E+00
  0.00000000E+00  0.00000000E+00  0.00000000E+00
  0.00000000E+00  0.00000000E+00  0.00000000E+00
  0.00000000E+00  0.00000000E+00  0.00000000E+00
  0.00000000E+00  0.00000000E+00  0.00000000E+00
  0.00000000E+00  0.00000000E+00  0.00000000E+00
  0.00000000E+00  0.00000000E+00  0.00000000E+00
  0.00000000E+00  0.00000000E+00  0.00000000E+00
  0.00000000E+00  0.00000000E+00  0.00000000E+00
  0.00000000E+00  0.00000000E+00  0.00000000E+00
  0.00000000E+00  0.00000000E+00  0.00000000E+00
  0.00000000E+00  0.00000000E+00  0.00000000E+00
  0.00000000E+00  0.00000000E+00  0.00000000E+00
  0.00000000E+00  0.00000000E+00  0.00000000E+00
  0.00000000E+00  0.00000000E+00  0.00000000E+00
  0.00000000E+00  0.00000000E+00  0.00000000E+00
  0.00000000E+00  0.00000000E+00  0.00000000E+00
  0.00000000E+00  0.00000000E+00  0.00000000E+00
  0.00000000E+00  0.00000000E+00  0.00000000E+00
  0.00000000E+00  0.00000000E+00  0.00000000E+00
  0.00000000E+00  0.00000000E+00  0.00000000E+00
  0.00000000E+00  0.00000000E+00  0.00000000E+00
  0.00000000E+00  0.00000000E+00  0.00000000E+00
  0.00000000E+00  0.00000000E+00  0.00000000E+00
  0.00000000E+00  0.00000000E+00  0.00000000E+00
  0.00000000E+00  0.00000000E+00  0.00000000E+00
  0.00000000E+00  0.00000000E+00  0.00000000E+00
  0.00000000E+00  0.00000000E+00  0.00000000E+00
  0.00000000E+00  0.00000000E+00  0.00000000E+00
  0.00000000E+00  0.00000000E+00  0.00000000E+00
  0.00000000E+00  0.00000000E+00  0.00000000E+00
  0.00000000E+00  0.00000000E+00  0.00000000E+00
  0.00000000E+00  0.00000000E+00  0.00000000E+00
  0.00000000E+00  0.00000000E+00  0.00000000E+00
  0.00000000E+00  0.00000000E+00  0.00000000E+00
  0.00000000E+00  0.00000000E+00  0.00000000E+00
  0.00000000E+00  0.00000000E+00  0.00000000E+00
  0.00000000E+00  0.00000000E+00  0.00000000E+00
  0.00000000E+00  0.00000000E+00  0.00000000E+00
  0.00000000E+00  0.00000000E+00  0.00000000E+00
  0.00000000E+00  0.00000000E+00  0.00000000E+00
  0.00000000E+00  0.00000000E+00  0.00000000E+00
  0.00000000E+00  0.00000000E+00  0.00000000E+00
  0.00000000E+00  0.00000000E+00  0.00000000E+00
  0.00000000E+00  0.00000000E+00  0.00000000E+00
  0.00000000E+00  0.00000000E+00  0.00000000E+00
  0.00000000E+00  0.00000000E+00  0.00000000E+00
  0.00000000E+00  0.00000000E+00  0.00000000E+00
  0.00000000E+00  0.00000000E+00  0.00000000E+00
  0.00000000E+00  0.00000000E+00  0.00000000E+00
  0.00000000E+00  0.00000000E+00  0.00000000E+00
  0.00000000E+00  0.00000000E+00  0.00000000E+00
  0.00000000E+00  0.00000000E+00  0.00000000E+00
  0.00000000E+00  0.00000000E+00  0.00000000E+00
  0.00000000E+00  0.00000000E+00  0.00000000E+00
  0.00000000E+00  0.00000000E+00  0.00000000E+00
  0.00000000E+00  0.00000000E+00  0.00000000E+00
  0.00000000E+00  0.00000000E+00  0.00000000E+00
  0.00000000E+00  0.00000000E+00  0.00000000E+00
  0.00000000E+00  0.00000000E+00  0.00000000E+00
  0.00000000E+00  0.00000000E+00  0.00000000E+00
  0.00000000E+00  0.00000000E+00  0.00000000E+00
  0.00000000E+00  0.00000000E+00  0.00000000E+00
  0.00000000E+00  0.00000000E+00  0.00000000E+00
  0.00000000E+00  0.00000000E+00  0.00000000E+00
  0.00000000E+00  0.00000000E+00  0.00000000E+00
  0.00000000E+00  0.00000000E+00  0.00000000E+00
  0.00000000E+00  0.00000000E+00  0.00000000E+00
  0.00000000E+00  0.00000000E+00  0.00000000E+00
  0.00000000E+00  0.00000000E+00  0.00000000E+00
  0.00000000E+00  0.00000000E+00  0.00000000E+00
  0.00000000E+00  0.00000000E+00  0.00000000E+00
  0.00000000E+00  0.00000000E+00  0.00000000E+00
