CONTCAR\(3)                             
   1.00000000000000     
    11.1367998122999996    0.0000000000000000    0.0000000000000000
    -5.5683999061999998    9.6447515543000009    0.0000000000000000
     0.0000000000000000    0.0000000000000000   17.5949001311999993
   Ni   Te   O    H 
     9    18     2     1
Direct
  0.9856419592208219  0.9959361657057599  0.5073840992428367
  0.3172702110040508  0.9953170225265182  0.5064588433014019
  0.6510171999709615  0.9971607924849127  0.5028086141584814
  0.9676716152232598  0.3207733673644058  0.4943273972815831
  0.3170921047813887  0.3291564315786764  0.5116390882328272
  0.6518023320560691  0.3277603969866765  0.5034675693855751
  0.9860294639135887  0.6635778860761203  0.5071457858200421
  0.3169725214958345  0.6603865700901248  0.5140855690093342
  0.6530740355265608  0.6631807252948481  0.5077991781502198
  0.0985228768327237  0.2217833693755402  0.4289094413566006
  0.2065674863756549  0.1043829174716105  0.5882648048333018
  0.4261950134118405  0.2177170901469005  0.4270839795517160
  0.5417155795716424  0.1071951960285150  0.5850425451370999
  0.7384442807716936  0.2067545097390190  0.4136940172649092
  0.8735792206715273  0.1134742915850012  0.5820102813624681
  0.0992587643660638  0.5507732542620576  0.4288972539873733
  0.2100439528108612  0.4404835549626965  0.5939204868839287
  0.4266775927049367  0.5505688352878420  0.4317816904616091
  0.5463080583929070  0.4383360203636148  0.5853448544462582
  0.7654482370102209  0.5540323106946962  0.4267846389411035
  0.8754761292941647  0.4351237927601776  0.5825333844277307
  0.0946119338330754  0.8843665115553038  0.4267177102543991
  0.2053661285256790  0.7761048051548903  0.5889934836015330
  0.4239866429989898  0.8773424621007496  0.4289734089954788
  0.5480364636707797  0.7817937211969108  0.5866186826031695
  0.7643810382086514  0.8837087898524304  0.4276061406927052
  0.8746888699986111  0.7738811066648335  0.5880227062899781
  0.3628114778702757  0.5357639992382723  0.6814660294085131
  0.3396669579266319  0.4349810317336604  0.7410769461212512
  0.4101020325605485  0.4095033627172339  0.7276411727965807
 
  0.00000000E+00  0.00000000E+00  0.00000000E+00
  0.00000000E+00  0.00000000E+00  0.00000000E+00
  0.00000000E+00  0.00000000E+00  0.00000000E+00
  0.00000000E+00  0.00000000E+00  0.00000000E+00
  0.00000000E+00  0.00000000E+00  0.00000000E+00
  0.00000000E+00  0.00000000E+00  0.00000000E+00
  0.00000000E+00  0.00000000E+00  0.00000000E+00
  0.00000000E+00  0.00000000E+00  0.00000000E+00
  0.00000000E+00  0.00000000E+00  0.00000000E+00
  0.00000000E+00  0.00000000E+00  0.00000000E+00
  0.00000000E+00  0.00000000E+00  0.00000000E+00
  0.00000000E+00  0.00000000E+00  0.00000000E+00
  0.00000000E+00  0.00000000E+00  0.00000000E+00
  0.00000000E+00  0.00000000E+00  0.00000000E+00
  0.00000000E+00  0.00000000E+00  0.00000000E+00
  0.00000000E+00  0.00000000E+00  0.00000000E+00
  0.00000000E+00  0.00000000E+00  0.00000000E+00
  0.00000000E+00  0.00000000E+00  0.00000000E+00
  0.00000000E+00  0.00000000E+00  0.00000000E+00
  0.00000000E+00  0.00000000E+00  0.00000000E+00
  0.00000000E+00  0.00000000E+00  0.00000000E+00
  0.00000000E+00  0.00000000E+00  0.00000000E+00
  0.00000000E+00  0.00000000E+00  0.00000000E+00
  0.00000000E+00  0.00000000E+00  0.00000000E+00
  0.00000000E+00  0.00000000E+00  0.00000000E+00
  0.00000000E+00  0.00000000E+00  0.00000000E+00
  0.00000000E+00  0.00000000E+00  0.00000000E+00
  0.00000000E+00  0.00000000E+00  0.00000000E+00
  0.00000000E+00  0.00000000E+00  0.00000000E+00
  0.00000000E+00  0.00000000E+00  0.00000000E+00
