CONTCAR\(2)                             
   1.00000000000000     
    11.7456998825000003    0.0000000000000000    0.0000000000000000
     0.0000000000000000   17.6870002747000008    0.0000000000000000
     0.0000000000000000    0.0000000000000000   19.5771007537999999
   Ti   Ge   Te   O    H 
     6     6    36     1     1
Direct
  0.0841187871284353  0.4795084682872178  0.5103801309937138
  0.2528438385445611  0.9531632438756324  0.4851505184739327
  0.4182921355898112  0.4820529369870538  0.5220218039310812
  0.5876797382401224  0.9529769414720556  0.4851801638392034
  0.7531991708370914  0.4795492738890815  0.5103731470595042
  0.9204400643095998  0.9553351328002894  0.4866043656462715
  0.2577282640672488  0.8021182174693631  0.4733765043298254
  0.0863646247682443  0.6303801349913017  0.5227671194893462
  0.5812225915597830  0.8021713059313689  0.4733305454634973
  0.4183150052791935  0.6177732585666943  0.5894776793419444
  0.9195488429013889  0.8041452885306282  0.4797244330857105
  0.7513382484291340  0.6302289658557599  0.5227323864543129
  0.0848024334955648  0.9249809416091038  0.3803333543091254
  0.2539720456861463  0.2531742263249443  0.5655550760015730
  0.2538470659982344  0.0617985786267137  0.3770074784378365
  0.0882049847752201  0.9001398073073920  0.5832704400067941
  0.2366567974829385  0.4952137674614435  0.6249198322429438
  0.0814640118345380  0.3597961147819164  0.6087492309154996
  0.0904669193450799  0.1781385344376767  0.4254520242992857
  0.2425735230557390  0.7180933233907167  0.5906245877262806
  0.0843523390163311  0.7254888896361875  0.4102194467839171
  0.2561217171253591  0.3883269197064452  0.4522754178338309
  0.0883717382812848  0.0530151412239438  0.5421874067161523
  0.2620434853317758  0.5445494554447284  0.4251731465778117
  0.4199872762696402  0.9235284447740623  0.3782174670908887
  0.5839055755902811  0.2531706758760828  0.5659651246334972
  0.5864799959829434  0.0613628391935146  0.3769192784552652
  0.4203926499867736  0.8986900395665954  0.5818623597830566
  0.6004155978108301  0.4951797120256847  0.6250369227715887
  0.4187713408067661  0.3607856188671407  0.6174199687589312
  0.4203179954550961  0.1747608716750181  0.4198799849145375
  0.5949272557460556  0.7176528662906642  0.5905980072850990
  0.4196291600101404  0.7296208471411469  0.4028039770054020
  0.5808738432547140  0.3885013200989052  0.4524426894220041
  0.4202867159548012  0.0521210475046244  0.5391342232290880
  0.5744042810434900  0.5447649886047932  0.4255125560806523
  0.7553373725224881  0.9247065023852090  0.3804386992400071
  0.9188911832821419  0.2479012854641999  0.5474620822330714
  0.9202280908064204  0.0684754129615388  0.3810288777475366
  0.7533446734549857  0.9000278118435692  0.5833514645627320
  0.9185889977030155  0.5039218602735052  0.6154156477572853
  0.7559866543955823  0.3601210583918572  0.6088282905595243
  0.7492524127207726  0.1780130740603247  0.4248383116218105
  0.9188596167798813  0.7075539176057222  0.5912339575152606
  0.7545509966522305  0.7255091006260558  0.4103374655074999
  0.9185411912181496  0.3851783794455422  0.4468748018866571
  0.7518876517475688  0.0526121642825401  0.5420788773456225
  0.9185996588615535  0.5420565246077214  0.4152026488983609
  0.4177148016499402  0.6108881840209816  0.6844187491913960
  0.4286469492109167  0.6600163238052946  0.7060215435438563
 
  0.00000000E+00  0.00000000E+00  0.00000000E+00
  0.00000000E+00  0.00000000E+00  0.00000000E+00
  0.00000000E+00  0.00000000E+00  0.00000000E+00
  0.00000000E+00  0.00000000E+00  0.00000000E+00
  0.00000000E+00  0.00000000E+00  0.00000000E+00
  0.00000000E+00  0.00000000E+00  0.00000000E+00
  0.00000000E+00  0.00000000E+00  0.00000000E+00
  0.00000000E+00  0.00000000E+00  0.00000000E+00
  0.00000000E+00  0.00000000E+00  0.00000000E+00
  0.00000000E+00  0.00000000E+00  0.00000000E+00
  0.00000000E+00  0.00000000E+00  0.00000000E+00
  0.00000000E+00  0.00000000E+00  0.00000000E+00
  0.00000000E+00  0.00000000E+00  0.00000000E+00
  0.00000000E+00  0.00000000E+00  0.00000000E+00
  0.00000000E+00  0.00000000E+00  0.00000000E+00
  0.00000000E+00  0.00000000E+00  0.00000000E+00
  0.00000000E+00  0.00000000E+00  0.00000000E+00
  0.00000000E+00  0.00000000E+00  0.00000000E+00
  0.00000000E+00  0.00000000E+00  0.00000000E+00
  0.00000000E+00  0.00000000E+00  0.00000000E+00
  0.00000000E+00  0.00000000E+00  0.00000000E+00
  0.00000000E+00  0.00000000E+00  0.00000000E+00
  0.00000000E+00  0.00000000E+00  0.00000000E+00
  0.00000000E+00  0.00000000E+00  0.00000000E+00
  0.00000000E+00  0.00000000E+00  0.00000000E+00
  0.00000000E+00  0.00000000E+00  0.00000000E+00
  0.00000000E+00  0.00000000E+00  0.00000000E+00
  0.00000000E+00  0.00000000E+00  0.00000000E+00
  0.00000000E+00  0.00000000E+00  0.00000000E+00
  0.00000000E+00  0.00000000E+00  0.00000000E+00
  0.00000000E+00  0.00000000E+00  0.00000000E+00
  0.00000000E+00  0.00000000E+00  0.00000000E+00
  0.00000000E+00  0.00000000E+00  0.00000000E+00
  0.00000000E+00  0.00000000E+00  0.00000000E+00
  0.00000000E+00  0.00000000E+00  0.00000000E+00
  0.00000000E+00  0.00000000E+00  0.00000000E+00
  0.00000000E+00  0.00000000E+00  0.00000000E+00
  0.00000000E+00  0.00000000E+00  0.00000000E+00
  0.00000000E+00  0.00000000E+00  0.00000000E+00
  0.00000000E+00  0.00000000E+00  0.00000000E+00
  0.00000000E+00  0.00000000E+00  0.00000000E+00
  0.00000000E+00  0.00000000E+00  0.00000000E+00
  0.00000000E+00  0.00000000E+00  0.00000000E+00
  0.00000000E+00  0.00000000E+00  0.00000000E+00
  0.00000000E+00  0.00000000E+00  0.00000000E+00
  0.00000000E+00  0.00000000E+00  0.00000000E+00
  0.00000000E+00  0.00000000E+00  0.00000000E+00
  0.00000000E+00  0.00000000E+00  0.00000000E+00
  0.00000000E+00  0.00000000E+00  0.00000000E+00
  0.00000000E+00  0.00000000E+00  0.00000000E+00
