CONTCAR\(5)                             
   1.00000000000000     
    10.2070999146000005    0.0000000000000000    0.0000000000000000
    -1.7011927660999999   18.1179073708000011    0.0000000000000000
     0.0000000000000000    0.0000000000000000   20.2910003661999987
   Ta   Co   Pd   Se   O    H 
    12     6     3    36     2     1
Direct
  0.0248746133325903  0.1518484608654313  0.4639394920312853
  0.3083727673615916  0.8496315893425961  0.5290085663253830
  0.0682106737553070  0.4083734134762085  0.4691111682959843
  0.2641326612922110  0.5933618834265846  0.5258419623013030
  0.3582608982234879  0.1518240350123237  0.4639055906709015
  0.6414931821053762  0.8493745393847346  0.5286217962555678
  0.4015174648917600  0.4082647977357359  0.4689438751181296
  0.5974000085268503  0.5931248964715465  0.5256431676525573
  0.6913402640233332  0.1518214176338252  0.4640165406654031
  0.9749040379523215  0.8493458916695411  0.5287543676740157
  0.7349114591259691  0.4083197494819258  0.4691401200394328
  0.9308018322750342  0.5932215556106197  0.5254900215908219
  0.2144300602037505  0.2856815908123341  0.4382100091114050
  0.1176691697954749  0.7157930277707241  0.5552732670722488
  0.5477219731559317  0.2859529121297194  0.4382438946414777
  0.4518223091795494  0.7158331022610235  0.5554688519395453
  0.8806871957011427  0.2855634022028060  0.4383061748686506
  0.7849240172309232  0.7159056563000959  0.5552519663467167
  0.1659739268842686  0.0004830980700407  0.4959626756284735
  0.4991683201801845  0.0004662382479171  0.4954898675460478
  0.8329087136932898  0.0004246770169728  0.4961018060398144
  0.1857586998418067  0.1180090456224359  0.5565926378231248
  0.1471980553279467  0.8825438302727447  0.4358397853990455
  0.1001312896124514  0.6054803351483928  0.6190177037181699
  0.2321047490330274  0.3967328951332096  0.3756489190440804
  0.2406909456320277  0.4486963144098763  0.5601349924372186
  0.0920798622826560  0.5526546504396888  0.4346114583397412
  0.0396197605920769  0.2393559379991761  0.3674081604320209
  0.2925089292070253  0.7622489043641412  0.6259968216499109
  0.1788035680816147  0.0758277173524832  0.3942740676568590
  0.1544894709425224  0.9261299877734703  0.5979738701990310
  0.0469641186390448  0.2809840233239392  0.5224299556840076
  0.2854199669266860  0.7201034375608950  0.4714212248959435
  0.5189270824688690  0.1178614231026575  0.5566684492070860
  0.4802132709340566  0.8824742906919960  0.4355689410270704
  0.4337628409347936  0.6054544616164327  0.6190884327034547
  0.5658639072215200  0.3968350726079568  0.3755500528142687
  0.5735757402628584  0.4486423270134413  0.5601465558794245
  0.4252480772299300  0.5525759318080858  0.4346884975342801
  0.3733103376247568  0.2395066232916839  0.3674188081545003
  0.6266052040582856  0.7629534892768938  0.6258845945422777
  0.5119472940502425  0.0759986966373136  0.3939809151612498
  0.4880580869699764  0.9264130797045800  0.5974758740705889
  0.3803772216527833  0.2809653926554655  0.5224127375359269
  0.6186657600305669  0.7197201066533335  0.4709683107907462
  0.8524499334598941  0.1180371811368365  0.5567309115855165
  0.8137680660323734  0.8825479161584034  0.4356950271661074
  0.7670431196484478  0.6054788026176282  0.6188883782645752
  0.8988849353842479  0.3965380066054640  0.3757379158112967
  0.9072619425684465  0.4486779440314561  0.5601718857862551
  0.7586709796788917  0.5525149908948391  0.4345712026642161
  0.7061986714594636  0.2393614058737411  0.3674990529054806
  0.9593774077722336  0.7626802556389234  0.6259217687928681
  0.8452856493850974  0.0755719192242540  0.3945322079212129
  0.8211494777865521  0.9258571682824827  0.5979251533977924
  0.7133261271821641  0.2809701699271264  0.5226796455266883
  0.9517728066512733  0.7198239809706404  0.4707941645370871
  0.3574651981323733  0.8681953121083873  0.7192901348634079
  0.3381844214108280  0.8637125514463405  0.7860451887354101
  0.2565813339998156  0.8878870317004582  0.7930607965268190
 
  0.00000000E+00  0.00000000E+00  0.00000000E+00
  0.00000000E+00  0.00000000E+00  0.00000000E+00
  0.00000000E+00  0.00000000E+00  0.00000000E+00
  0.00000000E+00  0.00000000E+00  0.00000000E+00
  0.00000000E+00  0.00000000E+00  0.00000000E+00
  0.00000000E+00  0.00000000E+00  0.00000000E+00
  0.00000000E+00  0.00000000E+00  0.00000000E+00
  0.00000000E+00  0.00000000E+00  0.00000000E+00
  0.00000000E+00  0.00000000E+00  0.00000000E+00
  0.00000000E+00  0.00000000E+00  0.00000000E+00
  0.00000000E+00  0.00000000E+00  0.00000000E+00
  0.00000000E+00  0.00000000E+00  0.00000000E+00
  0.00000000E+00  0.00000000E+00  0.00000000E+00
  0.00000000E+00  0.00000000E+00  0.00000000E+00
  0.00000000E+00  0.00000000E+00  0.00000000E+00
  0.00000000E+00  0.00000000E+00  0.00000000E+00
  0.00000000E+00  0.00000000E+00  0.00000000E+00
  0.00000000E+00  0.00000000E+00  0.00000000E+00
  0.00000000E+00  0.00000000E+00  0.00000000E+00
  0.00000000E+00  0.00000000E+00  0.00000000E+00
  0.00000000E+00  0.00000000E+00  0.00000000E+00
  0.00000000E+00  0.00000000E+00  0.00000000E+00
  0.00000000E+00  0.00000000E+00  0.00000000E+00
  0.00000000E+00  0.00000000E+00  0.00000000E+00
  0.00000000E+00  0.00000000E+00  0.00000000E+00
  0.00000000E+00  0.00000000E+00  0.00000000E+00
  0.00000000E+00  0.00000000E+00  0.00000000E+00
  0.00000000E+00  0.00000000E+00  0.00000000E+00
  0.00000000E+00  0.00000000E+00  0.00000000E+00
  0.00000000E+00  0.00000000E+00  0.00000000E+00
  0.00000000E+00  0.00000000E+00  0.00000000E+00
  0.00000000E+00  0.00000000E+00  0.00000000E+00
  0.00000000E+00  0.00000000E+00  0.00000000E+00
  0.00000000E+00  0.00000000E+00  0.00000000E+00
  0.00000000E+00  0.00000000E+00  0.00000000E+00
  0.00000000E+00  0.00000000E+00  0.00000000E+00
  0.00000000E+00  0.00000000E+00  0.00000000E+00
  0.00000000E+00  0.00000000E+00  0.00000000E+00
  0.00000000E+00  0.00000000E+00  0.00000000E+00
  0.00000000E+00  0.00000000E+00  0.00000000E+00
  0.00000000E+00  0.00000000E+00  0.00000000E+00
  0.00000000E+00  0.00000000E+00  0.00000000E+00
  0.00000000E+00  0.00000000E+00  0.00000000E+00
  0.00000000E+00  0.00000000E+00  0.00000000E+00
  0.00000000E+00  0.00000000E+00  0.00000000E+00
  0.00000000E+00  0.00000000E+00  0.00000000E+00
  0.00000000E+00  0.00000000E+00  0.00000000E+00
  0.00000000E+00  0.00000000E+00  0.00000000E+00
  0.00000000E+00  0.00000000E+00  0.00000000E+00
  0.00000000E+00  0.00000000E+00  0.00000000E+00
  0.00000000E+00  0.00000000E+00  0.00000000E+00
  0.00000000E+00  0.00000000E+00  0.00000000E+00
  0.00000000E+00  0.00000000E+00  0.00000000E+00
  0.00000000E+00  0.00000000E+00  0.00000000E+00
  0.00000000E+00  0.00000000E+00  0.00000000E+00
  0.00000000E+00  0.00000000E+00  0.00000000E+00
  0.00000000E+00  0.00000000E+00  0.00000000E+00
  0.00000000E+00  0.00000000E+00  0.00000000E+00
  0.00000000E+00  0.00000000E+00  0.00000000E+00
  0.00000000E+00  0.00000000E+00  0.00000000E+00
