CONTCAR                                 
   1.00000000000000     
    10.8359003066999993    0.0000000000000000    0.0000000000000000
    -5.4179501533999996    9.3841649384999997    0.0000000000000000
     0.0000000000000000    0.0000000000000000   23.8684997559000003
   Ga   Ni   S    O    H 
    18     9    36     2     1
Selective dynamics
Direct
  0.1126120875362773  0.2265501487690216  0.6403533800879586   F   F   F
  0.2231007391355604  0.1127340535952612  0.3582896743221013   F   F   F
  0.4467649722221623  0.2263875629317766  0.6403442331675038   F   F   F
  0.5565068173938315  0.1127067786126688  0.3583625673932787   F   F   F
  0.7794904124602766  0.2259978785871581  0.6408228903663371   F   F   F
  0.8897301826428006  0.1127266218075818  0.3583376885587271   F   F   F
  0.1126348233193895  0.5592110550113389  0.6410393892057087   F   F   F
  0.2231264518636706  0.4461722827995942  0.3585164685102669   F   F   F
  0.4466102017655160  0.5605401038715669  0.6420112114602432   F   F   F
  0.5563909147731678  0.4461288202054305  0.3585093903322942   F   F   F
  0.7795319290061968  0.5592910373183386  0.6410613318133187   F   F   F
  0.8896719642457498  0.4460288926964324  0.3585542344683716   F   F   F
  0.1126197919318415  0.8920976850533506  0.6408142386011733   F   F   F
  0.2230907016317829  0.7793906177876195  0.3584920493658217   F   F   F
  0.4466585427955465  0.8926819104184318  0.6404982091817288   F   F   F
  0.5563862392459740  0.7792670150194496  0.3584868785049480   F   F   F
  0.7791137736165368  0.8926937106576176  0.6404713917126799   F   F   F
  0.8897771572325937  0.7794016853343990  0.3584907196421128   F   F   F
  0.0006189888614117  0.0009277860662777  0.4995360654185390   F   F   F
  0.3337633757896299  0.0009223979756072  0.4995473258627072   F   F   F
  0.6671401241936437  0.0007733793402593  0.4995870502879356   F   F   F
  0.0003432654117077  0.3340149024023091  0.4996920195719596   F   F   F
  0.3339432230925610  0.3345026134190121  0.4996625360633900   F   F   F
  0.6670481299187969  0.3340558499102428  0.4996980952597383   F   F   F
  0.0002267773946230  0.6671491565320977  0.4998806738695620   F   F   F
  0.3336293124191698  0.6671883615244951  0.4999045980791550   F   F   F
  0.6669030319046598  0.6673130938098950  0.4998705715411020   F   F   F
  0.2227614138513445  0.1120555046999669  0.4513057047070106   F   F   F
  0.1117452378326149  0.2233037200704828  0.5473319157819247   F   F   F
  0.2242041034916440  0.1155178630477849  0.6847237714851033   F   F   F
  0.1120179171783278  0.2239573546574647  0.3139414402637186   F   F   F
  0.5561933289782104  0.1120082572128922  0.4513488630819822   F   F   F
  0.4448640833213773  0.2233279849645200  0.5473367228377413   F   F   F
  0.5569370682753174  0.1149318256743967  0.6848919384712602   F   F   F
  0.4454089520881581  0.2238904010314116  0.3139435419226686   F   F   F
  0.8892989912839866  0.1120195230486871  0.4513207819109724   F   F   F
  0.7783270875736008  0.2234018666467534  0.5477530348436375   F   F   F
  0.8909161810693433  0.1149032931840637  0.6848898639924670   F   F   F
  0.7786665157323327  0.2239030202477181  0.3138904554977913   F   F   F
  0.2228929500668713  0.4455954604985664  0.4515607997788607   F   F   F
  0.1116413915935865  0.5567081801541818  0.5479364076254711   F   F   F
  0.2230310950473253  0.4471985631929272  0.6852026174299155   F   F   F
  0.1118471507110428  0.5570307993417245  0.3140202177772409   F   F   F
  0.5561346821175945  0.4456099473247477  0.4515556542407069   F   F   F
  0.4451303764662100  0.5569132725729560  0.5484950305930596   F   F   F
  0.5568247993181430  0.4470779203564561  0.6852166053869411   F   F   F
  0.4452392612090250  0.5570713654079640  0.3139501434526508   F   F   F
  0.8892657109014763  0.4451975292599002  0.4515629139891004   F   F   F
  0.7781743265879300  0.5566614074901182  0.5479605894494597   F   F   F
  0.8903612491437514  0.4478908342677101  0.6853958379879401   F   F   F
  0.7785558569940250  0.5570292523828826  0.3140122018350411   F   F   F
  0.2224676774693677  0.7783817815550904  0.4514915118302696   F   F   F
  0.1118265374366914  0.8904062494386267  0.5476995398583284   F   F   F
  0.2243176239883056  0.7816786157319413  0.6851073806477928   F   F   F
  0.1119166894392833  0.8903700822627414  0.3139406745814384   F   F   F
  0.5557972222310568  0.7782936023657143  0.4515187163305612   F   F   F
  0.4448488626938101  0.8903645157325997  0.5474494229523046   F   F   F
  0.5584346119666534  0.7836865874891217  0.6849431465768916   F   F   F
  0.4452491267126888  0.8902825405630352  0.3139464347603464   F   F   F
  0.8893639978969290  0.7784471935638422  0.4514766022519581   F   F   F
  0.7789865869069246  0.8904512175828785  0.5474246587554532   F   F   F
  0.8904731414393297  0.7817277098345912  0.6851131567789039   F   F   F
  0.7785035731797905  0.8902788481741624  0.3139313729929043   F   F   F
  0.4566806851897383  0.5850984617123842  0.7883891915820058   T   T   T
  0.3958394117154569  0.4589392679042490  0.8168085689473799   T   T   T
  0.3665205220956977  0.3851928108956031  0.7866088578099409   T   T   T
 
  0.00000000E+00  0.00000000E+00  0.00000000E+00
  0.00000000E+00  0.00000000E+00  0.00000000E+00
  0.00000000E+00  0.00000000E+00  0.00000000E+00
  0.00000000E+00  0.00000000E+00  0.00000000E+00
  0.00000000E+00  0.00000000E+00  0.00000000E+00
  0.00000000E+00  0.00000000E+00  0.00000000E+00
  0.00000000E+00  0.00000000E+00  0.00000000E+00
  0.00000000E+00  0.00000000E+00  0.00000000E+00
  0.00000000E+00  0.00000000E+00  0.00000000E+00
  0.00000000E+00  0.00000000E+00  0.00000000E+00
  0.00000000E+00  0.00000000E+00  0.00000000E+00
  0.00000000E+00  0.00000000E+00  0.00000000E+00
  0.00000000E+00  0.00000000E+00  0.00000000E+00
  0.00000000E+00  0.00000000E+00  0.00000000E+00
  0.00000000E+00  0.00000000E+00  0.00000000E+00
  0.00000000E+00  0.00000000E+00  0.00000000E+00
  0.00000000E+00  0.00000000E+00  0.00000000E+00
  0.00000000E+00  0.00000000E+00  0.00000000E+00
  0.00000000E+00  0.00000000E+00  0.00000000E+00
  0.00000000E+00  0.00000000E+00  0.00000000E+00
  0.00000000E+00  0.00000000E+00  0.00000000E+00
  0.00000000E+00  0.00000000E+00  0.00000000E+00
  0.00000000E+00  0.00000000E+00  0.00000000E+00
  0.00000000E+00  0.00000000E+00  0.00000000E+00
  0.00000000E+00  0.00000000E+00  0.00000000E+00
  0.00000000E+00  0.00000000E+00  0.00000000E+00
  0.00000000E+00  0.00000000E+00  0.00000000E+00
  0.00000000E+00  0.00000000E+00  0.00000000E+00
  0.00000000E+00  0.00000000E+00  0.00000000E+00
  0.00000000E+00  0.00000000E+00  0.00000000E+00
  0.00000000E+00  0.00000000E+00  0.00000000E+00
  0.00000000E+00  0.00000000E+00  0.00000000E+00
  0.00000000E+00  0.00000000E+00  0.00000000E+00
  0.00000000E+00  0.00000000E+00  0.00000000E+00
  0.00000000E+00  0.00000000E+00  0.00000000E+00
  0.00000000E+00  0.00000000E+00  0.00000000E+00
  0.00000000E+00  0.00000000E+00  0.00000000E+00
  0.00000000E+00  0.00000000E+00  0.00000000E+00
  0.00000000E+00  0.00000000E+00  0.00000000E+00
  0.00000000E+00  0.00000000E+00  0.00000000E+00
  0.00000000E+00  0.00000000E+00  0.00000000E+00
  0.00000000E+00  0.00000000E+00  0.00000000E+00
  0.00000000E+00  0.00000000E+00  0.00000000E+00
  0.00000000E+00  0.00000000E+00  0.00000000E+00
  0.00000000E+00  0.00000000E+00  0.00000000E+00
  0.00000000E+00  0.00000000E+00  0.00000000E+00
  0.00000000E+00  0.00000000E+00  0.00000000E+00
  0.00000000E+00  0.00000000E+00  0.00000000E+00
  0.00000000E+00  0.00000000E+00  0.00000000E+00
  0.00000000E+00  0.00000000E+00  0.00000000E+00
  0.00000000E+00  0.00000000E+00  0.00000000E+00
  0.00000000E+00  0.00000000E+00  0.00000000E+00
  0.00000000E+00  0.00000000E+00  0.00000000E+00
  0.00000000E+00  0.00000000E+00  0.00000000E+00
  0.00000000E+00  0.00000000E+00  0.00000000E+00
  0.00000000E+00  0.00000000E+00  0.00000000E+00
  0.00000000E+00  0.00000000E+00  0.00000000E+00
  0.00000000E+00  0.00000000E+00  0.00000000E+00
  0.00000000E+00  0.00000000E+00  0.00000000E+00
  0.00000000E+00  0.00000000E+00  0.00000000E+00
  0.00000000E+00  0.00000000E+00  0.00000000E+00
  0.00000000E+00  0.00000000E+00  0.00000000E+00
  0.00000000E+00  0.00000000E+00  0.00000000E+00
  0.00000000E+00  0.00000000E+00  0.00000000E+00
  0.00000000E+00  0.00000000E+00  0.00000000E+00
  0.00000000E+00  0.00000000E+00  0.00000000E+00
