CONTCAR\(14)                            
   1.00000000000000     
    11.7566995620999997    0.0000000000000000    0.0000000000000000
     0.0000000000000000   11.8254995346000005    0.0000000000000000
     0.0000000000000000    0.0000000000000000   21.8330993651999989
   Zr   Te
    12    36
Direct
  0.0833331311426804  0.3388314947081952  0.5764193842273997
  0.2500000000000000  0.0888645600501334  0.4236333015930356
  0.4166668638573228  0.3388314947081952  0.5764193842273997
  0.5833331072536865  0.0888645249708020  0.4236334174609411
  0.7500000200000017  0.3388314554572389  0.5764195186098746
  0.9166668517463137  0.0888645249708020  0.4236334174609411
  0.0833331311426804  0.8388315347081985  0.5764193842273997
  0.2500000000000000  0.5888645800501351  0.4236333015930356
  0.4166668638573228  0.8388315347081985  0.5764193842273997
  0.5833331072536865  0.5888645449708036  0.4236334174609411
  0.7500000200000017  0.8388314954572422  0.5764195186098746
  0.9166668517463137  0.5888645449708036  0.4236334174609411
  0.2500000000000000  0.2193891307960101  0.6554800370912304
  0.2500000000000000  0.3390066433824472  0.4749661005095476
  0.0833331655202230  0.2084124883753162  0.3444340867776603
  0.0833331753849293  0.4712307599368870  0.3430991893491395
  0.2500000000000000  0.4567777589735442  0.6569059349155779
  0.0833333201115707  0.0886771683322038  0.5250617014490473
  0.5833331101614334  0.2193890401079983  0.6554800806808316
  0.5833333151465823  0.3390067163788899  0.4749662188848021
  0.4166668294797802  0.2084124883753162  0.3444340867776603
  0.4166668196150738  0.4712307599368870  0.3430991893491395
  0.5833331828610113  0.4567777775174591  0.6569059708101008
  0.4166666748884325  0.0886771683322038  0.5250617014490473
  0.9166668488385668  0.2193890401079983  0.6554800806808316
  0.9166666438534179  0.3390067163788899  0.4749662188848021
  0.7500000200000017  0.2084124836000356  0.3444340942559450
  0.7500000200000017  0.4712307999190628  0.3430992271177402
  0.9166667761389888  0.4567777775174591  0.6569059708101008
  0.7500000200000017  0.0886771611660393  0.5250618156271685
  0.2500000000000000  0.7193891107960084  0.6554800370912304
  0.2500000000000000  0.8390066843824471  0.4749661005095476
  0.0833331655202230  0.7084125093753144  0.3444340867776603
  0.0833331753849293  0.9712307599368870  0.3430991893491395
  0.2500000000000000  0.9567777189735409  0.6569059349155779
  0.0833333201115707  0.5886771883322055  0.5250617014490473
  0.5833331101614334  0.7193890201079967  0.6554800806808316
  0.5833333151465823  0.8390067573788897  0.4749662188848021
  0.4166668294797802  0.7084125093753144  0.3444340867776603
  0.4166668196150738  0.9712307599368870  0.3430991893491395
  0.5833331828610113  0.9567777375174558  0.6569059708101008
  0.4166666748884325  0.5886771883322055  0.5250617014490473
  0.9166668488385668  0.7193890201079967  0.6554800806808316
  0.9166666438534179  0.8390067573788897  0.4749662188848021
  0.7500000200000017  0.7084125046000338  0.3444340942559450
  0.7500000200000017  0.9712307999190628  0.3430992271177402
  0.9166667761389888  0.9567777375174558  0.6569059708101008
  0.7500000200000017  0.5886771811660410  0.5250618156271685
 
  0.00000000E+00  0.00000000E+00  0.00000000E+00
  0.00000000E+00  0.00000000E+00  0.00000000E+00
  0.00000000E+00  0.00000000E+00  0.00000000E+00
  0.00000000E+00  0.00000000E+00  0.00000000E+00
  0.00000000E+00  0.00000000E+00  0.00000000E+00
  0.00000000E+00  0.00000000E+00  0.00000000E+00
  0.00000000E+00  0.00000000E+00  0.00000000E+00
  0.00000000E+00  0.00000000E+00  0.00000000E+00
  0.00000000E+00  0.00000000E+00  0.00000000E+00
  0.00000000E+00  0.00000000E+00  0.00000000E+00
  0.00000000E+00  0.00000000E+00  0.00000000E+00
  0.00000000E+00  0.00000000E+00  0.00000000E+00
  0.00000000E+00  0.00000000E+00  0.00000000E+00
  0.00000000E+00  0.00000000E+00  0.00000000E+00
  0.00000000E+00  0.00000000E+00  0.00000000E+00
  0.00000000E+00  0.00000000E+00  0.00000000E+00
  0.00000000E+00  0.00000000E+00  0.00000000E+00
  0.00000000E+00  0.00000000E+00  0.00000000E+00
  0.00000000E+00  0.00000000E+00  0.00000000E+00
  0.00000000E+00  0.00000000E+00  0.00000000E+00
  0.00000000E+00  0.00000000E+00  0.00000000E+00
  0.00000000E+00  0.00000000E+00  0.00000000E+00
  0.00000000E+00  0.00000000E+00  0.00000000E+00
  0.00000000E+00  0.00000000E+00  0.00000000E+00
  0.00000000E+00  0.00000000E+00  0.00000000E+00
  0.00000000E+00  0.00000000E+00  0.00000000E+00
  0.00000000E+00  0.00000000E+00  0.00000000E+00
  0.00000000E+00  0.00000000E+00  0.00000000E+00
  0.00000000E+00  0.00000000E+00  0.00000000E+00
  0.00000000E+00  0.00000000E+00  0.00000000E+00
  0.00000000E+00  0.00000000E+00  0.00000000E+00
  0.00000000E+00  0.00000000E+00  0.00000000E+00
  0.00000000E+00  0.00000000E+00  0.00000000E+00
  0.00000000E+00  0.00000000E+00  0.00000000E+00
  0.00000000E+00  0.00000000E+00  0.00000000E+00
  0.00000000E+00  0.00000000E+00  0.00000000E+00
  0.00000000E+00  0.00000000E+00  0.00000000E+00
  0.00000000E+00  0.00000000E+00  0.00000000E+00
  0.00000000E+00  0.00000000E+00  0.00000000E+00
  0.00000000E+00  0.00000000E+00  0.00000000E+00
  0.00000000E+00  0.00000000E+00  0.00000000E+00
  0.00000000E+00  0.00000000E+00  0.00000000E+00
  0.00000000E+00  0.00000000E+00  0.00000000E+00
  0.00000000E+00  0.00000000E+00  0.00000000E+00
  0.00000000E+00  0.00000000E+00  0.00000000E+00
  0.00000000E+00  0.00000000E+00  0.00000000E+00
  0.00000000E+00  0.00000000E+00  0.00000000E+00
  0.00000000E+00  0.00000000E+00  0.00000000E+00
