CONTCAR\(9)                             
   1.00000000000000     
    11.3970003127999995    0.0000000000000000    0.0000000000000000
    -5.6736486034000002    9.8767870360999996    0.0000000000000000
     0.0000000000000000    0.0000000000000000   16.9332008362000010
   Mn   Cu   O 
    12     4    32
Direct
  0.9999999970000033  0.2500000040000003  0.5000000000000000
  0.2500000000000000  0.0000000000000000  0.5000000000000000
 -0.0000000000000000  0.0000000000000000  0.5000000000000000
  0.4999999970000033  0.2500000040000003  0.5000000000000000
  0.7500000209999982  0.0000000000000000  0.5000000000000000
  0.5000000000000000  0.0000000000000000  0.5000000000000000
  0.9999999899999992  0.7500000109999974  0.5000000000000000
  0.2499999939999995  0.5000000080000007  0.5000000000000000
  0.9999999939999995  0.5000000080000007  0.5000000000000000
  0.4999999899999992  0.7500000109999974  0.5000000000000000
  0.7500000149999977  0.5000000080000007  0.5000000000000000
  0.4999999939999995  0.5000000080000007  0.5000000000000000
  0.2499999970000033  0.2500000040000003  0.5000000000000000
  0.7500000180000015  0.2500000040000003  0.5000000000000000
  0.2499999899999992  0.7500000109999974  0.5000000000000000
  0.7500000109999974  0.7500000109999974  0.5000000000000000
  0.0834042210193116  0.4166237496862473  0.5583141453077017
  0.3361150495069842  0.4220123792505432  0.5572670483206315
  0.0780332745303151  0.1639252044071615  0.5572583155433413
  0.4165957959806934  0.0833762223137504  0.4416858546922983
  0.3357007574506978  0.1643393523135414  0.5571251523762145
  0.1638849364930147  0.0779876347494508  0.4427329806793673
  0.4219667304696818  0.3360748155928402  0.4427416844566588
  0.1642992315492978  0.3356606666864566  0.4428748476237855
  0.5834042630193079  0.4166237496862473  0.5583141453077017
  0.8361150495069841  0.4220123792505432  0.5572670483206315
  0.5780332695303182  0.1639252044071615  0.5572583155433413
  0.9165956709806937  0.0833762223137504  0.4416858546922983
  0.8357008204506994  0.1643393523135414  0.5571251523762145
  0.6638849894930156  0.0779876347494508  0.4427329806793673
  0.9219666884696854  0.3360748155928402  0.4427416844566588
  0.6642992215492970  0.3356606666864566  0.4428748476237855
  0.0834042390193060  0.9166238046862483  0.5583141453077017
  0.3361150635069853  0.9220123872505439  0.5572670483206315
  0.0780332775303189  0.6639252004071612  0.5572583155433413
  0.4165957839806924  0.5833762173137536  0.4416858546922983
  0.3357007484507006  0.6643393963135380  0.5571251523762145
  0.1638849304930142  0.5779876837494513  0.4427329806793673
  0.4219666824696849  0.8360748225928372  0.4427416844566588
  0.1642992145492999  0.8356606746864572  0.4428748476237855
  0.5834042390193059  0.9166238046862483  0.5583141453077017
  0.8361150435069836  0.9220123872505439  0.5572670483206315
  0.5780332775303189  0.6639252004071612  0.5572583155433413
  0.9165956999806926  0.5833762173137536  0.4416858546922983
  0.8357008324507004  0.6643393963135380  0.5571251523762145
  0.6638849614930132  0.5779876837494513  0.4427329806793673
  0.9219666404696815  0.8360748225928372  0.4427416844566588
  0.6642992145493000  0.8356606746864572  0.4428748476237855
 
  0.00000000E+00  0.00000000E+00  0.00000000E+00
  0.00000000E+00  0.00000000E+00  0.00000000E+00
  0.00000000E+00  0.00000000E+00  0.00000000E+00
  0.00000000E+00  0.00000000E+00  0.00000000E+00
  0.00000000E+00  0.00000000E+00  0.00000000E+00
  0.00000000E+00  0.00000000E+00  0.00000000E+00
  0.00000000E+00  0.00000000E+00  0.00000000E+00
  0.00000000E+00  0.00000000E+00  0.00000000E+00
  0.00000000E+00  0.00000000E+00  0.00000000E+00
  0.00000000E+00  0.00000000E+00  0.00000000E+00
  0.00000000E+00  0.00000000E+00  0.00000000E+00
  0.00000000E+00  0.00000000E+00  0.00000000E+00
  0.00000000E+00  0.00000000E+00  0.00000000E+00
  0.00000000E+00  0.00000000E+00  0.00000000E+00
  0.00000000E+00  0.00000000E+00  0.00000000E+00
  0.00000000E+00  0.00000000E+00  0.00000000E+00
  0.00000000E+00  0.00000000E+00  0.00000000E+00
  0.00000000E+00  0.00000000E+00  0.00000000E+00
  0.00000000E+00  0.00000000E+00  0.00000000E+00
  0.00000000E+00  0.00000000E+00  0.00000000E+00
  0.00000000E+00  0.00000000E+00  0.00000000E+00
  0.00000000E+00  0.00000000E+00  0.00000000E+00
  0.00000000E+00  0.00000000E+00  0.00000000E+00
  0.00000000E+00  0.00000000E+00  0.00000000E+00
  0.00000000E+00  0.00000000E+00  0.00000000E+00
  0.00000000E+00  0.00000000E+00  0.00000000E+00
  0.00000000E+00  0.00000000E+00  0.00000000E+00
  0.00000000E+00  0.00000000E+00  0.00000000E+00
  0.00000000E+00  0.00000000E+00  0.00000000E+00
  0.00000000E+00  0.00000000E+00  0.00000000E+00
  0.00000000E+00  0.00000000E+00  0.00000000E+00
  0.00000000E+00  0.00000000E+00  0.00000000E+00
  0.00000000E+00  0.00000000E+00  0.00000000E+00
  0.00000000E+00  0.00000000E+00  0.00000000E+00
  0.00000000E+00  0.00000000E+00  0.00000000E+00
  0.00000000E+00  0.00000000E+00  0.00000000E+00
  0.00000000E+00  0.00000000E+00  0.00000000E+00
  0.00000000E+00  0.00000000E+00  0.00000000E+00
  0.00000000E+00  0.00000000E+00  0.00000000E+00
  0.00000000E+00  0.00000000E+00  0.00000000E+00
  0.00000000E+00  0.00000000E+00  0.00000000E+00
  0.00000000E+00  0.00000000E+00  0.00000000E+00
  0.00000000E+00  0.00000000E+00  0.00000000E+00
  0.00000000E+00  0.00000000E+00  0.00000000E+00
  0.00000000E+00  0.00000000E+00  0.00000000E+00
  0.00000000E+00  0.00000000E+00  0.00000000E+00
  0.00000000E+00  0.00000000E+00  0.00000000E+00
  0.00000000E+00  0.00000000E+00  0.00000000E+00
