 Sr4 Co2 Cl2 O6                         
   1.00000000000000     
     3.7778698935586301    0.0000000000000000    0.0000000000000000
     0.0000000000000000    3.7778698880913386    0.0000000000000000
     0.0000000000000000    0.0000000000000000   27.5830699594799995
   Sr   Co   Cl   O 
     4     2     2     6
Direct
  0.5000000040443808  0.0000000097823971  0.4506412486855709
  0.0000000036095997  0.4999999880029407  0.5493502088675442
  0.4999999881894865  0.0000000079957587  0.3170857235998028
  0.0000000039651056  0.4999999876574961  0.6829224402353375
  0.9999999978291143  0.5000000046810342  0.3879868468815317
  0.5000000040367496  0.9999999966061139  0.6120096571736937
  0.9999999836923763  0.4999999972655758  0.2689366487294578
  0.4999999956169390  0.9999999998155928  0.7310689358766638
  0.5000000105913216  0.9999999987168806  0.5398641969728502
  0.0000000034809915  0.5000000042090136  0.4601341208907499
  0.5000000031729925  0.4999999991053201  0.6217970289369035
  0.4999999981995202  0.5000000065799028  0.3782029573530323
  0.9999999979577936  0.9999999984832115  0.3782029575818413
  0.0000000056136358  0.0000000010987691  0.6217970282150347
 
  0.00000000E+00  0.00000000E+00  0.00000000E+00
  0.00000000E+00  0.00000000E+00  0.00000000E+00
  0.00000000E+00  0.00000000E+00  0.00000000E+00
  0.00000000E+00  0.00000000E+00  0.00000000E+00
  0.00000000E+00  0.00000000E+00  0.00000000E+00
  0.00000000E+00  0.00000000E+00  0.00000000E+00
  0.00000000E+00  0.00000000E+00  0.00000000E+00
  0.00000000E+00  0.00000000E+00  0.00000000E+00
  0.00000000E+00  0.00000000E+00  0.00000000E+00
  0.00000000E+00  0.00000000E+00  0.00000000E+00
  0.00000000E+00  0.00000000E+00  0.00000000E+00
  0.00000000E+00  0.00000000E+00  0.00000000E+00
  0.00000000E+00  0.00000000E+00  0.00000000E+00
  0.00000000E+00  0.00000000E+00  0.00000000E+00
