CONTCAR                                 
   1.00000000000000     
     7.2109999657000001    0.0000000000000000    0.0000000000000000
    -3.6054999828000001    6.2449091570000004    0.0000000000000000
     0.0000000000000000    0.0000000000000000   21.0000000000000000
   H    O    Co   Te
    40    28     4     8
Direct
  0.8469158860752967  0.9989400858209423  0.0848679565391978
  0.8129663368155053  0.8493271345927511  0.1878189730445121
  0.4816020919300396  0.1029003168519232  0.5047317091789256
  0.1950933314615127  0.0101231702754578  0.4357606562205629
  0.3789000927353565  0.8256017416621949  0.3346862960683255
  0.3797848101949485  0.9291511485910416  0.2490499185008872
  0.5830380697538149  0.4280770373521813  0.6047223462369801
  0.4024536342883666  0.2845078753086085  0.5547810808252579
  0.9174788111920255  0.7945913881349763  0.3629604226170028
  0.2579022505873963  0.9651115214712578  0.3491767775105952
  0.3369289540669234  0.4506967669121251  0.0858365253345415
  0.4938794588373193  0.6343625456395867  0.1395411065379141
  0.6676648029669376  0.9824619910848487  0.5402071822054274
  0.8009064864343948  0.1519333916173777  0.4850831762114490
  0.1211633909669684  0.8728450690732040  0.2157660530017641
  0.9197891139016945  0.7947395106384892  0.2626002174260260
  0.3578812536186748  0.2043352453672285  0.6478678207705664
  0.8163107754890613  0.3153332436743420  0.5733713317362595
  0.5575120277456067  0.6203770611348705  0.3373682980766614
  0.9592805078217764  0.3206134949620110  0.3891402085532796
  0.4126483099589250  0.0496213466613373  0.1852981185115598
  0.6211779436768182  0.9115459321115915  0.1676794085406553
  0.4288864899125096  0.7009543385671897  0.4390264753370676
  0.2568358993858567  0.9733494972202462  0.5369763241464484
  0.0663873372712772  0.1178768562784341  0.2324412044905421
  0.1385860159607809  0.3461693415603504  0.1966896680135532
  0.4287725595653471  0.6072305547367000  0.6246740808886708
  0.4675431501807379  0.8041452927784249  0.6645418963939894
  0.1420100557861991  0.4044551710464540  0.4429030640672516
  0.3310347218219929  0.5049270225406746  0.2975464438386616
  0.5012990457044276  0.3868649436292182  0.1507893282781771
  0.6881400961219621  0.3788997445968155  0.1942685719164151
  0.8196485928039986  0.6181310888278763  0.5373215403737818
  0.9001859033358801  0.7725032283281345  0.4798795220924560
  0.9268323856347959  0.2884466778042959  0.2818562123672086
  0.6868864318263262  0.1941376493671417  0.3125479900384279
  0.9836934723799516  0.5026832032709236  0.6167418853380845
  0.4421734191157985  0.5679031008056572  0.4912921061171675
  0.0414125306927078  0.0895123505791628  0.4073785409320211
  0.8311287531183235  0.5429448975727300  0.3313344146582798
  0.6858304421131309  0.8320345096508311  0.1547970645296897
  0.3365573653220419  0.0893676232612566  0.5068137103061136
  0.3880104650992202  0.9674151202449879  0.3285933073135915
  0.4255984019663311  0.3514988272328878  0.5986296881868175
  0.0920569607559157  0.9837412724712141  0.4009314572425409
  0.4955633538642977  0.2909025336005273  0.0265625135613141
  0.1613630030442995  0.9379676098019125  0.8158647958455316
  0.3509782267599586  0.4859601093774651  0.1309275126952047
  0.6883277116093636  0.1118484633941151  0.5185867090699888
  0.9904181207435927  0.8851477843126611  0.2231395009858458
  0.2987120010712623  0.0696086017386193  0.6821577645557273
  0.0059842006250450  0.2772781711180008  0.4291108270617551
  0.9273525841107593  0.1335093546004206  0.0576342218298165
  0.4843463801735321  0.8857801970946177  0.7554763696870695
  0.3450395996656460  0.9021736412125207  0.2021465121831140
  0.3657921191707044  0.6403657398719863  0.4795076870920274
  0.0873666117467205  0.2741392484283918  0.2408655911679096
  0.4544497294434600  0.7553950745502527  0.6203720888844626
  0.4131431902247753  0.6046189547443995  0.3321247761293041
  0.3844856294370326  0.5854383786389782  0.9912251179855139
  0.1110503014541807  0.5157154575508892  0.7666496186478430
  0.5765045950666778  0.3016261974751495  0.1616363714782965
  0.7982893264758666  0.7262708229037674  0.5131916300820333
  0.8333921066919693  0.3121685916942993  0.3125262285552494
  0.8372390640421581  0.4295183278303682  0.6027062811030370
  0.8135350027734308  0.6786442878167422  0.3304546579964900
  0.9277293429069609  0.7504360130192693  0.0447164870075747
  0.5242319502703512  0.5546423719748014  0.7799559134313517
  0.1796653363691590  0.4274872828008129  0.9255484920464436
  0.8410266484147779  0.4623060958954219  0.9177628580750028
  0.2926885072678362  0.9226678106048130  0.9011815504089942
  0.8582422319330127  0.1212404095190862  0.9628633372476531
  0.4330366201029078  0.1309902471436110  0.7618325334519359
  0.4418822821274098  0.2931980522319350  0.9332829402336233
  0.8824974260784592  0.1760305417525740  0.8508676701426983
  0.8338261072717295  0.4281480211487309  0.0347317723196255
  0.3498624646626929  0.6408430184489339  0.8241257492787718
  0.4751254696672793  0.8950089086838823  0.9950667055074496
  0.8731106311951882  0.5816884599219685  0.7910975804721914
  0.9409539385082348  0.8334230208353085  0.9521461309828979
 
 -0.11480455E-01  0.13927493E-01 -0.56637218E-02
 -0.61411143E-02 -0.14059420E-01  0.24884094E-01
  0.19750750E-01  0.10378075E-01 -0.22528470E-01
  0.69043701E-02 -0.85643020E-02  0.15953905E-01
  0.10716854E-01 -0.11157978E-01  0.66447834E-02
  0.16095554E-01 -0.81086446E-02 -0.28977257E-01
 -0.65825619E-02 -0.92872303E-02 -0.85147389E-02
 -0.13440266E-01 -0.32312950E-02 -0.11790238E-01
  0.11551521E-01 -0.12685571E-02 -0.33819149E-02
 -0.81909292E-02 -0.35982525E-01 -0.76860518E-02
 -0.93722481E-02 -0.22511063E-02  0.39776438E-02
 -0.12242004E-01 -0.30688445E-02 -0.28238834E-01
 -0.71844174E-02  0.17176003E-01  0.24941176E-02
  0.90007748E-03 -0.52218071E-02 -0.30032678E-02
  0.12828791E-01  0.39976768E-02 -0.12675503E-01
  0.91053335E-02 -0.48009290E-02  0.17844483E-01
  0.72179084E-02  0.66632744E-02  0.57191494E-03
  0.68992546E-02  0.12281467E-02  0.18059984E-01
  0.15588388E-01 -0.54553579E-02 -0.19448969E-01
  0.25109244E-02 -0.14702755E-01  0.12544149E-01
 -0.11866386E-01  0.59249292E-02 -0.94675493E-02
 -0.24047692E-01  0.11877635E-01 -0.29004175E-01
  0.15197974E-01 -0.34030796E-01 -0.14477928E-01
 -0.57660533E-02  0.21432753E-02  0.36420931E-02
  0.13345368E-01 -0.27064278E-01  0.17891818E-01
  0.29772221E-01  0.92821069E-02  0.76078445E-02
  0.19762015E-01  0.66475306E-02  0.10759088E-01
  0.16724123E-01  0.11206812E-01  0.44145741E-02
  0.58069543E-02  0.12261500E-01  0.44919015E-02
  0.42307856E-02  0.10796181E-01 -0.25195613E-04
  0.31365448E-01 -0.11932477E-01  0.16831250E-01
  0.14116235E-01 -0.24780527E-01 -0.18326083E-01
  0.11413482E-01  0.88320754E-02 -0.41949583E-02
  0.65145985E-02 -0.71726288E-02 -0.14592414E-01
  0.11540941E-01  0.38841739E-02  0.38536476E-02
  0.19642475E-01 -0.10074609E-02 -0.17589003E-01
 -0.36152302E-02  0.87474189E-02  0.24208625E-01
  0.36862466E-01  0.18773397E-01  0.58208585E-02
  0.28507664E-02 -0.47574773E-02  0.10405985E-01
 -0.25219981E-01  0.18274741E-01 -0.84680174E-02
  0.92134281E-02  0.11910717E-02  0.51695134E-02
  0.25644479E-02 -0.10513806E-02 -0.54848369E-03
 -0.69363728E-03  0.44612315E-03 -0.41370280E-02
 -0.25590198E-02 -0.16051165E-02  0.83530714E-03
 -0.68365608E-02 -0.47177740E-02  0.56407881E-02
  0.10727715E-02 -0.30215206E-02  0.14969559E-02
  0.31387111E-02 -0.33261876E-02  0.95290967E-02
 -0.46232317E-02  0.69785470E-02  0.22073972E-02
 -0.32188923E-02 -0.22567560E-02 -0.37808873E-02
  0.12915433E-03  0.53853548E-03  0.36335186E-02
  0.17897718E-02 -0.33408976E-02 -0.70227151E-02
 -0.10996555E-02  0.16212775E-03 -0.98864390E-03
  0.29900707E-02  0.74171304E-02  0.38993601E-02
  0.63655680E-02 -0.87827570E-02  0.38907787E-02
 -0.40668290E-02 -0.69829961E-02  0.28577447E-02
  0.57462969E-02 -0.18991400E-02 -0.57727044E-02
 -0.15465615E-02  0.32384592E-02  0.36871012E-02
 -0.12288402E-02  0.93650589E-03 -0.16422814E-02
 -0.24715115E-02 -0.50247210E-02  0.87687882E-03
 -0.54737247E-02  0.26154874E-02  0.61517319E-02
 -0.75011665E-02 -0.14231909E-02  0.49245650E-03
 -0.80805364E-02 -0.66371710E-02  0.79103274E-03
  0.10710177E-02 -0.49585016E-02  0.11063085E-02
 -0.73070656E-02  0.49932123E-02  0.19199804E-02
  0.89526683E-02  0.19564503E-02 -0.32400161E-02
  0.17181382E-02 -0.51981556E-03  0.96018932E-05
  0.21906987E-02  0.49780084E-02 -0.15804673E-03
 -0.10866776E-02  0.70517293E-02  0.25980999E-02
  0.23906761E-02 -0.96081519E-03  0.10408733E-02
 -0.25778511E-03 -0.57555561E-04  0.43509171E-02
  0.29245893E-02  0.22116961E-02 -0.34525930E-02
  0.82350029E-03  0.10186620E-02  0.63458190E-03
  0.26636194E-02  0.60767290E-03  0.18019696E-02
 -0.25521203E-02 -0.20261367E-02 -0.18557427E-03
 -0.17077190E-02 -0.62486847E-03 -0.39235482E-03
 -0.26196397E-02  0.80769757E-03  0.12457421E-02
  0.10389357E-02  0.12908587E-02 -0.37210552E-02
 -0.21625861E-02  0.20255689E-02 -0.82237859E-03
  0.75786477E-03 -0.45335406E-03  0.32396286E-04
  0.15484838E-02 -0.57542075E-03 -0.24146585E-02
 
           1
   1.00000000000000     
  0.10140155E+06 -0.52019556E+03  0.62524167E-18  0.00000000E+00
  0.84643892E+00  0.11703014E-02  0.84598255E-01
  0.81098903E+00  0.84707579E+00  0.18900393E+00
  0.48517199E+00  0.10456216E+00  0.50365892E+00
  0.19536511E+00  0.87517649E-02  0.43652037E+00
  0.37949291E+00  0.82381501E+00  0.33500271E+00
  0.38136767E+00  0.92785271E+00  0.24767005E+00
  0.58138164E+00  0.42658987E+00  0.60431688E+00
  0.40033106E+00  0.28399045E+00  0.55421964E+00
  0.91897917E+00  0.79438825E+00  0.36279938E+00
  0.25388541E+00  0.95934962E+00  0.34881078E+00
  0.33544900E+00  0.45033630E+00  0.86025937E-01
  0.49193607E+00  0.63387113E+00  0.13819640E+00
  0.66804369E+00  0.98521239E+00  0.54032595E+00
  0.80061322E+00  0.15109722E+00  0.48494016E+00
  0.12326252E+00  0.87348522E+00  0.21516246E+00
  0.92066743E+00  0.79397074E+00  0.26344995E+00
  0.35941571E+00  0.20540224E+00  0.64789505E+00
  0.81736588E+00  0.31552991E+00  0.57423133E+00
  0.55923699E+00  0.61950349E+00  0.33644216E+00
  0.95845154E+00  0.31825914E+00  0.38973755E+00
  0.41147710E+00  0.50570108E-01  0.18484728E+00
  0.61879407E+00  0.91344790E+00  0.16629826E+00
  0.42826942E+00  0.69550497E+00  0.43833705E+00
  0.25620788E+00  0.97369270E+00  0.53714976E+00
  0.66071126E-01  0.11354304E+00  0.23329320E+00
  0.14345791E+00  0.34765569E+00  0.19705195E+00
  0.43204533E+00  0.60829503E+00  0.62518642E+00
  0.47075968E+00  0.80593984E+00  0.66475211E+00
  0.14379707E+00  0.40641861E+00  0.44311696E+00
  0.33248583E+00  0.50665582E+00  0.29754524E+00
  0.50469334E+00  0.38495419E+00  0.15159082E+00
  0.68811364E+00  0.37493163E+00  0.19339590E+00
  0.82193852E+00  0.61954537E+00  0.53712178E+00
  0.90051505E+00  0.77135467E+00  0.47918465E+00
  0.92874384E+00  0.28906865E+00  0.28203972E+00
  0.68952973E+00  0.19397632E+00  0.31171042E+00
  0.98389249E+00  0.50408393E+00  0.61789468E+00
  0.44878849E+00  0.57090929E+00  0.49156929E+00
  0.41426958E-01  0.88750534E-01  0.40787406E+00
  0.82909449E+00  0.54587124E+00  0.33093118E+00
  0.68720350E+00  0.83222524E+00  0.15504323E+00
  0.33682882E+00  0.89199265E-01  0.50678759E+00
  0.38794999E+00  0.96748656E+00  0.32839631E+00
  0.42511501E+00  0.35124180E+00  0.59866946E+00
  0.90731157E-01  0.98298581E+00  0.40120007E+00
  0.49547020E+00  0.29041870E+00  0.26633797E-01
  0.16153196E+00  0.93743499E+00  0.81631856E+00
  0.35089583E+00  0.48707759E+00  0.13103263E+00
  0.68770064E+00  0.11148709E+00  0.51840667E+00
  0.99047915E+00  0.88523402E+00  0.22331253E+00
  0.29869271E+00  0.69073622E-01  0.68182335E+00
  0.58446845E-02  0.27730413E+00  0.42906375E+00
  0.92836109E+00  0.13469706E+00  0.57819906E-01
  0.48452594E+00  0.88437381E+00  0.75566164E+00
  0.34391653E+00  0.90105545E+00  0.20228260E+00
  0.36643694E+00  0.64006163E+00  0.47923280E+00
  0.87411427E-01  0.27465782E+00  0.24104117E+00
  0.45435430E+00  0.75554504E+00  0.62029389E+00
  0.41239814E+00  0.60381434E+00  0.33216653E+00
  0.38393596E+00  0.58585720E+00  0.99151806E+00
  0.10989611E+00  0.51548756E+00  0.76667307E+00
  0.57485260E+00  0.30056338E+00  0.16167404E+00
  0.79804085E+00  0.72547682E+00  0.51324431E+00
  0.83277857E+00  0.31296816E+00  0.31261766E+00
  0.83863724E+00  0.42983162E+00  0.60255199E+00
  0.81373165E+00  0.67856105E+00  0.33045512E+00
  0.92843171E+00  0.75123314E+00  0.44708961E-01
  0.52464585E+00  0.55577157E+00  0.78007963E+00
  0.17991994E+00  0.42733343E+00  0.92559806E+00
  0.84098629E+00  0.46229688E+00  0.91797004E+00
  0.29327116E+00  0.92302197E+00  0.90101714E+00
  0.85843799E+00  0.12140353E+00  0.96289356E+00
  0.43345466E+00  0.13108755E+00  0.76191834E+00
  0.44136614E+00  0.29287361E+00  0.93327410E+00
  0.88221057E+00  0.17593048E+00  0.85084899E+00
  0.83352749E+00  0.42827736E+00  0.34791093E-01
  0.35010989E+00  0.64104972E+00  0.82394856E+00
  0.47498775E+00  0.89533326E+00  0.99502754E+00
  0.87317943E+00  0.58161586E+00  0.79109912E+00
  0.94112261E+00  0.83333088E+00  0.95203115E+00
 -0.67020631E-03  0.16678044E-02 -0.12537593E-03
 -0.12889386E-02 -0.22077385E-02  0.14804480E-02
  0.32212108E-02  0.18331041E-02 -0.10715475E-02
  0.17224981E-03 -0.15076632E-02  0.63748476E-03
  0.55978862E-03 -0.17891201E-02  0.29727601E-03
  0.16799295E-02 -0.12232475E-02 -0.13159287E-02
 -0.16042614E-02 -0.13190719E-02 -0.41383377E-03
 -0.17867318E-02 -0.58627941E-04 -0.61712001E-03
  0.19362604E-02  0.64406940E-03 -0.22299708E-04
 -0.47769028E-02 -0.58621754E-02 -0.26335921E-03
 -0.15129561E-02 -0.47492808E-03  0.25786432E-03
 -0.14935358E-02 -0.10736774E-03 -0.12578583E-02
  0.53562727E-03  0.29530245E-02  0.12043945E-03
 -0.26893139E-03 -0.88063311E-03 -0.15616955E-03
  0.14851842E-02  0.66633017E-03 -0.40344955E-03
  0.89107373E-03 -0.88749032E-03  0.78357826E-03
  0.17599891E-02  0.15677078E-02 -0.21141581E-04
  0.11798921E-02  0.60689576E-03  0.92803017E-03
  0.16611435E-02 -0.77675225E-03 -0.79524373E-03
 -0.79886809E-03 -0.21157582E-02  0.52647729E-03
 -0.15102466E-02  0.41296845E-03 -0.35052734E-03
 -0.18453026E-02  0.11715811E-02 -0.15672029E-02
 -0.83103908E-03 -0.57293415E-02 -0.53035673E-03
 -0.62189798E-03  0.36381024E-03  0.18343986E-03
 -0.26028471E-03 -0.51643884E-02  0.73130932E-03
  0.50536382E-02  0.18327683E-02  0.40348207E-04
  0.31880967E-02  0.60277035E-03  0.58671934E-03
  0.32469026E-02  0.17437027E-02  0.17930449E-03
  0.17428929E-02  0.18172151E-02  0.16473985E-03
  0.12701248E-02  0.17788525E-02 -0.32461093E-04
  0.34724696E-02 -0.16122029E-02  0.74420407E-03
  0.41088444E-03 -0.38062734E-02 -0.74091905E-03
  0.22348324E-02  0.89075535E-03 -0.13903284E-03
 -0.35383754E-03 -0.14707051E-02 -0.43184040E-03
  0.17152666E-02  0.72169370E-03  0.32710550E-03
  0.29776829E-02  0.18959090E-03 -0.84186764E-03
 -0.16457276E-03  0.12070731E-02  0.11106307E-02
  0.61405850E-02  0.29578491E-02  0.17851687E-03
 -0.24332583E-03 -0.12129240E-02  0.45304969E-03
 -0.19919001E-02  0.20191849E-02 -0.37513928E-03
  0.12955128E-02  0.22657297E-03  0.24634265E-03
  0.31941085E-03 -0.16586063E-03 -0.21403856E-04
 -0.31784919E-04  0.79289716E-04 -0.20043888E-03
 -0.50946068E-03 -0.29758977E-03  0.36226262E-04
 -0.13128138E-02 -0.72566226E-03  0.27420383E-03
 -0.11609527E-03 -0.48169510E-03  0.71219431E-04
  0.16319639E-03 -0.52764300E-03  0.45356139E-03
 -0.10271442E-03  0.11093536E-02  0.93389549E-04
 -0.67120895E-03 -0.37161995E-03 -0.17975286E-03
  0.10578217E-03  0.10505662E-03  0.15779201E-03
 -0.34128184E-05 -0.55077555E-03 -0.31702878E-03
 -0.11507864E-03  0.24985420E-04 -0.39303211E-04
  0.10191852E-02  0.11901102E-02  0.19499363E-03
  0.16068685E-03 -0.14327143E-02  0.17843684E-03
 -0.11133908E-02 -0.11008913E-02  0.12443488E-03
  0.68988969E-03 -0.27833697E-03 -0.27262948E-03
  0.28802288E-05  0.52646221E-03  0.20207144E-03
 -0.94677117E-04  0.17228885E-03 -0.80966798E-04
 -0.72039935E-03 -0.81294871E-03  0.36217147E-04
 -0.55951885E-03  0.39893109E-03  0.29661732E-03
 -0.11769746E-02 -0.24902453E-03  0.26562467E-04
 -0.16678539E-02 -0.10790944E-02  0.31438754E-04
 -0.20616829E-03 -0.74020523E-03  0.32521230E-04
 -0.60926596E-03  0.75538524E-03  0.76011521E-04
  0.14124912E-02  0.28906391E-03 -0.15420430E-03
  0.16522579E-03 -0.60082879E-04 -0.68357409E-05
  0.71305372E-03  0.81621761E-03  0.12379819E-05
  0.41702710E-03  0.11651200E-02  0.12512546E-03
  0.24311748E-03 -0.16065651E-03  0.51429373E-04
 -0.37506723E-04 -0.99423670E-05  0.20691523E-03
  0.59116511E-03  0.35610139E-03 -0.16437397E-03
  0.20093575E-03  0.17615747E-03  0.25910947E-04
  0.41721595E-03  0.98790012E-04  0.82765895E-04
 -0.51708995E-03 -0.32597884E-03 -0.75514817E-05
 -0.28769796E-03 -0.10258728E-03 -0.18853909E-04
 -0.29660511E-03  0.13185533E-03  0.58334860E-04
  0.24294082E-03  0.20237926E-03 -0.17632203E-03
 -0.13325447E-03  0.32715952E-03 -0.39580916E-04
  0.73721877E-04 -0.71851186E-04  0.89078332E-06
  0.16717556E-03 -0.91358789E-04 -0.11517467E-03
  0.00000000E+00  0.00000000E+00  0.00000000E+00
  0.00000000E+00  0.00000000E+00  0.00000000E+00
  0.00000000E+00  0.00000000E+00  0.00000000E+00
  0.00000000E+00  0.00000000E+00  0.00000000E+00
  0.00000000E+00  0.00000000E+00  0.00000000E+00
  0.00000000E+00  0.00000000E+00  0.00000000E+00
  0.00000000E+00  0.00000000E+00  0.00000000E+00
  0.00000000E+00  0.00000000E+00  0.00000000E+00
  0.00000000E+00  0.00000000E+00  0.00000000E+00
  0.00000000E+00  0.00000000E+00  0.00000000E+00
  0.00000000E+00  0.00000000E+00  0.00000000E+00
  0.00000000E+00  0.00000000E+00  0.00000000E+00
  0.00000000E+00  0.00000000E+00  0.00000000E+00
  0.00000000E+00  0.00000000E+00  0.00000000E+00
  0.00000000E+00  0.00000000E+00  0.00000000E+00
  0.00000000E+00  0.00000000E+00  0.00000000E+00
  0.00000000E+00  0.00000000E+00  0.00000000E+00
  0.00000000E+00  0.00000000E+00  0.00000000E+00
  0.00000000E+00  0.00000000E+00  0.00000000E+00
  0.00000000E+00  0.00000000E+00  0.00000000E+00
  0.00000000E+00  0.00000000E+00  0.00000000E+00
  0.00000000E+00  0.00000000E+00  0.00000000E+00
  0.00000000E+00  0.00000000E+00  0.00000000E+00
  0.00000000E+00  0.00000000E+00  0.00000000E+00
  0.00000000E+00  0.00000000E+00  0.00000000E+00
  0.00000000E+00  0.00000000E+00  0.00000000E+00
  0.00000000E+00  0.00000000E+00  0.00000000E+00
  0.00000000E+00  0.00000000E+00  0.00000000E+00
  0.00000000E+00  0.00000000E+00  0.00000000E+00
  0.00000000E+00  0.00000000E+00  0.00000000E+00
  0.00000000E+00  0.00000000E+00  0.00000000E+00
  0.00000000E+00  0.00000000E+00  0.00000000E+00
  0.00000000E+00  0.00000000E+00  0.00000000E+00
  0.00000000E+00  0.00000000E+00  0.00000000E+00
  0.00000000E+00  0.00000000E+00  0.00000000E+00
  0.00000000E+00  0.00000000E+00  0.00000000E+00
  0.00000000E+00  0.00000000E+00  0.00000000E+00
  0.00000000E+00  0.00000000E+00  0.00000000E+00
  0.00000000E+00  0.00000000E+00  0.00000000E+00
  0.00000000E+00  0.00000000E+00  0.00000000E+00
  0.00000000E+00  0.00000000E+00  0.00000000E+00
  0.00000000E+00  0.00000000E+00  0.00000000E+00
  0.00000000E+00  0.00000000E+00  0.00000000E+00
  0.00000000E+00  0.00000000E+00  0.00000000E+00
  0.00000000E+00  0.00000000E+00  0.00000000E+00
  0.00000000E+00  0.00000000E+00  0.00000000E+00
  0.00000000E+00  0.00000000E+00  0.00000000E+00
  0.00000000E+00  0.00000000E+00  0.00000000E+00
  0.00000000E+00  0.00000000E+00  0.00000000E+00
  0.00000000E+00  0.00000000E+00  0.00000000E+00
  0.00000000E+00  0.00000000E+00  0.00000000E+00
  0.00000000E+00  0.00000000E+00  0.00000000E+00
  0.00000000E+00  0.00000000E+00  0.00000000E+00
  0.00000000E+00  0.00000000E+00  0.00000000E+00
  0.00000000E+00  0.00000000E+00  0.00000000E+00
  0.00000000E+00  0.00000000E+00  0.00000000E+00
  0.00000000E+00  0.00000000E+00  0.00000000E+00
  0.00000000E+00  0.00000000E+00  0.00000000E+00
  0.00000000E+00  0.00000000E+00  0.00000000E+00
  0.00000000E+00  0.00000000E+00  0.00000000E+00
  0.00000000E+00  0.00000000E+00  0.00000000E+00
  0.00000000E+00  0.00000000E+00  0.00000000E+00
  0.00000000E+00  0.00000000E+00  0.00000000E+00
  0.00000000E+00  0.00000000E+00  0.00000000E+00
  0.00000000E+00  0.00000000E+00  0.00000000E+00
  0.00000000E+00  0.00000000E+00  0.00000000E+00
  0.00000000E+00  0.00000000E+00  0.00000000E+00
  0.00000000E+00  0.00000000E+00  0.00000000E+00
  0.00000000E+00  0.00000000E+00  0.00000000E+00
  0.00000000E+00  0.00000000E+00  0.00000000E+00
  0.00000000E+00  0.00000000E+00  0.00000000E+00
  0.00000000E+00  0.00000000E+00  0.00000000E+00
  0.00000000E+00  0.00000000E+00  0.00000000E+00
  0.00000000E+00  0.00000000E+00  0.00000000E+00
  0.00000000E+00  0.00000000E+00  0.00000000E+00
  0.00000000E+00  0.00000000E+00  0.00000000E+00
  0.00000000E+00  0.00000000E+00  0.00000000E+00
  0.00000000E+00  0.00000000E+00  0.00000000E+00
  0.00000000E+00  0.00000000E+00  0.00000000E+00
  0.00000000E+00  0.00000000E+00  0.00000000E+00
