CONTCAR\(8)                             
   1.00000000000000     
    10.8789997101000004    0.0000000000000000    0.0000000000000000
     0.0000000000000000   14.0766000748000000    0.0000000000000000
     0.0000000000000000    0.0000000000000000   17.9612998961999999
   Cu   Br   O    H 
    12    12    25     1
Selective dynamics
Direct
  0.1563153176183363  0.3702866557138904  0.4985496036246886   F   F   F
  0.9827468293350776  0.1283777196584239  0.5064907063964839   F   F   F
  0.4994117253388382  0.3720739682361440  0.4541755665359517   F   F   F
  0.3253194998137303  0.1357906184169195  0.5035915370980106   F   F   F
  0.8242941665923595  0.3653592425712588  0.4999787455754756   F   F   F
  0.6510743978068234  0.1138757685813303  0.4887330534387786   F   F   F
  0.1666289559074627  0.8713605363968497  0.4993691407154657   F   F   F
  0.9917949848651517  0.6340279965726339  0.5062986037975534   F   F   F
  0.5006914417032391  0.8704870934344910  0.4987856747739485   F   F   F
  0.3236778113245364  0.6413635910434294  0.5051450320406659   F   F   F
  0.8336289861380877  0.8659835223865144  0.4945048640645311   F   F   F
  0.6615297738943156  0.6333638317951937  0.4992670007187741   F   F   F
  0.2086215658350099  0.2422047508742651  0.5868319349459270   F   F   F
  0.0167681251462923  0.2645404794504032  0.4241120763931008   F   F   F
  0.5838602183807140  0.2740054779023353  0.6430680305102427   F   F   F
  0.3501863309318907  0.2595097459651825  0.4080783680639115   F   F   F
  0.8497602596489529  0.2317118541759697  0.5886336875290752   F   F   F
  0.6710532120450807  0.2640747412717843  0.4244407710917031   F   F   F
  0.2001110657674232  0.7414801819629773  0.5880741404676471   F   F   F
  0.0358386607696062  0.7670289266164758  0.4199659991262550   F   F   F
  0.5315626851187147  0.7322864131771425  0.5806294336665729   F   F   F
  0.3651830351880392  0.7769762579222217  0.4182616994965827   F   F   F
  0.8614662136767066  0.7350295938498164  0.5839093856755611   F   F   F
  0.7034297464047299  0.7659841035794130  0.4130749110099572   F   F   F
  0.0961106633414346  0.4720301000631508  0.4372403475485740   F   F   F
  0.1266059763566716  0.0653697917565168  0.4632952252588112   F   F   F
  0.2817876166879216  0.4473767397860016  0.5451610298159011   F   F   F
  0.2776163338620066  0.0319382861435642  0.5675175461865791   F   F   F
  0.3961590848494936  0.4769119201398979  0.4274259506171063   F   F   F
  0.4702111717595940  0.0704761926067263  0.4640013131042551   F   F   F
  0.6055070680869790  0.4388071274567196  0.5210335157286679   F   F   F
  0.6316516874188380  0.0229905112066149  0.5651122450215027   F   F   F
  0.7773186666959973  0.4694937671277941  0.4353494141828165   F   F   F
  0.8083082134060149  0.0608821315157257  0.4553256176420177   F   F   F
  0.9529973948161654  0.4397852518597105  0.5473986825324815   F   F   F
  0.9458922592051593  0.0222289159434794  0.5695947454396020   F   F   F
  0.1153338810625328  0.9774589602759747  0.4390773353238018   F   F   F
  0.1150767299988615  0.5612285795921252  0.4551474851520396   F   F   F
  0.2968468182831572  0.9436574158199704  0.5466318970706396   F   F   F
  0.2591255350943413  0.5356280348370959  0.5625254483791124   F   F   F
  0.4575802866438181  0.9805266793613825  0.4398626143592423   F   F   F
  0.4281046178729682  0.5645559884809970  0.4430857038870926   F   F   F
  0.6380396717842345  0.9323167087358115  0.5459536645143785   F   F   F
  0.5799276571526235  0.5255076235473126  0.5432060344205283   F   F   F
  0.8001127087791531  0.9721909942151612  0.4301252182312538   F   F   F
  0.7919379199906160  0.5587908918708848  0.4548936704530888   F   F   F
  0.9640368078909134  0.9354195926569631  0.5450635147659355   F   F   F
  0.9330842188667319  0.5287003741738658  0.5661300033986549   F   F   F
  0.4454525948616777  0.3344243220482355  0.6807858093123116   T   T   T
  0.3775396839809986  0.3093599022232212  0.6489213530315566   T   T   T
 
  0.00000000E+00  0.00000000E+00  0.00000000E+00
  0.00000000E+00  0.00000000E+00  0.00000000E+00
  0.00000000E+00  0.00000000E+00  0.00000000E+00
  0.00000000E+00  0.00000000E+00  0.00000000E+00
  0.00000000E+00  0.00000000E+00  0.00000000E+00
  0.00000000E+00  0.00000000E+00  0.00000000E+00
  0.00000000E+00  0.00000000E+00  0.00000000E+00
  0.00000000E+00  0.00000000E+00  0.00000000E+00
  0.00000000E+00  0.00000000E+00  0.00000000E+00
  0.00000000E+00  0.00000000E+00  0.00000000E+00
  0.00000000E+00  0.00000000E+00  0.00000000E+00
  0.00000000E+00  0.00000000E+00  0.00000000E+00
  0.00000000E+00  0.00000000E+00  0.00000000E+00
  0.00000000E+00  0.00000000E+00  0.00000000E+00
  0.00000000E+00  0.00000000E+00  0.00000000E+00
  0.00000000E+00  0.00000000E+00  0.00000000E+00
  0.00000000E+00  0.00000000E+00  0.00000000E+00
  0.00000000E+00  0.00000000E+00  0.00000000E+00
  0.00000000E+00  0.00000000E+00  0.00000000E+00
  0.00000000E+00  0.00000000E+00  0.00000000E+00
  0.00000000E+00  0.00000000E+00  0.00000000E+00
  0.00000000E+00  0.00000000E+00  0.00000000E+00
  0.00000000E+00  0.00000000E+00  0.00000000E+00
  0.00000000E+00  0.00000000E+00  0.00000000E+00
  0.00000000E+00  0.00000000E+00  0.00000000E+00
  0.00000000E+00  0.00000000E+00  0.00000000E+00
  0.00000000E+00  0.00000000E+00  0.00000000E+00
  0.00000000E+00  0.00000000E+00  0.00000000E+00
  0.00000000E+00  0.00000000E+00  0.00000000E+00
  0.00000000E+00  0.00000000E+00  0.00000000E+00
  0.00000000E+00  0.00000000E+00  0.00000000E+00
  0.00000000E+00  0.00000000E+00  0.00000000E+00
  0.00000000E+00  0.00000000E+00  0.00000000E+00
  0.00000000E+00  0.00000000E+00  0.00000000E+00
  0.00000000E+00  0.00000000E+00  0.00000000E+00
  0.00000000E+00  0.00000000E+00  0.00000000E+00
  0.00000000E+00  0.00000000E+00  0.00000000E+00
  0.00000000E+00  0.00000000E+00  0.00000000E+00
  0.00000000E+00  0.00000000E+00  0.00000000E+00
  0.00000000E+00  0.00000000E+00  0.00000000E+00
  0.00000000E+00  0.00000000E+00  0.00000000E+00
  0.00000000E+00  0.00000000E+00  0.00000000E+00
  0.00000000E+00  0.00000000E+00  0.00000000E+00
  0.00000000E+00  0.00000000E+00  0.00000000E+00
  0.00000000E+00  0.00000000E+00  0.00000000E+00
  0.00000000E+00  0.00000000E+00  0.00000000E+00
  0.00000000E+00  0.00000000E+00  0.00000000E+00
  0.00000000E+00  0.00000000E+00  0.00000000E+00
  0.00000000E+00  0.00000000E+00  0.00000000E+00
  0.00000000E+00  0.00000000E+00  0.00000000E+00
