CONTCAR\(4)                             
   1.00000000000000     
    10.6176996231000000    0.0000000000000000    0.0000000000000000
     0.0000000000000000   17.6849002838000011    0.0000000000000000
     0.0000000000000000    0.0000000000000000   18.8054008484000015
   K    Fe   Se   O    H 
     8    16    24     1     1
Direct
  0.3755110418731253  0.2478907447222677  0.4105802893748707
  0.1235255561653284  0.2492322135109454  0.5891485424847190
  0.8753954622739105  0.2475241779455641  0.4115396562876636
  0.6256092911884056  0.2492667985205491  0.5894078277524025
  0.3750487675628364  0.7500668421564924  0.4034793317386466
  0.1493889258781317  0.7486566276392254  0.6222464960801107
  0.8756209239029725  0.7505110982285629  0.4115094350897239
  0.5990568894864723  0.7479150851807786  0.6234870929212495
  0.2506263325975209  0.0704012905066177  0.5006328567853177
  1.0002663061102752  0.0687081018126435  0.5017945081326826
  0.2504406060063331  0.9258084162881405  0.4955678496657102
  1.0000878912738502  0.9232159073650021  0.5004150318333588
  0.7502771405925537  0.0685575091254078  0.5017379961566919
  0.5000740297819227  0.0704927120832966  0.5007345714882124
  0.7503735219761460  0.9233849004169817  0.5004142967192747
  0.5001611842760607  0.9255232750714020  0.4958050825557268
  0.2494763803069858  0.5727310037894585  0.4931363542027825
  0.9998158145541994  0.5761947842215095  0.4982211144525245
  0.2498476725748095  0.4265678894255944  0.4971267406251997
  0.9998255076433153  0.4274427661577949  0.4989500894130363
  0.7501020301583433  0.5755968748945888  0.4971236095249257
  0.5004279331027442  0.5730174777239283  0.4924034921790059
  0.7502492898674568  0.4285122525255617  0.4986122514069411
  0.4997803112788664  0.4263031052291237  0.4971893745854937
  0.3755534645403573  1.0010901435411748  0.4239926050386818
  0.1278109559119145  0.9952768100638612  0.5732292258193888
  0.3750566099833759  0.1401995145274637  0.5723394164869610
  0.1237417902344281  0.1403811132935603  0.4307738654970098
  0.1236137558009569  0.8564259716212217  0.4262062112429965
  0.3749173249495137  0.8516908561982206  0.5604240579133435
  0.8752918463244971  0.9968723209788337  0.4276334731187312
  0.6229563149544954  0.9954305195615594  0.5733611409266309
  0.8748430654176403  0.1375864855010494  0.5738318282743790
  0.6272489037862525  0.1402664002964427  0.4307467088636943
  0.6271403078275822  0.8559550676444163  0.4265450864289800
  0.8750105861914729  0.8509209555234987  0.5693811479132278
  0.3735050784530549  0.4973648059403439  0.4206659977719929
  0.1278799847219147  0.5021828114706957  0.5706741168429639
  0.3738985218969766  0.6463210063029020  0.5589254443015850
  0.1249752466894292  0.6454799453036584  0.4246055248385653
  0.1245567447210909  0.3545314650886490  0.4267529320409973
  0.3728068445783924  0.3551430048176523  0.5694667183106793
  0.8749311334772727  0.5013136905297607  0.4245201187578873
  0.6240374897467033  0.5026289598660824  0.5703550315416270
  0.8720426017391153  0.6492659970311869  0.5675009109501149
  0.6280732490077546  0.6448303522569573  0.4238022616514380
  0.6294769814007800  0.3547785049867149  0.4272081658420768
  0.8722045644042637  0.3574790083782968  0.5720379122177541
  0.3740617361304761  0.7698300228724113  0.6833317914453892
  0.3739161846777646  0.8039322478620254  0.7241243675067124
 
  0.00000000E+00  0.00000000E+00  0.00000000E+00
  0.00000000E+00  0.00000000E+00  0.00000000E+00
  0.00000000E+00  0.00000000E+00  0.00000000E+00
  0.00000000E+00  0.00000000E+00  0.00000000E+00
  0.00000000E+00  0.00000000E+00  0.00000000E+00
  0.00000000E+00  0.00000000E+00  0.00000000E+00
  0.00000000E+00  0.00000000E+00  0.00000000E+00
  0.00000000E+00  0.00000000E+00  0.00000000E+00
  0.00000000E+00  0.00000000E+00  0.00000000E+00
  0.00000000E+00  0.00000000E+00  0.00000000E+00
  0.00000000E+00  0.00000000E+00  0.00000000E+00
  0.00000000E+00  0.00000000E+00  0.00000000E+00
  0.00000000E+00  0.00000000E+00  0.00000000E+00
  0.00000000E+00  0.00000000E+00  0.00000000E+00
  0.00000000E+00  0.00000000E+00  0.00000000E+00
  0.00000000E+00  0.00000000E+00  0.00000000E+00
  0.00000000E+00  0.00000000E+00  0.00000000E+00
  0.00000000E+00  0.00000000E+00  0.00000000E+00
  0.00000000E+00  0.00000000E+00  0.00000000E+00
  0.00000000E+00  0.00000000E+00  0.00000000E+00
  0.00000000E+00  0.00000000E+00  0.00000000E+00
  0.00000000E+00  0.00000000E+00  0.00000000E+00
  0.00000000E+00  0.00000000E+00  0.00000000E+00
  0.00000000E+00  0.00000000E+00  0.00000000E+00
  0.00000000E+00  0.00000000E+00  0.00000000E+00
  0.00000000E+00  0.00000000E+00  0.00000000E+00
  0.00000000E+00  0.00000000E+00  0.00000000E+00
  0.00000000E+00  0.00000000E+00  0.00000000E+00
  0.00000000E+00  0.00000000E+00  0.00000000E+00
  0.00000000E+00  0.00000000E+00  0.00000000E+00
  0.00000000E+00  0.00000000E+00  0.00000000E+00
  0.00000000E+00  0.00000000E+00  0.00000000E+00
  0.00000000E+00  0.00000000E+00  0.00000000E+00
  0.00000000E+00  0.00000000E+00  0.00000000E+00
  0.00000000E+00  0.00000000E+00  0.00000000E+00
  0.00000000E+00  0.00000000E+00  0.00000000E+00
  0.00000000E+00  0.00000000E+00  0.00000000E+00
  0.00000000E+00  0.00000000E+00  0.00000000E+00
  0.00000000E+00  0.00000000E+00  0.00000000E+00
  0.00000000E+00  0.00000000E+00  0.00000000E+00
  0.00000000E+00  0.00000000E+00  0.00000000E+00
  0.00000000E+00  0.00000000E+00  0.00000000E+00
  0.00000000E+00  0.00000000E+00  0.00000000E+00
  0.00000000E+00  0.00000000E+00  0.00000000E+00
  0.00000000E+00  0.00000000E+00  0.00000000E+00
  0.00000000E+00  0.00000000E+00  0.00000000E+00
  0.00000000E+00  0.00000000E+00  0.00000000E+00
  0.00000000E+00  0.00000000E+00  0.00000000E+00
  0.00000000E+00  0.00000000E+00  0.00000000E+00
  0.00000000E+00  0.00000000E+00  0.00000000E+00
