CONTCAR                                 
   1.00000000000000     
    14.0806999207000008    0.0000000000000000    0.0000000000000000
     0.0000000000000000   14.0806999207000008    0.0000000000000000
     0.0000000000000000    0.0000000000000000   21.7056999206999990
   Zr   Si   Se   O    H 
    32    32    32     1     1
Direct
  0.1251105531674094  0.0000110719326298  0.5997345003710054
  0.0004209396243286  0.1250451521220330  0.4000296628304418
  0.3753681869919538  0.0000080863639342  0.6000409852186861
  0.2505974169599438  0.1252099054983596  0.4005370309582508
  0.6257969818899922  0.0000000194737671  0.5996562794160283
  0.5002476894470314  0.1251773911207719  0.4004763842153095
  0.8754008863174870  0.0000075375162491  0.5994660078853177
  0.7504897877931807  0.1250440419960639  0.3999326271077062
  0.1233874376864966  0.2480224389427273  0.5996127455686897
  0.0006313403962677  0.3751756062663547  0.4005992110870596
  0.3756444565220776  0.2494765585182293  0.6011760638950636
  0.2508760162697020  0.3754298029143857  0.4021294785740141
  0.6273562969600962  0.2480428616006490  0.5995930647059514
  0.5000181870769312  0.3753968792193938  0.4020140789674978
  0.8753465471721725  0.2496081200154391  0.5997241017022880
  0.7502416891578972  0.3751973685769430  0.4005299131119206
  0.1246323477039309  0.5000299564962667  0.6011220298622723
  0.0006296360497187  0.6248541447150898  0.4005973790595172
  0.3748298786200377  0.4999914587181403  0.6129118704706832
  0.2508762036526695  0.6246041359806386  0.4021260607100419
  0.6256265862982352  0.4999961818067246  0.6012866927046228
  0.5000138346418266  0.6246184796816999  0.4020169935330296
  0.8752658573664162  0.5000077877704566  0.6000898080461107
  0.7502439524687808  0.6248208680839501  0.4005320520038017
  0.1233887498733080  0.7520015770726370  0.5996116640140758
  0.0004260366038529  0.8749847282519407  0.4000273616549607
  0.3756252358625605  0.7505153385645600  0.6011901859159892
  0.2505965599505854  0.8748228559806814  0.4005348637137844
  0.6273369967779471  0.7519432862615449  0.5996030131289530
  0.5002397417246561  0.8748339841254968  0.4004805987512068
  0.8753388720012457  0.7504119617202500  0.5997242129213559
  0.7504877113823374  0.8749701960172735  0.3999360679999970
  0.0002476842035003  0.0000105073557234  0.4997145699607532
  0.1253326416972160  0.1246884498723159  0.4998022714742196
  0.2503869139804419  0.0000232521365758  0.5001652681283859
  0.3754136151120186  0.1251672421067447  0.5004407130729983
  0.5003534219944963  0.0000014115932325  0.5001041774918137
  0.6255317172559959  0.1246563120611894  0.4997322551299128
  0.7505479436503866  0.0000050550517376  0.4995894731378937
  0.8753940279890822  0.1248283567155057  0.4996461513366344
  0.0000678762278967  0.2499267808186626  0.4998517088975952
  0.1253578635338063  0.3751451850062903  0.5008273014484140
  0.2507233333147573  0.2499028662896113  0.5008007693294930
  0.3755842307764046  0.3757291745182176  0.5029481926471518
  0.5003161287153982  0.2498216339470835  0.5007155087199359
  0.6255350342517058  0.3751415115697399  0.5007642421304473
  0.7508316632773944  0.2499115262223940  0.4997340452933933
  0.8753624081466038  0.3750629084867227  0.5001903721641203
  0.0005672079558368  0.5000116590790392  0.5005262976084857
  0.1253563163194286  0.6248796611634214  0.5008230382438049
  0.2515278954503617  0.5000151080665474  0.5032822982238077
  0.3755771289782568  0.6242857651611263  0.5029459639330868
  0.4995693948967599  0.5000048652000352  0.5029896518162906
  0.6255315401034266  0.6248678689900025  0.5007680317898930
  0.7501517736291299  0.5000063855086008  0.5005157315185584
  0.8753660611058796  0.6249556136784937  0.5001933049303098
  0.0000695975455661  0.7500940214718333  0.4998497998563109
  0.1253377041642476  0.8753373782320105  0.4998028803962058
  0.2507051545458769  0.7501314733387673  0.5008047555208606
  0.3754089870204450  0.8748520424106744  0.5004423571799589
  0.5003069174430687  0.7501870966243327  0.5007228919064718
  0.6255281394311213  0.8753457484050462  0.4997378556304745
  0.7508283815095379  0.7501013680410329  0.4997404097102043
  0.8753932440572378  0.8751881866743279  0.4996460898318533
  0.9997004960367791  0.1241917178137244  0.6544761495429744
  0.1256771859677661  0.0000177380977101  0.3460552131321009
  0.2500202702161727  0.1240192846355995  0.6543026855073667
  0.3753669501906416  0.0000176640970620  0.3462188623044490
  0.5008420434603005  0.1237718279475374  0.6541840092242255
  0.6251766145625267  0.0000092028616428  0.3459982091056642
  0.7511911381830827  0.1241586291593774  0.6544598294388289
  0.8755019257418112  0.0000081088797722  0.3454654023692257
  0.9993171735995841  0.3746042597837498  0.6542440671689362
  0.1260470169873655  0.2506216650917150  0.3465038323291316
  0.2438360241985168  0.3684147569895533  0.6539610610685603
  0.3754493418426186  0.2507210293741653  0.3468440250658720
  0.5069351753633700  0.3680705439647388  0.6537600739629008
  0.6248604502126597  0.2505740260036043  0.3464362258864414
  0.7513829606973463  0.3745833288755486  0.6542716730896173
  0.8755241445700253  0.2503904345048522  0.3459004244734328
  0.9993012594682881  0.6254363382615764  0.6542369009236296
  0.1260517380196812  0.5000294447431533  0.3470371573294477
  0.2438144087583554  0.6316135975491003  0.6539573889075723
  0.3752953354955068  0.5000072125563432  0.3476593795106789
  0.5069252590980210  0.6318854584150326  0.6537945893346691
  0.6247531653738881  0.5000079225162627  0.3468858304110494
  0.7513787592153677  0.6254235870841339  0.6542723263090056
  0.8754418689245762  0.5000102063022615  0.3463261852818439
  0.9997053359382112  0.8758396021762275  0.6544846268911219
  0.1260560171380008  0.7494259549123674  0.3464983057896627
  0.2500254528676184  0.8760198270336027  0.6543029888581704
  0.3754474181405628  0.7492984753751527  0.3468411539915353
  0.5008383625052166  0.8762216243660056  0.6541856374124415
  0.6248506649838423  0.7494421889601087  0.3464494868946717
  0.7511830560010068  0.8758446808010266  0.6544582450686126
  0.8755248935724788  0.7496297067254799  0.3459020284466164
  0.3802670031205623  0.5001627138006605  0.7076631022617815
  0.3263365278539052  0.4987610572188265  0.7355612251423255
 
  0.00000000E+00  0.00000000E+00  0.00000000E+00
  0.00000000E+00  0.00000000E+00  0.00000000E+00
  0.00000000E+00  0.00000000E+00  0.00000000E+00
  0.00000000E+00  0.00000000E+00  0.00000000E+00
  0.00000000E+00  0.00000000E+00  0.00000000E+00
  0.00000000E+00  0.00000000E+00  0.00000000E+00
  0.00000000E+00  0.00000000E+00  0.00000000E+00
  0.00000000E+00  0.00000000E+00  0.00000000E+00
  0.00000000E+00  0.00000000E+00  0.00000000E+00
  0.00000000E+00  0.00000000E+00  0.00000000E+00
  0.00000000E+00  0.00000000E+00  0.00000000E+00
  0.00000000E+00  0.00000000E+00  0.00000000E+00
  0.00000000E+00  0.00000000E+00  0.00000000E+00
  0.00000000E+00  0.00000000E+00  0.00000000E+00
  0.00000000E+00  0.00000000E+00  0.00000000E+00
  0.00000000E+00  0.00000000E+00  0.00000000E+00
  0.00000000E+00  0.00000000E+00  0.00000000E+00
  0.00000000E+00  0.00000000E+00  0.00000000E+00
  0.00000000E+00  0.00000000E+00  0.00000000E+00
  0.00000000E+00  0.00000000E+00  0.00000000E+00
  0.00000000E+00  0.00000000E+00  0.00000000E+00
  0.00000000E+00  0.00000000E+00  0.00000000E+00
  0.00000000E+00  0.00000000E+00  0.00000000E+00
  0.00000000E+00  0.00000000E+00  0.00000000E+00
  0.00000000E+00  0.00000000E+00  0.00000000E+00
  0.00000000E+00  0.00000000E+00  0.00000000E+00
  0.00000000E+00  0.00000000E+00  0.00000000E+00
  0.00000000E+00  0.00000000E+00  0.00000000E+00
  0.00000000E+00  0.00000000E+00  0.00000000E+00
  0.00000000E+00  0.00000000E+00  0.00000000E+00
  0.00000000E+00  0.00000000E+00  0.00000000E+00
  0.00000000E+00  0.00000000E+00  0.00000000E+00
  0.00000000E+00  0.00000000E+00  0.00000000E+00
  0.00000000E+00  0.00000000E+00  0.00000000E+00
  0.00000000E+00  0.00000000E+00  0.00000000E+00
  0.00000000E+00  0.00000000E+00  0.00000000E+00
  0.00000000E+00  0.00000000E+00  0.00000000E+00
  0.00000000E+00  0.00000000E+00  0.00000000E+00
  0.00000000E+00  0.00000000E+00  0.00000000E+00
  0.00000000E+00  0.00000000E+00  0.00000000E+00
  0.00000000E+00  0.00000000E+00  0.00000000E+00
  0.00000000E+00  0.00000000E+00  0.00000000E+00
  0.00000000E+00  0.00000000E+00  0.00000000E+00
  0.00000000E+00  0.00000000E+00  0.00000000E+00
  0.00000000E+00  0.00000000E+00  0.00000000E+00
  0.00000000E+00  0.00000000E+00  0.00000000E+00
  0.00000000E+00  0.00000000E+00  0.00000000E+00
  0.00000000E+00  0.00000000E+00  0.00000000E+00
  0.00000000E+00  0.00000000E+00  0.00000000E+00
  0.00000000E+00  0.00000000E+00  0.00000000E+00
  0.00000000E+00  0.00000000E+00  0.00000000E+00
  0.00000000E+00  0.00000000E+00  0.00000000E+00
  0.00000000E+00  0.00000000E+00  0.00000000E+00
  0.00000000E+00  0.00000000E+00  0.00000000E+00
  0.00000000E+00  0.00000000E+00  0.00000000E+00
  0.00000000E+00  0.00000000E+00  0.00000000E+00
  0.00000000E+00  0.00000000E+00  0.00000000E+00
  0.00000000E+00  0.00000000E+00  0.00000000E+00
  0.00000000E+00  0.00000000E+00  0.00000000E+00
  0.00000000E+00  0.00000000E+00  0.00000000E+00
  0.00000000E+00  0.00000000E+00  0.00000000E+00
  0.00000000E+00  0.00000000E+00  0.00000000E+00
  0.00000000E+00  0.00000000E+00  0.00000000E+00
  0.00000000E+00  0.00000000E+00  0.00000000E+00
  0.00000000E+00  0.00000000E+00  0.00000000E+00
  0.00000000E+00  0.00000000E+00  0.00000000E+00
  0.00000000E+00  0.00000000E+00  0.00000000E+00
  0.00000000E+00  0.00000000E+00  0.00000000E+00
  0.00000000E+00  0.00000000E+00  0.00000000E+00
  0.00000000E+00  0.00000000E+00  0.00000000E+00
  0.00000000E+00  0.00000000E+00  0.00000000E+00
  0.00000000E+00  0.00000000E+00  0.00000000E+00
  0.00000000E+00  0.00000000E+00  0.00000000E+00
  0.00000000E+00  0.00000000E+00  0.00000000E+00
  0.00000000E+00  0.00000000E+00  0.00000000E+00
  0.00000000E+00  0.00000000E+00  0.00000000E+00
  0.00000000E+00  0.00000000E+00  0.00000000E+00
  0.00000000E+00  0.00000000E+00  0.00000000E+00
  0.00000000E+00  0.00000000E+00  0.00000000E+00
  0.00000000E+00  0.00000000E+00  0.00000000E+00
  0.00000000E+00  0.00000000E+00  0.00000000E+00
  0.00000000E+00  0.00000000E+00  0.00000000E+00
  0.00000000E+00  0.00000000E+00  0.00000000E+00
  0.00000000E+00  0.00000000E+00  0.00000000E+00
  0.00000000E+00  0.00000000E+00  0.00000000E+00
  0.00000000E+00  0.00000000E+00  0.00000000E+00
  0.00000000E+00  0.00000000E+00  0.00000000E+00
  0.00000000E+00  0.00000000E+00  0.00000000E+00
  0.00000000E+00  0.00000000E+00  0.00000000E+00
  0.00000000E+00  0.00000000E+00  0.00000000E+00
  0.00000000E+00  0.00000000E+00  0.00000000E+00
  0.00000000E+00  0.00000000E+00  0.00000000E+00
  0.00000000E+00  0.00000000E+00  0.00000000E+00
  0.00000000E+00  0.00000000E+00  0.00000000E+00
  0.00000000E+00  0.00000000E+00  0.00000000E+00
  0.00000000E+00  0.00000000E+00  0.00000000E+00
  0.00000000E+00  0.00000000E+00  0.00000000E+00
  0.00000000E+00  0.00000000E+00  0.00000000E+00
