CONTCAR\(5)                             
   1.00000000000000     
    11.8035001755000000    0.0000000000000000    0.0000000000000000
    -5.9028060597999996   10.2219826981999997    0.0000000000000000
     0.0000000000000000    0.0000000000000000   24.2695999146000005
   Cr   Te   O    H 
    27    36     2     1
Direct
 -0.0025000496192062  0.0085089020001734  0.4999022142042078
  0.9976268761425237  0.3425155233001673  0.6330572897539893
  0.3308493455672496  0.0082390485046300  0.3667256640151233
  0.3304088753447489  0.0092619031416950  0.4993978382797564
  0.3309189251702542  0.3426117837883935  0.6329852521058379
  0.6639547892519788  0.0082873447655675  0.3667958256608952
  0.6659128508276897  0.0096073572916900  0.4992174237871277
  0.6608820501504140  0.3355788763053206  0.6310036827568953
 -0.0026357205746845  0.0083652997639360  0.3664886239852353
  0.9975663798667948  0.3418274157240141  0.4998809720490765
  0.0067080494469568  0.6798951995988537  0.6327564817002217
  0.3309920795943749  0.3417627926010436  0.3666028540529191
  0.3304074222445525  0.3417991458749594  0.4995338131234875
  0.3313094625947552  0.6757912283829673  0.6323817090380036
  0.6642185335735136  0.3420308886954652  0.3664688156312994
  0.6645592898765902  0.3422022527522975  0.4995037495299549
  0.6597557956246884  0.6790872855264122  0.6310264656924021
 -0.0026871700124908  0.3415123749185884  0.3664647553958089
 -0.0023065412074087  0.6754540912274133  0.4995865164617611
 -0.0020355646179161  0.0086350754885415  0.6329975112159536
  0.3308449192162202  0.6752253815811569  0.3666809960716322
  0.3302664579693065  0.6739739280549527  0.4993710562300501
  0.3316950423756181  0.0089280120984551  0.6324284544228237
  0.6643005684602550  0.6750711772012529  0.3664593612360946
  0.6644612151665613  0.6754402016758767  0.4994836193109973
  0.6641681908993166  0.0088455803575046  0.6321345923541429
 -0.0025818208263243  0.6750108208071168  0.3664919244414996
  0.1085487248134437  0.2310607781831680  0.6921121696340052
  0.1083517265776345  0.2305577457782978  0.4347473050379748
  0.2199797364032141  0.1194871633929268  0.3075727027792839
  0.2199355480027139  0.1201779005120870  0.5649638777548401
  0.4422113297559813  0.2309369148097445  0.6920527980521982
  0.4422107031027604  0.2311814889541466  0.4345474807805054
  0.5530397776175811  0.1194098155356579  0.3075660299705818
  0.5528913933051527  0.1187182386416286  0.5638105589046697
  0.7747013875433379  0.2301874279867568  0.6917707225387085
  0.7759215093624448  0.2314267524047484  0.4345370083983522
  0.8857724771274331  0.1190805713181442  0.3074204103310612
  0.8870766732808857  0.1201365615976524  0.5650173165779045
  0.1107426039286105  0.5644275732906331  0.6926353893899471
  0.1082913913861006  0.5636705737412971  0.4345927467643165
  0.2198129946284104  0.4528986926667424  0.3075629283384817
  0.2198069274459150  0.4529638504430001  0.5650295850354899
  0.4418496509477852  0.5651041703762796  0.6920594938337968
  0.4421208007178119  0.5638506787757992  0.4344624684275247
  0.5530119025969562  0.4529268093841761  0.3072623669180263
  0.5529576164850796  0.4532622009335007  0.5647332167773481
  0.7719123184661728  0.5634020539635198  0.6822491781310814
  0.7755402256553913  0.5642161447858889  0.4342488125720732
  0.8864348458062927  0.4528451945201970  0.3072348017727842
  0.8867981213049448  0.4545009795213034  0.5655077202337586
  0.1111077815055356  0.8997073682944090  0.6925638293435596
  0.1082663782311787  0.8974254282733318  0.4345860160964019
  0.2198221000018644  0.7862254657886038  0.3074247518615018
  0.2208423440031403  0.7871652706584860  0.5641719647133447
  0.4425865696255681  0.8979571405355139  0.6915654665797943
  0.4419299658938691  0.8974189187128145  0.4348729455418128
  0.5530195461181958  0.7862812707987027  0.3075005599296353
  0.5525766063639517  0.7875057796777880  0.5636931367039664
  0.7749102456952109  0.8982481652057406  0.6917674987019792
  0.7759355532072414  0.8973946114445077  0.4345941761961606
  0.8865152353379915  0.7862570383185743  0.3072500105206560
  0.8863852396736056  0.7852707788128909  0.5655900927860299
  0.7287317631584777  0.5484165884406358  0.7685197052162447
  0.7383650414238957  0.4433027771784044  0.7939745204401195
  0.6483654249918500  0.3695852619138376  0.7899607739068654
 
  0.00000000E+00  0.00000000E+00  0.00000000E+00
  0.00000000E+00  0.00000000E+00  0.00000000E+00
  0.00000000E+00  0.00000000E+00  0.00000000E+00
  0.00000000E+00  0.00000000E+00  0.00000000E+00
  0.00000000E+00  0.00000000E+00  0.00000000E+00
  0.00000000E+00  0.00000000E+00  0.00000000E+00
  0.00000000E+00  0.00000000E+00  0.00000000E+00
  0.00000000E+00  0.00000000E+00  0.00000000E+00
  0.00000000E+00  0.00000000E+00  0.00000000E+00
  0.00000000E+00  0.00000000E+00  0.00000000E+00
  0.00000000E+00  0.00000000E+00  0.00000000E+00
  0.00000000E+00  0.00000000E+00  0.00000000E+00
  0.00000000E+00  0.00000000E+00  0.00000000E+00
  0.00000000E+00  0.00000000E+00  0.00000000E+00
  0.00000000E+00  0.00000000E+00  0.00000000E+00
  0.00000000E+00  0.00000000E+00  0.00000000E+00
  0.00000000E+00  0.00000000E+00  0.00000000E+00
  0.00000000E+00  0.00000000E+00  0.00000000E+00
  0.00000000E+00  0.00000000E+00  0.00000000E+00
  0.00000000E+00  0.00000000E+00  0.00000000E+00
  0.00000000E+00  0.00000000E+00  0.00000000E+00
  0.00000000E+00  0.00000000E+00  0.00000000E+00
  0.00000000E+00  0.00000000E+00  0.00000000E+00
  0.00000000E+00  0.00000000E+00  0.00000000E+00
  0.00000000E+00  0.00000000E+00  0.00000000E+00
  0.00000000E+00  0.00000000E+00  0.00000000E+00
  0.00000000E+00  0.00000000E+00  0.00000000E+00
  0.00000000E+00  0.00000000E+00  0.00000000E+00
  0.00000000E+00  0.00000000E+00  0.00000000E+00
  0.00000000E+00  0.00000000E+00  0.00000000E+00
  0.00000000E+00  0.00000000E+00  0.00000000E+00
  0.00000000E+00  0.00000000E+00  0.00000000E+00
  0.00000000E+00  0.00000000E+00  0.00000000E+00
  0.00000000E+00  0.00000000E+00  0.00000000E+00
  0.00000000E+00  0.00000000E+00  0.00000000E+00
  0.00000000E+00  0.00000000E+00  0.00000000E+00
  0.00000000E+00  0.00000000E+00  0.00000000E+00
  0.00000000E+00  0.00000000E+00  0.00000000E+00
  0.00000000E+00  0.00000000E+00  0.00000000E+00
  0.00000000E+00  0.00000000E+00  0.00000000E+00
  0.00000000E+00  0.00000000E+00  0.00000000E+00
  0.00000000E+00  0.00000000E+00  0.00000000E+00
  0.00000000E+00  0.00000000E+00  0.00000000E+00
  0.00000000E+00  0.00000000E+00  0.00000000E+00
  0.00000000E+00  0.00000000E+00  0.00000000E+00
  0.00000000E+00  0.00000000E+00  0.00000000E+00
  0.00000000E+00  0.00000000E+00  0.00000000E+00
  0.00000000E+00  0.00000000E+00  0.00000000E+00
  0.00000000E+00  0.00000000E+00  0.00000000E+00
  0.00000000E+00  0.00000000E+00  0.00000000E+00
  0.00000000E+00  0.00000000E+00  0.00000000E+00
  0.00000000E+00  0.00000000E+00  0.00000000E+00
  0.00000000E+00  0.00000000E+00  0.00000000E+00
  0.00000000E+00  0.00000000E+00  0.00000000E+00
  0.00000000E+00  0.00000000E+00  0.00000000E+00
  0.00000000E+00  0.00000000E+00  0.00000000E+00
  0.00000000E+00  0.00000000E+00  0.00000000E+00
  0.00000000E+00  0.00000000E+00  0.00000000E+00
  0.00000000E+00  0.00000000E+00  0.00000000E+00
  0.00000000E+00  0.00000000E+00  0.00000000E+00
  0.00000000E+00  0.00000000E+00  0.00000000E+00
  0.00000000E+00  0.00000000E+00  0.00000000E+00
  0.00000000E+00  0.00000000E+00  0.00000000E+00
  0.00000000E+00  0.00000000E+00  0.00000000E+00
  0.00000000E+00  0.00000000E+00  0.00000000E+00
  0.00000000E+00  0.00000000E+00  0.00000000E+00
