CONTCAR\(3)                             
   1.00000000000000     
    13.6564998627000005    0.0000000000000000    0.0000000000000000
     0.0000000000000000   10.3198995589999996    0.0000000000000000
     0.0000000000000000    0.0000000000000000   19.5949993133999989
   Ta   Fe   Te   O 
     8     8    24     1
Direct
  0.0630048705572631  0.2455073676326071  0.4869086598723203
  0.1873351568086291  0.6359221747076585  0.5135263479555815
  0.3127652517571550  0.2440381328091182  0.4903075427833495
  0.4375185501835089  0.6379901290529436  0.5150062741628627
  0.5624089396456694  0.2438926009041482  0.4902009414225749
  0.6873672092247570  0.6359102859794081  0.5133597781304373
  0.8119814511085472  0.2453881723430241  0.4867895620758213
  0.9373354555589078  0.6360093484301641  0.5133396792838285
  0.1833699992272688  0.0350155654576197  0.4857108007339218
  0.0655492456305892  0.8460090575684321  0.5099960101873756
  0.4374741594405621  0.0366633022880370  0.4890865043084750
  0.3107354409775684  0.8506050090468900  0.5117491774119055
  0.6914642552000804  0.0350045889098576  0.4856696913521185
  0.5642800838992390  0.8505112479118603  0.5116276848591622
  0.9374950641374094  0.0363521566585237  0.4899467949237039
  0.8091769854498936  0.8458773958986159  0.5099593521754051
  0.1868014852279675  0.3802515522692478  0.5812118780964587
  0.0625960288603167  0.5008935083596685  0.4209663121329124
  0.1902732333370193  0.8283946472327973  0.4111573284077549
  0.0640390609599795  0.0503446578209765  0.5874174493925015
  0.0621005059127361  0.7040504592930488  0.6183039072105216
  0.1891995996778279  0.1835903484872911  0.3814567677558600
  0.4375775603401666  0.3813638964348947  0.5817277324114196
  0.3133066323643423  0.4992666707569096  0.4229083719822790
  0.4373149285258364  0.8310816358243277  0.4137687119068724
  0.3133782346252164  0.0481150037934783  0.5932591765694851
  0.3120201455489499  0.7056104894180181  0.6190428085988503
  0.4374928044037286  0.1836740181787598  0.3832333943458648
  0.6882528530651361  0.3802397820939422  0.5811241504021855
  0.5616138962148658  0.4992715831431224  0.4226789825100215
  0.6845808467404972  0.8285909764993520  0.4110163608271922
  0.5617878466821301  0.0480034495590258  0.5931772678069211
  0.5628789732143630  0.7056554625626921  0.6190261337218106
  0.6857938079740677  0.1831210883840610  0.3813173123090586
  0.9373925952697736  0.3807125341493234  0.5796434632514885
  0.8122978922285651  0.5008188530367601  0.4208180910997538
  0.9373867444587197  0.8308207409097221  0.4134413974285041
  0.8107508410322199  0.0501992886710400  0.5873630200137914
  0.8124611946464314  0.7040583636550931  0.6182862711098536
  0.9375482514679532  0.1788291171160323  0.3817834851871167
  0.4375520454141542  0.0347953337515283  0.6519754228826848
 
  0.00000000E+00  0.00000000E+00  0.00000000E+00
  0.00000000E+00  0.00000000E+00  0.00000000E+00
  0.00000000E+00  0.00000000E+00  0.00000000E+00
  0.00000000E+00  0.00000000E+00  0.00000000E+00
  0.00000000E+00  0.00000000E+00  0.00000000E+00
  0.00000000E+00  0.00000000E+00  0.00000000E+00
  0.00000000E+00  0.00000000E+00  0.00000000E+00
  0.00000000E+00  0.00000000E+00  0.00000000E+00
  0.00000000E+00  0.00000000E+00  0.00000000E+00
  0.00000000E+00  0.00000000E+00  0.00000000E+00
  0.00000000E+00  0.00000000E+00  0.00000000E+00
  0.00000000E+00  0.00000000E+00  0.00000000E+00
  0.00000000E+00  0.00000000E+00  0.00000000E+00
  0.00000000E+00  0.00000000E+00  0.00000000E+00
  0.00000000E+00  0.00000000E+00  0.00000000E+00
  0.00000000E+00  0.00000000E+00  0.00000000E+00
  0.00000000E+00  0.00000000E+00  0.00000000E+00
  0.00000000E+00  0.00000000E+00  0.00000000E+00
  0.00000000E+00  0.00000000E+00  0.00000000E+00
  0.00000000E+00  0.00000000E+00  0.00000000E+00
  0.00000000E+00  0.00000000E+00  0.00000000E+00
  0.00000000E+00  0.00000000E+00  0.00000000E+00
  0.00000000E+00  0.00000000E+00  0.00000000E+00
  0.00000000E+00  0.00000000E+00  0.00000000E+00
  0.00000000E+00  0.00000000E+00  0.00000000E+00
  0.00000000E+00  0.00000000E+00  0.00000000E+00
  0.00000000E+00  0.00000000E+00  0.00000000E+00
  0.00000000E+00  0.00000000E+00  0.00000000E+00
  0.00000000E+00  0.00000000E+00  0.00000000E+00
  0.00000000E+00  0.00000000E+00  0.00000000E+00
  0.00000000E+00  0.00000000E+00  0.00000000E+00
  0.00000000E+00  0.00000000E+00  0.00000000E+00
  0.00000000E+00  0.00000000E+00  0.00000000E+00
  0.00000000E+00  0.00000000E+00  0.00000000E+00
  0.00000000E+00  0.00000000E+00  0.00000000E+00
  0.00000000E+00  0.00000000E+00  0.00000000E+00
  0.00000000E+00  0.00000000E+00  0.00000000E+00
  0.00000000E+00  0.00000000E+00  0.00000000E+00
  0.00000000E+00  0.00000000E+00  0.00000000E+00
  0.00000000E+00  0.00000000E+00  0.00000000E+00
  0.00000000E+00  0.00000000E+00  0.00000000E+00
