CONTCAR\(8)                             
   1.00000000000000     
    10.8789997101000004    0.0000000000000000    0.0000000000000000
     0.0000000000000000   14.0766000748000000    0.0000000000000000
     0.0000000000000000    0.0000000000000000   17.9612998961999999
   Cu   Br   O    H 
    12    12    26     1
Selective dynamics
Direct
  0.1672813428694866  0.3654949818213140  0.4890923288555058   F   F   F
  0.9934857600961919  0.1317652014433861  0.5063510880252124   F   F   F
  0.4990163955488001  0.3663707040602660  0.4944719834539342   F   F   F
  0.3331862485343606  0.1350513884173878  0.5116696560668146   F   F   F
  0.8317906923895961  0.3645396289364697  0.4907266276379332   F   F   F
  0.6647977716461781  0.1309620300983241  0.5061140206589769   F   F   F
  0.1656296632848466  0.8668321444091092  0.4948550671227636   F   F   F
  0.9994039106125072  0.6325875066227482  0.5051610442201095   F   F   F
  0.4998271110299797  0.8656111159398066  0.4941836131091009   F   F   F
  0.3346983567981141  0.6347232629829804  0.5065218585714035   F   F   F
  0.8326042716088224  0.8646682665090921  0.4938329700032895   F   F   F
  0.6666871064997792  0.6313583596593304  0.5054552054660491   F   F   F
  0.1974877696163873  0.2377664590114463  0.5882196366631192   F   F   F
  0.0292716676656184  0.2630376124162339  0.4166474987870927   F   F   F
  0.5325530246377355  0.2323214453202738  0.5831560362120953   F   F   F
  0.3608725890468847  0.2673980468943995  0.4189151419300643   F   F   F
  0.8629309672869425  0.2339604458808040  0.5832743872503130   F   F   F
  0.6955645690201138  0.2630906810699827  0.4154201853822599   F   F   F
  0.2006080503438525  0.7344236983419066  0.5838035073577288   F   F   F
  0.0342844139651390  0.7661893801230661  0.4165817503321136   F   F   F
  0.5338166582631914  0.7320046144506094  0.5832401384380077   F   F   F
  0.3672816544524480  0.7669003997141601  0.4161998830322418   F   F   F
  0.8671025709933033  0.7323361041368202  0.5832883257030801   F   F   F
  0.7004142427304174  0.7638238362088359  0.4161315973775785   F   F   F
  0.1023192573826179  0.4723001833502494  0.4330652320576220   F   F   F
  0.1230148617899545  0.0611147982313724  0.4588554141834820   F   F   F
  0.2897575218341188  0.4400767156536887  0.5395975088915392   F   F   F
  0.2685617836610987  0.0279766360156231  0.5666244463827539   F   F   F
  0.4408779099680658  0.4734130048070284  0.4363380784466528   F   F   F
  0.4565970528547751  0.0613702992559197  0.4602964421496694   F   F   F
  0.6280468010524416  0.4372905983600788  0.5421625336196172   F   F   F
  0.6063898261022089  0.0253909075253134  0.5653388005163364   F   F   F
  0.7705440638140928  0.4710154413626881  0.4335019710032739   F   F   F
  0.7904880394851759  0.0588523305513888  0.4559703400553872   F   F   F
  0.9583084228655991  0.4374807620703365  0.5397162900858135   F   F   F
  0.9362188524835346  0.0258098355813274  0.5651539447851945   F   F   F
  0.1049488737033499  0.9730344391281562  0.4374544113388055   F   F   F
  0.1229864589704661  0.5602076698690581  0.4534263331179744   F   F   F
  0.2895651844571461  0.9401060226654252  0.5460014226776266   F   F   F
  0.2671251578843723  0.5278008248207939  0.5600668307195917   F   F   F
  0.4353051438373399  0.9735271160599623  0.4395234513349777   F   F   F
  0.4607107458004549  0.5614303971798691  0.4572661957061541   F   F   F
  0.6254449317329218  0.9372393140695863  0.5444064442643892   F   F   F
  0.6096251579003535  0.5249502607481773  0.5639765105519601   F   F   F
  0.7708743674633780  0.9703130324137845  0.4359961629025975   F   F   F
  0.7911947928095557  0.5589481026255072  0.4542307497586009   F   F   F
  0.9570074769597738  0.9377946006727598  0.5443702168046158   F   F   F
  0.9379444095131220  0.5251586190724140  0.5611843685414044   F   F   F
  0.4398937798297240  0.4202733659834053  0.6779644779791454   T   T   T
  0.3414785582830859  0.3817894198057843  0.7107853797105221   T   T   T
  0.3034140836205665  0.3388078616515387  0.6713878828923071   T   T   T
 
  0.00000000E+00  0.00000000E+00  0.00000000E+00
  0.00000000E+00  0.00000000E+00  0.00000000E+00
  0.00000000E+00  0.00000000E+00  0.00000000E+00
  0.00000000E+00  0.00000000E+00  0.00000000E+00
  0.00000000E+00  0.00000000E+00  0.00000000E+00
  0.00000000E+00  0.00000000E+00  0.00000000E+00
  0.00000000E+00  0.00000000E+00  0.00000000E+00
  0.00000000E+00  0.00000000E+00  0.00000000E+00
  0.00000000E+00  0.00000000E+00  0.00000000E+00
  0.00000000E+00  0.00000000E+00  0.00000000E+00
  0.00000000E+00  0.00000000E+00  0.00000000E+00
  0.00000000E+00  0.00000000E+00  0.00000000E+00
  0.00000000E+00  0.00000000E+00  0.00000000E+00
  0.00000000E+00  0.00000000E+00  0.00000000E+00
  0.00000000E+00  0.00000000E+00  0.00000000E+00
  0.00000000E+00  0.00000000E+00  0.00000000E+00
  0.00000000E+00  0.00000000E+00  0.00000000E+00
  0.00000000E+00  0.00000000E+00  0.00000000E+00
  0.00000000E+00  0.00000000E+00  0.00000000E+00
  0.00000000E+00  0.00000000E+00  0.00000000E+00
  0.00000000E+00  0.00000000E+00  0.00000000E+00
  0.00000000E+00  0.00000000E+00  0.00000000E+00
  0.00000000E+00  0.00000000E+00  0.00000000E+00
  0.00000000E+00  0.00000000E+00  0.00000000E+00
  0.00000000E+00  0.00000000E+00  0.00000000E+00
  0.00000000E+00  0.00000000E+00  0.00000000E+00
  0.00000000E+00  0.00000000E+00  0.00000000E+00
  0.00000000E+00  0.00000000E+00  0.00000000E+00
  0.00000000E+00  0.00000000E+00  0.00000000E+00
  0.00000000E+00  0.00000000E+00  0.00000000E+00
  0.00000000E+00  0.00000000E+00  0.00000000E+00
  0.00000000E+00  0.00000000E+00  0.00000000E+00
  0.00000000E+00  0.00000000E+00  0.00000000E+00
  0.00000000E+00  0.00000000E+00  0.00000000E+00
  0.00000000E+00  0.00000000E+00  0.00000000E+00
  0.00000000E+00  0.00000000E+00  0.00000000E+00
  0.00000000E+00  0.00000000E+00  0.00000000E+00
  0.00000000E+00  0.00000000E+00  0.00000000E+00
  0.00000000E+00  0.00000000E+00  0.00000000E+00
  0.00000000E+00  0.00000000E+00  0.00000000E+00
  0.00000000E+00  0.00000000E+00  0.00000000E+00
  0.00000000E+00  0.00000000E+00  0.00000000E+00
  0.00000000E+00  0.00000000E+00  0.00000000E+00
  0.00000000E+00  0.00000000E+00  0.00000000E+00
  0.00000000E+00  0.00000000E+00  0.00000000E+00
  0.00000000E+00  0.00000000E+00  0.00000000E+00
  0.00000000E+00  0.00000000E+00  0.00000000E+00
  0.00000000E+00  0.00000000E+00  0.00000000E+00
  0.00000000E+00  0.00000000E+00  0.00000000E+00
  0.00000000E+00  0.00000000E+00  0.00000000E+00
  0.00000000E+00  0.00000000E+00  0.00000000E+00
