CONTCAR                                 
   1.00000000000000     
     9.7571001052999993    0.0000000000000000    0.0000000000000000
    -3.0063686365000000   15.8319856181999992    0.0000000000000000
     0.0000000000000000    0.0000000000000000   18.2793006897000012
   V    P    S    O    H 
     4     8    26     2     1
Direct
  0.6335751630543586  0.6107778675929554  0.5043596467602584
  0.6065755904030644  0.1050386395191518  0.4996490649099136
  0.3818392878591349  0.3966533800023552  0.5073069806430399
  0.3693519610473103  0.8947408079744558  0.4947239225236287
  0.8224908804695195  0.2617953574558110  0.5007752097603529
  0.6905061655278414  0.4334106960727012  0.5479242899319285
  0.1632901386112616  0.7367599153119372  0.5099304607434396
  0.1659068486000392  0.2405570704189185  0.5007123590024695
  0.2952318759930798  0.0666209144080358  0.5419508816284794
  0.6741494491329910  0.9371850627214240  0.4451237440213453
  0.3144519558790452  0.5676380756018005  0.4655105515037269
  0.8386624301538069  0.7843203054372999  0.5285469147572492
  0.1038875143441815  0.1108927766909713  0.5337425468357715
  0.8459007612889627  0.8787990779500805  0.4341119211421022
  0.0102303653710577  0.7374039755943061  0.5891926518506593
  0.3745674509548169  0.0420310637745890  0.4413068963183930
  0.5350441692424371  0.3508031489104235  0.5955860699623828
  0.2540564220642337  0.4551054869801267  0.4143119021981246
  0.1943665948205716  0.3224457983162401  0.5846202109214157
  0.6584836505273791  0.7300083628236612  0.5806935331373682
  0.4724109791757949  0.6479871112866157  0.4163139343423641
  0.6134484669224478  0.4623112524035922  0.4479837125414848
  0.6567331617369226  0.2395522005487381  0.4335908370473739
  0.8827647431356110  0.3894466667481035  0.5393956308079501
  0.9948801376829853  0.2532231696766068  0.4308953049454975
  0.6029242233119798  0.9582384389042194  0.5490196614374845
  0.8168221340023536  0.6812126029701562  0.4448212583672391
  0.3929899738612160  0.5401309237052428  0.5652940858869678
  0.1673403744424248  0.8198027376540346  0.4273020728135130
  0.7467557347701780  0.5451205635713415  0.6003437076726098
  0.5033313157830327  0.8661909143384861  0.3953574054497799
  0.2380142491931044  0.9530671057084179  0.5907991669790600
  0.3466931185354651  0.7684818371083673  0.5646760430198685
  0.7924156681486053  0.1739068454596228  0.5802738960584356
  0.7271839452073695  0.0544121694539428  0.4002062190904310
  0.4533099923648155  0.1455948570272166  0.5914485160835201
  0.1206067183627364  0.6078264172604049  0.4713359913597630
  0.3325424206492892  0.2669149975128601  0.4343752967995000
  0.8779112432665993  0.8805567546524210  0.5719345939289333
  0.8880006164465246  0.8703280547645494  0.6517130921017079
  0.9885419516554375  0.8930767106878341  0.6578498607144651
 
  0.00000000E+00  0.00000000E+00  0.00000000E+00
  0.00000000E+00  0.00000000E+00  0.00000000E+00
  0.00000000E+00  0.00000000E+00  0.00000000E+00
  0.00000000E+00  0.00000000E+00  0.00000000E+00
  0.00000000E+00  0.00000000E+00  0.00000000E+00
  0.00000000E+00  0.00000000E+00  0.00000000E+00
  0.00000000E+00  0.00000000E+00  0.00000000E+00
  0.00000000E+00  0.00000000E+00  0.00000000E+00
  0.00000000E+00  0.00000000E+00  0.00000000E+00
  0.00000000E+00  0.00000000E+00  0.00000000E+00
  0.00000000E+00  0.00000000E+00  0.00000000E+00
  0.00000000E+00  0.00000000E+00  0.00000000E+00
  0.00000000E+00  0.00000000E+00  0.00000000E+00
  0.00000000E+00  0.00000000E+00  0.00000000E+00
  0.00000000E+00  0.00000000E+00  0.00000000E+00
  0.00000000E+00  0.00000000E+00  0.00000000E+00
  0.00000000E+00  0.00000000E+00  0.00000000E+00
  0.00000000E+00  0.00000000E+00  0.00000000E+00
  0.00000000E+00  0.00000000E+00  0.00000000E+00
  0.00000000E+00  0.00000000E+00  0.00000000E+00
  0.00000000E+00  0.00000000E+00  0.00000000E+00
  0.00000000E+00  0.00000000E+00  0.00000000E+00
  0.00000000E+00  0.00000000E+00  0.00000000E+00
  0.00000000E+00  0.00000000E+00  0.00000000E+00
  0.00000000E+00  0.00000000E+00  0.00000000E+00
  0.00000000E+00  0.00000000E+00  0.00000000E+00
  0.00000000E+00  0.00000000E+00  0.00000000E+00
  0.00000000E+00  0.00000000E+00  0.00000000E+00
  0.00000000E+00  0.00000000E+00  0.00000000E+00
  0.00000000E+00  0.00000000E+00  0.00000000E+00
  0.00000000E+00  0.00000000E+00  0.00000000E+00
  0.00000000E+00  0.00000000E+00  0.00000000E+00
  0.00000000E+00  0.00000000E+00  0.00000000E+00
  0.00000000E+00  0.00000000E+00  0.00000000E+00
  0.00000000E+00  0.00000000E+00  0.00000000E+00
  0.00000000E+00  0.00000000E+00  0.00000000E+00
  0.00000000E+00  0.00000000E+00  0.00000000E+00
  0.00000000E+00  0.00000000E+00  0.00000000E+00
  0.00000000E+00  0.00000000E+00  0.00000000E+00
  0.00000000E+00  0.00000000E+00  0.00000000E+00
  0.00000000E+00  0.00000000E+00  0.00000000E+00
