CONTCAR\(4)                             
   1.00000000000000     
    12.9882001877000004    0.0000000000000000    0.0000000000000000
     0.0000000000000000   20.1457004546999983    0.0000000000000000
     0.0000000000000000    0.0000000000000000   19.8038997650000006
   Ce   I    O 
    12    36     1
Direct
  0.1666665408652400  0.0005085197246052  0.5079049759218622
  0.0000512666608572  0.2514922122508030  0.4945838588521993
  0.4999329733904101  0.0005459871601537  0.5079737077675534
  0.3333482333935896  0.2515390504118482  0.4945519676842713
  0.8333409968554596  0.0006051177951728  0.5069871795845466
  0.6666772347319778  0.2514810752515171  0.4945822094564825
  0.1636803257346404  0.5028256303226376  0.5041598997901476
  0.0005635020697488  0.7504134341109937  0.4918571950395433
  0.5031237014278067  0.5027450060846377  0.5040208836297773
  0.3332797711410762  0.7501930039067736  0.4940199986053382
  0.8333813038146488  0.5012277007911202  0.5060227427433985
  0.6661009623613887  0.7504441405518032  0.4918243519660574
  0.9994890083105771  0.4089936337905029  0.4247514985086949
  0.1689203008990663  0.3453849769885904  0.5764675902160035
  0.1666441247980884  0.1614417084908753  0.5773044195889758
  0.0009034606326787  0.0926551409224102  0.4263636788826508
  0.9996981698621843  0.0006854105458854  0.6230706360357681
  0.1671490939532015  0.2515015177544307  0.3788148823293677
  0.3332941880683880  0.4108952011055040  0.4256867294176420
  0.4975345256599404  0.3452611117311841  0.5764925874993444
  0.5000022344387529  0.1611383067665771  0.5770278370185257
  0.3332739737262223  0.0925460545979299  0.4265272358797462
  0.3332273307673602  0.0008510527625895  0.6237365350756601
  0.4997486326597202  0.2512680759487304  0.3787479938924555
  0.6672434436321532  0.4087023493740976  0.4246882992839257
  0.8336433525422760  0.3430634371912160  0.5763233802876301
  0.8332714481583143  0.1598920465227172  0.5761437971805915
  0.6660600159162057  0.0927133173526175  0.4262516201258996
  0.6670610362053958  0.0006777400367374  0.6231609216851839
  0.8333558897934793  0.2501809893861549  0.3786307083534236
  0.0004439701789642  0.9099974553321977  0.4244130240632851
  0.1657373036741235  0.8412995904612348  0.5756676893363906
  0.1664284407473086  0.6581753949523799  0.5736999000048435
  0.9986262274823974  0.5920488058681256  0.4214135320892533
  1.0001760638866810  0.5019440483603037  0.6215759718832619
  0.1679273520164801  0.7511213928548205  0.3769498377179468
  0.3331043041084273  0.9094587814669387  0.4262822809320123
  0.5007703969311474  0.8411045248102422  0.5758456425438775
  0.5000705343891073  0.6582718878622363  0.5732786228305526
  0.3334871117303084  0.5928385197854751  0.4240405515790847
  0.3338402008263157  0.4984404332643508  0.6276878180749159
  0.4989863260599547  0.7511411855908803  0.3769181609507358
  0.6658864037257630  0.9099581082116011  0.4246633280612631
  0.8332731853256030  0.8418052352867947  0.5740081071277464
  0.8332112797982211  0.6591371816916578  0.5729113115368002
  0.6679711756922996  0.5921207085307012  0.4215360173846828
  0.6666711242650075  0.5020246435714442  0.6215048503976610
  0.8334213200877799  0.7515829889131351  0.3760667200824944
  0.3330303906032953  0.5830163525546671  0.6678272881005309
 
  0.00000000E+00  0.00000000E+00  0.00000000E+00
  0.00000000E+00  0.00000000E+00  0.00000000E+00
  0.00000000E+00  0.00000000E+00  0.00000000E+00
  0.00000000E+00  0.00000000E+00  0.00000000E+00
  0.00000000E+00  0.00000000E+00  0.00000000E+00
  0.00000000E+00  0.00000000E+00  0.00000000E+00
  0.00000000E+00  0.00000000E+00  0.00000000E+00
  0.00000000E+00  0.00000000E+00  0.00000000E+00
  0.00000000E+00  0.00000000E+00  0.00000000E+00
  0.00000000E+00  0.00000000E+00  0.00000000E+00
  0.00000000E+00  0.00000000E+00  0.00000000E+00
  0.00000000E+00  0.00000000E+00  0.00000000E+00
  0.00000000E+00  0.00000000E+00  0.00000000E+00
  0.00000000E+00  0.00000000E+00  0.00000000E+00
  0.00000000E+00  0.00000000E+00  0.00000000E+00
  0.00000000E+00  0.00000000E+00  0.00000000E+00
  0.00000000E+00  0.00000000E+00  0.00000000E+00
  0.00000000E+00  0.00000000E+00  0.00000000E+00
  0.00000000E+00  0.00000000E+00  0.00000000E+00
  0.00000000E+00  0.00000000E+00  0.00000000E+00
  0.00000000E+00  0.00000000E+00  0.00000000E+00
  0.00000000E+00  0.00000000E+00  0.00000000E+00
  0.00000000E+00  0.00000000E+00  0.00000000E+00
  0.00000000E+00  0.00000000E+00  0.00000000E+00
  0.00000000E+00  0.00000000E+00  0.00000000E+00
  0.00000000E+00  0.00000000E+00  0.00000000E+00
  0.00000000E+00  0.00000000E+00  0.00000000E+00
  0.00000000E+00  0.00000000E+00  0.00000000E+00
  0.00000000E+00  0.00000000E+00  0.00000000E+00
  0.00000000E+00  0.00000000E+00  0.00000000E+00
  0.00000000E+00  0.00000000E+00  0.00000000E+00
  0.00000000E+00  0.00000000E+00  0.00000000E+00
  0.00000000E+00  0.00000000E+00  0.00000000E+00
  0.00000000E+00  0.00000000E+00  0.00000000E+00
  0.00000000E+00  0.00000000E+00  0.00000000E+00
  0.00000000E+00  0.00000000E+00  0.00000000E+00
  0.00000000E+00  0.00000000E+00  0.00000000E+00
  0.00000000E+00  0.00000000E+00  0.00000000E+00
  0.00000000E+00  0.00000000E+00  0.00000000E+00
  0.00000000E+00  0.00000000E+00  0.00000000E+00
  0.00000000E+00  0.00000000E+00  0.00000000E+00
  0.00000000E+00  0.00000000E+00  0.00000000E+00
  0.00000000E+00  0.00000000E+00  0.00000000E+00
  0.00000000E+00  0.00000000E+00  0.00000000E+00
  0.00000000E+00  0.00000000E+00  0.00000000E+00
  0.00000000E+00  0.00000000E+00  0.00000000E+00
  0.00000000E+00  0.00000000E+00  0.00000000E+00
  0.00000000E+00  0.00000000E+00  0.00000000E+00
  0.00000000E+00  0.00000000E+00  0.00000000E+00
