CONTCAR\(8)                             
   1.00000000000000     
    18.0454998015999983    0.0000000000000000    0.0000000000000000
    -9.0227856342999999   15.5459183949999993    0.0000000000000000
     0.0000000000000000    0.0000000000000000   17.8997001647999987
   Ti   Cl   O    H 
    18    54     2     1
Direct
  0.3005867291382032  0.2646712385208332  0.4976712591218941
  0.0720182662425017  0.1447128290418220  0.4986984026145649
  0.6320252444378838  0.2639453730586752  0.4979840112913791
  0.4053190158188755  0.1445714925032604  0.4985868537126947
  0.9659160922908399  0.2644772974350289  0.4981396154172515
  0.7390728291814597  0.1448166040422691  0.4980672846294922
  0.2990885567019674  0.5974395938403205  0.4970871234727952
  0.0723401281201532  0.4779137201632935  0.4971874658960118
  0.6308322470826155  0.5981545679167297  0.4967880944615430
  0.4063026006029631  0.4781155606477583  0.4969739042110461
  0.9648634483671898  0.5975920119326616  0.4976570750267015
  0.7392708294477401  0.4774862564628322  0.4971355409675482
  0.2983252219390451  0.9306152927063422  0.4985211656939086
  0.0724028183386665  0.8113063445366748  0.4981747813439483
  0.6319836733621713  0.9310750027333299  0.4976066908166885
  0.4059119124350303  0.8111854458134786  0.4972336923012577
  0.9653889562320117  0.9311119751098857  0.4985297300216232
  0.7395113459759770  0.8116993832950854  0.4970606068141734
  0.0709296360079961  0.0378293543808397  0.5802550523868177
  0.2997391914435994  0.0376422383005917  0.4171197529838153
  0.1852685674249130  0.1523962940459924  0.4213863879894930
  0.0708665219966846  0.2565360243299892  0.4206402136522840
  0.3011037301003512  0.1529644119949864  0.5764321731736786
  0.1869223709746279  0.2567295866956698  0.5753785876807740
  0.4042161831649977  0.0374124280466219  0.5798428240386571
  0.6335770271298173  0.0381926714338334  0.4162731542614679
  0.5183785702816266  0.1518596810922332  0.4210352709170664
  0.4038732042430269  0.2556026372619797  0.4193994570560164
  0.6342948785953766  0.1526722552262285  0.5759494679844366
  0.5192225410236659  0.2563627424078945  0.5756812078016367
  0.7377161928468823  0.0377328975510096  0.5793203618221341
  0.9670024722861967  0.0382345787025642  0.4169302080911876
  0.8522344567466575  0.1526162682819248  0.4206743837062419
  0.7372562720737861  0.2564633083508667  0.4203854610827022
  0.9677700107126626  0.1531571765069657  0.5765922562149228
  0.8527075297452313  0.2566413875900722  0.5755479388789411
  0.0714303693064124  0.3716689897213286  0.5793103396337216
  0.3002809919809621  0.3707172649322388  0.4159516400566403
  0.1849660826736184  0.4860135159271195  0.4193380372597773
  0.0701019724005292  0.5896346197291606  0.4199256499917041
  0.3011780362061387  0.4860804612211211  0.5739443414388674
  0.1861636791846735  0.5896167025036121  0.5746904943740532
  0.4059225602359717  0.3715476029350882  0.5776356364609612
  0.6330488235469289  0.3703889377188858  0.4160998844105634
  0.5185814112492508  0.4863515814904957  0.4183054253183585
  0.4035187077886704  0.5894180702868113  0.4189819560067392
  0.6340589529320795  0.4866100023707105  0.5737720619786515
  0.5195733004719756  0.5904052433472415  0.5736003636987448
  0.7373835131830617  0.3713581408496580  0.5795240232474157
  0.9665830744632018  0.3708764635271748  0.4160778434671712
  0.8516986198258465  0.4858491984819082  0.4193483353511454
  0.7366998030425478  0.5891668676050870  0.4199498666607155
  0.9672726940042153  0.4858734246441685  0.5749169382132422
  0.8522458390130296  0.5895146912458813  0.5752475584032766
  0.0707241162979528  0.7041413320963628  0.5793286155357720
  0.3002111375182892  0.7044730376860713  0.4157146756780108
  0.1849816006960907  0.8191107786204554  0.4204024610229169
  0.0708188679434585  0.9234435921130810  0.4210464412722885
  0.3006997632825517  0.8187277710586898  0.5752376610931194
  0.1856926520493474  0.9225898166030433  0.5763751404417903
  0.4045663357958702  0.7042419194466589  0.5785045691628028
  0.6343452305459749  0.7051557281242040  0.4144863261550213
  0.5187382117781638  0.8196540445073381  0.4193789567765549
  0.4034049309922096  0.9229926020417309  0.4203911168251722
  0.6338515249765635  0.8190386993353798  0.5743861745607290
  0.5191703185485252  0.9228393783426867  0.5752496088461072
  0.7373611187244720  0.7045827063757102  0.5782286556191565
  0.9665570864371702  0.7046984111731547  0.4163409557029070
  0.8525634018317092  0.8199172110962820  0.4197971965200651
  0.7374981773883889  0.9236465065992547  0.4199142103463274
  0.9670151536105465  0.8190874469947644  0.5756647033297213
  0.8522142739182001  0.9230757949831911  0.5756174808105641
  0.4166417307237396  0.5022436496623541  0.7262225697992477
  0.3862136407760133  0.4198350751109032  0.7506860691578083
  0.3313139791422088  0.4043768855303966  0.7753095358354756
 
  0.00000000E+00  0.00000000E+00  0.00000000E+00
  0.00000000E+00  0.00000000E+00  0.00000000E+00
  0.00000000E+00  0.00000000E+00  0.00000000E+00
  0.00000000E+00  0.00000000E+00  0.00000000E+00
  0.00000000E+00  0.00000000E+00  0.00000000E+00
  0.00000000E+00  0.00000000E+00  0.00000000E+00
  0.00000000E+00  0.00000000E+00  0.00000000E+00
  0.00000000E+00  0.00000000E+00  0.00000000E+00
  0.00000000E+00  0.00000000E+00  0.00000000E+00
  0.00000000E+00  0.00000000E+00  0.00000000E+00
  0.00000000E+00  0.00000000E+00  0.00000000E+00
  0.00000000E+00  0.00000000E+00  0.00000000E+00
  0.00000000E+00  0.00000000E+00  0.00000000E+00
  0.00000000E+00  0.00000000E+00  0.00000000E+00
  0.00000000E+00  0.00000000E+00  0.00000000E+00
  0.00000000E+00  0.00000000E+00  0.00000000E+00
  0.00000000E+00  0.00000000E+00  0.00000000E+00
  0.00000000E+00  0.00000000E+00  0.00000000E+00
  0.00000000E+00  0.00000000E+00  0.00000000E+00
  0.00000000E+00  0.00000000E+00  0.00000000E+00
  0.00000000E+00  0.00000000E+00  0.00000000E+00
  0.00000000E+00  0.00000000E+00  0.00000000E+00
  0.00000000E+00  0.00000000E+00  0.00000000E+00
  0.00000000E+00  0.00000000E+00  0.00000000E+00
  0.00000000E+00  0.00000000E+00  0.00000000E+00
  0.00000000E+00  0.00000000E+00  0.00000000E+00
  0.00000000E+00  0.00000000E+00  0.00000000E+00
  0.00000000E+00  0.00000000E+00  0.00000000E+00
  0.00000000E+00  0.00000000E+00  0.00000000E+00
  0.00000000E+00  0.00000000E+00  0.00000000E+00
  0.00000000E+00  0.00000000E+00  0.00000000E+00
  0.00000000E+00  0.00000000E+00  0.00000000E+00
  0.00000000E+00  0.00000000E+00  0.00000000E+00
  0.00000000E+00  0.00000000E+00  0.00000000E+00
  0.00000000E+00  0.00000000E+00  0.00000000E+00
  0.00000000E+00  0.00000000E+00  0.00000000E+00
  0.00000000E+00  0.00000000E+00  0.00000000E+00
  0.00000000E+00  0.00000000E+00  0.00000000E+00
  0.00000000E+00  0.00000000E+00  0.00000000E+00
  0.00000000E+00  0.00000000E+00  0.00000000E+00
  0.00000000E+00  0.00000000E+00  0.00000000E+00
  0.00000000E+00  0.00000000E+00  0.00000000E+00
  0.00000000E+00  0.00000000E+00  0.00000000E+00
  0.00000000E+00  0.00000000E+00  0.00000000E+00
  0.00000000E+00  0.00000000E+00  0.00000000E+00
  0.00000000E+00  0.00000000E+00  0.00000000E+00
  0.00000000E+00  0.00000000E+00  0.00000000E+00
  0.00000000E+00  0.00000000E+00  0.00000000E+00
  0.00000000E+00  0.00000000E+00  0.00000000E+00
  0.00000000E+00  0.00000000E+00  0.00000000E+00
  0.00000000E+00  0.00000000E+00  0.00000000E+00
  0.00000000E+00  0.00000000E+00  0.00000000E+00
  0.00000000E+00  0.00000000E+00  0.00000000E+00
  0.00000000E+00  0.00000000E+00  0.00000000E+00
  0.00000000E+00  0.00000000E+00  0.00000000E+00
  0.00000000E+00  0.00000000E+00  0.00000000E+00
  0.00000000E+00  0.00000000E+00  0.00000000E+00
  0.00000000E+00  0.00000000E+00  0.00000000E+00
  0.00000000E+00  0.00000000E+00  0.00000000E+00
  0.00000000E+00  0.00000000E+00  0.00000000E+00
  0.00000000E+00  0.00000000E+00  0.00000000E+00
  0.00000000E+00  0.00000000E+00  0.00000000E+00
  0.00000000E+00  0.00000000E+00  0.00000000E+00
  0.00000000E+00  0.00000000E+00  0.00000000E+00
  0.00000000E+00  0.00000000E+00  0.00000000E+00
  0.00000000E+00  0.00000000E+00  0.00000000E+00
  0.00000000E+00  0.00000000E+00  0.00000000E+00
  0.00000000E+00  0.00000000E+00  0.00000000E+00
  0.00000000E+00  0.00000000E+00  0.00000000E+00
  0.00000000E+00  0.00000000E+00  0.00000000E+00
  0.00000000E+00  0.00000000E+00  0.00000000E+00
  0.00000000E+00  0.00000000E+00  0.00000000E+00
  0.00000000E+00  0.00000000E+00  0.00000000E+00
  0.00000000E+00  0.00000000E+00  0.00000000E+00
  0.00000000E+00  0.00000000E+00  0.00000000E+00
