CONTCAR\(2)                             
   1.00000000000000     
    21.4713001251000009    0.0000000000000000    0.0000000000000000
    10.7356067371999995   19.1142855119999986    0.0000000000000000
     0.0000000000000000    0.0000000000000000   19.1464004516999999
   Ta   Te   O 
    36    72     1
Direct
  0.4035358545294512  0.3556812444792466  0.5001232397790412
  0.2598542693444408  0.1427235043824255  0.4993887129439384
  0.0973749689079889  0.1427162810055138  0.4994005990085395
  0.2407535256424702  0.3553821003466329  0.5001681922514172
  0.4283538482374336  0.1434759117849346  0.4974577828728119
  0.0723880472857365  0.3550864514054523  0.5022774572733270
  0.0991465188223478  0.9989806536366812  0.5010634980476857
  0.4018689504282666  0.9990239556906241  0.5010687154929474
  0.2505269705391717  0.9989699447942556  0.5010545909853085
  0.9037695071859133  0.3554110132206472  0.5002753746348806
  0.7596335693440618  0.1430165986126586  0.4989156286919282
  0.5973641653006261  0.1430872326035795  0.4989641086376169
  0.7408006787624913  0.3556810133681523  0.5002779831686350
  0.9282095317880579  0.1434282761541844  0.4974337886988199
  0.5715381480346466  0.3570963260004171  0.5037478432925881
  0.5990956851859206  0.9993702785326793  0.5005899485420207
  0.9015511136530863  0.9993791489623094  0.5005624369120968
  0.7502552713811629  0.9995236077020664  0.5003791160507038
  0.4037775437191640  0.8549365428740291  0.5024376010482066
  0.2596203715388541  0.6431770903765557  0.4999029066001261
  0.0971959554345848  0.6429799619734069  0.4997689031353904
  0.2412927173040879  0.8549171433867195  0.5024208237656852
  0.4260037094733037  0.6480306300308787  0.4970928874896483
  0.0725454379873202  0.8550273028947427  0.5039144952099086
  0.0987826189681802  0.4992868917609665  0.4998987369493989
  0.4002281878180031  0.4989841128085314  0.4991337226733323
  0.2505151124127373  0.4993697669734392  0.4997830643453129
  0.9035317893989095  0.8555088225863486  0.5016120029024929
  0.7597796574614530  0.6429778864051308  0.4998652120243777
  0.5971875662105978  0.6432117003774054  0.4999388296977088
  0.7410086989733610  0.8555197837068345  0.5016318372854416
  0.9280901047397376  0.6436032212485423  0.4976294619679905
  0.5723816780158286  0.8550735078250228  0.5039622179978672
  0.6007696891559723  0.4989458238551225  0.4992129762091987
  0.9018822487781425  0.4993148226196736  0.4999669292509011
  0.7501373662280283  0.4993853737133858  0.4998749302575962
  0.4719040626338146  0.2234977111063320  0.5794248443326866
  0.1957557337889765  0.2748591119455387  0.4201016393163733
  0.0292850954754775  0.2748557724586077  0.4201136500896348
  0.3051146108601661  0.2231780337325092  0.5797147341093618
  0.3626831969695968  0.2745472026190031  0.4179996116118860
  0.1380051082813281  0.2239663005173716  0.5816404321229380
  0.3570780594625192  0.4458483264301716  0.3905305756385431
  0.3041886628515805  0.0527288687530861  0.6090388154505582
  0.1430882053431915  0.0527090114707305  0.6090267727655606
  0.1964715573697951  0.1070017527925796  0.3939956598100515
  0.3046630735563544  0.3900708859496692  0.6056713493613712
  0.3617595185228782  0.1062333681478430  0.3957545997306062
  0.4680486452550278  0.3919132416041312  0.6048815965104066
  0.1393349969156417  0.3912855859381882  0.6043334184719925
  0.0320084351173306  0.1062108228581274  0.3957329863198837
  0.0235888591338037  0.4527748240336504  0.4037428597693914
  0.4771457934321799  0.0462988198317438  0.5963426159220907
  0.1960447713056985  0.4465045382110087  0.3914650423740530
  0.9717211887839152  0.2231345316075899  0.5797184654954782
  0.6948384232858078  0.2757134253327441  0.4206129279571479
  0.5295509636585320  0.2756978908610238  0.4205726227299961
  0.8047443162275407  0.2234109238717218  0.5794352839068319
  0.8626843166305503  0.2745806732533966  0.4180608241924725
  0.6376382085517769  0.2248438697114712  0.5810415659616692
  0.8574247204371748  0.4464780215116814  0.3915520561536919
  0.8039760928968546  0.0531203370936469  0.6085965072216047
  0.6429024277072709  0.0531719134417294  0.6085931531711898
  0.6961926724852140  0.1076515709528904  0.3933723680371689
  0.8052102214380290  0.3902108855539938  0.6058589281506818
  0.8614625903524260  0.1067399013179783  0.3953683443682857
  0.9693447927991644  0.3913027903725796  0.6043932332577242
  0.6400752348243776  0.3918786931915026  0.6050796241955239
  0.5318018883151087  0.1067582670201630  0.3954083846501771
  0.5232963343931631  0.4534445633193657  0.4040103516770388
  0.9766763080941221  0.0462003426013782  0.5963071137757633
  0.6970657421150448  0.4458591931551888  0.3906260142781692
  0.4724445870360559  0.7227549678732544  0.5823510757433862
  0.1954926302771744  0.7755894741062105  0.4214461825402363
  0.0290400369369362  0.7754194854259878  0.4212352889337915
  0.3048203847340422  0.7226789587384580  0.5823473524137235
  0.3622512136614983  0.7754604137853827  0.4173085294065080
  0.1380313153164208  0.7236025447813771  0.5826802403519145
  0.3581273701176584  0.9451811448597516  0.3930371960904308
  0.3043070864222012  0.5523918001047365  0.6089653871539006
  0.1434562216462632  0.5518738342905052  0.6083342407523460
  0.1956222780648319  0.6086387133893886  0.3940180029544998
  0.3047929986272189  0.8903920696683377  0.6077311339983489
  0.3606359607904146  0.6078236072940496  0.3956634276256810
  0.4691410113636444  0.8917804304603166  0.6060365605071223
  0.1391748215862551  0.8916197196266531  0.6059897857574409
  0.0314359570657927  0.6074102976040685  0.3955998761608555
  0.0238823570851963  0.9523094544668022  0.4051267498849449
  0.4783893087964032  0.5431710943493510  0.5883488158000463
  0.1967321553000791  0.9451882442434524  0.3930297845733332
  0.9717685849193614  0.7230794090181140  0.5804260253739381
  0.6954685699478677  0.7754631906980417  0.4213168647444476
  0.5288815214179042  0.7756049609498272  0.4214704133538495
  0.8051215539686501  0.7231192285766006  0.5804866796174456
  0.8625778073915913  0.7747523329601883  0.4188325713581220
  0.6383198731274800  0.7236882291951604  0.5827449760517485
  0.8578154720297176  0.9457303654612866  0.3922507426339272
  0.8046296992769247  0.5519173577866038  0.6084598669649609
  0.6432639099523922  0.5524099829671166  0.6090034309019475
  0.6956855233082064  0.6086548337572714  0.3940707190251981
  0.8046116008060749  0.8909162290343209  0.6069965288382007
  0.8610529961486842  0.6073662389039203  0.3955888412196299
  0.9687009567665898  0.8919005613375255  0.6055712891339462
  0.6394737688278986  0.8918178750860775  0.6056284424258894
  0.5316125399264340  0.6077618984074704  0.3957173377053083
  0.5238428931649136  0.9523335218329970  0.4051615147897366
  0.9770840198303712  0.5458703245055101  0.5960362486613440
  0.6964696364897325  0.9457361068603447  0.3922647075865482
  0.4887754346081425  0.5220081169239694  0.6829678429823998
 
  0.00000000E+00  0.00000000E+00  0.00000000E+00
  0.00000000E+00  0.00000000E+00  0.00000000E+00
  0.00000000E+00  0.00000000E+00  0.00000000E+00
  0.00000000E+00  0.00000000E+00  0.00000000E+00
  0.00000000E+00  0.00000000E+00  0.00000000E+00
  0.00000000E+00  0.00000000E+00  0.00000000E+00
  0.00000000E+00  0.00000000E+00  0.00000000E+00
  0.00000000E+00  0.00000000E+00  0.00000000E+00
  0.00000000E+00  0.00000000E+00  0.00000000E+00
  0.00000000E+00  0.00000000E+00  0.00000000E+00
  0.00000000E+00  0.00000000E+00  0.00000000E+00
  0.00000000E+00  0.00000000E+00  0.00000000E+00
  0.00000000E+00  0.00000000E+00  0.00000000E+00
  0.00000000E+00  0.00000000E+00  0.00000000E+00
  0.00000000E+00  0.00000000E+00  0.00000000E+00
  0.00000000E+00  0.00000000E+00  0.00000000E+00
  0.00000000E+00  0.00000000E+00  0.00000000E+00
  0.00000000E+00  0.00000000E+00  0.00000000E+00
  0.00000000E+00  0.00000000E+00  0.00000000E+00
  0.00000000E+00  0.00000000E+00  0.00000000E+00
  0.00000000E+00  0.00000000E+00  0.00000000E+00
  0.00000000E+00  0.00000000E+00  0.00000000E+00
  0.00000000E+00  0.00000000E+00  0.00000000E+00
  0.00000000E+00  0.00000000E+00  0.00000000E+00
  0.00000000E+00  0.00000000E+00  0.00000000E+00
  0.00000000E+00  0.00000000E+00  0.00000000E+00
  0.00000000E+00  0.00000000E+00  0.00000000E+00
  0.00000000E+00  0.00000000E+00  0.00000000E+00
  0.00000000E+00  0.00000000E+00  0.00000000E+00
  0.00000000E+00  0.00000000E+00  0.00000000E+00
  0.00000000E+00  0.00000000E+00  0.00000000E+00
  0.00000000E+00  0.00000000E+00  0.00000000E+00
  0.00000000E+00  0.00000000E+00  0.00000000E+00
  0.00000000E+00  0.00000000E+00  0.00000000E+00
  0.00000000E+00  0.00000000E+00  0.00000000E+00
  0.00000000E+00  0.00000000E+00  0.00000000E+00
  0.00000000E+00  0.00000000E+00  0.00000000E+00
  0.00000000E+00  0.00000000E+00  0.00000000E+00
  0.00000000E+00  0.00000000E+00  0.00000000E+00
  0.00000000E+00  0.00000000E+00  0.00000000E+00
  0.00000000E+00  0.00000000E+00  0.00000000E+00
  0.00000000E+00  0.00000000E+00  0.00000000E+00
  0.00000000E+00  0.00000000E+00  0.00000000E+00
  0.00000000E+00  0.00000000E+00  0.00000000E+00
  0.00000000E+00  0.00000000E+00  0.00000000E+00
  0.00000000E+00  0.00000000E+00  0.00000000E+00
  0.00000000E+00  0.00000000E+00  0.00000000E+00
  0.00000000E+00  0.00000000E+00  0.00000000E+00
  0.00000000E+00  0.00000000E+00  0.00000000E+00
  0.00000000E+00  0.00000000E+00  0.00000000E+00
  0.00000000E+00  0.00000000E+00  0.00000000E+00
  0.00000000E+00  0.00000000E+00  0.00000000E+00
  0.00000000E+00  0.00000000E+00  0.00000000E+00
  0.00000000E+00  0.00000000E+00  0.00000000E+00
  0.00000000E+00  0.00000000E+00  0.00000000E+00
  0.00000000E+00  0.00000000E+00  0.00000000E+00
  0.00000000E+00  0.00000000E+00  0.00000000E+00
  0.00000000E+00  0.00000000E+00  0.00000000E+00
  0.00000000E+00  0.00000000E+00  0.00000000E+00
  0.00000000E+00  0.00000000E+00  0.00000000E+00
  0.00000000E+00  0.00000000E+00  0.00000000E+00
  0.00000000E+00  0.00000000E+00  0.00000000E+00
  0.00000000E+00  0.00000000E+00  0.00000000E+00
  0.00000000E+00  0.00000000E+00  0.00000000E+00
  0.00000000E+00  0.00000000E+00  0.00000000E+00
  0.00000000E+00  0.00000000E+00  0.00000000E+00
  0.00000000E+00  0.00000000E+00  0.00000000E+00
  0.00000000E+00  0.00000000E+00  0.00000000E+00
  0.00000000E+00  0.00000000E+00  0.00000000E+00
  0.00000000E+00  0.00000000E+00  0.00000000E+00
  0.00000000E+00  0.00000000E+00  0.00000000E+00
  0.00000000E+00  0.00000000E+00  0.00000000E+00
  0.00000000E+00  0.00000000E+00  0.00000000E+00
  0.00000000E+00  0.00000000E+00  0.00000000E+00
  0.00000000E+00  0.00000000E+00  0.00000000E+00
  0.00000000E+00  0.00000000E+00  0.00000000E+00
  0.00000000E+00  0.00000000E+00  0.00000000E+00
  0.00000000E+00  0.00000000E+00  0.00000000E+00
  0.00000000E+00  0.00000000E+00  0.00000000E+00
  0.00000000E+00  0.00000000E+00  0.00000000E+00
  0.00000000E+00  0.00000000E+00  0.00000000E+00
  0.00000000E+00  0.00000000E+00  0.00000000E+00
  0.00000000E+00  0.00000000E+00  0.00000000E+00
  0.00000000E+00  0.00000000E+00  0.00000000E+00
  0.00000000E+00  0.00000000E+00  0.00000000E+00
  0.00000000E+00  0.00000000E+00  0.00000000E+00
  0.00000000E+00  0.00000000E+00  0.00000000E+00
  0.00000000E+00  0.00000000E+00  0.00000000E+00
  0.00000000E+00  0.00000000E+00  0.00000000E+00
  0.00000000E+00  0.00000000E+00  0.00000000E+00
  0.00000000E+00  0.00000000E+00  0.00000000E+00
  0.00000000E+00  0.00000000E+00  0.00000000E+00
  0.00000000E+00  0.00000000E+00  0.00000000E+00
  0.00000000E+00  0.00000000E+00  0.00000000E+00
  0.00000000E+00  0.00000000E+00  0.00000000E+00
  0.00000000E+00  0.00000000E+00  0.00000000E+00
  0.00000000E+00  0.00000000E+00  0.00000000E+00
  0.00000000E+00  0.00000000E+00  0.00000000E+00
  0.00000000E+00  0.00000000E+00  0.00000000E+00
  0.00000000E+00  0.00000000E+00  0.00000000E+00
  0.00000000E+00  0.00000000E+00  0.00000000E+00
  0.00000000E+00  0.00000000E+00  0.00000000E+00
  0.00000000E+00  0.00000000E+00  0.00000000E+00
  0.00000000E+00  0.00000000E+00  0.00000000E+00
  0.00000000E+00  0.00000000E+00  0.00000000E+00
  0.00000000E+00  0.00000000E+00  0.00000000E+00
  0.00000000E+00  0.00000000E+00  0.00000000E+00
  0.00000000E+00  0.00000000E+00  0.00000000E+00
  0.00000000E+00  0.00000000E+00  0.00000000E+00
