CONTCAR\(9)                             
   1.00000000000000     
    10.9488000870000004    0.0000000000000000    0.0000000000000000
     0.0000000000000000   10.9488000870000004    0.0000000000000000
     0.0000000000000000    0.0000000000000000   22.0405998230000009
   Zr   Si   Te
    18    18    18
Direct
  0.1666699980000033  0.0000000000000000  0.5966512294066035
  0.0000000000000000  0.1666699980000033  0.4033488145933930
  0.5000000000000000  0.0000000000000000  0.5966512294066035
  0.3333300019999967  0.1666699980000033  0.4033488145933930
  0.8333299800000020  0.0000000000000000  0.5966512294066035
  0.6666700199999980  0.1666699980000033  0.4033488145933930
  0.1666699980000033  0.3333300019999967  0.5966512294066035
  0.0000000000000000  0.5000000000000000  0.4033488145933930
  0.5000000000000000  0.3333300019999967  0.5966512294066035
  0.3333300019999967  0.5000000000000000  0.4033488145933930
  0.8333299800000020  0.3333300019999967  0.5966512294066035
  0.6666700199999980  0.5000000000000000  0.4033488145933930
  0.1666699980000033  0.6666700199999980  0.5966512294066035
  0.0000000000000000  0.8333299800000020  0.4033488145933930
  0.5000000000000000  0.6666700199999980  0.5966512294066035
  0.3333300019999967  0.8333299800000020  0.4033488145933930
  0.8333299800000020  0.6666700199999980  0.5966512294066035
  0.6666700199999980  0.8333299800000020  0.4033488145933930
  0.1666699980000033  0.1666699980000033  0.5000000000000000
  0.0000000000000000  0.0000000000000000  0.5000000000000000
  0.5000000000000000  0.1666699980000033  0.5000000000000000
  0.3333300019999967  0.0000000000000000  0.5000000000000000
  0.8333299800000020  0.1666699980000033  0.5000000000000000
  0.6666700199999980  0.0000000000000000  0.5000000000000000
  0.1666699980000033  0.5000000000000000  0.5000000000000000
  0.0000000000000000  0.3333300019999967  0.5000000000000000
  0.5000000000000000  0.5000000000000000  0.5000000000000000
  0.3333300019999967  0.3333300019999967  0.5000000000000000
  0.8333299800000020  0.5000000000000000  0.5000000000000000
  0.6666700199999980  0.3333300019999967  0.5000000000000000
  0.1666699980000033  0.8333299800000020  0.5000000000000000
  0.0000000000000000  0.6666700199999980  0.5000000000000000
  0.5000000000000000  0.8333299800000020  0.5000000000000000
  0.3333300019999967  0.6666700199999980  0.5000000000000000
  0.8333299800000020  0.8333299800000020  0.5000000000000000
  0.6666700199999980  0.6666700199999980  0.5000000000000000
  0.0000000000000000  0.1666699980000033  0.6601044028167209
  0.1666699980000033  0.0000000000000000  0.3398955531832755
  0.3333300019999967  0.1666699980000033  0.6601044028167209
  0.5000000000000000  0.0000000000000000  0.3398955531832755
  0.6666700199999980  0.1666699980000033  0.6601044028167209
  0.8333299800000020  0.0000000000000000  0.3398955531832755
  0.0000000000000000  0.5000000000000000  0.6601044028167209
  0.1666699980000033  0.3333300019999967  0.3398955531832755
  0.3333300019999967  0.5000000000000000  0.6601044028167209
  0.5000000000000000  0.3333300019999967  0.3398955531832755
  0.6666700199999980  0.5000000000000000  0.6601044028167209
  0.8333299800000020  0.3333300019999967  0.3398955531832755
  0.0000000000000000  0.8333299800000020  0.6601044028167209
  0.1666699980000033  0.6666700199999980  0.3398955531832755
  0.3333300019999967  0.8333299800000020  0.6601044028167209
  0.5000000000000000  0.6666700199999980  0.3398955531832755
  0.6666700199999980  0.8333299800000020  0.6601044028167209
  0.8333299800000020  0.6666700199999980  0.3398955531832755
 
  0.00000000E+00  0.00000000E+00  0.00000000E+00
  0.00000000E+00  0.00000000E+00  0.00000000E+00
  0.00000000E+00  0.00000000E+00  0.00000000E+00
  0.00000000E+00  0.00000000E+00  0.00000000E+00
  0.00000000E+00  0.00000000E+00  0.00000000E+00
  0.00000000E+00  0.00000000E+00  0.00000000E+00
  0.00000000E+00  0.00000000E+00  0.00000000E+00
  0.00000000E+00  0.00000000E+00  0.00000000E+00
  0.00000000E+00  0.00000000E+00  0.00000000E+00
  0.00000000E+00  0.00000000E+00  0.00000000E+00
  0.00000000E+00  0.00000000E+00  0.00000000E+00
  0.00000000E+00  0.00000000E+00  0.00000000E+00
  0.00000000E+00  0.00000000E+00  0.00000000E+00
  0.00000000E+00  0.00000000E+00  0.00000000E+00
  0.00000000E+00  0.00000000E+00  0.00000000E+00
  0.00000000E+00  0.00000000E+00  0.00000000E+00
  0.00000000E+00  0.00000000E+00  0.00000000E+00
  0.00000000E+00  0.00000000E+00  0.00000000E+00
  0.00000000E+00  0.00000000E+00  0.00000000E+00
  0.00000000E+00  0.00000000E+00  0.00000000E+00
  0.00000000E+00  0.00000000E+00  0.00000000E+00
  0.00000000E+00  0.00000000E+00  0.00000000E+00
  0.00000000E+00  0.00000000E+00  0.00000000E+00
  0.00000000E+00  0.00000000E+00  0.00000000E+00
  0.00000000E+00  0.00000000E+00  0.00000000E+00
  0.00000000E+00  0.00000000E+00  0.00000000E+00
  0.00000000E+00  0.00000000E+00  0.00000000E+00
  0.00000000E+00  0.00000000E+00  0.00000000E+00
  0.00000000E+00  0.00000000E+00  0.00000000E+00
  0.00000000E+00  0.00000000E+00  0.00000000E+00
  0.00000000E+00  0.00000000E+00  0.00000000E+00
  0.00000000E+00  0.00000000E+00  0.00000000E+00
  0.00000000E+00  0.00000000E+00  0.00000000E+00
  0.00000000E+00  0.00000000E+00  0.00000000E+00
  0.00000000E+00  0.00000000E+00  0.00000000E+00
  0.00000000E+00  0.00000000E+00  0.00000000E+00
  0.00000000E+00  0.00000000E+00  0.00000000E+00
  0.00000000E+00  0.00000000E+00  0.00000000E+00
  0.00000000E+00  0.00000000E+00  0.00000000E+00
  0.00000000E+00  0.00000000E+00  0.00000000E+00
  0.00000000E+00  0.00000000E+00  0.00000000E+00
  0.00000000E+00  0.00000000E+00  0.00000000E+00
  0.00000000E+00  0.00000000E+00  0.00000000E+00
  0.00000000E+00  0.00000000E+00  0.00000000E+00
  0.00000000E+00  0.00000000E+00  0.00000000E+00
  0.00000000E+00  0.00000000E+00  0.00000000E+00
  0.00000000E+00  0.00000000E+00  0.00000000E+00
  0.00000000E+00  0.00000000E+00  0.00000000E+00
  0.00000000E+00  0.00000000E+00  0.00000000E+00
  0.00000000E+00  0.00000000E+00  0.00000000E+00
  0.00000000E+00  0.00000000E+00  0.00000000E+00
  0.00000000E+00  0.00000000E+00  0.00000000E+00
  0.00000000E+00  0.00000000E+00  0.00000000E+00
  0.00000000E+00  0.00000000E+00  0.00000000E+00
