 Ti2 O2 F2                              
   1.00000000000000     
     2.9526989730966542    0.0000000000000000    0.0000000000000000
     0.0000000000000000    3.9482006598790216    0.0000000000000000
     0.0000000000000000    0.0000000000000000   19.0768333165800037
   Ti   O    F 
     2     2     2
Direct
  0.4999999990489307  0.0000000001850310  0.5404178571209184
  0.0000000008948848  0.4999999997831465  0.4595834449917669
 -0.0000000007053380 -0.0000000003033027  0.4644068089169616
  0.5000000007772739  0.5000000001825460  0.5355956767148210
 -0.0000000004474848 -0.0000000001867334  0.6107538752020492
  0.5000000004317338  0.5000000003393125  0.3892423370534832
 
  0.00000000E+00  0.00000000E+00  0.00000000E+00
  0.00000000E+00  0.00000000E+00  0.00000000E+00
  0.00000000E+00  0.00000000E+00  0.00000000E+00
  0.00000000E+00  0.00000000E+00  0.00000000E+00
  0.00000000E+00  0.00000000E+00  0.00000000E+00
  0.00000000E+00  0.00000000E+00  0.00000000E+00
