CONTCAR\(5)                             
   1.00000000000000     
    11.4826002120999995    0.0000000000000000    0.0000000000000000
     0.0000000000000000   22.3225002289000010    0.0000000000000000
     0.0000000000000000    0.0000000000000000   23.4783000946000016
   Y    C    I    O 
    42    18    36     7
Direct
  0.1650365386715667  0.9733596694147758  0.4320697894041607
 -0.0016269082400344  0.6645156104767939  0.3942842761321816
  0.1649756377341162  0.7510719537615395  0.4838363049773942
  0.9984238345538085  0.6080471643481281  0.5253155460987875
 -0.0016181092555018  0.1636950117584815  0.6078231646033720
  0.1672966187383314  0.2518203604079763  0.5209844296670306
  0.1650735966850694  0.4722253785557093  0.5676007595088314
 -0.0016935229440558  0.8934053504261691  0.5255171628400783
 -0.0016421313545240  0.1094807325195055  0.4760746386949505
 -0.0017265062147471  0.8375278064763760  0.3943862272770049
  0.1652302635245845  0.5283060469468982  0.4314889164417398
  0.1644878481543309  0.0280786624593223  0.5687328052251174
 -0.0016143560479970  0.3390306107104112  0.6055124451020942
 -0.0015101575188846  0.3912898618154524  0.4736044146332716
  0.4982503647962706  0.9732298280953700  0.4321045698434681
  0.3318105734907379  0.6643944292166329  0.3942751441595237
  0.4983341760546736  0.7511976973645229  0.4838105928927813
  0.3313467848270711  0.6083281606143359  0.5253666700975368
  0.3359082277505909  0.1627384268611055  0.6111125133412548
  0.4984577528138036  0.2499158787892244  0.5197464222442306
  0.4984713792790737  0.4740522567066941  0.5670939969815577
  0.3312708950030884  0.8931046444759025  0.5256883225771743
  0.3315356132641072  0.1089781497792180  0.4765671985908204
  0.3316699888538914  0.8375497294554181  0.3944593779670795
  0.4985167829767195  0.5282843765758896  0.4314327866601214
  0.4982298183721175  0.0268979429936513  0.5684051365549696
  0.3477235743103472  0.3367612965269259  0.6150649699086940
  0.3327031439282442  0.3911316113216955  0.4762495985387200
  0.8315473548819451  0.9733647639031847  0.4320331136652660
  0.6649309603542800  0.6644452557022645  0.3942906796237167
  0.8317232654246878  0.7510916005866807  0.4838948503516109
  0.6653911577024746  0.6083537635903037  0.5253368613907980
  0.6608701318920581  0.1626902135832501  0.6111064524868156
  0.8295027883838272  0.2517918712479687  0.5209112260482283
  0.8319049478922839  0.4722645647057072  0.5676068127676352
  0.6651137617198133  0.8931079185955806  0.5256559286578237
  0.6652196131549255  0.1089105585019037  0.4765845305491928
  0.6649275326386894  0.8375553569415204  0.3944632269629612
  0.8317049917103566  0.5283603747523157  0.4314903566438404
  0.8321835682784120  0.0280212765262722  0.5687178161862467
  0.6491951826059392  0.3367452134413905  0.6150475695008432
  0.6642325338430597  0.3911707212225290  0.4762299135682179
  0.1635135915801656  0.1359236731520200  0.5449807694881164
  0.1651607386109417  0.6371546444875235  0.4564332218116533
 -0.0017336389562242  0.0000788847696616  0.4995732039059321
  0.1651375342436168  0.8643053943076158  0.4567712899228743
  0.9984967068816289  0.5023799633207351  0.4986886058279607
  0.1578300445160744  0.3663481134508499  0.5409191260960260
  0.4983714993798536  0.1358707863879940  0.5449487046743455
  0.4983604557097016  0.6369181163661142  0.4564415280674264
  0.3312671050153785  0.0003412449658860  0.4997685471976034
  0.4981770721431690  0.8641588959653937  0.4568567021531777
  0.3309570868827081  0.5018584514421141  0.4992681057188115
  0.4984172856616280  0.3693879081688973  0.5374433490370123
  0.8333178226434131  0.1358747622848857  0.5449625490040372
  0.8316380229814526  0.6371966590638559  0.4564121418583394
  0.6654152101230962  0.0002994493238512  0.4997329444575006
  0.8315323043572679  0.8643178868823964  0.4567367522616685
  0.6660485908184032  0.5018743732439113  0.4992556866080381
  0.8388529584848338  0.3663345574173714  0.5409053715607600
  0.1693037570537028  0.2524018921693569  0.6896062688503136
 -0.0015291317869798  0.2503630803771799  0.4182615841457343
 -0.0020475597899936  0.0513563443220056  0.6779553088130571
  0.1630178102146136  0.9004909252542471  0.6280342518575697
  0.1662716837836551  0.4034808560873061  0.3706615596440012
 -0.0018032394159136  0.9492989792431162  0.3233394694861536
 -0.0012808665491018  0.4506063462401947  0.6765562651690383
  0.1653038411263156  0.0990787846917810  0.3726315402911983
 -0.0009872190080477  0.5534984090835181  0.3224582157997539
 -0.0014222951934549  0.7501965014691211  0.5855299356124450
  0.1638126128870544  0.5998377226766730  0.6278794202420568
  0.1646822474526256  0.7511626090550727  0.3120525466886319
  0.4986032615629964  0.1861760890959291  0.7135851968221072
  0.3313920357175210  0.2507574624790984  0.4175061200695628
  0.3280259266388788  0.0428074892341848  0.6732246402263076
  0.4981151838047252  0.8997050344794051  0.6280271884863567
  0.4985719464460300  0.4029086997880375  0.3715497239255554
  0.3316041944622240  0.9492203130339053  0.3231387109096777
  0.3299508048161827  0.4563049518759533  0.6748699589012497
  0.4985118100275000  0.0988834977484672  0.3728379298421295
  0.3325278459510165  0.5528428790210896  0.3228841544916055
  0.3315313691059033  0.7505826500000622  0.5854212072493037
  0.4982976225758969  0.6008513644453218  0.6277356940243669
  0.4983469493688465  0.7505419613025480  0.3120705620594317
  0.8274457697952572  0.2523273268044680  0.6897004689921384
  0.6655336202493688  0.2506991481287329  0.4174693010170805
  0.6681973970985370  0.0425880563326859  0.6730088862357899
  0.8332106526536176  0.9001113193114584  0.6278829021759234
  0.8307073355323027  0.4035942799299430  0.3706302824273306
  0.6649303376485279  0.9492227535280230  0.3232214458168172
  0.6671567755371370  0.4562816248953609  0.6748103390374584
  0.8314335945998844  0.0992773260693013  0.3726475116740531
  0.6651641864841930  0.5530801576673083  0.3227021346527003
  0.6652250612823770  0.7505639760469850  0.5855515844206117
  0.8326976560982772  0.6000287784353521  0.6277378550990914
  0.8313852362690664  0.7518497761190515  0.3121411427593034
 -0.0016989901977202  0.7508984484125697  0.4368438914222385
  0.9983112326076991  0.2506100739727721  0.5663830898044081
  0.3315879026296121  0.7508263483007259  0.4367431257238646
  0.3345054510348497  0.2501211449613876  0.5676093559968346
  0.6651177872515207  0.7508426530747108  0.4368144221748655
  0.6623217873127925  0.2500892273353920  0.5676233020205542
  0.4984572720939036  0.3160367673441377  0.6549246859229356
 
  0.00000000E+00  0.00000000E+00  0.00000000E+00
  0.00000000E+00  0.00000000E+00  0.00000000E+00
  0.00000000E+00  0.00000000E+00  0.00000000E+00
  0.00000000E+00  0.00000000E+00  0.00000000E+00
  0.00000000E+00  0.00000000E+00  0.00000000E+00
  0.00000000E+00  0.00000000E+00  0.00000000E+00
  0.00000000E+00  0.00000000E+00  0.00000000E+00
  0.00000000E+00  0.00000000E+00  0.00000000E+00
  0.00000000E+00  0.00000000E+00  0.00000000E+00
  0.00000000E+00  0.00000000E+00  0.00000000E+00
  0.00000000E+00  0.00000000E+00  0.00000000E+00
  0.00000000E+00  0.00000000E+00  0.00000000E+00
  0.00000000E+00  0.00000000E+00  0.00000000E+00
  0.00000000E+00  0.00000000E+00  0.00000000E+00
  0.00000000E+00  0.00000000E+00  0.00000000E+00
  0.00000000E+00  0.00000000E+00  0.00000000E+00
  0.00000000E+00  0.00000000E+00  0.00000000E+00
  0.00000000E+00  0.00000000E+00  0.00000000E+00
  0.00000000E+00  0.00000000E+00  0.00000000E+00
  0.00000000E+00  0.00000000E+00  0.00000000E+00
  0.00000000E+00  0.00000000E+00  0.00000000E+00
  0.00000000E+00  0.00000000E+00  0.00000000E+00
  0.00000000E+00  0.00000000E+00  0.00000000E+00
  0.00000000E+00  0.00000000E+00  0.00000000E+00
  0.00000000E+00  0.00000000E+00  0.00000000E+00
  0.00000000E+00  0.00000000E+00  0.00000000E+00
  0.00000000E+00  0.00000000E+00  0.00000000E+00
  0.00000000E+00  0.00000000E+00  0.00000000E+00
  0.00000000E+00  0.00000000E+00  0.00000000E+00
  0.00000000E+00  0.00000000E+00  0.00000000E+00
  0.00000000E+00  0.00000000E+00  0.00000000E+00
  0.00000000E+00  0.00000000E+00  0.00000000E+00
  0.00000000E+00  0.00000000E+00  0.00000000E+00
  0.00000000E+00  0.00000000E+00  0.00000000E+00
  0.00000000E+00  0.00000000E+00  0.00000000E+00
  0.00000000E+00  0.00000000E+00  0.00000000E+00
  0.00000000E+00  0.00000000E+00  0.00000000E+00
  0.00000000E+00  0.00000000E+00  0.00000000E+00
  0.00000000E+00  0.00000000E+00  0.00000000E+00
  0.00000000E+00  0.00000000E+00  0.00000000E+00
  0.00000000E+00  0.00000000E+00  0.00000000E+00
  0.00000000E+00  0.00000000E+00  0.00000000E+00
  0.00000000E+00  0.00000000E+00  0.00000000E+00
  0.00000000E+00  0.00000000E+00  0.00000000E+00
  0.00000000E+00  0.00000000E+00  0.00000000E+00
  0.00000000E+00  0.00000000E+00  0.00000000E+00
  0.00000000E+00  0.00000000E+00  0.00000000E+00
  0.00000000E+00  0.00000000E+00  0.00000000E+00
  0.00000000E+00  0.00000000E+00  0.00000000E+00
  0.00000000E+00  0.00000000E+00  0.00000000E+00
  0.00000000E+00  0.00000000E+00  0.00000000E+00
  0.00000000E+00  0.00000000E+00  0.00000000E+00
  0.00000000E+00  0.00000000E+00  0.00000000E+00
  0.00000000E+00  0.00000000E+00  0.00000000E+00
  0.00000000E+00  0.00000000E+00  0.00000000E+00
  0.00000000E+00  0.00000000E+00  0.00000000E+00
  0.00000000E+00  0.00000000E+00  0.00000000E+00
  0.00000000E+00  0.00000000E+00  0.00000000E+00
  0.00000000E+00  0.00000000E+00  0.00000000E+00
  0.00000000E+00  0.00000000E+00  0.00000000E+00
  0.00000000E+00  0.00000000E+00  0.00000000E+00
  0.00000000E+00  0.00000000E+00  0.00000000E+00
  0.00000000E+00  0.00000000E+00  0.00000000E+00
  0.00000000E+00  0.00000000E+00  0.00000000E+00
  0.00000000E+00  0.00000000E+00  0.00000000E+00
  0.00000000E+00  0.00000000E+00  0.00000000E+00
  0.00000000E+00  0.00000000E+00  0.00000000E+00
  0.00000000E+00  0.00000000E+00  0.00000000E+00
  0.00000000E+00  0.00000000E+00  0.00000000E+00
  0.00000000E+00  0.00000000E+00  0.00000000E+00
  0.00000000E+00  0.00000000E+00  0.00000000E+00
  0.00000000E+00  0.00000000E+00  0.00000000E+00
  0.00000000E+00  0.00000000E+00  0.00000000E+00
  0.00000000E+00  0.00000000E+00  0.00000000E+00
  0.00000000E+00  0.00000000E+00  0.00000000E+00
  0.00000000E+00  0.00000000E+00  0.00000000E+00
  0.00000000E+00  0.00000000E+00  0.00000000E+00
  0.00000000E+00  0.00000000E+00  0.00000000E+00
  0.00000000E+00  0.00000000E+00  0.00000000E+00
  0.00000000E+00  0.00000000E+00  0.00000000E+00
  0.00000000E+00  0.00000000E+00  0.00000000E+00
  0.00000000E+00  0.00000000E+00  0.00000000E+00
  0.00000000E+00  0.00000000E+00  0.00000000E+00
  0.00000000E+00  0.00000000E+00  0.00000000E+00
  0.00000000E+00  0.00000000E+00  0.00000000E+00
  0.00000000E+00  0.00000000E+00  0.00000000E+00
  0.00000000E+00  0.00000000E+00  0.00000000E+00
  0.00000000E+00  0.00000000E+00  0.00000000E+00
  0.00000000E+00  0.00000000E+00  0.00000000E+00
  0.00000000E+00  0.00000000E+00  0.00000000E+00
  0.00000000E+00  0.00000000E+00  0.00000000E+00
  0.00000000E+00  0.00000000E+00  0.00000000E+00
  0.00000000E+00  0.00000000E+00  0.00000000E+00
  0.00000000E+00  0.00000000E+00  0.00000000E+00
  0.00000000E+00  0.00000000E+00  0.00000000E+00
  0.00000000E+00  0.00000000E+00  0.00000000E+00
  0.00000000E+00  0.00000000E+00  0.00000000E+00
  0.00000000E+00  0.00000000E+00  0.00000000E+00
  0.00000000E+00  0.00000000E+00  0.00000000E+00
  0.00000000E+00  0.00000000E+00  0.00000000E+00
  0.00000000E+00  0.00000000E+00  0.00000000E+00
  0.00000000E+00  0.00000000E+00  0.00000000E+00
  0.00000000E+00  0.00000000E+00  0.00000000E+00
