 Na3 Ti10 S20                           
   1.00000000000000     
     5.9104515801545290    0.0000000000000000    0.0000000000000000
     2.9552257900772645    8.5110094358889636    0.0000000000000000
     0.0000000000000000    0.0000000000000000   24.9838328136540007
   Na   Ti   S 
     3    10    20
Direct
  0.2837655783185661 -0.0000007713482134  0.4980934155994003
  0.7267365732110214  0.3783776976366200  0.5016119998455251
  0.1051230043773290  0.6216487054178096  0.5016164512832814
  0.8653458383149386  0.8018165803369991  0.6396546890971910
  0.2716247651282880  0.0000106247636913  0.6412258652166450
  0.9345702245615488  0.0000039687041288  0.3600690587074156
  0.6671626699898688  0.1981936937666611  0.6396521983241050
  0.3374855744775476  0.1983056464375459  0.3604040136625907
  0.0633473009814860  0.4009148746743094  0.6398216415925441
  0.7330270656108011  0.4010863641758999  0.3592182047723606
  0.4642703511193834  0.5990766066950354  0.6398240105487188
  0.1341195985334660  0.5988942605319493  0.3592237442381268
  0.5357952523226517  0.8016646824731374  0.3604008981032411
  0.2011430535038719  0.8017700038581407  0.5814873636189403
  0.8681953370168070  0.7999488999486493  0.3037954101500120
  0.6039065274687350  0.0000055394386500  0.5811432653147197
  0.2685293056547535 -0.0000054857548727  0.3039774564699083
  0.0028935789745721  0.1982452596345085  0.5814811647463198
  0.6681403343843909  0.2000455970436119  0.3037928711527697
  0.3946818067992679  0.3991772446987725  0.5806845378487102
  0.9335859170829252  0.0000062283834932  0.6962246115641407
  0.0682496624171259  0.3993065893727000  0.3038267443590038
  0.6076954275237056  0.0000037765341523  0.4189678009357220
  0.7938690695456072  0.6008117828898627  0.5806863597375311
  0.3332184650104033  0.2013455071433866  0.6962864611543901
  0.4675572467756248  0.6006831460092203  0.3038249645381118
  0.0019866159211274  0.2003867764122557  0.4186295971804614
  0.7324101996999914  0.3999337467690211  0.6957785783391032
  0.3978568042435391  0.3999301056156898  0.4190315238543013
  0.1323312778907319  0.6000733609598635  0.6957759290232016
  0.7978026456622606  0.6000549541556410  0.4190311903022356
  0.5345478789299773  0.7986751166529601  0.6962875244561602
  0.2023730485476542  0.7996089159687197  0.4186288712843008
 
  0.00000000E+00  0.00000000E+00  0.00000000E+00
  0.00000000E+00  0.00000000E+00  0.00000000E+00
  0.00000000E+00  0.00000000E+00  0.00000000E+00
  0.00000000E+00  0.00000000E+00  0.00000000E+00
  0.00000000E+00  0.00000000E+00  0.00000000E+00
  0.00000000E+00  0.00000000E+00  0.00000000E+00
  0.00000000E+00  0.00000000E+00  0.00000000E+00
  0.00000000E+00  0.00000000E+00  0.00000000E+00
  0.00000000E+00  0.00000000E+00  0.00000000E+00
  0.00000000E+00  0.00000000E+00  0.00000000E+00
  0.00000000E+00  0.00000000E+00  0.00000000E+00
  0.00000000E+00  0.00000000E+00  0.00000000E+00
  0.00000000E+00  0.00000000E+00  0.00000000E+00
  0.00000000E+00  0.00000000E+00  0.00000000E+00
  0.00000000E+00  0.00000000E+00  0.00000000E+00
  0.00000000E+00  0.00000000E+00  0.00000000E+00
  0.00000000E+00  0.00000000E+00  0.00000000E+00
  0.00000000E+00  0.00000000E+00  0.00000000E+00
  0.00000000E+00  0.00000000E+00  0.00000000E+00
  0.00000000E+00  0.00000000E+00  0.00000000E+00
  0.00000000E+00  0.00000000E+00  0.00000000E+00
  0.00000000E+00  0.00000000E+00  0.00000000E+00
  0.00000000E+00  0.00000000E+00  0.00000000E+00
  0.00000000E+00  0.00000000E+00  0.00000000E+00
  0.00000000E+00  0.00000000E+00  0.00000000E+00
  0.00000000E+00  0.00000000E+00  0.00000000E+00
  0.00000000E+00  0.00000000E+00  0.00000000E+00
  0.00000000E+00  0.00000000E+00  0.00000000E+00
  0.00000000E+00  0.00000000E+00  0.00000000E+00
  0.00000000E+00  0.00000000E+00  0.00000000E+00
  0.00000000E+00  0.00000000E+00  0.00000000E+00
  0.00000000E+00  0.00000000E+00  0.00000000E+00
  0.00000000E+00  0.00000000E+00  0.00000000E+00
