CONTCAR\(6)                             
   1.00000000000000     
    13.2530002594000003    0.0000000000000000    0.0000000000000000
    -6.6264500618000000   11.4773481809000000    0.0000000000000000
     0.0000000000000000    0.0000000000000000   18.1429996490000001
   V    Se   O 
    16    32     1
Direct
  0.0085349969881230  0.0009818224536209  0.4980884041946428
  0.2446933528842784  0.9894379384775096  0.4999340563611576
  0.4924329137599245  0.0009861504584884  0.4980829189993745
  0.7502206753683714  0.0001916051645669  0.4965812981928361
  0.0086174278248033  0.2495058619717841  0.5023250752116240
  0.2383283885132456  0.2222550174656655  0.5031936089866288
  0.4838938021760815  0.2222567020292662  0.5031981691221525
  0.7409104137824917  0.2495295428364369  0.5023319323289616
  0.0043937098298105  0.5088063247228625  0.5013692614210378
  0.2572932573023162  0.5181295406275178  0.5044352928621401
  0.4930668481137470  0.4862526136184537  0.5208009976612429
  0.7608488232478647  0.5181730714338441  0.5044614430584670
  0.0121732164711336  0.7597638960372901  0.4998571375791405
  0.2475585048460991  0.7597514316703914  0.4998415805963063
  0.4929055682590344  0.7712115647771431  0.4966814025835576
  0.7783358415195452  0.7712278058829874  0.4967105065757643
  0.1574909035448475  0.0686072536528115  0.5937109315696361
  0.0852971653129318  0.1675645295219042  0.4104998034071244
  0.4111150757676160  0.0686028281244225  0.5937060823504162
  0.3305399393098654  0.1610921605613813  0.4107012941486596
  0.6666813594678630  0.0829297404434433  0.5851744322670807
  0.5822694384323743  0.1675740836176843  0.4105071155594280
  0.9163541349698257  0.0829288741685124  0.5852321626575514
  0.8371582809009567  0.1743177463338493  0.4151501154838480
  0.1730019452987001  0.3350753614090476  0.5870179767030693
  0.0882404474629774  0.4213063559433872  0.4168524529093719
  0.3897266216885888  0.2794576716463726  0.6031022558210950
  0.3376318898785181  0.4150487652367297  0.4285988881336731
  0.6620632833027836  0.3350865821398359  0.5870130986952931
  0.5773923268407829  0.4150651356214052  0.4286314343181284
  0.9173965578154529  0.3347917404285358  0.5844827548157006
  0.8330462043685127  0.4213673738828113  0.4168534170716467
  0.1674923511627890  0.5894786266283272  0.5908943371192253
  0.0845544536534632  0.6691356282175112  0.4103517166885662
  0.4228415020100651  0.6082874360642324  0.5884893992259024
  0.3323760408470203  0.6709351144869076  0.4103573729752170
  0.6853765088661831  0.6083105921905555  0.5885035853308795
  0.5814213880363520  0.6628278666782155  0.4332518825587848
  0.9219789711807083  0.5894757645242332  0.5909092067844518
  0.8385407112021387  0.6709388960624738  0.4103673734853678
  0.1661157472254818  0.8322300589925149  0.5933027530174538
  0.0859618300488751  0.9168718778969932  0.4075252021505796
  0.4151721721516537  0.8395300819203094  0.5906916123086025
  0.3308990116960331  0.9168725950436083  0.4075261248234849
  0.6692883171913809  0.8385827937311954  0.5825349371442627
  0.5849629455320874  0.9245321950770461  0.4069235421757950
  0.9243792752316783  0.8395120310288985  0.5907321017464474
  0.8395885770757726  0.9245128216045182  0.4069033024366924
  0.4689872396388508  0.4379387824925184  0.6180286763815531
 
  0.00000000E+00  0.00000000E+00  0.00000000E+00
  0.00000000E+00  0.00000000E+00  0.00000000E+00
  0.00000000E+00  0.00000000E+00  0.00000000E+00
  0.00000000E+00  0.00000000E+00  0.00000000E+00
  0.00000000E+00  0.00000000E+00  0.00000000E+00
  0.00000000E+00  0.00000000E+00  0.00000000E+00
  0.00000000E+00  0.00000000E+00  0.00000000E+00
  0.00000000E+00  0.00000000E+00  0.00000000E+00
  0.00000000E+00  0.00000000E+00  0.00000000E+00
  0.00000000E+00  0.00000000E+00  0.00000000E+00
  0.00000000E+00  0.00000000E+00  0.00000000E+00
  0.00000000E+00  0.00000000E+00  0.00000000E+00
  0.00000000E+00  0.00000000E+00  0.00000000E+00
  0.00000000E+00  0.00000000E+00  0.00000000E+00
  0.00000000E+00  0.00000000E+00  0.00000000E+00
  0.00000000E+00  0.00000000E+00  0.00000000E+00
  0.00000000E+00  0.00000000E+00  0.00000000E+00
  0.00000000E+00  0.00000000E+00  0.00000000E+00
  0.00000000E+00  0.00000000E+00  0.00000000E+00
  0.00000000E+00  0.00000000E+00  0.00000000E+00
  0.00000000E+00  0.00000000E+00  0.00000000E+00
  0.00000000E+00  0.00000000E+00  0.00000000E+00
  0.00000000E+00  0.00000000E+00  0.00000000E+00
  0.00000000E+00  0.00000000E+00  0.00000000E+00
  0.00000000E+00  0.00000000E+00  0.00000000E+00
  0.00000000E+00  0.00000000E+00  0.00000000E+00
  0.00000000E+00  0.00000000E+00  0.00000000E+00
  0.00000000E+00  0.00000000E+00  0.00000000E+00
  0.00000000E+00  0.00000000E+00  0.00000000E+00
  0.00000000E+00  0.00000000E+00  0.00000000E+00
  0.00000000E+00  0.00000000E+00  0.00000000E+00
  0.00000000E+00  0.00000000E+00  0.00000000E+00
  0.00000000E+00  0.00000000E+00  0.00000000E+00
  0.00000000E+00  0.00000000E+00  0.00000000E+00
  0.00000000E+00  0.00000000E+00  0.00000000E+00
  0.00000000E+00  0.00000000E+00  0.00000000E+00
  0.00000000E+00  0.00000000E+00  0.00000000E+00
  0.00000000E+00  0.00000000E+00  0.00000000E+00
  0.00000000E+00  0.00000000E+00  0.00000000E+00
  0.00000000E+00  0.00000000E+00  0.00000000E+00
  0.00000000E+00  0.00000000E+00  0.00000000E+00
  0.00000000E+00  0.00000000E+00  0.00000000E+00
  0.00000000E+00  0.00000000E+00  0.00000000E+00
  0.00000000E+00  0.00000000E+00  0.00000000E+00
  0.00000000E+00  0.00000000E+00  0.00000000E+00
  0.00000000E+00  0.00000000E+00  0.00000000E+00
  0.00000000E+00  0.00000000E+00  0.00000000E+00
  0.00000000E+00  0.00000000E+00  0.00000000E+00
  0.00000000E+00  0.00000000E+00  0.00000000E+00
