 Ti2 Br2 O2                             
   1.00000000000000     
     3.3198986176253280    0.0000000000000000    0.0000000000000000
     0.0000000000000000    3.9871792540752828    0.0000000000000000
     0.0000000000000000    0.0000000000000000   20.2246911658580011
   Ti   Br   O 
     2     2     2
Direct
  0.4999999640028219 -0.0000000045313735  0.4663472449274653
  0.0000000401802931  0.5000000078138682  0.5336622209501466
 -0.0000000410982002 -0.0000000064471473  0.3693705992080342
  0.5000000255818532  0.5000000135493167  0.6306216645601826
  0.5000000361629013  0.4999999979842105  0.4714758878613642
 -0.0000000248296683 -0.0000000083688746  0.5285223824928059
 
  0.00000000E+00  0.00000000E+00  0.00000000E+00
  0.00000000E+00  0.00000000E+00  0.00000000E+00
  0.00000000E+00  0.00000000E+00  0.00000000E+00
  0.00000000E+00  0.00000000E+00  0.00000000E+00
  0.00000000E+00  0.00000000E+00  0.00000000E+00
  0.00000000E+00  0.00000000E+00  0.00000000E+00
