CONTCAR\(6)                             
   1.00000000000000     
    12.7578001021999992    0.0000000000000000    0.0000000000000000
    -6.3789000510999996   11.0485789849000007    0.0000000000000000
     0.0000000000000000    0.0000000000000000   17.9787006377999994
   Cr   Se   O 
    16    32     1
Direct
  0.0029600844817739 -0.0028913972249634  0.5032199906523562
  0.2381696585437877  0.9776344471392761  0.5005016620478705
  0.4797778947591404  0.9914562897892737  0.5012405893835972
  0.7450269459760273  0.9710320262425862  0.5038706529709385
  0.0184277012018198  0.2728470732375545  0.5006238775803322
  0.2379883449289064  0.2570540271675152  0.5009852831892008
  0.5145270049947845  0.2532146965090916  0.5009889858364027
  0.7493633954072249  0.2676322158886508  0.5014948314649014
  0.9797643253299542  0.4888836251531159  0.5022728162942046
  0.2627537610713284  0.4872705884806682  0.5007794369272744
  0.4751020363296793  0.4645717534445737  0.5003603888258112
  0.7480767645473756  0.4896792390056967  0.5031412676199634
  0.0109944710807532  0.7444037395682571  0.5019407738421934
  0.2564570109135122  0.7714534035166800  0.4998203174101887
  0.4807699989021775  0.7556997204116355  0.4990324685474872
  0.7790014216649644  0.7578537079044356  0.5025591397701528
  0.1663802067797216  0.0820271613723678  0.4141991129475591
  0.0788476441672838  0.1679104541117707  0.5913504269483153
  0.4123574878848641  0.0831722049801235  0.4119913524197231
  0.3286222866008082  0.1611337223366948  0.5788236759181955
  0.6665621968860300  0.0796835764893586  0.4249922001826123
  0.5825263128873609  0.1619492993545857  0.5907479138685521
  0.9155571375554069  0.0854770142168527  0.4202126231688809
  0.8314925104779397  0.1633215683355342  0.5780298084254695
  0.1659935587995453  0.3365609246754775  0.4044428011401930
  0.0876072248418047  0.4235824502252007  0.5908947557192264
  0.4073491883822657  0.3164598035546162  0.4089454770401530
  0.3296868962115582  0.4089984144883850  0.5977840160764671
  0.6680604512635062  0.3331420559018499  0.4051552482871530
  0.5782161443154358  0.4123437853427815  0.5926794962109848
  0.9129037284924085  0.3301516054155567  0.4107729325903622
  0.8268632390037917  0.4113748379172993  0.5995716433036822
  0.1665579450845217  0.5818257353732194  0.4265057226188429
  0.0880903273627333  0.6612387121295686  0.5899613934051524
  0.4162937928343579  0.5782770285796937  0.4126891464277733
  0.3262930450205646  0.6632286306328901  0.5869029181360810
  0.6594095144833101  0.5768527955330426  0.4208439807705435
  0.5812187850267040  0.6604769242377825  0.5659787862884268
  0.9137112343773703  0.5796437676583779  0.4108064561256374
  0.8392435316941167  0.6614638202831024  0.5921434410763645
  0.1638118845952817  0.8254594336750014  0.4045525175720252
  0.0842729741020345  0.9127120342924010  0.5936309508338112
  0.4114011082514665  0.8357826172415869  0.4049574536739085
  0.3283027383713757  0.9166821151049110  0.5974341191015881
  0.6625149279788082  0.8199746442609365  0.4135698152366949
  0.5781860348101987  0.9142577558274206  0.5897563875479207
  0.9265256195957248  0.8329975758762390  0.4093491892243522
  0.8367291745246169  0.9113058170131226  0.5970729921124793
  0.5791204362038527  0.6629367003281598  0.6596891692380009
 
  0.00000000E+00  0.00000000E+00  0.00000000E+00
  0.00000000E+00  0.00000000E+00  0.00000000E+00
  0.00000000E+00  0.00000000E+00  0.00000000E+00
  0.00000000E+00  0.00000000E+00  0.00000000E+00
  0.00000000E+00  0.00000000E+00  0.00000000E+00
  0.00000000E+00  0.00000000E+00  0.00000000E+00
  0.00000000E+00  0.00000000E+00  0.00000000E+00
  0.00000000E+00  0.00000000E+00  0.00000000E+00
  0.00000000E+00  0.00000000E+00  0.00000000E+00
  0.00000000E+00  0.00000000E+00  0.00000000E+00
  0.00000000E+00  0.00000000E+00  0.00000000E+00
  0.00000000E+00  0.00000000E+00  0.00000000E+00
  0.00000000E+00  0.00000000E+00  0.00000000E+00
  0.00000000E+00  0.00000000E+00  0.00000000E+00
  0.00000000E+00  0.00000000E+00  0.00000000E+00
  0.00000000E+00  0.00000000E+00  0.00000000E+00
  0.00000000E+00  0.00000000E+00  0.00000000E+00
  0.00000000E+00  0.00000000E+00  0.00000000E+00
  0.00000000E+00  0.00000000E+00  0.00000000E+00
  0.00000000E+00  0.00000000E+00  0.00000000E+00
  0.00000000E+00  0.00000000E+00  0.00000000E+00
  0.00000000E+00  0.00000000E+00  0.00000000E+00
  0.00000000E+00  0.00000000E+00  0.00000000E+00
  0.00000000E+00  0.00000000E+00  0.00000000E+00
  0.00000000E+00  0.00000000E+00  0.00000000E+00
  0.00000000E+00  0.00000000E+00  0.00000000E+00
  0.00000000E+00  0.00000000E+00  0.00000000E+00
  0.00000000E+00  0.00000000E+00  0.00000000E+00
  0.00000000E+00  0.00000000E+00  0.00000000E+00
  0.00000000E+00  0.00000000E+00  0.00000000E+00
  0.00000000E+00  0.00000000E+00  0.00000000E+00
  0.00000000E+00  0.00000000E+00  0.00000000E+00
  0.00000000E+00  0.00000000E+00  0.00000000E+00
  0.00000000E+00  0.00000000E+00  0.00000000E+00
  0.00000000E+00  0.00000000E+00  0.00000000E+00
  0.00000000E+00  0.00000000E+00  0.00000000E+00
  0.00000000E+00  0.00000000E+00  0.00000000E+00
  0.00000000E+00  0.00000000E+00  0.00000000E+00
  0.00000000E+00  0.00000000E+00  0.00000000E+00
  0.00000000E+00  0.00000000E+00  0.00000000E+00
  0.00000000E+00  0.00000000E+00  0.00000000E+00
  0.00000000E+00  0.00000000E+00  0.00000000E+00
  0.00000000E+00  0.00000000E+00  0.00000000E+00
  0.00000000E+00  0.00000000E+00  0.00000000E+00
  0.00000000E+00  0.00000000E+00  0.00000000E+00
  0.00000000E+00  0.00000000E+00  0.00000000E+00
  0.00000000E+00  0.00000000E+00  0.00000000E+00
  0.00000000E+00  0.00000000E+00  0.00000000E+00
  0.00000000E+00  0.00000000E+00  0.00000000E+00
