CONTCAR\(6)                             
   1.00000000000000     
    13.7857999802000002    0.0000000000000000    0.0000000000000000
    -6.8928999901000001   11.9388529942999995    0.0000000000000000
     0.0000000000000000    0.0000000000000000   18.1305007935000013
   Ru   Se   H 
    16    32     1
Direct
  0.1790983706671483  0.0832647205119414  0.4927905564831647
  0.4040674754213072  0.0833335901349130  0.4927068187058481
  0.6734588866201108  0.0620954306508352  0.4994548461358832
  0.8883385859768751  0.0618240852647034  0.4995729310651456
  0.1602258546408990  0.3563510335211291  0.5014273549871646
  0.3929225647803918  0.2860103007998518  0.4765538246778078
  0.6958277832773661  0.3564740926162315  0.5013943224091051
  0.9296134642116982  0.3584506468229023  0.5024302852009086
  0.1769193680284218  0.5765982493313544  0.5030811499355963
  0.3842564582053853  0.5604149025419218  0.5101313289900276
  0.6755233642956640  0.5604720868234310  0.5103018044566099
  0.8989800085281701  0.5766885016290075  0.5032103158568049
  0.1857411649828151  0.8717914029527734  0.4979721334515261
  0.4490250390146073  0.8484131848452421  0.5001179139963057
  0.6686529085502642  0.8378297593935926  0.5046814421259853
  0.8991023513718162  0.8482820459581148  0.5002811402612579
  0.0133299393408493  0.0183979570886663  0.5774521862048445
  0.0037744037922138  0.0115053452330613  0.4162285806035726
  0.2592763988181801  0.0186338299214484  0.5905656448196908
  0.2542458219448847  0.0086723935102100  0.3981644832704205
  0.5049757908951378  0.0185953206920999  0.5772857948394190
  0.5076839076428286  0.0117287335664500  0.4160718548022970
  0.7456366776620200  0.9918359795912295  0.5965347619732810
  0.7413935353504826  0.9830645669619287  0.4058784302202270
  0.9888562354723334  0.2420528816638239  0.5778977233229554
  0.9882560567638734  0.2447316659710879  0.4244929248493463
  0.2450507726529239  0.2562167809903499  0.5695298838186318
  0.2230408498788847  0.2478880496819755  0.4124982759627258
  0.5109809883048513  0.2561972789477949  0.5695680547891016
  0.5249762637520377  0.2480647390432367  0.4124215980371204
  0.7535014130958189  0.2424554293309882  0.5776861488177047
  0.7570255912463040  0.2452661508183382  0.4244486334265076
  0.0142355204495104  0.5290331561937620  0.5856693270824849
  0.0136424410552962  0.5281985331752708  0.4195798988940425
  0.2377856545722992  0.4960896882198398  0.6027707146318022
  0.2533838437725109  0.5032728321258020  0.4072181785689821
  0.5023356444872604  0.5055702552794017  0.5906225956096804
  0.4874905951975990  0.4754280691179744  0.4353582846698316
  0.7575345496260510  0.4957263331906745  0.6029425318246169
  0.7492250385112698  0.5034750884259438  0.4072519604420677
  0.0004967856526221  0.7652986275157971  0.5723007372975601
  0.9967567163478677  0.7612266269159420  0.4286526865336597
  0.2645479055374764  0.7653625634056880  0.5720967895172535
  0.2641417559970023  0.7613096571629114  0.4285887817360887
  0.4960887188157344  0.7371453247416113  0.5843010047766199
  0.4969686841540408  0.7252443481769220  0.4260574086124720
  0.7406342600562326  0.7372477167869249  0.5843816897970768
  0.7279337651207314  0.7253226195368327  0.4261677337902157
  0.5478199124598930  0.5975975222180594  0.6491360567185893
 
  0.00000000E+00  0.00000000E+00  0.00000000E+00
  0.00000000E+00  0.00000000E+00  0.00000000E+00
  0.00000000E+00  0.00000000E+00  0.00000000E+00
  0.00000000E+00  0.00000000E+00  0.00000000E+00
  0.00000000E+00  0.00000000E+00  0.00000000E+00
  0.00000000E+00  0.00000000E+00  0.00000000E+00
  0.00000000E+00  0.00000000E+00  0.00000000E+00
  0.00000000E+00  0.00000000E+00  0.00000000E+00
  0.00000000E+00  0.00000000E+00  0.00000000E+00
  0.00000000E+00  0.00000000E+00  0.00000000E+00
  0.00000000E+00  0.00000000E+00  0.00000000E+00
  0.00000000E+00  0.00000000E+00  0.00000000E+00
  0.00000000E+00  0.00000000E+00  0.00000000E+00
  0.00000000E+00  0.00000000E+00  0.00000000E+00
  0.00000000E+00  0.00000000E+00  0.00000000E+00
  0.00000000E+00  0.00000000E+00  0.00000000E+00
  0.00000000E+00  0.00000000E+00  0.00000000E+00
  0.00000000E+00  0.00000000E+00  0.00000000E+00
  0.00000000E+00  0.00000000E+00  0.00000000E+00
  0.00000000E+00  0.00000000E+00  0.00000000E+00
  0.00000000E+00  0.00000000E+00  0.00000000E+00
  0.00000000E+00  0.00000000E+00  0.00000000E+00
  0.00000000E+00  0.00000000E+00  0.00000000E+00
  0.00000000E+00  0.00000000E+00  0.00000000E+00
  0.00000000E+00  0.00000000E+00  0.00000000E+00
  0.00000000E+00  0.00000000E+00  0.00000000E+00
  0.00000000E+00  0.00000000E+00  0.00000000E+00
  0.00000000E+00  0.00000000E+00  0.00000000E+00
  0.00000000E+00  0.00000000E+00  0.00000000E+00
  0.00000000E+00  0.00000000E+00  0.00000000E+00
  0.00000000E+00  0.00000000E+00  0.00000000E+00
  0.00000000E+00  0.00000000E+00  0.00000000E+00
  0.00000000E+00  0.00000000E+00  0.00000000E+00
  0.00000000E+00  0.00000000E+00  0.00000000E+00
  0.00000000E+00  0.00000000E+00  0.00000000E+00
  0.00000000E+00  0.00000000E+00  0.00000000E+00
  0.00000000E+00  0.00000000E+00  0.00000000E+00
  0.00000000E+00  0.00000000E+00  0.00000000E+00
  0.00000000E+00  0.00000000E+00  0.00000000E+00
  0.00000000E+00  0.00000000E+00  0.00000000E+00
  0.00000000E+00  0.00000000E+00  0.00000000E+00
  0.00000000E+00  0.00000000E+00  0.00000000E+00
  0.00000000E+00  0.00000000E+00  0.00000000E+00
  0.00000000E+00  0.00000000E+00  0.00000000E+00
  0.00000000E+00  0.00000000E+00  0.00000000E+00
  0.00000000E+00  0.00000000E+00  0.00000000E+00
  0.00000000E+00  0.00000000E+00  0.00000000E+00
  0.00000000E+00  0.00000000E+00  0.00000000E+00
  0.00000000E+00  0.00000000E+00  0.00000000E+00
