CONTCAR\(3)                             
   1.00000000000000     
    14.6345996856999996    0.0000000000000000    0.0000000000000000
     0.0000000000000000   15.8402004242000007    0.0000000000000000
     0.0000000000000000    0.0000000000000000   18.4207000731999990
   Ti   Ag   F    O 
     9     9    54     1
Direct
  0.1678518573833203  0.1576982909121808  0.5218847474268961
  0.5043335489297862  0.1590489270893327  0.5172144362486675
  0.8346382599372458  0.1649929515833660  0.5112526610410451
  0.1938398715852256  0.5030336838022964  0.5346671316857377
  0.5227364088318035  0.5020778241135001  0.5410452004383668
  0.8519828043320297  0.5188885592854573  0.5357029372915668
  0.1462978696209332  0.8301470394885885  0.4495772326213747
  0.4864227254179765  0.8222861222227160  0.4436501440295729
  0.8150613593662435  0.8233173695138745  0.4287013068351013
  0.9806096966107921  0.9902727449776076  0.4886574771840771
  0.3201675279113297  0.9914469455976195  0.4972176378867372
  0.6553528927856616  0.9934974122746743  0.4862168479329692
  0.0121999660941118  0.3348513492521298  0.5235786062187252
  0.3448419697776236  0.3301291156789706  0.5308646475325893
  0.6788455653730664  0.3361187815363836  0.5275401460380692
  0.0125151765566064  0.6639237606437219  0.4795427529619467
  0.3413902452616227  0.6658693609444281  0.4869785301243989
  0.6788669890355326  0.6870564532639745  0.5530361496298101
  0.0944832465858873  0.1624692209845001  0.6009803938098700
  0.2430482328502748  0.1553204186548615  0.4426967536811872
  0.2472282019070614  0.0742246055924064  0.5660013183245323
  0.0923504170527656  0.2413736971685895  0.4740110648240005
  0.0960252127103774  0.0690770598598371  0.4789566810032398
  0.2401811842275688  0.2476764150177070  0.5639512238054554
  0.4345235666393418  0.1599251724136077  0.5986942509559503
  0.5751904381537182  0.1566818774644797  0.4355397024480729
  0.5852144020584881  0.0742444004019968  0.5582831115955622
  0.4239287056290021  0.2418288162215001  0.4737165918159255
  0.4329086764045187  0.0690047106365368  0.4762128106487276
  0.5767076208885654  0.2489858704771004  0.5573173334272966
  0.7617309284835911  0.1687257182657795  0.5909028504981098
  0.9118168406488443  0.1665304595596360  0.4337271327542257
  0.9090820413439182  0.0770489458142000  0.5547480819982378
  0.7590559121828164  0.2514236716287403  0.4665882222791539
  0.7636555555318213  0.0780177180551233  0.4656871543421340
  0.9061963538727572  0.2546797422463144  0.5562747124581202
  0.1198012475940777  0.5122791266409307  0.6120696890993195
  0.2746375494129459  0.4886609910210972  0.4584389189314312
  0.2657522010373017  0.4199655655864866  0.5869492497742216
  0.1253900299955812  0.5815108690722831  0.4771746111956205
  0.1200504631347222  0.4138783647686055  0.4924083375084470
  0.2698196600365724  0.5953660726470726  0.5668107010512666
  0.4522003498164547  0.5066976067351129  0.6210672907896446
  0.6044876302627075  0.4932836281863551  0.4665091712772403
  0.5994832168304097  0.4187154599943360  0.5906374767233707
  0.4586057914927975  0.5873426248818481  0.4899899679773312
  0.4517992938437123  0.4134353768544743  0.5000723868043513
  0.6023479169582130  0.5899943675069841  0.5875883160741946
  0.7936767497132037  0.5309681954611238  0.6212914612834750
  0.9069873512130304  0.5299036180873348  0.4462751897077705
  0.9361254557727403  0.4359761483569379  0.5695857239460973
  0.7657578408143157  0.6088442860595062  0.4998183465923461
  0.7786592070104700  0.4288950100527175  0.5007517520336647
  0.9379371332217976  0.6063128113838112  0.5651068112813407
  0.0686557837457778  0.8103546718550697  0.5283630955210780
  0.2111890936443052  0.8529086855352559  0.3697096127592627
  0.2289363060887298  0.7487537181997282  0.4882636358716733
  0.0555198581001129  0.9118062693541955  0.4186683392776911
  0.0836593903534034  0.7375600640785155  0.4014024594315610
  0.2048303874053004  0.9141056497063486  0.5092865559008741
  0.4300110704735355  0.7940089897337003  0.5328127577679167
  0.5271529194338478  0.8617457156003278  0.3585858267010599
  0.5767366534751763  0.7441174717969775  0.4559422547223047
  0.3845228360289872  0.9052100794291696  0.4314614659297796
  0.4054444300538541  0.7368671524633887  0.4030200163895538
  0.5492051217131110  0.9073685164789648  0.5018996096022901
  0.7512743562984516  0.7901915501045454  0.5289012244877808
  0.8809207394351928  0.8619315756723928  0.3556163382603031
  0.9027319122541155  0.7477554509458784  0.4653609117620875
  0.7179379526657431  0.9040494325220508  0.4186353769184172
  0.7510227578917095  0.7430631766415281  0.3853464935213363
  0.8676772137109664  0.9094959936179576  0.4972631484180691
  0.6003095050843957  0.7581001703233011  0.6062272629083032
 
  0.00000000E+00  0.00000000E+00  0.00000000E+00
  0.00000000E+00  0.00000000E+00  0.00000000E+00
  0.00000000E+00  0.00000000E+00  0.00000000E+00
  0.00000000E+00  0.00000000E+00  0.00000000E+00
  0.00000000E+00  0.00000000E+00  0.00000000E+00
  0.00000000E+00  0.00000000E+00  0.00000000E+00
  0.00000000E+00  0.00000000E+00  0.00000000E+00
  0.00000000E+00  0.00000000E+00  0.00000000E+00
  0.00000000E+00  0.00000000E+00  0.00000000E+00
  0.00000000E+00  0.00000000E+00  0.00000000E+00
  0.00000000E+00  0.00000000E+00  0.00000000E+00
  0.00000000E+00  0.00000000E+00  0.00000000E+00
  0.00000000E+00  0.00000000E+00  0.00000000E+00
  0.00000000E+00  0.00000000E+00  0.00000000E+00
  0.00000000E+00  0.00000000E+00  0.00000000E+00
  0.00000000E+00  0.00000000E+00  0.00000000E+00
  0.00000000E+00  0.00000000E+00  0.00000000E+00
  0.00000000E+00  0.00000000E+00  0.00000000E+00
  0.00000000E+00  0.00000000E+00  0.00000000E+00
  0.00000000E+00  0.00000000E+00  0.00000000E+00
  0.00000000E+00  0.00000000E+00  0.00000000E+00
  0.00000000E+00  0.00000000E+00  0.00000000E+00
  0.00000000E+00  0.00000000E+00  0.00000000E+00
  0.00000000E+00  0.00000000E+00  0.00000000E+00
  0.00000000E+00  0.00000000E+00  0.00000000E+00
  0.00000000E+00  0.00000000E+00  0.00000000E+00
  0.00000000E+00  0.00000000E+00  0.00000000E+00
  0.00000000E+00  0.00000000E+00  0.00000000E+00
  0.00000000E+00  0.00000000E+00  0.00000000E+00
  0.00000000E+00  0.00000000E+00  0.00000000E+00
  0.00000000E+00  0.00000000E+00  0.00000000E+00
  0.00000000E+00  0.00000000E+00  0.00000000E+00
  0.00000000E+00  0.00000000E+00  0.00000000E+00
  0.00000000E+00  0.00000000E+00  0.00000000E+00
  0.00000000E+00  0.00000000E+00  0.00000000E+00
  0.00000000E+00  0.00000000E+00  0.00000000E+00
  0.00000000E+00  0.00000000E+00  0.00000000E+00
  0.00000000E+00  0.00000000E+00  0.00000000E+00
  0.00000000E+00  0.00000000E+00  0.00000000E+00
  0.00000000E+00  0.00000000E+00  0.00000000E+00
  0.00000000E+00  0.00000000E+00  0.00000000E+00
  0.00000000E+00  0.00000000E+00  0.00000000E+00
  0.00000000E+00  0.00000000E+00  0.00000000E+00
  0.00000000E+00  0.00000000E+00  0.00000000E+00
  0.00000000E+00  0.00000000E+00  0.00000000E+00
  0.00000000E+00  0.00000000E+00  0.00000000E+00
  0.00000000E+00  0.00000000E+00  0.00000000E+00
  0.00000000E+00  0.00000000E+00  0.00000000E+00
  0.00000000E+00  0.00000000E+00  0.00000000E+00
  0.00000000E+00  0.00000000E+00  0.00000000E+00
  0.00000000E+00  0.00000000E+00  0.00000000E+00
  0.00000000E+00  0.00000000E+00  0.00000000E+00
  0.00000000E+00  0.00000000E+00  0.00000000E+00
  0.00000000E+00  0.00000000E+00  0.00000000E+00
  0.00000000E+00  0.00000000E+00  0.00000000E+00
  0.00000000E+00  0.00000000E+00  0.00000000E+00
  0.00000000E+00  0.00000000E+00  0.00000000E+00
  0.00000000E+00  0.00000000E+00  0.00000000E+00
  0.00000000E+00  0.00000000E+00  0.00000000E+00
  0.00000000E+00  0.00000000E+00  0.00000000E+00
  0.00000000E+00  0.00000000E+00  0.00000000E+00
  0.00000000E+00  0.00000000E+00  0.00000000E+00
  0.00000000E+00  0.00000000E+00  0.00000000E+00
  0.00000000E+00  0.00000000E+00  0.00000000E+00
  0.00000000E+00  0.00000000E+00  0.00000000E+00
  0.00000000E+00  0.00000000E+00  0.00000000E+00
  0.00000000E+00  0.00000000E+00  0.00000000E+00
  0.00000000E+00  0.00000000E+00  0.00000000E+00
  0.00000000E+00  0.00000000E+00  0.00000000E+00
  0.00000000E+00  0.00000000E+00  0.00000000E+00
  0.00000000E+00  0.00000000E+00  0.00000000E+00
  0.00000000E+00  0.00000000E+00  0.00000000E+00
  0.00000000E+00  0.00000000E+00  0.00000000E+00
