CONTCAR\(6)                             
   1.00000000000000     
    11.2666997910000006    0.0000000000000000    0.0000000000000000
     0.0000000000000000   10.8214998245000000    0.0000000000000000
     0.0000000000000000    0.0000000000000000   21.2649002074999984
   Zr   Se
    12    36
Direct
  0.0833299999999966  0.3604075499681088  0.4299146508528509
  0.2500000000000000  0.1103024470318914  0.5700953501471488
  0.4166699889999990  0.3604075499681088  0.4299146508528509
  0.5833299689999976  0.1103024470318914  0.5700953501471488
  0.7499999790000018  0.3604075499681088  0.4299146508528509
  0.9166699889999990  0.1103024470318914  0.5700953501471488
  0.0833299999999966  0.8604075279681140  0.4299146508528509
  0.2500000000000000  0.6103024690318861  0.5700953501471488
  0.4166699889999990  0.8604075279681140  0.4299146508528509
  0.5833299689999976  0.6103024690318861  0.5700953501471488
  0.7499999790000018  0.8604075279681140  0.4299146508528509
  0.9166699889999990  0.6103024690318861  0.5700953501471488
  0.2500000000000000  0.2504977497223848  0.3528760478986399
  0.0833299999999966  0.2202522352776199  0.6471539101013590
  0.2500000000000000  0.4708383088904142  0.3531592236213541
  0.0833299999999966  0.9998916991095825  0.6468107953786415
  0.2500000000000000  0.3603303620423404  0.5240689366554818
  0.0833299999999966  0.1104096429576558  0.4759310633445182
  0.5833299689999976  0.2504977497223848  0.3528760478986399
  0.4166699889999990  0.2202522352776199  0.6471539101013590
  0.5833299689999976  0.4708383088904142  0.3531592236213541
  0.4166699889999990  0.9998916991095825  0.6468107953786415
  0.5833299689999976  0.3603303620423404  0.5240689366554818
  0.4166699889999990  0.1104096429576558  0.4759310633445182
  0.9166699889999990  0.2504977497223848  0.3528760478986399
  0.7499999790000018  0.2202522352776199  0.6471539101013590
  0.9166699889999990  0.4708383088904142  0.3531592236213541
  0.7499999790000018  0.9998916991095825  0.6468107953786415
  0.9166699889999990  0.3603303620423404  0.5240689366554818
  0.7499999790000018  0.1104096429576558  0.4759310633445182
  0.2500000000000000  0.7504977937223813  0.3528760478986399
  0.0833299999999966  0.7202522132776181  0.6471539101013590
  0.2500000000000000  0.9708382648904177  0.3531592236213541
  0.0833299999999966  0.4998917361095820  0.6468107953786415
  0.2500000000000000  0.8603303620423404  0.5240689366554818
  0.0833299999999966  0.6104096429576558  0.4759310633445182
  0.5833299689999976  0.7504977937223813  0.3528760478986399
  0.4166699889999990  0.7202522132776181  0.6471539101013590
  0.5833299689999976  0.9708382648904177  0.3531592236213541
  0.4166699889999990  0.4998917361095820  0.6468107953786415
  0.5833299689999976  0.8603303620423404  0.5240689366554818
  0.4166699889999990  0.6104096429576558  0.4759310633445182
  0.9166699889999990  0.7504977937223813  0.3528760478986399
  0.7499999790000018  0.7202522132776181  0.6471539101013590
  0.9166699889999990  0.9708382648904177  0.3531592236213541
  0.7499999790000018  0.4998917361095820  0.6468107953786415
  0.9166699889999990  0.8603303620423404  0.5240689366554818
  0.7499999790000018  0.6104096429576558  0.4759310633445182
 
  0.00000000E+00  0.00000000E+00  0.00000000E+00
  0.00000000E+00  0.00000000E+00  0.00000000E+00
  0.00000000E+00  0.00000000E+00  0.00000000E+00
  0.00000000E+00  0.00000000E+00  0.00000000E+00
  0.00000000E+00  0.00000000E+00  0.00000000E+00
  0.00000000E+00  0.00000000E+00  0.00000000E+00
  0.00000000E+00  0.00000000E+00  0.00000000E+00
  0.00000000E+00  0.00000000E+00  0.00000000E+00
  0.00000000E+00  0.00000000E+00  0.00000000E+00
  0.00000000E+00  0.00000000E+00  0.00000000E+00
  0.00000000E+00  0.00000000E+00  0.00000000E+00
  0.00000000E+00  0.00000000E+00  0.00000000E+00
  0.00000000E+00  0.00000000E+00  0.00000000E+00
  0.00000000E+00  0.00000000E+00  0.00000000E+00
  0.00000000E+00  0.00000000E+00  0.00000000E+00
  0.00000000E+00  0.00000000E+00  0.00000000E+00
  0.00000000E+00  0.00000000E+00  0.00000000E+00
  0.00000000E+00  0.00000000E+00  0.00000000E+00
  0.00000000E+00  0.00000000E+00  0.00000000E+00
  0.00000000E+00  0.00000000E+00  0.00000000E+00
  0.00000000E+00  0.00000000E+00  0.00000000E+00
  0.00000000E+00  0.00000000E+00  0.00000000E+00
  0.00000000E+00  0.00000000E+00  0.00000000E+00
  0.00000000E+00  0.00000000E+00  0.00000000E+00
  0.00000000E+00  0.00000000E+00  0.00000000E+00
  0.00000000E+00  0.00000000E+00  0.00000000E+00
  0.00000000E+00  0.00000000E+00  0.00000000E+00
  0.00000000E+00  0.00000000E+00  0.00000000E+00
  0.00000000E+00  0.00000000E+00  0.00000000E+00
  0.00000000E+00  0.00000000E+00  0.00000000E+00
  0.00000000E+00  0.00000000E+00  0.00000000E+00
  0.00000000E+00  0.00000000E+00  0.00000000E+00
  0.00000000E+00  0.00000000E+00  0.00000000E+00
  0.00000000E+00  0.00000000E+00  0.00000000E+00
  0.00000000E+00  0.00000000E+00  0.00000000E+00
  0.00000000E+00  0.00000000E+00  0.00000000E+00
  0.00000000E+00  0.00000000E+00  0.00000000E+00
  0.00000000E+00  0.00000000E+00  0.00000000E+00
  0.00000000E+00  0.00000000E+00  0.00000000E+00
  0.00000000E+00  0.00000000E+00  0.00000000E+00
  0.00000000E+00  0.00000000E+00  0.00000000E+00
  0.00000000E+00  0.00000000E+00  0.00000000E+00
  0.00000000E+00  0.00000000E+00  0.00000000E+00
  0.00000000E+00  0.00000000E+00  0.00000000E+00
  0.00000000E+00  0.00000000E+00  0.00000000E+00
  0.00000000E+00  0.00000000E+00  0.00000000E+00
  0.00000000E+00  0.00000000E+00  0.00000000E+00
  0.00000000E+00  0.00000000E+00  0.00000000E+00
