CONTCAR                                 
   1.00000000000000     
    12.9555997849000004    0.0000000000000000    0.0000000000000000
     0.0000000000000000   12.9555997849000004    0.0000000000000000
     0.0000000000000000    0.0000000000000000   24.1623992919999999
   Tb   Te   O    H 
    18    54     2     1
Direct
  0.1632627709842347  0.0050128128735674  0.5865237668887125
  0.9967005113538869  0.1686604541728146  0.4158094151234471
  0.4965097741647894  0.0035303693725153  0.5870252096792289
  0.3307330424041617  0.1687130863363421  0.4157709304114606
  0.8301801950612374  0.0041290300471632  0.5869686392856988
  0.6637555310809107  0.1688783807452592  0.4158558964290578
  0.1634041054232348  0.3356982544115850  0.5861438550082136
  0.9977426436692624  0.5016225872781269  0.4146230436057993
  0.4970208634642341  0.3357755830336319  0.5860372478173361
  0.3296160140243651  0.5016463102920203  0.4144490452635452
  0.8292355378631112  0.3363104683133349  0.5864124506425251
  0.6637629099592214  0.5019405698728544  0.4148711509963811
  0.1633609945344317  0.6703470811614419  0.5854762065260420
  0.9976226290016326  0.8359303039532271  0.4149227906634967
  0.4879695533875398  0.6664931025631314  0.5820949503951202
  0.3299124860260889  0.8360065723481084  0.4149832106410005
  0.8388364921642745  0.6678309952637349  0.5823613420911818
  0.6638340289906264  0.8346141505182936  0.4153814021026300
  0.9971314484744309  0.0023092719815101  0.3124937807336620
  0.1632814080251991  0.1745164019626638  0.6904523354384351
  0.9976603960539558  0.0036412257468346  0.6905628516716129
  0.1638534131567819  0.1687244633660363  0.3124822044718456
  0.1637212375003702  0.0029958148699128  0.4543141426027601
  0.9960894145778145  0.1696775266335014  0.5477913650431040
  0.3304901307477855  0.0023049174768979  0.3124970309946398
  0.4966182060307858  0.1699160301889518  0.6902105990845836
  0.3292166336278591  0.0031807393134890  0.6903003950330143
  0.4973465024473638  0.1687088199781110  0.3127840989719039
  0.4984094932529485  0.0008271239204675  0.4549107525711184
  0.3306540294899696  0.1692746080244019  0.5477955271276354
  0.6638564882256118  0.0020968273569058  0.3125936942777230
  0.8295637768251846  0.1707785160653710  0.6904170065063368
  0.6629150358471797  0.0068878503807958  0.6904624012687909
  0.8302633510275899  0.1688097793187172  0.3128089512788051
  0.8291065861315600  0.0008084500345846  0.4548583214936681
  0.6633350288115328  0.1691827128703967  0.5479344098923230
  0.9970955529126966  0.3351768463356087  0.3122564132116874
  0.1631559319246817  0.5051665086876629  0.6890325961812179
  0.9964508928253755  0.3359503881985616  0.6900663236742416
  0.1637661655967667  0.5018685305066208  0.3114063794478993
  0.1636570855632002  0.3345080932911555  0.4539693949093259
  0.9987998630014673  0.5008095850653407  0.5464717930101607
  0.3306107697502643  0.3353807363270668  0.3120937213964469
  0.4962369345944140  0.5032010616117896  0.6871541307941764
  0.3296606362182642  0.3363488660657498  0.6899735104548331
  0.4970690348117098  0.5020117028751776  0.3116343007964722
  0.4973748935748712  0.3361217108133220  0.4542463202955346
  0.3278154089878854  0.5005350682973878  0.5461254581917683
  0.6637428127788546  0.3351728105362792  0.3120212789734290
  0.8293403498440870  0.5044440379797753  0.6888075592619791
  0.6627275245943343  0.3412714506301655  0.6896084757691261
  0.8304267373087099  0.5020085937426635  0.3117801684237630
  0.8300764348826977  0.3360583949601444  0.4544581101725207
  0.6635883978264790  0.5045026638978787  0.5473028197523987
  0.9972663042256258  0.6687703379295835  0.3115549818314163
  0.1631085263352384  0.8395601166161827  0.6896013004834328
  0.9972269852106553  0.6687689153646328  0.6881536479922055
  0.1637713166296802  0.8355421774494906  0.3116833367024630
  0.1637574912366545  0.6689604844842355  0.4537008968412660
  0.9980133255658818  0.8378910197938573  0.5469254360374555
  0.3301730532494604  0.6689456803700490  0.3116000111410156
  0.4940422316900558  0.8372471553309948  0.6905150677058504
  0.3292104563206945  0.6690279947075408  0.6879595616354692
  0.4972117437329511  0.8356665064340222  0.3121343777520404
  0.4958788434999949  0.6685038012203798  0.4525247649035831
  0.3288127217962543  0.8377079727177215  0.5470319023467772
  0.6638508848917064  0.6688960479093026  0.3120939198524615
  0.8325037650586099  0.8387667240864707  0.6892117352856461
  0.6639374743102998  0.6797338407917500  0.6780552634258289
  0.8306446164128186  0.8357044178824287  0.3121120886063430
  0.8316312328145509  0.6685408815188102  0.4526228411492401
  0.6635514493341055  0.8326933506447830  0.5499550071888486
  0.6118336925736393  0.7031905289406206  0.8003175872073440
  0.6773798275787384  0.6416405922864522  0.7654612237237992
  0.6574855647243738  0.7611528556515447  0.8098759844376886
 
  0.00000000E+00  0.00000000E+00  0.00000000E+00
  0.00000000E+00  0.00000000E+00  0.00000000E+00
  0.00000000E+00  0.00000000E+00  0.00000000E+00
  0.00000000E+00  0.00000000E+00  0.00000000E+00
  0.00000000E+00  0.00000000E+00  0.00000000E+00
  0.00000000E+00  0.00000000E+00  0.00000000E+00
  0.00000000E+00  0.00000000E+00  0.00000000E+00
  0.00000000E+00  0.00000000E+00  0.00000000E+00
  0.00000000E+00  0.00000000E+00  0.00000000E+00
  0.00000000E+00  0.00000000E+00  0.00000000E+00
  0.00000000E+00  0.00000000E+00  0.00000000E+00
  0.00000000E+00  0.00000000E+00  0.00000000E+00
  0.00000000E+00  0.00000000E+00  0.00000000E+00
  0.00000000E+00  0.00000000E+00  0.00000000E+00
  0.00000000E+00  0.00000000E+00  0.00000000E+00
  0.00000000E+00  0.00000000E+00  0.00000000E+00
  0.00000000E+00  0.00000000E+00  0.00000000E+00
  0.00000000E+00  0.00000000E+00  0.00000000E+00
  0.00000000E+00  0.00000000E+00  0.00000000E+00
  0.00000000E+00  0.00000000E+00  0.00000000E+00
  0.00000000E+00  0.00000000E+00  0.00000000E+00
  0.00000000E+00  0.00000000E+00  0.00000000E+00
  0.00000000E+00  0.00000000E+00  0.00000000E+00
  0.00000000E+00  0.00000000E+00  0.00000000E+00
  0.00000000E+00  0.00000000E+00  0.00000000E+00
  0.00000000E+00  0.00000000E+00  0.00000000E+00
  0.00000000E+00  0.00000000E+00  0.00000000E+00
  0.00000000E+00  0.00000000E+00  0.00000000E+00
  0.00000000E+00  0.00000000E+00  0.00000000E+00
  0.00000000E+00  0.00000000E+00  0.00000000E+00
  0.00000000E+00  0.00000000E+00  0.00000000E+00
  0.00000000E+00  0.00000000E+00  0.00000000E+00
  0.00000000E+00  0.00000000E+00  0.00000000E+00
  0.00000000E+00  0.00000000E+00  0.00000000E+00
  0.00000000E+00  0.00000000E+00  0.00000000E+00
  0.00000000E+00  0.00000000E+00  0.00000000E+00
  0.00000000E+00  0.00000000E+00  0.00000000E+00
  0.00000000E+00  0.00000000E+00  0.00000000E+00
  0.00000000E+00  0.00000000E+00  0.00000000E+00
  0.00000000E+00  0.00000000E+00  0.00000000E+00
  0.00000000E+00  0.00000000E+00  0.00000000E+00
  0.00000000E+00  0.00000000E+00  0.00000000E+00
  0.00000000E+00  0.00000000E+00  0.00000000E+00
  0.00000000E+00  0.00000000E+00  0.00000000E+00
  0.00000000E+00  0.00000000E+00  0.00000000E+00
  0.00000000E+00  0.00000000E+00  0.00000000E+00
  0.00000000E+00  0.00000000E+00  0.00000000E+00
  0.00000000E+00  0.00000000E+00  0.00000000E+00
  0.00000000E+00  0.00000000E+00  0.00000000E+00
  0.00000000E+00  0.00000000E+00  0.00000000E+00
  0.00000000E+00  0.00000000E+00  0.00000000E+00
  0.00000000E+00  0.00000000E+00  0.00000000E+00
  0.00000000E+00  0.00000000E+00  0.00000000E+00
  0.00000000E+00  0.00000000E+00  0.00000000E+00
  0.00000000E+00  0.00000000E+00  0.00000000E+00
  0.00000000E+00  0.00000000E+00  0.00000000E+00
  0.00000000E+00  0.00000000E+00  0.00000000E+00
  0.00000000E+00  0.00000000E+00  0.00000000E+00
  0.00000000E+00  0.00000000E+00  0.00000000E+00
  0.00000000E+00  0.00000000E+00  0.00000000E+00
  0.00000000E+00  0.00000000E+00  0.00000000E+00
  0.00000000E+00  0.00000000E+00  0.00000000E+00
  0.00000000E+00  0.00000000E+00  0.00000000E+00
  0.00000000E+00  0.00000000E+00  0.00000000E+00
  0.00000000E+00  0.00000000E+00  0.00000000E+00
  0.00000000E+00  0.00000000E+00  0.00000000E+00
  0.00000000E+00  0.00000000E+00  0.00000000E+00
  0.00000000E+00  0.00000000E+00  0.00000000E+00
  0.00000000E+00  0.00000000E+00  0.00000000E+00
  0.00000000E+00  0.00000000E+00  0.00000000E+00
  0.00000000E+00  0.00000000E+00  0.00000000E+00
  0.00000000E+00  0.00000000E+00  0.00000000E+00
  0.00000000E+00  0.00000000E+00  0.00000000E+00
  0.00000000E+00  0.00000000E+00  0.00000000E+00
  0.00000000E+00  0.00000000E+00  0.00000000E+00
