CONTCAR\(10)                            
   1.00000000000000     
    14.0071001052999993    0.0000000000000000    0.0000000000000000
     7.0035500525999996   12.1305045244999992    0.0000000000000000
     0.0000000000000000    0.0000000000000000   17.8286991119000007
   Fe   Cl   O 
    16    32     1
Direct
 -0.0000558512388798 -0.0000817480834954  0.4997602284768131
  0.2495081285328170  0.0009932801930808  0.5000637665852739
  0.5001712694858051 -0.0001249363202639  0.4997568617701078
  0.7497063175096579  0.0006012371949360  0.4998294983555285
  0.0010369551025566  0.2495085095753024  0.5000666631735552
  0.2494454459465361  0.2495011468186149  0.5000628409559028
  0.5004291455960581  0.2504424611451939  0.4999891648558195
  0.7491272325913175  0.2504654525632581  0.4999757737127704
 -0.0000777949498530  0.5001472871131306  0.4997410243158489
  0.2504154731875867  0.5002975613367746  0.5000352784321540
  0.5000199433197602  0.4999506445908779  0.5016510488839235
  0.7493289503883553  0.5002552718708762  0.5000273989172207
  0.0005262115235767  0.7497494813792053  0.4998421214526249
  0.2505767518657798  0.7491648940758757  0.5000280266508591
  0.5002343522653904  0.7492348817006591  0.5000210655412584
  0.7497154084987581  0.7497573768597660  0.4998397412743161
  0.1666731092093965  0.1666434722261352  0.4206756448642857
  0.0832566611807663  0.0832561839653906  0.5789841154701305
  0.4166717662424083  0.1667261193888482  0.4213156131395933
  0.3335030623827869  0.0832466895733087  0.5789779869615126
  0.6667415053822821  0.1665144349307561  0.4205145585362588
  0.5834183785117458  0.0831983913484106  0.5786972593466185
  0.9166014474882143  0.1667272037720859  0.4213020388131753
  0.8333879155852612  0.0832023945993735  0.5786971449919005
  0.1667058279016972  0.4166290123881539  0.4212688961491328
  0.0832354775698050  0.3335323224984739  0.5789845070646783
  0.4168251727115191  0.4168407948812677  0.4212225145634876
  0.3333039174980363  0.3332490031907381  0.5783888263241711
  0.6663597448843821  0.4168513951625429  0.4211815786048433
  0.5838252147694047  0.3323737549954432  0.5785822974199115
  0.9166758680856252  0.4166319513337669  0.4212484191981809
  0.8334531134622722  0.3332536002967196  0.5783959813375775
  0.1665741118116642  0.6667204303282708  0.4206430627010073
  0.0832009273151098  0.5834118822610862  0.5787087763908489
  0.4168327761442487  0.6663550873293272  0.4211760656830753
  0.3324643243215619  0.5837652812583879  0.5785856912330605
  0.6667187882784323  0.6667034145849373  0.4206530860267972
  0.5837619168074785  0.5837428913165019  0.5785737980973467
  0.9166747511833047  0.6666469427175223  0.4209464921901839
  0.8333826046106331  0.5834100295049913  0.5787084546900416
  0.1667233159179407  0.9166204098602820  0.4213024699795840
  0.0832501290591112  0.8333707138187402  0.5786891516623129
  0.4166481733313415  0.9166517634314050  0.4212597903687609
  0.3332661764150706  0.8334675659094301  0.5784401798319384
  0.6666648006062720  0.9166686665163861  0.4209380915248259
  0.5833835338780581  0.8333612381046868  0.5787053764528430
  0.9166671632207983  0.9166732040688904  0.4209455209156956
  0.8333194960503479  0.8333489249117316  0.5783950257686844
  0.4996108615578094  0.5010122075121869  0.7046115103435345
 
  0.00000000E+00  0.00000000E+00  0.00000000E+00
  0.00000000E+00  0.00000000E+00  0.00000000E+00
  0.00000000E+00  0.00000000E+00  0.00000000E+00
  0.00000000E+00  0.00000000E+00  0.00000000E+00
  0.00000000E+00  0.00000000E+00  0.00000000E+00
  0.00000000E+00  0.00000000E+00  0.00000000E+00
  0.00000000E+00  0.00000000E+00  0.00000000E+00
  0.00000000E+00  0.00000000E+00  0.00000000E+00
  0.00000000E+00  0.00000000E+00  0.00000000E+00
  0.00000000E+00  0.00000000E+00  0.00000000E+00
  0.00000000E+00  0.00000000E+00  0.00000000E+00
  0.00000000E+00  0.00000000E+00  0.00000000E+00
  0.00000000E+00  0.00000000E+00  0.00000000E+00
  0.00000000E+00  0.00000000E+00  0.00000000E+00
  0.00000000E+00  0.00000000E+00  0.00000000E+00
  0.00000000E+00  0.00000000E+00  0.00000000E+00
  0.00000000E+00  0.00000000E+00  0.00000000E+00
  0.00000000E+00  0.00000000E+00  0.00000000E+00
  0.00000000E+00  0.00000000E+00  0.00000000E+00
  0.00000000E+00  0.00000000E+00  0.00000000E+00
  0.00000000E+00  0.00000000E+00  0.00000000E+00
  0.00000000E+00  0.00000000E+00  0.00000000E+00
  0.00000000E+00  0.00000000E+00  0.00000000E+00
  0.00000000E+00  0.00000000E+00  0.00000000E+00
  0.00000000E+00  0.00000000E+00  0.00000000E+00
  0.00000000E+00  0.00000000E+00  0.00000000E+00
  0.00000000E+00  0.00000000E+00  0.00000000E+00
  0.00000000E+00  0.00000000E+00  0.00000000E+00
  0.00000000E+00  0.00000000E+00  0.00000000E+00
  0.00000000E+00  0.00000000E+00  0.00000000E+00
  0.00000000E+00  0.00000000E+00  0.00000000E+00
  0.00000000E+00  0.00000000E+00  0.00000000E+00
  0.00000000E+00  0.00000000E+00  0.00000000E+00
  0.00000000E+00  0.00000000E+00  0.00000000E+00
  0.00000000E+00  0.00000000E+00  0.00000000E+00
  0.00000000E+00  0.00000000E+00  0.00000000E+00
  0.00000000E+00  0.00000000E+00  0.00000000E+00
  0.00000000E+00  0.00000000E+00  0.00000000E+00
  0.00000000E+00  0.00000000E+00  0.00000000E+00
  0.00000000E+00  0.00000000E+00  0.00000000E+00
  0.00000000E+00  0.00000000E+00  0.00000000E+00
  0.00000000E+00  0.00000000E+00  0.00000000E+00
  0.00000000E+00  0.00000000E+00  0.00000000E+00
  0.00000000E+00  0.00000000E+00  0.00000000E+00
  0.00000000E+00  0.00000000E+00  0.00000000E+00
  0.00000000E+00  0.00000000E+00  0.00000000E+00
  0.00000000E+00  0.00000000E+00  0.00000000E+00
  0.00000000E+00  0.00000000E+00  0.00000000E+00
  0.00000000E+00  0.00000000E+00  0.00000000E+00
