CONTCAR\(7)                             
   1.00000000000000     
    11.5652999877999996    0.0000000000000000    0.0000000000000000
     0.0000000000000000   13.3549995421999999    0.0000000000000000
     0.0000000000000000    0.0000000000000000   25.4929008484000015
   Ta   Ag   S    O    H 
    32     8    64     2     1
Direct
  0.2442781836418394  0.4986282949068092  0.3621916273005688
  0.2442636966700232  0.2529156754926727  0.3621806665647212
  0.9992391548958220  0.3758490663830978  0.3641261074824238
  0.0873347444351966  0.2527849057066040  0.6398550596595557
  0.0000216942384151  0.1256221009784610  0.3616977089775637
  0.0884928179770008  0.0046026206730865  0.6398646861679698
  0.3337328917599869  0.1286052976739258  0.6374308741724006
  0.3246886685199272  0.3787565162369282  0.6396195105110591
  0.7440527401630245  0.4988973153391812  0.3623791701975084
  0.7439821104781559  0.2526569234366439  0.3623740327094219
  0.4991966561739722  0.3758320923049523  0.3640573250798175
  0.5913910705841070  0.2456897755731774  0.6385137414123080
  0.5002605757525967  0.1258690406780270  0.3619169321084782
  0.5889907558736887  0.0061354192454766  0.6392073454889915
  0.8319752029138600  0.1282451715497951  0.6376133919306827
  0.8321059554077784  0.3779822734697009  0.6397073973553060
  0.2442351848951433  0.9986758229805489  0.3620335723634892
  0.2441126324634572  0.7528555501489663  0.3619917229307068
  0.9992363826699451  0.8758444809596019  0.3639990948368398
  0.0883670189321632  0.7519846711421254  0.6397897929505492
  0.0000158633604632  0.6256177367497384  0.3617059971515079
  0.0873393043394494  0.5038818704724749  0.6395331018240374
  0.3333884218395684  0.6274586637856049  0.6372009624936188
  0.3321132316389614  0.8783795501010758  0.6401569879485982
  0.7442176276991270  0.9988919561544494  0.3622166139955532
  0.7441295896121821  0.7526507593702793  0.3621809663320489
  0.4992423650317381  0.8758538828664733  0.3641143844147373
  0.5892399127168828  0.7509753334090129  0.6389957827579109
  0.5002503248174349  0.6257037057674752  0.3618609296854597
  0.5909499196568466  0.5110313634312154  0.6383766369636259
  0.8320156519517968  0.6286201711824769  0.6375234549903694
  0.8327417245383459  0.8781647658723020  0.6399177541465783
  0.4955944522920999  0.3761694588842823  0.4896338369516788
  0.3338878816011202  0.1276603997704215  0.5133016963803877
  0.9963312576862250  0.3758224180562846  0.4878797786990301
  0.8384087199392088  0.1270492546863042  0.5135445399527599
  0.4957134920250051  0.8761031098350233  0.4882206489539068
  0.3339726705823615  0.6290322917839026  0.5132381907900478
  0.9967329604647122  0.8760373854586357  0.4880954860346464
  0.8375664915599533  0.6289702714942662  0.5135065540567789
  0.2481772075682792  0.4991876913313886  0.5759847138650712
  0.2539175043863676  0.0051303948256169  0.7003753334913444
  0.2484260173678740  0.2571983197673808  0.5764135389987788
  0.2527190155122123  0.2510976717643809  0.7005946284351781
  0.0788530427563678  0.2521707518551510  0.3015665368582703
  0.0823266284125566  0.2459753000616564  0.4250116098447510
  0.5000436662220519  0.3781818036639429  0.5826659339756942
  0.0008380001871806  0.3785746689481604  0.6994421973724188
  0.0790269742581350  0.4992105987645515  0.3015037208790835
  0.0825825944921637  0.0055035371721806  0.4249619698453879
  0.0072582226697288  0.1282838310114518  0.5779293407414150
  0.4989920655706639  0.1276479372843186  0.6994400087147827
  0.3299232016833119  0.1258459442541648  0.3027744373322250
  0.3310895628535203  0.1257513606159109  0.4211708008163611
  0.3329407212661669  0.3756919502890035  0.3024224518205909
  0.3255251179455708  0.3757680539060618  0.4246003760484246
  0.7508472053465937  0.4982477121200280  0.5759876249360952
  0.7536003992656933  0.0041814171080918  0.7001924957819611
  0.7508482463530517  0.2581910143551094  0.5757721090789266
  0.7535875889267170  0.2522044085985760  0.7003914276240258
  0.5789383794220071  0.2521844938335374  0.3016098479784457
  0.5819162347979955  0.2466582072165854  0.4253504280784787
  0.0003871745839325  0.3781236004427850  0.5801199316327847
  0.5036321697402121  0.3775974297265902  0.6929596591159692
  0.5790158886169562  0.4993199019561603  0.3015799920304546
  0.5824449472916990  0.0055274064790528  0.4251273684703680
  0.5066054741019459  0.1271596662189465  0.5761951535526557
  0.9990272894731390  0.1282891106867123  0.6991349892084755
  0.8296056772717989  0.1258984514237854  0.3027872324160522
  0.8313559814100620  0.1257763127093344  0.4213646508289996
  0.8327303698660358  0.3757211431602391  0.3026658702300286
  0.8250006280098363  0.3757396055366134  0.4245441408530168
  0.2497619374699703  0.9984917578775198  0.5769095832640972
  0.2521406576896031  0.5058780975816817  0.7005012845857815
  0.2497879348323626  0.7581595129850957  0.5768607332887320
  0.2539261046234114  0.7513039418303266  0.7002049048311048
  0.0786833987770136  0.7520480367047263  0.3014277700410694
  0.0822406787425449  0.7461065319390944  0.4249306333827729
  0.5011867859031911  0.8784669681593320  0.5804987754584731
  0.0023183468622178  0.8782614353853362  0.6993268831456574
  0.0789625740246011  0.9993566398417673  0.3013933187691864
  0.0825795781291575  0.5056138510143084  0.4250508268466883
  0.0069757745485283  0.6284300456277579  0.5777422607124456
  0.4988668433355493  0.6296893929563705  0.6991560655210433
  0.3298774902296330  0.6256656981596913  0.3027464447797820
  0.3310931593531642  0.6259577095592828  0.4211244956131669
  0.3330923337161873  0.8757002061567312  0.3023327264795457
  0.3250226571973956  0.8757151637117137  0.4243731194808360
  0.7506089692939317  0.9981744868608808  0.5765124854746634
  0.7532754828459732  0.5044509631654572  0.7003225795293569
  0.7507782132802193  0.7585988295120548  0.5762835024518841
  0.7534702941043201  0.7524198606453681  0.7002069185321956
  0.5788277291110459  0.7521538288778191  0.3015591192000548
  0.5822760691509983  0.7462043962022362  0.4251361977643046
  0.0013346369409750  0.8783563438955173  0.5804142986535508
  0.5036236738797940  0.8782957093511631  0.6984970884054356
  0.5789524231168967  0.9994385312522724  0.3015773996621362
  0.5819715548655973  0.5051304802137602  0.4252946479823507
  0.5066298947592613  0.6297377132051566  0.5760955339688932
  0.9989181946891534  0.6283078248805292  0.6989693209406855
  0.8296030985513380  0.6256031569151437  0.3027760842836609
  0.8313183403727735  0.6258720993224411  0.4213482484267771
  0.8327492940610597  0.8757406767387858  0.3024724142705056
  0.8252036908964213  0.8757240632022358  0.4244339742425695
  0.4711369055847242  0.4501307138502342  0.7870428830961280
  0.5203369069817779  0.3650851949802483  0.7590628797345692
  0.5361854026497548  0.4979528053389360  0.7861309895997485
 
  0.00000000E+00  0.00000000E+00  0.00000000E+00
  0.00000000E+00  0.00000000E+00  0.00000000E+00
  0.00000000E+00  0.00000000E+00  0.00000000E+00
  0.00000000E+00  0.00000000E+00  0.00000000E+00
  0.00000000E+00  0.00000000E+00  0.00000000E+00
  0.00000000E+00  0.00000000E+00  0.00000000E+00
  0.00000000E+00  0.00000000E+00  0.00000000E+00
  0.00000000E+00  0.00000000E+00  0.00000000E+00
  0.00000000E+00  0.00000000E+00  0.00000000E+00
  0.00000000E+00  0.00000000E+00  0.00000000E+00
  0.00000000E+00  0.00000000E+00  0.00000000E+00
  0.00000000E+00  0.00000000E+00  0.00000000E+00
  0.00000000E+00  0.00000000E+00  0.00000000E+00
  0.00000000E+00  0.00000000E+00  0.00000000E+00
  0.00000000E+00  0.00000000E+00  0.00000000E+00
  0.00000000E+00  0.00000000E+00  0.00000000E+00
  0.00000000E+00  0.00000000E+00  0.00000000E+00
  0.00000000E+00  0.00000000E+00  0.00000000E+00
  0.00000000E+00  0.00000000E+00  0.00000000E+00
  0.00000000E+00  0.00000000E+00  0.00000000E+00
  0.00000000E+00  0.00000000E+00  0.00000000E+00
  0.00000000E+00  0.00000000E+00  0.00000000E+00
  0.00000000E+00  0.00000000E+00  0.00000000E+00
  0.00000000E+00  0.00000000E+00  0.00000000E+00
  0.00000000E+00  0.00000000E+00  0.00000000E+00
  0.00000000E+00  0.00000000E+00  0.00000000E+00
  0.00000000E+00  0.00000000E+00  0.00000000E+00
  0.00000000E+00  0.00000000E+00  0.00000000E+00
  0.00000000E+00  0.00000000E+00  0.00000000E+00
  0.00000000E+00  0.00000000E+00  0.00000000E+00
  0.00000000E+00  0.00000000E+00  0.00000000E+00
  0.00000000E+00  0.00000000E+00  0.00000000E+00
  0.00000000E+00  0.00000000E+00  0.00000000E+00
  0.00000000E+00  0.00000000E+00  0.00000000E+00
  0.00000000E+00  0.00000000E+00  0.00000000E+00
  0.00000000E+00  0.00000000E+00  0.00000000E+00
  0.00000000E+00  0.00000000E+00  0.00000000E+00
  0.00000000E+00  0.00000000E+00  0.00000000E+00
  0.00000000E+00  0.00000000E+00  0.00000000E+00
  0.00000000E+00  0.00000000E+00  0.00000000E+00
  0.00000000E+00  0.00000000E+00  0.00000000E+00
  0.00000000E+00  0.00000000E+00  0.00000000E+00
  0.00000000E+00  0.00000000E+00  0.00000000E+00
  0.00000000E+00  0.00000000E+00  0.00000000E+00
  0.00000000E+00  0.00000000E+00  0.00000000E+00
  0.00000000E+00  0.00000000E+00  0.00000000E+00
  0.00000000E+00  0.00000000E+00  0.00000000E+00
  0.00000000E+00  0.00000000E+00  0.00000000E+00
  0.00000000E+00  0.00000000E+00  0.00000000E+00
  0.00000000E+00  0.00000000E+00  0.00000000E+00
  0.00000000E+00  0.00000000E+00  0.00000000E+00
  0.00000000E+00  0.00000000E+00  0.00000000E+00
  0.00000000E+00  0.00000000E+00  0.00000000E+00
  0.00000000E+00  0.00000000E+00  0.00000000E+00
  0.00000000E+00  0.00000000E+00  0.00000000E+00
  0.00000000E+00  0.00000000E+00  0.00000000E+00
  0.00000000E+00  0.00000000E+00  0.00000000E+00
  0.00000000E+00  0.00000000E+00  0.00000000E+00
  0.00000000E+00  0.00000000E+00  0.00000000E+00
  0.00000000E+00  0.00000000E+00  0.00000000E+00
  0.00000000E+00  0.00000000E+00  0.00000000E+00
  0.00000000E+00  0.00000000E+00  0.00000000E+00
  0.00000000E+00  0.00000000E+00  0.00000000E+00
  0.00000000E+00  0.00000000E+00  0.00000000E+00
  0.00000000E+00  0.00000000E+00  0.00000000E+00
  0.00000000E+00  0.00000000E+00  0.00000000E+00
  0.00000000E+00  0.00000000E+00  0.00000000E+00
  0.00000000E+00  0.00000000E+00  0.00000000E+00
  0.00000000E+00  0.00000000E+00  0.00000000E+00
  0.00000000E+00  0.00000000E+00  0.00000000E+00
  0.00000000E+00  0.00000000E+00  0.00000000E+00
  0.00000000E+00  0.00000000E+00  0.00000000E+00
  0.00000000E+00  0.00000000E+00  0.00000000E+00
  0.00000000E+00  0.00000000E+00  0.00000000E+00
  0.00000000E+00  0.00000000E+00  0.00000000E+00
  0.00000000E+00  0.00000000E+00  0.00000000E+00
  0.00000000E+00  0.00000000E+00  0.00000000E+00
  0.00000000E+00  0.00000000E+00  0.00000000E+00
  0.00000000E+00  0.00000000E+00  0.00000000E+00
  0.00000000E+00  0.00000000E+00  0.00000000E+00
  0.00000000E+00  0.00000000E+00  0.00000000E+00
  0.00000000E+00  0.00000000E+00  0.00000000E+00
  0.00000000E+00  0.00000000E+00  0.00000000E+00
  0.00000000E+00  0.00000000E+00  0.00000000E+00
  0.00000000E+00  0.00000000E+00  0.00000000E+00
  0.00000000E+00  0.00000000E+00  0.00000000E+00
  0.00000000E+00  0.00000000E+00  0.00000000E+00
  0.00000000E+00  0.00000000E+00  0.00000000E+00
  0.00000000E+00  0.00000000E+00  0.00000000E+00
  0.00000000E+00  0.00000000E+00  0.00000000E+00
  0.00000000E+00  0.00000000E+00  0.00000000E+00
  0.00000000E+00  0.00000000E+00  0.00000000E+00
  0.00000000E+00  0.00000000E+00  0.00000000E+00
  0.00000000E+00  0.00000000E+00  0.00000000E+00
  0.00000000E+00  0.00000000E+00  0.00000000E+00
  0.00000000E+00  0.00000000E+00  0.00000000E+00
  0.00000000E+00  0.00000000E+00  0.00000000E+00
  0.00000000E+00  0.00000000E+00  0.00000000E+00
  0.00000000E+00  0.00000000E+00  0.00000000E+00
  0.00000000E+00  0.00000000E+00  0.00000000E+00
  0.00000000E+00  0.00000000E+00  0.00000000E+00
  0.00000000E+00  0.00000000E+00  0.00000000E+00
  0.00000000E+00  0.00000000E+00  0.00000000E+00
  0.00000000E+00  0.00000000E+00  0.00000000E+00
  0.00000000E+00  0.00000000E+00  0.00000000E+00
  0.00000000E+00  0.00000000E+00  0.00000000E+00
  0.00000000E+00  0.00000000E+00  0.00000000E+00
