 Ta3 Te6                                
   1.00000000000000     
     3.5271257937159528    0.0000000000000000    0.0000000000000000
     1.7537661773037636    9.5587816967464647    0.0000000000000000
     0.0000000000000000    0.0000000000000000   19.0791961215089998
   Ta   Te
     3     6
Direct
  0.6407967410437835  0.7131221587340669  0.5034558540188268
  0.3549740338848744  0.2846805654523288  0.4965876126170473
  0.9979963529255150  0.9988952572164534  0.5000161130239152
  0.5503567317270321  0.8934893753735191  0.3948471668494395
  0.4457605600804486  0.1042829974930900  0.6051437525224475
  0.2216205292403629  0.5503717731133537  0.4200813297273409
  0.1046963178934184  0.7853229509398035  0.6080084592453461
  0.8908509860130368  0.2124415551355839  0.3920848757622651
  0.7742183708883582  0.4474993921849039  0.5799507266843189
 
  0.00000000E+00  0.00000000E+00  0.00000000E+00
  0.00000000E+00  0.00000000E+00  0.00000000E+00
  0.00000000E+00  0.00000000E+00  0.00000000E+00
  0.00000000E+00  0.00000000E+00  0.00000000E+00
  0.00000000E+00  0.00000000E+00  0.00000000E+00
  0.00000000E+00  0.00000000E+00  0.00000000E+00
  0.00000000E+00  0.00000000E+00  0.00000000E+00
  0.00000000E+00  0.00000000E+00  0.00000000E+00
  0.00000000E+00  0.00000000E+00  0.00000000E+00
