CONTCAR\(10)                            
   1.00000000000000     
    11.5652999877999996    0.0000000000000000    0.0000000000000000
     0.0000000000000000   13.3549995421999999    0.0000000000000000
     0.0000000000000000    0.0000000000000000   25.4929008484000015
   Ta   Ag   S 
    32     8    64
Direct
  0.2464257959571838  0.4977885914886042  0.3608496437970027
  0.2463867708840598  0.2517017489306537  0.3608214878710207
  0.0013328218352921  0.3747569306000405  0.3625614936199249
  0.0863254205247383  0.2476082452307302  0.6391693720303397
  0.0021294204326529  0.1247385207490215  0.3604951978369278
  0.0863035918895430  0.0014916585236208  0.6391862309646960
  0.3314391792480912  0.1245451753785400  0.6374257897462569
  0.3305900238390218  0.3745721671629841  0.6395068827455617
  0.7464257339571858  0.4977885914886042  0.3608496437970027
  0.7463867508840580  0.2517017489306537  0.3608214878710207
  0.5013328618352884  0.3747569306000405  0.3625614936199249
  0.5863254155247414  0.2476082452307302  0.6391693720303397
  0.5021294014326548  0.1247385207490215  0.3604951978369278
  0.5863035868895461  0.0014916585236208  0.6391862309646960
  0.8314391592480967  0.1245451753785400  0.6374257897462569
  0.8305900858390199  0.3745721671629841  0.6395068827455617
  0.2464257959571838  0.9977886274886001  0.3608496437970027
  0.2463867708840598  0.7517017129306508  0.3608214878710207
  0.0013328218352921  0.8747568946000445  0.3625614936199249
  0.0863254205247383  0.7476083162307254  0.6391693720303397
  0.0021294204326529  0.6247385647490252  0.3604951978369278
  0.0863035918895430  0.5014916635236177  0.6391862309646960
  0.3314391792480912  0.6245451753785400  0.6374257897462569
  0.3305900238390218  0.8745721671629841  0.6395068827455617
  0.7464257339571858  0.9977886274886001  0.3608496437970027
  0.7463867508840580  0.7517017129306508  0.3608214878710207
  0.5013328618352884  0.8747568946000445  0.3625614936199249
  0.5863254155247414  0.7476083162307254  0.6391693720303397
  0.5021294014326548  0.6247385647490252  0.3604951978369278
  0.5863035868895461  0.5014916635236177  0.6391862309646960
  0.8314391592480967  0.6245451753785400  0.6374257897462569
  0.8305900858390199  0.8745721671629841  0.6395068827455617
  0.4978219339163798  0.3748310242794571  0.4873679110844814
  0.3350204593299551  0.1246199160638427  0.5126328268827643
  0.9978218929163799  0.3748310242794571  0.4873679110844814
  0.8350204793299567  0.1246199160638427  0.5126328268827643
  0.4978219339163798  0.8748310602794529  0.4873679110844814
  0.3350204593299551  0.6246198980638411  0.5126328268827643
  0.9978218929163799  0.8748310602794529  0.4873679110844814
  0.8350204793299567  0.6246198980638411  0.5126328268827643
  0.2482849416405761  0.4951096717997599  0.5762987603030560
  0.2516287593464661  0.0008392867307869  0.6998516085096393
  0.2483631653572183  0.2538930451313832  0.5763426646649963
  0.2515831653106858  0.2482843976196492  0.6998705740953870
  0.0811374520113832  0.2509527259628203  0.3000866895696944
  0.0844056020965103  0.2454102042300981  0.4236384188491240
  0.4995030927440803  0.3745246136280851  0.5798103016489438
  0.0008066945248210  0.3745044628684796  0.6985647613024951
  0.0811070557656297  0.4984769393174490  0.3001544123241261
  0.0844182294275194  0.0042202959000509  0.4237004726762313
  0.0052367070711224  0.1245442274388003  0.5769902059111024
  0.4978280471018948  0.1246588088327984  0.6989926715577796
  0.3319137563334996  0.1248079011127630  0.3014429145341948
  0.3332486323134149  0.1248470914440129  0.4201893874067558
  0.3349132457471403  0.3746769089821090  0.3010328565715128
  0.3275160103511027  0.3747054365934510  0.4230264314959712
  0.7482849206405778  0.4951096717997599  0.5762987603030560
  0.7516288003464661  0.0008392867307869  0.6998516085096393
  0.7483631653572184  0.2538930451313832  0.5763426646649963
  0.7515832273106908  0.2482843976196492  0.6998705740953870
  0.5811374520113831  0.2509527259628203  0.3000866895696944
  0.5844056130965147  0.2454102042300981  0.4236384188491240
  0.9995030927440803  0.3745246136280851  0.5798103016489438
  0.5008067365248174  0.3745044628684796  0.6985647613024951
  0.5811070457656288  0.4984769393174490  0.3001544123241261
  0.5844182404275239  0.0042202959000509  0.4237004726762313
  0.5052367390711179  0.1245442274388003  0.5769902059111024
  0.9978280061018950  0.1246588088327984  0.6989926715577796
  0.8319137773334977  0.1248079011127630  0.3014429145341948
  0.8332486323134148  0.1248470914440129  0.4201893874067558
  0.8349132457471402  0.3746769089821090  0.3010328565715128
  0.8275159893510973  0.3747054365934510  0.4230264314959712
  0.2482849416405761  0.9951096717997598  0.5762987603030560
  0.2516287593464661  0.5008392607307848  0.6998516085096393
  0.2483631653572183  0.7538930451313833  0.5763426646649963
  0.2515831653106858  0.7482844156196506  0.6998705740953870
  0.0811374520113832  0.7509526899628244  0.3000866895696944
  0.0844056020965103  0.7454101502301008  0.4236384188491240
  0.4995030927440803  0.8745246136280851  0.5798103016489438
  0.0008066945248210  0.8745044628684797  0.6985647613024951
  0.0811070557656297  0.9984770113174551  0.3001544123241261
  0.0844182294275194  0.5042203239000532  0.4237004726762313
  0.0052367070711224  0.6245442274388003  0.5769902059111024
  0.4978280471018948  0.6246588088327985  0.6989926715577796
  0.3319137563334996  0.6248078661127636  0.3014429145341948
  0.3332486323134149  0.6248470734440185  0.4201893874067558
  0.3349132457471403  0.8746768739821097  0.3010328565715128
  0.3275160103511027  0.8747054015934516  0.4230264314959712
  0.7482849206405778  0.9951096717997598  0.5762987603030560
  0.7516288003464661  0.5008392607307848  0.6998516085096393
  0.7483631653572184  0.7538930451313833  0.5763426646649963
  0.7515832273106908  0.7482844156196506  0.6998705740953870
  0.5811374520113831  0.7509526899628244  0.3000866895696944
  0.5844056130965147  0.7454101502301008  0.4236384188491240
  0.9995030927440803  0.8745246136280851  0.5798103016489438
  0.5008067365248174  0.8745044628684797  0.6985647613024951
  0.5811070457656288  0.9984770113174551  0.3001544123241261
  0.5844182404275239  0.5042203239000532  0.4237004726762313
  0.5052367390711179  0.6245442274388003  0.5769902059111024
  0.9978280061018950  0.6246588088327985  0.6989926715577796
  0.8319137773334977  0.6248078661127636  0.3014429145341948
  0.8332486323134148  0.6248470734440185  0.4201893874067558
  0.8349132457471402  0.8746768739821097  0.3010328565715128
  0.8275159893510973  0.8747054015934516  0.4230264314959712
 
  0.00000000E+00  0.00000000E+00  0.00000000E+00
  0.00000000E+00  0.00000000E+00  0.00000000E+00
  0.00000000E+00  0.00000000E+00  0.00000000E+00
  0.00000000E+00  0.00000000E+00  0.00000000E+00
  0.00000000E+00  0.00000000E+00  0.00000000E+00
  0.00000000E+00  0.00000000E+00  0.00000000E+00
  0.00000000E+00  0.00000000E+00  0.00000000E+00
  0.00000000E+00  0.00000000E+00  0.00000000E+00
  0.00000000E+00  0.00000000E+00  0.00000000E+00
  0.00000000E+00  0.00000000E+00  0.00000000E+00
  0.00000000E+00  0.00000000E+00  0.00000000E+00
  0.00000000E+00  0.00000000E+00  0.00000000E+00
  0.00000000E+00  0.00000000E+00  0.00000000E+00
  0.00000000E+00  0.00000000E+00  0.00000000E+00
  0.00000000E+00  0.00000000E+00  0.00000000E+00
  0.00000000E+00  0.00000000E+00  0.00000000E+00
  0.00000000E+00  0.00000000E+00  0.00000000E+00
  0.00000000E+00  0.00000000E+00  0.00000000E+00
  0.00000000E+00  0.00000000E+00  0.00000000E+00
  0.00000000E+00  0.00000000E+00  0.00000000E+00
  0.00000000E+00  0.00000000E+00  0.00000000E+00
  0.00000000E+00  0.00000000E+00  0.00000000E+00
  0.00000000E+00  0.00000000E+00  0.00000000E+00
  0.00000000E+00  0.00000000E+00  0.00000000E+00
  0.00000000E+00  0.00000000E+00  0.00000000E+00
  0.00000000E+00  0.00000000E+00  0.00000000E+00
  0.00000000E+00  0.00000000E+00  0.00000000E+00
  0.00000000E+00  0.00000000E+00  0.00000000E+00
  0.00000000E+00  0.00000000E+00  0.00000000E+00
  0.00000000E+00  0.00000000E+00  0.00000000E+00
  0.00000000E+00  0.00000000E+00  0.00000000E+00
  0.00000000E+00  0.00000000E+00  0.00000000E+00
  0.00000000E+00  0.00000000E+00  0.00000000E+00
  0.00000000E+00  0.00000000E+00  0.00000000E+00
  0.00000000E+00  0.00000000E+00  0.00000000E+00
  0.00000000E+00  0.00000000E+00  0.00000000E+00
  0.00000000E+00  0.00000000E+00  0.00000000E+00
  0.00000000E+00  0.00000000E+00  0.00000000E+00
  0.00000000E+00  0.00000000E+00  0.00000000E+00
  0.00000000E+00  0.00000000E+00  0.00000000E+00
  0.00000000E+00  0.00000000E+00  0.00000000E+00
  0.00000000E+00  0.00000000E+00  0.00000000E+00
  0.00000000E+00  0.00000000E+00  0.00000000E+00
  0.00000000E+00  0.00000000E+00  0.00000000E+00
  0.00000000E+00  0.00000000E+00  0.00000000E+00
  0.00000000E+00  0.00000000E+00  0.00000000E+00
  0.00000000E+00  0.00000000E+00  0.00000000E+00
  0.00000000E+00  0.00000000E+00  0.00000000E+00
  0.00000000E+00  0.00000000E+00  0.00000000E+00
  0.00000000E+00  0.00000000E+00  0.00000000E+00
  0.00000000E+00  0.00000000E+00  0.00000000E+00
  0.00000000E+00  0.00000000E+00  0.00000000E+00
  0.00000000E+00  0.00000000E+00  0.00000000E+00
  0.00000000E+00  0.00000000E+00  0.00000000E+00
  0.00000000E+00  0.00000000E+00  0.00000000E+00
  0.00000000E+00  0.00000000E+00  0.00000000E+00
  0.00000000E+00  0.00000000E+00  0.00000000E+00
  0.00000000E+00  0.00000000E+00  0.00000000E+00
  0.00000000E+00  0.00000000E+00  0.00000000E+00
  0.00000000E+00  0.00000000E+00  0.00000000E+00
  0.00000000E+00  0.00000000E+00  0.00000000E+00
  0.00000000E+00  0.00000000E+00  0.00000000E+00
  0.00000000E+00  0.00000000E+00  0.00000000E+00
  0.00000000E+00  0.00000000E+00  0.00000000E+00
  0.00000000E+00  0.00000000E+00  0.00000000E+00
  0.00000000E+00  0.00000000E+00  0.00000000E+00
  0.00000000E+00  0.00000000E+00  0.00000000E+00
  0.00000000E+00  0.00000000E+00  0.00000000E+00
  0.00000000E+00  0.00000000E+00  0.00000000E+00
  0.00000000E+00  0.00000000E+00  0.00000000E+00
  0.00000000E+00  0.00000000E+00  0.00000000E+00
  0.00000000E+00  0.00000000E+00  0.00000000E+00
  0.00000000E+00  0.00000000E+00  0.00000000E+00
  0.00000000E+00  0.00000000E+00  0.00000000E+00
  0.00000000E+00  0.00000000E+00  0.00000000E+00
  0.00000000E+00  0.00000000E+00  0.00000000E+00
  0.00000000E+00  0.00000000E+00  0.00000000E+00
  0.00000000E+00  0.00000000E+00  0.00000000E+00
  0.00000000E+00  0.00000000E+00  0.00000000E+00
  0.00000000E+00  0.00000000E+00  0.00000000E+00
  0.00000000E+00  0.00000000E+00  0.00000000E+00
  0.00000000E+00  0.00000000E+00  0.00000000E+00
  0.00000000E+00  0.00000000E+00  0.00000000E+00
  0.00000000E+00  0.00000000E+00  0.00000000E+00
  0.00000000E+00  0.00000000E+00  0.00000000E+00
  0.00000000E+00  0.00000000E+00  0.00000000E+00
  0.00000000E+00  0.00000000E+00  0.00000000E+00
  0.00000000E+00  0.00000000E+00  0.00000000E+00
  0.00000000E+00  0.00000000E+00  0.00000000E+00
  0.00000000E+00  0.00000000E+00  0.00000000E+00
  0.00000000E+00  0.00000000E+00  0.00000000E+00
  0.00000000E+00  0.00000000E+00  0.00000000E+00
  0.00000000E+00  0.00000000E+00  0.00000000E+00
  0.00000000E+00  0.00000000E+00  0.00000000E+00
  0.00000000E+00  0.00000000E+00  0.00000000E+00
  0.00000000E+00  0.00000000E+00  0.00000000E+00
  0.00000000E+00  0.00000000E+00  0.00000000E+00
  0.00000000E+00  0.00000000E+00  0.00000000E+00
  0.00000000E+00  0.00000000E+00  0.00000000E+00
  0.00000000E+00  0.00000000E+00  0.00000000E+00
  0.00000000E+00  0.00000000E+00  0.00000000E+00
  0.00000000E+00  0.00000000E+00  0.00000000E+00
  0.00000000E+00  0.00000000E+00  0.00000000E+00
  0.00000000E+00  0.00000000E+00  0.00000000E+00
