CONTCAR\(2)                             
   1.00000000000000     
    13.4193000792999992    0.0000000000000000    0.0000000000000000
    -6.7096904058000000   11.6164658410000001    0.0000000000000000
     0.0000000000000000    0.0000000000000000   30.7367992401000016
   Bi   Te   Pb   O    H 
    18    45    18     2     1
Direct
  0.1070672565221648  0.2209540725077320  0.4348473927743204
  0.2178096221167342  0.1087388570955370  0.5647924729200793
  0.4403745091552008  0.2204811329142080  0.4344976790502750
  0.5497704188745399  0.1078158453086030  0.5642883491264261
  0.7740118042160334  0.2210747002502398  0.4345875921472092
  0.8846604272016851  0.1080058686035354  0.5646522244577538
  0.1071044474765003  0.5541379632691775  0.4345264283213547
  0.2182782288255927  0.4418938750544544  0.5641761076683143
  0.4406024357568193  0.5535296083626119  0.4347359883904182
  0.5498466233529324  0.4419094599324781  0.5645873819794958
  0.7742170305662157  0.5536009095340146  0.4345258236963488
  0.8821198536790819  0.4412194604636781  0.5635059046537091
  0.1070378544434255  0.8873034074132495  0.4346676037273116
  0.2182709589719952  0.7764294233469798  0.5641716862889341
  0.4406464485827910  0.8877240848050914  0.4347163165555850
  0.5512056998214206  0.7752861509271495  0.5639932949406570
  0.7744567517640051  0.8876807401520707  0.4347594971258564
  0.8845809647750877  0.7766389848505355  0.5646494691484394
  0.2175229084052482  0.1114260933729397  0.7587678766498946
  0.2179868722245822  0.1094396353846755  0.3800462460593478
  0.1073228262258560  0.2205670417302255  0.6197270163981894
  0.9962352966075209  0.9987608507782787  0.5000373502638269
  0.1092260208340037  0.2215992638581473  0.2408438692492518
  0.5522502627733069  0.1132443107932221  0.7595109568776697
  0.5517786030915789  0.1095304795062460  0.3798626439620204
  0.4400204042821902  0.2201147451721142  0.6197425531370869
  0.3290274227715454  0.9980494450505630  0.4999216753047834
  0.4417372973817942  0.2206452249979452  0.2406072903074602
  0.8871578303749467  0.1127317597725794  0.7600657883689051
  0.8853650809145039  0.1098146036980002  0.3799796958331385
  0.7722976065938200  0.2186012756207859  0.6195988407744391
  0.6629983943291274  0.9988059853842842  0.4999093553274475
  0.7748558926778539  0.2204291465312944  0.2411021069553649
  0.2173941525997797  0.4442580992763713  0.7589222527253426
  0.2180794916374265  0.4427526524222133  0.3799906786647193
  0.1051540169637641  0.5529698036664557  0.6185827653983561
  0.9950814428539847  0.3319265300132126  0.5002410896347884
  0.1083509210167724  0.5541824066717169  0.2411933353591803
  0.5532035653036839  0.4417553305811176  0.7600253331855036
  0.5518130777528415  0.4425798286934652  0.3798806491968109
  0.4400647043253806  0.5539799990506251  0.6195194847482549
  0.3291340719336054  0.3315304566033638  0.5000223409020367
  0.4420587092122527  0.5546373002378372  0.2411137471075969
  0.8853804792924326  0.4431892341250884  0.7583572713849551
  0.8849974796521223  0.4426516896459004  0.3795285071729044
  0.7721335347258917  0.5547912924511545  0.6198772993109893
  0.6620402151320935  0.3316176874939412  0.5000072863312257
  0.7747817441656141  0.5541489803308984  0.2411796151016811
  0.2171144129439683  0.7765232211789238  0.7594643744714511
  0.2182111543822508  0.7761184476773847  0.3799185917218338
  0.1072211663141409  0.8873345637971087  0.6197909518840898
  0.9950966009740524  0.6641383080569495  0.5002437764773353
  0.1094768776457681  0.8878346877821901  0.2407976317530636
  0.5451100505047158  0.7752621008155799  0.7518012962088341
  0.5517154374308878  0.7760785026378141  0.3801102367835992
  0.4403405665256278  0.8870213290767925  0.6193444801788304
  0.3291288795023631  0.6648725899322189  0.4998890926134836
  0.4423056993611107  0.8872700981229784  0.2411848739873596
  0.8877985484161127  0.7768013266178391  0.7596779683040789
  0.8851852968654338  0.7759161549087217  0.3799625395157057
  0.7734292332496956  0.8870727723219692  0.6195569575899400
  0.6629830766184439  0.6647690583199570  0.4999352254405212
  0.7762770305082152  0.8879672961115387  0.2412151096443316
  0.9996046476480953  0.9998146768350203  0.2933723753643034
  0.9950594783444271  0.9993137036292260  0.7059279699747415
  0.3316900992659474  0.9990408920709839  0.2934379116436450
  0.3287246783346033  0.9999080443292870  0.7064743000565863
  0.6647694455509708  0.9983815467957099  0.2936998065768649
  0.6707568512113047  0.0146070687252997  0.7066359577858103
  0.9973097469710982  0.3317741852415164  0.2934605661146653
  0.9958347818822740  0.3321313040567779  0.7055981924033824
  0.3315970162409743  0.3324024628308478  0.2933610335524093
  0.3314314132996781  0.3343323618056603  0.7062556945434020
  0.6635764235483445  0.3315903725839898  0.2933653672624031
  0.6642074068499324  0.3333123542525905  0.7054111435451820
  0.9973493238329555  0.6656784968031803  0.2934667102241796
  0.9959707733199752  0.6644956186680969  0.7056034507637704
  0.3306012269325643  0.6652259581217710  0.2938202434789784
  0.3121691810497016  0.6592745685206308  0.7032841876133823
  0.6642481750516168  0.6658660822760898  0.2937602295478184
  0.6693091263710592  0.6592218038010418  0.7078509145894752
  0.5067376470289829  0.7694015307050855  0.8178972254700896
  0.4498799090417493  0.6528358072230812  0.8339425060071414
  0.3680665468232349  0.6275440536600758  0.8287250812416170
 
  0.00000000E+00  0.00000000E+00  0.00000000E+00
  0.00000000E+00  0.00000000E+00  0.00000000E+00
  0.00000000E+00  0.00000000E+00  0.00000000E+00
  0.00000000E+00  0.00000000E+00  0.00000000E+00
  0.00000000E+00  0.00000000E+00  0.00000000E+00
  0.00000000E+00  0.00000000E+00  0.00000000E+00
  0.00000000E+00  0.00000000E+00  0.00000000E+00
  0.00000000E+00  0.00000000E+00  0.00000000E+00
  0.00000000E+00  0.00000000E+00  0.00000000E+00
  0.00000000E+00  0.00000000E+00  0.00000000E+00
  0.00000000E+00  0.00000000E+00  0.00000000E+00
  0.00000000E+00  0.00000000E+00  0.00000000E+00
  0.00000000E+00  0.00000000E+00  0.00000000E+00
  0.00000000E+00  0.00000000E+00  0.00000000E+00
  0.00000000E+00  0.00000000E+00  0.00000000E+00
  0.00000000E+00  0.00000000E+00  0.00000000E+00
  0.00000000E+00  0.00000000E+00  0.00000000E+00
  0.00000000E+00  0.00000000E+00  0.00000000E+00
  0.00000000E+00  0.00000000E+00  0.00000000E+00
  0.00000000E+00  0.00000000E+00  0.00000000E+00
  0.00000000E+00  0.00000000E+00  0.00000000E+00
  0.00000000E+00  0.00000000E+00  0.00000000E+00
  0.00000000E+00  0.00000000E+00  0.00000000E+00
  0.00000000E+00  0.00000000E+00  0.00000000E+00
  0.00000000E+00  0.00000000E+00  0.00000000E+00
  0.00000000E+00  0.00000000E+00  0.00000000E+00
  0.00000000E+00  0.00000000E+00  0.00000000E+00
  0.00000000E+00  0.00000000E+00  0.00000000E+00
  0.00000000E+00  0.00000000E+00  0.00000000E+00
  0.00000000E+00  0.00000000E+00  0.00000000E+00
  0.00000000E+00  0.00000000E+00  0.00000000E+00
  0.00000000E+00  0.00000000E+00  0.00000000E+00
  0.00000000E+00  0.00000000E+00  0.00000000E+00
  0.00000000E+00  0.00000000E+00  0.00000000E+00
  0.00000000E+00  0.00000000E+00  0.00000000E+00
  0.00000000E+00  0.00000000E+00  0.00000000E+00
  0.00000000E+00  0.00000000E+00  0.00000000E+00
  0.00000000E+00  0.00000000E+00  0.00000000E+00
  0.00000000E+00  0.00000000E+00  0.00000000E+00
  0.00000000E+00  0.00000000E+00  0.00000000E+00
  0.00000000E+00  0.00000000E+00  0.00000000E+00
  0.00000000E+00  0.00000000E+00  0.00000000E+00
  0.00000000E+00  0.00000000E+00  0.00000000E+00
  0.00000000E+00  0.00000000E+00  0.00000000E+00
  0.00000000E+00  0.00000000E+00  0.00000000E+00
  0.00000000E+00  0.00000000E+00  0.00000000E+00
  0.00000000E+00  0.00000000E+00  0.00000000E+00
  0.00000000E+00  0.00000000E+00  0.00000000E+00
  0.00000000E+00  0.00000000E+00  0.00000000E+00
  0.00000000E+00  0.00000000E+00  0.00000000E+00
  0.00000000E+00  0.00000000E+00  0.00000000E+00
  0.00000000E+00  0.00000000E+00  0.00000000E+00
  0.00000000E+00  0.00000000E+00  0.00000000E+00
  0.00000000E+00  0.00000000E+00  0.00000000E+00
  0.00000000E+00  0.00000000E+00  0.00000000E+00
  0.00000000E+00  0.00000000E+00  0.00000000E+00
  0.00000000E+00  0.00000000E+00  0.00000000E+00
  0.00000000E+00  0.00000000E+00  0.00000000E+00
  0.00000000E+00  0.00000000E+00  0.00000000E+00
  0.00000000E+00  0.00000000E+00  0.00000000E+00
  0.00000000E+00  0.00000000E+00  0.00000000E+00
  0.00000000E+00  0.00000000E+00  0.00000000E+00
  0.00000000E+00  0.00000000E+00  0.00000000E+00
  0.00000000E+00  0.00000000E+00  0.00000000E+00
  0.00000000E+00  0.00000000E+00  0.00000000E+00
  0.00000000E+00  0.00000000E+00  0.00000000E+00
  0.00000000E+00  0.00000000E+00  0.00000000E+00
  0.00000000E+00  0.00000000E+00  0.00000000E+00
  0.00000000E+00  0.00000000E+00  0.00000000E+00
  0.00000000E+00  0.00000000E+00  0.00000000E+00
  0.00000000E+00  0.00000000E+00  0.00000000E+00
  0.00000000E+00  0.00000000E+00  0.00000000E+00
  0.00000000E+00  0.00000000E+00  0.00000000E+00
  0.00000000E+00  0.00000000E+00  0.00000000E+00
  0.00000000E+00  0.00000000E+00  0.00000000E+00
  0.00000000E+00  0.00000000E+00  0.00000000E+00
  0.00000000E+00  0.00000000E+00  0.00000000E+00
  0.00000000E+00  0.00000000E+00  0.00000000E+00
  0.00000000E+00  0.00000000E+00  0.00000000E+00
  0.00000000E+00  0.00000000E+00  0.00000000E+00
  0.00000000E+00  0.00000000E+00  0.00000000E+00
  0.00000000E+00  0.00000000E+00  0.00000000E+00
  0.00000000E+00  0.00000000E+00  0.00000000E+00
  0.00000000E+00  0.00000000E+00  0.00000000E+00
