CONTCAR\(4)                             
   1.00000000000000     
    11.2371997832999995    0.0000000000000000    0.0000000000000000
     0.0000000000000000   14.7250003814999992    0.0000000000000000
     0.0000000000000000    0.0000000000000000   22.6672992706000009
   Li   Cu   F    O 
    32    32    80     1
Direct
  0.1890814834342145  0.0732463457689520  0.5237705343512896
  0.1883372045691948  0.4203277855252222  0.6076543398256860
  0.0630322929244989  0.0782585162099674  0.3922275206574907
  0.0625453665669507  0.4316053469742259  0.4800251277972655
  0.4354819509656184  0.0730376178213116  0.5239879952376241
  0.4370947024244932  0.4203481508565631  0.6075426934965334
  0.3121015108350473  0.0785252236788678  0.3926922272507749
  0.3127250764192577  0.4291156139165322  0.4814296480277422
  0.6876424323604428  0.0697449176796791  0.5182411134972297
  0.6876044890861419  0.4237368675424124  0.6075448157059687
  0.5613744904149609  0.0777011264009277  0.3923858310553835
  0.5629769542097585  0.4317329064320726  0.4800887130213554
  0.9365772852021897  0.0699534417445872  0.5181150498730316
  0.9378025243734219  0.4238381378810409  0.6076853821375741
  0.8123907228523481  0.0765868525339291  0.3900482812246119
  0.8127667911678181  0.4328473871153937  0.4797526427292373
  0.1872944790085141  0.5699837845305737  0.5204072227542547
  0.1947095024187700  0.9295913044571057  0.6076319916675841
  0.0616230915225771  0.5769111609719227  0.3922030306491832
  0.0633848519242129  0.9335322494458633  0.4792719931354859
  0.4376943801398525  0.5700151945891054  0.5204671219484809
  0.4303121560878581  0.9286182454934668  0.6074887705380759
  0.3126260702644817  0.5763950080071469  0.3933238455431410
  0.3123855494868698  0.9331112169495349  0.4784168421946999
  0.6881138185449628  0.5714478281554753  0.5203580623824795
  0.6866581290963245  0.9265143582427722  0.6083545068341111
  0.5634428596220130  0.5771524890693622  0.3922715111147252
  0.5611179795248090  0.9327547834242086  0.4797586578422512
  0.9378855291291323  0.5713296960437454  0.5202595913137983
  0.9386578899807555  0.9275102205767954  0.6083334722654039
  0.8124350321115311  0.5774494650886726  0.3913451384248376
  0.8120668522166123  0.9314723357499823  0.4792570224590446
  0.0551688462154888  0.2500068586777673  0.5632827489953814
  0.0734063504816827  0.0847170422625236  0.6531325674706091
  0.1878083469897765  0.4172155604222869  0.3425843135374941
  0.1877167335133870  0.2492023573717884  0.4337253081727762
  0.3127085552790508  0.2411838940034811  0.5710407629733695
  0.3128075219078085  0.0680071244368567  0.7253274874631117
  0.4374932739690962  0.4172489462560408  0.3426199773019040
  0.4374132630377232  0.2491437706003020  0.4337956253497219
  0.5692923151321881  0.2498513622072926  0.5636167232862158
  0.5510599442010987  0.0839660331563046  0.6531345809049067
  0.6873346455150819  0.4168607099936257  0.3397013796184847
  0.6894065925121516  0.2498939872867392  0.4315690849183997
  0.8123190230431941  0.2503811433255887  0.5664545906239683
  0.8122093829514583  0.0850336706919691  0.6590133957917915
  0.9378528852625518  0.4168542050652805  0.3396755904221297
  0.9353571459342647  0.2500111170527435  0.4313377135833797
  0.0637632830166746  0.7552197840166490  0.5666605438572951
  0.0627785559274942  0.5831161708200501  0.6580854095522859
  0.1873427518502377  0.9182319424674468  0.3414390162514898
  0.1871609583536570  0.7499335240652126  0.4324183450692542
  0.3092824691285246  0.7517677141323952  0.5665312670127970
  0.3128828330929441  0.5824163805530111  0.6576005549429504
  0.4372574024194471  0.9181039740826215  0.3414954109066401
  0.4377326763984123  0.7498515481394089  0.4329634647237669
  0.5611704554372490  0.7533183765348734  0.5674767350010828
  0.5627267363951266  0.5830775615385640  0.6577101247157708
  0.6870021002721445  0.9170149429472487  0.3402750715226421
  0.6873792994121980  0.7503212715553417  0.4333516517083771
  0.8166461658588057  0.7536059670719469  0.5678821164356722
  0.8125146487447426  0.5842574775744095  0.6591031855435499
  0.9373816049473154  0.9171018221935262  0.3402131020326348
  0.9374509756000315  0.7504168659077222  0.4327257463064918
  0.0582613853517308  0.1624856440878857  0.5006072524516756
  0.0621905718638391  0.4948459482881581  0.5558540149971479
  0.0611353410163464  0.3415080712890215  0.6189701755785421
  0.1838147582406155  0.1547084773161320  0.6072420376960911
  0.1948101505433622  0.0015236003500328  0.6790917680513857
  0.0630973394006319  0.5015987721211228  0.3204323369308353
  0.0622773509001492  0.3375763527513931  0.3734839073208157
  0.1873324284978832  0.1594843843250724  0.3770722855993853
  0.1867702140941033  0.0083266441938514  0.4425791518441282
  0.1866217078604475  0.3390233315579904  0.4941060045579403
  0.3123800983690490  0.1631369627833872  0.5017893193607554
  0.3127418309174255  0.4932308740559490  0.5564593490913100
  0.3127853529707411  0.3399334849894833  0.6218374340234261
  0.4401877618583051  0.1538862675649781  0.6074904835734186
  0.4298638228945718  0.0004886082280658  0.6789530916991348
  0.3126393860365588  0.5013502788437044  0.3213136563910985
  0.3126580585692189  0.3381840094426303  0.3758070432760245
  0.4372546685859354  0.1590943580499496  0.3773625777599031
  0.4379009665513066  0.0074296690119175  0.4426697818342880
  0.4388339133445127  0.3391080953420009  0.4940932425787948
  0.5659149702470740  0.1623053092130068  0.5009395884974590
  0.5633707845866256  0.4947074464446568  0.5560055315146114
  0.5642086493116719  0.3415176086405260  0.6192229174945348
  0.6847753678032148  0.1613362652234451  0.6252905041462814
  0.6816710608782531  0.0052965178882750  0.6794375105341954
  0.5621469104424520  0.5017582485636809  0.3205501753960676
  0.5629794890425702  0.3375021448462918  0.3734525685642974
  0.6876078875055838  0.1574059354865580  0.3769636982245010
  0.6878051952983026  0.0061179177351159  0.4424312537071309
  0.6881626705761403  0.3414070733583656  0.4905625446337782
  0.8120995238296761  0.1613893427751265  0.5061981505743484
  0.8128111045768203  0.4951124376692858  0.5558599417512677
  0.8126164601495038  0.3432776661344258  0.6204142831591328
  0.9393274130031706  0.1615962091906283  0.6252206370513910
  0.9432006619177529  0.0058305962930097  0.6796126530160436
  0.8125722576290740  0.5019056383395963  0.3195038280303537
  0.8125954441284579  0.3362750025126028  0.3697553422164400
  0.9367507138661306  0.1577425442731493  0.3765815922427684
  0.9363603923328391  0.0069717300068216  0.4422100059218270
  0.9372470435724154  0.3413309120745989  0.4904974281426894
  0.0628467757878211  0.6624744171613136  0.5084113198387877
  0.0607348717731837  0.9966358886921974  0.5544603297746774
  0.0651873486654804  0.8482834387272797  0.6206385081641393
  0.1879653207408526  0.6628626115084448  0.6271764592089334
  0.1874686764851590  0.4978268636983396  0.6783674996691087
  0.0622257234284955  0.0020376056976581  0.3200559924296884
  0.0623672862898237  0.8373890113509432  0.3718033917989209
  0.1874808784476124  0.6565558047016998  0.3787182075561505
  0.1879433824495375  0.5060468393963401  0.4445788904024486
  0.1872842853324838  0.8416011558167791  0.4905199114127621
  0.3121175034322884  0.6604797263331451  0.5074096918257267
  0.3122412332212329  0.9910071504248380  0.5528549920572732
  0.3119097869202824  0.8427141136051310  0.6219110692253336
  0.4379924942208324  0.6629123062362838  0.6262179547918427
  0.4379894261349194  0.4982293382010124  0.6783722341171703
  0.3123212949194513  0.0023511597490297  0.3204772484342807
  0.3123000300624257  0.8376874571960432  0.3724331051659324
  0.4375014243109477  0.6569072633107541  0.3789030018425528
  0.4374562582839076  0.5061090547148795  0.4446067998720975
  0.4375169625206458  0.8404574150211549  0.4918946770903090
  0.5625340789066657  0.6617005182914882  0.5083230236701354
  0.5637699309949267  0.9961527565113546  0.5546630616406425
  0.5599264507734272  0.8475189885203470  0.6208363105048833
  0.6872681975999181  0.6643403986669235  0.6271324198820749
  0.6878255611133262  0.4992710099531877  0.6793057744464970
  0.5622721082562439  0.0018954852323800  0.3199731663434993
  0.5621645064096098  0.8375221140836405  0.3723961163699666
  0.6875812938037568  0.6584396825904515  0.3784477858774170
  0.6877768716696991  0.5083435937613842  0.4439673308554047
  0.6868726106500429  0.8405446380226056  0.4927954544590603
  0.8133893986454168  0.6627842160476638  0.5083810494912080
  0.8122950594091056  0.9950329528662100  0.5549549023075400
  0.8133214725392468  0.8464610953103874  0.6222799274611763
  0.9376477870842241  0.6642758765163600  0.6281819629408913
  0.9376308334475462  0.4989417337156652  0.6792802700278775
  0.8121679442099796  0.0006506440228691  0.3184202036679304
  0.8121700034082108  0.8375024507401334  0.3721236252837370
  0.9374781048673293  0.6580373004135782  0.3782205065640061
  0.9378137943536399  0.5082738691758879  0.4439425579647132
  0.9375389077775278  0.8417868249533171  0.4912851382815768
  0.3147227974016338  0.1457762095104839  0.7812792568936713
 
  0.00000000E+00  0.00000000E+00  0.00000000E+00
  0.00000000E+00  0.00000000E+00  0.00000000E+00
  0.00000000E+00  0.00000000E+00  0.00000000E+00
  0.00000000E+00  0.00000000E+00  0.00000000E+00
  0.00000000E+00  0.00000000E+00  0.00000000E+00
  0.00000000E+00  0.00000000E+00  0.00000000E+00
  0.00000000E+00  0.00000000E+00  0.00000000E+00
  0.00000000E+00  0.00000000E+00  0.00000000E+00
  0.00000000E+00  0.00000000E+00  0.00000000E+00
  0.00000000E+00  0.00000000E+00  0.00000000E+00
  0.00000000E+00  0.00000000E+00  0.00000000E+00
  0.00000000E+00  0.00000000E+00  0.00000000E+00
  0.00000000E+00  0.00000000E+00  0.00000000E+00
  0.00000000E+00  0.00000000E+00  0.00000000E+00
  0.00000000E+00  0.00000000E+00  0.00000000E+00
  0.00000000E+00  0.00000000E+00  0.00000000E+00
  0.00000000E+00  0.00000000E+00  0.00000000E+00
  0.00000000E+00  0.00000000E+00  0.00000000E+00
  0.00000000E+00  0.00000000E+00  0.00000000E+00
  0.00000000E+00  0.00000000E+00  0.00000000E+00
  0.00000000E+00  0.00000000E+00  0.00000000E+00
  0.00000000E+00  0.00000000E+00  0.00000000E+00
  0.00000000E+00  0.00000000E+00  0.00000000E+00
  0.00000000E+00  0.00000000E+00  0.00000000E+00
  0.00000000E+00  0.00000000E+00  0.00000000E+00
  0.00000000E+00  0.00000000E+00  0.00000000E+00
  0.00000000E+00  0.00000000E+00  0.00000000E+00
  0.00000000E+00  0.00000000E+00  0.00000000E+00
  0.00000000E+00  0.00000000E+00  0.00000000E+00
  0.00000000E+00  0.00000000E+00  0.00000000E+00
  0.00000000E+00  0.00000000E+00  0.00000000E+00
  0.00000000E+00  0.00000000E+00  0.00000000E+00
  0.00000000E+00  0.00000000E+00  0.00000000E+00
  0.00000000E+00  0.00000000E+00  0.00000000E+00
  0.00000000E+00  0.00000000E+00  0.00000000E+00
  0.00000000E+00  0.00000000E+00  0.00000000E+00
  0.00000000E+00  0.00000000E+00  0.00000000E+00
  0.00000000E+00  0.00000000E+00  0.00000000E+00
  0.00000000E+00  0.00000000E+00  0.00000000E+00
  0.00000000E+00  0.00000000E+00  0.00000000E+00
  0.00000000E+00  0.00000000E+00  0.00000000E+00
  0.00000000E+00  0.00000000E+00  0.00000000E+00
  0.00000000E+00  0.00000000E+00  0.00000000E+00
  0.00000000E+00  0.00000000E+00  0.00000000E+00
  0.00000000E+00  0.00000000E+00  0.00000000E+00
  0.00000000E+00  0.00000000E+00  0.00000000E+00
  0.00000000E+00  0.00000000E+00  0.00000000E+00
  0.00000000E+00  0.00000000E+00  0.00000000E+00
  0.00000000E+00  0.00000000E+00  0.00000000E+00
  0.00000000E+00  0.00000000E+00  0.00000000E+00
  0.00000000E+00  0.00000000E+00  0.00000000E+00
  0.00000000E+00  0.00000000E+00  0.00000000E+00
  0.00000000E+00  0.00000000E+00  0.00000000E+00
  0.00000000E+00  0.00000000E+00  0.00000000E+00
  0.00000000E+00  0.00000000E+00  0.00000000E+00
  0.00000000E+00  0.00000000E+00  0.00000000E+00
  0.00000000E+00  0.00000000E+00  0.00000000E+00
  0.00000000E+00  0.00000000E+00  0.00000000E+00
  0.00000000E+00  0.00000000E+00  0.00000000E+00
  0.00000000E+00  0.00000000E+00  0.00000000E+00
  0.00000000E+00  0.00000000E+00  0.00000000E+00
  0.00000000E+00  0.00000000E+00  0.00000000E+00
  0.00000000E+00  0.00000000E+00  0.00000000E+00
  0.00000000E+00  0.00000000E+00  0.00000000E+00
  0.00000000E+00  0.00000000E+00  0.00000000E+00
  0.00000000E+00  0.00000000E+00  0.00000000E+00
  0.00000000E+00  0.00000000E+00  0.00000000E+00
  0.00000000E+00  0.00000000E+00  0.00000000E+00
  0.00000000E+00  0.00000000E+00  0.00000000E+00
  0.00000000E+00  0.00000000E+00  0.00000000E+00
  0.00000000E+00  0.00000000E+00  0.00000000E+00
  0.00000000E+00  0.00000000E+00  0.00000000E+00
  0.00000000E+00  0.00000000E+00  0.00000000E+00
  0.00000000E+00  0.00000000E+00  0.00000000E+00
  0.00000000E+00  0.00000000E+00  0.00000000E+00
  0.00000000E+00  0.00000000E+00  0.00000000E+00
  0.00000000E+00  0.00000000E+00  0.00000000E+00
  0.00000000E+00  0.00000000E+00  0.00000000E+00
  0.00000000E+00  0.00000000E+00  0.00000000E+00
  0.00000000E+00  0.00000000E+00  0.00000000E+00
  0.00000000E+00  0.00000000E+00  0.00000000E+00
  0.00000000E+00  0.00000000E+00  0.00000000E+00
  0.00000000E+00  0.00000000E+00  0.00000000E+00
  0.00000000E+00  0.00000000E+00  0.00000000E+00
  0.00000000E+00  0.00000000E+00  0.00000000E+00
  0.00000000E+00  0.00000000E+00  0.00000000E+00
  0.00000000E+00  0.00000000E+00  0.00000000E+00
  0.00000000E+00  0.00000000E+00  0.00000000E+00
  0.00000000E+00  0.00000000E+00  0.00000000E+00
  0.00000000E+00  0.00000000E+00  0.00000000E+00
  0.00000000E+00  0.00000000E+00  0.00000000E+00
  0.00000000E+00  0.00000000E+00  0.00000000E+00
  0.00000000E+00  0.00000000E+00  0.00000000E+00
  0.00000000E+00  0.00000000E+00  0.00000000E+00
  0.00000000E+00  0.00000000E+00  0.00000000E+00
  0.00000000E+00  0.00000000E+00  0.00000000E+00
  0.00000000E+00  0.00000000E+00  0.00000000E+00
  0.00000000E+00  0.00000000E+00  0.00000000E+00
  0.00000000E+00  0.00000000E+00  0.00000000E+00
  0.00000000E+00  0.00000000E+00  0.00000000E+00
  0.00000000E+00  0.00000000E+00  0.00000000E+00
  0.00000000E+00  0.00000000E+00  0.00000000E+00
  0.00000000E+00  0.00000000E+00  0.00000000E+00
  0.00000000E+00  0.00000000E+00  0.00000000E+00
  0.00000000E+00  0.00000000E+00  0.00000000E+00
  0.00000000E+00  0.00000000E+00  0.00000000E+00
  0.00000000E+00  0.00000000E+00  0.00000000E+00
  0.00000000E+00  0.00000000E+00  0.00000000E+00
  0.00000000E+00  0.00000000E+00  0.00000000E+00
  0.00000000E+00  0.00000000E+00  0.00000000E+00
  0.00000000E+00  0.00000000E+00  0.00000000E+00
  0.00000000E+00  0.00000000E+00  0.00000000E+00
  0.00000000E+00  0.00000000E+00  0.00000000E+00
  0.00000000E+00  0.00000000E+00  0.00000000E+00
  0.00000000E+00  0.00000000E+00  0.00000000E+00
  0.00000000E+00  0.00000000E+00  0.00000000E+00
  0.00000000E+00  0.00000000E+00  0.00000000E+00
  0.00000000E+00  0.00000000E+00  0.00000000E+00
  0.00000000E+00  0.00000000E+00  0.00000000E+00
  0.00000000E+00  0.00000000E+00  0.00000000E+00
  0.00000000E+00  0.00000000E+00  0.00000000E+00
  0.00000000E+00  0.00000000E+00  0.00000000E+00
  0.00000000E+00  0.00000000E+00  0.00000000E+00
  0.00000000E+00  0.00000000E+00  0.00000000E+00
  0.00000000E+00  0.00000000E+00  0.00000000E+00
  0.00000000E+00  0.00000000E+00  0.00000000E+00
  0.00000000E+00  0.00000000E+00  0.00000000E+00
  0.00000000E+00  0.00000000E+00  0.00000000E+00
  0.00000000E+00  0.00000000E+00  0.00000000E+00
  0.00000000E+00  0.00000000E+00  0.00000000E+00
  0.00000000E+00  0.00000000E+00  0.00000000E+00
  0.00000000E+00  0.00000000E+00  0.00000000E+00
  0.00000000E+00  0.00000000E+00  0.00000000E+00
  0.00000000E+00  0.00000000E+00  0.00000000E+00
  0.00000000E+00  0.00000000E+00  0.00000000E+00
  0.00000000E+00  0.00000000E+00  0.00000000E+00
  0.00000000E+00  0.00000000E+00  0.00000000E+00
  0.00000000E+00  0.00000000E+00  0.00000000E+00
  0.00000000E+00  0.00000000E+00  0.00000000E+00
  0.00000000E+00  0.00000000E+00  0.00000000E+00
  0.00000000E+00  0.00000000E+00  0.00000000E+00
  0.00000000E+00  0.00000000E+00  0.00000000E+00
  0.00000000E+00  0.00000000E+00  0.00000000E+00
  0.00000000E+00  0.00000000E+00  0.00000000E+00
  0.00000000E+00  0.00000000E+00  0.00000000E+00
