CONTCAR\(4)                             
   1.00000000000000     
    13.7044000625999995    0.0000000000000000    0.0000000000000000
     6.8522000312999998   11.8683585978000004    0.0000000000000000
     0.0000000000000000    0.0000000000000000   18.4445991515999985
   Cr   Ge   Te   O    H 
     8     8    24     1     1
Direct
  0.1664324469756008  0.1675500428334827  0.4970253597693603
  0.3324222149544545  0.3332626174675168  0.4999705996163753
  0.6677608109935385  0.1655796975243928  0.4999023736746900
  0.8346852245359485  0.3333924414127209  0.5004504203592407
  0.1655306048368941  0.6679398815373775  0.5004172005618492
  0.3327222418198419  0.8358881593480317  0.4987800483621634
  0.6674420764965542  0.6685912363853600  0.4987623646706346
  0.8336864160649080  0.8339226679631470  0.4969822582487910
  0.0009887106829160 -0.0000603109303776  0.4336528121153020
  0.0016304950230562 -0.0003894918345801  0.5647049113373066
  0.5001155439375449  0.0015705852053307  0.4328140007541786
  0.5000732117175900  0.0014525416234301  0.5639462317411011
 -0.0008371222699301  0.5008831495380891  0.4336237620693238
 -0.0014539754759512  0.5012069227569537  0.5646782783410890
  0.5001037907636869  0.5006592929694954  0.4599708853399401
  0.5001535948666204  0.5033263554812517  0.6044215353220672
  0.3116122090723940  0.0037712351256312  0.5929161202433207
  0.0033198613422422  0.1862092805654527  0.5936685693874205
  0.1848482787266247  0.3123631776758415  0.5933951718392299
  0.1868028423230122  0.5007346020872342  0.4052369475777083
  0.5000699161187309  0.3193657253130402  0.4122426596717985
  0.3129902576805736  0.1885039715687480  0.4031960937595355
  0.8152483940613228  0.9971842588047781  0.5933999750585141
  0.5001517018734023  0.1880270429935784  0.5944972245672172
  0.6944756376488888  0.3054757887435025  0.5927862130338142
  0.6815497512201175  0.5002061874216497  0.4118509917907313
 -0.0013916922218825  0.3143226080371767  0.4035059670961569
  0.8134363959475017  0.1875369262358741  0.4052657284774068
  0.3057601293284651  0.4999261685122339  0.5928246495301960
  0.9968061655574598  0.6895206131280802  0.5936253454533643
  0.1888622316536000  0.8132024826312280  0.5946995758849896
  0.1870903250116680  0.0008027074604493  0.4029013968689754
  0.5000139458400009  0.8144245661238090  0.4032961895573294
  0.3186708833863641  0.6816440287376312  0.4118055234464024
  0.8113639588786241  0.5020113267023771  0.5946752637220919
  0.5000588030286510  0.6976375698050615  0.5916754678750302
  0.6885576390589839  0.8153921639084329  0.5929677170787827
  0.6872228179828326  0.0013606943427018  0.4031549987029594
  0.0015550710423048  0.8128633070012978  0.4035143017912717
  0.8131108285253922  0.6877971293554072  0.4028331632265228
  0.5003577149671466  0.5158934239421625  0.7038511788971025
  0.5020390960222928  0.4510075024949671  0.7271402221787074
 
  0.00000000E+00  0.00000000E+00  0.00000000E+00
  0.00000000E+00  0.00000000E+00  0.00000000E+00
  0.00000000E+00  0.00000000E+00  0.00000000E+00
  0.00000000E+00  0.00000000E+00  0.00000000E+00
  0.00000000E+00  0.00000000E+00  0.00000000E+00
  0.00000000E+00  0.00000000E+00  0.00000000E+00
  0.00000000E+00  0.00000000E+00  0.00000000E+00
  0.00000000E+00  0.00000000E+00  0.00000000E+00
  0.00000000E+00  0.00000000E+00  0.00000000E+00
  0.00000000E+00  0.00000000E+00  0.00000000E+00
  0.00000000E+00  0.00000000E+00  0.00000000E+00
  0.00000000E+00  0.00000000E+00  0.00000000E+00
  0.00000000E+00  0.00000000E+00  0.00000000E+00
  0.00000000E+00  0.00000000E+00  0.00000000E+00
  0.00000000E+00  0.00000000E+00  0.00000000E+00
  0.00000000E+00  0.00000000E+00  0.00000000E+00
  0.00000000E+00  0.00000000E+00  0.00000000E+00
  0.00000000E+00  0.00000000E+00  0.00000000E+00
  0.00000000E+00  0.00000000E+00  0.00000000E+00
  0.00000000E+00  0.00000000E+00  0.00000000E+00
  0.00000000E+00  0.00000000E+00  0.00000000E+00
  0.00000000E+00  0.00000000E+00  0.00000000E+00
  0.00000000E+00  0.00000000E+00  0.00000000E+00
  0.00000000E+00  0.00000000E+00  0.00000000E+00
  0.00000000E+00  0.00000000E+00  0.00000000E+00
  0.00000000E+00  0.00000000E+00  0.00000000E+00
  0.00000000E+00  0.00000000E+00  0.00000000E+00
  0.00000000E+00  0.00000000E+00  0.00000000E+00
  0.00000000E+00  0.00000000E+00  0.00000000E+00
  0.00000000E+00  0.00000000E+00  0.00000000E+00
  0.00000000E+00  0.00000000E+00  0.00000000E+00
  0.00000000E+00  0.00000000E+00  0.00000000E+00
  0.00000000E+00  0.00000000E+00  0.00000000E+00
  0.00000000E+00  0.00000000E+00  0.00000000E+00
  0.00000000E+00  0.00000000E+00  0.00000000E+00
  0.00000000E+00  0.00000000E+00  0.00000000E+00
  0.00000000E+00  0.00000000E+00  0.00000000E+00
  0.00000000E+00  0.00000000E+00  0.00000000E+00
  0.00000000E+00  0.00000000E+00  0.00000000E+00
  0.00000000E+00  0.00000000E+00  0.00000000E+00
  0.00000000E+00  0.00000000E+00  0.00000000E+00
  0.00000000E+00  0.00000000E+00  0.00000000E+00
