 Bi2 Te5 Pb2                            
   1.00000000000000     
     4.4731139411549616    0.0000000000000000    0.0000000000000000
    -2.2365574654655287    3.8721405864137637    0.0000000000000000
     0.0000000000000000    0.0000000000000000   30.7367510974080034
   Bi   Te   Pb
     2     5     2
Direct
  0.3333317207683635  0.6666635474068698  0.4351667518909537
  0.6666681974325925  0.3333363534633804  0.5648324232774655
  0.6666681510000458  0.3333361340882917  0.7568344010599475
  0.6666683177998109  0.3333366814556840  0.3803006980475914
  0.3333318907862264  0.6666637571593697  0.6196950614075121
  0.0000001675220531  0.0000003398408452  0.4999987639566541
  0.3333319087725073  0.6666639407907269  0.2431688344975669
  0.9999969954464589  0.9999941855905590  0.2955654708801916
  0.0000026504719415  0.0000050602042663  0.7044375949821031
 
  0.00000000E+00  0.00000000E+00  0.00000000E+00
  0.00000000E+00  0.00000000E+00  0.00000000E+00
  0.00000000E+00  0.00000000E+00  0.00000000E+00
  0.00000000E+00  0.00000000E+00  0.00000000E+00
  0.00000000E+00  0.00000000E+00  0.00000000E+00
  0.00000000E+00  0.00000000E+00  0.00000000E+00
  0.00000000E+00  0.00000000E+00  0.00000000E+00
  0.00000000E+00  0.00000000E+00  0.00000000E+00
  0.00000000E+00  0.00000000E+00  0.00000000E+00
