CONTCAR                                 
   1.00000000000000     
    14.1208000183000006    0.0000000000000000    0.0000000000000000
    -7.0462440071000003   12.2285942740000007    0.0000000000000000
     0.0000000000000000    0.0000000000000000   18.4216003418000014
   V    Te   O 
    16    32     1
Direct
  0.2322881703214323  0.2430453572123431  0.5043235572738722
  0.5215533600367490  0.2326681618080816  0.5010198572493912
  0.7579714648346701  0.2478589523163871  0.4979851433496746
 -0.0034800140998273  0.2524021044805111  0.5003798928659497
  0.2320691086101080  0.4989842078283449  0.5039297057643217
  0.4912466301891873  0.5119721913937468  0.5217778994206700
  0.7714755018550338  0.4833086011659113  0.5013653118757524
 -0.0041491554391086  0.4871807811737251  0.4979309241425363
  0.2293358511902355  0.7351461066443334  0.5010919985904689
  0.5117769358270595  0.7676233561542312  0.5032242732442520
  0.7492923733240602  0.7627186157209135  0.5030061878223241
  0.0002956239522197  0.7503001969983795  0.4994833093972415
  0.2425941718656346 -0.0017532165800369  0.4991164481286422
  0.5282692349253894  0.0118609725738462  0.4969319790550442
  0.7578820129281060  0.0055928945297786  0.5000804484519629
 -0.0053327041522254 -0.0042080425616553  0.5002136932762590
  0.0835788696487285  0.1656396229897983  0.4038405564723169
  0.1633361251181094  0.0799949866892232  0.5988292903275000
  0.3399681902245658  0.1720247564074231  0.4120941082308212
  0.4180208825333935  0.0768267634765281  0.5944000827424708
  0.5936215295867758  0.1658924857383384  0.3948716720173269
  0.6766102918790013  0.0858627754305191  0.5993059486955733
  0.8392479442678872  0.1649780781685599  0.3998228185751864
  0.9195828747071055  0.0840767601388071  0.5975268124761033
  0.0830956457028905  0.4139237245762541  0.3999691740074959
  0.1649563511692589  0.3342643725510251  0.6008901074133549
  0.3369871150755651  0.4212608088530008  0.4168953946361523
  0.4217297807987708  0.3148087728675362  0.5865145969194262
  0.5799700980661899  0.4203864437236651  0.4272683141922440
  0.6743305246000554  0.3275215881545887  0.6008770471064111
  0.8371995420857904  0.4096768276064238  0.3955470399091632
  0.9167281985179930  0.3298866015001223  0.5994338489803051
  0.0776000518490392  0.6623875260851091  0.4017595994503945
  0.1501465974920547  0.5795766859405815  0.6023643429554812
  0.3334678771460465  0.6686540867449869  0.4093563070743827
  0.3913178136528619  0.6137853488513114  0.6063223553373653
  0.5785018066535456  0.6613295118571859  0.4124910604338854
  0.6849664751387708  0.5787055038283374  0.5874283360221014
  0.8254694180413431  0.6586710742368965  0.4112654935204311
  0.9211882176489328  0.5828684648558059  0.5983425633875836
  0.0809042825207067  0.9149523610165458  0.4023623012973554
  0.1634840132047533  0.8342448712216255  0.5972882096861614
  0.3373137750317289  0.9151634774376858  0.4129619549054099
  0.4141557757985965  0.8469833207965881  0.5910139238677637
  0.5909033371410547  0.9189024509958119  0.3997363712153406
  0.6693327846582110  0.8377152359941721  0.6020231907942996
  0.8337753654842071  0.9153317287928545  0.4014852554568762
  0.9159721853917651  0.8318473646991753  0.5979711393564117
  0.4685465749955802  0.5256838449146677  0.6179799386285743
 
  0.00000000E+00  0.00000000E+00  0.00000000E+00
  0.00000000E+00  0.00000000E+00  0.00000000E+00
  0.00000000E+00  0.00000000E+00  0.00000000E+00
  0.00000000E+00  0.00000000E+00  0.00000000E+00
  0.00000000E+00  0.00000000E+00  0.00000000E+00
  0.00000000E+00  0.00000000E+00  0.00000000E+00
  0.00000000E+00  0.00000000E+00  0.00000000E+00
  0.00000000E+00  0.00000000E+00  0.00000000E+00
  0.00000000E+00  0.00000000E+00  0.00000000E+00
  0.00000000E+00  0.00000000E+00  0.00000000E+00
  0.00000000E+00  0.00000000E+00  0.00000000E+00
  0.00000000E+00  0.00000000E+00  0.00000000E+00
  0.00000000E+00  0.00000000E+00  0.00000000E+00
  0.00000000E+00  0.00000000E+00  0.00000000E+00
  0.00000000E+00  0.00000000E+00  0.00000000E+00
  0.00000000E+00  0.00000000E+00  0.00000000E+00
  0.00000000E+00  0.00000000E+00  0.00000000E+00
  0.00000000E+00  0.00000000E+00  0.00000000E+00
  0.00000000E+00  0.00000000E+00  0.00000000E+00
  0.00000000E+00  0.00000000E+00  0.00000000E+00
  0.00000000E+00  0.00000000E+00  0.00000000E+00
  0.00000000E+00  0.00000000E+00  0.00000000E+00
  0.00000000E+00  0.00000000E+00  0.00000000E+00
  0.00000000E+00  0.00000000E+00  0.00000000E+00
  0.00000000E+00  0.00000000E+00  0.00000000E+00
  0.00000000E+00  0.00000000E+00  0.00000000E+00
  0.00000000E+00  0.00000000E+00  0.00000000E+00
  0.00000000E+00  0.00000000E+00  0.00000000E+00
  0.00000000E+00  0.00000000E+00  0.00000000E+00
  0.00000000E+00  0.00000000E+00  0.00000000E+00
  0.00000000E+00  0.00000000E+00  0.00000000E+00
  0.00000000E+00  0.00000000E+00  0.00000000E+00
  0.00000000E+00  0.00000000E+00  0.00000000E+00
  0.00000000E+00  0.00000000E+00  0.00000000E+00
  0.00000000E+00  0.00000000E+00  0.00000000E+00
  0.00000000E+00  0.00000000E+00  0.00000000E+00
  0.00000000E+00  0.00000000E+00  0.00000000E+00
  0.00000000E+00  0.00000000E+00  0.00000000E+00
  0.00000000E+00  0.00000000E+00  0.00000000E+00
  0.00000000E+00  0.00000000E+00  0.00000000E+00
  0.00000000E+00  0.00000000E+00  0.00000000E+00
  0.00000000E+00  0.00000000E+00  0.00000000E+00
  0.00000000E+00  0.00000000E+00  0.00000000E+00
  0.00000000E+00  0.00000000E+00  0.00000000E+00
  0.00000000E+00  0.00000000E+00  0.00000000E+00
  0.00000000E+00  0.00000000E+00  0.00000000E+00
  0.00000000E+00  0.00000000E+00  0.00000000E+00
  0.00000000E+00  0.00000000E+00  0.00000000E+00
  0.00000000E+00  0.00000000E+00  0.00000000E+00
