 Mn2 Se2                                
   1.00000000000000     
     3.5654663398192858    0.0000000000000000    0.0000000000000000
     0.0000000000000000    3.5654663526595134    0.0000000000000000
     0.0000000000000000    0.0000000000000000   18.1191986541239984
   Mn   Se
     2     2
Direct
  0.4999999887405163  0.5000000106000519  0.5000000012536899
 -0.0000000063280596  0.0000000000608764  0.5000000017954727
  0.5000000265456188  0.0000000022478952  0.5868115262446318
 -0.0000000089580754  0.4999999870911765  0.4131884707062052
 
  0.00000000E+00  0.00000000E+00  0.00000000E+00
  0.00000000E+00  0.00000000E+00  0.00000000E+00
  0.00000000E+00  0.00000000E+00  0.00000000E+00
  0.00000000E+00  0.00000000E+00  0.00000000E+00
