 Si4 Cu2 P6                             
   1.00000000000000     
     3.6319458317375468    0.0000000000000000    0.0000000000000000
     0.0000000000000000    6.4000653947693884    0.0000000000000000
     0.0000000000000000    0.0000000000000000   21.8100099778200018
   Cu   Si   P 
     2     4     6
Direct
  0.9999999945820264  0.2185675617922627  0.4611666896313977
  0.0000000053068803  0.5721604174939330  0.3609096862019001
  0.5000000016636790  0.0904950447336645  0.3858574243152972
  0.4999999981185113  0.3944883805567017  0.6086591751261636
  0.5000000014756409  0.7112000966112220  0.4806503750032292
  0.9999999964592377  0.8932822798046516  0.6139562184674006
  0.9999999975459843  0.2372326632680526  0.3444748214534457
  0.5000000021736000  0.3784844859631846  0.5060949948134024
  0.5000000063358954  0.7470782807854377  0.3792761104021878
  0.9999999995787618  0.5575783718758771  0.6545552384775561
  0.0000000007479741  0.9011191628316837  0.5106589233279166
  0.4999999960118160  0.0656222542833120  0.6553838394405460
 
  0.00000000E+00  0.00000000E+00  0.00000000E+00
  0.00000000E+00  0.00000000E+00  0.00000000E+00
  0.00000000E+00  0.00000000E+00  0.00000000E+00
  0.00000000E+00  0.00000000E+00  0.00000000E+00
  0.00000000E+00  0.00000000E+00  0.00000000E+00
  0.00000000E+00  0.00000000E+00  0.00000000E+00
  0.00000000E+00  0.00000000E+00  0.00000000E+00
  0.00000000E+00  0.00000000E+00  0.00000000E+00
  0.00000000E+00  0.00000000E+00  0.00000000E+00
  0.00000000E+00  0.00000000E+00  0.00000000E+00
  0.00000000E+00  0.00000000E+00  0.00000000E+00
  0.00000000E+00  0.00000000E+00  0.00000000E+00
