G   55   31    1    0.005     # Parameters to Generate KPOINTS (Don't Edit This Line)
     448
Reciprocal lattice
    0.000000000000    0.000000000000    0.000000000000       1
    0.018181818182    0.000000000000    0.000000000000       2
    0.036363636364    0.000000000000    0.000000000000       2
    0.054545454545    0.000000000000    0.000000000000       2
    0.072727272727    0.000000000000    0.000000000000       2
    0.090909090909    0.000000000000    0.000000000000       2
    0.109090909091    0.000000000000    0.000000000000       2
    0.127272727273    0.000000000000    0.000000000000       2
    0.145454545455    0.000000000000    0.000000000000       2
    0.163636363636    0.000000000000    0.000000000000       2
    0.181818181818    0.000000000000    0.000000000000       2
    0.200000000000    0.000000000000    0.000000000000       2
    0.218181818182    0.000000000000    0.000000000000       2
    0.236363636364    0.000000000000    0.000000000000       2
    0.254545454545    0.000000000000    0.000000000000       2
    0.272727272727    0.000000000000    0.000000000000       2
    0.290909090909    0.000000000000    0.000000000000       2
    0.309090909091    0.000000000000    0.000000000000       2
    0.327272727273    0.000000000000    0.000000000000       2
    0.345454545455    0.000000000000    0.000000000000       2
    0.363636363636    0.000000000000    0.000000000000       2
    0.381818181818    0.000000000000    0.000000000000       2
    0.400000000000    0.000000000000    0.000000000000       2
    0.418181818182    0.000000000000    0.000000000000       2
    0.436363636364    0.000000000000    0.000000000000       2
    0.454545454545    0.000000000000    0.000000000000       2
    0.472727272727    0.000000000000    0.000000000000       2
    0.490909090909    0.000000000000    0.000000000000       2
    0.000000000000    0.032258064516    0.000000000000       2
    0.018181818182    0.032258064516    0.000000000000       4
    0.036363636364    0.032258064516    0.000000000000       4
    0.054545454545    0.032258064516    0.000000000000       4
    0.072727272727    0.032258064516    0.000000000000       4
    0.090909090909    0.032258064516    0.000000000000       4
    0.109090909091    0.032258064516    0.000000000000       4
    0.127272727273    0.032258064516    0.000000000000       4
    0.145454545455    0.032258064516    0.000000000000       4
    0.163636363636    0.032258064516    0.000000000000       4
    0.181818181818    0.032258064516    0.000000000000       4
    0.200000000000    0.032258064516    0.000000000000       4
    0.218181818182    0.032258064516    0.000000000000       4
    0.236363636364    0.032258064516    0.000000000000       4
    0.254545454545    0.032258064516    0.000000000000       4
    0.272727272727    0.032258064516    0.000000000000       4
    0.290909090909    0.032258064516    0.000000000000       4
    0.309090909091    0.032258064516    0.000000000000       4
    0.327272727273    0.032258064516    0.000000000000       4
    0.345454545455    0.032258064516    0.000000000000       4
    0.363636363636    0.032258064516    0.000000000000       4
    0.381818181818    0.032258064516    0.000000000000       4
    0.400000000000    0.032258064516    0.000000000000       4
    0.418181818182    0.032258064516    0.000000000000       4
    0.436363636364    0.032258064516    0.000000000000       4
    0.454545454545    0.032258064516    0.000000000000       4
    0.472727272727    0.032258064516    0.000000000000       4
    0.490909090909    0.032258064516    0.000000000000       4
    0.000000000000    0.064516129032    0.000000000000       2
    0.018181818182    0.064516129032    0.000000000000       4
    0.036363636364    0.064516129032    0.000000000000       4
    0.054545454545    0.064516129032    0.000000000000       4
    0.072727272727    0.064516129032    0.000000000000       4
    0.090909090909    0.064516129032    0.000000000000       4
    0.109090909091    0.064516129032    0.000000000000       4
    0.127272727273    0.064516129032    0.000000000000       4
    0.145454545455    0.064516129032    0.000000000000       4
    0.163636363636    0.064516129032    0.000000000000       4
    0.181818181818    0.064516129032    0.000000000000       4
    0.200000000000    0.064516129032    0.000000000000       4
    0.218181818182    0.064516129032    0.000000000000       4
    0.236363636364    0.064516129032    0.000000000000       4
    0.254545454545    0.064516129032    0.000000000000       4
    0.272727272727    0.064516129032    0.000000000000       4
    0.290909090909    0.064516129032    0.000000000000       4
    0.309090909091    0.064516129032    0.000000000000       4
    0.327272727273    0.064516129032    0.000000000000       4
    0.345454545455    0.064516129032    0.000000000000       4
    0.363636363636    0.064516129032    0.000000000000       4
    0.381818181818    0.064516129032    0.000000000000       4
    0.400000000000    0.064516129032    0.000000000000       4
    0.418181818182    0.064516129032    0.000000000000       4
    0.436363636364    0.064516129032    0.000000000000       4
    0.454545454545    0.064516129032    0.000000000000       4
    0.472727272727    0.064516129032    0.000000000000       4
    0.490909090909    0.064516129032    0.000000000000       4
    0.000000000000    0.096774193548    0.000000000000       2
    0.018181818182    0.096774193548    0.000000000000       4
    0.036363636364    0.096774193548    0.000000000000       4
    0.054545454545    0.096774193548    0.000000000000       4
    0.072727272727    0.096774193548    0.000000000000       4
    0.090909090909    0.096774193548    0.000000000000       4
    0.109090909091    0.096774193548    0.000000000000       4
    0.127272727273    0.096774193548    0.000000000000       4
    0.145454545455    0.096774193548    0.000000000000       4
    0.163636363636    0.096774193548    0.000000000000       4
    0.181818181818    0.096774193548    0.000000000000       4
    0.200000000000    0.096774193548    0.000000000000       4
    0.218181818182    0.096774193548    0.000000000000       4
    0.236363636364    0.096774193548    0.000000000000       4
    0.254545454545    0.096774193548    0.000000000000       4
    0.272727272727    0.096774193548    0.000000000000       4
    0.290909090909    0.096774193548    0.000000000000       4
    0.309090909091    0.096774193548    0.000000000000       4
    0.327272727273    0.096774193548    0.000000000000       4
    0.345454545455    0.096774193548    0.000000000000       4
    0.363636363636    0.096774193548    0.000000000000       4
    0.381818181818    0.096774193548    0.000000000000       4
    0.400000000000    0.096774193548    0.000000000000       4
    0.418181818182    0.096774193548    0.000000000000       4
    0.436363636364    0.096774193548    0.000000000000       4
    0.454545454545    0.096774193548    0.000000000000       4
    0.472727272727    0.096774193548    0.000000000000       4
    0.490909090909    0.096774193548    0.000000000000       4
    0.000000000000    0.129032258065    0.000000000000       2
    0.018181818182    0.129032258065    0.000000000000       4
    0.036363636364    0.129032258065    0.000000000000       4
    0.054545454545    0.129032258065    0.000000000000       4
    0.072727272727    0.129032258065    0.000000000000       4
    0.090909090909    0.129032258065    0.000000000000       4
    0.109090909091    0.129032258065    0.000000000000       4
    0.127272727273    0.129032258065    0.000000000000       4
    0.145454545455    0.129032258065    0.000000000000       4
    0.163636363636    0.129032258065    0.000000000000       4
    0.181818181818    0.129032258065    0.000000000000       4
    0.200000000000    0.129032258065    0.000000000000       4
    0.218181818182    0.129032258065    0.000000000000       4
    0.236363636364    0.129032258065    0.000000000000       4
    0.254545454545    0.129032258065    0.000000000000       4
    0.272727272727    0.129032258065    0.000000000000       4
    0.290909090909    0.129032258065    0.000000000000       4
    0.309090909091    0.129032258065    0.000000000000       4
    0.327272727273    0.129032258065    0.000000000000       4
    0.345454545455    0.129032258065    0.000000000000       4
    0.363636363636    0.129032258065    0.000000000000       4
    0.381818181818    0.129032258065    0.000000000000       4
    0.400000000000    0.129032258065    0.000000000000       4
    0.418181818182    0.129032258065    0.000000000000       4
    0.436363636364    0.129032258065    0.000000000000       4
    0.454545454545    0.129032258065    0.000000000000       4
    0.472727272727    0.129032258065    0.000000000000       4
    0.490909090909    0.129032258065    0.000000000000       4
    0.000000000000    0.161290322581    0.000000000000       2
    0.018181818182    0.161290322581    0.000000000000       4
    0.036363636364    0.161290322581    0.000000000000       4
    0.054545454545    0.161290322581    0.000000000000       4
    0.072727272727    0.161290322581    0.000000000000       4
    0.090909090909    0.161290322581    0.000000000000       4
    0.109090909091    0.161290322581    0.000000000000       4
    0.127272727273    0.161290322581    0.000000000000       4
    0.145454545455    0.161290322581    0.000000000000       4
    0.163636363636    0.161290322581    0.000000000000       4
    0.181818181818    0.161290322581    0.000000000000       4
    0.200000000000    0.161290322581    0.000000000000       4
    0.218181818182    0.161290322581    0.000000000000       4
    0.236363636364    0.161290322581    0.000000000000       4
    0.254545454545    0.161290322581    0.000000000000       4
    0.272727272727    0.161290322581    0.000000000000       4
    0.290909090909    0.161290322581    0.000000000000       4
    0.309090909091    0.161290322581    0.000000000000       4
    0.327272727273    0.161290322581    0.000000000000       4
    0.345454545455    0.161290322581    0.000000000000       4
    0.363636363636    0.161290322581    0.000000000000       4
    0.381818181818    0.161290322581    0.000000000000       4
    0.400000000000    0.161290322581    0.000000000000       4
    0.418181818182    0.161290322581    0.000000000000       4
    0.436363636364    0.161290322581    0.000000000000       4
    0.454545454545    0.161290322581    0.000000000000       4
    0.472727272727    0.161290322581    0.000000000000       4
    0.490909090909    0.161290322581    0.000000000000       4
    0.000000000000    0.193548387097    0.000000000000       2
    0.018181818182    0.193548387097    0.000000000000       4
    0.036363636364    0.193548387097    0.000000000000       4
    0.054545454545    0.193548387097    0.000000000000       4
    0.072727272727    0.193548387097    0.000000000000       4
    0.090909090909    0.193548387097    0.000000000000       4
    0.109090909091    0.193548387097    0.000000000000       4
    0.127272727273    0.193548387097    0.000000000000       4
    0.145454545455    0.193548387097    0.000000000000       4
    0.163636363636    0.193548387097    0.000000000000       4
    0.181818181818    0.193548387097    0.000000000000       4
    0.200000000000    0.193548387097    0.000000000000       4
    0.218181818182    0.193548387097    0.000000000000       4
    0.236363636364    0.193548387097    0.000000000000       4
    0.254545454545    0.193548387097    0.000000000000       4
    0.272727272727    0.193548387097    0.000000000000       4
    0.290909090909    0.193548387097    0.000000000000       4
    0.309090909091    0.193548387097    0.000000000000       4
    0.327272727273    0.193548387097    0.000000000000       4
    0.345454545455    0.193548387097    0.000000000000       4
    0.363636363636    0.193548387097    0.000000000000       4
    0.381818181818    0.193548387097    0.000000000000       4
    0.400000000000    0.193548387097    0.000000000000       4
    0.418181818182    0.193548387097    0.000000000000       4
    0.436363636364    0.193548387097    0.000000000000       4
    0.454545454545    0.193548387097    0.000000000000       4
    0.472727272727    0.193548387097    0.000000000000       4
    0.490909090909    0.193548387097    0.000000000000       4
    0.000000000000    0.225806451613    0.000000000000       2
    0.018181818182    0.225806451613    0.000000000000       4
    0.036363636364    0.225806451613    0.000000000000       4
    0.054545454545    0.225806451613    0.000000000000       4
    0.072727272727    0.225806451613    0.000000000000       4
    0.090909090909    0.225806451613    0.000000000000       4
    0.109090909091    0.225806451613    0.000000000000       4
    0.127272727273    0.225806451613    0.000000000000       4
    0.145454545455    0.225806451613    0.000000000000       4
    0.163636363636    0.225806451613    0.000000000000       4
    0.181818181818    0.225806451613    0.000000000000       4
    0.200000000000    0.225806451613    0.000000000000       4
    0.218181818182    0.225806451613    0.000000000000       4
    0.236363636364    0.225806451613    0.000000000000       4
    0.254545454545    0.225806451613    0.000000000000       4
    0.272727272727    0.225806451613    0.000000000000       4
    0.290909090909    0.225806451613    0.000000000000       4
    0.309090909091    0.225806451613    0.000000000000       4
    0.327272727273    0.225806451613    0.000000000000       4
    0.345454545455    0.225806451613    0.000000000000       4
    0.363636363636    0.225806451613    0.000000000000       4
    0.381818181818    0.225806451613    0.000000000000       4
    0.400000000000    0.225806451613    0.000000000000       4
    0.418181818182    0.225806451613    0.000000000000       4
    0.436363636364    0.225806451613    0.000000000000       4
    0.454545454545    0.225806451613    0.000000000000       4
    0.472727272727    0.225806451613    0.000000000000       4
    0.490909090909    0.225806451613    0.000000000000       4
    0.000000000000    0.258064516129    0.000000000000       2
    0.018181818182    0.258064516129    0.000000000000       4
    0.036363636364    0.258064516129    0.000000000000       4
    0.054545454545    0.258064516129    0.000000000000       4
    0.072727272727    0.258064516129    0.000000000000       4
    0.090909090909    0.258064516129    0.000000000000       4
    0.109090909091    0.258064516129    0.000000000000       4
    0.127272727273    0.258064516129    0.000000000000       4
    0.145454545455    0.258064516129    0.000000000000       4
    0.163636363636    0.258064516129    0.000000000000       4
    0.181818181818    0.258064516129    0.000000000000       4
    0.200000000000    0.258064516129    0.000000000000       4
    0.218181818182    0.258064516129    0.000000000000       4
    0.236363636364    0.258064516129    0.000000000000       4
    0.254545454545    0.258064516129    0.000000000000       4
    0.272727272727    0.258064516129    0.000000000000       4
    0.290909090909    0.258064516129    0.000000000000       4
    0.309090909091    0.258064516129    0.000000000000       4
    0.327272727273    0.258064516129    0.000000000000       4
    0.345454545455    0.258064516129    0.000000000000       4
    0.363636363636    0.258064516129    0.000000000000       4
    0.381818181818    0.258064516129    0.000000000000       4
    0.400000000000    0.258064516129    0.000000000000       4
    0.418181818182    0.258064516129    0.000000000000       4
    0.436363636364    0.258064516129    0.000000000000       4
    0.454545454545    0.258064516129    0.000000000000       4
    0.472727272727    0.258064516129    0.000000000000       4
    0.490909090909    0.258064516129    0.000000000000       4
    0.000000000000    0.290322580645    0.000000000000       2
    0.018181818182    0.290322580645    0.000000000000       4
    0.036363636364    0.290322580645    0.000000000000       4
    0.054545454545    0.290322580645    0.000000000000       4
    0.072727272727    0.290322580645    0.000000000000       4
    0.090909090909    0.290322580645    0.000000000000       4
    0.109090909091    0.290322580645    0.000000000000       4
    0.127272727273    0.290322580645    0.000000000000       4
    0.145454545455    0.290322580645    0.000000000000       4
    0.163636363636    0.290322580645    0.000000000000       4
    0.181818181818    0.290322580645    0.000000000000       4
    0.200000000000    0.290322580645    0.000000000000       4
    0.218181818182    0.290322580645    0.000000000000       4
    0.236363636364    0.290322580645    0.000000000000       4
    0.254545454545    0.290322580645    0.000000000000       4
    0.272727272727    0.290322580645    0.000000000000       4
    0.290909090909    0.290322580645    0.000000000000       4
    0.309090909091    0.290322580645    0.000000000000       4
    0.327272727273    0.290322580645    0.000000000000       4
    0.345454545455    0.290322580645    0.000000000000       4
    0.363636363636    0.290322580645    0.000000000000       4
    0.381818181818    0.290322580645    0.000000000000       4
    0.400000000000    0.290322580645    0.000000000000       4
    0.418181818182    0.290322580645    0.000000000000       4
    0.436363636364    0.290322580645    0.000000000000       4
    0.454545454545    0.290322580645    0.000000000000       4
    0.472727272727    0.290322580645    0.000000000000       4
    0.490909090909    0.290322580645    0.000000000000       4
    0.000000000000    0.322580645161    0.000000000000       2
    0.018181818182    0.322580645161    0.000000000000       4
    0.036363636364    0.322580645161    0.000000000000       4
    0.054545454545    0.322580645161    0.000000000000       4
    0.072727272727    0.322580645161    0.000000000000       4
    0.090909090909    0.322580645161    0.000000000000       4
    0.109090909091    0.322580645161    0.000000000000       4
    0.127272727273    0.322580645161    0.000000000000       4
    0.145454545455    0.322580645161    0.000000000000       4
    0.163636363636    0.322580645161    0.000000000000       4
    0.181818181818    0.322580645161    0.000000000000       4
    0.200000000000    0.322580645161    0.000000000000       4
    0.218181818182    0.322580645161    0.000000000000       4
    0.236363636364    0.322580645161    0.000000000000       4
    0.254545454545    0.322580645161    0.000000000000       4
    0.272727272727    0.322580645161    0.000000000000       4
    0.290909090909    0.322580645161    0.000000000000       4
    0.309090909091    0.322580645161    0.000000000000       4
    0.327272727273    0.322580645161    0.000000000000       4
    0.345454545455    0.322580645161    0.000000000000       4
    0.363636363636    0.322580645161    0.000000000000       4
    0.381818181818    0.322580645161    0.000000000000       4
    0.400000000000    0.322580645161    0.000000000000       4
    0.418181818182    0.322580645161    0.000000000000       4
    0.436363636364    0.322580645161    0.000000000000       4
    0.454545454545    0.322580645161    0.000000000000       4
    0.472727272727    0.322580645161    0.000000000000       4
    0.490909090909    0.322580645161    0.000000000000       4
    0.000000000000    0.354838709677    0.000000000000       2
    0.018181818182    0.354838709677    0.000000000000       4
    0.036363636364    0.354838709677    0.000000000000       4
    0.054545454545    0.354838709677    0.000000000000       4
    0.072727272727    0.354838709677    0.000000000000       4
    0.090909090909    0.354838709677    0.000000000000       4
    0.109090909091    0.354838709677    0.000000000000       4
    0.127272727273    0.354838709677    0.000000000000       4
    0.145454545455    0.354838709677    0.000000000000       4
    0.163636363636    0.354838709677    0.000000000000       4
    0.181818181818    0.354838709677    0.000000000000       4
    0.200000000000    0.354838709677    0.000000000000       4
    0.218181818182    0.354838709677    0.000000000000       4
    0.236363636364    0.354838709677    0.000000000000       4
    0.254545454545    0.354838709677    0.000000000000       4
    0.272727272727    0.354838709677    0.000000000000       4
    0.290909090909    0.354838709677    0.000000000000       4
    0.309090909091    0.354838709677    0.000000000000       4
    0.327272727273    0.354838709677    0.000000000000       4
    0.345454545455    0.354838709677    0.000000000000       4
    0.363636363636    0.354838709677    0.000000000000       4
    0.381818181818    0.354838709677    0.000000000000       4
    0.400000000000    0.354838709677    0.000000000000       4
    0.418181818182    0.354838709677    0.000000000000       4
    0.436363636364    0.354838709677    0.000000000000       4
    0.454545454545    0.354838709677    0.000000000000       4
    0.472727272727    0.354838709677    0.000000000000       4
    0.490909090909    0.354838709677    0.000000000000       4
    0.000000000000    0.387096774194    0.000000000000       2
    0.018181818182    0.387096774194    0.000000000000       4
    0.036363636364    0.387096774194    0.000000000000       4
    0.054545454545    0.387096774194    0.000000000000       4
    0.072727272727    0.387096774194    0.000000000000       4
    0.090909090909    0.387096774194    0.000000000000       4
    0.109090909091    0.387096774194    0.000000000000       4
    0.127272727273    0.387096774194    0.000000000000       4
    0.145454545455    0.387096774194    0.000000000000       4
    0.163636363636    0.387096774194    0.000000000000       4
    0.181818181818    0.387096774194    0.000000000000       4
    0.200000000000    0.387096774194    0.000000000000       4
    0.218181818182    0.387096774194    0.000000000000       4
    0.236363636364    0.387096774194    0.000000000000       4
    0.254545454545    0.387096774194    0.000000000000       4
    0.272727272727    0.387096774194    0.000000000000       4
    0.290909090909    0.387096774194    0.000000000000       4
    0.309090909091    0.387096774194    0.000000000000       4
    0.327272727273    0.387096774194    0.000000000000       4
    0.345454545455    0.387096774194    0.000000000000       4
    0.363636363636    0.387096774194    0.000000000000       4
    0.381818181818    0.387096774194    0.000000000000       4
    0.400000000000    0.387096774194    0.000000000000       4
    0.418181818182    0.387096774194    0.000000000000       4
    0.436363636364    0.387096774194    0.000000000000       4
    0.454545454545    0.387096774194    0.000000000000       4
    0.472727272727    0.387096774194    0.000000000000       4
    0.490909090909    0.387096774194    0.000000000000       4
    0.000000000000    0.419354838710    0.000000000000       2
    0.018181818182    0.419354838710    0.000000000000       4
    0.036363636364    0.419354838710    0.000000000000       4
    0.054545454545    0.419354838710    0.000000000000       4
    0.072727272727    0.419354838710    0.000000000000       4
    0.090909090909    0.419354838710    0.000000000000       4
    0.109090909091    0.419354838710    0.000000000000       4
    0.127272727273    0.419354838710    0.000000000000       4
    0.145454545455    0.419354838710    0.000000000000       4
    0.163636363636    0.419354838710    0.000000000000       4
    0.181818181818    0.419354838710    0.000000000000       4
    0.200000000000    0.419354838710    0.000000000000       4
    0.218181818182    0.419354838710    0.000000000000       4
    0.236363636364    0.419354838710    0.000000000000       4
    0.254545454545    0.419354838710    0.000000000000       4
    0.272727272727    0.419354838710    0.000000000000       4
    0.290909090909    0.419354838710    0.000000000000       4
    0.309090909091    0.419354838710    0.000000000000       4
    0.327272727273    0.419354838710    0.000000000000       4
    0.345454545455    0.419354838710    0.000000000000       4
    0.363636363636    0.419354838710    0.000000000000       4
    0.381818181818    0.419354838710    0.000000000000       4
    0.400000000000    0.419354838710    0.000000000000       4
    0.418181818182    0.419354838710    0.000000000000       4
    0.436363636364    0.419354838710    0.000000000000       4
    0.454545454545    0.419354838710    0.000000000000       4
    0.472727272727    0.419354838710    0.000000000000       4
    0.490909090909    0.419354838710    0.000000000000       4
    0.000000000000    0.451612903226    0.000000000000       2
    0.018181818182    0.451612903226    0.000000000000       4
    0.036363636364    0.451612903226    0.000000000000       4
    0.054545454545    0.451612903226    0.000000000000       4
    0.072727272727    0.451612903226    0.000000000000       4
    0.090909090909    0.451612903226    0.000000000000       4
    0.109090909091    0.451612903226    0.000000000000       4
    0.127272727273    0.451612903226    0.000000000000       4
    0.145454545455    0.451612903226    0.000000000000       4
    0.163636363636    0.451612903226    0.000000000000       4
    0.181818181818    0.451612903226    0.000000000000       4
    0.200000000000    0.451612903226    0.000000000000       4
    0.218181818182    0.451612903226    0.000000000000       4
    0.236363636364    0.451612903226    0.000000000000       4
    0.254545454545    0.451612903226    0.000000000000       4
    0.272727272727    0.451612903226    0.000000000000       4
    0.290909090909    0.451612903226    0.000000000000       4
    0.309090909091    0.451612903226    0.000000000000       4
    0.327272727273    0.451612903226    0.000000000000       4
    0.345454545455    0.451612903226    0.000000000000       4
    0.363636363636    0.451612903226    0.000000000000       4
    0.381818181818    0.451612903226    0.000000000000       4
    0.400000000000    0.451612903226    0.000000000000       4
    0.418181818182    0.451612903226    0.000000000000       4
    0.436363636364    0.451612903226    0.000000000000       4
    0.454545454545    0.451612903226    0.000000000000       4
    0.472727272727    0.451612903226    0.000000000000       4
    0.490909090909    0.451612903226    0.000000000000       4
    0.000000000000    0.483870967742    0.000000000000       2
    0.018181818182    0.483870967742    0.000000000000       4
    0.036363636364    0.483870967742    0.000000000000       4
    0.054545454545    0.483870967742    0.000000000000       4
    0.072727272727    0.483870967742    0.000000000000       4
    0.090909090909    0.483870967742    0.000000000000       4
    0.109090909091    0.483870967742    0.000000000000       4
    0.127272727273    0.483870967742    0.000000000000       4
    0.145454545455    0.483870967742    0.000000000000       4
    0.163636363636    0.483870967742    0.000000000000       4
    0.181818181818    0.483870967742    0.000000000000       4
    0.200000000000    0.483870967742    0.000000000000       4
    0.218181818182    0.483870967742    0.000000000000       4
    0.236363636364    0.483870967742    0.000000000000       4
    0.254545454545    0.483870967742    0.000000000000       4
    0.272727272727    0.483870967742    0.000000000000       4
    0.290909090909    0.483870967742    0.000000000000       4
    0.309090909091    0.483870967742    0.000000000000       4
    0.327272727273    0.483870967742    0.000000000000       4
    0.345454545455    0.483870967742    0.000000000000       4
    0.363636363636    0.483870967742    0.000000000000       4
    0.381818181818    0.483870967742    0.000000000000       4
    0.400000000000    0.483870967742    0.000000000000       4
    0.418181818182    0.483870967742    0.000000000000       4
    0.436363636364    0.483870967742    0.000000000000       4
    0.454545454545    0.483870967742    0.000000000000       4
    0.472727272727    0.483870967742    0.000000000000       4
    0.490909090909    0.483870967742    0.000000000000       4
