CONTCAR\(6)                             
   1.00000000000000     
    14.5763998031999993    0.0000000000000000    0.0000000000000000
     0.0000000000000000   14.5763998031999993    0.0000000000000000
     0.0000000000000000    0.0000000000000000   17.7768993377999998
   Fe   Se
    32    32
Direct
 -0.0000000000000000  0.0000000000000000  0.5000000000000000
  0.1250000000000000  0.1250000000000000  0.5000000000000000
  0.2500000000000000  0.0000000000000000  0.5000000000000000
  0.3749999919999993  0.1250000000000000  0.5000000000000000
  0.5000000000000000  0.0000000000000000  0.5000000000000000
  0.6249999750000015  0.1250000000000000  0.5000000000000000
  0.7499999839999987  0.0000000000000000  0.5000000000000000
  0.8749999919999993  0.1250000000000000  0.5000000000000000
 -0.0000000000000000  0.2500000000000000  0.5000000000000000
  0.1250000000000000  0.3749999919999993  0.5000000000000000
  0.2500000000000000  0.2500000000000000  0.5000000000000000
  0.3749999919999993  0.3749999919999993  0.5000000000000000
  0.5000000000000000  0.2500000000000000  0.5000000000000000
  0.6249999750000015  0.3749999919999993  0.5000000000000000
  0.7499999839999987  0.2500000000000000  0.5000000000000000
  0.8749999919999993  0.3749999919999993  0.5000000000000000
 -0.0000000000000000  0.5000000000000000  0.5000000000000000
  0.1250000000000000  0.6249999750000015  0.5000000000000000
  0.2500000000000000  0.5000000000000000  0.5000000000000000
  0.3749999919999993  0.6249999750000015  0.5000000000000000
  0.5000000000000000  0.5000000000000000  0.5000000000000000
  0.6249999750000015  0.6249999750000015  0.5000000000000000
  0.7499999839999987  0.5000000000000000  0.5000000000000000
  0.8749999919999993  0.6249999750000015  0.5000000000000000
 -0.0000000000000000  0.7499999839999987  0.5000000000000000
  0.1250000000000000  0.8749999919999993  0.5000000000000000
  0.2500000000000000  0.7499999839999987  0.5000000000000000
  0.3749999919999993  0.8749999919999993  0.5000000000000000
  0.5000000000000000  0.7499999839999987  0.5000000000000000
  0.6249999750000015  0.8749999919999993  0.5000000000000000
  0.7499999839999987  0.7499999839999987  0.5000000000000000
  0.8749999919999993  0.8749999919999993  0.5000000000000000
  0.1250000000000000  0.0000000000000000  0.4207746391834400
 -0.0000000000000000  0.1250000000000000  0.5792253878165586
  0.3749999919999993  0.0000000000000000  0.4207746391834400
  0.2500000000000000  0.1250000000000000  0.5792253878165586
  0.6249999750000015 -0.0000000000000000  0.4207746391834400
  0.5000000000000000  0.1250000000000000  0.5792253878165586
  0.8749999919999993  0.0000000000000000  0.4207746391834400
  0.7499999839999987  0.1250000000000000  0.5792253878165586
  0.1250000000000000  0.2500000000000000  0.4207746391834400
  0.0000000000000000  0.3749999919999993  0.5792253878165586
  0.3749999919999993  0.2500000000000000  0.4207746391834400
  0.2500000000000000  0.3749999919999993  0.5792253878165586
  0.6249999750000015  0.2500000000000000  0.4207746391834400
  0.5000000000000000  0.3749999919999993  0.5792253878165586
  0.8749999919999993  0.2500000000000000  0.4207746391834400
  0.7499999839999987  0.3749999919999993  0.5792253878165586
  0.1250000000000000  0.5000000000000000  0.4207746391834400
 -0.0000000000000000  0.6249999750000015  0.5792253878165586
  0.3749999919999993  0.5000000000000000  0.4207746391834400
  0.2500000000000000  0.6249999750000015  0.5792253878165586
  0.6249999750000015  0.5000000000000000  0.4207746391834400
  0.5000000000000000  0.6249999750000015  0.5792253878165586
  0.8749999919999993  0.5000000000000000  0.4207746391834400
  0.7499999839999987  0.6249999750000015  0.5792253878165586
  0.1250000000000000  0.7499999839999987  0.4207746391834400
 -0.0000000000000000  0.8749999919999993  0.5792253878165586
  0.3749999919999993  0.7499999839999987  0.4207746391834400
  0.2500000000000000  0.8749999919999993  0.5792253878165586
  0.6249999750000015  0.7499999839999987  0.4207746391834400
  0.5000000000000000  0.8749999919999993  0.5792253878165586
  0.8749999919999993  0.7499999839999987  0.4207746391834400
  0.7499999839999987  0.8749999919999993  0.5792253878165586
 
  0.00000000E+00  0.00000000E+00  0.00000000E+00
  0.00000000E+00  0.00000000E+00  0.00000000E+00
  0.00000000E+00  0.00000000E+00  0.00000000E+00
  0.00000000E+00  0.00000000E+00  0.00000000E+00
  0.00000000E+00  0.00000000E+00  0.00000000E+00
  0.00000000E+00  0.00000000E+00  0.00000000E+00
  0.00000000E+00  0.00000000E+00  0.00000000E+00
  0.00000000E+00  0.00000000E+00  0.00000000E+00
  0.00000000E+00  0.00000000E+00  0.00000000E+00
  0.00000000E+00  0.00000000E+00  0.00000000E+00
  0.00000000E+00  0.00000000E+00  0.00000000E+00
  0.00000000E+00  0.00000000E+00  0.00000000E+00
  0.00000000E+00  0.00000000E+00  0.00000000E+00
  0.00000000E+00  0.00000000E+00  0.00000000E+00
  0.00000000E+00  0.00000000E+00  0.00000000E+00
  0.00000000E+00  0.00000000E+00  0.00000000E+00
  0.00000000E+00  0.00000000E+00  0.00000000E+00
  0.00000000E+00  0.00000000E+00  0.00000000E+00
  0.00000000E+00  0.00000000E+00  0.00000000E+00
  0.00000000E+00  0.00000000E+00  0.00000000E+00
  0.00000000E+00  0.00000000E+00  0.00000000E+00
  0.00000000E+00  0.00000000E+00  0.00000000E+00
  0.00000000E+00  0.00000000E+00  0.00000000E+00
  0.00000000E+00  0.00000000E+00  0.00000000E+00
  0.00000000E+00  0.00000000E+00  0.00000000E+00
  0.00000000E+00  0.00000000E+00  0.00000000E+00
  0.00000000E+00  0.00000000E+00  0.00000000E+00
  0.00000000E+00  0.00000000E+00  0.00000000E+00
  0.00000000E+00  0.00000000E+00  0.00000000E+00
  0.00000000E+00  0.00000000E+00  0.00000000E+00
  0.00000000E+00  0.00000000E+00  0.00000000E+00
  0.00000000E+00  0.00000000E+00  0.00000000E+00
  0.00000000E+00  0.00000000E+00  0.00000000E+00
  0.00000000E+00  0.00000000E+00  0.00000000E+00
  0.00000000E+00  0.00000000E+00  0.00000000E+00
  0.00000000E+00  0.00000000E+00  0.00000000E+00
  0.00000000E+00  0.00000000E+00  0.00000000E+00
  0.00000000E+00  0.00000000E+00  0.00000000E+00
  0.00000000E+00  0.00000000E+00  0.00000000E+00
  0.00000000E+00  0.00000000E+00  0.00000000E+00
  0.00000000E+00  0.00000000E+00  0.00000000E+00
  0.00000000E+00  0.00000000E+00  0.00000000E+00
  0.00000000E+00  0.00000000E+00  0.00000000E+00
  0.00000000E+00  0.00000000E+00  0.00000000E+00
  0.00000000E+00  0.00000000E+00  0.00000000E+00
  0.00000000E+00  0.00000000E+00  0.00000000E+00
  0.00000000E+00  0.00000000E+00  0.00000000E+00
  0.00000000E+00  0.00000000E+00  0.00000000E+00
  0.00000000E+00  0.00000000E+00  0.00000000E+00
  0.00000000E+00  0.00000000E+00  0.00000000E+00
  0.00000000E+00  0.00000000E+00  0.00000000E+00
  0.00000000E+00  0.00000000E+00  0.00000000E+00
  0.00000000E+00  0.00000000E+00  0.00000000E+00
  0.00000000E+00  0.00000000E+00  0.00000000E+00
  0.00000000E+00  0.00000000E+00  0.00000000E+00
  0.00000000E+00  0.00000000E+00  0.00000000E+00
  0.00000000E+00  0.00000000E+00  0.00000000E+00
  0.00000000E+00  0.00000000E+00  0.00000000E+00
  0.00000000E+00  0.00000000E+00  0.00000000E+00
  0.00000000E+00  0.00000000E+00  0.00000000E+00
  0.00000000E+00  0.00000000E+00  0.00000000E+00
  0.00000000E+00  0.00000000E+00  0.00000000E+00
  0.00000000E+00  0.00000000E+00  0.00000000E+00
  0.00000000E+00  0.00000000E+00  0.00000000E+00
