CONTCAR\(5)                             
   1.00000000000000     
    15.1182003021000000    0.0000000000000000    0.0000000000000000
     7.5590774867999997   13.0927586063000003    0.0000000000000000
     0.0000000000000000    0.0000000000000000   18.6788005828999992
   Ni   Te   O 
    32    32     1
Direct
  0.0859240485346646  0.0781419019306782  0.5382379779517450
  0.9982658851693529  0.0011204937558418  0.4653722759872281
  0.3372902012620358  0.0837464898349722  0.5352316600297300
  0.2506136210748053  0.0011204937558418  0.4653722759872281
  0.5832620492861338  0.0834658364277274  0.5347692478899404
  0.5026430446767165  0.9977532673345593  0.4626361337390676
  0.8289533079029852  0.0837464898349722  0.5352316600297300
  0.7496036559887145  0.9977532673345593  0.4626361337390676
  0.0814742915092950  0.3325701829130594  0.5362362738007249
  0.0022939202933401  0.2454121514133192  0.4642269488816950
  0.3366814147271455  0.3243008628084993  0.5347202081138889
  0.2485439607152742  0.2479991730882389  0.4624002234752709
  0.5890076194643683  0.3243008628084993  0.5347202081138889
  0.5004382139611749  0.2491235960776521  0.4622611974932056
  0.8359454545776472  0.3325701829130594  0.5362362738007249
  0.7534568281964980  0.2479991730882389  0.4624002234752709
  0.0855266839993902  0.5806486467891290  0.5379831247231337
  0.0001709406267310  0.4995444615862397  0.4641727100921216
  0.3333165568850873  0.5833568082298299  0.5465827550456410
  0.2524243834538140  0.4953005770977583  0.4657691581854664
  0.5838145592114827  0.5806486467891290  0.5379831247231337
  0.5022749934484239  0.4953005770977583  0.4657691581854664
  0.8340645567541216  0.5818606824917438  0.5366956976440491
  0.7502845837870211  0.4995444615862397  0.4641727100921216
  0.0723996187951741  0.8385229421528280  0.5390558637734273
  0.0018536515893572  0.7461742076171873  0.4654618561976847
  0.3390673850519832  0.8385229421528280  0.5390558637734273
  0.2464502488097722  0.7570995123804494  0.4741200445139029
  0.5830270089435388  0.8311587865460339  0.5366213662677382
  0.5019720867934510  0.7461742076171873  0.4654618561976847
  0.8358041185104312  0.8311587865460339  0.5366213662677382
  0.7500621941834211  0.7498754956331553  0.4638561979816913
  0.0852128186819243  0.0795643616361374  0.3990253429701127
  0.9912736377428573  0.0066196573719139  0.6038188102062350
  0.3351788670404758  0.0807786735453035  0.3980385937735278
  0.2521067048852288  0.0066196573719139  0.6038188102062350
  0.5837771335153477  0.0824356679693139  0.3969771002321210
  0.5031381674317359  0.9981052357296178  0.6006507129224516
  0.8340324584142067  0.0807786735453035  0.3980385937735278
  0.7487565648386436  0.9981052357296178  0.6006507129224516
  0.0815807990664013  0.3326696470312385  0.3989787286484372
  0.0017317686762084  0.2465364546475897  0.6017986935111068
  0.3330526154746849  0.3311020375926930  0.3976070171063881
  0.2479591293791543  0.2490338818055591  0.6010638355949212
  0.5858352439326282  0.3311020375926930  0.3976070171063881
  0.5012965198680419  0.2474069842639253  0.6013948152655999
  0.8357394829023619  0.3326696470312385  0.3989787286484372
  0.7530069508152835  0.2490338818055591  0.6010638355949212
  0.0866867115846830  0.5797515288818289  0.3998761938511706
  0.0003883835160892  0.4984498477678443  0.6021667232220054
  0.3300799646538053  0.5898299926923798  0.4114772596227283
  0.2524425334767102  0.4879183425483973  0.6008650159469084
  0.5835516495334900  0.5797515288818289  0.3998761938511706
  0.5096390779748816  0.4879183425483973  0.6008650159469084
  0.8334182327850215  0.5831533304299512  0.3994160812901058
  0.7511617547160583  0.4984498477678443  0.6021667232220054
  0.0839933851022252  0.8324294490027881  0.4026768229804745
  0.0002801379364499  0.7458809618299824  0.6043070261780343
  0.3335671118949861  0.8324294490027881  0.4026768229804745
  0.2291043099597800  0.7917913900804336  0.6091398698011474
  0.5837199565544466  0.8300660902467740  0.3989603863804234
  0.5038388462335703  0.7458809618299824  0.6043070261780343
  0.8362038671987833  0.8300660902467740  0.3989603863804234
  0.7503835489100581  0.7492327861798884  0.6006592118568150
  0.3005694281203901  0.6488611587592175  0.6380396016556276
 
  0.00000000E+00  0.00000000E+00  0.00000000E+00
  0.00000000E+00  0.00000000E+00  0.00000000E+00
  0.00000000E+00  0.00000000E+00  0.00000000E+00
  0.00000000E+00  0.00000000E+00  0.00000000E+00
  0.00000000E+00  0.00000000E+00  0.00000000E+00
  0.00000000E+00  0.00000000E+00  0.00000000E+00
  0.00000000E+00  0.00000000E+00  0.00000000E+00
  0.00000000E+00  0.00000000E+00  0.00000000E+00
  0.00000000E+00  0.00000000E+00  0.00000000E+00
  0.00000000E+00  0.00000000E+00  0.00000000E+00
  0.00000000E+00  0.00000000E+00  0.00000000E+00
  0.00000000E+00  0.00000000E+00  0.00000000E+00
  0.00000000E+00  0.00000000E+00  0.00000000E+00
  0.00000000E+00  0.00000000E+00  0.00000000E+00
  0.00000000E+00  0.00000000E+00  0.00000000E+00
  0.00000000E+00  0.00000000E+00  0.00000000E+00
  0.00000000E+00  0.00000000E+00  0.00000000E+00
  0.00000000E+00  0.00000000E+00  0.00000000E+00
  0.00000000E+00  0.00000000E+00  0.00000000E+00
  0.00000000E+00  0.00000000E+00  0.00000000E+00
  0.00000000E+00  0.00000000E+00  0.00000000E+00
  0.00000000E+00  0.00000000E+00  0.00000000E+00
  0.00000000E+00  0.00000000E+00  0.00000000E+00
  0.00000000E+00  0.00000000E+00  0.00000000E+00
  0.00000000E+00  0.00000000E+00  0.00000000E+00
  0.00000000E+00  0.00000000E+00  0.00000000E+00
  0.00000000E+00  0.00000000E+00  0.00000000E+00
  0.00000000E+00  0.00000000E+00  0.00000000E+00
  0.00000000E+00  0.00000000E+00  0.00000000E+00
  0.00000000E+00  0.00000000E+00  0.00000000E+00
  0.00000000E+00  0.00000000E+00  0.00000000E+00
  0.00000000E+00  0.00000000E+00  0.00000000E+00
  0.00000000E+00  0.00000000E+00  0.00000000E+00
  0.00000000E+00  0.00000000E+00  0.00000000E+00
  0.00000000E+00  0.00000000E+00  0.00000000E+00
  0.00000000E+00  0.00000000E+00  0.00000000E+00
  0.00000000E+00  0.00000000E+00  0.00000000E+00
  0.00000000E+00  0.00000000E+00  0.00000000E+00
  0.00000000E+00  0.00000000E+00  0.00000000E+00
  0.00000000E+00  0.00000000E+00  0.00000000E+00
  0.00000000E+00  0.00000000E+00  0.00000000E+00
  0.00000000E+00  0.00000000E+00  0.00000000E+00
  0.00000000E+00  0.00000000E+00  0.00000000E+00
  0.00000000E+00  0.00000000E+00  0.00000000E+00
  0.00000000E+00  0.00000000E+00  0.00000000E+00
  0.00000000E+00  0.00000000E+00  0.00000000E+00
  0.00000000E+00  0.00000000E+00  0.00000000E+00
  0.00000000E+00  0.00000000E+00  0.00000000E+00
  0.00000000E+00  0.00000000E+00  0.00000000E+00
  0.00000000E+00  0.00000000E+00  0.00000000E+00
  0.00000000E+00  0.00000000E+00  0.00000000E+00
  0.00000000E+00  0.00000000E+00  0.00000000E+00
  0.00000000E+00  0.00000000E+00  0.00000000E+00
  0.00000000E+00  0.00000000E+00  0.00000000E+00
  0.00000000E+00  0.00000000E+00  0.00000000E+00
  0.00000000E+00  0.00000000E+00  0.00000000E+00
  0.00000000E+00  0.00000000E+00  0.00000000E+00
  0.00000000E+00  0.00000000E+00  0.00000000E+00
  0.00000000E+00  0.00000000E+00  0.00000000E+00
  0.00000000E+00  0.00000000E+00  0.00000000E+00
  0.00000000E+00  0.00000000E+00  0.00000000E+00
  0.00000000E+00  0.00000000E+00  0.00000000E+00
  0.00000000E+00  0.00000000E+00  0.00000000E+00
  0.00000000E+00  0.00000000E+00  0.00000000E+00
  0.00000000E+00  0.00000000E+00  0.00000000E+00
