CONTCAR\(2)                             
   1.00000000000000     
    13.3449001311999993    0.0000000000000000    0.0000000000000000
     0.0000000000000000   15.5698995589999996    0.0000000000000000
     0.0000000000000000    0.0000000000000000   18.1107006073000001
   Mn   F    O 
    18    72     1
Direct
  0.1674104536581564 -0.0000042030559779  0.5015109943894798
  0.0008147494116225  0.1662705637433544  0.5018425736104982
  0.5010016794802389 -0.0000070487855409  0.5007372461425671
  0.3343781972167754  0.1663854186439987  0.5003054903370118
  0.8346261338635826 -0.0000155064688863  0.5013559142865742
  0.6683549350283017  0.1659161548369993  0.5004341575291683
  0.1664124790663328  0.3319475373965291  0.4999311434762383
  0.0002098140552737  0.4999928270128677  0.5005486597770498
  0.5026666770040100  0.3317255627526159  0.4986026526108011
  0.3399585419880793  0.4999901415958773  0.4892312690951783
  0.8342678477984459  0.3330772675160910  0.5004845689910845
  0.6679926424575510  0.4999937319450256  0.4995684721984506
  0.1664334216006669  0.6680302488293921  0.4999033786347820
  0.0008226064349214  0.8337154164099836  0.5018192623663155
  0.5026668153539672  0.6682650133615690  0.4985635815601363
  0.3343678408956516  0.8336117454456761  0.5002939547917762
  0.8342663675435177  0.6669076369713095  0.5004577056616999
  0.6683631184712155  0.8340671529950598  0.5004244537738218
  0.2506745032829756  0.0830567179147195  0.4581179297590442
  0.2511887082991455  0.2497431900848213  0.4570355158945655
  0.0954632617800826  0.3322666110434894  0.4186916722984110
  0.0717884502417697  0.1664038251537021  0.4202867367202360
  0.2640163704491159  0.1679681212630315  0.5821874754250508
  0.2383210073407374  0.0000071024562570  0.5830902799098038
  0.0841931596399561  0.0830686349089364  0.5448166528864417
  0.0842098631997574  0.2496510441169234  0.5447773932306519
  0.5847677172483592  0.0828723880546860  0.4575421684630677
  0.5856702157375084  0.2490077971785692  0.4561486318381062
  0.4317340915778116  0.3327655137972698  0.4167435609435974
  0.4049216410489940  0.1661576446061554  0.4186112181408682
  0.5966544688666621  0.1670282319155398  0.5816167033766643
  0.5715659800474353 -0.0000025830773180  0.5824861405796758
  0.4175674460617126  0.0832637230772027  0.5436147682174444
  0.4180391022621164  0.2502905059711293  0.5423932564979288
  0.9178898334424392  0.0830674451797846  0.4584544982670085
  0.9178690862467395  0.2496178893406497  0.4583217363808529
  0.7642080166541733  0.3327020785767977  0.4185308918237365
  0.7395314676847095  0.1658819047577617  0.4190638057548324
  0.9300522232583922  0.1667861516530760  0.5834338123986210
  0.9049307090952737 -0.0000112353646476  0.5832073011435568
  0.7509742785097848  0.0830852689128998  0.5442605943858236
  0.7507941002186673  0.2499052235553127  0.5434587563340200
  0.2484691917149350  0.4180280688659183  0.4568543374658685
  0.2485100480942414  0.5819851810516508  0.4568313578312783
  0.0954885568659839  0.6676887344600415  0.4186555812285995
  0.0704595912735543  0.4999695179816624  0.4185917786362952
  0.2645443340193303  0.5000085947034314  0.6025473871310908
  0.2397428136978943  0.3367818140787342  0.5810188943876774
  0.0851389848529167  0.4175450312699517  0.5433628838024583
  0.0851915217261157  0.5824095125909577  0.5433442271413929
  0.5846641028724509  0.4166627507935742  0.4560406274541056
  0.5847040294916319  0.5833447035266383  0.4560137576495684
  0.4317417286326650  0.6672045202850316  0.4166905136178442
  0.4037179753137030  0.4999618832557360  0.4068826603009667
  0.5959259289207250  0.5000111193074713  0.5807383585041768
  0.5710617811215133  0.3334386900890292  0.5811751570423093
  0.4179144943163305  0.4179201199387071  0.5378387828578587
  0.4179255369428433  0.5820319177069772  0.5377995090038087
  0.9173763505415292  0.4165541424378299  0.4576117565059682
  0.9173984072651702  0.5834535855457391  0.4576045785004804
  0.7642109466532285  0.6672705020512780  0.4185220799200457
  0.7388286121701541  0.4999825984586450  0.4180279972428372
  0.9304780601613810  0.5000068584662355  0.5826644708216673
  0.9046672999140040  0.3334114286295332  0.5823112609212439
  0.7506812469549407  0.4167046786176326  0.5430066891634875
  0.7506959175773332  0.5832619671047736  0.5429995373288502
  0.2511623217187757  0.7502799679364707  0.4570124971021658
  0.2507094282554194  0.9169752524030973  0.4581097625942455
  0.0964471374113781 -0.0000012923008555  0.4199938568162588
  0.0717810902512039  0.8335809487366401  0.4202619815259933
  0.2640140696250675  0.8320400428899845  0.5821669261419259
  0.2397806377828991  0.6632203784107517  0.5809816425793838
  0.0842029481923477  0.7503034938927570  0.5447477189997280
  0.0842162861404983  0.9168917047531482  0.5448014597464479
  0.5856513247783225  0.7510149517628194  0.4561222244859364
  0.5847832514362459  0.9171369544055499  0.4575412102060262
  0.4305674690544095 -0.0000132127609231  0.4189959925890192
  0.4049259162763059  0.8338222716503627  0.4185901355529866
  0.5966535603204320  0.8329575842771569  0.5816086059050866
  0.5710261918512225  0.6665701888783286  0.5811382297391315
  0.4179840981685873  0.7496718363106700  0.5423547512874732
  0.4175900709379030  0.9166995239886484  0.5436120936162115
  0.9178667458005662  0.7503939748879238  0.4582989672830382
  0.9179011594334832  0.9169433952998751  0.4584389264840579
  0.7643883999759594 -0.0000102689259838  0.4195243867355383
  0.7395408017972097  0.8340827209312086  0.4190604869300587
  0.9300584301934693  0.8332052990243850  0.5834157373257477
  0.9046802421709158  0.6665937972488708  0.5822976453200079
  0.7507920506399256  0.7500583432467943  0.5434445350927566
  0.7509885453789628  0.9168685410021521  0.5442539567888253
  0.3291197097913266  0.5000030016103496  0.6627253937894257
 
  0.00000000E+00  0.00000000E+00  0.00000000E+00
  0.00000000E+00  0.00000000E+00  0.00000000E+00
  0.00000000E+00  0.00000000E+00  0.00000000E+00
  0.00000000E+00  0.00000000E+00  0.00000000E+00
  0.00000000E+00  0.00000000E+00  0.00000000E+00
  0.00000000E+00  0.00000000E+00  0.00000000E+00
  0.00000000E+00  0.00000000E+00  0.00000000E+00
  0.00000000E+00  0.00000000E+00  0.00000000E+00
  0.00000000E+00  0.00000000E+00  0.00000000E+00
  0.00000000E+00  0.00000000E+00  0.00000000E+00
  0.00000000E+00  0.00000000E+00  0.00000000E+00
  0.00000000E+00  0.00000000E+00  0.00000000E+00
  0.00000000E+00  0.00000000E+00  0.00000000E+00
  0.00000000E+00  0.00000000E+00  0.00000000E+00
  0.00000000E+00  0.00000000E+00  0.00000000E+00
  0.00000000E+00  0.00000000E+00  0.00000000E+00
  0.00000000E+00  0.00000000E+00  0.00000000E+00
  0.00000000E+00  0.00000000E+00  0.00000000E+00
  0.00000000E+00  0.00000000E+00  0.00000000E+00
  0.00000000E+00  0.00000000E+00  0.00000000E+00
  0.00000000E+00  0.00000000E+00  0.00000000E+00
  0.00000000E+00  0.00000000E+00  0.00000000E+00
  0.00000000E+00  0.00000000E+00  0.00000000E+00
  0.00000000E+00  0.00000000E+00  0.00000000E+00
  0.00000000E+00  0.00000000E+00  0.00000000E+00
  0.00000000E+00  0.00000000E+00  0.00000000E+00
  0.00000000E+00  0.00000000E+00  0.00000000E+00
  0.00000000E+00  0.00000000E+00  0.00000000E+00
  0.00000000E+00  0.00000000E+00  0.00000000E+00
  0.00000000E+00  0.00000000E+00  0.00000000E+00
  0.00000000E+00  0.00000000E+00  0.00000000E+00
  0.00000000E+00  0.00000000E+00  0.00000000E+00
  0.00000000E+00  0.00000000E+00  0.00000000E+00
  0.00000000E+00  0.00000000E+00  0.00000000E+00
  0.00000000E+00  0.00000000E+00  0.00000000E+00
  0.00000000E+00  0.00000000E+00  0.00000000E+00
  0.00000000E+00  0.00000000E+00  0.00000000E+00
  0.00000000E+00  0.00000000E+00  0.00000000E+00
  0.00000000E+00  0.00000000E+00  0.00000000E+00
  0.00000000E+00  0.00000000E+00  0.00000000E+00
  0.00000000E+00  0.00000000E+00  0.00000000E+00
  0.00000000E+00  0.00000000E+00  0.00000000E+00
  0.00000000E+00  0.00000000E+00  0.00000000E+00
  0.00000000E+00  0.00000000E+00  0.00000000E+00
  0.00000000E+00  0.00000000E+00  0.00000000E+00
  0.00000000E+00  0.00000000E+00  0.00000000E+00
  0.00000000E+00  0.00000000E+00  0.00000000E+00
  0.00000000E+00  0.00000000E+00  0.00000000E+00
  0.00000000E+00  0.00000000E+00  0.00000000E+00
  0.00000000E+00  0.00000000E+00  0.00000000E+00
  0.00000000E+00  0.00000000E+00  0.00000000E+00
  0.00000000E+00  0.00000000E+00  0.00000000E+00
  0.00000000E+00  0.00000000E+00  0.00000000E+00
  0.00000000E+00  0.00000000E+00  0.00000000E+00
  0.00000000E+00  0.00000000E+00  0.00000000E+00
  0.00000000E+00  0.00000000E+00  0.00000000E+00
  0.00000000E+00  0.00000000E+00  0.00000000E+00
  0.00000000E+00  0.00000000E+00  0.00000000E+00
  0.00000000E+00  0.00000000E+00  0.00000000E+00
  0.00000000E+00  0.00000000E+00  0.00000000E+00
  0.00000000E+00  0.00000000E+00  0.00000000E+00
  0.00000000E+00  0.00000000E+00  0.00000000E+00
  0.00000000E+00  0.00000000E+00  0.00000000E+00
  0.00000000E+00  0.00000000E+00  0.00000000E+00
  0.00000000E+00  0.00000000E+00  0.00000000E+00
  0.00000000E+00  0.00000000E+00  0.00000000E+00
  0.00000000E+00  0.00000000E+00  0.00000000E+00
  0.00000000E+00  0.00000000E+00  0.00000000E+00
  0.00000000E+00  0.00000000E+00  0.00000000E+00
  0.00000000E+00  0.00000000E+00  0.00000000E+00
  0.00000000E+00  0.00000000E+00  0.00000000E+00
  0.00000000E+00  0.00000000E+00  0.00000000E+00
  0.00000000E+00  0.00000000E+00  0.00000000E+00
  0.00000000E+00  0.00000000E+00  0.00000000E+00
  0.00000000E+00  0.00000000E+00  0.00000000E+00
  0.00000000E+00  0.00000000E+00  0.00000000E+00
  0.00000000E+00  0.00000000E+00  0.00000000E+00
  0.00000000E+00  0.00000000E+00  0.00000000E+00
  0.00000000E+00  0.00000000E+00  0.00000000E+00
  0.00000000E+00  0.00000000E+00  0.00000000E+00
  0.00000000E+00  0.00000000E+00  0.00000000E+00
  0.00000000E+00  0.00000000E+00  0.00000000E+00
  0.00000000E+00  0.00000000E+00  0.00000000E+00
  0.00000000E+00  0.00000000E+00  0.00000000E+00
  0.00000000E+00  0.00000000E+00  0.00000000E+00
  0.00000000E+00  0.00000000E+00  0.00000000E+00
  0.00000000E+00  0.00000000E+00  0.00000000E+00
  0.00000000E+00  0.00000000E+00  0.00000000E+00
  0.00000000E+00  0.00000000E+00  0.00000000E+00
  0.00000000E+00  0.00000000E+00  0.00000000E+00
  0.00000000E+00  0.00000000E+00  0.00000000E+00
