CONTCAR\(6)                             
   1.00000000000000     
    12.8978004455999997    0.0000000000000000    0.0000000000000000
    -6.4489002227999999   11.1698228388000000    0.0000000000000000
     0.0000000000000000    0.0000000000000000   22.5037994384999998
   La   P    I    O 
    18     9    18     1
Selective dynamics
Direct
  0.1086864309323943  0.2204243221629412  0.5724738288067002   F   F   F
  0.2222681989146267  0.1111340698324526  0.4278871813008394   F   F   F
  0.4451709004782884  0.2205710329588442  0.5725531889982349   F   F   F
  0.5558910092008631  0.1111453307655026  0.4283925614261719   F   F   F
  0.7777029170013421  0.2222762641814739  0.5724185470662491   F   F   F
  0.8886772263757834  0.1113313855845632  0.4282283394449848   F   F   F
  0.1087125846083694  0.5548434881198006  0.5724289034509411   F   F   F
  0.2236061125432087  0.4452436251892209  0.4315291111053199   F   F   F
  0.4444871380758926  0.5556039992007413  0.5992962360765262   F   F   F
  0.5549353636487808  0.4450571072375169  0.4313858359427698   F   F   F
  0.7794307645828766  0.5548040277271014  0.5725450387442734   F   F   F
  0.8888617153328227  0.4441016175072150  0.4283958816632065   F   F   F
  0.1110084926542498  0.8889579382950359  0.5714979163534721   F   F   F
  0.2220811738113539  0.7779276061647096  0.4280697936919253   F   F   F
  0.4451553232471639  0.8913389780109213  0.5724274701604060   F   F   F
  0.5547627758550746  0.7764048828345267  0.4315349873265930   F   F   F
  0.7796068840541324  0.8913364624449045  0.5724635474934416   F   F   F
  0.8888686572620230  0.7777315599814614  0.4278917519178336   F   F   F
  0.0004152684111176  0.9995870259451820  0.4991118961160694   F   F   F
  0.3323858660765779  0.9997553829085959  0.4992977375607026   F   F   F
  0.6671411347078831  0.0008060398082250  0.4998291352710922   F   F   F
  0.9991999133828600  0.3328517434422551  0.4998369186843448   F   F   F
  0.3316281517482906  0.3298271797049139  0.5015219628674146   F   F   F
  0.6669968952373111  0.3329836697849800  0.4998458937522798   F   F   F
  0.0002504442061948  0.6675996393644468  0.4993005390245102   F   F   F
  0.3315439078622688  0.6684777765106560  0.5014680235185622   F   F   F
  0.6701873172293986  0.6683662740773570  0.5015219762204950   F   F   F
  0.2222805296016830  0.1110906521695654  0.6664223228171622   F   F   F
  0.1125867073336764  0.2255821248843475  0.3344893691808011   F   F   F
  0.5551406351651877  0.1107885112568496  0.6666187447275860   F   F   F
  0.4464731530183386  0.2245322077115546  0.3344879207751887   F   F   F
  0.8888568023961412  0.1112154824665907  0.6665932287923155   F   F   F
  0.7776808885040083  0.2223147808991968  0.3335113433787456   F   F   F
  0.1801222793480193  0.4234160825046374  0.6683460652560811   F   F   F
  0.1126468553623710  0.5545762067456437  0.3345526534728620   F   F   F
  0.5768636843815926  0.4231426357651529  0.6685218728244635   F   F   F
  0.4444432979982267  0.5555624039634282  0.3362254407269205   F   F   F
  0.8892937757265287  0.4448313913542208  0.6666128462432397   F   F   F
  0.7754640519433167  0.5535195610106030  0.3344890941578313   F   F   F
  0.2222199561650342  0.7777731398729699  0.6661351877033468   F   F   F
  0.1111387981265182  0.8888491132141638  0.3327232174389749   F   F   F
  0.5767024727226229  0.8200974107357055  0.6682467776117420   F   F   F
  0.4454412698482244  0.8873618363371421  0.3345520410332341   F   F   F
  0.8888938533502539  0.7777155734541168  0.6664205910464247   F   F   F
  0.7744222174731945  0.8874250607661907  0.3344845488466817   F   F   F
  0.4445164160939044  0.5557276871423724  0.6839959448712801   T   T   T
 
  0.00000000E+00  0.00000000E+00  0.00000000E+00
  0.00000000E+00  0.00000000E+00  0.00000000E+00
  0.00000000E+00  0.00000000E+00  0.00000000E+00
  0.00000000E+00  0.00000000E+00  0.00000000E+00
  0.00000000E+00  0.00000000E+00  0.00000000E+00
  0.00000000E+00  0.00000000E+00  0.00000000E+00
  0.00000000E+00  0.00000000E+00  0.00000000E+00
  0.00000000E+00  0.00000000E+00  0.00000000E+00
  0.00000000E+00  0.00000000E+00  0.00000000E+00
  0.00000000E+00  0.00000000E+00  0.00000000E+00
  0.00000000E+00  0.00000000E+00  0.00000000E+00
  0.00000000E+00  0.00000000E+00  0.00000000E+00
  0.00000000E+00  0.00000000E+00  0.00000000E+00
  0.00000000E+00  0.00000000E+00  0.00000000E+00
  0.00000000E+00  0.00000000E+00  0.00000000E+00
  0.00000000E+00  0.00000000E+00  0.00000000E+00
  0.00000000E+00  0.00000000E+00  0.00000000E+00
  0.00000000E+00  0.00000000E+00  0.00000000E+00
  0.00000000E+00  0.00000000E+00  0.00000000E+00
  0.00000000E+00  0.00000000E+00  0.00000000E+00
  0.00000000E+00  0.00000000E+00  0.00000000E+00
  0.00000000E+00  0.00000000E+00  0.00000000E+00
  0.00000000E+00  0.00000000E+00  0.00000000E+00
  0.00000000E+00  0.00000000E+00  0.00000000E+00
  0.00000000E+00  0.00000000E+00  0.00000000E+00
  0.00000000E+00  0.00000000E+00  0.00000000E+00
  0.00000000E+00  0.00000000E+00  0.00000000E+00
  0.00000000E+00  0.00000000E+00  0.00000000E+00
  0.00000000E+00  0.00000000E+00  0.00000000E+00
  0.00000000E+00  0.00000000E+00  0.00000000E+00
  0.00000000E+00  0.00000000E+00  0.00000000E+00
  0.00000000E+00  0.00000000E+00  0.00000000E+00
  0.00000000E+00  0.00000000E+00  0.00000000E+00
  0.00000000E+00  0.00000000E+00  0.00000000E+00
  0.00000000E+00  0.00000000E+00  0.00000000E+00
  0.00000000E+00  0.00000000E+00  0.00000000E+00
  0.00000000E+00  0.00000000E+00  0.00000000E+00
  0.00000000E+00  0.00000000E+00  0.00000000E+00
  0.00000000E+00  0.00000000E+00  0.00000000E+00
  0.00000000E+00  0.00000000E+00  0.00000000E+00
  0.00000000E+00  0.00000000E+00  0.00000000E+00
  0.00000000E+00  0.00000000E+00  0.00000000E+00
  0.00000000E+00  0.00000000E+00  0.00000000E+00
  0.00000000E+00  0.00000000E+00  0.00000000E+00
  0.00000000E+00  0.00000000E+00  0.00000000E+00
  0.00000000E+00  0.00000000E+00  0.00000000E+00
