 Nb9 Ir1 Se20                           
   1.00000000000000     
     6.9101671233558291    0.0000000000000000    0.0000000000000000
     1.7075291546144076   15.0073757373094772    0.0000000000000000
     0.0000000000000000    0.0000000000000000   18.4675706551199994
   Nb   Ir   Se
     9     1    20
Direct
  0.1710565169108804  0.1837857608752174  0.5029962587843571
  0.0112286346515518  0.9783618030127172  0.4962270898221206
  0.8008259871664762  0.8015113411134607  0.4992589316786606
  0.5878463709968997  0.6232686508824585  0.5015467254047508
  0.5019108863074919  0.9829311249789114  0.4980934264669585
  0.3778463945933126  0.4243285824247991  0.5055438335610418
  0.2992100804613855  0.8036880458116471  0.4995296215835126
  0.0915485354712331  0.6220200032597205  0.5010653932066305
  0.8874481232445248  0.3829882660688071  0.4984934079495176
  0.7376009381071427  0.2101154852079929  0.4987043994301317
  0.9403909863200752  0.2664414688677752  0.5979689719834624
  0.1682089411894552  0.3351838967737706  0.4156817991369550
  0.7362602577202679  0.0708408130744544  0.5750798819237133
  0.9672039507632064  0.1280629944158562  0.4071617690848086
  0.5358235236171964  0.8654392278348482  0.5951514300948730
  0.4424596656463606  0.2670529256184082  0.5730249150777667
  0.7643009457514225  0.9325520801009404  0.4028417217516491
  0.6550638285795003  0.3357116269893154  0.4095020823459663
  0.3276296813382089  0.6735331497958370  0.5968500428558485
  0.2288079194609907  0.0577128417858077  0.5907381301419434
  0.4823550554352067  0.1396773871871702  0.4240200290362921
  0.5641104560270520  0.7401665644000559  0.4041438210047161
  0.1176472887736750  0.4745736198754855  0.5907005952095119
  0.0320853506879999  0.8636278949639120  0.5953306675896357
  0.3591926485269852  0.5435988888738379  0.4099789921180843
  0.2705672389153193  0.9331863264600528  0.4004670084152764
  0.8284891492345778  0.6722067644712624  0.5963808882711135
  0.0634484761632947  0.7396798393417754  0.4040592146021567
  0.6363205913746697  0.4737961215056430  0.5875647617684407
  0.8600665765636393  0.5355765040281071  0.4218941897000548
 
  0.00000000E+00  0.00000000E+00  0.00000000E+00
  0.00000000E+00  0.00000000E+00  0.00000000E+00
  0.00000000E+00  0.00000000E+00  0.00000000E+00
  0.00000000E+00  0.00000000E+00  0.00000000E+00
  0.00000000E+00  0.00000000E+00  0.00000000E+00
  0.00000000E+00  0.00000000E+00  0.00000000E+00
  0.00000000E+00  0.00000000E+00  0.00000000E+00
  0.00000000E+00  0.00000000E+00  0.00000000E+00
  0.00000000E+00  0.00000000E+00  0.00000000E+00
  0.00000000E+00  0.00000000E+00  0.00000000E+00
  0.00000000E+00  0.00000000E+00  0.00000000E+00
  0.00000000E+00  0.00000000E+00  0.00000000E+00
  0.00000000E+00  0.00000000E+00  0.00000000E+00
  0.00000000E+00  0.00000000E+00  0.00000000E+00
  0.00000000E+00  0.00000000E+00  0.00000000E+00
  0.00000000E+00  0.00000000E+00  0.00000000E+00
  0.00000000E+00  0.00000000E+00  0.00000000E+00
  0.00000000E+00  0.00000000E+00  0.00000000E+00
  0.00000000E+00  0.00000000E+00  0.00000000E+00
  0.00000000E+00  0.00000000E+00  0.00000000E+00
  0.00000000E+00  0.00000000E+00  0.00000000E+00
  0.00000000E+00  0.00000000E+00  0.00000000E+00
  0.00000000E+00  0.00000000E+00  0.00000000E+00
  0.00000000E+00  0.00000000E+00  0.00000000E+00
  0.00000000E+00  0.00000000E+00  0.00000000E+00
  0.00000000E+00  0.00000000E+00  0.00000000E+00
  0.00000000E+00  0.00000000E+00  0.00000000E+00
  0.00000000E+00  0.00000000E+00  0.00000000E+00
  0.00000000E+00  0.00000000E+00  0.00000000E+00
  0.00000000E+00  0.00000000E+00  0.00000000E+00
