 Fe1 Br2                                
   1.00000000000000     
     3.7041625649649359    0.0000000000000000    0.0000000000000000
    -1.8520817839922885    3.2079113718924925    0.0000000000000000
     0.0000000000000000    0.0000000000000000   18.0189144273000039
   Fe   Br
     1     2
Direct
 -0.0000000302490552 -0.0000000153182166  0.5000000018259805
  0.6666676809785291  0.3333326865013990  0.4162323151230330
  0.3333323492705261  0.6666673288168177  0.5837676830509865
 
  0.00000000E+00  0.00000000E+00  0.00000000E+00
  0.00000000E+00  0.00000000E+00  0.00000000E+00
  0.00000000E+00  0.00000000E+00  0.00000000E+00
