CONTCAR\(6)                             
   1.00000000000000     
    15.1842002868999995    0.0000000000000000    0.0000000000000000
     0.0000000000000000   15.1842002868999995    0.0000000000000000
     0.0000000000000000    0.0000000000000000   20.6711997986000000
   Ca   Cu   Cl   O 
    32    16    32    33
Direct
  0.1247589273672042  0.1244687098722799  0.5763839905082964
  0.1249069288497971  0.1244504934818458  0.4230111569308702
  0.3747152615293767  0.1250975478161157  0.5766660713000540
  0.3751237989881080  0.1240919447513550  0.4232320395255644
  0.6252840379857323  0.1250992461145636  0.5766586997098125
  0.6248729378816282  0.1240918796458571  0.4232258767800427
  0.8752310150973196  0.1244660464731363  0.5763767379512814
  0.8750888866534364  0.1244533119103236  0.4230058821965956
  0.1248807984124770  0.3740653787622555  0.5770902477436002
  0.1251543604142734  0.3748306143153620  0.4237169727659469
  0.3749341565296909  0.3727856108486504  0.5770926146638101
  0.3751669108728695  0.3745235193155588  0.4235928688463091
  0.6250493103977041  0.3727778055198325  0.5770914550027116
  0.6248231428931778  0.3745252592681476  0.4235919079122796
  0.8751132471431189  0.3740618932382447  0.5770878274332595
  0.8748374049160628  0.3748336602130905  0.4237146192343089
  0.1252340937431449  0.6241415024733170  0.5777550898854923
  0.1255904600252093  0.6242212724473583  0.4245583820905696
  0.3773961127868963  0.6226908391125265  0.5810487167652394
  0.3752548886548715  0.6234156169066214  0.4263326253108953
  0.6225961807016939  0.6226910918118413  0.5810475708439868
  0.6247272748747471  0.6234220092989098  0.4263258336861581
  0.8747486155817110  0.6241455472654254  0.5777528844535905
  0.8744082244393793  0.6242214459995705  0.4245570710921903
  0.1243194511561416  0.8745848423845698  0.5771171052273620
  0.1252735068219822  0.8736387886212253  0.4238358924642967
  0.3715376207705623  0.8784467650339941  0.5769728908270300
  0.3754527683978297  0.8734480131518152  0.4247233842294108
  0.6284514128619451  0.8784467502876723  0.5769664267032533
  0.6245436834897810  0.8734466811560773  0.4247207530512638
  0.8756692302938024  0.8745920770805661  0.5771108941792252
  0.8747218519758702  0.8736405600977252  0.4238311394034835
 -0.0000002573941816  0.9992915265248971  0.4995031963388332
  0.2496306522689835  0.9995412819609341  0.4994979690743168
  0.4999923304481567  0.9991537309730290  0.5010107146705622
  0.7503649126370188  0.9995392866366044  0.4994877098228816
  0.9999978130366435  0.2494358518837644  0.4997143096277199
  0.2498554622778497  0.2493105243012508  0.4997178884143086
  0.4999963031684723  0.2488965248282251  0.4996976474687881
  0.7501354304785242  0.2493194402064798  0.4997100250110731
 -0.0000103251801729  0.4994302591858539  0.5009740452302286
  0.2501660379031079  0.4992426277123753  0.5016482552932271
  0.4999987648320346  0.4986274259612758  0.5014352067044888
  0.7498218545025113  0.4992429593075018  0.5016453610689304
  0.9999936895373275  0.7491659857403264  0.5008695780160215
  0.2504878037626645  0.7489826639875006  0.5024658891461820
  0.4999951411340487  0.7488348624482862  0.5034355331773112
  0.7495014103154884  0.7489754929676808  0.5024615511861158
  0.0000020505976020  0.9988573495335596  0.3610173749985356
  0.9999950827761894  0.9994007638014806  0.6390821035757387
  0.2505713369398839  0.9985328676049249  0.3613190862477803
  0.2490410681360654  0.0004583198336013  0.6395438092247254
  0.4999946167326857  0.9972120694579055  0.3618893243089080
  0.5000016375700282  0.0026650205799781  0.6408480610300719
  0.7494282943842185  0.9985385840981489  0.3613119097450714
  0.7509522418929527  0.0004618703226594  0.6395370322127699
  0.0000065306279232  0.2494876532082256  0.3609304069966833
  0.9999969659610830  0.2488139511483402  0.6390427987359828
  0.2500127709792762  0.2490812720862343  0.3609783708641345
  0.2496783642605311  0.2487279861350551  0.6391641966884831
  0.4999904303312659  0.2479045472387343  0.3607527061467030
  0.4999988233705296  0.2456545905287718  0.6388563438178991
  0.7499859519280097  0.2490858701487269  0.3609762080851351
  0.7503082361294476  0.2487337823620913  0.6391624861669222
 -0.0000030345857578  0.4996516678792325  0.3618669059719147
  0.9999957723916687  0.4990831273797373  0.6397980813582452
  0.2500812891351665  0.4994229270670330  0.3619767782266843
  0.2491762940448103  0.4985092217225306  0.6401152131469359
  0.4999949791844298  0.4985888129987697  0.3617612339400617
  0.4999905570542505  0.4861003203446440  0.6398068998296200
  0.7499127883031063  0.4994201883289230  0.3619749216782925
  0.7508018428360732  0.4985126003158913  0.6401143839549956
  0.0000022043277608  0.7490283862880758  0.3617436866716982
  0.9999824555130511  0.7497442504006252  0.6398230708348267
  0.2519076074831092  0.7491361123372061  0.3628587579317257
  0.2506204383868701  0.7503442915750214  0.6408611805559057
  0.4999910859251497  0.7495519276505632  0.3640257524096764
  0.4999957692565192  0.7902256914799891  0.6627630415465267
  0.7480908331169048  0.7491352951832648  0.3628527642630517
  0.7493524952615743  0.7503487616088843  0.6408499866308305
  0.1248094672021910  0.9991412511817188  0.5000049143282310
 -0.0000048944076453  0.1243886692462431  0.4994792921767440
  0.3747974967942190  0.9994842383222741  0.5006689912730968
  0.2496050075664591  0.1243915269096566  0.4995476711687388
  0.6251966116580087  0.9994825554855592  0.5006617740847648
  0.4999990518498386  0.1240584224668158  0.4992225584235478
  0.8751778685321940  0.9991462708455964  0.4999971165519605
  0.7503875127654952  0.1243905241252692  0.4995413332554182
  0.1248684917217057  0.2493548273557405  0.5000061318662127
  0.9999954486865551  0.3744160185727449  0.5004221658411889
  0.3748950502730090  0.2488314050277674  0.5001810966375950
  0.2496843980972540  0.3742293783983384  0.5002427450680172
  0.6250968019236343  0.2488343137092566  0.5001748327149642
  0.4999948755867747  0.3735822299324031  0.4986628169862165
  0.8751237328033749  0.2493527791405584  0.5000001849130463
  0.7503048210225483  0.3742319824407643  0.5002405560482497
  0.1250651886422554  0.4993424226049604  0.5009112941561383
  0.9999947686367576  0.6243267595403373  0.5012577546381856
  0.3750775090589671  0.4984165997338267  0.5016203047858018
  0.2499570859821311  0.6241056079005292  0.5012211480144365
  0.6249120808928333  0.4984087087710760  0.5016180214019095
  0.4999903778855428  0.6235793104621608  0.4988251080970179
  0.8749208903080845  0.4993476468832952  0.5009043697202136
  0.7500326970333794  0.6241063423251358  0.5012233172286136
  0.1252022026966383  0.7492681005230134  0.5008755670987693
  0.9999955846556361  0.8741470906027807  0.5004795980974481
  0.3756652577578826  0.7497113207400442  0.5061409354058755
  0.2497428780223634  0.8743151794180485  0.5004100254375761
  0.6243241638903363  0.7497203581406432  0.5061332648428021
  0.4999963902405291  0.8738706373753541  0.5030811262697988
  0.8747837139929704  0.7492664859347740  0.5008642692851275
  0.7502466051756542  0.8743150403661752  0.5004012658933487
  0.4999895775639895  0.6860587305664871  0.6361530535232277
 
  0.00000000E+00  0.00000000E+00  0.00000000E+00
  0.00000000E+00  0.00000000E+00  0.00000000E+00
  0.00000000E+00  0.00000000E+00  0.00000000E+00
  0.00000000E+00  0.00000000E+00  0.00000000E+00
  0.00000000E+00  0.00000000E+00  0.00000000E+00
  0.00000000E+00  0.00000000E+00  0.00000000E+00
  0.00000000E+00  0.00000000E+00  0.00000000E+00
  0.00000000E+00  0.00000000E+00  0.00000000E+00
  0.00000000E+00  0.00000000E+00  0.00000000E+00
  0.00000000E+00  0.00000000E+00  0.00000000E+00
  0.00000000E+00  0.00000000E+00  0.00000000E+00
  0.00000000E+00  0.00000000E+00  0.00000000E+00
  0.00000000E+00  0.00000000E+00  0.00000000E+00
  0.00000000E+00  0.00000000E+00  0.00000000E+00
  0.00000000E+00  0.00000000E+00  0.00000000E+00
  0.00000000E+00  0.00000000E+00  0.00000000E+00
  0.00000000E+00  0.00000000E+00  0.00000000E+00
  0.00000000E+00  0.00000000E+00  0.00000000E+00
  0.00000000E+00  0.00000000E+00  0.00000000E+00
  0.00000000E+00  0.00000000E+00  0.00000000E+00
  0.00000000E+00  0.00000000E+00  0.00000000E+00
  0.00000000E+00  0.00000000E+00  0.00000000E+00
  0.00000000E+00  0.00000000E+00  0.00000000E+00
  0.00000000E+00  0.00000000E+00  0.00000000E+00
  0.00000000E+00  0.00000000E+00  0.00000000E+00
  0.00000000E+00  0.00000000E+00  0.00000000E+00
  0.00000000E+00  0.00000000E+00  0.00000000E+00
  0.00000000E+00  0.00000000E+00  0.00000000E+00
  0.00000000E+00  0.00000000E+00  0.00000000E+00
  0.00000000E+00  0.00000000E+00  0.00000000E+00
  0.00000000E+00  0.00000000E+00  0.00000000E+00
  0.00000000E+00  0.00000000E+00  0.00000000E+00
  0.00000000E+00  0.00000000E+00  0.00000000E+00
  0.00000000E+00  0.00000000E+00  0.00000000E+00
  0.00000000E+00  0.00000000E+00  0.00000000E+00
  0.00000000E+00  0.00000000E+00  0.00000000E+00
  0.00000000E+00  0.00000000E+00  0.00000000E+00
  0.00000000E+00  0.00000000E+00  0.00000000E+00
  0.00000000E+00  0.00000000E+00  0.00000000E+00
  0.00000000E+00  0.00000000E+00  0.00000000E+00
  0.00000000E+00  0.00000000E+00  0.00000000E+00
  0.00000000E+00  0.00000000E+00  0.00000000E+00
  0.00000000E+00  0.00000000E+00  0.00000000E+00
  0.00000000E+00  0.00000000E+00  0.00000000E+00
  0.00000000E+00  0.00000000E+00  0.00000000E+00
  0.00000000E+00  0.00000000E+00  0.00000000E+00
  0.00000000E+00  0.00000000E+00  0.00000000E+00
  0.00000000E+00  0.00000000E+00  0.00000000E+00
  0.00000000E+00  0.00000000E+00  0.00000000E+00
  0.00000000E+00  0.00000000E+00  0.00000000E+00
  0.00000000E+00  0.00000000E+00  0.00000000E+00
  0.00000000E+00  0.00000000E+00  0.00000000E+00
  0.00000000E+00  0.00000000E+00  0.00000000E+00
  0.00000000E+00  0.00000000E+00  0.00000000E+00
  0.00000000E+00  0.00000000E+00  0.00000000E+00
  0.00000000E+00  0.00000000E+00  0.00000000E+00
  0.00000000E+00  0.00000000E+00  0.00000000E+00
  0.00000000E+00  0.00000000E+00  0.00000000E+00
  0.00000000E+00  0.00000000E+00  0.00000000E+00
  0.00000000E+00  0.00000000E+00  0.00000000E+00
  0.00000000E+00  0.00000000E+00  0.00000000E+00
  0.00000000E+00  0.00000000E+00  0.00000000E+00
  0.00000000E+00  0.00000000E+00  0.00000000E+00
  0.00000000E+00  0.00000000E+00  0.00000000E+00
  0.00000000E+00  0.00000000E+00  0.00000000E+00
  0.00000000E+00  0.00000000E+00  0.00000000E+00
  0.00000000E+00  0.00000000E+00  0.00000000E+00
  0.00000000E+00  0.00000000E+00  0.00000000E+00
  0.00000000E+00  0.00000000E+00  0.00000000E+00
  0.00000000E+00  0.00000000E+00  0.00000000E+00
  0.00000000E+00  0.00000000E+00  0.00000000E+00
  0.00000000E+00  0.00000000E+00  0.00000000E+00
  0.00000000E+00  0.00000000E+00  0.00000000E+00
  0.00000000E+00  0.00000000E+00  0.00000000E+00
  0.00000000E+00  0.00000000E+00  0.00000000E+00
  0.00000000E+00  0.00000000E+00  0.00000000E+00
  0.00000000E+00  0.00000000E+00  0.00000000E+00
  0.00000000E+00  0.00000000E+00  0.00000000E+00
  0.00000000E+00  0.00000000E+00  0.00000000E+00
  0.00000000E+00  0.00000000E+00  0.00000000E+00
  0.00000000E+00  0.00000000E+00  0.00000000E+00
  0.00000000E+00  0.00000000E+00  0.00000000E+00
  0.00000000E+00  0.00000000E+00  0.00000000E+00
  0.00000000E+00  0.00000000E+00  0.00000000E+00
  0.00000000E+00  0.00000000E+00  0.00000000E+00
  0.00000000E+00  0.00000000E+00  0.00000000E+00
  0.00000000E+00  0.00000000E+00  0.00000000E+00
  0.00000000E+00  0.00000000E+00  0.00000000E+00
  0.00000000E+00  0.00000000E+00  0.00000000E+00
  0.00000000E+00  0.00000000E+00  0.00000000E+00
  0.00000000E+00  0.00000000E+00  0.00000000E+00
  0.00000000E+00  0.00000000E+00  0.00000000E+00
  0.00000000E+00  0.00000000E+00  0.00000000E+00
  0.00000000E+00  0.00000000E+00  0.00000000E+00
  0.00000000E+00  0.00000000E+00  0.00000000E+00
  0.00000000E+00  0.00000000E+00  0.00000000E+00
  0.00000000E+00  0.00000000E+00  0.00000000E+00
  0.00000000E+00  0.00000000E+00  0.00000000E+00
  0.00000000E+00  0.00000000E+00  0.00000000E+00
  0.00000000E+00  0.00000000E+00  0.00000000E+00
  0.00000000E+00  0.00000000E+00  0.00000000E+00
  0.00000000E+00  0.00000000E+00  0.00000000E+00
  0.00000000E+00  0.00000000E+00  0.00000000E+00
  0.00000000E+00  0.00000000E+00  0.00000000E+00
  0.00000000E+00  0.00000000E+00  0.00000000E+00
  0.00000000E+00  0.00000000E+00  0.00000000E+00
  0.00000000E+00  0.00000000E+00  0.00000000E+00
  0.00000000E+00  0.00000000E+00  0.00000000E+00
  0.00000000E+00  0.00000000E+00  0.00000000E+00
  0.00000000E+00  0.00000000E+00  0.00000000E+00
  0.00000000E+00  0.00000000E+00  0.00000000E+00
  0.00000000E+00  0.00000000E+00  0.00000000E+00
  0.00000000E+00  0.00000000E+00  0.00000000E+00
