CONTCAR                                 
   1.00000000000000     
    14.6651000976999999    0.0000000000000000    0.0000000000000000
     0.0000000000000000   17.2791004181000005    0.0000000000000000
    -0.1285703978000000    0.0000000000000000   17.7376340898000002
   Cu   Te   O    H 
    16    16    49     1
Selective dynamics
Direct
  0.3441840039952524  0.2622310436049489  0.5295448949678701   F   F   F
  0.8449475253107153  0.2619507823326046  0.5301217628288484   F   F   F
  0.3403133366884035  0.7614613003806241  0.5312783516914337   F   F   F
  0.8427013872972609  0.7622160456793097  0.5324517439659644   F   F   F
  0.0959168239421828  0.4884568148069590  0.5348299644663683   F   F   F
  0.5928918266436938  0.4884568651028971  0.5326966026277375   F   F   F
  0.0920842772939849  0.9859633152566616  0.5282090751302704   F   F   F
  0.5946031176907738  0.9865472518789105  0.5290386450432081   F   F   F
  0.1571617660104323  0.2377198672314478  0.4700185069105203   F   F   F
  0.6580921276864231  0.2388000703278763  0.4703065096439474   F   F   F
  0.1591597026158027  0.7359954864704719  0.4717620113662093   F   F   F
  0.6589427356816984  0.7368457495679905  0.4757862379194790   F   F   F
  0.4073694098390916  0.0104906670827916  0.4693263971918284   F   F   F
  0.9091276576387344  0.0101051282597950  0.4697063817815774   F   F   F
  0.4062575242796100  0.5153466054602447  0.4712753539207100   F   F   F
  0.9086176453431563  0.5140645670977548  0.4763464149764687   F   F   F
  0.2813305646691191  0.1022159150272657  0.5850280482036680   F   F   F
  0.7819155196064429  0.1020887273260698  0.5851464920217069   F   F   F
  0.2825056861620965  0.6053268269798693  0.5914170410842914   F   F   F
  0.7806866542274875  0.6047011509141100  0.5925787042115616   F   F   F
  0.2200527896316729  0.3981801703270591  0.4157548263895521   F   F   F
  0.7206653025185261  0.3988990686785954  0.4160693825749320   F   F   F
  0.2197519055267207  0.8945949749544653  0.4128960678225653   F   F   F
  0.7202323415347252  0.8937196426394038  0.4136830335614263   F   F   F
  0.4705464637248582  0.3558245759720080  0.4146754633009806   F   F   F
  0.9705721142847779  0.3564445164142569  0.4157192495157389   F   F   F
  0.4695082924485021  0.8501670796287328  0.4157831795052616   F   F   F
  0.9698464425038864  0.8503448730472485  0.4138710204132963   F   F   F
  0.0319093600631675  0.1453343414188524  0.5856412648161324   F   F   F
  0.5313305934230570  0.1459608583828000  0.5852865671696676   F   F   F
  0.0322593751654949  0.6474902825066025  0.5911293170461178   F   F   F
  0.5298660803650392  0.6451412265299936  0.5919788828089096   F   F   F
  0.3037586296724442  0.0729609978965513  0.4849429750358496   F   F   F
  0.8048780328375358  0.0726992148680168  0.4851885796761906   F   F   F
  0.3047257911134977  0.5784918207688818  0.4853067986623429   F   F   F
  0.8037751618138671  0.5755784269767901  0.4927581181436551   F   F   F
  0.2673430020643508  0.2959392895423463  0.4423245538834379   F   F   F
  0.7682314084056898  0.2969305902189916  0.4429512957120494   F   F   F
  0.2684495383672143  0.7929167815464879  0.4391975141030215   F   F   F
  0.7685664048465171  0.7922443598704874  0.4416960970757344   F   F   F
  0.4002767963612186  0.1815951117755645  0.5901527292165625   F   F   F
  0.9012913315007722  0.1814899298256876  0.5905286965696774   F   F   F
  0.3972139330165803  0.6814150887942603  0.5936717624942673   F   F   F
  0.9015242542923261  0.6831204579257957  0.5943486166837033   F   F   F
  0.4842175706819418  0.0444095976206498  0.5564245520098936   F   F   F
  0.9829846455768632  0.0434601139813324  0.5594721254717641   F   F   F
  0.4822875496906320  0.5442900401584012  0.5621922799749655   F   F   F
  0.9856871449764881  0.5450570337358727  0.5649981816931273   F   F   F
  0.3511758352234438  0.4337330920271256  0.4108831124646883   F   F   F
  0.8517163487786306  0.4354678240845615  0.4137934957226221   F   F   F
  0.3506349071465422  0.9303708329638525  0.4088189020673241   F   F   F
  0.8505811276546709  0.9300980032908299  0.4095152161123323   F   F   F
  0.1505526993132946  0.0659455301964300  0.5883623211179696   F   F   F
  0.6508674430932615  0.0668419585744431  0.5900066344025916   F   F   F
  0.1531324526092064  0.5657073209505299  0.5984196176795891   F   F   F
  0.6490918895628610  0.5679869425909700  0.5954086493187560   F   F   F
  0.4480294507641318  0.3246933074737655  0.5141618330048345   F   F   F
  0.9487673134111176  0.3242440149598025  0.5150215274335181   F   F   F
  0.4451196911281912  0.8232119449409936  0.5161254867642739   F   F   F
  0.9476324024096030  0.8234988483737737  0.5146659216301828   F   F   F
  0.1991692314199511  0.4263100500017671  0.5163079483312529   F   F   F
  0.6974029707716269  0.4273254219647811  0.5162060167233378   F   F   F
  0.1969799335537914  0.9238089056004881  0.5128900052672378   F   F   F
  0.6985936035920517  0.9243777520358805  0.5134443198453198   F   F   F
  0.0187183619556137  0.4572154375140016  0.4462105552380180   F   F   F
  0.5173802902337670  0.4573272098194252  0.4436410855511070   F   F   F
  0.0183162416553770  0.9527454150696926  0.4383060239879484   F   F   F
  0.5171523187758211  0.9523178102567726  0.4422097402938761   F   F   F
  0.2338676953526004  0.2040152916095650  0.5573923717838198   F   F   F
  0.7349766358816439  0.2040577490606879  0.5569848570863272   F   F   F
  0.2313358955065752  0.7051620136128065  0.5613127482134601   F   F   F
  0.7329216197985957  0.7065542077683489  0.5664197215988835   F   F   F
  0.0535044705467769  0.1746053475408971  0.4854117188207212   F   F   F
  0.5540843893596943  0.1764336586867330  0.4855856436383021   F   F   F
  0.0550477539743852  0.6738529292821909  0.4903632389000521   F   F   F
  0.5536120821736219  0.6759013989631342  0.4927315262658425   F   F   F
  0.1009780540297953  0.3193328860020941  0.4107247714903082   F   F   F
  0.6019150390736741  0.3200517509423833  0.4106970576459048   F   F   F
  0.1004565589421986  0.8144812225943312  0.4101666231580623   F   F   F
  0.6004375255195527  0.8144226009233506  0.4131918652774829   F   F   F
  0.2751573061320229  0.6333178587488746  0.7040443765748421   T   T   T
  0.2275212496431735  0.5993187777799491  0.7230284777356175   T   T   T
 
  0.00000000E+00  0.00000000E+00  0.00000000E+00
  0.00000000E+00  0.00000000E+00  0.00000000E+00
  0.00000000E+00  0.00000000E+00  0.00000000E+00
  0.00000000E+00  0.00000000E+00  0.00000000E+00
  0.00000000E+00  0.00000000E+00  0.00000000E+00
  0.00000000E+00  0.00000000E+00  0.00000000E+00
  0.00000000E+00  0.00000000E+00  0.00000000E+00
  0.00000000E+00  0.00000000E+00  0.00000000E+00
  0.00000000E+00  0.00000000E+00  0.00000000E+00
  0.00000000E+00  0.00000000E+00  0.00000000E+00
  0.00000000E+00  0.00000000E+00  0.00000000E+00
  0.00000000E+00  0.00000000E+00  0.00000000E+00
  0.00000000E+00  0.00000000E+00  0.00000000E+00
  0.00000000E+00  0.00000000E+00  0.00000000E+00
  0.00000000E+00  0.00000000E+00  0.00000000E+00
  0.00000000E+00  0.00000000E+00  0.00000000E+00
  0.00000000E+00  0.00000000E+00  0.00000000E+00
  0.00000000E+00  0.00000000E+00  0.00000000E+00
  0.00000000E+00  0.00000000E+00  0.00000000E+00
  0.00000000E+00  0.00000000E+00  0.00000000E+00
  0.00000000E+00  0.00000000E+00  0.00000000E+00
  0.00000000E+00  0.00000000E+00  0.00000000E+00
  0.00000000E+00  0.00000000E+00  0.00000000E+00
  0.00000000E+00  0.00000000E+00  0.00000000E+00
  0.00000000E+00  0.00000000E+00  0.00000000E+00
  0.00000000E+00  0.00000000E+00  0.00000000E+00
  0.00000000E+00  0.00000000E+00  0.00000000E+00
  0.00000000E+00  0.00000000E+00  0.00000000E+00
  0.00000000E+00  0.00000000E+00  0.00000000E+00
  0.00000000E+00  0.00000000E+00  0.00000000E+00
  0.00000000E+00  0.00000000E+00  0.00000000E+00
  0.00000000E+00  0.00000000E+00  0.00000000E+00
  0.00000000E+00  0.00000000E+00  0.00000000E+00
  0.00000000E+00  0.00000000E+00  0.00000000E+00
  0.00000000E+00  0.00000000E+00  0.00000000E+00
  0.00000000E+00  0.00000000E+00  0.00000000E+00
  0.00000000E+00  0.00000000E+00  0.00000000E+00
  0.00000000E+00  0.00000000E+00  0.00000000E+00
  0.00000000E+00  0.00000000E+00  0.00000000E+00
  0.00000000E+00  0.00000000E+00  0.00000000E+00
  0.00000000E+00  0.00000000E+00  0.00000000E+00
  0.00000000E+00  0.00000000E+00  0.00000000E+00
  0.00000000E+00  0.00000000E+00  0.00000000E+00
  0.00000000E+00  0.00000000E+00  0.00000000E+00
  0.00000000E+00  0.00000000E+00  0.00000000E+00
  0.00000000E+00  0.00000000E+00  0.00000000E+00
  0.00000000E+00  0.00000000E+00  0.00000000E+00
  0.00000000E+00  0.00000000E+00  0.00000000E+00
  0.00000000E+00  0.00000000E+00  0.00000000E+00
  0.00000000E+00  0.00000000E+00  0.00000000E+00
  0.00000000E+00  0.00000000E+00  0.00000000E+00
  0.00000000E+00  0.00000000E+00  0.00000000E+00
  0.00000000E+00  0.00000000E+00  0.00000000E+00
  0.00000000E+00  0.00000000E+00  0.00000000E+00
  0.00000000E+00  0.00000000E+00  0.00000000E+00
  0.00000000E+00  0.00000000E+00  0.00000000E+00
  0.00000000E+00  0.00000000E+00  0.00000000E+00
  0.00000000E+00  0.00000000E+00  0.00000000E+00
  0.00000000E+00  0.00000000E+00  0.00000000E+00
  0.00000000E+00  0.00000000E+00  0.00000000E+00
  0.00000000E+00  0.00000000E+00  0.00000000E+00
  0.00000000E+00  0.00000000E+00  0.00000000E+00
  0.00000000E+00  0.00000000E+00  0.00000000E+00
  0.00000000E+00  0.00000000E+00  0.00000000E+00
  0.00000000E+00  0.00000000E+00  0.00000000E+00
  0.00000000E+00  0.00000000E+00  0.00000000E+00
  0.00000000E+00  0.00000000E+00  0.00000000E+00
  0.00000000E+00  0.00000000E+00  0.00000000E+00
  0.00000000E+00  0.00000000E+00  0.00000000E+00
  0.00000000E+00  0.00000000E+00  0.00000000E+00
  0.00000000E+00  0.00000000E+00  0.00000000E+00
  0.00000000E+00  0.00000000E+00  0.00000000E+00
  0.00000000E+00  0.00000000E+00  0.00000000E+00
  0.00000000E+00  0.00000000E+00  0.00000000E+00
  0.00000000E+00  0.00000000E+00  0.00000000E+00
  0.00000000E+00  0.00000000E+00  0.00000000E+00
  0.00000000E+00  0.00000000E+00  0.00000000E+00
  0.00000000E+00  0.00000000E+00  0.00000000E+00
  0.00000000E+00  0.00000000E+00  0.00000000E+00
  0.00000000E+00  0.00000000E+00  0.00000000E+00
  0.00000000E+00  0.00000000E+00  0.00000000E+00
  0.00000000E+00  0.00000000E+00  0.00000000E+00
