CONTCAR\(5)                             
   1.00000000000000     
    13.8191995620999997    0.0000000000000000    0.0000000000000000
     0.0000000000000000   12.6052999496000009    0.0000000000000000
     0.0000000000000000    0.0000000000000000   19.1947002411000014
   Te   W    O 
    32    16     1
Direct
  0.1247185357180929  0.3983806558234704  0.4233258468521888
  0.0000000000000000  0.1526911413826528  0.3914356025899576
  0.1248495580958096  0.0737653563485265  0.6102615238234885
  0.0000000000000000  0.3279176682544057  0.5786593432775552
  0.3745380261957806  0.3990284956790158  0.4233664004826541
  0.2481167521707516  0.1513170100999554  0.3900990834203190
  0.3745922142964347  0.0757092324259167  0.6098278137000163
  0.2501870127213719  0.3275279438067283  0.5786736661289675
  0.6254620088042192  0.3990284956790158  0.4233664004826541
  0.5000000000000000  0.1511047546238498  0.3910055748936443
  0.6254078207035647  0.0757092324259167  0.6098278137000163
  0.5000000000000000  0.3291557031388302  0.5686670678756709
  0.8752814732819040  0.3983806558234704  0.4233258468521888
  0.7518832648292461  0.1513170100999554  0.3900990834203190
  0.8751504509041876  0.0737653563485265  0.6102615238234885
  0.7498130042786257  0.3275279438067283  0.5786736661289675
  0.1245519196754228  0.8974395360739047  0.4232304144717963
  0.0000000000000000  0.6525787190263536  0.3921173121990978
  0.1249251474896874  0.5733424986685142  0.6109671796212789
  0.0000000000000000  0.8284697456190300  0.5790362279723879
  0.3746147609761791  0.8980866725690616  0.4234874978449420
  0.2498174486679392  0.6529557327472821  0.3920463790639737
  0.3746966442242146  0.5742878652433705  0.6109153401196861
  0.2496272532618467  0.8288752163886550  0.5793780357702476
  0.6253852740238199  0.8980866725690616  0.4234874978449420
  0.5000000000000000  0.6547277512172966  0.3921889754024965
  0.6253033907757848  0.5742878652433705  0.6109153401196861
  0.5000000000000000  0.8292117786036766  0.5789931421702919
  0.8754480893245745  0.8974395360739047  0.4232304144717963
  0.7501825683320587  0.6529557327472821  0.3920463790639737
  0.8750748615103097  0.5733424986685142  0.6109671796212789
  0.7503727637381512  0.8288752163886550  0.5793780357702476
  0.0000000000000000  0.0239105522177212  0.5058969202390730
  0.1251864602391855  0.2024901575289705  0.4956369861746762
  0.2491797195630475  0.0234886187363966  0.5057224085263244
  0.3719337978889142  0.2007682520953439  0.4941327073451258
  0.5000000000000000  0.0241924782194356  0.5059907673503151
  0.6280662371110852  0.2007682520953439  0.4941327073451258
  0.7508202974369502  0.0234886187363966  0.5057224085263244
  0.8748135487608115  0.2024901575289705  0.4956369861746762
  0.0000000000000000  0.5237743805326548  0.5064477066865264
  0.1249602742670065  0.7023830665349953  0.4964815376432898
  0.2497587390024428  0.5240118395856290  0.5064526363074684
  0.3741243229556911  0.7032373170971319  0.4964920015262613
  0.5000000000000000  0.5269818109828552  0.5066325544673145
  0.6258757120443084  0.7032373170971319  0.4964920015262613
  0.7502412779975550  0.5240118395856290  0.5064526363074684
  0.8750397347329908  0.7023830665349953  0.4964815376432898
  0.4999000030000005  0.3067225492755314  0.6643340182302790
 
  0.00000000E+00  0.00000000E+00  0.00000000E+00
  0.00000000E+00  0.00000000E+00  0.00000000E+00
  0.00000000E+00  0.00000000E+00  0.00000000E+00
  0.00000000E+00  0.00000000E+00  0.00000000E+00
  0.00000000E+00  0.00000000E+00  0.00000000E+00
  0.00000000E+00  0.00000000E+00  0.00000000E+00
  0.00000000E+00  0.00000000E+00  0.00000000E+00
  0.00000000E+00  0.00000000E+00  0.00000000E+00
  0.00000000E+00  0.00000000E+00  0.00000000E+00
  0.00000000E+00  0.00000000E+00  0.00000000E+00
  0.00000000E+00  0.00000000E+00  0.00000000E+00
  0.00000000E+00  0.00000000E+00  0.00000000E+00
  0.00000000E+00  0.00000000E+00  0.00000000E+00
  0.00000000E+00  0.00000000E+00  0.00000000E+00
  0.00000000E+00  0.00000000E+00  0.00000000E+00
  0.00000000E+00  0.00000000E+00  0.00000000E+00
  0.00000000E+00  0.00000000E+00  0.00000000E+00
  0.00000000E+00  0.00000000E+00  0.00000000E+00
  0.00000000E+00  0.00000000E+00  0.00000000E+00
  0.00000000E+00  0.00000000E+00  0.00000000E+00
  0.00000000E+00  0.00000000E+00  0.00000000E+00
  0.00000000E+00  0.00000000E+00  0.00000000E+00
  0.00000000E+00  0.00000000E+00  0.00000000E+00
  0.00000000E+00  0.00000000E+00  0.00000000E+00
  0.00000000E+00  0.00000000E+00  0.00000000E+00
  0.00000000E+00  0.00000000E+00  0.00000000E+00
  0.00000000E+00  0.00000000E+00  0.00000000E+00
  0.00000000E+00  0.00000000E+00  0.00000000E+00
  0.00000000E+00  0.00000000E+00  0.00000000E+00
  0.00000000E+00  0.00000000E+00  0.00000000E+00
  0.00000000E+00  0.00000000E+00  0.00000000E+00
  0.00000000E+00  0.00000000E+00  0.00000000E+00
  0.00000000E+00  0.00000000E+00  0.00000000E+00
  0.00000000E+00  0.00000000E+00  0.00000000E+00
  0.00000000E+00  0.00000000E+00  0.00000000E+00
  0.00000000E+00  0.00000000E+00  0.00000000E+00
  0.00000000E+00  0.00000000E+00  0.00000000E+00
  0.00000000E+00  0.00000000E+00  0.00000000E+00
  0.00000000E+00  0.00000000E+00  0.00000000E+00
  0.00000000E+00  0.00000000E+00  0.00000000E+00
  0.00000000E+00  0.00000000E+00  0.00000000E+00
  0.00000000E+00  0.00000000E+00  0.00000000E+00
  0.00000000E+00  0.00000000E+00  0.00000000E+00
  0.00000000E+00  0.00000000E+00  0.00000000E+00
  0.00000000E+00  0.00000000E+00  0.00000000E+00
  0.00000000E+00  0.00000000E+00  0.00000000E+00
  0.00000000E+00  0.00000000E+00  0.00000000E+00
  0.00000000E+00  0.00000000E+00  0.00000000E+00
  0.00000000E+00  0.00000000E+00  0.00000000E+00
