CONTCAR\(2)                             
   1.00000000000000     
    10.2920999526999992    0.0000000000000000    0.0000000000000000
     1.7153529658000000    9.6351993213000000    0.0000000000000000
     0.0000000000000000    0.0000000000000000   19.1306991577000005
   Nb   Te   O    H 
     9    18     2     1
Direct
  0.0010325555534205  0.9959420488934476  0.5048054988306354
  0.1195885000347187  0.2807829170554379  0.4991904048049138
  0.2145899864544791  0.7108323608628281  0.5108922772147251
  0.3331594327196756 -0.0022833965646039  0.5048734047890538
  0.4499116747906632  0.2774027326000976  0.4992645709931224
  0.5462900089401791  0.7214460428637219  0.5100751836458420
  0.6676253789252296  0.9948842387568414  0.5048909711766426
  0.7902701838679626  0.2771160560543168  0.4994034999354183
  0.8815021369878654  0.7105166554851158  0.5111119694251280
  0.1479060293456953  0.1081415924639125  0.6101071270865281
  0.1858943056251336  0.8834112977540345  0.3998908795880377
  0.2564115878824041  0.4467818889806255  0.5861051372670794
  0.0755639671707496  0.5448941973101058  0.4238095073574846
  0.0355668237114954  0.7872045828605958  0.6156208335958370
  0.2977666033143848  0.2048370148311267  0.3937249740082112
  0.4817200909978312  0.1078788501292448  0.6103922225648718
  0.5181069806397148  0.8890357238016844  0.3985855915815164
  0.5916548580474753  0.4531957747912533  0.5676889031225790
  0.4099046499804453  0.5450485462070100  0.4266244708192442
  0.3666757131978791  0.7908457792101532  0.6154573091363663
  0.6332144197989401  0.2028470700619775  0.3949525088302830
  0.8163748839194568  0.1064828405584010  0.6105438413235900
  0.8531422588503640  0.8827969323935099  0.4000563418949300
  0.9278338036284496  0.4461057118413356  0.5864333693453171
  0.7426613820723333  0.5449203047406020  0.4259484777206907
  0.7023185510572206  0.7893067823978562  0.6157659731363200
  0.9671217835432037  0.2032291562820533  0.3937367791474249
  0.5042750493413192  0.4801327426212698  0.7140943049710616
  0.6195261390737187  0.4127180672976308  0.6749582931297253
  0.5364703605275616  0.5615258124583787  0.7328353755574106
 
  0.00000000E+00  0.00000000E+00  0.00000000E+00
  0.00000000E+00  0.00000000E+00  0.00000000E+00
  0.00000000E+00  0.00000000E+00  0.00000000E+00
  0.00000000E+00  0.00000000E+00  0.00000000E+00
  0.00000000E+00  0.00000000E+00  0.00000000E+00
  0.00000000E+00  0.00000000E+00  0.00000000E+00
  0.00000000E+00  0.00000000E+00  0.00000000E+00
  0.00000000E+00  0.00000000E+00  0.00000000E+00
  0.00000000E+00  0.00000000E+00  0.00000000E+00
  0.00000000E+00  0.00000000E+00  0.00000000E+00
  0.00000000E+00  0.00000000E+00  0.00000000E+00
  0.00000000E+00  0.00000000E+00  0.00000000E+00
  0.00000000E+00  0.00000000E+00  0.00000000E+00
  0.00000000E+00  0.00000000E+00  0.00000000E+00
  0.00000000E+00  0.00000000E+00  0.00000000E+00
  0.00000000E+00  0.00000000E+00  0.00000000E+00
  0.00000000E+00  0.00000000E+00  0.00000000E+00
  0.00000000E+00  0.00000000E+00  0.00000000E+00
  0.00000000E+00  0.00000000E+00  0.00000000E+00
  0.00000000E+00  0.00000000E+00  0.00000000E+00
  0.00000000E+00  0.00000000E+00  0.00000000E+00
  0.00000000E+00  0.00000000E+00  0.00000000E+00
  0.00000000E+00  0.00000000E+00  0.00000000E+00
  0.00000000E+00  0.00000000E+00  0.00000000E+00
  0.00000000E+00  0.00000000E+00  0.00000000E+00
  0.00000000E+00  0.00000000E+00  0.00000000E+00
  0.00000000E+00  0.00000000E+00  0.00000000E+00
  0.00000000E+00  0.00000000E+00  0.00000000E+00
  0.00000000E+00  0.00000000E+00  0.00000000E+00
  0.00000000E+00  0.00000000E+00  0.00000000E+00
