 Cu2 H4 Se4 O12                         
   1.00000000000000     
     7.0305281996794404    0.0000000000000000    0.0000000000000000
     0.0000000000000000    8.6242178133278777    0.0000000000000000
     0.0000000000000000    0.0000000000000000   18.5619006050039985
   Cu   H    Se   O 
     2     4     4    12
Direct
  0.0000002974499719 -0.0000009164898768  0.5000008166931839
  0.5000029455235024  0.4999990913238251  0.4999998838393334
  0.6224185817899474  0.0427682786818423  0.4353264539994243
  0.1224407936811027  0.4572477232162364  0.5646573293368367
  0.8775670063097107  0.5427409846445896  0.4353520481963072
  0.3775789592511570  0.9572402527213546  0.5646620584397093
  0.6471345358511476  0.8139172327494633  0.5581392195703146
  0.1471222138382302  0.6860836788638610  0.4418604984950680
  0.8528681823110353  0.3139208364941294  0.5581413771069743
  0.3528587001325919  0.1860884360750078  0.4418550958047373
  0.2292847985199234  0.5228725606577698  0.4868753016935828
  0.7707198021257132  0.4771248397497998  0.5131326897155138
  0.7292599370266456  0.9771220924454639  0.5131263467129175
  0.4633154159470710  0.2790143655357959  0.5122292895943937
  0.2707382366557318  0.0228736990003872  0.4868686795162956
  0.9633104873946612  0.2210062277621279  0.4877739107127920
  0.5366934832446902  0.7209847122153886  0.4877674385881872
  0.0366918448901009  0.7789961112503486  0.5122349255153130
  0.5479916791355511  0.0986696493849937  0.3967955910730973
  0.0480212937818934  0.4013493502032756  0.6031934109087895
  0.4519994441115050  0.9013389272313456  0.6031933940443522
  0.9519813610281322  0.5986418662828675  0.3968142404428786
 
  0.00000000E+00  0.00000000E+00  0.00000000E+00
  0.00000000E+00  0.00000000E+00  0.00000000E+00
  0.00000000E+00  0.00000000E+00  0.00000000E+00
  0.00000000E+00  0.00000000E+00  0.00000000E+00
  0.00000000E+00  0.00000000E+00  0.00000000E+00
  0.00000000E+00  0.00000000E+00  0.00000000E+00
  0.00000000E+00  0.00000000E+00  0.00000000E+00
  0.00000000E+00  0.00000000E+00  0.00000000E+00
  0.00000000E+00  0.00000000E+00  0.00000000E+00
  0.00000000E+00  0.00000000E+00  0.00000000E+00
  0.00000000E+00  0.00000000E+00  0.00000000E+00
  0.00000000E+00  0.00000000E+00  0.00000000E+00
  0.00000000E+00  0.00000000E+00  0.00000000E+00
  0.00000000E+00  0.00000000E+00  0.00000000E+00
  0.00000000E+00  0.00000000E+00  0.00000000E+00
  0.00000000E+00  0.00000000E+00  0.00000000E+00
  0.00000000E+00  0.00000000E+00  0.00000000E+00
  0.00000000E+00  0.00000000E+00  0.00000000E+00
  0.00000000E+00  0.00000000E+00  0.00000000E+00
  0.00000000E+00  0.00000000E+00  0.00000000E+00
  0.00000000E+00  0.00000000E+00  0.00000000E+00
  0.00000000E+00  0.00000000E+00  0.00000000E+00
