Li4 Cu4 F14                             
   1.00000000000000     
     5.2660825496653132    0.0093166653264889    0.0443813545045320
     0.5986779797866978    6.3625555716596089   -0.0103995053611294
     2.4154763771273835    2.3836393516292809    7.9437668910508714
   Li   Cu   F 
     4     4    14
Direct
  0.0933121246836925  0.4099037393257214  0.2704240778293431
  0.5457561897922747  0.2408628249954161  0.3570367857443268
  0.4542439362077214  0.7591371690045835  0.6429632452556723
  0.9066878863163048  0.5900963156742797  0.7295758951706512
  0.3038079560178482  0.0072907652454523  0.1714223131148001
  0.7848600448928913  0.7897285693140461  0.3018235543119965
  0.2151400151071068  0.2102714486859553  0.6981764186879977
  0.6961920969821525  0.9927092517545455  0.8285776748852058
  0.4091646649422270  0.2835921959692571  0.1592288032660209
  0.1565234535503595  0.7295179881953414  0.1972086407817633
  0.6798614598313732  0.9061994475234600  0.0847876806745771
  0.9271693087413221  0.0881848790765805  0.2600707386084143
  0.7312338100006752  0.4986493323165645  0.3023634644183668
  0.1813479523637835  0.2978839095240597  0.4716758364303684
  0.4340719731919291  0.8883543496763865  0.3970109972257246
  0.5659280788080684  0.1116457413236104  0.6029889747742729
  0.8186521196362151  0.7021161184759426  0.5283241065696306
  0.2687661719993233  0.5013506966834342  0.6976364785816321
  0.0728307302586778  0.9118152009234194  0.7399292633915859
  0.3201385981686317  0.0938006494765445  0.9152122773254195
  0.8434765654496386  0.2704820118046584  0.8027913762182416
  0.5908353620577715  0.7164078330307417  0.8407711397339780
 
  0.00000000E+00  0.00000000E+00  0.00000000E+00
  0.00000000E+00  0.00000000E+00  0.00000000E+00
  0.00000000E+00  0.00000000E+00  0.00000000E+00
  0.00000000E+00  0.00000000E+00  0.00000000E+00
  0.00000000E+00  0.00000000E+00  0.00000000E+00
  0.00000000E+00  0.00000000E+00  0.00000000E+00
  0.00000000E+00  0.00000000E+00  0.00000000E+00
  0.00000000E+00  0.00000000E+00  0.00000000E+00
  0.00000000E+00  0.00000000E+00  0.00000000E+00
  0.00000000E+00  0.00000000E+00  0.00000000E+00
  0.00000000E+00  0.00000000E+00  0.00000000E+00
  0.00000000E+00  0.00000000E+00  0.00000000E+00
  0.00000000E+00  0.00000000E+00  0.00000000E+00
  0.00000000E+00  0.00000000E+00  0.00000000E+00
  0.00000000E+00  0.00000000E+00  0.00000000E+00
  0.00000000E+00  0.00000000E+00  0.00000000E+00
  0.00000000E+00  0.00000000E+00  0.00000000E+00
  0.00000000E+00  0.00000000E+00  0.00000000E+00
  0.00000000E+00  0.00000000E+00  0.00000000E+00
  0.00000000E+00  0.00000000E+00  0.00000000E+00
  0.00000000E+00  0.00000000E+00  0.00000000E+00
  0.00000000E+00  0.00000000E+00  0.00000000E+00
