CONTCAR\(8)                             
   1.00000000000000     
    16.2672996521000002    0.0000000000000000    0.0000000000000000
     2.6171829271000000   16.2219330010999983    0.0000000000000000
     0.0000000000000000    0.0000000000000000   16.8505992888999998
   Ag   H    O 
    17    18    36
Direct
  0.2004608828595593  0.1304206981819149  0.5314515990603255
  0.0260530492129973  0.2853382219327827  0.5531525513933317
  0.5231192855399200  0.1349851346564321  0.5187064453571253
  0.3582519434126965  0.3095383215765750  0.5316768767953377
  0.8479119566218003  0.1319468827032111  0.5364953084807524
  0.6845188596931706  0.2935377807605519  0.5140494526903865
  0.1771138359810891  0.4699867959936412  0.5774174741924440
  0.0209854266645380  0.6319277767240337  0.5592187978994900
  0.3596140491522775  0.6218340155041275  0.5705881033083600
  0.8596962592929742  0.4607035280901073  0.5142032733192607
  0.6836121864472631  0.6308396024141913  0.5027738968806545
  0.1961142035565331  0.7892295514042615  0.5122954249256964
  0.0247145463895038  0.9625970824415973  0.4918092807547580
  0.5090775604066593  0.7961402009405560  0.5470581237869396
  0.3596751645618710  0.9639741281576732  0.5379402270097913
  0.8649761698215386  0.7974534158670608  0.5359625104931212
  0.6893611215944020  0.9559211550447415  0.5491125901406235
  0.1802139942928420  0.2803047611056684  0.5752580485906833
  0.2680626282051506  0.0290667422360613  0.4237725375390937
  0.5166860565009586  0.2914121661855518  0.5002329960524321
  0.5511986334605865  0.9827089574495957  0.4649907462806411
  0.8353289869958331  0.2851798372532741  0.5587609136467933
  0.8685931869838015  0.0005678528189605  0.4470580163293860
  0.1668520204176573  0.6200361101633547  0.6070042772921056
  0.2085480072140626  0.3502894661362745  0.4747063903189641
  0.5117249713623764  0.6129730272421909  0.5830804954466160
  0.5787554700334141  0.3167340858770160  0.4006108300928801
  0.8467060351903513  0.6201905374811858  0.5019128573955243
  0.8994356137828703  0.3113862116334403  0.4557509495048038
  0.1885023920121043  0.9486848790898392  0.4850015861191892
  0.2199175305875301  0.6293814459224194  0.4901676807307922
  0.5072300767152385  0.9480869172231152  0.5778353420928610
  0.5243192804675729  0.6577617863096705  0.4611280229661290
  0.8455034718904741  0.9494766669511137  0.5603716972608908
  0.9367132337631503  0.6897737211419894  0.4379204156374072
  0.1461587139102889  0.2369417504558839  0.5886708706783921
  0.0530442227295822  0.0952109748968653  0.5236862912684970
  0.2514947258652995  0.0173297564828303  0.4775702523706045
  0.3330344519125887  0.1818694040532876  0.4809191212695083
  0.4799117970875031  0.2572095494082092  0.5341001558395391
  0.3958622800620333  0.1232520975410267  0.4676383790622367
  0.5666980436426527  0.0065282527779473  0.5146638318281092
  0.6508753467080695  0.1544534450848047  0.5607658167423395
  0.7942960028068882  0.2489888200559847  0.5732776896766225
  0.7136748384955638  0.0942388664863003  0.5503241734537525
  0.8962516178146842  0.0122905770961452  0.4960139526208920
  0.9925687206934271  0.1537105639659941  0.5456128819421480
  0.1259651576124199  0.5847161605301920  0.6236796280187846
  0.0455289076122298  0.4200227525926508  0.5717895129584250
  0.2291537876296701  0.3550086491631248  0.5284913090448100
  0.3245781350188821  0.4953886868873738  0.5835170874732327
  0.4740543918765283  0.5793585116581284  0.6081674432856019
  0.3812813940293367  0.4311154575539931  0.5913852721850290
  0.5747459800381449  0.3335610697744471  0.4560309170100822
  0.6630103458454570  0.4968380018637504  0.4755575314941325
  0.8063697524390179  0.5815674085552729  0.5131584534532720
  0.7227739289362063  0.4365769898722931  0.4842944545891612
  0.9075274497264374  0.3339460567977781  0.5080898933650033
  0.9785918798113897  0.4751200856547015  0.5823003638568736
  0.1479008403097097  0.9091612469889014  0.4904044419727001
  0.0732881819973343  0.7641628355084435  0.4602267413635559
  0.2346910677947065  0.6616760335221983  0.5349950252252071
  0.3123586190680996  0.8048311473184668  0.5710273308748484
  0.4672688074838760  0.9120807311524572  0.5956106471457332
  0.3776180342138318  0.7494304637545071  0.5487856008927920
  0.5575726112699684  0.6803761002963782  0.5009938910559981
  0.6523307963821026  0.8192986151058648  0.5506571982029769
  0.8116202021164582  0.9096022583189196  0.5824736271806330
  0.7097944857009679  0.7629925957209807  0.5209602439338781
  0.9165363647975937  0.6808924459539654  0.4911393772785928
  0.0114063274762515  0.8238074685357901  0.4514862296004338
 
  0.00000000E+00  0.00000000E+00  0.00000000E+00
  0.00000000E+00  0.00000000E+00  0.00000000E+00
  0.00000000E+00  0.00000000E+00  0.00000000E+00
  0.00000000E+00  0.00000000E+00  0.00000000E+00
  0.00000000E+00  0.00000000E+00  0.00000000E+00
  0.00000000E+00  0.00000000E+00  0.00000000E+00
  0.00000000E+00  0.00000000E+00  0.00000000E+00
  0.00000000E+00  0.00000000E+00  0.00000000E+00
  0.00000000E+00  0.00000000E+00  0.00000000E+00
  0.00000000E+00  0.00000000E+00  0.00000000E+00
  0.00000000E+00  0.00000000E+00  0.00000000E+00
  0.00000000E+00  0.00000000E+00  0.00000000E+00
  0.00000000E+00  0.00000000E+00  0.00000000E+00
  0.00000000E+00  0.00000000E+00  0.00000000E+00
  0.00000000E+00  0.00000000E+00  0.00000000E+00
  0.00000000E+00  0.00000000E+00  0.00000000E+00
  0.00000000E+00  0.00000000E+00  0.00000000E+00
  0.00000000E+00  0.00000000E+00  0.00000000E+00
  0.00000000E+00  0.00000000E+00  0.00000000E+00
  0.00000000E+00  0.00000000E+00  0.00000000E+00
  0.00000000E+00  0.00000000E+00  0.00000000E+00
  0.00000000E+00  0.00000000E+00  0.00000000E+00
  0.00000000E+00  0.00000000E+00  0.00000000E+00
  0.00000000E+00  0.00000000E+00  0.00000000E+00
  0.00000000E+00  0.00000000E+00  0.00000000E+00
  0.00000000E+00  0.00000000E+00  0.00000000E+00
  0.00000000E+00  0.00000000E+00  0.00000000E+00
  0.00000000E+00  0.00000000E+00  0.00000000E+00
  0.00000000E+00  0.00000000E+00  0.00000000E+00
  0.00000000E+00  0.00000000E+00  0.00000000E+00
  0.00000000E+00  0.00000000E+00  0.00000000E+00
  0.00000000E+00  0.00000000E+00  0.00000000E+00
  0.00000000E+00  0.00000000E+00  0.00000000E+00
  0.00000000E+00  0.00000000E+00  0.00000000E+00
  0.00000000E+00  0.00000000E+00  0.00000000E+00
  0.00000000E+00  0.00000000E+00  0.00000000E+00
  0.00000000E+00  0.00000000E+00  0.00000000E+00
  0.00000000E+00  0.00000000E+00  0.00000000E+00
  0.00000000E+00  0.00000000E+00  0.00000000E+00
  0.00000000E+00  0.00000000E+00  0.00000000E+00
  0.00000000E+00  0.00000000E+00  0.00000000E+00
  0.00000000E+00  0.00000000E+00  0.00000000E+00
  0.00000000E+00  0.00000000E+00  0.00000000E+00
  0.00000000E+00  0.00000000E+00  0.00000000E+00
  0.00000000E+00  0.00000000E+00  0.00000000E+00
  0.00000000E+00  0.00000000E+00  0.00000000E+00
  0.00000000E+00  0.00000000E+00  0.00000000E+00
  0.00000000E+00  0.00000000E+00  0.00000000E+00
  0.00000000E+00  0.00000000E+00  0.00000000E+00
  0.00000000E+00  0.00000000E+00  0.00000000E+00
  0.00000000E+00  0.00000000E+00  0.00000000E+00
  0.00000000E+00  0.00000000E+00  0.00000000E+00
  0.00000000E+00  0.00000000E+00  0.00000000E+00
  0.00000000E+00  0.00000000E+00  0.00000000E+00
  0.00000000E+00  0.00000000E+00  0.00000000E+00
  0.00000000E+00  0.00000000E+00  0.00000000E+00
  0.00000000E+00  0.00000000E+00  0.00000000E+00
  0.00000000E+00  0.00000000E+00  0.00000000E+00
  0.00000000E+00  0.00000000E+00  0.00000000E+00
  0.00000000E+00  0.00000000E+00  0.00000000E+00
  0.00000000E+00  0.00000000E+00  0.00000000E+00
  0.00000000E+00  0.00000000E+00  0.00000000E+00
  0.00000000E+00  0.00000000E+00  0.00000000E+00
  0.00000000E+00  0.00000000E+00  0.00000000E+00
  0.00000000E+00  0.00000000E+00  0.00000000E+00
  0.00000000E+00  0.00000000E+00  0.00000000E+00
  0.00000000E+00  0.00000000E+00  0.00000000E+00
  0.00000000E+00  0.00000000E+00  0.00000000E+00
  0.00000000E+00  0.00000000E+00  0.00000000E+00
  0.00000000E+00  0.00000000E+00  0.00000000E+00
  0.00000000E+00  0.00000000E+00  0.00000000E+00
