CONTCAR\(3)                             
   1.00000000000000     
    12.4035997391000006    0.0000000000000000    0.0000000000000000
     6.2017683962000003   10.7417350166999999    0.0000000000000000
     0.0000000000000000    0.0000000000000000   17.7593994140999989
   Fe   Br   O    H 
     8    24     2     1
Direct
  0.9998102662653494  0.0001417718047847  0.4967762708045456
  0.1665458190605094  0.1666625774641233  0.4963140767579759
  0.4999151624498381  0.9997072447467161  0.4966120299742016
  0.6676214562323608  0.1657003794963003  0.4973207026325213
  0.9998160977254429  0.5001315836521130  0.4960514877086695
  0.1665210935478356  0.6670813272089617  0.4962706081732264
  0.4996844348901135  0.5013157965743247  0.4965727966023294
  0.6665563887453914  0.6664004006893833  0.4960980125153469
  0.0135810665655072  0.1529351312038969  0.4189091356236574
  0.1528266457525973  0.3331229098959128  0.4186479160517180
  0.3332102627490556  0.0139282815225101  0.4188058027530062
  0.1528494048017990  0.0140141851172757  0.5742619204469293
  0.0136519179759844  0.3334508281730777  0.5738259301465547
  0.3331086278112920  0.1524721219128864  0.5742646124642548
  0.5141952115780981  0.1527473105201835  0.4194181144492219
  0.6524695246789420  0.3329268031419161  0.4197956009867241
  0.8329342729305296  0.0142559932043298  0.4194951798117330
  0.6531972086972431  0.0129063787074699  0.5745952141128967
  0.5098709941294430  0.3341459583356610  0.5746197986416846
  0.8330223231379605  0.1529077774485614  0.5750057520584164
  0.0138295747178816  0.6529101877412486  0.4184256275526508
  0.1523847731559798  0.8337702898269015  0.4187622501710067
  0.3330297076375288  0.5141905856150970  0.4187093552241379
  0.1522750041137613  0.5144148230607826  0.5740185491426786
  0.0139797634780621  0.8332605338314778  0.5742511362320926
  0.3325645458711080  0.6535125932347796  0.5738926805419950
  0.5138935746854401  0.6526081885305715  0.4185540839542981
  0.6526643286288447  0.8332855258730802  0.4185587640244606
  0.8331908082609232  0.5139351112814836  0.4183422492835831
  0.6525077740294165  0.5143580813635751  0.5738028962322161
  0.5137966995797285  0.8328911083162112  0.5739537881672305
  0.8331131776110041  0.6527938550863084  0.5737773650320719
  0.4914530228203020  0.5491199883122135  0.7409504328324132
  0.5155121671921137  0.4322446119594829  0.7525751737882729
  0.5228068044926388  0.3960902021463824  0.7009747241052793
 
  0.00000000E+00  0.00000000E+00  0.00000000E+00
  0.00000000E+00  0.00000000E+00  0.00000000E+00
  0.00000000E+00  0.00000000E+00  0.00000000E+00
  0.00000000E+00  0.00000000E+00  0.00000000E+00
  0.00000000E+00  0.00000000E+00  0.00000000E+00
  0.00000000E+00  0.00000000E+00  0.00000000E+00
  0.00000000E+00  0.00000000E+00  0.00000000E+00
  0.00000000E+00  0.00000000E+00  0.00000000E+00
  0.00000000E+00  0.00000000E+00  0.00000000E+00
  0.00000000E+00  0.00000000E+00  0.00000000E+00
  0.00000000E+00  0.00000000E+00  0.00000000E+00
  0.00000000E+00  0.00000000E+00  0.00000000E+00
  0.00000000E+00  0.00000000E+00  0.00000000E+00
  0.00000000E+00  0.00000000E+00  0.00000000E+00
  0.00000000E+00  0.00000000E+00  0.00000000E+00
  0.00000000E+00  0.00000000E+00  0.00000000E+00
  0.00000000E+00  0.00000000E+00  0.00000000E+00
  0.00000000E+00  0.00000000E+00  0.00000000E+00
  0.00000000E+00  0.00000000E+00  0.00000000E+00
  0.00000000E+00  0.00000000E+00  0.00000000E+00
  0.00000000E+00  0.00000000E+00  0.00000000E+00
  0.00000000E+00  0.00000000E+00  0.00000000E+00
  0.00000000E+00  0.00000000E+00  0.00000000E+00
  0.00000000E+00  0.00000000E+00  0.00000000E+00
  0.00000000E+00  0.00000000E+00  0.00000000E+00
  0.00000000E+00  0.00000000E+00  0.00000000E+00
  0.00000000E+00  0.00000000E+00  0.00000000E+00
  0.00000000E+00  0.00000000E+00  0.00000000E+00
  0.00000000E+00  0.00000000E+00  0.00000000E+00
  0.00000000E+00  0.00000000E+00  0.00000000E+00
  0.00000000E+00  0.00000000E+00  0.00000000E+00
  0.00000000E+00  0.00000000E+00  0.00000000E+00
  0.00000000E+00  0.00000000E+00  0.00000000E+00
  0.00000000E+00  0.00000000E+00  0.00000000E+00
  0.00000000E+00  0.00000000E+00  0.00000000E+00
