CONTCAR\(15)                            
   1.00000000000000     
    14.8690004349000002    0.0000000000000000    0.0000000000000000
     7.4345002174000001   12.8769321054999999    0.0000000000000000
     0.0000000000000000    0.0000000000000000   21.2709007262999990
   Y    Cl   O 
    32    32     1
Direct
  0.0832204440448787  0.0832236090840155  0.4294505030720251
  0.9991440785614714  0.9991443173524576  0.5607618908209167
  0.3335162461823283  0.0832309099432066  0.4294661690281369
  0.2496597565976634  0.0006577349296336  0.5606806115798206
  0.5832289604138922  0.0840564015291878  0.4312773733125645
  0.5016896333459036  0.9991592657069238  0.5607724552881543
  0.8326978214069475  0.0840438056421307  0.4312673678408863
  0.7492315717926139  0.0015235709220006  0.5625711316848424
  0.0832230645751221  0.3335203293147710  0.4294645651665145
  0.0006529396322139  0.2496576206811665  0.5606784612888451
  0.3329488975088293  0.3329481913711891  0.4302652432207413
  0.2496700016209168  0.2496713625922010  0.5606934255937011
  0.5809228491992863  0.3381327648260433  0.4341311604337297
  0.4976371457939408  0.2507360394862765  0.5625807835131551
  0.8340770196430771  0.3329482239148345  0.4302407345306029
  0.7516427997693504  0.2507024030839006  0.5625505501932401
  0.0840553109602567  0.5832291762109018  0.4312715091361100
  0.9991577076875177  0.5016844558618159  0.5607699557074781
  0.3381233532657102  0.5809304116256007  0.4341270678287911
  0.2507329286140142  0.4976399107324354  0.5625770680653832
  0.5809311830648969  0.5809366506179227  0.4341142715110319
  0.5000622843597872  0.5001292282575878  0.7056741384615169
  0.8327129906043137  0.5832323115153922  0.4312590699039347
  0.7516458378760573  0.4976384500830038  0.5625479008141513
  0.0840408367107491  0.8326992590946551  0.4312617688895292
  0.0015236511505974  0.7492254997771939  0.5625675940861330
  0.3329438621454141  0.8340859217834063  0.4302373729385132
  0.2506946256690367  0.7516505098089173  0.5625421015233331
  0.5832353515869434  0.8327164321660036  0.4312579969587124
  0.4976393236891790  0.7516565276564016  0.5625399233164788
  0.8333276024107446  0.8333277632387480  0.4322201889291082
  0.7492332101401501  0.7492330697719662  0.5625585218425208
  0.1666403996055151  0.1666640251096999  0.6422708225363636
  0.1666646900530687  0.1666616906761207  0.3482223106010347
  0.4158254121158503  0.1637182619584191  0.6422903492788801
  0.4178680901521360  0.1662855781375042  0.3486915815879840
  0.6648572177940014  0.1703000597012469  0.6440878544551988
  0.6642364985078493  0.1715002627222038  0.3517239589351436
  0.9204817983930177  0.1636814591743915  0.6422765796977152
  0.9158257232518615  0.1662770616000254  0.3486711752599471
  0.1637145017483357  0.4158300103907094  0.6422869975535674
  0.1662777323565487  0.4178636328112791  0.3486916383970157
  0.4030462064978851  0.4030820603880437  0.6531455179029315
  0.4170132062089830  0.4170179698159662  0.3506158015434291
  0.6940162591835983  0.4029906933017372  0.6531399147958119
  0.6659355350835717  0.4170249841198614  0.3506058063686006
  0.9204772277495283  0.4158138562644845  0.6422695838390183
  0.9158328428844440  0.4178690694770884  0.3486759624734058
  0.1703041797873187  0.6648581468892946  0.6440810847553087
  0.1714924985381488  0.6642423007604538  0.3517190666273772
  0.4029792483961117  0.6940402069672442  0.6531184626217785
  0.4170225819831922  0.6659386219968888  0.3506071955819538
  0.6648332869827503  0.6648403377563553  0.6440591877176195
  0.6642492103756795  0.6642509278528419  0.3517224844702689
  0.9166036177184507  0.6667559053510406  0.6435431778110413
  0.9165447738210243  0.6669243903995872  0.3501767990208343
  0.1636836465613308  0.9204798104303976  0.6422734414985097
  0.1662709260314838  0.9158300291648750  0.3486702807175398
  0.4158187752466942  0.9204821831139273  0.6422705245037513
  0.4178715741554506  0.9158413623920756  0.3486774919927401
  0.6667608916545725  0.9166011781878888  0.6435461493294977
  0.6669233501712424  0.9165493367904293  0.3501753732429258
  0.9166098779485624  0.9165978048811227  0.6435524456996875
  0.9165298430114202  0.9165365774759731  0.3501701123024663
  0.5000747950065846  0.5003584653589501  0.7909009234000134
 
  0.00000000E+00  0.00000000E+00  0.00000000E+00
  0.00000000E+00  0.00000000E+00  0.00000000E+00
  0.00000000E+00  0.00000000E+00  0.00000000E+00
  0.00000000E+00  0.00000000E+00  0.00000000E+00
  0.00000000E+00  0.00000000E+00  0.00000000E+00
  0.00000000E+00  0.00000000E+00  0.00000000E+00
  0.00000000E+00  0.00000000E+00  0.00000000E+00
  0.00000000E+00  0.00000000E+00  0.00000000E+00
  0.00000000E+00  0.00000000E+00  0.00000000E+00
  0.00000000E+00  0.00000000E+00  0.00000000E+00
  0.00000000E+00  0.00000000E+00  0.00000000E+00
  0.00000000E+00  0.00000000E+00  0.00000000E+00
  0.00000000E+00  0.00000000E+00  0.00000000E+00
  0.00000000E+00  0.00000000E+00  0.00000000E+00
  0.00000000E+00  0.00000000E+00  0.00000000E+00
  0.00000000E+00  0.00000000E+00  0.00000000E+00
  0.00000000E+00  0.00000000E+00  0.00000000E+00
  0.00000000E+00  0.00000000E+00  0.00000000E+00
  0.00000000E+00  0.00000000E+00  0.00000000E+00
  0.00000000E+00  0.00000000E+00  0.00000000E+00
  0.00000000E+00  0.00000000E+00  0.00000000E+00
  0.00000000E+00  0.00000000E+00  0.00000000E+00
  0.00000000E+00  0.00000000E+00  0.00000000E+00
  0.00000000E+00  0.00000000E+00  0.00000000E+00
  0.00000000E+00  0.00000000E+00  0.00000000E+00
  0.00000000E+00  0.00000000E+00  0.00000000E+00
  0.00000000E+00  0.00000000E+00  0.00000000E+00
  0.00000000E+00  0.00000000E+00  0.00000000E+00
  0.00000000E+00  0.00000000E+00  0.00000000E+00
  0.00000000E+00  0.00000000E+00  0.00000000E+00
  0.00000000E+00  0.00000000E+00  0.00000000E+00
  0.00000000E+00  0.00000000E+00  0.00000000E+00
  0.00000000E+00  0.00000000E+00  0.00000000E+00
  0.00000000E+00  0.00000000E+00  0.00000000E+00
  0.00000000E+00  0.00000000E+00  0.00000000E+00
  0.00000000E+00  0.00000000E+00  0.00000000E+00
  0.00000000E+00  0.00000000E+00  0.00000000E+00
  0.00000000E+00  0.00000000E+00  0.00000000E+00
  0.00000000E+00  0.00000000E+00  0.00000000E+00
  0.00000000E+00  0.00000000E+00  0.00000000E+00
  0.00000000E+00  0.00000000E+00  0.00000000E+00
  0.00000000E+00  0.00000000E+00  0.00000000E+00
  0.00000000E+00  0.00000000E+00  0.00000000E+00
  0.00000000E+00  0.00000000E+00  0.00000000E+00
  0.00000000E+00  0.00000000E+00  0.00000000E+00
  0.00000000E+00  0.00000000E+00  0.00000000E+00
  0.00000000E+00  0.00000000E+00  0.00000000E+00
  0.00000000E+00  0.00000000E+00  0.00000000E+00
  0.00000000E+00  0.00000000E+00  0.00000000E+00
  0.00000000E+00  0.00000000E+00  0.00000000E+00
  0.00000000E+00  0.00000000E+00  0.00000000E+00
  0.00000000E+00  0.00000000E+00  0.00000000E+00
  0.00000000E+00  0.00000000E+00  0.00000000E+00
  0.00000000E+00  0.00000000E+00  0.00000000E+00
  0.00000000E+00  0.00000000E+00  0.00000000E+00
  0.00000000E+00  0.00000000E+00  0.00000000E+00
  0.00000000E+00  0.00000000E+00  0.00000000E+00
  0.00000000E+00  0.00000000E+00  0.00000000E+00
  0.00000000E+00  0.00000000E+00  0.00000000E+00
  0.00000000E+00  0.00000000E+00  0.00000000E+00
  0.00000000E+00  0.00000000E+00  0.00000000E+00
  0.00000000E+00  0.00000000E+00  0.00000000E+00
  0.00000000E+00  0.00000000E+00  0.00000000E+00
  0.00000000E+00  0.00000000E+00  0.00000000E+00
  0.00000000E+00  0.00000000E+00  0.00000000E+00
