CONTCAR\(10)                            
   1.00000000000000     
     9.7571001052999993    0.0000000000000000    0.0000000000000000
    -3.0063686365000000   15.8319856181999992    0.0000000000000000
     0.0000000000000000    0.0000000000000000   18.2793006897000012
   V    P    S    O 
     4     8    26     1
Direct
  0.6260871230216906  0.5941703184623278  0.5073692228094251
  0.6344800575148789  0.1067646198621054  0.5008133349123953
  0.3681138097692507  0.3979539205301275  0.5211357028084964
  0.3901359579162161  0.8966870027531328  0.4984027569178026
  0.8033656583138291  0.2793275549684993  0.5058535203683415
  0.6883184710552270  0.4164312870428852  0.5494145338920683
  0.1761481954498172  0.7413792738823473  0.5036834877754977
  0.1649245134639463  0.2420396900009517  0.4945593754146513
  0.3159364607841423  0.0682139624134798  0.5390896732054126
  0.7000024844713535  0.9307141116678547  0.4612635033904962
  0.3114885937651716  0.5698678234319348  0.4633871373839827
  0.8301648351789348  0.7562584762446053  0.5075751521131596
  0.1254664122615836  0.1101332395698996  0.5307488457282894
  0.8896520674233869  0.8852106065674359  0.4715440241311693
  0.0063404307596959  0.7496089296605734  0.5753143732268114
  0.4019619533258166  0.0401896870726757  0.4404481695004892
  0.5007611786907974  0.3908715091841940  0.6198646891554122
  0.2478895495727908  0.4537685856159169  0.4202683657973429
  0.1759856439464564  0.3200982135557422  0.5839097441616599
  0.6678459180853719  0.7300259955941004  0.5758099573125094
  0.4731734887531928  0.6433234707524352  0.4135264917334931
  0.5924442209956928  0.4496311197362595  0.4545179762394018
  0.6773419512731983  0.2222970052734215  0.4222025196538278
  0.9019227668714426  0.4049489222149772  0.5006446509178493
  0.0083518575858608  0.2481921409923633  0.4249495660145087
  0.6186137642781003  0.9605869024795861  0.5599967659681012
  0.8018061604195501  0.6712864386926505  0.4253905080714602
  0.3874741863755239  0.5464265073235421  0.5655301525516364
  0.2022860157147098  0.8244904715072788  0.4207231390350921
  0.7567989903671204  0.5400769213838297  0.5935794744923047
  0.5442918561874862  0.8508169161640486  0.4112035469570409
  0.2564295295642433  0.9548225375039143  0.5891058347922042
  0.3431686590594338  0.7672033840429551  0.5700522107618768
  0.8158261810617127  0.1768286902998696  0.5733636634660106
  0.7615184299011016  0.0430578285143759  0.4102292049141943
  0.4757311410331257  0.1465228486599269  0.5884869065892612
  0.1193951071624399  0.6134529795319607  0.4673430754993705
  0.3560339541475169  0.2757403091129648  0.4473020294011664
  0.6802122054782080  0.3135298947328582  0.5586168589357985
 
  0.00000000E+00  0.00000000E+00  0.00000000E+00
  0.00000000E+00  0.00000000E+00  0.00000000E+00
  0.00000000E+00  0.00000000E+00  0.00000000E+00
  0.00000000E+00  0.00000000E+00  0.00000000E+00
  0.00000000E+00  0.00000000E+00  0.00000000E+00
  0.00000000E+00  0.00000000E+00  0.00000000E+00
  0.00000000E+00  0.00000000E+00  0.00000000E+00
  0.00000000E+00  0.00000000E+00  0.00000000E+00
  0.00000000E+00  0.00000000E+00  0.00000000E+00
  0.00000000E+00  0.00000000E+00  0.00000000E+00
  0.00000000E+00  0.00000000E+00  0.00000000E+00
  0.00000000E+00  0.00000000E+00  0.00000000E+00
  0.00000000E+00  0.00000000E+00  0.00000000E+00
  0.00000000E+00  0.00000000E+00  0.00000000E+00
  0.00000000E+00  0.00000000E+00  0.00000000E+00
  0.00000000E+00  0.00000000E+00  0.00000000E+00
  0.00000000E+00  0.00000000E+00  0.00000000E+00
  0.00000000E+00  0.00000000E+00  0.00000000E+00
  0.00000000E+00  0.00000000E+00  0.00000000E+00
  0.00000000E+00  0.00000000E+00  0.00000000E+00
  0.00000000E+00  0.00000000E+00  0.00000000E+00
  0.00000000E+00  0.00000000E+00  0.00000000E+00
  0.00000000E+00  0.00000000E+00  0.00000000E+00
  0.00000000E+00  0.00000000E+00  0.00000000E+00
  0.00000000E+00  0.00000000E+00  0.00000000E+00
  0.00000000E+00  0.00000000E+00  0.00000000E+00
  0.00000000E+00  0.00000000E+00  0.00000000E+00
  0.00000000E+00  0.00000000E+00  0.00000000E+00
  0.00000000E+00  0.00000000E+00  0.00000000E+00
  0.00000000E+00  0.00000000E+00  0.00000000E+00
  0.00000000E+00  0.00000000E+00  0.00000000E+00
  0.00000000E+00  0.00000000E+00  0.00000000E+00
  0.00000000E+00  0.00000000E+00  0.00000000E+00
  0.00000000E+00  0.00000000E+00  0.00000000E+00
  0.00000000E+00  0.00000000E+00  0.00000000E+00
  0.00000000E+00  0.00000000E+00  0.00000000E+00
  0.00000000E+00  0.00000000E+00  0.00000000E+00
  0.00000000E+00  0.00000000E+00  0.00000000E+00
  0.00000000E+00  0.00000000E+00  0.00000000E+00
