CONTCAR\(9)                             
   1.00000000000000     
    15.9589004516999999    0.0000000000000000    0.0000000000000000
     0.0000000000000000   15.9589004516999999    0.0000000000000000
     0.0000000000000000    0.0000000000000000   22.3083992004000002
   Al   Pd   I    O 
    16    80    32     1
Direct
  0.1259294217906770  0.1252325826312523  0.5011535814161775
  0.3738053850847119  0.1252241743171638  0.4989659083213273
  0.6262148768515235  0.1252238933493317  0.4989704351242030
  0.8740888283068061  0.1252349325776942  0.5011423307570709
  0.1256573278250218  0.3756136995762974  0.5009341549165460
  0.3754571600824982  0.3753525618119326  0.4993570163481209
  0.6245450134481692  0.3753550714213134  0.4993646399768820
  0.8743421412101665  0.3756211904975247  0.5009339699021245
  0.1245694222307522  0.6246724219581645  0.5005441312505351
  0.3750977046440994  0.6260971754912630  0.4999464694136939
  0.6248784618381990  0.6261007478590583  0.4999481465697008
  0.8754319686533348  0.6246576724683359  0.5005459190916636
  0.1245603666754538  0.8756159084031411  0.5009137911227876
  0.3750173600179193  0.8741608396322531  0.4997040172294266
  0.6250000332341744  0.8741643629601155  0.4997082471158766
  0.8754374187770033  0.8756325633124008  0.5009144122470169
  0.9999972252100449  0.1266818997466690  0.4199089750563084
  0.1248026008781220  0.0011101105578728  0.4200705524249448
  0.1255340787607019  0.0014739243249076  0.5815963801627491
  0.0000092109451657  0.1264816634540708  0.5824628581966640
  0.0000031815573251  0.0024695962701925  0.5011130890013507
  0.2505379483771132  0.1255103401765801  0.4194080094060453
  0.3747919386170186  0.9990004963216482  0.4188319080128485
  0.3758572456328920  0.9993517333739211  0.5803005599806875
  0.2526434775565394  0.1254082881550481  0.5818851343251524
  0.2502276706485471  0.0005704143890484  0.5004143625432823
  0.5000027458109173  0.1229314854832499  0.4221496319497401
  0.6252192386477980  0.9990130741106843  0.4188457399513373
  0.6241615602041874  0.9993511130460396  0.5803005119762640
  0.5000171834222513  0.1232745201554814  0.5735971276928297
  0.5000005167104007  0.9908152928445242  0.4988473782881193
  0.7494675146884141  0.1255078952710683  0.4194157484179371
  0.8751890139202321  0.0011091093445597  0.4200617123612877
  0.8744697873122426  0.0014736872755514  0.5816109955035587
  0.7473607305109836  0.1254102161548026  0.5818650894521767
  0.7497876995301331  0.0005787731188136  0.5004221769990883
  0.9999995538099000  0.3737475037668727  0.4195631029654854
  0.1267848868210233  0.2503217684166568  0.4223992196284467
  0.1275171612859232  0.2502827268121501  0.5801334251628425
  0.0000019318288693  0.3740487971024126  0.5823777509353730
  0.9999950955095258  0.2503430556011160  0.5013822723890903
  0.2508303301764365  0.3749547274889042  0.4196510089401794
  0.3772262914390804  0.2503121152432711  0.4174665808893411
  0.3792465697167823  0.2505340265564394  0.5853332919575200
  0.2521590057875529  0.3751359289644648  0.5814550425800999
  0.2565458254658695  0.2500722808440158  0.5010112288146965
  0.5000010429589636  0.3783477641498746  0.4193303279538506
  0.6227897028683521  0.2503018626826715  0.4174584778194247
  0.6207687649550824  0.2505461686650202  0.5853347443290124
  0.5000075074841490  0.3765538028310257  0.5786966984595222
  0.5000107925196104  0.2531236929659710  0.4998734318089634
  0.7491630331875476  0.3749663136034004  0.4196513770377390
  0.8732268526160399  0.2503389237232152  0.4223893728436547
  0.8724954175320997  0.2502813391473972  0.5801319583550757
  0.7478537621977579  0.3751442110022689  0.5814676480066265
  0.7434660115153604  0.2500823236890781  0.5010153411622505
  0.0000031446298436  0.6243470799152857  0.4206062810215033
  0.1244736449274535  0.4993138729998061  0.4193378814389806
  0.1251609817013774  0.4994525485851546  0.5818238238638085
  0.0000116448417486  0.6243131640297674  0.5809152668228609
  0.9999967510319507  0.4979036974430785  0.5008122781679909
  0.2486630062909676  0.6253624869749624  0.4196059308269787
  0.3744116581735455  0.5017821803345859  0.4194765595735687
  0.3749650616648554  0.5007173738479602  0.5801860880629809
  0.2498121062442739  0.6251610883278537  0.5808503715654675
  0.2490934031155018  0.5000029689918138  0.5002429636798075
  0.4999944548472541  0.6270778912958864  0.4167619201456124
  0.6255928261530640  0.5017897405127121  0.4194806113248303
  0.6250477170426947  0.5007165565671963  0.5801753124408654
  0.4999949513638100  0.6265464339859059  0.5823961583735260
  0.5000016674860888  0.5055616514702985  0.4995969664599370
  0.7513103694052398  0.6253518005049069  0.4196069501467256
  0.8755236711142749  0.4993227150420050  0.4193337344583941
  0.8748410718633435  0.4994722168724272  0.5818288927757405
  0.7501915022670257  0.6251650054004790  0.5808445452080443
  0.7509144054542322  0.4999956262826887  0.5002477210631374
  0.9999981009540804  0.8763078534939048  0.4207842540339887
  0.1238826090666556  0.7503890394239032  0.4193247955554435
  0.1242634455089235  0.7500606571185445  0.5819968652462862
  0.9999876723470607  0.8763045012971085  0.5813794061342517
  0.0000083643455895  0.7504031779760484  0.5008534111405536
  0.2488717480362386  0.8753585998516439  0.4196440423156718
  0.3736019427115882  0.7501071324043473  0.4197987311072862
  0.3742841286365144  0.7504026611779429  0.5802874322359290
  0.2496392460516665  0.8754418524411253  0.5811461405067125
  0.2477523753678142  0.7504470515499391  0.5004001360852826
  0.5000098412741991  0.8727026393878143  0.4152307153684643
  0.6263963268887730  0.7501150316979897  0.4198091005705262
  0.6257294939301833  0.7504177461467085  0.5802808200787357
  0.4999920922876555  0.8736176287988290  0.5832331065925492
  0.4999938496589564  0.7503375204828898  0.4997049315464729
  0.7511272921448561  0.8753751489054334  0.4196435184593925
  0.8761353009882378  0.7503674954872703  0.4193222427340013
  0.8757524831825018  0.7500587698390563  0.5819956199742621
  0.7503778245546168  0.8754317638347945  0.5811387892757570
  0.7522584405139796  0.7504644040332222  0.5004027091539953
  0.9999927438697256  0.0007938131601357  0.3345573191070109
  0.9999870255236303  0.0006309090110833  0.6669614331107160
  0.2494406220896963  0.0003340717683566  0.3340719592317539
  0.2507944673045597  0.0000481961982907  0.6665603364614604
  0.4999961167580409  0.0015468163269690  0.3332263580496527
  0.4999998129838588  0.0069290403074536  0.6653738902800310
  0.7505628837022482  0.0003334339517802  0.3340599716365885
  0.7491995525243228  0.0000654174647374  0.6665610355125388
  0.0000283508594237  0.2500927374729314  0.3350188547643330
  0.9999990589681005  0.2502331345300947  0.6667479753581316
  0.2493155037387418  0.2502050983491562  0.3342205787422156
  0.2512144048282191  0.2506195796807703  0.6667664161451349
  0.5000033223377045  0.2506245319859230  0.3330453567333874
  0.5000051067260003  0.2469556363763688  0.6703515925090946
  0.7506970807418663  0.2502299327837539  0.3342074467322686
  0.7487901103796224  0.2506177817771203  0.6667675581318072
  0.9999946117306706  0.4997742867021318  0.3339855461290101
  0.0000050905118840  0.4999899953208991  0.6670419738568827
  0.2497562891879777  0.5001198518043954  0.3341184267266612
  0.2507615050429998  0.5003562911661825  0.6663652318816259
  0.4999936041085888  0.5012823448630718  0.3332100618550919
  0.5000321656654805  0.4982296511520337  0.6635985934158438
  0.7502243242738662  0.5000927091092853  0.3341214793108448
  0.7492467860626938  0.5003802349845523  0.6663741070541375
  0.0000021078211105  0.7503466025149793  0.3342348829270669
  0.0000058584900202  0.7500781064038918  0.6668440369685439
  0.2493480816884499  0.7502810024704460  0.3340207218646399
  0.2501271240068300  0.7500583012725446  0.6664293458298388
  0.4999977910630307  0.7498624769550565  0.3323146780037295
  0.5000029922629849  0.7501551963609265  0.6674064422222044
  0.7506280779021240  0.7503246961454921  0.3340411065916201
  0.7498678822894440  0.7500631465067744  0.6664242091612408
  0.4999899541999682  0.3387454452909394  0.7238663546139910
 
  0.00000000E+00  0.00000000E+00  0.00000000E+00
  0.00000000E+00  0.00000000E+00  0.00000000E+00
  0.00000000E+00  0.00000000E+00  0.00000000E+00
  0.00000000E+00  0.00000000E+00  0.00000000E+00
  0.00000000E+00  0.00000000E+00  0.00000000E+00
  0.00000000E+00  0.00000000E+00  0.00000000E+00
  0.00000000E+00  0.00000000E+00  0.00000000E+00
  0.00000000E+00  0.00000000E+00  0.00000000E+00
  0.00000000E+00  0.00000000E+00  0.00000000E+00
  0.00000000E+00  0.00000000E+00  0.00000000E+00
  0.00000000E+00  0.00000000E+00  0.00000000E+00
  0.00000000E+00  0.00000000E+00  0.00000000E+00
  0.00000000E+00  0.00000000E+00  0.00000000E+00
  0.00000000E+00  0.00000000E+00  0.00000000E+00
  0.00000000E+00  0.00000000E+00  0.00000000E+00
  0.00000000E+00  0.00000000E+00  0.00000000E+00
  0.00000000E+00  0.00000000E+00  0.00000000E+00
  0.00000000E+00  0.00000000E+00  0.00000000E+00
  0.00000000E+00  0.00000000E+00  0.00000000E+00
  0.00000000E+00  0.00000000E+00  0.00000000E+00
  0.00000000E+00  0.00000000E+00  0.00000000E+00
  0.00000000E+00  0.00000000E+00  0.00000000E+00
  0.00000000E+00  0.00000000E+00  0.00000000E+00
  0.00000000E+00  0.00000000E+00  0.00000000E+00
  0.00000000E+00  0.00000000E+00  0.00000000E+00
  0.00000000E+00  0.00000000E+00  0.00000000E+00
  0.00000000E+00  0.00000000E+00  0.00000000E+00
  0.00000000E+00  0.00000000E+00  0.00000000E+00
  0.00000000E+00  0.00000000E+00  0.00000000E+00
  0.00000000E+00  0.00000000E+00  0.00000000E+00
  0.00000000E+00  0.00000000E+00  0.00000000E+00
  0.00000000E+00  0.00000000E+00  0.00000000E+00
  0.00000000E+00  0.00000000E+00  0.00000000E+00
  0.00000000E+00  0.00000000E+00  0.00000000E+00
  0.00000000E+00  0.00000000E+00  0.00000000E+00
  0.00000000E+00  0.00000000E+00  0.00000000E+00
  0.00000000E+00  0.00000000E+00  0.00000000E+00
  0.00000000E+00  0.00000000E+00  0.00000000E+00
  0.00000000E+00  0.00000000E+00  0.00000000E+00
  0.00000000E+00  0.00000000E+00  0.00000000E+00
  0.00000000E+00  0.00000000E+00  0.00000000E+00
  0.00000000E+00  0.00000000E+00  0.00000000E+00
  0.00000000E+00  0.00000000E+00  0.00000000E+00
  0.00000000E+00  0.00000000E+00  0.00000000E+00
  0.00000000E+00  0.00000000E+00  0.00000000E+00
  0.00000000E+00  0.00000000E+00  0.00000000E+00
  0.00000000E+00  0.00000000E+00  0.00000000E+00
  0.00000000E+00  0.00000000E+00  0.00000000E+00
  0.00000000E+00  0.00000000E+00  0.00000000E+00
  0.00000000E+00  0.00000000E+00  0.00000000E+00
  0.00000000E+00  0.00000000E+00  0.00000000E+00
  0.00000000E+00  0.00000000E+00  0.00000000E+00
  0.00000000E+00  0.00000000E+00  0.00000000E+00
  0.00000000E+00  0.00000000E+00  0.00000000E+00
  0.00000000E+00  0.00000000E+00  0.00000000E+00
  0.00000000E+00  0.00000000E+00  0.00000000E+00
  0.00000000E+00  0.00000000E+00  0.00000000E+00
  0.00000000E+00  0.00000000E+00  0.00000000E+00
  0.00000000E+00  0.00000000E+00  0.00000000E+00
  0.00000000E+00  0.00000000E+00  0.00000000E+00
  0.00000000E+00  0.00000000E+00  0.00000000E+00
  0.00000000E+00  0.00000000E+00  0.00000000E+00
  0.00000000E+00  0.00000000E+00  0.00000000E+00
  0.00000000E+00  0.00000000E+00  0.00000000E+00
  0.00000000E+00  0.00000000E+00  0.00000000E+00
  0.00000000E+00  0.00000000E+00  0.00000000E+00
  0.00000000E+00  0.00000000E+00  0.00000000E+00
  0.00000000E+00  0.00000000E+00  0.00000000E+00
  0.00000000E+00  0.00000000E+00  0.00000000E+00
  0.00000000E+00  0.00000000E+00  0.00000000E+00
  0.00000000E+00  0.00000000E+00  0.00000000E+00
  0.00000000E+00  0.00000000E+00  0.00000000E+00
  0.00000000E+00  0.00000000E+00  0.00000000E+00
  0.00000000E+00  0.00000000E+00  0.00000000E+00
  0.00000000E+00  0.00000000E+00  0.00000000E+00
  0.00000000E+00  0.00000000E+00  0.00000000E+00
  0.00000000E+00  0.00000000E+00  0.00000000E+00
  0.00000000E+00  0.00000000E+00  0.00000000E+00
  0.00000000E+00  0.00000000E+00  0.00000000E+00
  0.00000000E+00  0.00000000E+00  0.00000000E+00
  0.00000000E+00  0.00000000E+00  0.00000000E+00
  0.00000000E+00  0.00000000E+00  0.00000000E+00
  0.00000000E+00  0.00000000E+00  0.00000000E+00
  0.00000000E+00  0.00000000E+00  0.00000000E+00
  0.00000000E+00  0.00000000E+00  0.00000000E+00
  0.00000000E+00  0.00000000E+00  0.00000000E+00
  0.00000000E+00  0.00000000E+00  0.00000000E+00
  0.00000000E+00  0.00000000E+00  0.00000000E+00
  0.00000000E+00  0.00000000E+00  0.00000000E+00
  0.00000000E+00  0.00000000E+00  0.00000000E+00
  0.00000000E+00  0.00000000E+00  0.00000000E+00
  0.00000000E+00  0.00000000E+00  0.00000000E+00
  0.00000000E+00  0.00000000E+00  0.00000000E+00
  0.00000000E+00  0.00000000E+00  0.00000000E+00
  0.00000000E+00  0.00000000E+00  0.00000000E+00
  0.00000000E+00  0.00000000E+00  0.00000000E+00
  0.00000000E+00  0.00000000E+00  0.00000000E+00
  0.00000000E+00  0.00000000E+00  0.00000000E+00
  0.00000000E+00  0.00000000E+00  0.00000000E+00
  0.00000000E+00  0.00000000E+00  0.00000000E+00
  0.00000000E+00  0.00000000E+00  0.00000000E+00
  0.00000000E+00  0.00000000E+00  0.00000000E+00
  0.00000000E+00  0.00000000E+00  0.00000000E+00
  0.00000000E+00  0.00000000E+00  0.00000000E+00
  0.00000000E+00  0.00000000E+00  0.00000000E+00
  0.00000000E+00  0.00000000E+00  0.00000000E+00
  0.00000000E+00  0.00000000E+00  0.00000000E+00
  0.00000000E+00  0.00000000E+00  0.00000000E+00
  0.00000000E+00  0.00000000E+00  0.00000000E+00
  0.00000000E+00  0.00000000E+00  0.00000000E+00
  0.00000000E+00  0.00000000E+00  0.00000000E+00
  0.00000000E+00  0.00000000E+00  0.00000000E+00
  0.00000000E+00  0.00000000E+00  0.00000000E+00
  0.00000000E+00  0.00000000E+00  0.00000000E+00
  0.00000000E+00  0.00000000E+00  0.00000000E+00
  0.00000000E+00  0.00000000E+00  0.00000000E+00
  0.00000000E+00  0.00000000E+00  0.00000000E+00
  0.00000000E+00  0.00000000E+00  0.00000000E+00
  0.00000000E+00  0.00000000E+00  0.00000000E+00
  0.00000000E+00  0.00000000E+00  0.00000000E+00
  0.00000000E+00  0.00000000E+00  0.00000000E+00
  0.00000000E+00  0.00000000E+00  0.00000000E+00
  0.00000000E+00  0.00000000E+00  0.00000000E+00
  0.00000000E+00  0.00000000E+00  0.00000000E+00
  0.00000000E+00  0.00000000E+00  0.00000000E+00
  0.00000000E+00  0.00000000E+00  0.00000000E+00
  0.00000000E+00  0.00000000E+00  0.00000000E+00
  0.00000000E+00  0.00000000E+00  0.00000000E+00
  0.00000000E+00  0.00000000E+00  0.00000000E+00
