CONTCAR\(3)                             
   1.00000000000000     
    11.2130002975000007    0.0000000000000000    0.0000000000000000
     0.0000000000000000   15.4723997115999996    0.0000000000000000
     0.0000000000000000    0.0000000000000000   19.4957008362000010
   Ta   Te   Pt   O    H 
     6    30     6     1     1
Direct
  0.0013807008171483  0.2506708834067566  0.5012559709366593
  0.9993413707061188  0.7508350656685711  0.4990189106056673
  0.3336245321804496  0.2509809682024781  0.4995482640124716
  0.3332983822289641  0.7510602616354548  0.5152556213555812
  0.6659611117036355  0.2506813109919562  0.5011844389479135
  0.6672548559812955  0.7508578920205046  0.4991569483646684
  0.1684093411507627  0.2503394966263296  0.6125099308380157
  0.1737956681566143  0.7507634916927104  0.3931987113669197
  0.9990219100590279  0.9156367554593764  0.4253591944504244
  0.9987505237114722  0.0859703548631037  0.5741909154316804
  0.1676314929873738  0.1488978826583113  0.4229129437565948
  0.1552722197860101  0.8621093294225671  0.5766112261114520
  0.1543637823867303  0.6403705197010242  0.5768303076046339
  0.1673411575164941  0.3540193677818537  0.4237878077444767
  0.9985285855560321  0.5852999123522616  0.4252152409331205
  0.9984979355303789  0.4150342293524901  0.5747624661953955
  0.4989588961226930  0.2503078408722806  0.6124440469696496
  0.4929593084955095  0.7507015756329650  0.3931118671051912
  0.3332607256936703  0.9121418507130303  0.4314088629212287
  0.3332132099093832  0.0862510962555674  0.5726426285614957
  0.4995174679555042  0.1487979631359584  0.4229259984241884
  0.5114559139249124  0.8621307774711220  0.5766516328693995
  0.5120311317772325  0.6404340577562916  0.5770330430956349
  0.4999231313948445  0.3539473995588965  0.4238343415019962
  0.3333173880763149  0.5896427603846057  0.4322001755742110
  0.3334882741185865  0.4152683018111842  0.5733244918550545
  0.8336113448466352  0.2504753988829496  0.6129184841321796
  0.8332295036768600  0.7502455846818862  0.3874338716648011
  0.6677638077969152  0.9157296362760712  0.4253088068533170
  0.6682053789366672  0.0859954813971517  0.5742311972464470
  0.8337061248342045  0.1491392804350283  0.4249107127506617
  0.8334807513520854  0.8534198983650919  0.5750603969396306
  0.8333612820829182  0.6489194829718667  0.5754844933612993
  0.8336588427115704  0.3526665637195383  0.4254111781252123
  0.6679134404539857  0.5854773240919735  0.4253883353107158
  0.6684509330922613  0.4150460737183295  0.5746648553665169
  0.1635653606079311  0.0029048280537858  0.4983668901582509
  0.1637512662692752  0.4991595704439253  0.4995959264050087
  0.5030598151063779  0.0028898200538377  0.4985006974444597
  0.5030074857210834  0.4991516875260997  0.4995715406465858
  0.8334217668181593  0.0008963041129025  0.4996429244003002
  0.8333147097276514  0.5006733435871900  0.5003265058293743
  0.3332966692474438  0.7618783253723127  0.6271171886645052
  0.3301427757907998  0.7070598658824395  0.6524101941670344
 
  0.00000000E+00  0.00000000E+00  0.00000000E+00
  0.00000000E+00  0.00000000E+00  0.00000000E+00
  0.00000000E+00  0.00000000E+00  0.00000000E+00
  0.00000000E+00  0.00000000E+00  0.00000000E+00
  0.00000000E+00  0.00000000E+00  0.00000000E+00
  0.00000000E+00  0.00000000E+00  0.00000000E+00
  0.00000000E+00  0.00000000E+00  0.00000000E+00
  0.00000000E+00  0.00000000E+00  0.00000000E+00
  0.00000000E+00  0.00000000E+00  0.00000000E+00
  0.00000000E+00  0.00000000E+00  0.00000000E+00
  0.00000000E+00  0.00000000E+00  0.00000000E+00
  0.00000000E+00  0.00000000E+00  0.00000000E+00
  0.00000000E+00  0.00000000E+00  0.00000000E+00
  0.00000000E+00  0.00000000E+00  0.00000000E+00
  0.00000000E+00  0.00000000E+00  0.00000000E+00
  0.00000000E+00  0.00000000E+00  0.00000000E+00
  0.00000000E+00  0.00000000E+00  0.00000000E+00
  0.00000000E+00  0.00000000E+00  0.00000000E+00
  0.00000000E+00  0.00000000E+00  0.00000000E+00
  0.00000000E+00  0.00000000E+00  0.00000000E+00
  0.00000000E+00  0.00000000E+00  0.00000000E+00
  0.00000000E+00  0.00000000E+00  0.00000000E+00
  0.00000000E+00  0.00000000E+00  0.00000000E+00
  0.00000000E+00  0.00000000E+00  0.00000000E+00
  0.00000000E+00  0.00000000E+00  0.00000000E+00
  0.00000000E+00  0.00000000E+00  0.00000000E+00
  0.00000000E+00  0.00000000E+00  0.00000000E+00
  0.00000000E+00  0.00000000E+00  0.00000000E+00
  0.00000000E+00  0.00000000E+00  0.00000000E+00
  0.00000000E+00  0.00000000E+00  0.00000000E+00
  0.00000000E+00  0.00000000E+00  0.00000000E+00
  0.00000000E+00  0.00000000E+00  0.00000000E+00
  0.00000000E+00  0.00000000E+00  0.00000000E+00
  0.00000000E+00  0.00000000E+00  0.00000000E+00
  0.00000000E+00  0.00000000E+00  0.00000000E+00
  0.00000000E+00  0.00000000E+00  0.00000000E+00
  0.00000000E+00  0.00000000E+00  0.00000000E+00
  0.00000000E+00  0.00000000E+00  0.00000000E+00
  0.00000000E+00  0.00000000E+00  0.00000000E+00
  0.00000000E+00  0.00000000E+00  0.00000000E+00
  0.00000000E+00  0.00000000E+00  0.00000000E+00
  0.00000000E+00  0.00000000E+00  0.00000000E+00
  0.00000000E+00  0.00000000E+00  0.00000000E+00
  0.00000000E+00  0.00000000E+00  0.00000000E+00
