 Y2 Te6                                 
   1.00000000000000     
     4.3132208351626771    0.0000000000000000    0.0000000000000000
     0.0000000000000000    4.3135870156515281    0.0000000000000000
     0.0000000000000000    0.0000000000000000   24.2109930492160004
   Y    Te
     2     6
Direct
  0.9999999863622762  0.5000000117914425  0.5853741925957650
  0.5000000049715823  0.9999999843043028  0.4146260883581050
  0.5000000048814783  0.5000000023487274  0.3104682993058105
  0.0000000025785027  0.0000000001406661  0.6895320224967278
  0.5000000019598971  0.4999999996811368  0.6895314830017938
  0.0000000052851021  0.0000000034386787  0.3104688400086317
  0.0000000013858710  0.4999999919847653  0.4533972104805386
  0.4999999925752974  0.0000000063102874  0.5466030705009715
 
  0.00000000E+00  0.00000000E+00  0.00000000E+00
  0.00000000E+00  0.00000000E+00  0.00000000E+00
  0.00000000E+00  0.00000000E+00  0.00000000E+00
  0.00000000E+00  0.00000000E+00  0.00000000E+00
  0.00000000E+00  0.00000000E+00  0.00000000E+00
  0.00000000E+00  0.00000000E+00  0.00000000E+00
  0.00000000E+00  0.00000000E+00  0.00000000E+00
  0.00000000E+00  0.00000000E+00  0.00000000E+00
