CONTCAR\(7)                             
   1.00000000000000     
    14.4153003693000006    0.0000000000000000    0.0000000000000000
     0.0000000000000000   14.4153003693000006    0.0000000000000000
     0.0000000000000000    0.0000000000000000   17.7828998566000003
   Co   Se   O 
    32    32     1
Direct
 -0.0004079646959795  0.0000000000000000  0.5005515645004101
  0.1255344603744968  0.1237914241872041  0.5019784018933688
  0.2511965708287746  0.0000000000000000  0.5002770224997225
  0.3743023759938768  0.1282037091718351  0.4969535990304667
  0.4988624316514444  0.0000000000000000  0.4963126474254393
  0.6251341586117874  0.1243290610723835  0.4984315484831616
  0.7496637437084686  0.0000000000000000  0.4990808043871337
  0.8749841448962707  0.1237002281364785  0.5006233894267929
  0.9992869734131402  0.2472613245234007  0.4985761137112060
  0.1194753184724939  0.3747724470107585  0.4933978936321435
  0.2477542353342681  0.2521630776764904  0.5036379131633921
  0.3803218863507941  0.3884920246215549  0.5181801284344619
  0.5017817491139306  0.2496914940069404  0.5004428028867440
  0.6275004822318475  0.3702707960342873  0.5061911309513504
  0.7510633170918952  0.2480567772577486  0.4995360169951165
  0.8741051195490942  0.3734604727177133  0.4968343198764223
  0.9962822570587129  0.5000000000000000  0.4965639114594702
  0.1194753184724939  0.6252275529892413  0.4933978936321435
  0.2404461754755550  0.5000000000000000  0.4928257200113821
  0.3803218863507941  0.6115079753784454  0.5181801284344619
  0.5128197424623895  0.5000000000000000  0.5371688500183579
  0.6275004822318475  0.6297292039657126  0.5061911309513504
  0.7482104398211570  0.5000000000000000  0.5038286434332419
  0.8741051195490942  0.6265395272822870  0.4968343198764223
  0.9992869734131402  0.7527387084765981  0.4985761137112060
  0.1255344603744968  0.8762085928127936  0.5019784018933688
  0.2477542353342681  0.7478369553235086  0.5036379131633921
  0.3743023759938768  0.8717963078281626  0.4969535990304667
  0.5017817491139306  0.7503085389930587  0.5004428028867440
  0.6251341586117874  0.8756709559276142  0.4984315484831616
  0.7510633170918952  0.7519432557422502  0.4995360169951165
  0.8749841448962707  0.8762997888635192  0.5006233894267929
 -0.0001245548770397  0.1244756376933728  0.5823368887915844
  0.1252960248752061  0.0000000000000000  0.4199129810743022
  0.2523059367400476  0.1252735317717135  0.5818415097237881
  0.3731634944688015  0.0000000000000000  0.4171478183582070
  0.4988659973817174  0.1227291157896376  0.5789164431960967
  0.6253699924459489  0.0000000000000000  0.4166290148230395
  0.7493268885927593  0.1238072528836417  0.5810843360102306
  0.8752926351424772  0.0000000000000000  0.4183881456303680
  0.9985922185770196  0.3744990653881567  0.5778323732657380
  0.1261337885966901  0.2464804358484675  0.4180023746085287
  0.2386555177292619  0.3788415695193077  0.5805863976493310
  0.3739138466293067  0.2668582629796237  0.4264483129751412
  0.5137222345814259  0.3560132403195650  0.5959509442855250
  0.6254358132101996  0.2515537321534569  0.4183383502959080
  0.7549352308124528  0.3723281878292198  0.5828870789617779
  0.8746335021622796  0.2468433943038467  0.4171671983427776
  0.9985922185770196  0.6255009346118432  0.5778323732657380
  0.1180964434785715  0.5000000000000000  0.4111019677586392
  0.2386555177292619  0.6211584304806920  0.5805863976493310
  0.3676244660826761  0.5000000000000000  0.4185741421767735
  0.5137222345814259  0.6439867596804351  0.5959509442855250
  0.6125068109275104  0.5000000000000000  0.4321359235341728
  0.7549352308124528  0.6276718121707802  0.5828870789617779
  0.8685002259157047  0.5000000000000000  0.4176830797974664
 -0.0001245548770397  0.8755243793066250  0.5823368887915844
  0.1261337885966901  0.7535195971515317  0.4180023746085287
  0.2523059367400476  0.8747264852282842  0.5818415097237881
  0.3739138466293067  0.7331417700203755  0.4264483129751412
  0.4988659973817174  0.8772709012103601  0.5789164431960967
  0.6254358132101996  0.7484463008465425  0.4183383502959080
  0.7493268885927593  0.8761927641163560  0.5810843360102306
  0.8746335021622796  0.7531566386961523  0.4171671983427776
  0.3969956362125421  0.5000500149999993  0.5788472739297290
 
  0.00000000E+00  0.00000000E+00  0.00000000E+00
  0.00000000E+00  0.00000000E+00  0.00000000E+00
  0.00000000E+00  0.00000000E+00  0.00000000E+00
  0.00000000E+00  0.00000000E+00  0.00000000E+00
  0.00000000E+00  0.00000000E+00  0.00000000E+00
  0.00000000E+00  0.00000000E+00  0.00000000E+00
  0.00000000E+00  0.00000000E+00  0.00000000E+00
  0.00000000E+00  0.00000000E+00  0.00000000E+00
  0.00000000E+00  0.00000000E+00  0.00000000E+00
  0.00000000E+00  0.00000000E+00  0.00000000E+00
  0.00000000E+00  0.00000000E+00  0.00000000E+00
  0.00000000E+00  0.00000000E+00  0.00000000E+00
  0.00000000E+00  0.00000000E+00  0.00000000E+00
  0.00000000E+00  0.00000000E+00  0.00000000E+00
  0.00000000E+00  0.00000000E+00  0.00000000E+00
  0.00000000E+00  0.00000000E+00  0.00000000E+00
  0.00000000E+00  0.00000000E+00  0.00000000E+00
  0.00000000E+00  0.00000000E+00  0.00000000E+00
  0.00000000E+00  0.00000000E+00  0.00000000E+00
  0.00000000E+00  0.00000000E+00  0.00000000E+00
  0.00000000E+00  0.00000000E+00  0.00000000E+00
  0.00000000E+00  0.00000000E+00  0.00000000E+00
  0.00000000E+00  0.00000000E+00  0.00000000E+00
  0.00000000E+00  0.00000000E+00  0.00000000E+00
  0.00000000E+00  0.00000000E+00  0.00000000E+00
  0.00000000E+00  0.00000000E+00  0.00000000E+00
  0.00000000E+00  0.00000000E+00  0.00000000E+00
  0.00000000E+00  0.00000000E+00  0.00000000E+00
  0.00000000E+00  0.00000000E+00  0.00000000E+00
  0.00000000E+00  0.00000000E+00  0.00000000E+00
  0.00000000E+00  0.00000000E+00  0.00000000E+00
  0.00000000E+00  0.00000000E+00  0.00000000E+00
  0.00000000E+00  0.00000000E+00  0.00000000E+00
  0.00000000E+00  0.00000000E+00  0.00000000E+00
  0.00000000E+00  0.00000000E+00  0.00000000E+00
  0.00000000E+00  0.00000000E+00  0.00000000E+00
  0.00000000E+00  0.00000000E+00  0.00000000E+00
  0.00000000E+00  0.00000000E+00  0.00000000E+00
  0.00000000E+00  0.00000000E+00  0.00000000E+00
  0.00000000E+00  0.00000000E+00  0.00000000E+00
  0.00000000E+00  0.00000000E+00  0.00000000E+00
  0.00000000E+00  0.00000000E+00  0.00000000E+00
  0.00000000E+00  0.00000000E+00  0.00000000E+00
  0.00000000E+00  0.00000000E+00  0.00000000E+00
  0.00000000E+00  0.00000000E+00  0.00000000E+00
  0.00000000E+00  0.00000000E+00  0.00000000E+00
  0.00000000E+00  0.00000000E+00  0.00000000E+00
  0.00000000E+00  0.00000000E+00  0.00000000E+00
  0.00000000E+00  0.00000000E+00  0.00000000E+00
  0.00000000E+00  0.00000000E+00  0.00000000E+00
  0.00000000E+00  0.00000000E+00  0.00000000E+00
  0.00000000E+00  0.00000000E+00  0.00000000E+00
  0.00000000E+00  0.00000000E+00  0.00000000E+00
  0.00000000E+00  0.00000000E+00  0.00000000E+00
  0.00000000E+00  0.00000000E+00  0.00000000E+00
  0.00000000E+00  0.00000000E+00  0.00000000E+00
  0.00000000E+00  0.00000000E+00  0.00000000E+00
  0.00000000E+00  0.00000000E+00  0.00000000E+00
  0.00000000E+00  0.00000000E+00  0.00000000E+00
  0.00000000E+00  0.00000000E+00  0.00000000E+00
  0.00000000E+00  0.00000000E+00  0.00000000E+00
  0.00000000E+00  0.00000000E+00  0.00000000E+00
  0.00000000E+00  0.00000000E+00  0.00000000E+00
  0.00000000E+00  0.00000000E+00  0.00000000E+00
  0.00000000E+00  0.00000000E+00  0.00000000E+00
