CONTCAR\(7)                             
   1.00000000000000     
    12.5420999526999992    0.0000000000000000    0.0000000000000000
     0.0000000000000000   15.8683996200999999    0.0000000000000000
     0.0000000000000000    0.0000000000000000   20.3181991577000005
   La   Br   O 
    12    30     1
Direct
  0.2522383927894668  0.8442151133203875  0.4586567645747448
  0.0832284626502761  0.1137089922139853  0.5088415757888592
  0.2528035638265881  0.3525133157652510  0.4719010481633652
  0.0880068650199104  0.6039590862794029  0.5328490121194260
  0.5802384755633097  0.8441256372189555  0.4583557013347301
  0.4167415659829569  0.1187901363588282  0.5112477880794234
  0.5814826716940014  0.3520936722011882  0.4708952033897562
  0.4161412668276815  0.6891138773849966  0.6950951760652677
  0.9164100650887580  0.8362329898588885  0.4700506123481027
  0.7504293212932525  0.1134764608960430  0.5083302805879909
  0.9168474582646250  0.3419892383911101  0.4661738584237879
  0.7448703396210802  0.6039097377541331  0.5325887375467341
  0.2176395949394191  0.5923602568780084  0.6506999962605132
  0.0855114471809468  0.3632039588217513  0.3683721391341717
  0.2515139641632426  0.9908752459043767  0.5617938481298835
  0.0797372909966689  0.9605216082340097  0.4073912524139147
  0.0772651004448442  0.4133536456805499  0.5644987507407955
  0.2580764819284765  0.5429288904319496  0.4493896294190227
  0.0849882329864896  0.7269690480108010  0.4013910349284595
  0.2454848199120610  0.2164946720055151  0.5860556756402309
  0.0971132202009548  0.7942997625331205  0.5685789104547528
  0.2494812702530303  0.1685694274440652  0.4110754318575637
  0.6139352161630238  0.5917115750381311  0.6497097483604740
  0.4164316707255446  0.3615962331326489  0.3685520696243151
  0.5819696445038364  0.9908422819036449  0.5615086277836571
  0.4161475253008323  0.9728587295472594  0.4077802346541312
  0.4180339422770500  0.4066941008245511  0.5666153470611425
  0.5763932292091808  0.5426330225559562  0.4480876613526407
  0.4158714029770905  0.7497963149215428  0.3819193681531966
  0.5890344903920042  0.2164845424918993  0.5854887706849139
  0.4165577086423828  0.7922311358855579  0.5592610475878723
  0.5834591543128842  0.1677645502393419  0.4105805516918024
  0.9163849962657559  0.6063314410010406  0.6306605536089278
  0.7491245810446907  0.3622515101253672  0.3675266385757229
  0.9167612701995700  0.9881206019030434  0.5653380403712683
  0.7531487552176964  0.9603914371834601  0.4071213507485810
  0.7558593722503949  0.4132629583300658  0.5640739666932854
  0.9164465131675208  0.5382211415157814  0.4409141987308684
  0.7479235816069502  0.7273288438314347  0.4011060081101730
  0.9165283384858925  0.2147233583046629  0.5836397992861952
  0.7352810289781329  0.7942315941824132  0.5682997046529431
  0.9171036808589816  0.1623048661729639  0.4076240419758344
  0.4159644317925810  0.7518347383219178  0.7717600228905325
 
  0.00000000E+00  0.00000000E+00  0.00000000E+00
  0.00000000E+00  0.00000000E+00  0.00000000E+00
  0.00000000E+00  0.00000000E+00  0.00000000E+00
  0.00000000E+00  0.00000000E+00  0.00000000E+00
  0.00000000E+00  0.00000000E+00  0.00000000E+00
  0.00000000E+00  0.00000000E+00  0.00000000E+00
  0.00000000E+00  0.00000000E+00  0.00000000E+00
  0.00000000E+00  0.00000000E+00  0.00000000E+00
  0.00000000E+00  0.00000000E+00  0.00000000E+00
  0.00000000E+00  0.00000000E+00  0.00000000E+00
  0.00000000E+00  0.00000000E+00  0.00000000E+00
  0.00000000E+00  0.00000000E+00  0.00000000E+00
  0.00000000E+00  0.00000000E+00  0.00000000E+00
  0.00000000E+00  0.00000000E+00  0.00000000E+00
  0.00000000E+00  0.00000000E+00  0.00000000E+00
  0.00000000E+00  0.00000000E+00  0.00000000E+00
  0.00000000E+00  0.00000000E+00  0.00000000E+00
  0.00000000E+00  0.00000000E+00  0.00000000E+00
  0.00000000E+00  0.00000000E+00  0.00000000E+00
  0.00000000E+00  0.00000000E+00  0.00000000E+00
  0.00000000E+00  0.00000000E+00  0.00000000E+00
  0.00000000E+00  0.00000000E+00  0.00000000E+00
  0.00000000E+00  0.00000000E+00  0.00000000E+00
  0.00000000E+00  0.00000000E+00  0.00000000E+00
  0.00000000E+00  0.00000000E+00  0.00000000E+00
  0.00000000E+00  0.00000000E+00  0.00000000E+00
  0.00000000E+00  0.00000000E+00  0.00000000E+00
  0.00000000E+00  0.00000000E+00  0.00000000E+00
  0.00000000E+00  0.00000000E+00  0.00000000E+00
  0.00000000E+00  0.00000000E+00  0.00000000E+00
  0.00000000E+00  0.00000000E+00  0.00000000E+00
  0.00000000E+00  0.00000000E+00  0.00000000E+00
  0.00000000E+00  0.00000000E+00  0.00000000E+00
  0.00000000E+00  0.00000000E+00  0.00000000E+00
  0.00000000E+00  0.00000000E+00  0.00000000E+00
  0.00000000E+00  0.00000000E+00  0.00000000E+00
  0.00000000E+00  0.00000000E+00  0.00000000E+00
  0.00000000E+00  0.00000000E+00  0.00000000E+00
  0.00000000E+00  0.00000000E+00  0.00000000E+00
  0.00000000E+00  0.00000000E+00  0.00000000E+00
  0.00000000E+00  0.00000000E+00  0.00000000E+00
  0.00000000E+00  0.00000000E+00  0.00000000E+00
  0.00000000E+00  0.00000000E+00  0.00000000E+00
