CONTCAR                                 
   1.00000000000000     
    12.4780998230000009    0.0000000000000000    0.0000000000000000
     0.0000000000000000   15.4434003830000002    0.0000000000000000
     0.0000000000000000    0.0000000000000000   19.6900997161999989
   Nb   Co   Te   O    H 
    16    16    32     1     1
Direct
  0.2379337958313933  0.1263393340968822  0.4971574433176679
  0.2564841862095721  0.3255347895535353  0.5073287946169751
  0.4875531359432593  0.0748446351929964  0.5097454627677700
  0.0062051273864472  0.3761291630120231  0.4954660038547640
  0.7380721340002013  0.1260406151891630  0.4976519960881307
  0.7542700729519027  0.3266349050431406  0.5082188661648976
  0.9878127249152009  0.0747962243088924  0.5100670158932417
  0.5066213715569652  0.3769761932863741  0.4950345033121545
  0.2374417741465518  0.6254423217376108  0.4939134736481460
  0.2542546717763647  0.8252507421291603  0.5085649745622250
  0.4893671014098744  0.5748078239944098  0.4973235073858175
  0.0042559610636947  0.8759021368546448  0.4966171483557416
  0.7370504132990150  0.6243643280638908  0.4965886339976596
  0.7529696724932732  0.8244152723713494  0.5084351225134226
  0.9888599274043010  0.5755853697035203  0.5064239747036731
  0.5042518100285374  0.8744308004681771  0.4976771577347596
  0.4247647806429243  0.2288224039862105  0.4616638636404435
  0.1747547338301980  0.4723485021508372  0.5412979609970232
  0.3178390300796498  0.4778591855039153  0.4573623191925781
  0.0701847629611226  0.2231455640780884  0.5439154974863811
  0.9250706661453519  0.2283106900974398  0.4616099375902167
  0.6754054622520635  0.4785451297680957  0.5462392687993152
  0.8201356130073119  0.4768351301635061  0.4614952974312726
  0.5696808976233994  0.2229197990212251  0.5439578126854475
  0.4228078240288547  0.7281610571277413  0.4601120346035666
  0.1739100005944078  0.9725961105927762  0.5445259405347075
  0.3191479262093795  0.9785949943449321  0.4621223515373800
  0.0718186981469643  0.7233084144892430  0.5424270198557243
  0.9244610237017861  0.7278542495993908  0.4604230755575971
  0.6729174016107607  0.9724518773631152  0.5448691873307561
  0.8183943599018809  0.9779968756406461  0.4624611165037992
  0.5688735748583915  0.7162056727148224  0.5458808949607997
  0.1230838693533558  0.4925500658853797  0.4120796502204506
  0.3709036444489746  0.3531328239059687  0.3820371984979435
  0.1217375074630047  0.3477999736517989  0.6203195332459118
  0.3743453866883832  0.2095246209924417  0.5903099832711676
  0.3739848165552225  0.1044039428659478  0.3846405465413621
  0.1239222242668656  0.0970966323173702  0.6220814186922771
  0.1198194037310275  0.2423422644357198  0.4147059848518872
  0.3715035953907357  0.4637819197368274  0.5856047525567868
  0.6291559756256280  0.4867851402549633  0.4113801889201376
  0.8704328604586613  0.3531986823977795  0.3833292110854142
  0.6184561909834532  0.3485762153973021  0.6204640671183118
  0.8743564836821773  0.2102354321760688  0.5899032918494643
  0.8741002543014668  0.1038722591864607  0.3850151199564053
  0.6233466621349555  0.0969586248657206  0.6223404771151393
  0.6199807802263192  0.2405615370920567  0.4152209847420704
  0.8703032223546913  0.4597465881650059  0.5893256478120322
  0.1237475807056510  0.9930280541395966  0.4159212742054511
  0.3688752898291318  0.8553465941829095  0.3841702616526373
  0.1185745064590990  0.8463961598952694  0.6214725951856038
  0.3731587952756900  0.7073167091069624  0.5882061775650466
  0.3740470623358126  0.6050033638682888  0.3791515174945510
  0.1242213711566121  0.5959984214647710  0.6191268361299536
  0.1185623842495029  0.7429170760879150  0.4132071412810899
  0.3686106414770359  0.9585098020910751  0.5909695835843098
  0.6234154408804709  0.9913673614189656  0.4164688831837825
  0.8682530247942031  0.8546258600041545  0.3839978291220686
  0.6178686833154813  0.8446451135988777  0.6214158354452859
  0.8748809598083418  0.7091158663153658  0.5875662541680758
  0.8701441813397112  0.6044444192821737  0.3830123519580564
  0.6180296616960027  0.5942054296864968  0.6258965556709515
  0.6175965462227411  0.7412925230767209  0.4152332922395414
  0.8680540798715530  0.9580864630141639  0.5906977332485204
  0.7515017027862351  0.6249571668918512  0.6877236486981111
  0.7239946441207941  0.6319467808998270  0.7339663160660711
 
  0.00000000E+00  0.00000000E+00  0.00000000E+00
  0.00000000E+00  0.00000000E+00  0.00000000E+00
  0.00000000E+00  0.00000000E+00  0.00000000E+00
  0.00000000E+00  0.00000000E+00  0.00000000E+00
  0.00000000E+00  0.00000000E+00  0.00000000E+00
  0.00000000E+00  0.00000000E+00  0.00000000E+00
  0.00000000E+00  0.00000000E+00  0.00000000E+00
  0.00000000E+00  0.00000000E+00  0.00000000E+00
  0.00000000E+00  0.00000000E+00  0.00000000E+00
  0.00000000E+00  0.00000000E+00  0.00000000E+00
  0.00000000E+00  0.00000000E+00  0.00000000E+00
  0.00000000E+00  0.00000000E+00  0.00000000E+00
  0.00000000E+00  0.00000000E+00  0.00000000E+00
  0.00000000E+00  0.00000000E+00  0.00000000E+00
  0.00000000E+00  0.00000000E+00  0.00000000E+00
  0.00000000E+00  0.00000000E+00  0.00000000E+00
  0.00000000E+00  0.00000000E+00  0.00000000E+00
  0.00000000E+00  0.00000000E+00  0.00000000E+00
  0.00000000E+00  0.00000000E+00  0.00000000E+00
  0.00000000E+00  0.00000000E+00  0.00000000E+00
  0.00000000E+00  0.00000000E+00  0.00000000E+00
  0.00000000E+00  0.00000000E+00  0.00000000E+00
  0.00000000E+00  0.00000000E+00  0.00000000E+00
  0.00000000E+00  0.00000000E+00  0.00000000E+00
  0.00000000E+00  0.00000000E+00  0.00000000E+00
  0.00000000E+00  0.00000000E+00  0.00000000E+00
  0.00000000E+00  0.00000000E+00  0.00000000E+00
  0.00000000E+00  0.00000000E+00  0.00000000E+00
  0.00000000E+00  0.00000000E+00  0.00000000E+00
  0.00000000E+00  0.00000000E+00  0.00000000E+00
  0.00000000E+00  0.00000000E+00  0.00000000E+00
  0.00000000E+00  0.00000000E+00  0.00000000E+00
  0.00000000E+00  0.00000000E+00  0.00000000E+00
  0.00000000E+00  0.00000000E+00  0.00000000E+00
  0.00000000E+00  0.00000000E+00  0.00000000E+00
  0.00000000E+00  0.00000000E+00  0.00000000E+00
  0.00000000E+00  0.00000000E+00  0.00000000E+00
  0.00000000E+00  0.00000000E+00  0.00000000E+00
  0.00000000E+00  0.00000000E+00  0.00000000E+00
  0.00000000E+00  0.00000000E+00  0.00000000E+00
  0.00000000E+00  0.00000000E+00  0.00000000E+00
  0.00000000E+00  0.00000000E+00  0.00000000E+00
  0.00000000E+00  0.00000000E+00  0.00000000E+00
  0.00000000E+00  0.00000000E+00  0.00000000E+00
  0.00000000E+00  0.00000000E+00  0.00000000E+00
  0.00000000E+00  0.00000000E+00  0.00000000E+00
  0.00000000E+00  0.00000000E+00  0.00000000E+00
  0.00000000E+00  0.00000000E+00  0.00000000E+00
  0.00000000E+00  0.00000000E+00  0.00000000E+00
  0.00000000E+00  0.00000000E+00  0.00000000E+00
  0.00000000E+00  0.00000000E+00  0.00000000E+00
  0.00000000E+00  0.00000000E+00  0.00000000E+00
  0.00000000E+00  0.00000000E+00  0.00000000E+00
  0.00000000E+00  0.00000000E+00  0.00000000E+00
  0.00000000E+00  0.00000000E+00  0.00000000E+00
  0.00000000E+00  0.00000000E+00  0.00000000E+00
  0.00000000E+00  0.00000000E+00  0.00000000E+00
  0.00000000E+00  0.00000000E+00  0.00000000E+00
  0.00000000E+00  0.00000000E+00  0.00000000E+00
  0.00000000E+00  0.00000000E+00  0.00000000E+00
  0.00000000E+00  0.00000000E+00  0.00000000E+00
  0.00000000E+00  0.00000000E+00  0.00000000E+00
  0.00000000E+00  0.00000000E+00  0.00000000E+00
  0.00000000E+00  0.00000000E+00  0.00000000E+00
  0.00000000E+00  0.00000000E+00  0.00000000E+00
  0.00000000E+00  0.00000000E+00  0.00000000E+00
