Nb4 Ir1 Se10                            
   1.00000000000000     
     6.0872239463034150    0.0132281716119448   -0.0021279910551186
     0.1649584484115636    7.2658309899290092    0.1684777056714562
    -2.9809778304045129   -3.1760838710695842    7.6789234891558147
   Nb   Ir   Se
     4     1    10
Direct
  0.2401155770908764  0.4033740398681643  0.9043366127581114
  0.3269224505239068  0.8012438599227562  0.2943394470097551
  0.6730775954760904  0.1987561890772443  0.7056605589902455
  0.7598844849091289  0.5966259131318356  0.0956634242418880
  0.9999999919999993  0.9999999939999995  0.5000000029999967
  0.9044808238896324  0.3577499680301951  0.5913867163819290
  0.7168566912119344  0.8395291967731757  0.5871477444844828
  0.0618675191453103  0.7509988380468217  0.9923834876803682
  0.9381323898546857  0.2490011499531771  0.0076165583196356
  0.2831432757880663  0.1604708362268233  0.4128522615155175
  0.0955192021103697  0.6422500649698112  0.4086132896180713
  0.4912559415021663  0.5541692173437422  0.7878313796324711
  0.3310790755540453  0.0499880038202578  0.7870443882483077
  0.6689208724459573  0.9500119971797457  0.2129556177516927
  0.5087440044978361  0.4458307946562517  0.2121685803675329
 
  0.00000000E+00  0.00000000E+00  0.00000000E+00
  0.00000000E+00  0.00000000E+00  0.00000000E+00
  0.00000000E+00  0.00000000E+00  0.00000000E+00
  0.00000000E+00  0.00000000E+00  0.00000000E+00
  0.00000000E+00  0.00000000E+00  0.00000000E+00
  0.00000000E+00  0.00000000E+00  0.00000000E+00
  0.00000000E+00  0.00000000E+00  0.00000000E+00
  0.00000000E+00  0.00000000E+00  0.00000000E+00
  0.00000000E+00  0.00000000E+00  0.00000000E+00
  0.00000000E+00  0.00000000E+00  0.00000000E+00
  0.00000000E+00  0.00000000E+00  0.00000000E+00
  0.00000000E+00  0.00000000E+00  0.00000000E+00
  0.00000000E+00  0.00000000E+00  0.00000000E+00
  0.00000000E+00  0.00000000E+00  0.00000000E+00
  0.00000000E+00  0.00000000E+00  0.00000000E+00
