CONTCAR                                 
   1.00000000000000     
    10.2665004730000007    0.0000000000000000    0.0000000000000000
     0.0000000000000000   17.1711997986000000    0.0000000000000000
     0.0000000000000000    0.0000000000000000   18.9181995391999997
   K    Fe   S    O    H 
     8    16    24     2     1
Direct
  0.1237204504229518  0.2500498182440050  0.4098733250344562
  0.3734849686047041  0.2501147131293739  0.5889636912853091
  0.6237658319909084  0.2500582305835422  0.4097786448704887
  0.8744001782603519  0.2502011025377671  0.5891816832514869
  0.1236656522697536  0.7500925491042377  0.4124763887036957
  0.3988326406883110  0.7499726543872856  0.6158688246741584
  0.6240874252434575  0.7501445257518969  0.4082137533972465
  0.8530431225812155  0.7502079506935569  0.6159546287527488
  0.9988072862069600  0.0729325327437475  0.4995606684688570
  0.2487471256630064  0.9250415435760684  0.4978596171063467
  0.9988894468416337  0.9250477202951427  0.4982012278190968
  0.2486668452893391  0.0729276614724608  0.4994512625996744
  0.4988138680820125  0.0741986981757249  0.4986673127849554
  0.7487531161017448  0.9269260146449203  0.4947751528992767
  0.4986138719045579  0.9268558830118874  0.4944890877950326
  0.7486785824080476  0.0741426200670045  0.4987231833699048
  0.9989206421247123  0.5751483024454690  0.4980787789524516
  0.2486684608019279  0.4272319612293283  0.4993262196660286
  0.9987975567656986  0.4272357835762270  0.4994182529282146
  0.2487834627582942  0.5751382235396486  0.4977604569868672
  0.4986433862373097  0.5732824802716290  0.4943515356888473
  0.7486901338162493  0.4260022670245928  0.4986050126565554
  0.4987797320835872  0.4259568475280386  0.4985159182185072
  0.7487924200738271  0.5732267532474263  0.4946342416572712
  0.3724707643178573  0.8592344851680741  0.4309194361254232
  0.1237825524554794  0.1409227741954316  0.5644247903311784
  0.1242475023576727  0.8552191947014984  0.5607983535848677
  0.3751596818669105  0.9984167595846573  0.5621153036336516
  0.1236645118834111  0.9999290233562020  0.4344124707987218
  0.3723695342796517  0.1433435593022510  0.4358158120847065
  0.8750788970243790  0.8591022066558119  0.4314879298139364
  0.6238544843296142  0.1419987388240723  0.5638207270081663
  0.6235606286036255  0.8567883553779277  0.5551874932661486
  0.8723170488486490  0.9985138156550694  0.5623522938247508
  0.6237751551265124  0.0029843194018307  0.4317386971091191
  0.8750582148304261  0.1432575875762678  0.4358032979586300
  0.3723288020744897  0.3567880050179482  0.4356884936425402
  0.1242879665734500  0.6450077100898680  0.5606995263985972
  0.1237775126529276  0.3592473525317380  0.5643238377631008
  0.3751611832220009  0.5017419104072264  0.5619760243042095
  0.1236925637124727  0.5002653420862481  0.4343095177205816
  0.3724890201045324  0.6410234096649839  0.4308827993779666
  0.8750307267243307  0.3568875616871105  0.4356863880639928
  0.6235820639591606  0.6431773861197273  0.5551462272299901
  0.6237933702034842  0.3581438225834588  0.5636959072714900
  0.8724059354001165  0.5016562145734810  0.5622145207036355
  0.6237809365903856  0.4971363209800773  0.4316098814487049
  0.8750696155052738  0.6410828543235990  0.4313819588280536
  0.7179236244888484  0.7494569500059491  0.7380937774074722
  0.6199319710073276  0.7507392670044974  0.6822421533895968
  0.6654195106364367  0.7536680258439905  0.7809635753432951
 
  0.00000000E+00  0.00000000E+00  0.00000000E+00
  0.00000000E+00  0.00000000E+00  0.00000000E+00
  0.00000000E+00  0.00000000E+00  0.00000000E+00
  0.00000000E+00  0.00000000E+00  0.00000000E+00
  0.00000000E+00  0.00000000E+00  0.00000000E+00
  0.00000000E+00  0.00000000E+00  0.00000000E+00
  0.00000000E+00  0.00000000E+00  0.00000000E+00
  0.00000000E+00  0.00000000E+00  0.00000000E+00
  0.00000000E+00  0.00000000E+00  0.00000000E+00
  0.00000000E+00  0.00000000E+00  0.00000000E+00
  0.00000000E+00  0.00000000E+00  0.00000000E+00
  0.00000000E+00  0.00000000E+00  0.00000000E+00
  0.00000000E+00  0.00000000E+00  0.00000000E+00
  0.00000000E+00  0.00000000E+00  0.00000000E+00
  0.00000000E+00  0.00000000E+00  0.00000000E+00
  0.00000000E+00  0.00000000E+00  0.00000000E+00
  0.00000000E+00  0.00000000E+00  0.00000000E+00
  0.00000000E+00  0.00000000E+00  0.00000000E+00
  0.00000000E+00  0.00000000E+00  0.00000000E+00
  0.00000000E+00  0.00000000E+00  0.00000000E+00
  0.00000000E+00  0.00000000E+00  0.00000000E+00
  0.00000000E+00  0.00000000E+00  0.00000000E+00
  0.00000000E+00  0.00000000E+00  0.00000000E+00
  0.00000000E+00  0.00000000E+00  0.00000000E+00
  0.00000000E+00  0.00000000E+00  0.00000000E+00
  0.00000000E+00  0.00000000E+00  0.00000000E+00
  0.00000000E+00  0.00000000E+00  0.00000000E+00
  0.00000000E+00  0.00000000E+00  0.00000000E+00
  0.00000000E+00  0.00000000E+00  0.00000000E+00
  0.00000000E+00  0.00000000E+00  0.00000000E+00
  0.00000000E+00  0.00000000E+00  0.00000000E+00
  0.00000000E+00  0.00000000E+00  0.00000000E+00
  0.00000000E+00  0.00000000E+00  0.00000000E+00
  0.00000000E+00  0.00000000E+00  0.00000000E+00
  0.00000000E+00  0.00000000E+00  0.00000000E+00
  0.00000000E+00  0.00000000E+00  0.00000000E+00
  0.00000000E+00  0.00000000E+00  0.00000000E+00
  0.00000000E+00  0.00000000E+00  0.00000000E+00
  0.00000000E+00  0.00000000E+00  0.00000000E+00
  0.00000000E+00  0.00000000E+00  0.00000000E+00
  0.00000000E+00  0.00000000E+00  0.00000000E+00
  0.00000000E+00  0.00000000E+00  0.00000000E+00
  0.00000000E+00  0.00000000E+00  0.00000000E+00
  0.00000000E+00  0.00000000E+00  0.00000000E+00
  0.00000000E+00  0.00000000E+00  0.00000000E+00
  0.00000000E+00  0.00000000E+00  0.00000000E+00
  0.00000000E+00  0.00000000E+00  0.00000000E+00
  0.00000000E+00  0.00000000E+00  0.00000000E+00
  0.00000000E+00  0.00000000E+00  0.00000000E+00
  0.00000000E+00  0.00000000E+00  0.00000000E+00
  0.00000000E+00  0.00000000E+00  0.00000000E+00
