CONTCAR                                 
   1.00000000000000     
     5.4223999977000004    0.0000000000000000    0.0000000000000000
     0.8723890179000000    5.4072782047999999    0.0000000000000000
     0.0000000000000000    0.0000000000000000   16.8505992888999998
   Ag   H    O 
     2     2     5
Direct
  0.6023306548957043  0.3941452356621389  0.5195974994107230
  0.0932892731880706  0.8383867612732875  0.5145559164497194
  0.5623654863595798  0.8506759131782223  0.5383634497193720
  0.6719194187577142  0.0125586282221457  0.4299702434765879
  0.4590771394485867  0.7353695142126718  0.5625978317478155
  0.1360086438654852  0.2811832542548786  0.5513035514412599
  0.7360018756823188  0.0350252309244310  0.4830470399675983
  0.9373707084623532  0.4567744789115422  0.5697717715607958
  0.2502268263401891  0.3440609093606893  0.4778427152261327
 
  0.00000000E+00  0.00000000E+00  0.00000000E+00
  0.00000000E+00  0.00000000E+00  0.00000000E+00
  0.00000000E+00  0.00000000E+00  0.00000000E+00
  0.00000000E+00  0.00000000E+00  0.00000000E+00
  0.00000000E+00  0.00000000E+00  0.00000000E+00
  0.00000000E+00  0.00000000E+00  0.00000000E+00
  0.00000000E+00  0.00000000E+00  0.00000000E+00
  0.00000000E+00  0.00000000E+00  0.00000000E+00
  0.00000000E+00  0.00000000E+00  0.00000000E+00
