CONTCAR\(12)                            
   1.00000000000000     
    11.6243000031000001    0.0000000000000000    0.0000000000000000
     5.8121268334999998   10.8927857352000004    0.0000000000000000
     0.0000000000000000    0.0000000000000000   21.9750003814999992
   Y    C    I 
    18    18    18
Direct
  0.1045887031422216  0.1241048827719460  0.4373048646074682
  0.0159212928577811  0.3015251172280521  0.5627051603925335
  0.4379287471422179  0.1241048827719460  0.4373048646074682
  0.3492612848577801  0.3015251172280521  0.5627051603925335
  0.7712587711422235  0.1241048827719460  0.4373048646074682
  0.6825913098577824  0.3015251172280521  0.5627051603925335
  0.1045886871422203  0.4574348947719436  0.4373048646074682
  0.0159213018577783  0.6348551392280505  0.5627051603925335
  0.4379287201422192  0.4574348947719436  0.4373048646074682
  0.3492613348577772  0.6348551392280505  0.5627051603925335
  0.7712587451422214  0.4574348947719436  0.4373048646074682
  0.6825912778577797  0.6348551392280505  0.5627051603925335
  0.1045886801422233  0.7907748757719454  0.4373048646074682
  0.0159212318577796  0.9681951642280558  0.5627051603925335
  0.4379287131422222  0.7907748757719454  0.4373048646074682
  0.3492613058577783  0.9681951642280558  0.5627051603925335
  0.7712587381422243  0.7907748757719454  0.4373048646074682
  0.6825912488577809  0.9681951642280558  0.5627051603925335
  0.2535386270562973  0.1595555920234856  0.5147481670642970
  0.2003113519437002  0.2660744079765197  0.4852618149356976
  0.5868685900563014  0.1595555920234856  0.5147481670642970
  0.5336513849436991  0.2660744079765197  0.4852618149356976
  0.9202086640563002  0.1595555920234856  0.5147481670642970
  0.8669813679436978  0.2660744079765197  0.4852618149356976
  0.2535386210562968  0.4928856040234832  0.5147481670642970
  0.2003113609436974  0.5994044309765145  0.4852618149356976
  0.5868686040563026  0.4928856040234832  0.5147481670642970
  0.5336513939437034  0.5994044309765145  0.4852618149356976
  0.9202086370563015  0.4928856040234832  0.5147481670642970
  0.8669813359437023  0.5994044309765145  0.4852618149356976
  0.2535385510562981  0.8262256290234815  0.5147481670642970
  0.2003113389437027  0.9327344309765182  0.4852618149356976
  0.5868685750562966  0.8262256290234815  0.5147481670642970
  0.5336512909436985  0.9327344309765182  0.4852618149356976
  0.9202085270562995  0.8262256290234815  0.5147481670642970
  0.8669813149437041  0.9327344309765182  0.4852618149356976
  0.1281689665390441  0.0769758020830185  0.6581554420964204
  0.3257010114609560  0.0152841999169847  0.3418345759035779
  0.4615089585390432  0.0769758020830185  0.6581554420964204
  0.6590309944609548  0.0152841999169848  0.3418345759035779
  0.7948389825390417  0.0769758020830185  0.6581554420964204
  0.9923610604609568  0.0152841999169847  0.3418345759035779
  0.1281689725390446  0.4103058300830175  0.6581554420964204
  0.3257009834609608  0.3486142139169824  0.3418345759035779
  0.4615089645390437  0.4103058300830175  0.6581554420964204
  0.6590310074609594  0.3486142139169824  0.3418345759035779
  0.7948389485390389  0.4103058300830175  0.6581554420964204
  0.9923610324609545  0.3486142139169824  0.3418345759035779
  0.1281689435390387  0.7436458550830156  0.6581554420964204
  0.3257009844609574  0.6819542619169863  0.3418345759035779
  0.4615088945390450  0.7436458550830156  0.6581554420964204
  0.6590309674609561  0.6819542619169863  0.3418345759035779
  0.7948389195390401  0.7436458550830156  0.6581554420964204
  0.9923609924609583  0.6819542619169863  0.3418345759035779
 
  0.00000000E+00  0.00000000E+00  0.00000000E+00
  0.00000000E+00  0.00000000E+00  0.00000000E+00
  0.00000000E+00  0.00000000E+00  0.00000000E+00
  0.00000000E+00  0.00000000E+00  0.00000000E+00
  0.00000000E+00  0.00000000E+00  0.00000000E+00
  0.00000000E+00  0.00000000E+00  0.00000000E+00
  0.00000000E+00  0.00000000E+00  0.00000000E+00
  0.00000000E+00  0.00000000E+00  0.00000000E+00
  0.00000000E+00  0.00000000E+00  0.00000000E+00
  0.00000000E+00  0.00000000E+00  0.00000000E+00
  0.00000000E+00  0.00000000E+00  0.00000000E+00
  0.00000000E+00  0.00000000E+00  0.00000000E+00
  0.00000000E+00  0.00000000E+00  0.00000000E+00
  0.00000000E+00  0.00000000E+00  0.00000000E+00
  0.00000000E+00  0.00000000E+00  0.00000000E+00
  0.00000000E+00  0.00000000E+00  0.00000000E+00
  0.00000000E+00  0.00000000E+00  0.00000000E+00
  0.00000000E+00  0.00000000E+00  0.00000000E+00
  0.00000000E+00  0.00000000E+00  0.00000000E+00
  0.00000000E+00  0.00000000E+00  0.00000000E+00
  0.00000000E+00  0.00000000E+00  0.00000000E+00
  0.00000000E+00  0.00000000E+00  0.00000000E+00
  0.00000000E+00  0.00000000E+00  0.00000000E+00
  0.00000000E+00  0.00000000E+00  0.00000000E+00
  0.00000000E+00  0.00000000E+00  0.00000000E+00
  0.00000000E+00  0.00000000E+00  0.00000000E+00
  0.00000000E+00  0.00000000E+00  0.00000000E+00
  0.00000000E+00  0.00000000E+00  0.00000000E+00
  0.00000000E+00  0.00000000E+00  0.00000000E+00
  0.00000000E+00  0.00000000E+00  0.00000000E+00
  0.00000000E+00  0.00000000E+00  0.00000000E+00
  0.00000000E+00  0.00000000E+00  0.00000000E+00
  0.00000000E+00  0.00000000E+00  0.00000000E+00
  0.00000000E+00  0.00000000E+00  0.00000000E+00
  0.00000000E+00  0.00000000E+00  0.00000000E+00
  0.00000000E+00  0.00000000E+00  0.00000000E+00
  0.00000000E+00  0.00000000E+00  0.00000000E+00
  0.00000000E+00  0.00000000E+00  0.00000000E+00
  0.00000000E+00  0.00000000E+00  0.00000000E+00
  0.00000000E+00  0.00000000E+00  0.00000000E+00
  0.00000000E+00  0.00000000E+00  0.00000000E+00
  0.00000000E+00  0.00000000E+00  0.00000000E+00
  0.00000000E+00  0.00000000E+00  0.00000000E+00
  0.00000000E+00  0.00000000E+00  0.00000000E+00
  0.00000000E+00  0.00000000E+00  0.00000000E+00
  0.00000000E+00  0.00000000E+00  0.00000000E+00
  0.00000000E+00  0.00000000E+00  0.00000000E+00
  0.00000000E+00  0.00000000E+00  0.00000000E+00
  0.00000000E+00  0.00000000E+00  0.00000000E+00
  0.00000000E+00  0.00000000E+00  0.00000000E+00
  0.00000000E+00  0.00000000E+00  0.00000000E+00
  0.00000000E+00  0.00000000E+00  0.00000000E+00
  0.00000000E+00  0.00000000E+00  0.00000000E+00
  0.00000000E+00  0.00000000E+00  0.00000000E+00
