 Ag1 Te6 Mo6                            
   1.00000000000000     
     4.5729232313007717    0.0000000000000000    0.0000000000000000
    -2.2864616156503859    8.9989007019491183    0.0000000000000000
     0.0000000000000000    0.0000000000000000   21.4340416850000004
   Ag   Te   Mo
     1     6     6
Direct
  0.0000004611209405  0.0000009511632015  0.4999991524702239
  0.7729167584806120  0.5455781690134316  0.6494842639058831
  0.4146726085104362  0.8295229045236709  0.5645551346941602
  0.5853239481604788  0.1704760278408273  0.4354462189364341
  0.1071038558890152  0.2152384247580557  0.5966510703647288
  0.8928966839914096  0.7847607676195878  0.4033489726889812
  0.2270845075390255  0.4544226275424208  0.3505161986894336
  0.3183745426837206  0.6365395541299748  0.4568944888425150
  0.6816260490624444  0.3634603867104502  0.5431048799971165
  0.1710377161132683  0.3421129765100375  0.4731175140587922
  0.8289623832746287  0.6578876573535766  0.5268819002746241
  0.2606049211514971  0.5212011965431032  0.5710170112675144
  0.7393955640225229  0.4787983562916551  0.4289831938096000
 
  0.00000000E+00  0.00000000E+00  0.00000000E+00
  0.00000000E+00  0.00000000E+00  0.00000000E+00
  0.00000000E+00  0.00000000E+00  0.00000000E+00
  0.00000000E+00  0.00000000E+00  0.00000000E+00
  0.00000000E+00  0.00000000E+00  0.00000000E+00
  0.00000000E+00  0.00000000E+00  0.00000000E+00
  0.00000000E+00  0.00000000E+00  0.00000000E+00
  0.00000000E+00  0.00000000E+00  0.00000000E+00
  0.00000000E+00  0.00000000E+00  0.00000000E+00
  0.00000000E+00  0.00000000E+00  0.00000000E+00
  0.00000000E+00  0.00000000E+00  0.00000000E+00
  0.00000000E+00  0.00000000E+00  0.00000000E+00
  0.00000000E+00  0.00000000E+00  0.00000000E+00
