CONTCAR\(2)                             
   1.00000000000000     
    12.8632001877000004    0.0000000000000000    0.0000000000000000
     0.0000000000000000   12.8638000487999999    0.0000000000000000
     0.0000000000000000    0.0000000000000000   23.9482994080000005
   Lu   Te   O    H 
    18    54     2     1
Direct
  0.1645284162170332  0.0023401120537339  0.5844526770536772
 -0.0033255000669291  0.1683671124451679  0.4155652511537303
  0.4967062911242890  0.0029503402570600  0.5849907045557720
  0.3308891466915994  0.1688201397671810  0.4162009865588329
  0.8306241781069570  0.0020610461743945  0.5847306662373828
  0.6648209809919657  0.1684396019510593  0.4160743510594215
  0.1534235000010215  0.3328336257272969  0.5801203028961117
  0.9972234945382341  0.5029031098157084  0.4162455586161800
  0.5073539046995847  0.3349717465951400  0.5806179311100002
  0.3310859758920943  0.5014129037146213  0.4166414664262109
  0.8306878363338600  0.3368076349737084  0.5840754329445886
  0.6648703192783687  0.5027100304130958  0.4163689267480793
  0.1641389422498044  0.6707473062937060  0.5854343025373717
 -0.0022397777395572  0.8355783306888008  0.4172042127138935
  0.4972931067577624  0.6707204257989039  0.5854604498174423
  0.3309261779630319  0.8354785651417881  0.4173514197610324
  0.8307236190460984  0.6714495816787732  0.5850732286444389
  0.6639265404689337  0.8353661805928001  0.4174909183245476
 -0.0022304891640640  0.0019121158492334  0.3139833464126723
  0.1633897512845230  0.1695421077797022  0.6848204658827199
 -0.0028877984371303  0.0033946909794075  0.6877788544305644
  0.1642877748371424  0.1685531086543990  0.3132929342339755
  0.1647197381963905  0.0032699908221483  0.4550310791695516
  0.9947242425914117  0.1672301451787402  0.5450575867713867
  0.3312980811105690  0.0023436736842043  0.3142278056404608
  0.4970467357243580  0.1726128306537634  0.6872606253402790
  0.3316441106925297  0.0073508012855538  0.6875540505531557
  0.4979873036876478  0.1689861159307659  0.3135391066322402
  0.4967742655747664  0.0030938894304239  0.4555221655660424
  0.3305346018113559  0.1709966372196246  0.5463247922597457
  0.6643774046863623  0.0020230491757977  0.3145826883879264
  0.8298660975283574  0.1711347636907500  0.6872291032835551
  0.6636942953173985  0.0032570106548300  0.6880804624187017
  0.8312143939129600  0.1685016889253474  0.3133014048186128
  0.8305148743102907  0.0012329377821439  0.4549131561623209
  0.6657351211008359  0.1675378261733395  0.5456913878367983
 -0.0026202450390811  0.3356958722671958  0.3131923903948708
  0.1622077769009701  0.5039040289717768  0.6884915021069246
  0.9961888775916197  0.3357843561225002  0.6857611434849274
  0.1645008545193904  0.5023011273539262  0.3139191707345236
  0.1628606318199605  0.3352641071685024  0.4529521678701180
  0.9964693543374881  0.5042698318760386  0.5460632588236126
  0.3311087015911285  0.3353727728582583  0.3139779960342901
  0.4989814087361071  0.5053172510539635  0.6869094726965427
  0.3303460935753329  0.3437886516323627  0.6760308106606052
  0.4979264335936965  0.5021554642793798  0.3139875891714030
  0.4986297727674002  0.3355016199746004  0.4533418602087473
  0.3304419520810453  0.4992595838379834  0.5484934087780348
  0.6649204890961523  0.3356039713653832  0.3137917866635449
  0.8317798700045678  0.5063271614477717  0.6877300141343607
  0.6647045574939008  0.3367751032819112  0.6859841638148964
  0.8312893998840954  0.5026352847667567  0.3136648753213778
  0.8312530085041457  0.3358474940124031  0.4545119857308894
  0.6654514064293836  0.5044692257259964  0.5459741306019837
 -0.0019137904959139  0.6693252021730350  0.3148075018162564
  0.1643440817144754  0.8374753851058360  0.6881651216473424
 -0.0025925711775547  0.6712241411781518  0.6880656702897656
  0.1649360023779203  0.8355366166594344  0.3148516312965900
  0.1659233414922915  0.6674063442585380  0.4558133961682019
 -0.0022167557035768  0.8359810557270789  0.5467260992088601
  0.3312443612162521  0.6684961454341971  0.3145775898104502
  0.4967837499813181  0.8371125654601170  0.6883343142426325
  0.3298172100105004  0.6722975430881304  0.6882395823630401
  0.4975457943626119  0.8356277482207733  0.3153526555608627
  0.4958980944387055  0.6672308268754011  0.4558585304916243
  0.3309799479806303  0.8360139687234547  0.5470979414028154
  0.6642271525387387  0.6688898540076673  0.3148248453718535
  0.8303713798379508  0.8404505412307675  0.6882547183293294
  0.6649656941009213  0.6701062187570829  0.6884970997912380
  0.8310522567407674  0.8354579788051392  0.3146728527409907
  0.8308193889372311  0.6698165155083443  0.4552239684237663
  0.6632404037987325  0.8361022732543133  0.5470484009593617
  0.2604688906916692  0.3573819782271704  0.7980394820136152
  0.3415426700658225  0.3105264529993115  0.7653742641199340
  0.2923551448833339  0.4236865483562204  0.8092064247603706
 
  0.00000000E+00  0.00000000E+00  0.00000000E+00
  0.00000000E+00  0.00000000E+00  0.00000000E+00
  0.00000000E+00  0.00000000E+00  0.00000000E+00
  0.00000000E+00  0.00000000E+00  0.00000000E+00
  0.00000000E+00  0.00000000E+00  0.00000000E+00
  0.00000000E+00  0.00000000E+00  0.00000000E+00
  0.00000000E+00  0.00000000E+00  0.00000000E+00
  0.00000000E+00  0.00000000E+00  0.00000000E+00
  0.00000000E+00  0.00000000E+00  0.00000000E+00
  0.00000000E+00  0.00000000E+00  0.00000000E+00
  0.00000000E+00  0.00000000E+00  0.00000000E+00
  0.00000000E+00  0.00000000E+00  0.00000000E+00
  0.00000000E+00  0.00000000E+00  0.00000000E+00
  0.00000000E+00  0.00000000E+00  0.00000000E+00
  0.00000000E+00  0.00000000E+00  0.00000000E+00
  0.00000000E+00  0.00000000E+00  0.00000000E+00
  0.00000000E+00  0.00000000E+00  0.00000000E+00
  0.00000000E+00  0.00000000E+00  0.00000000E+00
  0.00000000E+00  0.00000000E+00  0.00000000E+00
  0.00000000E+00  0.00000000E+00  0.00000000E+00
  0.00000000E+00  0.00000000E+00  0.00000000E+00
  0.00000000E+00  0.00000000E+00  0.00000000E+00
  0.00000000E+00  0.00000000E+00  0.00000000E+00
  0.00000000E+00  0.00000000E+00  0.00000000E+00
  0.00000000E+00  0.00000000E+00  0.00000000E+00
  0.00000000E+00  0.00000000E+00  0.00000000E+00
  0.00000000E+00  0.00000000E+00  0.00000000E+00
  0.00000000E+00  0.00000000E+00  0.00000000E+00
  0.00000000E+00  0.00000000E+00  0.00000000E+00
  0.00000000E+00  0.00000000E+00  0.00000000E+00
  0.00000000E+00  0.00000000E+00  0.00000000E+00
  0.00000000E+00  0.00000000E+00  0.00000000E+00
  0.00000000E+00  0.00000000E+00  0.00000000E+00
  0.00000000E+00  0.00000000E+00  0.00000000E+00
  0.00000000E+00  0.00000000E+00  0.00000000E+00
  0.00000000E+00  0.00000000E+00  0.00000000E+00
  0.00000000E+00  0.00000000E+00  0.00000000E+00
  0.00000000E+00  0.00000000E+00  0.00000000E+00
  0.00000000E+00  0.00000000E+00  0.00000000E+00
  0.00000000E+00  0.00000000E+00  0.00000000E+00
  0.00000000E+00  0.00000000E+00  0.00000000E+00
  0.00000000E+00  0.00000000E+00  0.00000000E+00
  0.00000000E+00  0.00000000E+00  0.00000000E+00
  0.00000000E+00  0.00000000E+00  0.00000000E+00
  0.00000000E+00  0.00000000E+00  0.00000000E+00
  0.00000000E+00  0.00000000E+00  0.00000000E+00
  0.00000000E+00  0.00000000E+00  0.00000000E+00
  0.00000000E+00  0.00000000E+00  0.00000000E+00
  0.00000000E+00  0.00000000E+00  0.00000000E+00
  0.00000000E+00  0.00000000E+00  0.00000000E+00
  0.00000000E+00  0.00000000E+00  0.00000000E+00
  0.00000000E+00  0.00000000E+00  0.00000000E+00
  0.00000000E+00  0.00000000E+00  0.00000000E+00
  0.00000000E+00  0.00000000E+00  0.00000000E+00
  0.00000000E+00  0.00000000E+00  0.00000000E+00
  0.00000000E+00  0.00000000E+00  0.00000000E+00
  0.00000000E+00  0.00000000E+00  0.00000000E+00
  0.00000000E+00  0.00000000E+00  0.00000000E+00
  0.00000000E+00  0.00000000E+00  0.00000000E+00
  0.00000000E+00  0.00000000E+00  0.00000000E+00
  0.00000000E+00  0.00000000E+00  0.00000000E+00
  0.00000000E+00  0.00000000E+00  0.00000000E+00
  0.00000000E+00  0.00000000E+00  0.00000000E+00
  0.00000000E+00  0.00000000E+00  0.00000000E+00
  0.00000000E+00  0.00000000E+00  0.00000000E+00
  0.00000000E+00  0.00000000E+00  0.00000000E+00
  0.00000000E+00  0.00000000E+00  0.00000000E+00
  0.00000000E+00  0.00000000E+00  0.00000000E+00
  0.00000000E+00  0.00000000E+00  0.00000000E+00
  0.00000000E+00  0.00000000E+00  0.00000000E+00
  0.00000000E+00  0.00000000E+00  0.00000000E+00
  0.00000000E+00  0.00000000E+00  0.00000000E+00
  0.00000000E+00  0.00000000E+00  0.00000000E+00
  0.00000000E+00  0.00000000E+00  0.00000000E+00
  0.00000000E+00  0.00000000E+00  0.00000000E+00
