CONTCAR\(13)                            
   1.00000000000000     
    13.0347003936999997    0.0000000000000000    0.0000000000000000
     0.0000000000000000   13.0347003936999997    0.0000000000000000
     0.0000000000000000    0.0000000000000000   24.3213005066000001
   Sm   Te
    18    54
Direct
 -0.0000000000000000  0.1666699960000031  0.4131999561528078
  0.1666699960000031  0.0000000000000000  0.5868000438471922
  0.3333300039999969  0.1666699960000031  0.4131999561528078
  0.5000000000000000  0.0000000000000000  0.5868000438471922
  0.6666700319999990  0.1666699960000031  0.4131999561528078
  0.8333299680000010  0.0000000000000000  0.5868000438471922
  0.0000000000000000  0.5000000000000000  0.4131999561528078
  0.1666699960000031  0.3333300039999969  0.5868000438471922
  0.3333300039999969  0.5000000000000000  0.4131999561528078
  0.5000000000000000  0.3333300039999969  0.5868000438471922
  0.6666700319999990  0.5000000000000000  0.4131999561528078
  0.8333299680000010  0.3333300039999969  0.5868000438471922
 -0.0000000000000000  0.8333299680000010  0.4131999561528078
  0.1666699960000031  0.6666700319999990  0.5868000438471922
  0.3333300039999969  0.8333299680000010  0.4131999561528078
  0.5000000000000000  0.6666700319999990  0.5868000438471922
  0.6666700319999990  0.8333299680000010  0.4131999561528078
  0.8333299680000010  0.6666700319999990  0.5868000438471922
  0.0000000000000000  0.1666699960000031  0.5473108772927123
  0.1666699960000031  0.0000000000000000  0.4526891227072877
  0.1666699960000031  0.1666699960000031  0.6907959530639888
  0.0000000000000000 -0.0000000000000000  0.3092040469360112
  0.0000000000000000  0.0000000000000000  0.6907959530639888
  0.1666699960000031  0.1666699960000031  0.3092040469360112
  0.3333300039999969  0.1666699960000031  0.5473108772927123
  0.5000000000000000 -0.0000000000000000  0.4526891227072877
  0.5000000000000000  0.1666699960000031  0.6907959530639888
  0.3333300039999969  0.0000000000000000  0.3092040469360112
  0.3333300039999969 -0.0000000000000000  0.6907959530639888
  0.5000000000000000  0.1666699960000031  0.3092040469360112
  0.6666700319999990  0.1666699960000031  0.5473108772927123
  0.8333299680000010 -0.0000000000000000  0.4526891227072877
  0.8333299680000010  0.1666699960000031  0.6907959530639888
  0.6666700319999990  0.0000000000000000  0.3092040469360112
  0.6666700319999990  0.0000000000000000  0.6907959530639888
  0.8333299680000010  0.1666699960000031  0.3092040469360112
  0.0000000000000000  0.5000000000000000  0.5473108772927123
  0.1666699960000031  0.3333300039999969  0.4526891227072877
  0.1666699960000031  0.5000000000000000  0.6907959530639888
  0.0000000000000000  0.3333300039999969  0.3092040469360112
  0.0000000000000000  0.3333300039999969  0.6907959530639888
  0.1666699960000031  0.5000000000000000  0.3092040469360112
  0.3333300039999969  0.5000000000000000  0.5473108772927123
  0.5000000000000000  0.3333300039999969  0.4526891227072877
  0.5000000000000000  0.5000000000000000  0.6907959530639888
  0.3333300039999969  0.3333300039999969  0.3092040469360112
  0.3333300039999969  0.3333300039999969  0.6907959530639888
  0.5000000000000000  0.5000000000000000  0.3092040469360112
  0.6666700319999990  0.5000000000000000  0.5473108772927123
  0.8333299680000010  0.3333300039999969  0.4526891227072877
  0.8333299680000010  0.5000000000000000  0.6907959530639888
  0.6666700319999990  0.3333300039999969  0.3092040469360112
  0.6666700319999990  0.3333300039999969  0.6907959530639888
  0.8333299680000010  0.5000000000000000  0.3092040469360112
  0.0000000000000000  0.8333299680000010  0.5473108772927123
  0.1666699960000031  0.6666700319999990  0.4526891227072877
  0.1666699960000031  0.8333299680000010  0.6907959530639888
  0.0000000000000000  0.6666700319999990  0.3092040469360112
  0.0000000000000000  0.6666700319999990  0.6907959530639888
  0.1666699960000031  0.8333299680000010  0.3092040469360112
  0.3333300039999969  0.8333299680000010  0.5473108772927123
  0.5000000000000000  0.6666700319999990  0.4526891227072877
  0.5000000000000000  0.8333299680000010  0.6907959530639888
  0.3333300039999969  0.6666700319999990  0.3092040469360112
  0.3333300039999969  0.6666700319999990  0.6907959530639888
  0.5000000000000000  0.8333299680000010  0.3092040469360112
  0.6666700319999990  0.8333299680000010  0.5473108772927123
  0.8333299680000010  0.6666700319999990  0.4526891227072877
  0.8333299680000010  0.8333299680000010  0.6907959530639888
  0.6666700319999990  0.6666700319999990  0.3092040469360112
  0.6666700319999990  0.6666700319999990  0.6907959530639888
  0.8333299680000010  0.8333299680000010  0.3092040469360112
 
  0.00000000E+00  0.00000000E+00  0.00000000E+00
  0.00000000E+00  0.00000000E+00  0.00000000E+00
  0.00000000E+00  0.00000000E+00  0.00000000E+00
  0.00000000E+00  0.00000000E+00  0.00000000E+00
  0.00000000E+00  0.00000000E+00  0.00000000E+00
  0.00000000E+00  0.00000000E+00  0.00000000E+00
  0.00000000E+00  0.00000000E+00  0.00000000E+00
  0.00000000E+00  0.00000000E+00  0.00000000E+00
  0.00000000E+00  0.00000000E+00  0.00000000E+00
  0.00000000E+00  0.00000000E+00  0.00000000E+00
  0.00000000E+00  0.00000000E+00  0.00000000E+00
  0.00000000E+00  0.00000000E+00  0.00000000E+00
  0.00000000E+00  0.00000000E+00  0.00000000E+00
  0.00000000E+00  0.00000000E+00  0.00000000E+00
  0.00000000E+00  0.00000000E+00  0.00000000E+00
  0.00000000E+00  0.00000000E+00  0.00000000E+00
  0.00000000E+00  0.00000000E+00  0.00000000E+00
  0.00000000E+00  0.00000000E+00  0.00000000E+00
  0.00000000E+00  0.00000000E+00  0.00000000E+00
  0.00000000E+00  0.00000000E+00  0.00000000E+00
  0.00000000E+00  0.00000000E+00  0.00000000E+00
  0.00000000E+00  0.00000000E+00  0.00000000E+00
  0.00000000E+00  0.00000000E+00  0.00000000E+00
  0.00000000E+00  0.00000000E+00  0.00000000E+00
  0.00000000E+00  0.00000000E+00  0.00000000E+00
  0.00000000E+00  0.00000000E+00  0.00000000E+00
  0.00000000E+00  0.00000000E+00  0.00000000E+00
  0.00000000E+00  0.00000000E+00  0.00000000E+00
  0.00000000E+00  0.00000000E+00  0.00000000E+00
  0.00000000E+00  0.00000000E+00  0.00000000E+00
  0.00000000E+00  0.00000000E+00  0.00000000E+00
  0.00000000E+00  0.00000000E+00  0.00000000E+00
  0.00000000E+00  0.00000000E+00  0.00000000E+00
  0.00000000E+00  0.00000000E+00  0.00000000E+00
  0.00000000E+00  0.00000000E+00  0.00000000E+00
  0.00000000E+00  0.00000000E+00  0.00000000E+00
  0.00000000E+00  0.00000000E+00  0.00000000E+00
  0.00000000E+00  0.00000000E+00  0.00000000E+00
  0.00000000E+00  0.00000000E+00  0.00000000E+00
  0.00000000E+00  0.00000000E+00  0.00000000E+00
  0.00000000E+00  0.00000000E+00  0.00000000E+00
  0.00000000E+00  0.00000000E+00  0.00000000E+00
  0.00000000E+00  0.00000000E+00  0.00000000E+00
  0.00000000E+00  0.00000000E+00  0.00000000E+00
  0.00000000E+00  0.00000000E+00  0.00000000E+00
  0.00000000E+00  0.00000000E+00  0.00000000E+00
  0.00000000E+00  0.00000000E+00  0.00000000E+00
  0.00000000E+00  0.00000000E+00  0.00000000E+00
  0.00000000E+00  0.00000000E+00  0.00000000E+00
  0.00000000E+00  0.00000000E+00  0.00000000E+00
  0.00000000E+00  0.00000000E+00  0.00000000E+00
  0.00000000E+00  0.00000000E+00  0.00000000E+00
  0.00000000E+00  0.00000000E+00  0.00000000E+00
  0.00000000E+00  0.00000000E+00  0.00000000E+00
  0.00000000E+00  0.00000000E+00  0.00000000E+00
  0.00000000E+00  0.00000000E+00  0.00000000E+00
  0.00000000E+00  0.00000000E+00  0.00000000E+00
  0.00000000E+00  0.00000000E+00  0.00000000E+00
  0.00000000E+00  0.00000000E+00  0.00000000E+00
  0.00000000E+00  0.00000000E+00  0.00000000E+00
  0.00000000E+00  0.00000000E+00  0.00000000E+00
  0.00000000E+00  0.00000000E+00  0.00000000E+00
  0.00000000E+00  0.00000000E+00  0.00000000E+00
  0.00000000E+00  0.00000000E+00  0.00000000E+00
  0.00000000E+00  0.00000000E+00  0.00000000E+00
  0.00000000E+00  0.00000000E+00  0.00000000E+00
  0.00000000E+00  0.00000000E+00  0.00000000E+00
  0.00000000E+00  0.00000000E+00  0.00000000E+00
  0.00000000E+00  0.00000000E+00  0.00000000E+00
  0.00000000E+00  0.00000000E+00  0.00000000E+00
  0.00000000E+00  0.00000000E+00  0.00000000E+00
  0.00000000E+00  0.00000000E+00  0.00000000E+00
