CONTCAR                                 
   1.00000000000000     
    12.3037004471000007    0.0000000000000000    0.0000000000000000
     6.1518502235000003   10.6553171476999999    0.0000000000000000
     0.0000000000000000    0.0000000000000000   24.8090991973999984
   Mn   In   Se   O 
     9    18    36     1
Direct
  0.2223950344718930  0.2222743709815365  0.3275632570788123
  0.5558566536159695  0.2226984212915385  0.3273836186485828
  0.8895870366104219  0.2233528505683249  0.3272545918188328
  0.2227362336149416  0.5558123464776992  0.3274046808312266
  0.5562073449012628  0.5562358040460588  0.3281454504977408
  0.8896685206611702  0.5553143321176268  0.3268855440314127
  0.2234162153043805  0.8895992968492961  0.3272512754384610
  0.5553953348610973  0.8896054852769196  0.3269222834539052
  0.8892600132776987  0.8891960597847016  0.3243616151748162
  0.0000096770251021  0.0000104378215087  0.4840088243093532
  0.1107752837367691  0.1102018315274814  0.6531082029897256
  0.3349784467177337  0.9992785278072353  0.4877302948436973
  0.4466762634759391  0.1093030223017410  0.6536126091927202
  0.6685712753987213  0.9966531495753991  0.4846120171916541
  0.7743279256618337  0.1081610916770549  0.6512216582566294
  0.9991018378934746  0.3353086064776580  0.4877438925941879
  0.1093225162403433  0.4466157385577201  0.6536175953608283
  0.3332358383418014  0.3332575042311499  0.4848922594926575
  0.4468092907277720  0.4467872779811609  0.6550423503873388
  0.6660499679082874  0.3364794932539583  0.4871155092522895
  0.7652437514879641  0.4708559800908021  0.6576412728948996
  0.9963830176877766  0.6686662365603148  0.4846426078406033
  0.1082257559514778  0.7742320691750219  0.6512553990291581
  0.3364338540517809  0.6657844108209651  0.4871999052339362
  0.4708429873003300  0.7648334357725584  0.6575405537360595
  0.6693708048747420  0.6695040982808921  0.4897028546158113
  0.7499426912271885  0.7499182503051038  0.6547981119462273
  0.0014150534174563  0.0013832364307205  0.2982290182377954
  0.9982249703294578  0.9981209449478720  0.6985112063040142
  0.2213614556244922  0.2215424101616038  0.4308335178192128
  0.1105292813887523  0.1107299074111808  0.5490070708070560
  0.3335155230291496  0.0011533091009790  0.2975922046288385
  0.3333164568542151  0.9989491563008236  0.6995072539020347
  0.5566538107999980  0.2226283302215179  0.4305598348355225
  0.4446821746666024  0.1123289117973825  0.5491173869274369
  0.6654581228636078  0.0014820691063756  0.2974857529484268
  0.6701598310771039  0.9907826885530605  0.6967914074814375
  0.8887427506631235  0.2244373587384328  0.4305458115979799
  0.7782513162157803  0.1107790285579907  0.5471343535374054
  0.0012527860798340  0.3333170135322787  0.2976588244496300
  0.9993789736131854  0.3329422235855876  0.6995316572088025
  0.2224254532243675  0.5567192435490587  0.4305756122328613
  0.1122520109817170  0.4448158444218638  0.5491217780365417
  0.3335372372189515  0.3335055575368477  0.2990968801199806
  0.3333997282259423  0.3333966452959100  0.6997872140497835
  0.5577587859519439  0.5578523734558044  0.4313109586252978
  0.4439096504167245  0.4437868485277472  0.5500551135406702
  0.6669103726970014  0.3341891946174090  0.2991876314771104
  0.6703047569069768  0.3279565051875652  0.6990350328934886
  0.8886047915359186  0.5540980860858834  0.4299018288573453
  0.7776723694500870  0.4452774010489141  0.5515205263857530
  0.0015278658869004  0.6654157248914375  0.2974749663908323
  0.9908308235973812  0.6701015095458223  0.6968211610301178
  0.2244121393876549  0.8886269211083455  0.4305621195811798
  0.1107291170918310  0.7782345495355365  0.5471641534646376
  0.3341842004923178  0.6668829049587321  0.2991786144212549
  0.3280025735931777  0.6702598429475549  0.6990576194512856
  0.5538916966379446  0.8888370525420460  0.4299434498037886
  0.4451429512326698  0.7777157161756327  0.5514812380515330
  0.6670935720179287  0.6670377421550170  0.2984904433649992
  0.6410745264061805  0.6411539683361139  0.7375963037473892
  0.8897326409354578  0.8898869337611039  0.4275345960910866
  0.7813030286028180  0.7816512220823203  0.5478450106631455
  0.5881441618575060  0.5885321261760247  0.7881042908926856
 
  0.00000000E+00  0.00000000E+00  0.00000000E+00
  0.00000000E+00  0.00000000E+00  0.00000000E+00
  0.00000000E+00  0.00000000E+00  0.00000000E+00
  0.00000000E+00  0.00000000E+00  0.00000000E+00
  0.00000000E+00  0.00000000E+00  0.00000000E+00
  0.00000000E+00  0.00000000E+00  0.00000000E+00
  0.00000000E+00  0.00000000E+00  0.00000000E+00
  0.00000000E+00  0.00000000E+00  0.00000000E+00
  0.00000000E+00  0.00000000E+00  0.00000000E+00
  0.00000000E+00  0.00000000E+00  0.00000000E+00
  0.00000000E+00  0.00000000E+00  0.00000000E+00
  0.00000000E+00  0.00000000E+00  0.00000000E+00
  0.00000000E+00  0.00000000E+00  0.00000000E+00
  0.00000000E+00  0.00000000E+00  0.00000000E+00
  0.00000000E+00  0.00000000E+00  0.00000000E+00
  0.00000000E+00  0.00000000E+00  0.00000000E+00
  0.00000000E+00  0.00000000E+00  0.00000000E+00
  0.00000000E+00  0.00000000E+00  0.00000000E+00
  0.00000000E+00  0.00000000E+00  0.00000000E+00
  0.00000000E+00  0.00000000E+00  0.00000000E+00
  0.00000000E+00  0.00000000E+00  0.00000000E+00
  0.00000000E+00  0.00000000E+00  0.00000000E+00
  0.00000000E+00  0.00000000E+00  0.00000000E+00
  0.00000000E+00  0.00000000E+00  0.00000000E+00
  0.00000000E+00  0.00000000E+00  0.00000000E+00
  0.00000000E+00  0.00000000E+00  0.00000000E+00
  0.00000000E+00  0.00000000E+00  0.00000000E+00
  0.00000000E+00  0.00000000E+00  0.00000000E+00
  0.00000000E+00  0.00000000E+00  0.00000000E+00
  0.00000000E+00  0.00000000E+00  0.00000000E+00
  0.00000000E+00  0.00000000E+00  0.00000000E+00
  0.00000000E+00  0.00000000E+00  0.00000000E+00
  0.00000000E+00  0.00000000E+00  0.00000000E+00
  0.00000000E+00  0.00000000E+00  0.00000000E+00
  0.00000000E+00  0.00000000E+00  0.00000000E+00
  0.00000000E+00  0.00000000E+00  0.00000000E+00
  0.00000000E+00  0.00000000E+00  0.00000000E+00
  0.00000000E+00  0.00000000E+00  0.00000000E+00
  0.00000000E+00  0.00000000E+00  0.00000000E+00
  0.00000000E+00  0.00000000E+00  0.00000000E+00
  0.00000000E+00  0.00000000E+00  0.00000000E+00
  0.00000000E+00  0.00000000E+00  0.00000000E+00
  0.00000000E+00  0.00000000E+00  0.00000000E+00
  0.00000000E+00  0.00000000E+00  0.00000000E+00
  0.00000000E+00  0.00000000E+00  0.00000000E+00
  0.00000000E+00  0.00000000E+00  0.00000000E+00
  0.00000000E+00  0.00000000E+00  0.00000000E+00
  0.00000000E+00  0.00000000E+00  0.00000000E+00
  0.00000000E+00  0.00000000E+00  0.00000000E+00
  0.00000000E+00  0.00000000E+00  0.00000000E+00
  0.00000000E+00  0.00000000E+00  0.00000000E+00
  0.00000000E+00  0.00000000E+00  0.00000000E+00
  0.00000000E+00  0.00000000E+00  0.00000000E+00
  0.00000000E+00  0.00000000E+00  0.00000000E+00
  0.00000000E+00  0.00000000E+00  0.00000000E+00
  0.00000000E+00  0.00000000E+00  0.00000000E+00
  0.00000000E+00  0.00000000E+00  0.00000000E+00
  0.00000000E+00  0.00000000E+00  0.00000000E+00
  0.00000000E+00  0.00000000E+00  0.00000000E+00
  0.00000000E+00  0.00000000E+00  0.00000000E+00
  0.00000000E+00  0.00000000E+00  0.00000000E+00
  0.00000000E+00  0.00000000E+00  0.00000000E+00
  0.00000000E+00  0.00000000E+00  0.00000000E+00
  0.00000000E+00  0.00000000E+00  0.00000000E+00
