CONTCAR\(4)                             
   1.00000000000000     
    12.6408004761000008    0.0000000000000000    0.0000000000000000
    -6.3204002380000004   10.9472543365000003    0.0000000000000000
     0.0000000000000000    0.0000000000000000   17.9836006164999986
   V    S    O    H 
    16    32     2     1
Direct
  0.0835978482469216  0.1685820851896015  0.5047550820602243
  0.3342328919938287  0.1685557290293989  0.5047923684043932
  0.5846708794139532  0.1692660523421855  0.5043232714648302
  0.8340360960108584  0.1693779743265666  0.5042157096260167
  0.0825862234598559  0.4178611301822547  0.5040743199931215
  0.3337029534758577  0.4187679301084665  0.5047042706380566
  0.5845943996118539  0.4176453023748384  0.5044151466900374
  0.8338739283062585  0.4182979601598134  0.5042532602015586
  0.0829333537048809  0.6677941002172206  0.5049513950012495
  0.3209668123884116  0.6620792942158964  0.5055093415610239
  0.5903606367793349  0.6623149523716927  0.5052348261285823
  0.8344105881712214  0.6678012621697773  0.5051027631645952
  0.0837287719436637  0.9181036788422071  0.5050886954415208
  0.3342178812613841  0.9182228634007574  0.5048940518258977
  0.5906869340261260  0.9317826232989473  0.5048164982154366
  0.8335334251582739  0.9184393829275339  0.5050051105407850
  0.0005893519630624  0.0017333322749402  0.4223068980753545
  0.0005990238293914  0.0019841592540419  0.5876804077741647
  0.2504308281673808  0.0017261682565127  0.4223080519434401
  0.2507659435833639  0.0018688984619562  0.5876428751787800
  0.5002226479123972  0.0033076684450772  0.4211886542108977
  0.5008146847862671  0.0047394878642760  0.5882803138370376
  0.7526136777238240  0.0033522987295427  0.4211767266823731
  0.7535909797732512  0.0050196915467821  0.5882976387733441
  0.0004947331049526  0.2516165895287222  0.4214239674047442
  0.0001895871903639  0.2518773369566796  0.5871824192075508
  0.2504864034415042  0.2518300828299503  0.4220692745370496
  0.2503939106079207  0.2517167261429932  0.5874622343266275
  0.5004794583977217  0.2516530266177258  0.4216107291870392
  0.5008978534935146  0.2516295472485230  0.5873755522239295
  0.7508053046343164  0.2523676804109953  0.4212621742915914
  0.7509655706944955  0.2524831795970625  0.5872264369548259
  0.0002385035644410  0.5020876696734364  0.4214556032787524
  0.9996274672504356  0.5009623115905509  0.5873251967928762
  0.2487469113671121  0.5001337303235777  0.4211762498726291
  0.2472055816702523  0.4985623038263283  0.5880384321198183
  0.5005761524129989  0.4998488214786783  0.4215268110103777
  0.5003863631800729  0.4985784399806680  0.5881880513054834
  0.7510736389305476  0.5020566314552700  0.4216933733736331
  0.7508174816369432  0.5009485983255159  0.5875047194185777
  0.0006047005846372  0.7519286773082170  0.4221723762337193
  0.0005778594636203  0.7515812588754482  0.5878734754341222
  0.2486647822291125  0.7516721292756204  0.4216608180453751
  0.2482413883598653  0.7518479893869251  0.5887702649500596
  0.5001946027423884  0.7512399322917596  0.4321580039588487
  0.5021709489353391  0.7548316306665144  0.5750339269666376
  0.7525838748371886  0.7517973853435043  0.4218416361527649
  0.7528736176477635  0.7518884225684838  0.5888863702239021
  0.5164291157203211  0.7792737583235709  0.6680595529439487
  0.4529948813611394  0.6648823256779145  0.7096983779930079
  0.5187179778494834  0.6449696853051113  0.7152154603593623
 
  0.00000000E+00  0.00000000E+00  0.00000000E+00
  0.00000000E+00  0.00000000E+00  0.00000000E+00
  0.00000000E+00  0.00000000E+00  0.00000000E+00
  0.00000000E+00  0.00000000E+00  0.00000000E+00
  0.00000000E+00  0.00000000E+00  0.00000000E+00
  0.00000000E+00  0.00000000E+00  0.00000000E+00
  0.00000000E+00  0.00000000E+00  0.00000000E+00
  0.00000000E+00  0.00000000E+00  0.00000000E+00
  0.00000000E+00  0.00000000E+00  0.00000000E+00
  0.00000000E+00  0.00000000E+00  0.00000000E+00
  0.00000000E+00  0.00000000E+00  0.00000000E+00
  0.00000000E+00  0.00000000E+00  0.00000000E+00
  0.00000000E+00  0.00000000E+00  0.00000000E+00
  0.00000000E+00  0.00000000E+00  0.00000000E+00
  0.00000000E+00  0.00000000E+00  0.00000000E+00
  0.00000000E+00  0.00000000E+00  0.00000000E+00
  0.00000000E+00  0.00000000E+00  0.00000000E+00
  0.00000000E+00  0.00000000E+00  0.00000000E+00
  0.00000000E+00  0.00000000E+00  0.00000000E+00
  0.00000000E+00  0.00000000E+00  0.00000000E+00
  0.00000000E+00  0.00000000E+00  0.00000000E+00
  0.00000000E+00  0.00000000E+00  0.00000000E+00
  0.00000000E+00  0.00000000E+00  0.00000000E+00
  0.00000000E+00  0.00000000E+00  0.00000000E+00
  0.00000000E+00  0.00000000E+00  0.00000000E+00
  0.00000000E+00  0.00000000E+00  0.00000000E+00
  0.00000000E+00  0.00000000E+00  0.00000000E+00
  0.00000000E+00  0.00000000E+00  0.00000000E+00
  0.00000000E+00  0.00000000E+00  0.00000000E+00
  0.00000000E+00  0.00000000E+00  0.00000000E+00
  0.00000000E+00  0.00000000E+00  0.00000000E+00
  0.00000000E+00  0.00000000E+00  0.00000000E+00
  0.00000000E+00  0.00000000E+00  0.00000000E+00
  0.00000000E+00  0.00000000E+00  0.00000000E+00
  0.00000000E+00  0.00000000E+00  0.00000000E+00
  0.00000000E+00  0.00000000E+00  0.00000000E+00
  0.00000000E+00  0.00000000E+00  0.00000000E+00
  0.00000000E+00  0.00000000E+00  0.00000000E+00
  0.00000000E+00  0.00000000E+00  0.00000000E+00
  0.00000000E+00  0.00000000E+00  0.00000000E+00
  0.00000000E+00  0.00000000E+00  0.00000000E+00
  0.00000000E+00  0.00000000E+00  0.00000000E+00
  0.00000000E+00  0.00000000E+00  0.00000000E+00
  0.00000000E+00  0.00000000E+00  0.00000000E+00
  0.00000000E+00  0.00000000E+00  0.00000000E+00
  0.00000000E+00  0.00000000E+00  0.00000000E+00
  0.00000000E+00  0.00000000E+00  0.00000000E+00
  0.00000000E+00  0.00000000E+00  0.00000000E+00
  0.00000000E+00  0.00000000E+00  0.00000000E+00
  0.00000000E+00  0.00000000E+00  0.00000000E+00
  0.00000000E+00  0.00000000E+00  0.00000000E+00
