 Er2 H2 Cl2                             
   1.00000000000000     
     3.6725340244696776    0.0000000000000000    0.0000000000000000
     1.8362680042560706    3.1805079161507464    0.0000000000000000
     0.0000000000000000    0.0000000000000000   21.0473791057679982
   Er   H    Cl
     2     2     2
Direct
 -0.0000003978512402 -0.0000000954331852  0.4363201247069488
  0.3333334097010909  0.3333335603735252  0.5636797188264485
  0.0000001101463325 -0.0000000144752112  0.5388101293613606
  0.3333330630411650  0.3333331907870272  0.4611900086172322
  0.6666672864827856  0.6666663720242645  0.6437765613619696
  0.6666665284798664  0.6666669867235794  0.3562234571260406
 
  0.00000000E+00  0.00000000E+00  0.00000000E+00
  0.00000000E+00  0.00000000E+00  0.00000000E+00
  0.00000000E+00  0.00000000E+00  0.00000000E+00
  0.00000000E+00  0.00000000E+00  0.00000000E+00
  0.00000000E+00  0.00000000E+00  0.00000000E+00
  0.00000000E+00  0.00000000E+00  0.00000000E+00
