CONTCAR\(10)                            
   1.00000000000000     
    11.8485002518000009    0.0000000000000000    0.0000000000000000
    -1.9747488887000000   10.7919135847999996    0.0000000000000000
     0.0000000000000000    0.0000000000000000   24.1044006348000011
   Er   I 
    18    21
Direct
  0.1284186833207529  0.7730953361667396  0.4811334549957364
  0.0738775958544259  0.4446090439178055  0.4482905886712335
  0.2755400008520441  0.6576080088357387  0.3762482697125144
  0.2594704323821170  0.5553970884259736  0.5516942496679150
  0.0578093888984070  0.3424693283483630  0.6237381501732679
  0.2049441079681454  0.2269358059437165  0.5188904396922146
  0.4617487073207515  0.7730953361667396  0.4811334549957364
  0.4072175998544258  0.4446090439178055  0.4482905886712335
  0.6088700138520453  0.6576080088357387  0.3762482697125144
  0.5928004553821121  0.5553970884259736  0.5516942496679150
  0.3911493828984064  0.3424693283483630  0.6237381501732679
  0.5382840919681441  0.2269358059437165  0.5188904396922146
  0.7950886803207526  0.7730953361667396  0.4811334549957364
  0.7405476328544291  0.4446090439178055  0.4482905886712335
  0.9422099468520431  0.6576080088357387  0.3762482697125144
  0.9261304083821155  0.5553970884259736  0.5516942496679150
  0.7244794558984055  0.3424693283483630  0.6237381501732679
  0.8716140449681403  0.2269358059437165  0.5188904396922146
  0.2503470543051159  0.4987834682374589  0.6884062019233974
  0.1443218150710511  0.8715645181243931  0.3586945949497463
  0.1889983159000849  0.1284812905946652  0.6413016800030130
  0.0829827049297768  0.5012125260807266  0.3116033601116179
  0.1267976670646046  0.7573826984657734  0.6044575557909505
  0.0000129295026758 -0.0000114895961338  0.4999940887929147
  0.2064693659508076  0.2424726604547605  0.3955572965154793
  0.5836870883051184  0.4987834682374589  0.6884062019233974
  0.4776618290710521  0.8715645181243931  0.3586945949497463
  0.5223283089000845  0.1284812905946652  0.6413016800030130
  0.4163227039297728  0.5012125260807266  0.3116033601116179
  0.4601377010646072  0.7573826984657734  0.6044575557909505
  0.3333429275026793 -0.0000015405961313  0.4999940887929147
  0.5397993589508072  0.2424726604547605  0.3955572965154793
  0.9170170813051179  0.4987834682374589  0.6884062019233974
  0.8109918220710515  0.8715645181243931  0.3586945949497463
  0.8556682429000859  0.1284812905946652  0.6413016800030130
  0.7496526769297779  0.5012125260807266  0.3116033601116179
  0.7934677150646048  0.7573826984657734  0.6044575557909505
  0.6666729405026807 -0.0000015405961313  0.4999940887929147
  0.8731293519508068  0.2424726604547605  0.3955572965154793
 
  0.00000000E+00  0.00000000E+00  0.00000000E+00
  0.00000000E+00  0.00000000E+00  0.00000000E+00
  0.00000000E+00  0.00000000E+00  0.00000000E+00
  0.00000000E+00  0.00000000E+00  0.00000000E+00
  0.00000000E+00  0.00000000E+00  0.00000000E+00
  0.00000000E+00  0.00000000E+00  0.00000000E+00
  0.00000000E+00  0.00000000E+00  0.00000000E+00
  0.00000000E+00  0.00000000E+00  0.00000000E+00
  0.00000000E+00  0.00000000E+00  0.00000000E+00
  0.00000000E+00  0.00000000E+00  0.00000000E+00
  0.00000000E+00  0.00000000E+00  0.00000000E+00
  0.00000000E+00  0.00000000E+00  0.00000000E+00
  0.00000000E+00  0.00000000E+00  0.00000000E+00
  0.00000000E+00  0.00000000E+00  0.00000000E+00
  0.00000000E+00  0.00000000E+00  0.00000000E+00
  0.00000000E+00  0.00000000E+00  0.00000000E+00
  0.00000000E+00  0.00000000E+00  0.00000000E+00
  0.00000000E+00  0.00000000E+00  0.00000000E+00
  0.00000000E+00  0.00000000E+00  0.00000000E+00
  0.00000000E+00  0.00000000E+00  0.00000000E+00
  0.00000000E+00  0.00000000E+00  0.00000000E+00
  0.00000000E+00  0.00000000E+00  0.00000000E+00
  0.00000000E+00  0.00000000E+00  0.00000000E+00
  0.00000000E+00  0.00000000E+00  0.00000000E+00
  0.00000000E+00  0.00000000E+00  0.00000000E+00
  0.00000000E+00  0.00000000E+00  0.00000000E+00
  0.00000000E+00  0.00000000E+00  0.00000000E+00
  0.00000000E+00  0.00000000E+00  0.00000000E+00
  0.00000000E+00  0.00000000E+00  0.00000000E+00
  0.00000000E+00  0.00000000E+00  0.00000000E+00
  0.00000000E+00  0.00000000E+00  0.00000000E+00
  0.00000000E+00  0.00000000E+00  0.00000000E+00
  0.00000000E+00  0.00000000E+00  0.00000000E+00
  0.00000000E+00  0.00000000E+00  0.00000000E+00
  0.00000000E+00  0.00000000E+00  0.00000000E+00
  0.00000000E+00  0.00000000E+00  0.00000000E+00
  0.00000000E+00  0.00000000E+00  0.00000000E+00
  0.00000000E+00  0.00000000E+00  0.00000000E+00
  0.00000000E+00  0.00000000E+00  0.00000000E+00
