CONTCAR\(21)                            
   1.00000000000000     
    13.7100000381000005    0.0000000000000000    0.0000000000000000
    -6.8218533300999997   11.9299668931999996    0.0000000000000000
     0.0000000000000000    0.0000000000000000   18.6952991486000002
   Nb   Ir   Se
    12     4    32
Direct
  0.4898440985007184  0.2395231349889784  0.4997339424374729
  0.4838119842876480  0.0008689847406558  0.5013983518239726
  0.2505035457611413  0.2336564500513703  0.4983237202138611
  0.9898442035007164  0.2395231349889784  0.4997339424374729
  0.9838119492876487  0.0008689847406558  0.5013983518239726
  0.7505035807611407  0.2336564500513703  0.4983237202138611
  0.4898441135007161  0.7395231159889804  0.4997339424374729
  0.4838119872876447  0.5008789737406545  0.5013983518239726
  0.2505035527611383  0.7336564520513704  0.4983237202138611
  0.9898441825007183  0.7395231159889804  0.4997339424374729
  0.9838119572876494  0.5008690217406553  0.5013983518239726
  0.7505035707611398  0.7336564520513704  0.4983237202138611
  0.2752749587597094  0.0252350180716334  0.4999103397142264
  0.7752748887597107  0.0252350180716334  0.4999103397142264
  0.2752749627597098  0.5252349800716303  0.4999103397142264
  0.7752749277597104  0.5252349800716303  0.4999103397142264
  0.4221055882804308  0.0897458069427373  0.5985865285016345
  0.4098303244953598  0.3281490385623727  0.5903326165828489
  0.1648207767669163  0.0750370754096821  0.5876662221808147
  0.1756666493397603  0.3474746325357927  0.5753925901040873
  0.3391812520006567  0.1716689166029965  0.4011751191014881
  0.3248133921410172  0.4147110395247608  0.4122023273872770
  0.0778510164260808  0.1594211419378411  0.4090635464612262
  0.0972464332405636  0.4255387496311727  0.4243246694910852
  0.9221055192804286  0.0897458069427373  0.5985865285016345
  0.9098303594953592  0.3281490385623727  0.5903326165828489
  0.6648207777669128  0.0750470724096814  0.5876662221808147
  0.6756666313397588  0.3474746325357927  0.5753925901040873
  0.8391812340006553  0.1716689166029965  0.4011751191014881
  0.8248133921410172  0.4147110395247608  0.4122023273872770
  0.5778510434260795  0.1594211419378411  0.4090635464612262
  0.5972464762405636  0.4255387496311727  0.4243246694910852
  0.4221055882804308  0.5897458289427391  0.5985865285016345
  0.4098303344953607  0.8281490795623725  0.5903326165828489
  0.1648207697669122  0.5750470794096856  0.5876662221808147
  0.1756666753397624  0.8474746735357925  0.5753925901040873
  0.3391812490006529  0.6716688986029951  0.4011751191014881
  0.3248133971410212  0.9147110015247577  0.4122023273872770
  0.0778510274260853  0.6594211329378368  0.4090635464612262
  0.0972464512405651  0.9255387906311725  0.4243246694910852
  0.9221055882804308  0.5897458289427391  0.5985865285016345
  0.9098303344953607  0.8281490795623725  0.5903326165828489
  0.6648207717669123  0.5750370864096865  0.5876662221808147
  0.6756666753397624  0.8474746735357925  0.5753925901040873
  0.8391812140006536  0.6716688986029951  0.4011751191014881
  0.8248133971410212  0.9147110015247577  0.4122023273872770
  0.5778510624260846  0.6594211329378368  0.4090635464612262
  0.5972464852405608  0.9255387906311725  0.4243246694910852
 
  0.00000000E+00  0.00000000E+00  0.00000000E+00
  0.00000000E+00  0.00000000E+00  0.00000000E+00
  0.00000000E+00  0.00000000E+00  0.00000000E+00
  0.00000000E+00  0.00000000E+00  0.00000000E+00
  0.00000000E+00  0.00000000E+00  0.00000000E+00
  0.00000000E+00  0.00000000E+00  0.00000000E+00
  0.00000000E+00  0.00000000E+00  0.00000000E+00
  0.00000000E+00  0.00000000E+00  0.00000000E+00
  0.00000000E+00  0.00000000E+00  0.00000000E+00
  0.00000000E+00  0.00000000E+00  0.00000000E+00
  0.00000000E+00  0.00000000E+00  0.00000000E+00
  0.00000000E+00  0.00000000E+00  0.00000000E+00
  0.00000000E+00  0.00000000E+00  0.00000000E+00
  0.00000000E+00  0.00000000E+00  0.00000000E+00
  0.00000000E+00  0.00000000E+00  0.00000000E+00
  0.00000000E+00  0.00000000E+00  0.00000000E+00
  0.00000000E+00  0.00000000E+00  0.00000000E+00
  0.00000000E+00  0.00000000E+00  0.00000000E+00
  0.00000000E+00  0.00000000E+00  0.00000000E+00
  0.00000000E+00  0.00000000E+00  0.00000000E+00
  0.00000000E+00  0.00000000E+00  0.00000000E+00
  0.00000000E+00  0.00000000E+00  0.00000000E+00
  0.00000000E+00  0.00000000E+00  0.00000000E+00
  0.00000000E+00  0.00000000E+00  0.00000000E+00
  0.00000000E+00  0.00000000E+00  0.00000000E+00
  0.00000000E+00  0.00000000E+00  0.00000000E+00
  0.00000000E+00  0.00000000E+00  0.00000000E+00
  0.00000000E+00  0.00000000E+00  0.00000000E+00
  0.00000000E+00  0.00000000E+00  0.00000000E+00
  0.00000000E+00  0.00000000E+00  0.00000000E+00
  0.00000000E+00  0.00000000E+00  0.00000000E+00
  0.00000000E+00  0.00000000E+00  0.00000000E+00
  0.00000000E+00  0.00000000E+00  0.00000000E+00
  0.00000000E+00  0.00000000E+00  0.00000000E+00
  0.00000000E+00  0.00000000E+00  0.00000000E+00
  0.00000000E+00  0.00000000E+00  0.00000000E+00
  0.00000000E+00  0.00000000E+00  0.00000000E+00
  0.00000000E+00  0.00000000E+00  0.00000000E+00
  0.00000000E+00  0.00000000E+00  0.00000000E+00
  0.00000000E+00  0.00000000E+00  0.00000000E+00
  0.00000000E+00  0.00000000E+00  0.00000000E+00
  0.00000000E+00  0.00000000E+00  0.00000000E+00
  0.00000000E+00  0.00000000E+00  0.00000000E+00
  0.00000000E+00  0.00000000E+00  0.00000000E+00
  0.00000000E+00  0.00000000E+00  0.00000000E+00
  0.00000000E+00  0.00000000E+00  0.00000000E+00
  0.00000000E+00  0.00000000E+00  0.00000000E+00
  0.00000000E+00  0.00000000E+00  0.00000000E+00
