CONTCAR\(6)                             
   1.00000000000000     
    13.7474002837999993    0.0000000000000000    0.0000000000000000
     6.8496988029999999   13.0331533396000001    0.0000000000000000
     0.0000000000000000    0.0000000000000000   18.5631008147999985
   Li   Cu   C    O    H 
     9    18    18    55     1
Direct
  0.2296727536051525  0.0282202548576131  0.5108727186994323
  0.5356073834620261  0.0888904127229414  0.4726252096844281
  0.8635159601284036  0.0751249512148154  0.4729664618263485
  0.2565829110342904  0.3560030703173562  0.5568030330018675
  0.5405750253615050  0.3619645981065562  0.5707700301397556
  0.8833346863155814  0.4145618642860607  0.4343658782807337
  0.2029915283303052  0.7459233986880502  0.4697050050727944
  0.5600234804674203  0.6972666298901010  0.4912156154925994
  0.9099299018634402  0.6917351646116543  0.5052920578511380
  0.0875492451492913  0.2702925634349321  0.5612999551577693
  0.2772759259007682  0.1930814333032256  0.4080817487410022
  0.4668143486802911  0.2033590165567482  0.6497435737593664
  0.6282430743719785  0.2229029266982743  0.4010641160207584
  0.7980065963977352  0.2625177333778009  0.5744432285724146
  0.0165718506893771  0.1650266920015169  0.4036086732602737
  0.1389118956134489  0.5955059917839173  0.5956368253289933
  0.3384515254618051  0.4935008634920905  0.4319793413041215
  0.4105655204951115  0.6085115890316543  0.5798178962991556
  0.6291965429692913  0.5115187965494039  0.3936690780677690
  0.7871808078374553  0.5685278871538411  0.5508939660100018
  0.0043273871959009  0.5195003225680564  0.3612848879814164
  0.1025376506047672  0.9096885721718355  0.5823721065023008
  0.3326117436248586  0.8401856850014816  0.3903632280208234
  0.4733495436932179  0.9206986139385761  0.5768129793907286
  0.6351336799950940  0.8522244331407457  0.4012505550677260
  0.7864137419904852  0.9267355636268751  0.5710711263258645
  0.9478414459890997  0.8532187024071760  0.4108449740328446
  0.3264522521826358  0.1422127155275799  0.5898344785083731
  0.0934718715807360  0.3177363209954820  0.3715085314894779
  0.6601701875725086  0.1503336566797756  0.5601514046727184
  0.3995771990134917  0.3009028177144248  0.4393776653581563
 -0.0005856079750168  0.1271718415681116  0.5725010486612951
  0.7769152455116215  0.2877263400493892  0.4067267748170790
  0.3296777949874635  0.4646464660281408  0.6247284976918512
  0.1047165537818575  0.6326493282717692  0.4157234428826278
  0.6496512076118999  0.4861816937048596  0.5658359606363742
  0.4211837936207946  0.6363095854820611  0.3995162240286262
  0.0225303631655217  0.4748657478535376  0.5395481392417080
  0.7635096242666550  0.6257138498678619  0.3938059501293690
  0.3396201719232369  0.8115154736792246  0.5543532948276678
  0.0921544012524756  0.9558059189561073  0.4190311004012830
  0.6797302806932241  0.7936392423553780  0.5587018675787356
  0.4228285074957919  0.9761823122967180  0.4122733269440991
  0.9881578009702566  0.8093669025237912  0.5907125542339841
  0.7424906513057172  0.9887425665697395  0.3990070296785521
  0.2390410859795450  0.1443747091841115  0.5627134133883794
  0.3300660152463754  0.2270643937297021  0.6047701291437870
  0.0941755024664963  0.0479686480012937  0.5706078386512905
  0.0029608867680571  0.0427901271585070  0.4199075724675829
  0.1115631893528117  0.2245478847654489  0.3894233726329108
  0.1794561287342283  0.3304847804305473  0.3672864803228699
  0.5647585533370012  0.1521818027600295  0.5610208381684848
  0.6661483690247590  0.2352121150686472  0.5695826424426913
  0.4141363395777794  0.0580461873380529  0.6033320317898120
  0.3261565434321030  0.0493188375326171  0.4262400430818638
  0.4060947741814530  0.2109811544729734  0.4363098453429503
  0.4784413204266571  0.3184559444507929  0.4156551960018539
  0.9092005531176888  0.1200752766807466  0.5687388295922520
  0.9866819413334905  0.2205025433554988  0.5777713712496624
  0.7475077924291669  0.0661995421420791  0.5456899504754035
  0.6509519860810339  0.0718988931679039  0.3998762519924553
  0.7778631452809595  0.1992546203015298  0.4103735144206928
  0.8667242887782055  0.2940249255486411  0.4142100292628846
  0.2386054176181188  0.4577276146551280  0.6285002225727013
  0.3134647714528374  0.5587245352076999  0.6105522308095962
  0.1102047063484043  0.3879903209061863  0.5466195145619110
  0.9957868687721875  0.3909972349306731  0.3618782155813692
  0.1101711372372100  0.5667031033626961  0.3689543282326086
  0.1934283332486345  0.6214190696883050  0.4482845265543777
  0.5594381024895045  0.4797123253061821  0.5707082052492572
  0.6450446130478796  0.5752082000592287  0.5553111751480149
  0.4231034718459167  0.3878632135748377  0.6309471714451146
  0.3147965131336157  0.3790038111120124  0.4664254210642701
  0.4392106795967639  0.5419812570749533  0.4026579978969452
  0.5072563989526326  0.6513873402589928  0.3966385888299994
  0.9318216263265551  0.4712394983706283  0.5232703012233391
  0.0232281845882130  0.5613467320042016  0.5469002087139626
  0.7454977154655219  0.4068284130566324  0.5711766446556970
  0.6823374818093003  0.3672264041745862  0.3958198680818039
  0.7611628451179668  0.5376625962251268  0.3957225544164761
  0.8548309713815410  0.6287412429844146  0.3847062292005166
  0.2475403654919888  0.8066290744769320  0.5560285596950733
  0.3405188137152989  0.8986235356067879  0.5545397494877988
  0.0890018120155665  0.7401031387608886  0.5937014866473584
  0.0103506682391530  0.7107420370261048  0.4330739608672819
  0.0865890869831621  0.8703565231973333  0.4240409622050902
  0.1859366256547288  0.9564809575545089  0.4150923984978905
  0.5882145823162417  0.7873082641505144  0.5574245219358679
  0.6694283252483368  0.8851146473335133  0.5688485128960985
  0.4294834939739045  0.7255532252409836  0.5514600223324961
  0.3238340577545980  0.7131750382889560  0.3993061621618854
  0.4372033318305430  0.8894516115898953  0.3861316355065824
  0.5106979679569724  0.9850969340521911  0.4252887449838110
  0.9077675739607171  0.7878154577583067  0.5834182938332908
  0.9638644816255879  0.9060083726777096  0.5928716354797369
  0.7713619066050847  0.7124445677606052  0.5492126942531778
  0.6731277039768505  0.7094868041815581  0.4040042698017258
  0.7504732123597164  0.8967763674297911  0.4002577141704638
  0.8361087292629078  0.9911206023510907  0.3988017150361501
  0.5568735893958142  0.1803700340539788  0.7260945919836111
  0.5571872814632574  0.2434975754094533  0.7418279298842907
 
  0.00000000E+00  0.00000000E+00  0.00000000E+00
  0.00000000E+00  0.00000000E+00  0.00000000E+00
  0.00000000E+00  0.00000000E+00  0.00000000E+00
  0.00000000E+00  0.00000000E+00  0.00000000E+00
  0.00000000E+00  0.00000000E+00  0.00000000E+00
  0.00000000E+00  0.00000000E+00  0.00000000E+00
  0.00000000E+00  0.00000000E+00  0.00000000E+00
  0.00000000E+00  0.00000000E+00  0.00000000E+00
  0.00000000E+00  0.00000000E+00  0.00000000E+00
  0.00000000E+00  0.00000000E+00  0.00000000E+00
  0.00000000E+00  0.00000000E+00  0.00000000E+00
  0.00000000E+00  0.00000000E+00  0.00000000E+00
  0.00000000E+00  0.00000000E+00  0.00000000E+00
  0.00000000E+00  0.00000000E+00  0.00000000E+00
  0.00000000E+00  0.00000000E+00  0.00000000E+00
  0.00000000E+00  0.00000000E+00  0.00000000E+00
  0.00000000E+00  0.00000000E+00  0.00000000E+00
  0.00000000E+00  0.00000000E+00  0.00000000E+00
  0.00000000E+00  0.00000000E+00  0.00000000E+00
  0.00000000E+00  0.00000000E+00  0.00000000E+00
  0.00000000E+00  0.00000000E+00  0.00000000E+00
  0.00000000E+00  0.00000000E+00  0.00000000E+00
  0.00000000E+00  0.00000000E+00  0.00000000E+00
  0.00000000E+00  0.00000000E+00  0.00000000E+00
  0.00000000E+00  0.00000000E+00  0.00000000E+00
  0.00000000E+00  0.00000000E+00  0.00000000E+00
  0.00000000E+00  0.00000000E+00  0.00000000E+00
  0.00000000E+00  0.00000000E+00  0.00000000E+00
  0.00000000E+00  0.00000000E+00  0.00000000E+00
  0.00000000E+00  0.00000000E+00  0.00000000E+00
  0.00000000E+00  0.00000000E+00  0.00000000E+00
  0.00000000E+00  0.00000000E+00  0.00000000E+00
  0.00000000E+00  0.00000000E+00  0.00000000E+00
  0.00000000E+00  0.00000000E+00  0.00000000E+00
  0.00000000E+00  0.00000000E+00  0.00000000E+00
  0.00000000E+00  0.00000000E+00  0.00000000E+00
  0.00000000E+00  0.00000000E+00  0.00000000E+00
  0.00000000E+00  0.00000000E+00  0.00000000E+00
  0.00000000E+00  0.00000000E+00  0.00000000E+00
  0.00000000E+00  0.00000000E+00  0.00000000E+00
  0.00000000E+00  0.00000000E+00  0.00000000E+00
  0.00000000E+00  0.00000000E+00  0.00000000E+00
  0.00000000E+00  0.00000000E+00  0.00000000E+00
  0.00000000E+00  0.00000000E+00  0.00000000E+00
  0.00000000E+00  0.00000000E+00  0.00000000E+00
  0.00000000E+00  0.00000000E+00  0.00000000E+00
  0.00000000E+00  0.00000000E+00  0.00000000E+00
  0.00000000E+00  0.00000000E+00  0.00000000E+00
  0.00000000E+00  0.00000000E+00  0.00000000E+00
  0.00000000E+00  0.00000000E+00  0.00000000E+00
  0.00000000E+00  0.00000000E+00  0.00000000E+00
  0.00000000E+00  0.00000000E+00  0.00000000E+00
  0.00000000E+00  0.00000000E+00  0.00000000E+00
  0.00000000E+00  0.00000000E+00  0.00000000E+00
  0.00000000E+00  0.00000000E+00  0.00000000E+00
  0.00000000E+00  0.00000000E+00  0.00000000E+00
  0.00000000E+00  0.00000000E+00  0.00000000E+00
  0.00000000E+00  0.00000000E+00  0.00000000E+00
  0.00000000E+00  0.00000000E+00  0.00000000E+00
  0.00000000E+00  0.00000000E+00  0.00000000E+00
  0.00000000E+00  0.00000000E+00  0.00000000E+00
  0.00000000E+00  0.00000000E+00  0.00000000E+00
  0.00000000E+00  0.00000000E+00  0.00000000E+00
  0.00000000E+00  0.00000000E+00  0.00000000E+00
  0.00000000E+00  0.00000000E+00  0.00000000E+00
  0.00000000E+00  0.00000000E+00  0.00000000E+00
  0.00000000E+00  0.00000000E+00  0.00000000E+00
  0.00000000E+00  0.00000000E+00  0.00000000E+00
  0.00000000E+00  0.00000000E+00  0.00000000E+00
  0.00000000E+00  0.00000000E+00  0.00000000E+00
  0.00000000E+00  0.00000000E+00  0.00000000E+00
  0.00000000E+00  0.00000000E+00  0.00000000E+00
  0.00000000E+00  0.00000000E+00  0.00000000E+00
  0.00000000E+00  0.00000000E+00  0.00000000E+00
  0.00000000E+00  0.00000000E+00  0.00000000E+00
  0.00000000E+00  0.00000000E+00  0.00000000E+00
  0.00000000E+00  0.00000000E+00  0.00000000E+00
  0.00000000E+00  0.00000000E+00  0.00000000E+00
  0.00000000E+00  0.00000000E+00  0.00000000E+00
  0.00000000E+00  0.00000000E+00  0.00000000E+00
  0.00000000E+00  0.00000000E+00  0.00000000E+00
  0.00000000E+00  0.00000000E+00  0.00000000E+00
  0.00000000E+00  0.00000000E+00  0.00000000E+00
  0.00000000E+00  0.00000000E+00  0.00000000E+00
  0.00000000E+00  0.00000000E+00  0.00000000E+00
  0.00000000E+00  0.00000000E+00  0.00000000E+00
  0.00000000E+00  0.00000000E+00  0.00000000E+00
  0.00000000E+00  0.00000000E+00  0.00000000E+00
  0.00000000E+00  0.00000000E+00  0.00000000E+00
  0.00000000E+00  0.00000000E+00  0.00000000E+00
  0.00000000E+00  0.00000000E+00  0.00000000E+00
  0.00000000E+00  0.00000000E+00  0.00000000E+00
  0.00000000E+00  0.00000000E+00  0.00000000E+00
  0.00000000E+00  0.00000000E+00  0.00000000E+00
  0.00000000E+00  0.00000000E+00  0.00000000E+00
  0.00000000E+00  0.00000000E+00  0.00000000E+00
  0.00000000E+00  0.00000000E+00  0.00000000E+00
  0.00000000E+00  0.00000000E+00  0.00000000E+00
  0.00000000E+00  0.00000000E+00  0.00000000E+00
  0.00000000E+00  0.00000000E+00  0.00000000E+00
  0.00000000E+00  0.00000000E+00  0.00000000E+00
