 V1 S2                                  
   1.00000000000000     
     3.1602041564682297    0.0000000000000000    0.0000000000000000
    -1.5801020782341149    2.7368167530972469    0.0000000000000000
     0.0000000000000000    0.0000000000000000   17.9836449891360033
   V    S 
     1     2
Direct
  0.3333332071026263  0.6666668148235928  0.4999999999721538
  0.9999998965924419  0.0000000866037624  0.4171484835668338
  0.9999998963049350  0.0000000985726416  0.5828515164610124
 
  0.00000000E+00  0.00000000E+00  0.00000000E+00
  0.00000000E+00  0.00000000E+00  0.00000000E+00
  0.00000000E+00  0.00000000E+00  0.00000000E+00
