CONTCAR\(6)                             
   1.00000000000000     
    15.7593002318999993    0.0000000000000000    0.0000000000000000
     0.0000000000000000   15.7517004013000008    0.0000000000000000
     0.0000000000000000    0.0000000000000000   17.5345993042000003
   Fe   S    O 
    32    40     1
Direct
  0.4436794177326304  0.1324673768419151  0.4945102951732375
  0.3903433588096278  0.2831468721249951  0.4998045552185084
  0.3398156228836073  0.4329247490904690  0.5222431717219717
  0.2912586847177982  0.0884836820532218  0.5030873066826516
  0.0389959770861901  0.3392500124319935  0.4998650827914309
  0.0931291814295306  0.1885028383491115  0.4980031997968590
  0.1393899359584820  0.0363918055639376  0.5017804329302399
  0.1887174868355836  0.3898804803477947  0.5218815150643027
  0.9419278532745300  0.1342974098258477  0.4938197496889024
  0.8881203490194420  0.2855180947556548  0.4950881467463573
  0.8437703637574507  0.4376917063646941  0.5033150690249425
  0.7898467817146847  0.0901131667212857  0.5008761741841782
  0.5406899026793174  0.3377491777580710  0.4982882861671057
  0.5950099301073567  0.1865367130407448  0.4937481337073921
  0.6392692368215576  0.0339770140968946  0.5005336983871046
  0.6927479148959866  0.3839878860191323  0.5019258596558156
  0.4458665260055116  0.6341124953606259  0.4997350990505100
  0.3917668201273405  0.7848629701922782  0.4978731545028904
  0.3455148567148613  0.9370984842279777  0.5018925265595391
  0.2962026044454785  0.5833679126054342  0.5217307765459177
  0.0413065086343505  0.8411247604225184  0.4946513524072812
  0.0946202799787576  0.6903703719508938  0.4997184252909068
  0.1450766064506371  0.5404004206011100  0.5219605329399442
  0.1937397904692936  0.8850345806776320  0.5032842279926544
  0.9443353862738668  0.6358905493218439  0.4982759343431192
  0.8899252101971813  0.7871195621794926  0.4939497634442125
  0.8456291042006631  0.9396445892404103  0.5007296374622735
  0.7923132074305906  0.5895503463130677  0.5017160927497456
  0.5429755281577986  0.8392160257929488  0.4935892487255089
  0.5967563892228296  0.6880365705595995  0.4946924180683038
  0.6412309222115863  0.5358900451490229  0.5031047835304013
  0.6950005061038119  0.8834743545826531  0.5006842080953308
  0.4945284251888050  0.2333518387645251  0.5687706262627641
  0.3917353317193029  0.0396102988079850  0.5715854107764097
  0.3422050799722736  0.1835866456199178  0.4276290434267258
  0.2941047103406244  0.3205846876731356  0.5784133223954104
  0.2425799364604334  0.4864775292893839  0.4394350395299326
  0.0464179075125423  0.0901137200650003  0.4264147864261912
  0.0768151513087421  0.4348135164744095  0.5791669490143386
  0.1469650986267348  0.2951570463353587  0.4390109807028951
  0.1878442960891353  0.1356894931891093  0.5720075495297356
  0.4341176340133865  0.3911815576478199  0.4390184097719742
  0.9889474324930380  0.2345867905893897  0.5680333249107939
  0.8901860573920624  0.0421228425296473  0.5705012578589582
  0.8420178215460250  0.1836863663183410  0.4252370027138433
  0.7946804865705616  0.3367455137564686  0.5706811457115708
  0.7425545735391214  0.4866676494045828  0.4307733123716468
  0.5461492110603496  0.0863470688899930  0.4249595107569491
  0.5936979504567137  0.4327384276422901  0.5715443516699261
  0.6393640225629261  0.2912689320339855  0.4266846362962347
  0.6867894429094553  0.1340822574573907  0.5702641274464231
  0.9388713154035772  0.3872526140929846  0.4288102408832837
  0.4960607923619881  0.7388440909640140  0.5678041770586912
  0.4080895804492777  0.5388176993504689  0.5792865705988980
  0.3379058984243179  0.6781378065985489  0.4388429271449078
  0.2971457090589937  0.8376782558422964  0.5721176847533346
  0.2424813874753680  0.9866492570186171  0.4301769706710794
  0.0508292360305772  0.5823474420616502  0.4389314014962269
  0.0932680672598254  0.9340809378030752  0.5716916042943313
  0.1428538534880943  0.7900703537081037  0.4277675923905025
  0.1908645863038536  0.6527066367894794  0.5781413788295379
  0.4383919993343176  0.8834888484062640  0.4263561883028463
  0.9905391852036526  0.7401332301841508  0.5688519143894972
  0.8912785142409120  0.5410012750309372  0.5715413429958885
  0.8457786188409976  0.6824743728411454  0.4266498228851351
  0.7978904987785063  0.8395058170738062  0.5702818009422631
  0.7425756275167650  0.9868044701959275  0.4289504607577923
  0.5459196397815227  0.5861756244371366  0.4285874903660825
  0.5946689177550287  0.9314819470233920  0.5702257425610693
  0.6428679253261057  0.7899275689859901  0.4248955096756438
  0.6903287619583678  0.6369620319772227  0.5702676372502902
  0.9387447781987325  0.8872452554744568  0.4251145847545920
  0.2426922436986335  0.4866191340883038  0.5833271457758553
 
  0.00000000E+00  0.00000000E+00  0.00000000E+00
  0.00000000E+00  0.00000000E+00  0.00000000E+00
  0.00000000E+00  0.00000000E+00  0.00000000E+00
  0.00000000E+00  0.00000000E+00  0.00000000E+00
  0.00000000E+00  0.00000000E+00  0.00000000E+00
  0.00000000E+00  0.00000000E+00  0.00000000E+00
  0.00000000E+00  0.00000000E+00  0.00000000E+00
  0.00000000E+00  0.00000000E+00  0.00000000E+00
  0.00000000E+00  0.00000000E+00  0.00000000E+00
  0.00000000E+00  0.00000000E+00  0.00000000E+00
  0.00000000E+00  0.00000000E+00  0.00000000E+00
  0.00000000E+00  0.00000000E+00  0.00000000E+00
  0.00000000E+00  0.00000000E+00  0.00000000E+00
  0.00000000E+00  0.00000000E+00  0.00000000E+00
  0.00000000E+00  0.00000000E+00  0.00000000E+00
  0.00000000E+00  0.00000000E+00  0.00000000E+00
  0.00000000E+00  0.00000000E+00  0.00000000E+00
  0.00000000E+00  0.00000000E+00  0.00000000E+00
  0.00000000E+00  0.00000000E+00  0.00000000E+00
  0.00000000E+00  0.00000000E+00  0.00000000E+00
  0.00000000E+00  0.00000000E+00  0.00000000E+00
  0.00000000E+00  0.00000000E+00  0.00000000E+00
  0.00000000E+00  0.00000000E+00  0.00000000E+00
  0.00000000E+00  0.00000000E+00  0.00000000E+00
  0.00000000E+00  0.00000000E+00  0.00000000E+00
  0.00000000E+00  0.00000000E+00  0.00000000E+00
  0.00000000E+00  0.00000000E+00  0.00000000E+00
  0.00000000E+00  0.00000000E+00  0.00000000E+00
  0.00000000E+00  0.00000000E+00  0.00000000E+00
  0.00000000E+00  0.00000000E+00  0.00000000E+00
  0.00000000E+00  0.00000000E+00  0.00000000E+00
  0.00000000E+00  0.00000000E+00  0.00000000E+00
  0.00000000E+00  0.00000000E+00  0.00000000E+00
  0.00000000E+00  0.00000000E+00  0.00000000E+00
  0.00000000E+00  0.00000000E+00  0.00000000E+00
  0.00000000E+00  0.00000000E+00  0.00000000E+00
  0.00000000E+00  0.00000000E+00  0.00000000E+00
  0.00000000E+00  0.00000000E+00  0.00000000E+00
  0.00000000E+00  0.00000000E+00  0.00000000E+00
  0.00000000E+00  0.00000000E+00  0.00000000E+00
  0.00000000E+00  0.00000000E+00  0.00000000E+00
  0.00000000E+00  0.00000000E+00  0.00000000E+00
  0.00000000E+00  0.00000000E+00  0.00000000E+00
  0.00000000E+00  0.00000000E+00  0.00000000E+00
  0.00000000E+00  0.00000000E+00  0.00000000E+00
  0.00000000E+00  0.00000000E+00  0.00000000E+00
  0.00000000E+00  0.00000000E+00  0.00000000E+00
  0.00000000E+00  0.00000000E+00  0.00000000E+00
  0.00000000E+00  0.00000000E+00  0.00000000E+00
  0.00000000E+00  0.00000000E+00  0.00000000E+00
  0.00000000E+00  0.00000000E+00  0.00000000E+00
  0.00000000E+00  0.00000000E+00  0.00000000E+00
  0.00000000E+00  0.00000000E+00  0.00000000E+00
  0.00000000E+00  0.00000000E+00  0.00000000E+00
  0.00000000E+00  0.00000000E+00  0.00000000E+00
  0.00000000E+00  0.00000000E+00  0.00000000E+00
  0.00000000E+00  0.00000000E+00  0.00000000E+00
  0.00000000E+00  0.00000000E+00  0.00000000E+00
  0.00000000E+00  0.00000000E+00  0.00000000E+00
  0.00000000E+00  0.00000000E+00  0.00000000E+00
  0.00000000E+00  0.00000000E+00  0.00000000E+00
  0.00000000E+00  0.00000000E+00  0.00000000E+00
  0.00000000E+00  0.00000000E+00  0.00000000E+00
  0.00000000E+00  0.00000000E+00  0.00000000E+00
  0.00000000E+00  0.00000000E+00  0.00000000E+00
  0.00000000E+00  0.00000000E+00  0.00000000E+00
  0.00000000E+00  0.00000000E+00  0.00000000E+00
  0.00000000E+00  0.00000000E+00  0.00000000E+00
  0.00000000E+00  0.00000000E+00  0.00000000E+00
  0.00000000E+00  0.00000000E+00  0.00000000E+00
  0.00000000E+00  0.00000000E+00  0.00000000E+00
  0.00000000E+00  0.00000000E+00  0.00000000E+00
  0.00000000E+00  0.00000000E+00  0.00000000E+00
