 Li4 Nb2 P8 O26                         
   1.00000000000000     
     4.9824797831457079    0.0000000000000000    0.0000000000000000
    -1.2640419440135007    7.7111073819612947    0.0000000000000000
     0.0000000000000000    0.0000000000000000   27.0882670890640043
   Li   Nb   P    O 
     4     2     8    26
Direct
  0.3542942403072757  0.4950929440461351  0.5095888423834154
  0.2093128001343985  0.1432162605651399  0.4904128250389022
  0.7049912349074106  0.3698451656565211  0.7232886649357795
  0.8590573392616889  0.2683793048245775  0.2767046238541653
  0.8093857627584740  0.9600285944866016  0.3767864594994705
  0.7542786093885212  0.6782179380558588  0.6232113087424196
  0.2912744769751470  0.8716795882241684  0.5673791523286766
  0.9555871175379664  0.5840960948971201  0.3532435263768576
  0.5990898644524947  0.3213126796010286  0.4124691211474527
  0.9645466836315322  0.3169346135541318  0.5875364883854530
  0.3483243468209380  0.1495697514930256  0.3207783525043482
  0.2723702930670981  0.7665782029586552  0.4326176782302298
  0.6080948425083506  0.0541333166873699  0.6467646973072192
  0.2154259898720383  0.4887082027415488  0.6792176559497634
  0.4384921963295483  0.7137611484298674  0.5767567718231561
  0.3873640999847652  0.2802630672221511  0.3685029822726662
  0.7992263777619826  0.1922069314842645  0.4121268507548947
  0.4708674999020062  0.2381853129077669  0.2753971999026774
  0.3326818850777045  0.9907677627864260  0.6179740939844862
  0.2310080004384290  0.6474830327960461  0.3820255258337326
  0.9822470598226971  0.8036290679262166  0.5705438698266008
  0.5813834558673037  0.8346315588318092  0.4294547540187921
  0.5293372683783275  0.5410282282444356  0.6810445932640903
  0.1762973108833208  0.3579950740963653  0.6314980005285875
  0.7606020854870224  0.5063809921355400  0.3984804776838473
  0.7266554399784653  0.8944545487644859  0.6628709619922049
  0.5732309301264280  0.1800529126315524  0.6857074051731900
  0.9904709772243976  0.4581689570116154  0.3143018042371679
  0.0929212917716882  0.4000833949695348  0.7246006102856128
  0.4760885274910933  0.9909682793247896  0.3366715667531608
  0.3814911510185226  0.9834102530164159  0.5243349478527080
  0.7643888737243856  0.4460261840787609  0.5878861832168454
  0.1251537528387914  0.9244917546380620  0.4232293203181641
  0.0876288658756508  0.6472979786095934  0.6633244375114629
  0.1820915310532669  0.6548444052236135  0.4756567470416186
  0.4537814875686550  0.3354860470511554  0.4599035570292287
  0.8030604223499083  0.1318609681813285  0.6015261240201610
  0.0343977790840881  0.0972237320640801  0.3189529564948828
  0.8370327292744264  0.7437773511476564  0.3371343257236816
  0.1097963990637894  0.3027963986345696  0.5400945357722122
 
  0.00000000E+00  0.00000000E+00  0.00000000E+00
  0.00000000E+00  0.00000000E+00  0.00000000E+00
  0.00000000E+00  0.00000000E+00  0.00000000E+00
  0.00000000E+00  0.00000000E+00  0.00000000E+00
  0.00000000E+00  0.00000000E+00  0.00000000E+00
  0.00000000E+00  0.00000000E+00  0.00000000E+00
  0.00000000E+00  0.00000000E+00  0.00000000E+00
  0.00000000E+00  0.00000000E+00  0.00000000E+00
  0.00000000E+00  0.00000000E+00  0.00000000E+00
  0.00000000E+00  0.00000000E+00  0.00000000E+00
  0.00000000E+00  0.00000000E+00  0.00000000E+00
  0.00000000E+00  0.00000000E+00  0.00000000E+00
  0.00000000E+00  0.00000000E+00  0.00000000E+00
  0.00000000E+00  0.00000000E+00  0.00000000E+00
  0.00000000E+00  0.00000000E+00  0.00000000E+00
  0.00000000E+00  0.00000000E+00  0.00000000E+00
  0.00000000E+00  0.00000000E+00  0.00000000E+00
  0.00000000E+00  0.00000000E+00  0.00000000E+00
  0.00000000E+00  0.00000000E+00  0.00000000E+00
  0.00000000E+00  0.00000000E+00  0.00000000E+00
  0.00000000E+00  0.00000000E+00  0.00000000E+00
  0.00000000E+00  0.00000000E+00  0.00000000E+00
  0.00000000E+00  0.00000000E+00  0.00000000E+00
  0.00000000E+00  0.00000000E+00  0.00000000E+00
  0.00000000E+00  0.00000000E+00  0.00000000E+00
  0.00000000E+00  0.00000000E+00  0.00000000E+00
  0.00000000E+00  0.00000000E+00  0.00000000E+00
  0.00000000E+00  0.00000000E+00  0.00000000E+00
  0.00000000E+00  0.00000000E+00  0.00000000E+00
  0.00000000E+00  0.00000000E+00  0.00000000E+00
  0.00000000E+00  0.00000000E+00  0.00000000E+00
  0.00000000E+00  0.00000000E+00  0.00000000E+00
  0.00000000E+00  0.00000000E+00  0.00000000E+00
  0.00000000E+00  0.00000000E+00  0.00000000E+00
  0.00000000E+00  0.00000000E+00  0.00000000E+00
  0.00000000E+00  0.00000000E+00  0.00000000E+00
  0.00000000E+00  0.00000000E+00  0.00000000E+00
  0.00000000E+00  0.00000000E+00  0.00000000E+00
  0.00000000E+00  0.00000000E+00  0.00000000E+00
  0.00000000E+00  0.00000000E+00  0.00000000E+00
