 Ta4 Se12                               
   1.00000000000000     
     3.4984254046564387    0.0000000000000000    0.0000000000000000
     0.0000000000000000   12.1743163745924079    0.0000000000000000
     0.0000000000000000    0.0000000000000000   22.0200162827785775
   Ta   Se
     4    12
Direct
  0.2500000123010842  0.9937405979238935  0.4171306443558735
  0.7499999926609191  0.8551001026223733  0.5829667609858168
  0.2500000101031804  0.5868344138396725  0.4760840622720592
  0.7499999898979428  0.2619913369737333  0.5239878156590700
  0.2499999730571277  0.8146178521859788  0.4941614652060257
  0.7500000259087534  0.0342436241515070  0.5059383431875194
  0.2500000101066264  0.9852237255057563  0.6389396040076399
  0.7499999858732662  0.8635642161455440  0.3611757240455233
  0.7499999849276255  0.4355096645823282  0.4406346500456271
  0.2500000074919994  0.4133045240159105  0.5593710498096509
  0.7499999730801986  0.6316256502430543  0.5647842751794497
  0.2500000220249577  0.2171416500253551  0.4352882259535432
  0.7500000389066994  0.0759181383904328  0.3408878605784201
  0.2499999518742048  0.7728699813656738  0.6591769059959985
  0.7500000071903764  0.6556015181619170  0.3943680802929607
  0.2500000145950390  0.1933467453676166  0.6057359588814365
 
  0.00000000E+00  0.00000000E+00  0.00000000E+00
  0.00000000E+00  0.00000000E+00  0.00000000E+00
  0.00000000E+00  0.00000000E+00  0.00000000E+00
  0.00000000E+00  0.00000000E+00  0.00000000E+00
  0.00000000E+00  0.00000000E+00  0.00000000E+00
  0.00000000E+00  0.00000000E+00  0.00000000E+00
  0.00000000E+00  0.00000000E+00  0.00000000E+00
  0.00000000E+00  0.00000000E+00  0.00000000E+00
  0.00000000E+00  0.00000000E+00  0.00000000E+00
  0.00000000E+00  0.00000000E+00  0.00000000E+00
  0.00000000E+00  0.00000000E+00  0.00000000E+00
  0.00000000E+00  0.00000000E+00  0.00000000E+00
  0.00000000E+00  0.00000000E+00  0.00000000E+00
  0.00000000E+00  0.00000000E+00  0.00000000E+00
  0.00000000E+00  0.00000000E+00  0.00000000E+00
  0.00000000E+00  0.00000000E+00  0.00000000E+00
