CONTCAR\(5)                             
   1.00000000000000     
     7.8445000648000001    0.0000000000000000    0.0000000000000000
     3.9223001003000002    6.7936230563000004    0.0000000000000000
     0.0000000000000000    0.0000000000000000   18.9503002167000005
   Te   Pt   O 
     8     8     1
Selective dynamics
Direct
  0.3331412918390200  0.3334716305656968  0.6122682150203289   F   F   F
  0.3345942992176276  0.3328182508746522  0.3906274372645768   F   F   F
  0.8331763742038234  0.3334650542582551  0.6123636526018572   F   F   F
  0.8323518250383231  0.3328781876752913  0.3906210025890076   F   F   F
  0.3324149420350722  0.8339616556304392  0.6040427860319966   F   F   F
  0.3331741955522460  0.8334378263196385  0.3962930012614621   F   F   F
  0.8331689092657228  0.8334731267189639  0.6124205174518877   F   F   F
  0.8323323227852413  0.8349005487408476  0.3906197202262902   F   F   F
  0.1629811267207728  0.1737181456631731  0.5416461556254433   F   F   F
  0.9964395689817422  0.0018427974094735  0.4607271774852464   F   F   F
  0.6666035985291856  0.1667212099937174  0.5446450858552296   F   F   F
  0.5014031304774065  0.0018130859480578  0.4607929309640966   F   F   F
  0.1629698488894959  0.6634504251081523  0.5417092652244193   F   F   F
  0.9997084646629375  0.5002475040677155  0.4577889920620279   F   F   F
  0.6731022157309710  0.6635488096378808  0.5418832616562383   F   F   F
  0.5014746363238203  0.4968749938521029  0.4608130247884006   F   F   F
  0.3296831157465972  0.8360667295359292  0.7003061207033467   T   T   T
 
  0.00000000E+00  0.00000000E+00  0.00000000E+00
  0.00000000E+00  0.00000000E+00  0.00000000E+00
  0.00000000E+00  0.00000000E+00  0.00000000E+00
  0.00000000E+00  0.00000000E+00  0.00000000E+00
  0.00000000E+00  0.00000000E+00  0.00000000E+00
  0.00000000E+00  0.00000000E+00  0.00000000E+00
  0.00000000E+00  0.00000000E+00  0.00000000E+00
  0.00000000E+00  0.00000000E+00  0.00000000E+00
  0.00000000E+00  0.00000000E+00  0.00000000E+00
  0.00000000E+00  0.00000000E+00  0.00000000E+00
  0.00000000E+00  0.00000000E+00  0.00000000E+00
  0.00000000E+00  0.00000000E+00  0.00000000E+00
  0.00000000E+00  0.00000000E+00  0.00000000E+00
  0.00000000E+00  0.00000000E+00  0.00000000E+00
  0.00000000E+00  0.00000000E+00  0.00000000E+00
  0.00000000E+00  0.00000000E+00  0.00000000E+00
  0.00000000E+00  0.00000000E+00  0.00000000E+00
