CONTCAR\(9)                             
   1.00000000000000     
    13.0511999129999996    0.0000000000000000    0.0000000000000000
     6.3390174089000002   12.3852332663000002    0.0000000000000000
     0.0000000000000000    0.0000000000000000   23.7280006408999995
   Te   Os   Cl   O    H 
     8     4    48     2     1
Direct
  0.4091610179107983  0.6763712669009719  0.3918364536556596
  0.0927865348817574  0.3186541738472647  0.6076330004407613
  0.9092177175233239  0.6764721754891140  0.3915693476164703
  0.5921159724117870  0.3191326505120098  0.6092325390155996
  0.4098055986718149  0.1759386465488245  0.3917419895142727
  0.0928282661252885  0.8183825265379781  0.6073840258363091
  0.9095310284174278  0.1765045473695650  0.3919246180840523
  0.5927208976984032  0.8187786008476178  0.6075364611124539
  0.2514023951935143  0.4971628545450619  0.4993369964421084
  0.7510791752039699  0.4975598576249697  0.4996109577881417
  0.2509094141298597  0.9977202468303625  0.4998317413319415
  0.7511778139586629  0.9976487112464483  0.4997532947403375
  0.2797149033695522  0.7423638486569113  0.3149201042329475
  0.2225427560642517  0.2535760817371311  0.6843449235025886
  0.5001886203993844  0.7825455409401172  0.3672210257530231
  0.0515881016392011  0.6038477179943773  0.4929327164972441
  0.4506953016658543  0.3908074516662507  0.5060135160946055
  0.2266767747203240  0.4387182241468535  0.5884366101589200
  0.2756984993453196  0.5558453045055175  0.4102244375843807
  0.2301168813336622  0.3554378182475452  0.4568595164274589
  0.2724216315802391  0.6390625387953970  0.5417978333988616
  0.4608468580046564  0.4740535551084930  0.6576600442503593
  0.0402083207448191  0.5225538090746559  0.3419266639373386
  0.0018954614349581  0.2125266092067051  0.6325215516955632
  0.7794265748071906  0.7425392944630381  0.3147895905523739
  0.7232343295989625  0.2540563538898977  0.6850594328335134
  0.0002575141358296  0.7825287493802016  0.3668961215630320
  0.5512530543279277  0.6040055878384404  0.4932910152469691
  0.9508166057627226  0.3910634234862022  0.5057716513387617
  0.7271684946058690  0.4387383829495866  0.5886046343946014
  0.7750019730727579  0.5565960917858016  0.4104616258593733
  0.7298470072881195  0.3558378799814029  0.4571144966173100
  0.7723802224690204  0.6392197728146368  0.5420729516040069
  0.9614397312783149  0.4728499851718300  0.6569940989165061
  0.5404786199954933  0.5224611831285907  0.3422482255393978
  0.5015784206258314  0.2128414568837147  0.6335430265007024
  0.2800591650928336  0.2416170416817378  0.3149330463805128
  0.2225169931192879  0.7517676050463041  0.6841749442149220
  0.5009203043577098  0.2819094721409173  0.3668764398684157
  0.0511972141088961  0.1044337137512537  0.4935274562328077
  0.4506751505711402  0.8910886127662079  0.5060392764360260
  0.2265852607368817  0.9386952276092907  0.5888298700055165
  0.2752248447150145  0.0568049546239921  0.4108293153003365
  0.2295628151239672  0.8562593751188461  0.4570962465222044
  0.2724965109193974  0.1390609511944043  0.5425480448173756
  0.4618879365953418  0.9726253914331270  0.6572636644521150
  0.0405726522330016  0.0225200428204441  0.3422750374955549
  0.0015754078614827  0.7122890133474810  0.6316584699525924
  0.7798319833625141  0.2424629871497563  0.3150800350635971
  0.7223960865667455  0.7526276223030387  0.6843526810670857
  0.0008260020281134  0.2823715690352204  0.3671710005550033
  0.5514690432410717  0.1042636716418267  0.4934437353004149
  0.9508695234901445  0.8907156651970402  0.5059062643972756
  0.7267223614279164  0.9385659924278317  0.5887559681406180
  0.7756093275032637  0.0565266828753665  0.4106707965501319
  0.7297075284671007  0.8561175547011098  0.4570169671357645
  0.7723391040159683  0.1389547913388785  0.5424498585032207
  0.9618947888227302  0.9720640779396122  0.6571959974216756
  0.5409808846013361  0.0218261436628216  0.3422431516999608
  0.5015135032164988  0.7127238196721439  0.6319830970923207
  0.5662561292066907  0.3377197916295077  0.8220986079428056
  0.4808416136687476  0.3569388156054185  0.7851341080060500
  0.5280861595493941  0.3840757901329441  0.8550790053677721
 
  0.00000000E+00  0.00000000E+00  0.00000000E+00
  0.00000000E+00  0.00000000E+00  0.00000000E+00
  0.00000000E+00  0.00000000E+00  0.00000000E+00
  0.00000000E+00  0.00000000E+00  0.00000000E+00
  0.00000000E+00  0.00000000E+00  0.00000000E+00
  0.00000000E+00  0.00000000E+00  0.00000000E+00
  0.00000000E+00  0.00000000E+00  0.00000000E+00
  0.00000000E+00  0.00000000E+00  0.00000000E+00
  0.00000000E+00  0.00000000E+00  0.00000000E+00
  0.00000000E+00  0.00000000E+00  0.00000000E+00
  0.00000000E+00  0.00000000E+00  0.00000000E+00
  0.00000000E+00  0.00000000E+00  0.00000000E+00
  0.00000000E+00  0.00000000E+00  0.00000000E+00
  0.00000000E+00  0.00000000E+00  0.00000000E+00
  0.00000000E+00  0.00000000E+00  0.00000000E+00
  0.00000000E+00  0.00000000E+00  0.00000000E+00
  0.00000000E+00  0.00000000E+00  0.00000000E+00
  0.00000000E+00  0.00000000E+00  0.00000000E+00
  0.00000000E+00  0.00000000E+00  0.00000000E+00
  0.00000000E+00  0.00000000E+00  0.00000000E+00
  0.00000000E+00  0.00000000E+00  0.00000000E+00
  0.00000000E+00  0.00000000E+00  0.00000000E+00
  0.00000000E+00  0.00000000E+00  0.00000000E+00
  0.00000000E+00  0.00000000E+00  0.00000000E+00
  0.00000000E+00  0.00000000E+00  0.00000000E+00
  0.00000000E+00  0.00000000E+00  0.00000000E+00
  0.00000000E+00  0.00000000E+00  0.00000000E+00
  0.00000000E+00  0.00000000E+00  0.00000000E+00
  0.00000000E+00  0.00000000E+00  0.00000000E+00
  0.00000000E+00  0.00000000E+00  0.00000000E+00
  0.00000000E+00  0.00000000E+00  0.00000000E+00
  0.00000000E+00  0.00000000E+00  0.00000000E+00
  0.00000000E+00  0.00000000E+00  0.00000000E+00
  0.00000000E+00  0.00000000E+00  0.00000000E+00
  0.00000000E+00  0.00000000E+00  0.00000000E+00
  0.00000000E+00  0.00000000E+00  0.00000000E+00
  0.00000000E+00  0.00000000E+00  0.00000000E+00
  0.00000000E+00  0.00000000E+00  0.00000000E+00
  0.00000000E+00  0.00000000E+00  0.00000000E+00
  0.00000000E+00  0.00000000E+00  0.00000000E+00
  0.00000000E+00  0.00000000E+00  0.00000000E+00
  0.00000000E+00  0.00000000E+00  0.00000000E+00
  0.00000000E+00  0.00000000E+00  0.00000000E+00
  0.00000000E+00  0.00000000E+00  0.00000000E+00
  0.00000000E+00  0.00000000E+00  0.00000000E+00
  0.00000000E+00  0.00000000E+00  0.00000000E+00
  0.00000000E+00  0.00000000E+00  0.00000000E+00
  0.00000000E+00  0.00000000E+00  0.00000000E+00
  0.00000000E+00  0.00000000E+00  0.00000000E+00
  0.00000000E+00  0.00000000E+00  0.00000000E+00
  0.00000000E+00  0.00000000E+00  0.00000000E+00
  0.00000000E+00  0.00000000E+00  0.00000000E+00
  0.00000000E+00  0.00000000E+00  0.00000000E+00
  0.00000000E+00  0.00000000E+00  0.00000000E+00
  0.00000000E+00  0.00000000E+00  0.00000000E+00
  0.00000000E+00  0.00000000E+00  0.00000000E+00
  0.00000000E+00  0.00000000E+00  0.00000000E+00
  0.00000000E+00  0.00000000E+00  0.00000000E+00
  0.00000000E+00  0.00000000E+00  0.00000000E+00
  0.00000000E+00  0.00000000E+00  0.00000000E+00
  0.00000000E+00  0.00000000E+00  0.00000000E+00
  0.00000000E+00  0.00000000E+00  0.00000000E+00
  0.00000000E+00  0.00000000E+00  0.00000000E+00
