CONTCAR\(2)                             
   1.00000000000000     
    12.6962003707999997    0.0000000000000000    0.0000000000000000
     6.3480846718999997   11.0165970520999998    0.0000000000000000
     0.0000000000000000    0.0000000000000000   18.4927997588999986
   V    Ag   P    Se   O 
     4     4     8    24     1
Direct
  0.1650055843164395  0.1702767664167411  0.4997059193790747
  0.6700110296381467  0.1785864651554334  0.4979161580566753
  0.1730286575286399  0.6571832266261595  0.4985202816880587
  0.6517613619201938  0.6754369915131235  0.4980867174868848
  0.3251698529110314  0.3474542118038073  0.4922318808607145
  0.8273547793017002  0.3296300040324951  0.4918914790493005
  0.3425604746250528  0.8324422425909788  0.4925997307515217
  0.8318833263517931  0.8361461373733476  0.4972833567039316
  0.4996887307312079  0.0056319520589838  0.5583693629940285
  0.4995011707568580  0.0046656416397539  0.4385518703896096
  0.0005034300416185  0.0001356222995810  0.5585320989034201
  0.9996784830382524  0.0010425663792830  0.4387038558387246
  0.4985700545957741  0.5030624621248734  0.6266544277989397
  0.4982392169000462  0.5037271317776728  0.4656713266424433
  0.9948477779285696  0.5046828903114289  0.5583186404219092
  0.9961055073832270  0.5044953811246700  0.4385524472066606
  0.1538796162686751  0.3255955594663362  0.4057139029590147
  0.0170535399758549  0.3253700355901543  0.5906562658544559
  0.3202365920337158  0.1620278398961403  0.5913119506903968
  0.0212635940440506  0.1584132450704558  0.4056121132147013
  0.3204206698999172  0.0258125062561092  0.4056699388978799
  0.1572624746867817  0.0232051217050753  0.5912281550595111
  0.6460014809431840  0.3310139320926240  0.4075700684379413
  0.5118300562479945  0.3238333205852797  0.5854866860903840
  0.8207449997268199  0.1578162212694920  0.5933461320166487
  0.5205260060849284  0.1627687666027740  0.4068380296727838
  0.8202332679895719  0.0232296468772617  0.4069936930585527
  0.6588706585517414  0.0227328334485222  0.5890283661143343
  0.1577211583350220  0.8218725218322405  0.4071881212421005
  0.0170860844352347  0.8243406788506178  0.5894408606266310
  0.3191497204332876  0.6690058489613548  0.5856245290398618
  0.0182892442272333  0.6618357557969574  0.4072277697830273
  0.3250838936278058  0.5283798264974351  0.4080873008954597
  0.1529783262913895  0.5261143627381770  0.5934405659900861
  0.6569103913073704  0.8254919391999138  0.4071208898573317
  0.5216700491592903  0.8260492223755165  0.5933671781003937
  0.8190490744666192  0.6636902749437326  0.5892344590151524
  0.5231755270272060  0.6516600487939783  0.4077395482910617
  0.8168267226627108  0.5254315451927951  0.4069076583255296
  0.6641856773910888  0.5170732787599164  0.5850673914187254
  0.4987218482139681  0.5030156229687961  0.7071592681761203
 
  0.00000000E+00  0.00000000E+00  0.00000000E+00
  0.00000000E+00  0.00000000E+00  0.00000000E+00
  0.00000000E+00  0.00000000E+00  0.00000000E+00
  0.00000000E+00  0.00000000E+00  0.00000000E+00
  0.00000000E+00  0.00000000E+00  0.00000000E+00
  0.00000000E+00  0.00000000E+00  0.00000000E+00
  0.00000000E+00  0.00000000E+00  0.00000000E+00
  0.00000000E+00  0.00000000E+00  0.00000000E+00
  0.00000000E+00  0.00000000E+00  0.00000000E+00
  0.00000000E+00  0.00000000E+00  0.00000000E+00
  0.00000000E+00  0.00000000E+00  0.00000000E+00
  0.00000000E+00  0.00000000E+00  0.00000000E+00
  0.00000000E+00  0.00000000E+00  0.00000000E+00
  0.00000000E+00  0.00000000E+00  0.00000000E+00
  0.00000000E+00  0.00000000E+00  0.00000000E+00
  0.00000000E+00  0.00000000E+00  0.00000000E+00
  0.00000000E+00  0.00000000E+00  0.00000000E+00
  0.00000000E+00  0.00000000E+00  0.00000000E+00
  0.00000000E+00  0.00000000E+00  0.00000000E+00
  0.00000000E+00  0.00000000E+00  0.00000000E+00
  0.00000000E+00  0.00000000E+00  0.00000000E+00
  0.00000000E+00  0.00000000E+00  0.00000000E+00
  0.00000000E+00  0.00000000E+00  0.00000000E+00
  0.00000000E+00  0.00000000E+00  0.00000000E+00
  0.00000000E+00  0.00000000E+00  0.00000000E+00
  0.00000000E+00  0.00000000E+00  0.00000000E+00
  0.00000000E+00  0.00000000E+00  0.00000000E+00
  0.00000000E+00  0.00000000E+00  0.00000000E+00
  0.00000000E+00  0.00000000E+00  0.00000000E+00
  0.00000000E+00  0.00000000E+00  0.00000000E+00
  0.00000000E+00  0.00000000E+00  0.00000000E+00
  0.00000000E+00  0.00000000E+00  0.00000000E+00
  0.00000000E+00  0.00000000E+00  0.00000000E+00
  0.00000000E+00  0.00000000E+00  0.00000000E+00
  0.00000000E+00  0.00000000E+00  0.00000000E+00
  0.00000000E+00  0.00000000E+00  0.00000000E+00
  0.00000000E+00  0.00000000E+00  0.00000000E+00
  0.00000000E+00  0.00000000E+00  0.00000000E+00
  0.00000000E+00  0.00000000E+00  0.00000000E+00
  0.00000000E+00  0.00000000E+00  0.00000000E+00
  0.00000000E+00  0.00000000E+00  0.00000000E+00
