CONTCAR\(6)                             
   1.00000000000000     
    12.8629999160999997    0.0000000000000000    0.0000000000000000
     0.0000000000000000   14.3196001052999993    0.0000000000000000
     0.0000000000000000    0.0000000000000000   19.5569992064999987
   Ag   Au   S    O    H 
    12    24    24     2     1
Direct
  0.1030885833490169  0.3398133555020508  0.6013178079775444
  0.2513706967157448  0.0597481776037339  0.5958660807242953
  0.4219973749632879  0.3012885917601046  0.5972853437405450
  0.5745314253641627  0.0642022336013107  0.5958528764849392
  0.7441053706240135  0.3396616963798647  0.6014568759017306
  0.9115030295729590  0.1094216902937988  0.5979828589312272
  0.0729198120359556  0.8440203279911070  0.5901292159134230
  0.2628604771875924  0.5851782621667867  0.6135060982211119
  0.4146328937625078  0.8027880828219823  0.6119853104973805
  0.5568274514615604  0.5858767077365116  0.6161147825681088
  0.7587902321684259  0.8410553392432114  0.5929033227852061
  0.9125481093361567  0.5769135094036500  0.6057057635675726
  0.0350910979690945  0.5036693901863945  0.4891551832048401
  0.2985223599821940  0.2322213255466817  0.4864886951259852
  0.1707783035172261  0.3708172508714462  0.4062843091471502
  0.1651681507770484  0.1191632369532132  0.4035755160445740
  0.3645038009527504  0.4882379734412230  0.4930079561691614
  0.6463970627361941  0.2390694136039468  0.4824578275537653
  0.5040717385037853  0.3652897353071958  0.4138989625479564
  0.5026873856682181  0.1158470508009905  0.4037267483460657
  0.6870737711129662  0.5016631574514469  0.5153671692794272
  0.9690327401642856  0.2632224210824991  0.4935045224762982
  0.8361507849921649  0.3710360413791954  0.3973078173735054
  0.8362908155219834  0.1205395494244044  0.3927262071940839
  0.0208966269753279  0.0035432571014106  0.4883382246866081
  0.2947591856576591  0.7459953444519428  0.4871501103136898
  0.1663093231336392  0.8687381710715183  0.3929571853542853
  0.1701332566863369  0.6196785218407802  0.3986601674878960
  0.3643400022369255  0.9811868460656403  0.4812310690000459
  0.6362724099255092  0.7437150483022330  0.4887550826382636
  0.5044115767575001  0.8657727518057197  0.4029092075455918
  0.5025503905113710  0.6149192804184371  0.4134423356568002
  0.7065905394605274  0.0005665933240565  0.4844432519636479
  0.9697828654854419  0.7429651768613552  0.4787881058952032
  0.8329203463602252  0.8709141340288360  0.4002680230427347
  0.8312704557905890  0.6219709440271323  0.4021737273377749
  0.2836556223167531  0.4946494006949617  0.3868529086082628
  0.2458961745163083  0.2319481032868162  0.6008806173686507
  0.0925615944182984  0.5096532632674161  0.6022849910908981
  0.0563538075490567  0.2472300620515427  0.3900540118914345
  0.6188789109899130  0.4906330332058798  0.4069392000389710
  0.5936184533301002  0.2345629802557938  0.5968105994811856
  0.4135259145131565  0.4710293180456667  0.6068787455935235
  0.3939121971649100  0.2423241338832945  0.3854581857490345
  0.9444712740897422  0.4984341726131932  0.3862677133131379
  0.9198359856100378  0.2764214315808349  0.6078831788146574
  0.7428501375366425  0.5082941729738680  0.6278916752180939
  0.7262686793342259  0.2465057544872067  0.3757011436356984
  0.2756876260849603  0.9951166742800019  0.3781153272302001
  0.2288255817380177  0.7540068262532336  0.5971767297513869
  0.0701609199111431  0.0112678501274436  0.6030964574443876
  0.0578936768111537  0.7425894233939428  0.3744748027305533
  0.6134938834450926  0.9915581491391955  0.3823797811728605
  0.5976378697414827  0.7531606642120368  0.6047996339120119
  0.4173914078489788  0.9714049898190492  0.5950531166485772
  0.3939953550534243  0.7391169665818891  0.3878026864626632
  0.9476518900857414  0.9940971419375823  0.3802631506861883
  0.9149002890322590  0.7489564037091164  0.5926255047486803
  0.7611685383096931  0.0091166001397557  0.5984087284326829
  0.7197061078080681  0.7462990291168949  0.3826245933084401
  0.4078038963768305  0.6578395176981673  0.6642061732893221
  0.4050982451849217  0.6722073351265739  0.7378730199195644
  0.4147057377787285  0.6081164132668594  0.7547242127604824
 
  0.00000000E+00  0.00000000E+00  0.00000000E+00
  0.00000000E+00  0.00000000E+00  0.00000000E+00
  0.00000000E+00  0.00000000E+00  0.00000000E+00
  0.00000000E+00  0.00000000E+00  0.00000000E+00
  0.00000000E+00  0.00000000E+00  0.00000000E+00
  0.00000000E+00  0.00000000E+00  0.00000000E+00
  0.00000000E+00  0.00000000E+00  0.00000000E+00
  0.00000000E+00  0.00000000E+00  0.00000000E+00
  0.00000000E+00  0.00000000E+00  0.00000000E+00
  0.00000000E+00  0.00000000E+00  0.00000000E+00
  0.00000000E+00  0.00000000E+00  0.00000000E+00
  0.00000000E+00  0.00000000E+00  0.00000000E+00
  0.00000000E+00  0.00000000E+00  0.00000000E+00
  0.00000000E+00  0.00000000E+00  0.00000000E+00
  0.00000000E+00  0.00000000E+00  0.00000000E+00
  0.00000000E+00  0.00000000E+00  0.00000000E+00
  0.00000000E+00  0.00000000E+00  0.00000000E+00
  0.00000000E+00  0.00000000E+00  0.00000000E+00
  0.00000000E+00  0.00000000E+00  0.00000000E+00
  0.00000000E+00  0.00000000E+00  0.00000000E+00
  0.00000000E+00  0.00000000E+00  0.00000000E+00
  0.00000000E+00  0.00000000E+00  0.00000000E+00
  0.00000000E+00  0.00000000E+00  0.00000000E+00
  0.00000000E+00  0.00000000E+00  0.00000000E+00
  0.00000000E+00  0.00000000E+00  0.00000000E+00
  0.00000000E+00  0.00000000E+00  0.00000000E+00
  0.00000000E+00  0.00000000E+00  0.00000000E+00
  0.00000000E+00  0.00000000E+00  0.00000000E+00
  0.00000000E+00  0.00000000E+00  0.00000000E+00
  0.00000000E+00  0.00000000E+00  0.00000000E+00
  0.00000000E+00  0.00000000E+00  0.00000000E+00
  0.00000000E+00  0.00000000E+00  0.00000000E+00
  0.00000000E+00  0.00000000E+00  0.00000000E+00
  0.00000000E+00  0.00000000E+00  0.00000000E+00
  0.00000000E+00  0.00000000E+00  0.00000000E+00
  0.00000000E+00  0.00000000E+00  0.00000000E+00
  0.00000000E+00  0.00000000E+00  0.00000000E+00
  0.00000000E+00  0.00000000E+00  0.00000000E+00
  0.00000000E+00  0.00000000E+00  0.00000000E+00
  0.00000000E+00  0.00000000E+00  0.00000000E+00
  0.00000000E+00  0.00000000E+00  0.00000000E+00
  0.00000000E+00  0.00000000E+00  0.00000000E+00
  0.00000000E+00  0.00000000E+00  0.00000000E+00
  0.00000000E+00  0.00000000E+00  0.00000000E+00
  0.00000000E+00  0.00000000E+00  0.00000000E+00
  0.00000000E+00  0.00000000E+00  0.00000000E+00
  0.00000000E+00  0.00000000E+00  0.00000000E+00
  0.00000000E+00  0.00000000E+00  0.00000000E+00
  0.00000000E+00  0.00000000E+00  0.00000000E+00
  0.00000000E+00  0.00000000E+00  0.00000000E+00
  0.00000000E+00  0.00000000E+00  0.00000000E+00
  0.00000000E+00  0.00000000E+00  0.00000000E+00
  0.00000000E+00  0.00000000E+00  0.00000000E+00
  0.00000000E+00  0.00000000E+00  0.00000000E+00
  0.00000000E+00  0.00000000E+00  0.00000000E+00
  0.00000000E+00  0.00000000E+00  0.00000000E+00
  0.00000000E+00  0.00000000E+00  0.00000000E+00
  0.00000000E+00  0.00000000E+00  0.00000000E+00
  0.00000000E+00  0.00000000E+00  0.00000000E+00
  0.00000000E+00  0.00000000E+00  0.00000000E+00
  0.00000000E+00  0.00000000E+00  0.00000000E+00
  0.00000000E+00  0.00000000E+00  0.00000000E+00
  0.00000000E+00  0.00000000E+00  0.00000000E+00
