CONTCAR\(12)                            
   1.00000000000000     
    13.2992000580000003    0.0000000000000000    0.0000000000000000
    -6.6496130274000000   11.5161678841999997    0.0000000000000000
     0.0000000000000000    0.0000000000000000   36.9292984009000023
   Bi   Te   O    H 
    54    54     2     1
Direct
  0.1110437258966187  0.2255211062740504  0.6381942167523562
  0.2220748554011422  0.1101212242489325  0.3618995436436394
  0.3344897882145532  0.3342350410650053  0.2525071271192523
  0.3321245110656549  0.3332685205565613  0.7453358641114177
  0.2210448834998862  0.1103968197192553  0.5225812606513804
  0.1105377871685538  0.2217056510526768  0.4770832123917906
  0.4426752931478234  0.2222211003127786  0.6362322395915783
  0.5563013225968502  0.1106206661917180  0.3622793935192153
  0.6669414542394962  0.3334247250501544  0.2524976292663020
  0.6663076537434449  0.3350181524101142  0.7464213588567576
  0.5550519565548135  0.1099208537536754  0.5218702440695253
  0.4431462442959843  0.2210758996352257  0.4768998008173281
  0.7777413910747815  0.2222255996227795  0.6362402108626823
  0.8899077333181556  0.1112360148442378  0.3617980249668953
  0.0000890939664171  0.3339467064261249  0.2524791205168167
 -0.0001451376480571  0.3353899442693687  0.7455827835605302
  0.8886472745482503  0.1094933023085262  0.5225979591323543
  0.7781095408124257  0.2211391041109103  0.4769150079467632
  0.1113931827721285  0.5571711974627465  0.6377117114896431
  0.2223881564821932  0.4433413880877551  0.3619950000789730
  0.3335601826238180  0.6667867804376435  0.2524982745079792
  0.3359967560054589  0.6713367005023851  0.7734765213131150
  0.2221705227315623  0.4442549863371137  0.5222393110386117
  0.1120274132967235  0.5558728331413220  0.4766718502522232
  0.4415756743304188  0.5560425920259191  0.6378479886917870
  0.5561141328173829  0.4440229251057748  0.3620476309980339
  0.6660555188661831  0.6658852101474390  0.2525353209456831
  0.6661716878999046  0.6674126074787756  0.7456400316344944
  0.5560303949490422  0.4438273051077237  0.5220388900643790
  0.4443204665105628  0.5542080460194139  0.4769093203809819
  0.7767862186884071  0.5564596334142220  0.6360882998942716
  0.8901061273313473  0.4443308931694175  0.3623335636161700
  0.0000699796088661  0.6658100157560589  0.2525140743416135
  0.0010240560822898  0.6657264981501608  0.7461602796471886
  0.8895978529532649  0.4446080569480708  0.5216689039107117
  0.7784453951593828  0.5566432247613716  0.4767489219282596
  0.1110369093663099  0.8874476087097890  0.6379995561539917
  0.2226315479892515  0.7779261608121845  0.3620590006937239
  0.3345154944993695  0.0001982575157023  0.2524683859974272
  0.3344317911071044  0.0013129214064702  0.7458769432544485
  0.2222181829085507  0.7778224390995381  0.5221501543040017
  0.1104292177532471  0.8887001236194761  0.4770528021325925
  0.4427836628651454  0.8877278848618003  0.6379491559733770
  0.5569987066795212  0.7780049347807347  0.3619754791423850
  0.6662646946651153  0.0001003427688939  0.2524900663309421
  0.6655556848352264  0.0026168692271224  0.7461797634214534
  0.5556063927185867  0.7773064083870372  0.5217946259036857
  0.4439321448980941  0.8880630901168166  0.4765838645669839
  0.7733615867317656  0.8873403573471790  0.6384448556424965
  0.8900602495151602  0.7782034600629281  0.3618961767831951
  0.0005191847853983 -0.0000158530124412  0.2517390070450576
 -0.0004365048303479  0.0001888259680992  0.7463425115367115
  0.8889615777536022  0.7779304553155182  0.5227639867542008
  0.7784375836152087  0.8882408624205050  0.4768327442949408
  0.1106724899689755  0.2234929153409486  0.7919631087167051
  0.2238631815475176  0.1118399303007639  0.2061883126131852
  0.0003198295357617  0.0000621030841633  0.4088149069524362
 -0.0013661834651119  0.0002298701678244  0.5911359261007784
  0.2206892769653215  0.1111346510158639  0.6903476677423938
  0.1117555570913092  0.2221884929312857  0.3073448942402388
  0.4418167525088081  0.2227651393129184  0.7914423020148997
  0.5562412417063497  0.1117115917057323  0.2060942807425047
  0.3334112846622411 -0.0001413215050760  0.4089210033500165
  0.3322037123569386 -0.0008012460694873  0.5902532731933544
  0.5556905587119160  0.1130561173711638  0.6905317384441462
  0.4451622919416928  0.2222581810132134  0.3076228852574420
  0.7792596905690533  0.2239233754389327  0.7916422332650164
  0.8886392484644150  0.1116543775670454  0.2062258844296258
  0.6683127493674628  0.0000115747658665  0.4088647168298318
  0.6648614989089866  0.9993382220506731  0.5902276921846094
  0.8884363489635893  0.1113359725072205  0.6904239966669674
  0.7779861274801725  0.2224213960038470  0.3075942884373600
  0.0814483213368899  0.5396241682229747  0.7966142734177483
  0.2225928042559369  0.4447479722476507  0.2063605983395596
  0.0007281138045639  0.3324894208944710  0.4089456825601315
  0.0001518089807035  0.3350322059630659  0.5900097085058017
  0.2232254210436328  0.4490822049543718  0.6914875124442241
  0.1116819830014991  0.5556169668989344  0.3076863965520674
  0.4587878774888968  0.5390236979088403  0.7960062040480932
  0.5562166202370689  0.4444440473164806  0.2060981722824981
  0.3336100857478242  0.3325177920950673  0.4087534767392214
  0.3321783537756838  0.3343095007006250  0.5901317428151089
  0.5554998264427596  0.4446202399023905  0.6904937684883343
  0.4448413325530142  0.5554572396969329  0.3076987261172604
  0.7790404817432151  0.5587247410209972  0.7916599667488484
  0.8887489208351931  0.4443075774420253  0.2060976223044303
  0.6672564071621696  0.3330518920242199  0.4089567499181632
  0.6658358212341043  0.3333326990121161  0.5895408185816170
  0.8872940792805062  0.4447290524367127  0.6905453297875531
  0.7783456642197359  0.5553475431422790  0.3076388997786814
  0.1116977206378556  0.8892060131926967  0.7921783445549070
  0.2226157248816262  0.7778200202951142  0.2063416506887459
  0.0006729292212106  0.6669937512630966  0.4089006657643484
 -0.0002626605758744  0.6670822044023667  0.5900376210672680
  0.2236991189430775  0.7765950520680674  0.6916119469268593
  0.1117494144886745  0.8891673511329942  0.3073422401316548
  0.4623982535631587  0.9271711846200289  0.7970930524152433
  0.5556001274893195  0.7778090040991856  0.2063273478266716
  0.3340596493704160  0.6664430920521972  0.4086346188848972
  0.3325864900009094  0.6673498932800844  0.5900927072744050
  0.5507694716746118  0.7763846639439327  0.6918633599026380
  0.4448386520758264  0.8889606626623472  0.3076913290113612
  0.7766621133619311  0.8897218534283746  0.7920856807499177
  0.8885549321729548  0.7767624624289248  0.2062531854737139
  0.6678228332010944  0.6667902565353347  0.4087053101979020
  0.6640829707232941  0.6667719976339355  0.5901990307921230
  0.8882573051036420  0.7778086375820090  0.6907117427591797
  0.7787693143611623  0.8891652387177662  0.3074078664042702
  0.3523603105695379  0.7055937671519191  0.8326459934977727
  0.2948779233842878  0.5998084342634430  0.8550091377332956
  0.3623566790604195  0.5940064310503615  0.8628625708895832
 
  0.00000000E+00  0.00000000E+00  0.00000000E+00
  0.00000000E+00  0.00000000E+00  0.00000000E+00
  0.00000000E+00  0.00000000E+00  0.00000000E+00
  0.00000000E+00  0.00000000E+00  0.00000000E+00
  0.00000000E+00  0.00000000E+00  0.00000000E+00
  0.00000000E+00  0.00000000E+00  0.00000000E+00
  0.00000000E+00  0.00000000E+00  0.00000000E+00
  0.00000000E+00  0.00000000E+00  0.00000000E+00
  0.00000000E+00  0.00000000E+00  0.00000000E+00
  0.00000000E+00  0.00000000E+00  0.00000000E+00
  0.00000000E+00  0.00000000E+00  0.00000000E+00
  0.00000000E+00  0.00000000E+00  0.00000000E+00
  0.00000000E+00  0.00000000E+00  0.00000000E+00
  0.00000000E+00  0.00000000E+00  0.00000000E+00
  0.00000000E+00  0.00000000E+00  0.00000000E+00
  0.00000000E+00  0.00000000E+00  0.00000000E+00
  0.00000000E+00  0.00000000E+00  0.00000000E+00
  0.00000000E+00  0.00000000E+00  0.00000000E+00
  0.00000000E+00  0.00000000E+00  0.00000000E+00
  0.00000000E+00  0.00000000E+00  0.00000000E+00
  0.00000000E+00  0.00000000E+00  0.00000000E+00
  0.00000000E+00  0.00000000E+00  0.00000000E+00
  0.00000000E+00  0.00000000E+00  0.00000000E+00
  0.00000000E+00  0.00000000E+00  0.00000000E+00
  0.00000000E+00  0.00000000E+00  0.00000000E+00
  0.00000000E+00  0.00000000E+00  0.00000000E+00
  0.00000000E+00  0.00000000E+00  0.00000000E+00
  0.00000000E+00  0.00000000E+00  0.00000000E+00
  0.00000000E+00  0.00000000E+00  0.00000000E+00
  0.00000000E+00  0.00000000E+00  0.00000000E+00
  0.00000000E+00  0.00000000E+00  0.00000000E+00
  0.00000000E+00  0.00000000E+00  0.00000000E+00
  0.00000000E+00  0.00000000E+00  0.00000000E+00
  0.00000000E+00  0.00000000E+00  0.00000000E+00
  0.00000000E+00  0.00000000E+00  0.00000000E+00
  0.00000000E+00  0.00000000E+00  0.00000000E+00
  0.00000000E+00  0.00000000E+00  0.00000000E+00
  0.00000000E+00  0.00000000E+00  0.00000000E+00
  0.00000000E+00  0.00000000E+00  0.00000000E+00
  0.00000000E+00  0.00000000E+00  0.00000000E+00
  0.00000000E+00  0.00000000E+00  0.00000000E+00
  0.00000000E+00  0.00000000E+00  0.00000000E+00
  0.00000000E+00  0.00000000E+00  0.00000000E+00
  0.00000000E+00  0.00000000E+00  0.00000000E+00
  0.00000000E+00  0.00000000E+00  0.00000000E+00
  0.00000000E+00  0.00000000E+00  0.00000000E+00
  0.00000000E+00  0.00000000E+00  0.00000000E+00
  0.00000000E+00  0.00000000E+00  0.00000000E+00
  0.00000000E+00  0.00000000E+00  0.00000000E+00
  0.00000000E+00  0.00000000E+00  0.00000000E+00
  0.00000000E+00  0.00000000E+00  0.00000000E+00
  0.00000000E+00  0.00000000E+00  0.00000000E+00
  0.00000000E+00  0.00000000E+00  0.00000000E+00
  0.00000000E+00  0.00000000E+00  0.00000000E+00
  0.00000000E+00  0.00000000E+00  0.00000000E+00
  0.00000000E+00  0.00000000E+00  0.00000000E+00
  0.00000000E+00  0.00000000E+00  0.00000000E+00
  0.00000000E+00  0.00000000E+00  0.00000000E+00
  0.00000000E+00  0.00000000E+00  0.00000000E+00
  0.00000000E+00  0.00000000E+00  0.00000000E+00
  0.00000000E+00  0.00000000E+00  0.00000000E+00
  0.00000000E+00  0.00000000E+00  0.00000000E+00
  0.00000000E+00  0.00000000E+00  0.00000000E+00
  0.00000000E+00  0.00000000E+00  0.00000000E+00
  0.00000000E+00  0.00000000E+00  0.00000000E+00
  0.00000000E+00  0.00000000E+00  0.00000000E+00
  0.00000000E+00  0.00000000E+00  0.00000000E+00
  0.00000000E+00  0.00000000E+00  0.00000000E+00
  0.00000000E+00  0.00000000E+00  0.00000000E+00
  0.00000000E+00  0.00000000E+00  0.00000000E+00
  0.00000000E+00  0.00000000E+00  0.00000000E+00
  0.00000000E+00  0.00000000E+00  0.00000000E+00
  0.00000000E+00  0.00000000E+00  0.00000000E+00
  0.00000000E+00  0.00000000E+00  0.00000000E+00
  0.00000000E+00  0.00000000E+00  0.00000000E+00
  0.00000000E+00  0.00000000E+00  0.00000000E+00
  0.00000000E+00  0.00000000E+00  0.00000000E+00
  0.00000000E+00  0.00000000E+00  0.00000000E+00
  0.00000000E+00  0.00000000E+00  0.00000000E+00
  0.00000000E+00  0.00000000E+00  0.00000000E+00
  0.00000000E+00  0.00000000E+00  0.00000000E+00
  0.00000000E+00  0.00000000E+00  0.00000000E+00
  0.00000000E+00  0.00000000E+00  0.00000000E+00
  0.00000000E+00  0.00000000E+00  0.00000000E+00
  0.00000000E+00  0.00000000E+00  0.00000000E+00
  0.00000000E+00  0.00000000E+00  0.00000000E+00
  0.00000000E+00  0.00000000E+00  0.00000000E+00
  0.00000000E+00  0.00000000E+00  0.00000000E+00
  0.00000000E+00  0.00000000E+00  0.00000000E+00
  0.00000000E+00  0.00000000E+00  0.00000000E+00
  0.00000000E+00  0.00000000E+00  0.00000000E+00
  0.00000000E+00  0.00000000E+00  0.00000000E+00
  0.00000000E+00  0.00000000E+00  0.00000000E+00
  0.00000000E+00  0.00000000E+00  0.00000000E+00
  0.00000000E+00  0.00000000E+00  0.00000000E+00
  0.00000000E+00  0.00000000E+00  0.00000000E+00
  0.00000000E+00  0.00000000E+00  0.00000000E+00
  0.00000000E+00  0.00000000E+00  0.00000000E+00
  0.00000000E+00  0.00000000E+00  0.00000000E+00
  0.00000000E+00  0.00000000E+00  0.00000000E+00
  0.00000000E+00  0.00000000E+00  0.00000000E+00
  0.00000000E+00  0.00000000E+00  0.00000000E+00
  0.00000000E+00  0.00000000E+00  0.00000000E+00
  0.00000000E+00  0.00000000E+00  0.00000000E+00
  0.00000000E+00  0.00000000E+00  0.00000000E+00
  0.00000000E+00  0.00000000E+00  0.00000000E+00
  0.00000000E+00  0.00000000E+00  0.00000000E+00
  0.00000000E+00  0.00000000E+00  0.00000000E+00
  0.00000000E+00  0.00000000E+00  0.00000000E+00
  0.00000000E+00  0.00000000E+00  0.00000000E+00
  0.00000000E+00  0.00000000E+00  0.00000000E+00
