 Pr4 I10                                
   1.00000000000000     
     4.3015796068199750    0.0000000000000000    0.0000000000000000
     0.0000000000000000   17.0116472535152852    0.0000000000000000
     0.0000000000000000    0.0000000000000000   20.7706674784480043
   Pr   I 
     4    10
Direct
  0.7499999994008846  0.1376672873751659  0.5186929172213439
  0.2500000003820446  0.8623327126752969  0.4813070831040491
  0.7499999990448529  0.6377754725370153  0.5286873669274925
  0.2500000004919087  0.3622245275800964  0.4713126327074448
  0.7499999997976019  0.3778113664966654  0.3609124234391032
  0.2500000002352891  0.6221886331807411  0.6390875760929333
  0.7500000031905358  0.9832308593217149  0.4174675136260149
  0.2499999964595432  0.0167691409127784  0.5825324873506332
  0.2499999993948734  0.5587056258151719  0.4334288783093427
  0.7500000000616041  0.4412943739770725  0.5665711212997309
  0.2500000010356374  0.2439276470881069  0.5968400082167875
  0.7500000003795577  0.7560723530780606  0.4031599916984163
  0.2500000003367404  0.1848229409313049  0.4110871602080195
  0.7499999997889262  0.8151770590307876  0.5889128397986880
 
  0.00000000E+00  0.00000000E+00  0.00000000E+00
  0.00000000E+00  0.00000000E+00  0.00000000E+00
  0.00000000E+00  0.00000000E+00  0.00000000E+00
  0.00000000E+00  0.00000000E+00  0.00000000E+00
  0.00000000E+00  0.00000000E+00  0.00000000E+00
  0.00000000E+00  0.00000000E+00  0.00000000E+00
  0.00000000E+00  0.00000000E+00  0.00000000E+00
  0.00000000E+00  0.00000000E+00  0.00000000E+00
  0.00000000E+00  0.00000000E+00  0.00000000E+00
  0.00000000E+00  0.00000000E+00  0.00000000E+00
  0.00000000E+00  0.00000000E+00  0.00000000E+00
  0.00000000E+00  0.00000000E+00  0.00000000E+00
  0.00000000E+00  0.00000000E+00  0.00000000E+00
  0.00000000E+00  0.00000000E+00  0.00000000E+00
