G   46   12    1    0.005     # Parameters to Generate KPOINTS (Don't Edit This Line)
     168
Reciprocal lattice
    0.000000000000    0.000000000000    0.000000000000       1
    0.021739130435    0.000000000000    0.000000000000       2
    0.043478260870    0.000000000000    0.000000000000       2
    0.065217391304    0.000000000000    0.000000000000       2
    0.086956521739    0.000000000000    0.000000000000       2
    0.108695652174    0.000000000000    0.000000000000       2
    0.130434782609    0.000000000000    0.000000000000       2
    0.152173913043    0.000000000000    0.000000000000       2
    0.173913043478    0.000000000000    0.000000000000       2
    0.195652173913    0.000000000000    0.000000000000       2
    0.217391304348    0.000000000000    0.000000000000       2
    0.239130434783    0.000000000000    0.000000000000       2
    0.260869565217    0.000000000000    0.000000000000       2
    0.282608695652    0.000000000000    0.000000000000       2
    0.304347826087    0.000000000000    0.000000000000       2
    0.326086956522    0.000000000000    0.000000000000       2
    0.347826086957    0.000000000000    0.000000000000       2
    0.369565217391    0.000000000000    0.000000000000       2
    0.391304347826    0.000000000000    0.000000000000       2
    0.413043478261    0.000000000000    0.000000000000       2
    0.434782608696    0.000000000000    0.000000000000       2
    0.456521739130    0.000000000000    0.000000000000       2
    0.478260869565    0.000000000000    0.000000000000       2
    0.500000000000    0.000000000000    0.000000000000       1
    0.000000000000    0.083333333333    0.000000000000       2
    0.021739130435    0.083333333333    0.000000000000       4
    0.043478260870    0.083333333333    0.000000000000       4
    0.065217391304    0.083333333333    0.000000000000       4
    0.086956521739    0.083333333333    0.000000000000       4
    0.108695652174    0.083333333333    0.000000000000       4
    0.130434782609    0.083333333333    0.000000000000       4
    0.152173913043    0.083333333333    0.000000000000       4
    0.173913043478    0.083333333333    0.000000000000       4
    0.195652173913    0.083333333333    0.000000000000       4
    0.217391304348    0.083333333333    0.000000000000       4
    0.239130434783    0.083333333333    0.000000000000       4
    0.260869565217    0.083333333333    0.000000000000       4
    0.282608695652    0.083333333333    0.000000000000       4
    0.304347826087    0.083333333333    0.000000000000       4
    0.326086956522    0.083333333333    0.000000000000       4
    0.347826086957    0.083333333333    0.000000000000       4
    0.369565217391    0.083333333333    0.000000000000       4
    0.391304347826    0.083333333333    0.000000000000       4
    0.413043478261    0.083333333333    0.000000000000       4
    0.434782608696    0.083333333333    0.000000000000       4
    0.456521739130    0.083333333333    0.000000000000       4
    0.478260869565    0.083333333333    0.000000000000       4
    0.500000000000    0.083333333333    0.000000000000       2
    0.000000000000    0.166666666667    0.000000000000       2
    0.021739130435    0.166666666667    0.000000000000       4
    0.043478260870    0.166666666667    0.000000000000       4
    0.065217391304    0.166666666667    0.000000000000       4
    0.086956521739    0.166666666667    0.000000000000       4
    0.108695652174    0.166666666667    0.000000000000       4
    0.130434782609    0.166666666667    0.000000000000       4
    0.152173913043    0.166666666667    0.000000000000       4
    0.173913043478    0.166666666667    0.000000000000       4
    0.195652173913    0.166666666667    0.000000000000       4
    0.217391304348    0.166666666667    0.000000000000       4
    0.239130434783    0.166666666667    0.000000000000       4
    0.260869565217    0.166666666667    0.000000000000       4
    0.282608695652    0.166666666667    0.000000000000       4
    0.304347826087    0.166666666667    0.000000000000       4
    0.326086956522    0.166666666667    0.000000000000       4
    0.347826086957    0.166666666667    0.000000000000       4
    0.369565217391    0.166666666667    0.000000000000       4
    0.391304347826    0.166666666667    0.000000000000       4
    0.413043478261    0.166666666667    0.000000000000       4
    0.434782608696    0.166666666667    0.000000000000       4
    0.456521739130    0.166666666667    0.000000000000       4
    0.478260869565    0.166666666667    0.000000000000       4
    0.500000000000    0.166666666667    0.000000000000       2
    0.000000000000    0.250000000000    0.000000000000       2
    0.021739130435    0.250000000000    0.000000000000       4
    0.043478260870    0.250000000000    0.000000000000       4
    0.065217391304    0.250000000000    0.000000000000       4
    0.086956521739    0.250000000000    0.000000000000       4
    0.108695652174    0.250000000000    0.000000000000       4
    0.130434782609    0.250000000000    0.000000000000       4
    0.152173913043    0.250000000000    0.000000000000       4
    0.173913043478    0.250000000000    0.000000000000       4
    0.195652173913    0.250000000000    0.000000000000       4
    0.217391304348    0.250000000000    0.000000000000       4
    0.239130434783    0.250000000000    0.000000000000       4
    0.260869565217    0.250000000000    0.000000000000       4
    0.282608695652    0.250000000000    0.000000000000       4
    0.304347826087    0.250000000000    0.000000000000       4
    0.326086956522    0.250000000000    0.000000000000       4
    0.347826086957    0.250000000000    0.000000000000       4
    0.369565217391    0.250000000000    0.000000000000       4
    0.391304347826    0.250000000000    0.000000000000       4
    0.413043478261    0.250000000000    0.000000000000       4
    0.434782608696    0.250000000000    0.000000000000       4
    0.456521739130    0.250000000000    0.000000000000       4
    0.478260869565    0.250000000000    0.000000000000       4
    0.500000000000    0.250000000000    0.000000000000       2
    0.000000000000    0.333333333333    0.000000000000       2
    0.021739130435    0.333333333333    0.000000000000       4
    0.043478260870    0.333333333333    0.000000000000       4
    0.065217391304    0.333333333333    0.000000000000       4
    0.086956521739    0.333333333333    0.000000000000       4
    0.108695652174    0.333333333333    0.000000000000       4
    0.130434782609    0.333333333333    0.000000000000       4
    0.152173913043    0.333333333333    0.000000000000       4
    0.173913043478    0.333333333333    0.000000000000       4
    0.195652173913    0.333333333333    0.000000000000       4
    0.217391304348    0.333333333333    0.000000000000       4
    0.239130434783    0.333333333333    0.000000000000       4
    0.260869565217    0.333333333333    0.000000000000       4
    0.282608695652    0.333333333333    0.000000000000       4
    0.304347826087    0.333333333333    0.000000000000       4
    0.326086956522    0.333333333333    0.000000000000       4
    0.347826086957    0.333333333333    0.000000000000       4
    0.369565217391    0.333333333333    0.000000000000       4
    0.391304347826    0.333333333333    0.000000000000       4
    0.413043478261    0.333333333333    0.000000000000       4
    0.434782608696    0.333333333333    0.000000000000       4
    0.456521739130    0.333333333333    0.000000000000       4
    0.478260869565    0.333333333333    0.000000000000       4
    0.500000000000    0.333333333333    0.000000000000       2
    0.000000000000    0.416666666667    0.000000000000       2
    0.021739130435    0.416666666667    0.000000000000       4
    0.043478260870    0.416666666667    0.000000000000       4
    0.065217391304    0.416666666667    0.000000000000       4
    0.086956521739    0.416666666667    0.000000000000       4
    0.108695652174    0.416666666667    0.000000000000       4
    0.130434782609    0.416666666667    0.000000000000       4
    0.152173913043    0.416666666667    0.000000000000       4
    0.173913043478    0.416666666667    0.000000000000       4
    0.195652173913    0.416666666667    0.000000000000       4
    0.217391304348    0.416666666667    0.000000000000       4
    0.239130434783    0.416666666667    0.000000000000       4
    0.260869565217    0.416666666667    0.000000000000       4
    0.282608695652    0.416666666667    0.000000000000       4
    0.304347826087    0.416666666667    0.000000000000       4
    0.326086956522    0.416666666667    0.000000000000       4
    0.347826086957    0.416666666667    0.000000000000       4
    0.369565217391    0.416666666667    0.000000000000       4
    0.391304347826    0.416666666667    0.000000000000       4
    0.413043478261    0.416666666667    0.000000000000       4
    0.434782608696    0.416666666667    0.000000000000       4
    0.456521739130    0.416666666667    0.000000000000       4
    0.478260869565    0.416666666667    0.000000000000       4
    0.500000000000    0.416666666667    0.000000000000       2
    0.000000000000    0.500000000000    0.000000000000       1
    0.021739130435    0.500000000000    0.000000000000       2
    0.043478260870    0.500000000000    0.000000000000       2
    0.065217391304    0.500000000000    0.000000000000       2
    0.086956521739    0.500000000000    0.000000000000       2
    0.108695652174    0.500000000000    0.000000000000       2
    0.130434782609    0.500000000000    0.000000000000       2
    0.152173913043    0.500000000000    0.000000000000       2
    0.173913043478    0.500000000000    0.000000000000       2
    0.195652173913    0.500000000000    0.000000000000       2
    0.217391304348    0.500000000000    0.000000000000       2
    0.239130434783    0.500000000000    0.000000000000       2
    0.260869565217    0.500000000000    0.000000000000       2
    0.282608695652    0.500000000000    0.000000000000       2
    0.304347826087    0.500000000000    0.000000000000       2
    0.326086956522    0.500000000000    0.000000000000       2
    0.347826086957    0.500000000000    0.000000000000       2
    0.369565217391    0.500000000000    0.000000000000       2
    0.391304347826    0.500000000000    0.000000000000       2
    0.413043478261    0.500000000000    0.000000000000       2
    0.434782608696    0.500000000000    0.000000000000       2
    0.456521739130    0.500000000000    0.000000000000       2
    0.478260869565    0.500000000000    0.000000000000       2
    0.500000000000    0.500000000000    0.000000000000       1
