 Si1 Te2                                
   1.00000000000000     
     3.7802469477688696    0.0000000000000000    0.0000000000000000
    -1.8901234738844348    3.2737894951263233    0.0000000000000000
     0.0000000000000000    0.0000000000000000   18.2716137708960034
   Si   Te
     1     2
Direct
  0.0000000000081762  0.0000000001080961  0.5000000001383555
  0.3333331317699867  0.6666668694273273  0.5893978345331896
  0.6666668682218371  0.3333331304645765  0.4106021653284548
 
  0.00000000E+00  0.00000000E+00  0.00000000E+00
  0.00000000E+00  0.00000000E+00  0.00000000E+00
  0.00000000E+00  0.00000000E+00  0.00000000E+00
