 Zr4 H2 Br4                             
   1.00000000000000     
     3.5210244505840516    0.0000000000000000    0.0000000000000000
     0.0000000000000000    5.9086392836111976    0.0000000000000000
     0.0000000000000000    0.0000000000000000   21.4158113043120046
   Zr   H    Br
     4     2     4
Direct
  0.7500021416777862  0.4887813466335598  0.4410279519737776
  0.2499997553936139  0.5112202923305682  0.5589670862571162
  0.7499997447964030  0.0095984708730806  0.5605855511885903
  0.2499997745537566  0.9903975970222910  0.4394126106603820
  0.7499997715179713  0.1390006031406205  0.4699087636922999
  0.2499997566789126  0.8610025285653289  0.5300891353575359
  0.7499997614178758  0.8226616802757040  0.3534126194312050
  0.2499997472998644  0.1773358285576884  0.6465914935601202
  0.7499997793163299  0.6771902794123836  0.6487826374052489
  0.2499997673474867  0.3228113731887748  0.3512221504737235
 
  0.00000000E+00  0.00000000E+00  0.00000000E+00
  0.00000000E+00  0.00000000E+00  0.00000000E+00
  0.00000000E+00  0.00000000E+00  0.00000000E+00
  0.00000000E+00  0.00000000E+00  0.00000000E+00
  0.00000000E+00  0.00000000E+00  0.00000000E+00
  0.00000000E+00  0.00000000E+00  0.00000000E+00
  0.00000000E+00  0.00000000E+00  0.00000000E+00
  0.00000000E+00  0.00000000E+00  0.00000000E+00
  0.00000000E+00  0.00000000E+00  0.00000000E+00
  0.00000000E+00  0.00000000E+00  0.00000000E+00
