CONTCAR\(4)                             
   1.00000000000000     
    14.8558998108000004    0.0000000000000000    0.0000000000000000
     0.0000000000000000   13.4555997849000004    0.0000000000000000
     0.0000000000000000    0.0000000000000000   21.2884006499999998
   Nb   S    O    H 
    24    72     1     1
Direct
  0.2335553752197228  0.4249426666349834  0.4380577135722774
  0.2334105084261466  0.1994033669534545  0.4347045141426875
  0.0666099142805692  0.0725188306836131  0.5647605342160702
  0.0666340365993179  0.2991332757260210  0.5684264715851910
  0.5666787254800170  0.4250245892232343  0.4385888553736876
  0.5666328971545411  0.1998156494647247  0.4351064682583612
  0.3997344362899682  0.0727427030195216  0.5652666700733064
  0.3997398553017604  0.2990171173482281  0.5688660656667253
  0.9003174299786423  0.4249253655511325  0.4377316290391633
  0.8998059563598559  0.1992963177856737  0.4345613614974653
  0.7337205037991339  0.0726355712931621  0.5654090921416923
  0.7337074184217371  0.2996780084910000  0.5691355060684344
  0.2337044404753215  0.9252939566875042  0.4378173415231501
  0.2336626887756807  0.6994325823655458  0.4345536850489893
  0.0651958762671256  0.5725536810080953  0.5646507452965039
  0.0649873109746366  0.7992421821383076  0.5683770525391481
  0.5669562281989755  0.9252720051716565  0.4385877829868576
  0.5670474407801436  0.6999016539640550  0.4352174901507837
  0.3989062254547306  0.5733378387228996  0.5655420374383198
  0.3986787995268131  0.7983330714459740  0.5693817169946485
  0.9003198495058626  0.9261057232251488  0.4374499587622083
  0.9001064470562667  0.6991566252550001  0.4347736018643076
  0.7324245527571520  0.5729942118633247  0.5673018578457345
  0.7324963794532025  0.7989206013158778  0.5711563069934869
  0.3324540873124775  0.1836722164371878  0.6485674334182789
  0.2333018653666770  0.0655285661948923  0.5204438766975272
  0.2332685409409763  0.3068755431377639  0.5281191869475279
  0.0664834133360799  0.1913419777715717  0.4750665624766341
  0.1657210332611214  0.3143569360976599  0.3551017429237433
  0.0668842770894216  0.4320860967540767  0.4821559857465729
  0.3308768714456036  0.4373608834557743  0.6367525509494456
  0.3013113244335912  0.0612225040007388  0.3658773734178311
  0.3016910808674211  0.3142272115038054  0.3552749348028996
  0.1351833074418280  0.1834300552290529  0.6472053595737961
  0.1333883871769430  0.4380909901589547  0.6372227449912415
  0.1654317822364675  0.0609208593281352  0.3664952628978142
  0.6663814940580082  0.1837433225605238  0.6486215930585573
  0.5667670522437120  0.0658191844123550  0.5208691936760772
  0.5666701962066512  0.3070463144723661  0.5286485903619536
  0.3999600310531051  0.1914909345065965  0.4754844588267630
  0.4987776504518422  0.3147867502873609  0.3554622757259693
  0.3999900055540948  0.4324120090535004  0.4829362641840333
  0.6644190405858339  0.4370288173884163  0.6373826532371254
  0.6345438235426073  0.0612651509012636  0.3666444506167608
  0.6347271240753116  0.3146050205942146  0.3556468007737834
  0.4684080466594907  0.1836240045011053  0.6477413524027540
  0.4666906677377440  0.4379031945059708  0.6374509367390573
  0.4986872422466035  0.0608468772792179  0.3671100312535884
  0.9992414930083910  0.1834515898976008  0.6480183417160248
  0.8999272794504094  0.0657067549939185  0.5205373501401382
  0.8998807109935996  0.3072157140166709  0.5279898081755050
  0.7333534557903363  0.1917794621585571  0.4756592645552402
  0.8318934756295988  0.3142291812973568  0.3550149990909688
  0.7335015287427424  0.4331011795559263  0.4832283484031663
  0.9975631112650376  0.4371274443686985  0.6361932828570147
  0.9674718588149602  0.0614583613513346  0.3652739549237012
  0.9679028814055997  0.3139886365476627  0.3549184547486632
  0.8023471617743496  0.1837766117129149  0.6476951053232227
  0.8002133438684282  0.4380602280913024  0.6398916367181045
  0.8315391526777560  0.0615538711787877  0.3659742695389312
  0.3239855370290741  0.6832001801325518  0.6450539754102351
  0.2329010338797985  0.5653242783991246  0.5197549037179101
  0.2326725066848425  0.8074896235757478  0.5274407086062567
  0.0665794814775040  0.6914060890115366  0.4749828760192045
  0.1667757012631768  0.8145240432351244  0.3544052612669688
  0.0668565480340391  0.9327561730697127  0.4820484248195029
  0.3305966334033172  0.9376140624211757  0.6368244712509892
  0.3015774886964309  0.5605159192151490  0.3662081713421728
  0.3028505760036211  0.8145155003732611  0.3557280222718830
  0.1348433827769853  0.6835851566275792  0.6456332592615652
  0.1332589143670972  0.9367423080997952  0.6372522127295142
  0.1656829053772952  0.5606377237012623  0.3663735758150466
  0.6398725574900297  0.6837448366064436  0.6354400228186847
  0.5661205047417681  0.5654206973321507  0.5204395429462636
  0.5658984450991582  0.8074086008608532  0.5283301502057967
  0.4001600800980896  0.6916535005438149  0.4756194230089719
  0.4999966141754584  0.8149587842058281  0.3551221929755499
  0.4000369901210590  0.9323258599614022  0.4830336342392911
  0.6640480083598916  0.9386128527287809  0.6369697838267427
  0.6348352651292473  0.5609176888826752  0.3669243593128471
  0.6359944933821780  0.8148677169183642  0.3562513450683866
  0.4635880570380522  0.6832743264596743  0.6500372531546361
  0.4664128722315084  0.9371291694838604  0.6377031476674873
  0.4990074138444669  0.5611263089710192  0.3670827206519220
  0.9928967763986094  0.6834344471223730  0.6456866407960362
  0.9006081359147657  0.5640890971674111  0.5191126598565674
  0.9002547519532982  0.8092745995859403  0.5268368427547401
  0.7340442282871749  0.6916307509177244  0.4766905755222055
  0.8328871787847163  0.8145739273424724  0.3547706272208657
  0.7336196892186280  0.9320989545347160  0.4833048013142118
  0.9974314014799575  0.9378695177003920  0.6362072626907889
  0.9677718062343956  0.5605148786754484  0.3657498532072054
  0.9690387996605097  0.8143000359172134  0.3557146738031776
  0.8202405515705564  0.6838713735836492  0.6378902299105320
  0.7998949689134207  0.9375169541298121  0.6401213084125246
  0.8318769357725202  0.5607707624927372  0.3663688589234653
  0.6553145522411938  0.6795143410217079  0.7133268906210048
  0.7219113345840000  0.6804467109500152  0.7187386556092719
 
  0.00000000E+00  0.00000000E+00  0.00000000E+00
  0.00000000E+00  0.00000000E+00  0.00000000E+00
  0.00000000E+00  0.00000000E+00  0.00000000E+00
  0.00000000E+00  0.00000000E+00  0.00000000E+00
  0.00000000E+00  0.00000000E+00  0.00000000E+00
  0.00000000E+00  0.00000000E+00  0.00000000E+00
  0.00000000E+00  0.00000000E+00  0.00000000E+00
  0.00000000E+00  0.00000000E+00  0.00000000E+00
  0.00000000E+00  0.00000000E+00  0.00000000E+00
  0.00000000E+00  0.00000000E+00  0.00000000E+00
  0.00000000E+00  0.00000000E+00  0.00000000E+00
  0.00000000E+00  0.00000000E+00  0.00000000E+00
  0.00000000E+00  0.00000000E+00  0.00000000E+00
  0.00000000E+00  0.00000000E+00  0.00000000E+00
  0.00000000E+00  0.00000000E+00  0.00000000E+00
  0.00000000E+00  0.00000000E+00  0.00000000E+00
  0.00000000E+00  0.00000000E+00  0.00000000E+00
  0.00000000E+00  0.00000000E+00  0.00000000E+00
  0.00000000E+00  0.00000000E+00  0.00000000E+00
  0.00000000E+00  0.00000000E+00  0.00000000E+00
  0.00000000E+00  0.00000000E+00  0.00000000E+00
  0.00000000E+00  0.00000000E+00  0.00000000E+00
  0.00000000E+00  0.00000000E+00  0.00000000E+00
  0.00000000E+00  0.00000000E+00  0.00000000E+00
  0.00000000E+00  0.00000000E+00  0.00000000E+00
  0.00000000E+00  0.00000000E+00  0.00000000E+00
  0.00000000E+00  0.00000000E+00  0.00000000E+00
  0.00000000E+00  0.00000000E+00  0.00000000E+00
  0.00000000E+00  0.00000000E+00  0.00000000E+00
  0.00000000E+00  0.00000000E+00  0.00000000E+00
  0.00000000E+00  0.00000000E+00  0.00000000E+00
  0.00000000E+00  0.00000000E+00  0.00000000E+00
  0.00000000E+00  0.00000000E+00  0.00000000E+00
  0.00000000E+00  0.00000000E+00  0.00000000E+00
  0.00000000E+00  0.00000000E+00  0.00000000E+00
  0.00000000E+00  0.00000000E+00  0.00000000E+00
  0.00000000E+00  0.00000000E+00  0.00000000E+00
  0.00000000E+00  0.00000000E+00  0.00000000E+00
  0.00000000E+00  0.00000000E+00  0.00000000E+00
  0.00000000E+00  0.00000000E+00  0.00000000E+00
  0.00000000E+00  0.00000000E+00  0.00000000E+00
  0.00000000E+00  0.00000000E+00  0.00000000E+00
  0.00000000E+00  0.00000000E+00  0.00000000E+00
  0.00000000E+00  0.00000000E+00  0.00000000E+00
  0.00000000E+00  0.00000000E+00  0.00000000E+00
  0.00000000E+00  0.00000000E+00  0.00000000E+00
  0.00000000E+00  0.00000000E+00  0.00000000E+00
  0.00000000E+00  0.00000000E+00  0.00000000E+00
  0.00000000E+00  0.00000000E+00  0.00000000E+00
  0.00000000E+00  0.00000000E+00  0.00000000E+00
  0.00000000E+00  0.00000000E+00  0.00000000E+00
  0.00000000E+00  0.00000000E+00  0.00000000E+00
  0.00000000E+00  0.00000000E+00  0.00000000E+00
  0.00000000E+00  0.00000000E+00  0.00000000E+00
  0.00000000E+00  0.00000000E+00  0.00000000E+00
  0.00000000E+00  0.00000000E+00  0.00000000E+00
  0.00000000E+00  0.00000000E+00  0.00000000E+00
  0.00000000E+00  0.00000000E+00  0.00000000E+00
  0.00000000E+00  0.00000000E+00  0.00000000E+00
  0.00000000E+00  0.00000000E+00  0.00000000E+00
  0.00000000E+00  0.00000000E+00  0.00000000E+00
  0.00000000E+00  0.00000000E+00  0.00000000E+00
  0.00000000E+00  0.00000000E+00  0.00000000E+00
  0.00000000E+00  0.00000000E+00  0.00000000E+00
  0.00000000E+00  0.00000000E+00  0.00000000E+00
  0.00000000E+00  0.00000000E+00  0.00000000E+00
  0.00000000E+00  0.00000000E+00  0.00000000E+00
  0.00000000E+00  0.00000000E+00  0.00000000E+00
  0.00000000E+00  0.00000000E+00  0.00000000E+00
  0.00000000E+00  0.00000000E+00  0.00000000E+00
  0.00000000E+00  0.00000000E+00  0.00000000E+00
  0.00000000E+00  0.00000000E+00  0.00000000E+00
  0.00000000E+00  0.00000000E+00  0.00000000E+00
  0.00000000E+00  0.00000000E+00  0.00000000E+00
  0.00000000E+00  0.00000000E+00  0.00000000E+00
  0.00000000E+00  0.00000000E+00  0.00000000E+00
  0.00000000E+00  0.00000000E+00  0.00000000E+00
  0.00000000E+00  0.00000000E+00  0.00000000E+00
  0.00000000E+00  0.00000000E+00  0.00000000E+00
  0.00000000E+00  0.00000000E+00  0.00000000E+00
  0.00000000E+00  0.00000000E+00  0.00000000E+00
  0.00000000E+00  0.00000000E+00  0.00000000E+00
  0.00000000E+00  0.00000000E+00  0.00000000E+00
  0.00000000E+00  0.00000000E+00  0.00000000E+00
  0.00000000E+00  0.00000000E+00  0.00000000E+00
  0.00000000E+00  0.00000000E+00  0.00000000E+00
  0.00000000E+00  0.00000000E+00  0.00000000E+00
  0.00000000E+00  0.00000000E+00  0.00000000E+00
  0.00000000E+00  0.00000000E+00  0.00000000E+00
  0.00000000E+00  0.00000000E+00  0.00000000E+00
  0.00000000E+00  0.00000000E+00  0.00000000E+00
  0.00000000E+00  0.00000000E+00  0.00000000E+00
  0.00000000E+00  0.00000000E+00  0.00000000E+00
  0.00000000E+00  0.00000000E+00  0.00000000E+00
  0.00000000E+00  0.00000000E+00  0.00000000E+00
  0.00000000E+00  0.00000000E+00  0.00000000E+00
  0.00000000E+00  0.00000000E+00  0.00000000E+00
  0.00000000E+00  0.00000000E+00  0.00000000E+00
