CONTCAR\(7)                             
   1.00000000000000     
    13.7100000381000005    0.0000000000000000    0.0000000000000000
    -6.8218533300999997   11.9299668931999996    0.0000000000000000
     0.0000000000000000    0.0000000000000000   18.6952991486000002
   Nb   Ir   Se   O 
    12     4    32     1
Direct
  0.4680928942885083  0.2503845472238498  0.5007081569293541
  0.4887633414903178  0.0222499111833066  0.4995526413905947
  0.2375110141864657  0.2287441774212060  0.4991312386488307
  0.9987424454795569  0.2274821466690349  0.5004516512824797
  0.9749709706270925  0.9901198842961287  0.5026031100135503
  0.7726911605873190  0.2395371300045935  0.5005278313118894
  0.4980110431629012  0.7279718506533579  0.5006605198276595
  0.4749500279207967  0.4921735719397064  0.5037718261131073
  0.2687365076893434  0.7418814413352998  0.5032198403120605
  0.9750017887564456  0.7505714226111979  0.5013906881222887
  0.9889600578579844  0.5218116722256129  0.5001125548666721
  0.7379399098963402  0.7278256644972910  0.4985170162977963
  0.2711972882348331  0.0251005059702609  0.4977832172856144
  0.7734177830498259  0.0240045171669575  0.5027699120343608
  0.2729742007736392  0.5254986652222103  0.5041689396359836
  0.7730505801476725  0.5282395238602219  0.4981174851825325
  0.4165344396971038  0.0962904595387788  0.5975910144209073
  0.3998497836838194  0.3313811310210367  0.5972563108046994
  0.1611744482167085  0.0723801915195565  0.5879356266284416
  0.1728111598174870  0.3467482932076179  0.5802106992078336
  0.3307837212616820  0.1710776994997804  0.3990991109468799
  0.3192388395376161  0.4152478378386507  0.4141305674757721
  0.0768438774852318  0.1524184517157341  0.4056217258988157
  0.0919117539508914  0.4256463429637977  0.4310525911632164
  0.9197667208745804  0.0865450015765470  0.6014351208846345
  0.9185061158164679  0.3318606057200391  0.5898278616800301
  0.6629813232521488  0.0785453116181567  0.5867880247666292
  0.6709276539582534  0.3407658339587178  0.5641022878236723
  0.8441796122593415  0.1679859426338199  0.4021652359005550
  0.8259580907921354  0.4147535193435116  0.4149699285102724
  0.5809567866411098  0.1759633813927463  0.4149484768214791
  0.5921077951206539  0.4266993175541249  0.4234536005475414
  0.4200191205077295  0.5888400295845491  0.6025110588370955
  0.4198022419445668  0.8334473069535753  0.5898434290324809
  0.1613894691669560  0.5783878060174257  0.5885017627748063
  0.1729050832089079  0.8450665384712740  0.5714543915326703
  0.3413323355813866  0.6701649900697467  0.4042809170136398
  0.3257379790008565  0.9144048471983575  0.4142848819461977
  0.0802039425349094  0.6717790281266274  0.4130119478586627
  0.0926511021550982  0.9250052375233803  0.4217971315091429
  0.9164856771918989  0.5945011545937189  0.5984814246252957
  0.9011401755869810  0.8299103365847171  0.5962527055497353
  0.6617441047724086  0.5733930002437228  0.5884823241054368
  0.6737631711434201  0.8460688057947295  0.5794033077023119
  0.8359924884172192  0.6754878337560182  0.3991422985972482
  0.8197608212414100  0.9133963669840620  0.4129832368601761
  0.5766803633698924  0.6535624778343521  0.4054637255558336
  0.5912913068716076  0.9257311582924127  0.4304800631232826
  0.6783978897904825  0.3522872515885069  0.6538108016398433
 
  0.00000000E+00  0.00000000E+00  0.00000000E+00
  0.00000000E+00  0.00000000E+00  0.00000000E+00
  0.00000000E+00  0.00000000E+00  0.00000000E+00
  0.00000000E+00  0.00000000E+00  0.00000000E+00
  0.00000000E+00  0.00000000E+00  0.00000000E+00
  0.00000000E+00  0.00000000E+00  0.00000000E+00
  0.00000000E+00  0.00000000E+00  0.00000000E+00
  0.00000000E+00  0.00000000E+00  0.00000000E+00
  0.00000000E+00  0.00000000E+00  0.00000000E+00
  0.00000000E+00  0.00000000E+00  0.00000000E+00
  0.00000000E+00  0.00000000E+00  0.00000000E+00
  0.00000000E+00  0.00000000E+00  0.00000000E+00
  0.00000000E+00  0.00000000E+00  0.00000000E+00
  0.00000000E+00  0.00000000E+00  0.00000000E+00
  0.00000000E+00  0.00000000E+00  0.00000000E+00
  0.00000000E+00  0.00000000E+00  0.00000000E+00
  0.00000000E+00  0.00000000E+00  0.00000000E+00
  0.00000000E+00  0.00000000E+00  0.00000000E+00
  0.00000000E+00  0.00000000E+00  0.00000000E+00
  0.00000000E+00  0.00000000E+00  0.00000000E+00
  0.00000000E+00  0.00000000E+00  0.00000000E+00
  0.00000000E+00  0.00000000E+00  0.00000000E+00
  0.00000000E+00  0.00000000E+00  0.00000000E+00
  0.00000000E+00  0.00000000E+00  0.00000000E+00
  0.00000000E+00  0.00000000E+00  0.00000000E+00
  0.00000000E+00  0.00000000E+00  0.00000000E+00
  0.00000000E+00  0.00000000E+00  0.00000000E+00
  0.00000000E+00  0.00000000E+00  0.00000000E+00
  0.00000000E+00  0.00000000E+00  0.00000000E+00
  0.00000000E+00  0.00000000E+00  0.00000000E+00
  0.00000000E+00  0.00000000E+00  0.00000000E+00
  0.00000000E+00  0.00000000E+00  0.00000000E+00
  0.00000000E+00  0.00000000E+00  0.00000000E+00
  0.00000000E+00  0.00000000E+00  0.00000000E+00
  0.00000000E+00  0.00000000E+00  0.00000000E+00
  0.00000000E+00  0.00000000E+00  0.00000000E+00
  0.00000000E+00  0.00000000E+00  0.00000000E+00
  0.00000000E+00  0.00000000E+00  0.00000000E+00
  0.00000000E+00  0.00000000E+00  0.00000000E+00
  0.00000000E+00  0.00000000E+00  0.00000000E+00
  0.00000000E+00  0.00000000E+00  0.00000000E+00
  0.00000000E+00  0.00000000E+00  0.00000000E+00
  0.00000000E+00  0.00000000E+00  0.00000000E+00
  0.00000000E+00  0.00000000E+00  0.00000000E+00
  0.00000000E+00  0.00000000E+00  0.00000000E+00
  0.00000000E+00  0.00000000E+00  0.00000000E+00
  0.00000000E+00  0.00000000E+00  0.00000000E+00
  0.00000000E+00  0.00000000E+00  0.00000000E+00
  0.00000000E+00  0.00000000E+00  0.00000000E+00
