 Mo2 Cl6                                
   1.00000000000000     
     5.8559816627830994    0.0000000000000000    0.0000000000000000
    -2.5587230955772355    5.2430301954607321    0.0000000000000000
     0.0000000000000000    0.0000000000000000   18.3064954249200014
   Mo   Cl
     2     6
Direct
  0.1464780912426704  0.8540154323988460  0.4999551655387720
  0.8535211510888914  0.1459852814131963  0.5000448366198356
  0.1532653477067996  0.1539382307960580  0.5897802362769795
  0.8467360488838054  0.8460606188895454  0.4102197260135796
  0.1611451871705043  0.4993758373660242  0.4274344627155813
  0.4998673610281088  0.8386223441619762  0.5725254391591506
  0.8388549364748172  0.5006247609776580  0.5725653189617574
  0.5001318764043958  0.1613774939966959  0.4274748147143441
 
  0.00000000E+00  0.00000000E+00  0.00000000E+00
  0.00000000E+00  0.00000000E+00  0.00000000E+00
  0.00000000E+00  0.00000000E+00  0.00000000E+00
  0.00000000E+00  0.00000000E+00  0.00000000E+00
  0.00000000E+00  0.00000000E+00  0.00000000E+00
  0.00000000E+00  0.00000000E+00  0.00000000E+00
  0.00000000E+00  0.00000000E+00  0.00000000E+00
  0.00000000E+00  0.00000000E+00  0.00000000E+00
