CONTCAR\(10)                            
   1.00000000000000     
    11.5652999877999996    0.0000000000000000    0.0000000000000000
     0.0000000000000000   13.3549995421999999    0.0000000000000000
     0.0000000000000000    0.0000000000000000   25.4929008484000015
   Ta   Ag   S 
    32     8    64
Direct
  0.2464257959571867  0.4977885914886073  0.3608496437970032
  0.2463867708840581  0.2517017489306568  0.3608214878710214
  0.0013328218352910  0.3747569306000429  0.3625614936199284
  0.0863254205247372  0.2476082452307296  0.6391693720303380
  0.0021294204326523  0.1247385207490197  0.3604951978369257
  0.0863035918895463  0.0014916585236193  0.6391862309646967
  0.3314391792480933  0.1245451753785431  0.6374257897462599
  0.3305900238390223  0.3745721671629809  0.6395068827455646
  0.7464257339571887  0.4977885914886073  0.3608496437970032
  0.7463867508840565  0.2517017489306568  0.3608214878710214
  0.5013328618352872  0.3747569306000429  0.3625614936199284
  0.5863254155247404  0.2476082452307296  0.6391693720303380
  0.5021294014326543  0.1247385207490197  0.3604951978369257
  0.5863035868895494  0.0014916585236193  0.6391862309646967
  0.8314391592480987  0.1245451753785431  0.6374257897462599
  0.8305900858390203  0.3745721671629809  0.6395068827455646
  0.2464257959571867  0.9977886274886032  0.3608496437970032
  0.2463867708840581  0.7517017129306538  0.3608214878710214
  0.0013328218352910  0.8747568946000470  0.3625614936199284
  0.0863254205247372  0.7476083162307248  0.6391693720303380
  0.0021294204326523  0.6247385647490233  0.3604951978369257
  0.0863035918895463  0.5014916635236162  0.6391862309646967
  0.3314391792480933  0.6245451753785431  0.6374257897462599
  0.3305900238390223  0.8745721671629809  0.6395068827455646
  0.7464257339571887  0.9977886274886032  0.3608496437970032
  0.7463867508840565  0.7517017129306538  0.3608214878710214
  0.5013328618352872  0.8747568946000470  0.3625614936199284
  0.5863254155247404  0.7476083162307248  0.6391693720303380
  0.5021294014326543  0.6247385647490233  0.3604951978369257
  0.5863035868895494  0.5014916635236162  0.6391862309646967
  0.8314391592480987  0.6245451753785431  0.6374257897462599
  0.8305900858390203  0.8745721671629809  0.6395068827455646
  0.4978219339163772  0.3748310242794588  0.4873679110844833
  0.3350204593299537  0.1246199160638426  0.5126328268827649
  0.9978218929163774  0.3748310242794588  0.4873679110844833
  0.8350204793299554  0.1246199160638426  0.5126328268827649
  0.4978219339163772  0.8748310602794547  0.4873679110844833
  0.3350204593299537  0.6246198980638411  0.5126328268827649
  0.9978218929163774  0.8748310602794547  0.4873679110844833
  0.8350204793299554  0.6246198980638411  0.5126328268827649
  0.2482849416405770  0.4951096717997601  0.5762987603030538
  0.2516287593464668  0.0008392867307876  0.6998516085096398
  0.2483631653572189  0.2538930451313846  0.5763426646649989
  0.2515831653106844  0.2482843976196492  0.6998705740953852
  0.0811374520113830  0.2509527259628186  0.3000866895696959
  0.0844056020965098  0.2454102042300974  0.4236384188491229
  0.4995030927440780  0.3745246136280826  0.5798103016489407
  0.0008066945248189  0.3745044628684795  0.6985647613024923
  0.0811070557656279  0.4984769393174489  0.3001544123241260
  0.0844182294275200  0.0042202959000477  0.4237004726762308
  0.0052367070711199  0.1245442274387969  0.5769902059111018
  0.4978280471018977  0.1246588088327982  0.6989926715577823
  0.3319137563334991  0.1248079011127601  0.3014429145341921
  0.3332486323134134  0.1248470914440105  0.4201893874067579
  0.3349132457471384  0.3746769089821100  0.3010328565715099
  0.3275160103511041  0.3747054365934517  0.4230264314959697
  0.7482849206405788  0.4951096717997601  0.5762987603030538
  0.7516288003464666  0.0008392867307876  0.6998516085096398
  0.7483631653572189  0.2538930451313846  0.5763426646649989
  0.7515832273106895  0.2482843976196492  0.6998705740953852
  0.5811374520113830  0.2509527259628186  0.3000866895696959
  0.5844056130965143  0.2454102042300974  0.4236384188491229
  0.9995030927440780  0.3745246136280826  0.5798103016489407
  0.5008067365248152  0.3745044628684795  0.6985647613024923
  0.5811070457656271  0.4984769393174489  0.3001544123241260
  0.5844182404275244  0.0042202959000477  0.4237004726762308
  0.5052367390711154  0.1245442274387969  0.5769902059111018
  0.9978280061018978  0.1246588088327982  0.6989926715577823
  0.8319137773334973  0.1248079011127601  0.3014429145341921
  0.8332486323134134  0.1248470914440105  0.4201893874067579
  0.8349132457471384  0.3746769089821100  0.3010328565715099
  0.8275159893510988  0.3747054365934517  0.4230264314959697
  0.2482849416405770  0.9951096717997601  0.5762987603030538
  0.2516287593464668  0.5008392607307854  0.6998516085096398
  0.2483631653572189  0.7538930451313846  0.5763426646649989
  0.2515831653106844  0.7482844156196506  0.6998705740953852
  0.0811374520113830  0.7509526899628227  0.3000866895696959
  0.0844056020965098  0.7454101502301000  0.4236384188491229
  0.4995030927440780  0.8745246136280826  0.5798103016489407
  0.0008066945248189  0.8745044628684795  0.6985647613024923
  0.0811070557656279  0.9984770113174548  0.3001544123241260
  0.0844182294275200  0.5042203239000500  0.4237004726762308
  0.0052367070711199  0.6245442274387969  0.5769902059111018
  0.4978280471018977  0.6246588088327982  0.6989926715577823
  0.3319137563334991  0.6248078661127607  0.3014429145341921
  0.3332486323134134  0.6248470734440161  0.4201893874067579
  0.3349132457471384  0.8746768739821107  0.3010328565715099
  0.3275160103511041  0.8747054015934523  0.4230264314959697
  0.7482849206405788  0.9951096717997601  0.5762987603030538
  0.7516288003464666  0.5008392607307854  0.6998516085096398
  0.7483631653572189  0.7538930451313846  0.5763426646649989
  0.7515832273106895  0.7482844156196506  0.6998705740953852
  0.5811374520113830  0.7509526899628227  0.3000866895696959
  0.5844056130965143  0.7454101502301000  0.4236384188491229
  0.9995030927440780  0.8745246136280826  0.5798103016489407
  0.5008067365248152  0.8745044628684795  0.6985647613024923
  0.5811070457656271  0.9984770113174548  0.3001544123241260
  0.5844182404275244  0.5042203239000500  0.4237004726762308
  0.5052367390711154  0.6245442274387969  0.5769902059111018
  0.9978280061018978  0.6246588088327982  0.6989926715577823
  0.8319137773334973  0.6248078661127607  0.3014429145341921
  0.8332486323134134  0.6248470734440161  0.4201893874067579
  0.8349132457471384  0.8746768739821107  0.3010328565715099
  0.8275159893510988  0.8747054015934523  0.4230264314959697
 
  0.00000000E+00  0.00000000E+00  0.00000000E+00
  0.00000000E+00  0.00000000E+00  0.00000000E+00
  0.00000000E+00  0.00000000E+00  0.00000000E+00
  0.00000000E+00  0.00000000E+00  0.00000000E+00
  0.00000000E+00  0.00000000E+00  0.00000000E+00
  0.00000000E+00  0.00000000E+00  0.00000000E+00
  0.00000000E+00  0.00000000E+00  0.00000000E+00
  0.00000000E+00  0.00000000E+00  0.00000000E+00
  0.00000000E+00  0.00000000E+00  0.00000000E+00
  0.00000000E+00  0.00000000E+00  0.00000000E+00
  0.00000000E+00  0.00000000E+00  0.00000000E+00
  0.00000000E+00  0.00000000E+00  0.00000000E+00
  0.00000000E+00  0.00000000E+00  0.00000000E+00
  0.00000000E+00  0.00000000E+00  0.00000000E+00
  0.00000000E+00  0.00000000E+00  0.00000000E+00
  0.00000000E+00  0.00000000E+00  0.00000000E+00
  0.00000000E+00  0.00000000E+00  0.00000000E+00
  0.00000000E+00  0.00000000E+00  0.00000000E+00
  0.00000000E+00  0.00000000E+00  0.00000000E+00
  0.00000000E+00  0.00000000E+00  0.00000000E+00
  0.00000000E+00  0.00000000E+00  0.00000000E+00
  0.00000000E+00  0.00000000E+00  0.00000000E+00
  0.00000000E+00  0.00000000E+00  0.00000000E+00
  0.00000000E+00  0.00000000E+00  0.00000000E+00
  0.00000000E+00  0.00000000E+00  0.00000000E+00
  0.00000000E+00  0.00000000E+00  0.00000000E+00
  0.00000000E+00  0.00000000E+00  0.00000000E+00
  0.00000000E+00  0.00000000E+00  0.00000000E+00
  0.00000000E+00  0.00000000E+00  0.00000000E+00
  0.00000000E+00  0.00000000E+00  0.00000000E+00
  0.00000000E+00  0.00000000E+00  0.00000000E+00
  0.00000000E+00  0.00000000E+00  0.00000000E+00
  0.00000000E+00  0.00000000E+00  0.00000000E+00
  0.00000000E+00  0.00000000E+00  0.00000000E+00
  0.00000000E+00  0.00000000E+00  0.00000000E+00
  0.00000000E+00  0.00000000E+00  0.00000000E+00
  0.00000000E+00  0.00000000E+00  0.00000000E+00
  0.00000000E+00  0.00000000E+00  0.00000000E+00
  0.00000000E+00  0.00000000E+00  0.00000000E+00
  0.00000000E+00  0.00000000E+00  0.00000000E+00
  0.00000000E+00  0.00000000E+00  0.00000000E+00
  0.00000000E+00  0.00000000E+00  0.00000000E+00
  0.00000000E+00  0.00000000E+00  0.00000000E+00
  0.00000000E+00  0.00000000E+00  0.00000000E+00
  0.00000000E+00  0.00000000E+00  0.00000000E+00
  0.00000000E+00  0.00000000E+00  0.00000000E+00
  0.00000000E+00  0.00000000E+00  0.00000000E+00
  0.00000000E+00  0.00000000E+00  0.00000000E+00
  0.00000000E+00  0.00000000E+00  0.00000000E+00
  0.00000000E+00  0.00000000E+00  0.00000000E+00
  0.00000000E+00  0.00000000E+00  0.00000000E+00
  0.00000000E+00  0.00000000E+00  0.00000000E+00
  0.00000000E+00  0.00000000E+00  0.00000000E+00
  0.00000000E+00  0.00000000E+00  0.00000000E+00
  0.00000000E+00  0.00000000E+00  0.00000000E+00
  0.00000000E+00  0.00000000E+00  0.00000000E+00
  0.00000000E+00  0.00000000E+00  0.00000000E+00
  0.00000000E+00  0.00000000E+00  0.00000000E+00
  0.00000000E+00  0.00000000E+00  0.00000000E+00
  0.00000000E+00  0.00000000E+00  0.00000000E+00
  0.00000000E+00  0.00000000E+00  0.00000000E+00
  0.00000000E+00  0.00000000E+00  0.00000000E+00
  0.00000000E+00  0.00000000E+00  0.00000000E+00
  0.00000000E+00  0.00000000E+00  0.00000000E+00
  0.00000000E+00  0.00000000E+00  0.00000000E+00
  0.00000000E+00  0.00000000E+00  0.00000000E+00
  0.00000000E+00  0.00000000E+00  0.00000000E+00
  0.00000000E+00  0.00000000E+00  0.00000000E+00
  0.00000000E+00  0.00000000E+00  0.00000000E+00
  0.00000000E+00  0.00000000E+00  0.00000000E+00
  0.00000000E+00  0.00000000E+00  0.00000000E+00
  0.00000000E+00  0.00000000E+00  0.00000000E+00
  0.00000000E+00  0.00000000E+00  0.00000000E+00
  0.00000000E+00  0.00000000E+00  0.00000000E+00
  0.00000000E+00  0.00000000E+00  0.00000000E+00
  0.00000000E+00  0.00000000E+00  0.00000000E+00
  0.00000000E+00  0.00000000E+00  0.00000000E+00
  0.00000000E+00  0.00000000E+00  0.00000000E+00
  0.00000000E+00  0.00000000E+00  0.00000000E+00
  0.00000000E+00  0.00000000E+00  0.00000000E+00
  0.00000000E+00  0.00000000E+00  0.00000000E+00
  0.00000000E+00  0.00000000E+00  0.00000000E+00
  0.00000000E+00  0.00000000E+00  0.00000000E+00
  0.00000000E+00  0.00000000E+00  0.00000000E+00
  0.00000000E+00  0.00000000E+00  0.00000000E+00
  0.00000000E+00  0.00000000E+00  0.00000000E+00
  0.00000000E+00  0.00000000E+00  0.00000000E+00
  0.00000000E+00  0.00000000E+00  0.00000000E+00
  0.00000000E+00  0.00000000E+00  0.00000000E+00
  0.00000000E+00  0.00000000E+00  0.00000000E+00
  0.00000000E+00  0.00000000E+00  0.00000000E+00
  0.00000000E+00  0.00000000E+00  0.00000000E+00
  0.00000000E+00  0.00000000E+00  0.00000000E+00
  0.00000000E+00  0.00000000E+00  0.00000000E+00
  0.00000000E+00  0.00000000E+00  0.00000000E+00
  0.00000000E+00  0.00000000E+00  0.00000000E+00
  0.00000000E+00  0.00000000E+00  0.00000000E+00
  0.00000000E+00  0.00000000E+00  0.00000000E+00
  0.00000000E+00  0.00000000E+00  0.00000000E+00
  0.00000000E+00  0.00000000E+00  0.00000000E+00
  0.00000000E+00  0.00000000E+00  0.00000000E+00
  0.00000000E+00  0.00000000E+00  0.00000000E+00
  0.00000000E+00  0.00000000E+00  0.00000000E+00
  0.00000000E+00  0.00000000E+00  0.00000000E+00
