CONTCAR\(14)                            
   1.00000000000000     
    11.8042001723999999    0.0000000000000000    0.0000000000000000
     0.0000000000000000   11.8042001723999999    0.0000000000000000
     0.0000000000000000    0.0000000000000000   18.3845996856999996
   Li   H    Pd   O 
    32    32    16     1
Direct
  0.0014390530204105  0.9985621459959295  0.4202864884910976
  0.0014513764230786  0.9985388939722933  0.5849836222139964
  0.2511332782334165  0.9992074333415407  0.4198654671139709
  0.2514095742611420  0.9968883438632932  0.5856589432087980
  0.4988903819556086  0.9991722315334860  0.4199037838001698
  0.4985151799178305  0.9969462585753361  0.5857271661021639
  0.7485199466718906  0.9985634739130821  0.4201818041081465
  0.7485624337458812  0.9985504427577189  0.5850432410141534
  0.0014239935418233  0.2514630399576377  0.4201847023124122
  0.0014324176779108  0.2514125626070977  0.5850382999398738
  0.2510437547518898  0.2508701479078874  0.4198590957084961
  0.2514603600604932  0.2530773710728386  0.5856412959275515
  0.4988813973807333  0.2508947089855810  0.4198871524191373
  0.4985528681052644  0.2530884226893228  0.5856937043344380
  0.7485876443358007  0.2513941962725085  0.4200297898613267
  0.7485327579911254  0.2514478440793941  0.5850576208269324
  0.0008072221720082  0.5010986149919259  0.4198973805206993
  0.0030237321494056  0.5014697991366277  0.5857291493543566
  0.2488451297495566  0.4988882796345944  0.4053156246283655
  0.2599750459861116  0.5100990515940382  0.5984840085919388
  0.5011152875725171  0.4988582366969797  0.4053425734662424
  0.4899447418143671  0.5100405719781909  0.5984488058153594
  0.7490894008826594  0.5011003103986377  0.4198814081971441
  0.7469024400249857  0.5014322805874152  0.5856822127903737
  0.0007736928633220  0.7488623858033387  0.4198699818831285
  0.0030914311140762  0.7485893938970755  0.5856581119860194
  0.2488544157171770  0.7511217017461402  0.4053706347260272
  0.2600966838750497  0.7398870237225217  0.5983281227128865
  0.5010943726094351  0.7511305895285918  0.4053115442262366
  0.4898916507903660  0.7400041892210568  0.5984831975612631
  0.7491103245013392  0.7489366349597799  0.4198577366730861
  0.7469001061665691  0.7485293655286083  0.5856340201808136
  0.1257611544807496  0.1250399586326588  0.5949874728239998
  0.1260738129161101  0.1250955894100239  0.4106130174535673
  0.3750152139674535  0.1250651174371116  0.5957178032189273
  0.3750205349035469  0.1250468427572989  0.4106812369121118
  0.6242854983107857  0.1250429723286241  0.5949703225192240
  0.6239868198936556  0.1250145063609593  0.4105863561241491
  0.8749373403503572  0.1250465740673539  0.5946244984105301
  0.8749541753642224  0.1250322010365428  0.4099668368741183
  0.1275279876729874  0.3776042472156408  0.5949188872508566
  0.1268238482737498  0.3768419995311891  0.4097470986543174
  0.3749432947958886  0.3789271098999617  0.5936067596439866
  0.3749594031929381  0.3750127137380814  0.4096072815418910
  0.6223844509921308  0.3775935297204269  0.5948955700181526
  0.6231428781152663  0.3768340963500756  0.4097189774708733
  0.8749401273689991  0.3757021648737874  0.5949684142609790
  0.8749705497096445  0.3759942668276159  0.4105845415590102
  0.1288479070288075  0.6249681415780404  0.5935651170083120
  0.1249033680310954  0.6249217724855776  0.4095542403438343
  0.3750081442507329  0.6249801878285532  0.5787071585528127
  0.3750141309423595  0.6249692946510000  0.3760236531647036
  0.6210528858038347  0.6250296352042984  0.5935983983870302
  0.6249659588971389  0.6250169422380990  0.4095991356886273
  0.8749126332632698  0.6249734440019449  0.5957125804494277
  0.8749380540557272  0.6249699374712436  0.4106763479976429
  0.1275511581877034  0.8724345729491465  0.5947953843011304
  0.1267691112753603  0.8732215850572309  0.4096352931164738
  0.3750161467247093  0.8711253967591605  0.5935572839123705
  0.3750634418861898  0.8750758475746000  0.4095466016316049
  0.6223825285347558  0.8724452408578739  0.5949180633258356
  0.6231427587331237  0.8731572456423203  0.4097468033831219
  0.8749493289201891  0.8742302504850810  0.5949822419505865
  0.8748953351045591  0.8739243286773254  0.4106085504156955
  0.1261763945126111  0.1250377449967318  0.5028431577049344
  0.3750186321721574  0.1250280247510641  0.5031949801358450
  0.6238376769185132  0.1250292762864275  0.5028178950980151
  0.8749397288497633  0.1250412804606937  0.5023345921629908
  0.1290889555680311  0.3791386500484421  0.5025594800509618
  0.3749626858424171  0.3818913888930842  0.5015234979706621
  0.6208795464015532  0.3791053848682931  0.5025589165414994
  0.8749573854814148  0.3761465616905165  0.5028094569021234
  0.1318232624447580  0.6249671556445806  0.5014951277304760
  0.3749752149172491  0.6250047901650849  0.4746045915957548
  0.6180911721981444  0.6250179690187835  0.5015243852081571
  0.8749511234266613  0.6249798715837993  0.5031970021346952
  0.1291004704155950  0.8708919672991130  0.5024909757254272
  0.3750193248651129  0.8681512018783528  0.5014912901640022
  0.6208417846045692  0.8708844177167552  0.5025731179011872
  0.8749442959429166  0.8738134867193922  0.5028513417133487
  0.3750105304272682  0.6249774593796028  0.6352719861973299
 
  0.00000000E+00  0.00000000E+00  0.00000000E+00
  0.00000000E+00  0.00000000E+00  0.00000000E+00
  0.00000000E+00  0.00000000E+00  0.00000000E+00
  0.00000000E+00  0.00000000E+00  0.00000000E+00
  0.00000000E+00  0.00000000E+00  0.00000000E+00
  0.00000000E+00  0.00000000E+00  0.00000000E+00
  0.00000000E+00  0.00000000E+00  0.00000000E+00
  0.00000000E+00  0.00000000E+00  0.00000000E+00
  0.00000000E+00  0.00000000E+00  0.00000000E+00
  0.00000000E+00  0.00000000E+00  0.00000000E+00
  0.00000000E+00  0.00000000E+00  0.00000000E+00
  0.00000000E+00  0.00000000E+00  0.00000000E+00
  0.00000000E+00  0.00000000E+00  0.00000000E+00
  0.00000000E+00  0.00000000E+00  0.00000000E+00
  0.00000000E+00  0.00000000E+00  0.00000000E+00
  0.00000000E+00  0.00000000E+00  0.00000000E+00
  0.00000000E+00  0.00000000E+00  0.00000000E+00
  0.00000000E+00  0.00000000E+00  0.00000000E+00
  0.00000000E+00  0.00000000E+00  0.00000000E+00
  0.00000000E+00  0.00000000E+00  0.00000000E+00
  0.00000000E+00  0.00000000E+00  0.00000000E+00
  0.00000000E+00  0.00000000E+00  0.00000000E+00
  0.00000000E+00  0.00000000E+00  0.00000000E+00
  0.00000000E+00  0.00000000E+00  0.00000000E+00
  0.00000000E+00  0.00000000E+00  0.00000000E+00
  0.00000000E+00  0.00000000E+00  0.00000000E+00
  0.00000000E+00  0.00000000E+00  0.00000000E+00
  0.00000000E+00  0.00000000E+00  0.00000000E+00
  0.00000000E+00  0.00000000E+00  0.00000000E+00
  0.00000000E+00  0.00000000E+00  0.00000000E+00
  0.00000000E+00  0.00000000E+00  0.00000000E+00
  0.00000000E+00  0.00000000E+00  0.00000000E+00
  0.00000000E+00  0.00000000E+00  0.00000000E+00
  0.00000000E+00  0.00000000E+00  0.00000000E+00
  0.00000000E+00  0.00000000E+00  0.00000000E+00
  0.00000000E+00  0.00000000E+00  0.00000000E+00
  0.00000000E+00  0.00000000E+00  0.00000000E+00
  0.00000000E+00  0.00000000E+00  0.00000000E+00
  0.00000000E+00  0.00000000E+00  0.00000000E+00
  0.00000000E+00  0.00000000E+00  0.00000000E+00
  0.00000000E+00  0.00000000E+00  0.00000000E+00
  0.00000000E+00  0.00000000E+00  0.00000000E+00
  0.00000000E+00  0.00000000E+00  0.00000000E+00
  0.00000000E+00  0.00000000E+00  0.00000000E+00
  0.00000000E+00  0.00000000E+00  0.00000000E+00
  0.00000000E+00  0.00000000E+00  0.00000000E+00
  0.00000000E+00  0.00000000E+00  0.00000000E+00
  0.00000000E+00  0.00000000E+00  0.00000000E+00
  0.00000000E+00  0.00000000E+00  0.00000000E+00
  0.00000000E+00  0.00000000E+00  0.00000000E+00
  0.00000000E+00  0.00000000E+00  0.00000000E+00
  0.00000000E+00  0.00000000E+00  0.00000000E+00
  0.00000000E+00  0.00000000E+00  0.00000000E+00
  0.00000000E+00  0.00000000E+00  0.00000000E+00
  0.00000000E+00  0.00000000E+00  0.00000000E+00
  0.00000000E+00  0.00000000E+00  0.00000000E+00
  0.00000000E+00  0.00000000E+00  0.00000000E+00
  0.00000000E+00  0.00000000E+00  0.00000000E+00
  0.00000000E+00  0.00000000E+00  0.00000000E+00
  0.00000000E+00  0.00000000E+00  0.00000000E+00
  0.00000000E+00  0.00000000E+00  0.00000000E+00
  0.00000000E+00  0.00000000E+00  0.00000000E+00
  0.00000000E+00  0.00000000E+00  0.00000000E+00
  0.00000000E+00  0.00000000E+00  0.00000000E+00
  0.00000000E+00  0.00000000E+00  0.00000000E+00
  0.00000000E+00  0.00000000E+00  0.00000000E+00
  0.00000000E+00  0.00000000E+00  0.00000000E+00
  0.00000000E+00  0.00000000E+00  0.00000000E+00
  0.00000000E+00  0.00000000E+00  0.00000000E+00
  0.00000000E+00  0.00000000E+00  0.00000000E+00
  0.00000000E+00  0.00000000E+00  0.00000000E+00
  0.00000000E+00  0.00000000E+00  0.00000000E+00
  0.00000000E+00  0.00000000E+00  0.00000000E+00
  0.00000000E+00  0.00000000E+00  0.00000000E+00
  0.00000000E+00  0.00000000E+00  0.00000000E+00
  0.00000000E+00  0.00000000E+00  0.00000000E+00
  0.00000000E+00  0.00000000E+00  0.00000000E+00
  0.00000000E+00  0.00000000E+00  0.00000000E+00
  0.00000000E+00  0.00000000E+00  0.00000000E+00
  0.00000000E+00  0.00000000E+00  0.00000000E+00
  0.00000000E+00  0.00000000E+00  0.00000000E+00
