CONTCAR\(5)                             
   1.00000000000000     
     7.8445000648000001    0.0000000000000000    0.0000000000000000
     3.9223001003000002    6.7936230563000004    0.0000000000000000
     0.0000000000000000    0.0000000000000000   18.9503002167000005
   Te   Pt   O    H 
     8     8     3     3
Direct
  0.3498228638080438  0.3342307608008912  0.6092915953828626
  0.3404319502774560  0.3397638677436404  0.3995643531491667
  0.8417698700395164  0.3358268558813329  0.6100867702333099
  0.8426615448647962  0.3364122811604212  0.3878924886322813
  0.3426509577098318  0.8358443077208479  0.5983357529664284
  0.3419005171745497  0.8341196992447995  0.3822848803892877
  0.8403835656434615  0.8432384329177857  0.6090963358492177
  0.8489151326744829  0.8336854560300553  0.3958210591067731
  0.1732607807887859  0.1777502938210103  0.5414079615451822
  0.0187794364357567  0.0045102881764809  0.4567410570583357
  0.6780306492188124  0.1695858858461066  0.5371006327411516
  0.5047853862077761 -0.0036792809875476  0.4552282849143068
  0.1726091755489585  0.6662368190440077  0.5411313079204695
  0.0047582969133613  0.5033162436191897  0.4598375103477941
  0.6812576004576703  0.6690676676128871  0.5409134455165735
  0.5123315855056021  0.5112607430676306  0.4569286105853969
  0.2997372586777428  0.3629011816145871  0.2952126600345160
  0.3738226615910700  0.8128508385863685  0.7050254706114614
  0.9376552056424848  0.7122270565518917  0.2935159536775389
  0.1714402743539584  0.4871385806483729  0.2874785061234910
  0.2446391164222457  0.8545352945666161  0.7258568528355778
  0.9005460750436463  0.8175067623326213  0.2589284483788711
 
  0.00000000E+00  0.00000000E+00  0.00000000E+00
  0.00000000E+00  0.00000000E+00  0.00000000E+00
  0.00000000E+00  0.00000000E+00  0.00000000E+00
  0.00000000E+00  0.00000000E+00  0.00000000E+00
  0.00000000E+00  0.00000000E+00  0.00000000E+00
  0.00000000E+00  0.00000000E+00  0.00000000E+00
  0.00000000E+00  0.00000000E+00  0.00000000E+00
  0.00000000E+00  0.00000000E+00  0.00000000E+00
  0.00000000E+00  0.00000000E+00  0.00000000E+00
  0.00000000E+00  0.00000000E+00  0.00000000E+00
  0.00000000E+00  0.00000000E+00  0.00000000E+00
  0.00000000E+00  0.00000000E+00  0.00000000E+00
  0.00000000E+00  0.00000000E+00  0.00000000E+00
  0.00000000E+00  0.00000000E+00  0.00000000E+00
  0.00000000E+00  0.00000000E+00  0.00000000E+00
  0.00000000E+00  0.00000000E+00  0.00000000E+00
  0.00000000E+00  0.00000000E+00  0.00000000E+00
  0.00000000E+00  0.00000000E+00  0.00000000E+00
  0.00000000E+00  0.00000000E+00  0.00000000E+00
  0.00000000E+00  0.00000000E+00  0.00000000E+00
  0.00000000E+00  0.00000000E+00  0.00000000E+00
  0.00000000E+00  0.00000000E+00  0.00000000E+00
