CONTCAR\(2)                             
   1.00000000000000     
    13.1094999313000002    0.0000000000000000    0.0000000000000000
    -6.5547499657000001   11.3531599714000002    0.0000000000000000
     0.0000000000000000    0.0000000000000000   20.2374000549000002
   Na   Hf   N    O 
    32    16    32     1
Direct
  0.1667642953108070  0.0835185876216070  0.3739431823568062
  0.0845964265866232  0.1682120467277931  0.6266592565976291
  0.4173634989470102  0.0836651905878055  0.3739575806759496
  0.3336056181411665  0.1682120467277931  0.6266592565976291
  0.6671904402033638  0.0843708234067306  0.3737666564445488
  0.5833819508364356  0.1666852547937629  0.6273230238750289
  0.9163117126407965  0.0836651905878055  0.3739575806759496
  0.8332933199573254  0.1666852547937629  0.6273230238750289
  0.1652729281640072  0.3321218710363103  0.3730235827522879
  0.0906517951399567  0.4203196720162791  0.6281975921658932
  0.4168589278723014  0.3321218710363103  0.3730235827522879
  0.3395215699172752  0.4290531248345558  0.6323995063531022
  0.6672058415473807  0.3328106866726652  0.3737651975722404
  0.5796578558763209  0.4203196720162791  0.6281975921658932
  0.9156149761252808  0.3328106866726652  0.3737651975722404
  0.8332936649674597  0.4165973509349212  0.6273217689363543
  0.1652718548263194  0.5831432395981808  0.3730381668422292
  0.0845769983068892  0.6663706526809274  0.6266574460841280
  0.4166710160988756  0.5833320471977458  0.3725227914228504
  0.3395134991758748  0.6604758190811625  0.6323886660137071
  0.6678814417718659  0.5831432395981808  0.3730381668422292
  0.5709522629052832  0.6604758190811625  0.6323886660137071
  0.9163297231261573  0.5826492432523125  0.3739632836969050
  0.8317836153740423  0.6663706526809274  0.6266574460841280
  0.1667739660422067  0.8332225910050823  0.3739503642471397
  0.0833404240439592  0.9166908680879162  0.6268512877316956
  0.4168673927224958  0.8347294038454210  0.3730403543882820
  0.3336231400664999  0.9154118910915835  0.6266677607059260
  0.6678720321229265  0.8347294038454210  0.3730403543882820
  0.5796569957585971  0.9093240855171978  0.6282076719034785
  0.9164586829628765  0.8332225910050823  0.3739503642471397
  0.8317786950250755  0.9154118910915835  0.6266677607059260
 -0.0000611741840845  0.0000631093534243  0.5003017346283614
  0.2501242835375089  0.0000631093534243  0.5003017346283614
  0.4998966651142359  0.9994550137028286  0.5007478542600065
  0.7495583305885911  0.9994550137028286  0.5007478542600065
  0.0005378974347795  0.2504271850082382  0.5007381732464969
  0.2507163012695944  0.2514326035391851  0.5009282327621779
  0.4998892775734579  0.2504271850082382  0.5007381732464969
  0.7499933043261754  0.2499865916523604  0.5009311372272157
  0.0005461845017451  0.5001047206849176  0.5007397523769307
  0.2496500337308264  0.4998252090490755  0.4989108795446200
  0.5001751763182529  0.4998252090490755  0.4989108795446200
  0.7495585001831696  0.5001047206849176  0.5007397523769307
 -0.0000659221348210  0.7498681387303601  0.5003022599988074
  0.2507180190849986  0.7492637207526942  0.5009388354085231
  0.5001670004472677  0.7503339838945451  0.4989177283680560
  0.7485457006676919  0.7492637207526942  0.5009388354085231
  0.1668313991991019  0.0836527953982111  0.5576001580984205
  0.0828424158508146  0.1662873082990108  0.4434316481565720
  0.4165272502951007  0.0832583051660436  0.5578800983336218
  0.3334348904482001  0.1662873082990108  0.4434316481565720
  0.6661271820791309  0.0822443071582579  0.5583551019644520
  0.5838344330308161  0.1669189511430749  0.4440364029376489
  0.9167410758709444  0.0832583051660436  0.5578800983336218
  0.8330745341122568  0.1669189511430749  0.4440364029376489
  0.1677926092264528  0.3344502516515841  0.5565127416090724
  0.0818054979562011  0.4158894118838257  0.4424799379811737
  0.4166676274251226  0.3344502516515841  0.5565127416090724
  0.3326786742499593  0.4153673334999168  0.4412669449560677
  0.6661372287799747  0.3338626959516603  0.5583474714822696
  0.5840738929276235  0.4158894118838257  0.4424799379811737
  0.9177355981716818  0.3338626959516603  0.5583474714822696
  0.8330675362195533  0.4161450934391078  0.4440297963413037
  0.1677749900974383  0.5833309370128940  0.5565069988545279
  0.0828410359461244  0.6665470242989383  0.4434329261205442
  0.4166669097129479  0.5833238344258832  0.5496081889612187
  0.3326930400114620  0.6673130708952664  0.4412717211515833
  0.6655660039154527  0.5833309370128940  0.5565069988545279
  0.5846099738838073  0.6673130708952664  0.4412717211515833
  0.9167368007324282  0.5834633984648616  0.5578768064437429
  0.8336959493528181  0.6665470242989383  0.4434329261205442
  0.1668268408956964  0.8331696555729130  0.5576070300103396
  0.0833235999611994  0.9166572199223894  0.4437014076352241
  0.4166518423890027  0.8322011631644565  0.5565197113766351
  0.3334431672138022  0.9171497382867285  0.4434357435741183
  0.6655593417754623  0.8322011631644565  0.5565197113766351
  0.5840942936117984  0.9181986812235934  0.4424953320562772
  0.9163528726772175  0.8331696555729130  0.5576070300103396
  0.8336965150729257  0.9171497382867285  0.4434357435741183
  0.4166993538846676  0.5833887957693179  0.6989941783943042
 
  0.00000000E+00  0.00000000E+00  0.00000000E+00
  0.00000000E+00  0.00000000E+00  0.00000000E+00
  0.00000000E+00  0.00000000E+00  0.00000000E+00
  0.00000000E+00  0.00000000E+00  0.00000000E+00
  0.00000000E+00  0.00000000E+00  0.00000000E+00
  0.00000000E+00  0.00000000E+00  0.00000000E+00
  0.00000000E+00  0.00000000E+00  0.00000000E+00
  0.00000000E+00  0.00000000E+00  0.00000000E+00
  0.00000000E+00  0.00000000E+00  0.00000000E+00
  0.00000000E+00  0.00000000E+00  0.00000000E+00
  0.00000000E+00  0.00000000E+00  0.00000000E+00
  0.00000000E+00  0.00000000E+00  0.00000000E+00
  0.00000000E+00  0.00000000E+00  0.00000000E+00
  0.00000000E+00  0.00000000E+00  0.00000000E+00
  0.00000000E+00  0.00000000E+00  0.00000000E+00
  0.00000000E+00  0.00000000E+00  0.00000000E+00
  0.00000000E+00  0.00000000E+00  0.00000000E+00
  0.00000000E+00  0.00000000E+00  0.00000000E+00
  0.00000000E+00  0.00000000E+00  0.00000000E+00
  0.00000000E+00  0.00000000E+00  0.00000000E+00
  0.00000000E+00  0.00000000E+00  0.00000000E+00
  0.00000000E+00  0.00000000E+00  0.00000000E+00
  0.00000000E+00  0.00000000E+00  0.00000000E+00
  0.00000000E+00  0.00000000E+00  0.00000000E+00
  0.00000000E+00  0.00000000E+00  0.00000000E+00
  0.00000000E+00  0.00000000E+00  0.00000000E+00
  0.00000000E+00  0.00000000E+00  0.00000000E+00
  0.00000000E+00  0.00000000E+00  0.00000000E+00
  0.00000000E+00  0.00000000E+00  0.00000000E+00
  0.00000000E+00  0.00000000E+00  0.00000000E+00
  0.00000000E+00  0.00000000E+00  0.00000000E+00
  0.00000000E+00  0.00000000E+00  0.00000000E+00
  0.00000000E+00  0.00000000E+00  0.00000000E+00
  0.00000000E+00  0.00000000E+00  0.00000000E+00
  0.00000000E+00  0.00000000E+00  0.00000000E+00
  0.00000000E+00  0.00000000E+00  0.00000000E+00
  0.00000000E+00  0.00000000E+00  0.00000000E+00
  0.00000000E+00  0.00000000E+00  0.00000000E+00
  0.00000000E+00  0.00000000E+00  0.00000000E+00
  0.00000000E+00  0.00000000E+00  0.00000000E+00
  0.00000000E+00  0.00000000E+00  0.00000000E+00
  0.00000000E+00  0.00000000E+00  0.00000000E+00
  0.00000000E+00  0.00000000E+00  0.00000000E+00
  0.00000000E+00  0.00000000E+00  0.00000000E+00
  0.00000000E+00  0.00000000E+00  0.00000000E+00
  0.00000000E+00  0.00000000E+00  0.00000000E+00
  0.00000000E+00  0.00000000E+00  0.00000000E+00
  0.00000000E+00  0.00000000E+00  0.00000000E+00
  0.00000000E+00  0.00000000E+00  0.00000000E+00
  0.00000000E+00  0.00000000E+00  0.00000000E+00
  0.00000000E+00  0.00000000E+00  0.00000000E+00
  0.00000000E+00  0.00000000E+00  0.00000000E+00
  0.00000000E+00  0.00000000E+00  0.00000000E+00
  0.00000000E+00  0.00000000E+00  0.00000000E+00
  0.00000000E+00  0.00000000E+00  0.00000000E+00
  0.00000000E+00  0.00000000E+00  0.00000000E+00
  0.00000000E+00  0.00000000E+00  0.00000000E+00
  0.00000000E+00  0.00000000E+00  0.00000000E+00
  0.00000000E+00  0.00000000E+00  0.00000000E+00
  0.00000000E+00  0.00000000E+00  0.00000000E+00
  0.00000000E+00  0.00000000E+00  0.00000000E+00
  0.00000000E+00  0.00000000E+00  0.00000000E+00
  0.00000000E+00  0.00000000E+00  0.00000000E+00
  0.00000000E+00  0.00000000E+00  0.00000000E+00
  0.00000000E+00  0.00000000E+00  0.00000000E+00
  0.00000000E+00  0.00000000E+00  0.00000000E+00
  0.00000000E+00  0.00000000E+00  0.00000000E+00
  0.00000000E+00  0.00000000E+00  0.00000000E+00
  0.00000000E+00  0.00000000E+00  0.00000000E+00
  0.00000000E+00  0.00000000E+00  0.00000000E+00
  0.00000000E+00  0.00000000E+00  0.00000000E+00
  0.00000000E+00  0.00000000E+00  0.00000000E+00
  0.00000000E+00  0.00000000E+00  0.00000000E+00
  0.00000000E+00  0.00000000E+00  0.00000000E+00
  0.00000000E+00  0.00000000E+00  0.00000000E+00
  0.00000000E+00  0.00000000E+00  0.00000000E+00
  0.00000000E+00  0.00000000E+00  0.00000000E+00
  0.00000000E+00  0.00000000E+00  0.00000000E+00
  0.00000000E+00  0.00000000E+00  0.00000000E+00
  0.00000000E+00  0.00000000E+00  0.00000000E+00
  0.00000000E+00  0.00000000E+00  0.00000000E+00
