CONTCAR                                 
   1.00000000000000     
    14.0611000061000002    0.0000000000000000    0.0000000000000000
     0.0000000000000000   17.2483997345000013    0.0000000000000000
     0.0000000000000000    0.0000000000000000   18.5618991852000015
   Cu   H    Se   O 
     8    17    16    50
Selective dynamics
Direct
  0.9968874621469936  0.9999138736236333  0.5018597140817818   F   F   F
  0.2443956814494470  0.2498468852005615  0.4981768467982519   F   F   F
  0.4969870074164788  0.0005996024635166  0.4983038546481424   F   F   F
  0.7470331016560934  0.2503637231291975  0.4986518452731161   F   F   F
  0.9975430581278815  0.5007149009555718  0.5012947677086856   F   F   F
  0.2477503787595765  0.7494610351979176  0.5019138540376815   F   F   F
  0.4986977632572902  0.5000318319353596  0.5082418349442790   F   F   F
  0.7474177513239937  0.7499900098120378  0.5064991790915130   F   F   F
  0.3084107586279714  0.0202042708347037  0.4342906642456583   F   F   F
  0.0583463267538846  0.2299914914583567  0.5655392212035792   F   F   F
  0.4329282555949945  0.2725305205534809  0.4325803432194277   F   F   F
  0.1840551630556035  0.4803742655315517  0.5631967718882365   F   F   F
  0.8111033234464742  0.0193408296318438  0.4376736966961374   F   F   F
  0.5591052970635744  0.2304427542225511  0.5579287146049410   F   F   F
  0.9322202373977859  0.2706454532701557  0.4368316832151251   F   F   F
  0.6846387353591012  0.4806574883202188  0.5565153684445932   F   F   F
  0.3097879378779353  0.5200821914309941  0.4344725335685737   F   F   F
  0.0624515454206289  0.7299535820409062  0.5648430589389335   F   F   F
  0.4359967518481653  0.7670673212438004  0.4420504253246520   F   F   F
  0.1850093779155699  0.9801894530537894  0.5638270330269819   F   F   F
  0.8107804491126487  0.5248938428959349  0.4375403856732376   F   F   F
  0.5563910951787889  0.7317056774354214  0.5725421908980479   F   F   F
  0.9336392405005469  0.7712487020920591  0.4385794694878484   F   F   F
  0.6835826670711427  0.9807774555413999  0.5652113316363483   F   F   F
  0.6278625158801177  0.4887615026935777  0.6585869944321203   T   T   T
  0.3177197939470062  0.4075701286888602  0.5581771213565858   F   F   F
  0.0666419437124262  0.3424961812234457  0.4407118416718632   F   F   F
  0.4242775338817211  0.1583782887211740  0.5551246597731065   F   F   F
  0.1732250757585305  0.0915282126065478  0.4387978671364152   F   F   F
  0.8190154323533250  0.4081594636182331  0.5609654516447833   F   F   F
  0.5686094237948183  0.3436097180278281  0.4370436130714168   F   F   F
  0.9240281691388219  0.1578407795368619  0.5612364755731534   F   F   F
  0.6765217409300703  0.0915417418681912  0.4391298528120018   F   F   F
  0.3202693346860102  0.9087765968200898  0.5597358028893495   F   F   F
  0.0690208481689325  0.8425235926906893  0.4420494643596484   F   F   F
  0.4235596007454419  0.6578371619272900  0.5671290261790176   F   F   F
  0.1753583471923079  0.5927276139920323  0.4396302837504322   F   F   F
  0.8184939952282235  0.9090276908551616  0.5634886897440481   F   F   F
  0.5699208585918853  0.8402233541186135  0.4448278518711959   F   F   F
  0.9277056203492009  0.6582105651720553  0.5628863405176006   F   F   F
  0.6750718200801558  0.5951460423291408  0.4444822237298425   F   F   F
  0.1088598061491908  0.2610640420918884  0.4854182870136796   F   F   F
  0.3800366023043082  0.2386532740108009  0.5096725340139656   F   F   F
  0.3614848079179822  0.4864370696426477  0.5110603766373245   F   F   F
  0.2277285447219128  0.1390477186647914  0.5087441115733498   F   F   F
  0.1313029260136673  0.0105899770272799  0.4845043614253584   F   F   F
  0.4787119782797333  0.1109020203100073  0.4850074381566429   F   F   F
  0.2606506388337166  0.3604826189638644  0.4887823057347944   F   F   F
  0.0126187955931556  0.3897270341782146  0.5112540637293250   F   F   F
  0.2712290973934799  0.0469990178652822  0.3949691053938338   F   F   F
  0.0219889661599737  0.2027401851320363  0.6049655212505982   F   F   F
  0.2207552390761833  0.4532292057224794  0.6024588656735119   F   F   F
  0.4699019231687060  0.2998676160643399  0.3934445842598464   F   F   F
  0.6131425340203052  0.2610934076333820  0.4794290349080512   F   F   F
  0.8813848100326140  0.2392012265935861  0.5164461513501095   F   F   F
  0.8625120806709816  0.4897941151123959  0.5181301074009355   F   F   F
  0.7295909648526688  0.1396750156802611  0.5094430087988613   F   F   F
  0.6325167432967262  0.0115008410129747  0.4850744196199486   F   F   F
  0.9788107850791121  0.1107907118968328  0.4911339724822597   F   F   F
  0.7661236487925507  0.3616295077035474  0.4902791191160816   F   F   F
  0.5167009699200449  0.3876010187465582  0.5096238136746010   F   F   F
  0.7756231907485542  0.0461268185184878  0.3974984829935693   F   F   F
  0.5225383230693055  0.2038898636115363  0.5977516082271492   F   F   F
  0.7164998816718011  0.4547235125193083  0.6001012208462413   F   F   F
  0.9678804845273348  0.2983520378200808  0.3973295404367789   F   F   F
  0.1126732532121295  0.7612618373433051  0.4863191241732494   F   F   F
  0.3817461276811116  0.7382454306890338  0.5194629003414590   F   F   F
  0.3618586353397930  0.9891890247698427  0.5128196582507982   F   F   F
  0.2295400592522370  0.6385629576510894  0.5106727686333485   F   F   F
  0.1317777339155981  0.5111000065172107  0.4837167040263637   F   F   F
  0.4810493149633928  0.6111425262811707  0.4979482618414792   F   F   F
  0.2651112131638342  0.8602160100519143  0.4906782840706114   F   F   F
  0.0152063969700365  0.8892112660462175  0.5128861899987314   F   F   F
  0.2729871582090624  0.5481767804406417  0.3955522946696703   F   F   F
  0.0268823423583200  0.7028202085243507  0.6049036103463479   F   F   F
  0.2222466360215520  0.9538601683798689  0.6032838284366875   F   F   F
  0.4729793368588204  0.7932806923831279  0.4020522628892920   F   F   F
  0.6121910689690466  0.7616767734926100  0.4938263206518840   F   F   F
  0.8828880641245078  0.7389844233688052  0.5186172413324286   F   F   F
  0.8621146734779757  0.9890416639409167  0.5173921659571832   F   F   F
  0.7292800005392195  0.6390176650961195  0.5165631824121277   F   F   F
  0.6334611104146717  0.5114603663857480  0.4858456335956021   F   F   F
  0.9797548483695309  0.6113299395812817  0.4914042282811124   F   F   F
  0.7650812336780817  0.8605426277342900  0.4936640214273922   F   F   F
  0.5141098393653465  0.8903939432778216  0.5126217192533886   F   F   F
  0.7738497362158441  0.5529571185406184  0.3991760981680343   F   F   F
  0.5191681455271038  0.7049228339046891  0.6116687954979980   F   F   F
  0.7196412966395513  0.9545424559131206  0.6054045576377547   F   F   F
  0.9700780770207444  0.7981812034282214  0.3990547242114388   F   F   F
  0.5761359250866889  0.5251574704406181  0.6752609121803630   T   T   T
  0.5001128085301829  0.5091708035300541  0.6322857798659427   T   T   T
 
  0.00000000E+00  0.00000000E+00  0.00000000E+00
  0.00000000E+00  0.00000000E+00  0.00000000E+00
  0.00000000E+00  0.00000000E+00  0.00000000E+00
  0.00000000E+00  0.00000000E+00  0.00000000E+00
  0.00000000E+00  0.00000000E+00  0.00000000E+00
  0.00000000E+00  0.00000000E+00  0.00000000E+00
  0.00000000E+00  0.00000000E+00  0.00000000E+00
  0.00000000E+00  0.00000000E+00  0.00000000E+00
  0.00000000E+00  0.00000000E+00  0.00000000E+00
  0.00000000E+00  0.00000000E+00  0.00000000E+00
  0.00000000E+00  0.00000000E+00  0.00000000E+00
  0.00000000E+00  0.00000000E+00  0.00000000E+00
  0.00000000E+00  0.00000000E+00  0.00000000E+00
  0.00000000E+00  0.00000000E+00  0.00000000E+00
  0.00000000E+00  0.00000000E+00  0.00000000E+00
  0.00000000E+00  0.00000000E+00  0.00000000E+00
  0.00000000E+00  0.00000000E+00  0.00000000E+00
  0.00000000E+00  0.00000000E+00  0.00000000E+00
  0.00000000E+00  0.00000000E+00  0.00000000E+00
  0.00000000E+00  0.00000000E+00  0.00000000E+00
  0.00000000E+00  0.00000000E+00  0.00000000E+00
  0.00000000E+00  0.00000000E+00  0.00000000E+00
  0.00000000E+00  0.00000000E+00  0.00000000E+00
  0.00000000E+00  0.00000000E+00  0.00000000E+00
  0.00000000E+00  0.00000000E+00  0.00000000E+00
  0.00000000E+00  0.00000000E+00  0.00000000E+00
  0.00000000E+00  0.00000000E+00  0.00000000E+00
  0.00000000E+00  0.00000000E+00  0.00000000E+00
  0.00000000E+00  0.00000000E+00  0.00000000E+00
  0.00000000E+00  0.00000000E+00  0.00000000E+00
  0.00000000E+00  0.00000000E+00  0.00000000E+00
  0.00000000E+00  0.00000000E+00  0.00000000E+00
  0.00000000E+00  0.00000000E+00  0.00000000E+00
  0.00000000E+00  0.00000000E+00  0.00000000E+00
  0.00000000E+00  0.00000000E+00  0.00000000E+00
  0.00000000E+00  0.00000000E+00  0.00000000E+00
  0.00000000E+00  0.00000000E+00  0.00000000E+00
  0.00000000E+00  0.00000000E+00  0.00000000E+00
  0.00000000E+00  0.00000000E+00  0.00000000E+00
  0.00000000E+00  0.00000000E+00  0.00000000E+00
  0.00000000E+00  0.00000000E+00  0.00000000E+00
  0.00000000E+00  0.00000000E+00  0.00000000E+00
  0.00000000E+00  0.00000000E+00  0.00000000E+00
  0.00000000E+00  0.00000000E+00  0.00000000E+00
  0.00000000E+00  0.00000000E+00  0.00000000E+00
  0.00000000E+00  0.00000000E+00  0.00000000E+00
  0.00000000E+00  0.00000000E+00  0.00000000E+00
  0.00000000E+00  0.00000000E+00  0.00000000E+00
  0.00000000E+00  0.00000000E+00  0.00000000E+00
  0.00000000E+00  0.00000000E+00  0.00000000E+00
  0.00000000E+00  0.00000000E+00  0.00000000E+00
  0.00000000E+00  0.00000000E+00  0.00000000E+00
  0.00000000E+00  0.00000000E+00  0.00000000E+00
  0.00000000E+00  0.00000000E+00  0.00000000E+00
  0.00000000E+00  0.00000000E+00  0.00000000E+00
  0.00000000E+00  0.00000000E+00  0.00000000E+00
  0.00000000E+00  0.00000000E+00  0.00000000E+00
  0.00000000E+00  0.00000000E+00  0.00000000E+00
  0.00000000E+00  0.00000000E+00  0.00000000E+00
  0.00000000E+00  0.00000000E+00  0.00000000E+00
  0.00000000E+00  0.00000000E+00  0.00000000E+00
  0.00000000E+00  0.00000000E+00  0.00000000E+00
  0.00000000E+00  0.00000000E+00  0.00000000E+00
  0.00000000E+00  0.00000000E+00  0.00000000E+00
  0.00000000E+00  0.00000000E+00  0.00000000E+00
  0.00000000E+00  0.00000000E+00  0.00000000E+00
  0.00000000E+00  0.00000000E+00  0.00000000E+00
  0.00000000E+00  0.00000000E+00  0.00000000E+00
  0.00000000E+00  0.00000000E+00  0.00000000E+00
  0.00000000E+00  0.00000000E+00  0.00000000E+00
  0.00000000E+00  0.00000000E+00  0.00000000E+00
  0.00000000E+00  0.00000000E+00  0.00000000E+00
  0.00000000E+00  0.00000000E+00  0.00000000E+00
  0.00000000E+00  0.00000000E+00  0.00000000E+00
  0.00000000E+00  0.00000000E+00  0.00000000E+00
  0.00000000E+00  0.00000000E+00  0.00000000E+00
  0.00000000E+00  0.00000000E+00  0.00000000E+00
  0.00000000E+00  0.00000000E+00  0.00000000E+00
  0.00000000E+00  0.00000000E+00  0.00000000E+00
  0.00000000E+00  0.00000000E+00  0.00000000E+00
  0.00000000E+00  0.00000000E+00  0.00000000E+00
  0.00000000E+00  0.00000000E+00  0.00000000E+00
  0.00000000E+00  0.00000000E+00  0.00000000E+00
  0.00000000E+00  0.00000000E+00  0.00000000E+00
  0.00000000E+00  0.00000000E+00  0.00000000E+00
  0.00000000E+00  0.00000000E+00  0.00000000E+00
  0.00000000E+00  0.00000000E+00  0.00000000E+00
  0.00000000E+00  0.00000000E+00  0.00000000E+00
  0.00000000E+00  0.00000000E+00  0.00000000E+00
  0.00000000E+00  0.00000000E+00  0.00000000E+00
  0.00000000E+00  0.00000000E+00  0.00000000E+00
