CONTCAR                                 
   1.00000000000000     
    11.5825996398999997    0.0000000000000000    0.0000000000000000
     0.0000000000000000   12.9533996582000004    0.0000000000000000
     0.0000000000000000    0.0000000000000000   20.9237995147999989
   K    As   Pd   O 
    16    16     8     1
Direct
  0.1300020067714299 -0.0000000000000000  0.4477745799112091
  0.3755955092876150 -0.0000000000000000  0.5675921671299121
  0.1262342136213574  0.2479976834388219  0.3553203879799832
  0.3742689131198593  0.3104833947534992  0.6708879780431123
  0.6201115959710628 -0.0000000000000000  0.4477925641310915
  0.8752935499980596 -0.0000000000000000  0.5486710033122635
  0.6238660473360471  0.2478983054276674  0.3553679018872997
  0.8750080463043454  0.2500354718172715  0.6433642191314607
  0.1306487438654200  0.5000000000000000  0.4469290176840254
  0.3749371993763427  0.5000000000000000  0.5576470341000688
  0.1262342136213574  0.7520023165611780  0.3553203879799832
  0.3742689131198593  0.6895166052465009  0.6708879780431123
  0.6197912177939229  0.5000000000000000  0.4468164728787534
  0.8751172348526016  0.5000000000000000  0.5480322347671143
  0.6238660473360471  0.7521016945723326  0.3553679018872997
  0.8750080463043454  0.7499645281827284  0.6433642191314607
  0.3751000382804495  0.3418585486220280  0.4184308892064784
  0.1244777036706624  0.1558701882084547  0.5809272447347439
  0.1198288324343089  0.3430757625818918  0.5770982671592330
  0.3750361244171059  0.1520722889423571  0.4192778047634922
  0.8753411202824515  0.3424416548595952  0.4159364074571354
  0.6260292738419395  0.1559150675318045  0.5808320692208732
  0.6300816918951518  0.3430684228262117  0.5771758286376797
  0.8749559825568848  0.1520311121318559  0.4131161189881028
  0.3750361244171059  0.8479276930576485  0.4192778047634922
  0.1198288324343089  0.6569242734181041  0.5770982671592330
  0.1244777036706624  0.8441297937915508  0.5809272447347439
  0.3751000382804495  0.6581414873779681  0.4184308892064784
  0.8749559825568848  0.8479688698681496  0.4131161189881028
  0.6300816918951518  0.6569316131737845  0.5771758286376797
  0.6260292738419395  0.8440849144682010  0.5808320692208732
  0.8753411202824515  0.6575583811404008  0.4159364074571354
  0.9991139478418174  0.2444184968947138  0.4966575541594960
  0.2500609270798322  0.2479885213123962  0.4999710028746798
  0.4999598538955127  0.2478852454841285  0.4999970390343905
  0.7510474487218231  0.2448328599385693  0.4966358659036158
  0.9991139478418174  0.7555815031052860  0.4966575541594960
  0.2500609270798322  0.7520114786876037  0.4999710028746798
  0.4999598538955127  0.7521147545158715  0.4999970390343905
  0.7510474487218231  0.7551671400614308  0.4966358659036158
  0.3730529194844630  0.4999500099999992  0.6787921347220064
 
  0.00000000E+00  0.00000000E+00  0.00000000E+00
  0.00000000E+00  0.00000000E+00  0.00000000E+00
  0.00000000E+00  0.00000000E+00  0.00000000E+00
  0.00000000E+00  0.00000000E+00  0.00000000E+00
  0.00000000E+00  0.00000000E+00  0.00000000E+00
  0.00000000E+00  0.00000000E+00  0.00000000E+00
  0.00000000E+00  0.00000000E+00  0.00000000E+00
  0.00000000E+00  0.00000000E+00  0.00000000E+00
  0.00000000E+00  0.00000000E+00  0.00000000E+00
  0.00000000E+00  0.00000000E+00  0.00000000E+00
  0.00000000E+00  0.00000000E+00  0.00000000E+00
  0.00000000E+00  0.00000000E+00  0.00000000E+00
  0.00000000E+00  0.00000000E+00  0.00000000E+00
  0.00000000E+00  0.00000000E+00  0.00000000E+00
  0.00000000E+00  0.00000000E+00  0.00000000E+00
  0.00000000E+00  0.00000000E+00  0.00000000E+00
  0.00000000E+00  0.00000000E+00  0.00000000E+00
  0.00000000E+00  0.00000000E+00  0.00000000E+00
  0.00000000E+00  0.00000000E+00  0.00000000E+00
  0.00000000E+00  0.00000000E+00  0.00000000E+00
  0.00000000E+00  0.00000000E+00  0.00000000E+00
  0.00000000E+00  0.00000000E+00  0.00000000E+00
  0.00000000E+00  0.00000000E+00  0.00000000E+00
  0.00000000E+00  0.00000000E+00  0.00000000E+00
  0.00000000E+00  0.00000000E+00  0.00000000E+00
  0.00000000E+00  0.00000000E+00  0.00000000E+00
  0.00000000E+00  0.00000000E+00  0.00000000E+00
  0.00000000E+00  0.00000000E+00  0.00000000E+00
  0.00000000E+00  0.00000000E+00  0.00000000E+00
  0.00000000E+00  0.00000000E+00  0.00000000E+00
  0.00000000E+00  0.00000000E+00  0.00000000E+00
  0.00000000E+00  0.00000000E+00  0.00000000E+00
  0.00000000E+00  0.00000000E+00  0.00000000E+00
  0.00000000E+00  0.00000000E+00  0.00000000E+00
  0.00000000E+00  0.00000000E+00  0.00000000E+00
  0.00000000E+00  0.00000000E+00  0.00000000E+00
  0.00000000E+00  0.00000000E+00  0.00000000E+00
  0.00000000E+00  0.00000000E+00  0.00000000E+00
  0.00000000E+00  0.00000000E+00  0.00000000E+00
  0.00000000E+00  0.00000000E+00  0.00000000E+00
  0.00000000E+00  0.00000000E+00  0.00000000E+00
