CONTCAR\(6)                             
   1.00000000000000     
    12.0100002288999992    0.0000000000000000    0.0000000000000000
     0.0000000000000000   13.6953001021999992    0.0000000000000000
     0.0000000000000000    0.0000000000000000   20.2971992493000002
   Hf   Te   O 
     6    30     1
Direct
  0.1669524099521439  0.9994155676079082  0.5483105564817718
  0.0000008967989016  0.5013349833675116  0.4554968534847795
  0.4999945767310888  0.0029974543010622  0.5465269116935449
  0.3328976639432014  0.5014707745705678  0.4566092606611166
  0.8330128436538679  0.9994148197182031  0.5483588104713013
  0.6671452622341518  0.5015630043124711  0.4565697578184539
  0.0000617972583867  0.6832540974943929  0.5333756150148709
  0.1659318936545026  0.8131020880099237  0.4711702301885311
  0.1688840606798506  0.4981754490368246  0.5656792738758728
  0.9998091924987095  0.0140796404574039  0.4374958221826773
  0.1673320748329839  0.6055694225940743  0.3746011553813811
  0.0000028981932514  0.8966362252091149  0.6294113600560824
  0.0000118463442435  0.0997235877444215  0.6315157884417575
  0.1666496275753394  0.4023591662531838  0.3724960622954390
  0.0000284757527025  0.3185655273451448  0.5327580669255998
  0.1632763665307210  0.1830842600468815  0.4713995687635880
  0.3395245510595379  0.6928407718974919  0.5340439682225567
  0.4999751153153021  0.8226227573319168  0.4678002685395382
  0.5003660198379350  0.4926942796035175  0.5668417787867325
  0.3291597061922386  0.9993249691165311  0.4367303843708387
  0.4999770512585291  0.6037467080891525  0.3750238911192689
  0.3354538985707458  0.8989655241088494  0.6290167212544957
  0.3330879618046426  0.1033195642378828  0.6289930127639232
  0.5000466132227549  0.4013947863264111  0.3732450122422025
  0.3345873271718866  0.3124726167193351  0.5286623286732468
  0.5000357439259845  0.1833512074122715  0.4668683838705006
  0.6605665415037425  0.6929282161088214  0.5339692629969673
  0.8338849473518996  0.8130818009770525  0.4712398700605994
  0.8312432775859917  0.4982928886097217  0.5656387148920222
  0.6708246041942266  0.9992830500385060  0.4367689609096407
  0.8327233771656176  0.6055641386301478  0.3745166259707008
  0.6644653802701597  0.8990548667008222  0.6291117416074752
  0.6668739360738353  0.1033807353908637  0.6289976738727818
  0.8333733432213536  0.4023335512371162  0.3725073450189640
  0.6652109770081521  0.3125727341406382  0.5286700801382587
  0.8369315413269843  0.1830084305879386  0.4714099106374304
  0.4995062193044249  0.6409702876659235  0.5855190393151019
 
  0.00000000E+00  0.00000000E+00  0.00000000E+00
  0.00000000E+00  0.00000000E+00  0.00000000E+00
  0.00000000E+00  0.00000000E+00  0.00000000E+00
  0.00000000E+00  0.00000000E+00  0.00000000E+00
  0.00000000E+00  0.00000000E+00  0.00000000E+00
  0.00000000E+00  0.00000000E+00  0.00000000E+00
  0.00000000E+00  0.00000000E+00  0.00000000E+00
  0.00000000E+00  0.00000000E+00  0.00000000E+00
  0.00000000E+00  0.00000000E+00  0.00000000E+00
  0.00000000E+00  0.00000000E+00  0.00000000E+00
  0.00000000E+00  0.00000000E+00  0.00000000E+00
  0.00000000E+00  0.00000000E+00  0.00000000E+00
  0.00000000E+00  0.00000000E+00  0.00000000E+00
  0.00000000E+00  0.00000000E+00  0.00000000E+00
  0.00000000E+00  0.00000000E+00  0.00000000E+00
  0.00000000E+00  0.00000000E+00  0.00000000E+00
  0.00000000E+00  0.00000000E+00  0.00000000E+00
  0.00000000E+00  0.00000000E+00  0.00000000E+00
  0.00000000E+00  0.00000000E+00  0.00000000E+00
  0.00000000E+00  0.00000000E+00  0.00000000E+00
  0.00000000E+00  0.00000000E+00  0.00000000E+00
  0.00000000E+00  0.00000000E+00  0.00000000E+00
  0.00000000E+00  0.00000000E+00  0.00000000E+00
  0.00000000E+00  0.00000000E+00  0.00000000E+00
  0.00000000E+00  0.00000000E+00  0.00000000E+00
  0.00000000E+00  0.00000000E+00  0.00000000E+00
  0.00000000E+00  0.00000000E+00  0.00000000E+00
  0.00000000E+00  0.00000000E+00  0.00000000E+00
  0.00000000E+00  0.00000000E+00  0.00000000E+00
  0.00000000E+00  0.00000000E+00  0.00000000E+00
  0.00000000E+00  0.00000000E+00  0.00000000E+00
  0.00000000E+00  0.00000000E+00  0.00000000E+00
  0.00000000E+00  0.00000000E+00  0.00000000E+00
  0.00000000E+00  0.00000000E+00  0.00000000E+00
  0.00000000E+00  0.00000000E+00  0.00000000E+00
  0.00000000E+00  0.00000000E+00  0.00000000E+00
  0.00000000E+00  0.00000000E+00  0.00000000E+00
