CONTCAR\(3)                             
   1.00000000000000     
     9.5628004073999993    0.0000000000000000    0.0000000000000000
     1.9631085529000001   15.0429474850999991    0.0000000000000000
     0.0000000000000000   -0.3681273032000000   26.8431751801000011
   Li   Cr   P    O 
    16     8    32   104
Direct
  0.3252620871941355  0.2817085123263692  0.2775271994121857
  0.0620687834178071  0.1681639186565812  0.5180691653401094
  0.1747358998902868  0.2182927826372763  0.7224760691895912
  0.4379422827877889  0.3318238205874147  0.4819306464747592
  0.8252621121941410  0.2817085123263692  0.2775271994121857
  0.5620688084178054  0.1681639186565812  0.5180691653401094
  0.6747358748902883  0.2182927826372763  0.7224760691895912
  0.9379422327877849  0.3318238205874147  0.4819306464747592
  0.3252620911941358  0.7817084903263752  0.2775271994121857
  0.0620687784178032  0.6681639436565801  0.5180691653401094
  0.1747358998902868  0.7182927766372753  0.7224760691895912
  0.4379423047877907  0.8318238295874116  0.4819306464747592
  0.8252620911941357  0.7817084903263752  0.2775271994121857
  0.5620688274178034  0.6681639436565801  0.5180691653401094
  0.6747358998902868  0.7182927766372753  0.7224760691895912
  0.9379422047877897  0.8318238295874116  0.4819306464747592
  0.1992759292250665  0.0643691134688199  0.6200150329560463
  0.3007287523941519  0.4356303166163734  0.3799870325934956
  0.6992759292250659  0.0643691134688199  0.6200150329560463
  0.8007287523941515  0.4356303166163734  0.3799870325934956
  0.1992758962250673  0.5643691474688227  0.6200150329560463
  0.3007287373941542  0.9356302626163691  0.3799870325934956
  0.6992759462250637  0.5643691474688227  0.6200150329560463
  0.8007287373941538  0.9356302626163691  0.3799870325934956
  0.4619671905617562  0.4693569498544208  0.5675696412300031
  0.1264722202364362  0.3776424555700823  0.6435869689145083
  0.3066307667304561  0.2433295614184004  0.5829983712476141
  0.0380283195857808  0.0306454448003844  0.4324277886778580
  0.4321832941499922  0.1578261179569563  0.6748927153713342
  0.3735313669777232  0.1223570061526499  0.3564104184439586
  0.1933678504748620  0.2566683152386989  0.4170018551690457
  0.0678122862348149  0.3421771617205462  0.3251098788418842
  0.9619671415617551  0.4693569498544208  0.5675696412300031
  0.6264721952364372  0.3776424555700823  0.6435869689145083
  0.8066307667304569  0.2433295614184004  0.5829983712476141
  0.5380283105857838  0.0306454448003844  0.4324277886778580
  0.9321833441499887  0.1578261179569563  0.6748927153713342
  0.8735313919777226  0.1223570061526499  0.3564104184439586
  0.6933678504748622  0.2566683152386989  0.4170018551690457
  0.5678122862348152  0.3421771617205462  0.3251098788418842
  0.4619672195617550  0.9693569278544187  0.5675696412300031
  0.1264722182364360  0.8776424645700793  0.6435869689145083
  0.3066307727304566  0.7433296494184005  0.5829983712476141
  0.0380283225857846  0.5306454428003841  0.4324277886778580
  0.4321833261499877  0.6578260799569530  0.6748927153713342
  0.3735313669777232  0.6223569991526461  0.3564104184439586
  0.1933678574748662  0.7566682762386993  0.4170018551690457
  0.0678122702348136  0.8421772347205415  0.3251098788418842
  0.9619671195617533  0.9693569278544187  0.5675696412300031
  0.6264722182364355  0.8776424645700793  0.6435869689145083
  0.8066308227304615  0.7433296494184005  0.5829983712476141
  0.5380283355857823  0.5306454428003841  0.4324277886778580
  0.9321833261499872  0.6578260799569530  0.6748927153713342
  0.8735313669777240  0.6223569991526461  0.3564104184439586
  0.6933678324748678  0.7566682762386993  0.4170018551690457
  0.5678122452348153  0.8421772347205415  0.3251098788418842
  0.3592447980491051  0.0776986726697932  0.6577920946156566
 -0.0202106891238340  0.4063391500370371  0.6170393394316659
  0.1145142760365817  0.3161997268592723  0.6848676553074444
  0.4078136071039322  0.2280713957555100  0.6296981666753696
  0.1966161582218990  0.4966674893471705  0.4319085471436233
  0.4066966190396867  0.3684312998184530  0.3250934344137082
  0.2178331334964449  0.3361761170196526  0.5962476370218074
  0.0127677959124711  0.4162217169623598  0.5231008993007618
  0.0933037479584946  0.1315663487106279  0.6749074230286702
  0.1232868908919994  0.3009211570538298  0.2769918655388797
  0.3767148876914871  0.1990755911140337  0.7230082431939509
  0.2821699458876857  0.1638284307888389  0.4037519526050046
  0.3105481483451385  0.0381748884840992  0.3420644209027641
  0.4597097108763501  0.4493139004173001  0.4189406291845410
  0.2031236762726255  0.1741802036407434  0.5817932571314011
  0.1109437960777362  0.2484001859967621  0.4632336932309800
  0.4872192711718125  0.0837756003146344  0.4769003276439516
  0.3033786731681387  0.0033354367361865  0.5680911484006133
  0.3890660232332533  0.2515921225996209  0.5367655459214308
  0.2968765637776675  0.3258200701765591  0.4182080849740975
  0.0921898188198757  0.2719310178903658  0.3703034696018541
  0.0402924604164161  0.0506893894588617  0.5810563827369045
  0.1894595597881946  0.4618214513974861  0.6579325347656889
  0.1407556642451545  0.4223034063585752  0.3422100805220860
  0.5202075937106062  0.0936639964140504  0.3829599107057443
  0.3854907350700164  0.1837999459732115  0.3151309981389945
  0.8592447980491050  0.0776986726697932  0.6577920946156566
  0.4797893108761661  0.4063391500370371  0.6170393394316659
  0.6145143260365860  0.3161997268592723  0.6848676553074444
  0.9078136071039329  0.2280713957555100  0.6296981666753696
  0.6966161832218972  0.4966674893471705  0.4319085471436233
  0.9066966190396866  0.3684312998184530  0.3250934344137082
  0.7178331834964492  0.3361761170196526  0.5962476370218074
  0.5127677839124766  0.4162217169623598  0.5231008993007618
  0.5933037229584958  0.1315663487106279  0.6749074230286702
  0.6232868528919960  0.3009211570538298  0.2769918655388797
  0.8767149376914916  0.1990755911140337  0.7230082431939509
  0.7821698958876886  0.1638284307888389  0.4037519526050046
  0.8105481483451382  0.0381748884840992  0.3420644209027641
  0.9597097108763498  0.4493139004173001  0.4189406291845410
  0.7031236512726265  0.1741802036407434  0.5817932571314011
  0.6109438330777354  0.2484001859967621  0.4632336932309800
  0.9872192711718122  0.0837756003146344  0.4769003276439516
  0.8033786481681338  0.0033354367361865  0.5680911484006133
  0.8890660732332508  0.2515921225996209  0.5367655459214308
  0.7968765637776678  0.3258200701765591  0.4182080849740975
  0.5921897818198757  0.2719310178903658  0.3703034696018541
  0.5402924734164131  0.0506893894588617  0.5810563827369045
  0.6894595347881888  0.4618214513974861  0.6579325347656889
  0.6407555892451515  0.4223034063585752  0.3422100805220860
  0.0202076437106030  0.0936639964140504  0.3829599107057443
  0.8854907600700154  0.1837999459732115  0.3151309981389945
  0.3592448220491071  0.5776986696697956  0.6577920946156566
 -0.0202106991238348  0.9063391910370373  0.6170393394316659
  0.1145142860365826  0.8161997998592671  0.6848676553074444
  0.4078136361039311  0.7280713737555083  0.6296981666753696
  0.1966161492219018  0.9966675303471705  0.4319085471436233
  0.4066965920396881  0.8684313088184572  0.3250934344137082
  0.2178331174964435  0.8361761900196545  0.5962476370218074
  0.0127677809124735  0.9162217269623603  0.5231008993007618
  0.0933037399584939  0.6315663827106309  0.6749074230286702
  0.1232869068920007  0.8009211350538281  0.2769918655388797
  0.3767148626914886  0.6990755851140334  0.7230082431939509
  0.2821699248876876  0.6638284087888376  0.4037519526050046
  0.3105481443451382  0.5381749054840971  0.3420644209027641
  0.4597097328763519  0.9493139094173042  0.4189406291845410
  0.2031236702726250  0.6741802296407458  0.5817932571314011
  0.1109438020777367  0.7484002109967607  0.4632336932309800
  0.4872192951718144  0.5837756013146305  0.4769003276439516
  0.3033786731681388  0.5033354347361860  0.5680911484006133
  0.3890660522332522  0.7515921005996191  0.5367655459214308
  0.2968765797776688  0.8258201111765591  0.4182080849740975
  0.0921898318198803  0.7719310118903646  0.3703034696018541
  0.0402924504164153  0.5506894344588619  0.5810563827369045
  0.1894595577881944  0.9618214613974866  0.6579325347656889
  0.1407556552451573  0.9223034473585746  0.3422100805220860
  0.5202076197106084  0.5936639894140534  0.3829599107057443
  0.3854907390700167  0.6837999239732095  0.3151309981389945
  0.8592447730491065  0.5776986696697956  0.6577920946156566
  0.4797893258761638  0.9063391910370373  0.6170393394316659
  0.6145143360365868  0.8161997998592671  0.6848676553074444
  0.9078135861039347  0.7280713737555083  0.6296981666753696
  0.6966161992218985  0.9966675303471705  0.4319085471436233
  0.9066965920396879  0.8684313088184572  0.3250934344137082
  0.7178331424964494  0.8361761900196545  0.5962476370218074
  0.5127677559124743  0.9162217269623603  0.5231008993007618
  0.5933037399584936  0.6315663827106309  0.6749074230286702
  0.6232868818919949  0.8009211350538281  0.2769918655388797
  0.8767149126914859  0.6990755851140334  0.7230082431939509
  0.7821698748876833  0.6638284087888376  0.4037519526050046
  0.8105481193451394  0.5381749054840971  0.3420644209027641
  0.9597096828763475  0.9493139094173042  0.4189406291845410
  0.7031236702726246  0.6741802296407458  0.5817932571314011
  0.6109438520777333  0.7484002109967607  0.4632336932309800
  0.9872192451718100  0.5837756013146305  0.4769003276439516
  0.8033786731681394  0.5033354347361860  0.5680911484006133
  0.8890660522332526  0.7515921005996191  0.5367655459214308
  0.7968766297776662  0.8258201111765591  0.4182080849740975
  0.5921898068198742  0.7719310118903646  0.3703034696018541
  0.5402924884164179  0.5506894344588619  0.5810563827369045
  0.6894595577881942  0.9618214613974866  0.6579325347656889
  0.6407556052451528  0.9223034473585746  0.3422100805220860
  0.0202076197106081  0.5936639894140534  0.3829599107057443
  0.8854907390700172  0.6837999239732095  0.3151309981389945
 
  0.00000000E+00  0.00000000E+00  0.00000000E+00
  0.00000000E+00  0.00000000E+00  0.00000000E+00
  0.00000000E+00  0.00000000E+00  0.00000000E+00
  0.00000000E+00  0.00000000E+00  0.00000000E+00
  0.00000000E+00  0.00000000E+00  0.00000000E+00
  0.00000000E+00  0.00000000E+00  0.00000000E+00
  0.00000000E+00  0.00000000E+00  0.00000000E+00
  0.00000000E+00  0.00000000E+00  0.00000000E+00
  0.00000000E+00  0.00000000E+00  0.00000000E+00
  0.00000000E+00  0.00000000E+00  0.00000000E+00
  0.00000000E+00  0.00000000E+00  0.00000000E+00
  0.00000000E+00  0.00000000E+00  0.00000000E+00
  0.00000000E+00  0.00000000E+00  0.00000000E+00
  0.00000000E+00  0.00000000E+00  0.00000000E+00
  0.00000000E+00  0.00000000E+00  0.00000000E+00
  0.00000000E+00  0.00000000E+00  0.00000000E+00
  0.00000000E+00  0.00000000E+00  0.00000000E+00
  0.00000000E+00  0.00000000E+00  0.00000000E+00
  0.00000000E+00  0.00000000E+00  0.00000000E+00
  0.00000000E+00  0.00000000E+00  0.00000000E+00
  0.00000000E+00  0.00000000E+00  0.00000000E+00
  0.00000000E+00  0.00000000E+00  0.00000000E+00
  0.00000000E+00  0.00000000E+00  0.00000000E+00
  0.00000000E+00  0.00000000E+00  0.00000000E+00
  0.00000000E+00  0.00000000E+00  0.00000000E+00
  0.00000000E+00  0.00000000E+00  0.00000000E+00
  0.00000000E+00  0.00000000E+00  0.00000000E+00
  0.00000000E+00  0.00000000E+00  0.00000000E+00
  0.00000000E+00  0.00000000E+00  0.00000000E+00
  0.00000000E+00  0.00000000E+00  0.00000000E+00
  0.00000000E+00  0.00000000E+00  0.00000000E+00
  0.00000000E+00  0.00000000E+00  0.00000000E+00
  0.00000000E+00  0.00000000E+00  0.00000000E+00
  0.00000000E+00  0.00000000E+00  0.00000000E+00
  0.00000000E+00  0.00000000E+00  0.00000000E+00
  0.00000000E+00  0.00000000E+00  0.00000000E+00
  0.00000000E+00  0.00000000E+00  0.00000000E+00
  0.00000000E+00  0.00000000E+00  0.00000000E+00
  0.00000000E+00  0.00000000E+00  0.00000000E+00
  0.00000000E+00  0.00000000E+00  0.00000000E+00
  0.00000000E+00  0.00000000E+00  0.00000000E+00
  0.00000000E+00  0.00000000E+00  0.00000000E+00
  0.00000000E+00  0.00000000E+00  0.00000000E+00
  0.00000000E+00  0.00000000E+00  0.00000000E+00
  0.00000000E+00  0.00000000E+00  0.00000000E+00
  0.00000000E+00  0.00000000E+00  0.00000000E+00
  0.00000000E+00  0.00000000E+00  0.00000000E+00
  0.00000000E+00  0.00000000E+00  0.00000000E+00
  0.00000000E+00  0.00000000E+00  0.00000000E+00
  0.00000000E+00  0.00000000E+00  0.00000000E+00
  0.00000000E+00  0.00000000E+00  0.00000000E+00
  0.00000000E+00  0.00000000E+00  0.00000000E+00
  0.00000000E+00  0.00000000E+00  0.00000000E+00
  0.00000000E+00  0.00000000E+00  0.00000000E+00
  0.00000000E+00  0.00000000E+00  0.00000000E+00
  0.00000000E+00  0.00000000E+00  0.00000000E+00
  0.00000000E+00  0.00000000E+00  0.00000000E+00
  0.00000000E+00  0.00000000E+00  0.00000000E+00
  0.00000000E+00  0.00000000E+00  0.00000000E+00
  0.00000000E+00  0.00000000E+00  0.00000000E+00
  0.00000000E+00  0.00000000E+00  0.00000000E+00
  0.00000000E+00  0.00000000E+00  0.00000000E+00
  0.00000000E+00  0.00000000E+00  0.00000000E+00
  0.00000000E+00  0.00000000E+00  0.00000000E+00
  0.00000000E+00  0.00000000E+00  0.00000000E+00
  0.00000000E+00  0.00000000E+00  0.00000000E+00
  0.00000000E+00  0.00000000E+00  0.00000000E+00
  0.00000000E+00  0.00000000E+00  0.00000000E+00
  0.00000000E+00  0.00000000E+00  0.00000000E+00
  0.00000000E+00  0.00000000E+00  0.00000000E+00
  0.00000000E+00  0.00000000E+00  0.00000000E+00
  0.00000000E+00  0.00000000E+00  0.00000000E+00
  0.00000000E+00  0.00000000E+00  0.00000000E+00
  0.00000000E+00  0.00000000E+00  0.00000000E+00
  0.00000000E+00  0.00000000E+00  0.00000000E+00
  0.00000000E+00  0.00000000E+00  0.00000000E+00
  0.00000000E+00  0.00000000E+00  0.00000000E+00
  0.00000000E+00  0.00000000E+00  0.00000000E+00
  0.00000000E+00  0.00000000E+00  0.00000000E+00
  0.00000000E+00  0.00000000E+00  0.00000000E+00
  0.00000000E+00  0.00000000E+00  0.00000000E+00
  0.00000000E+00  0.00000000E+00  0.00000000E+00
  0.00000000E+00  0.00000000E+00  0.00000000E+00
  0.00000000E+00  0.00000000E+00  0.00000000E+00
  0.00000000E+00  0.00000000E+00  0.00000000E+00
  0.00000000E+00  0.00000000E+00  0.00000000E+00
  0.00000000E+00  0.00000000E+00  0.00000000E+00
  0.00000000E+00  0.00000000E+00  0.00000000E+00
  0.00000000E+00  0.00000000E+00  0.00000000E+00
  0.00000000E+00  0.00000000E+00  0.00000000E+00
  0.00000000E+00  0.00000000E+00  0.00000000E+00
  0.00000000E+00  0.00000000E+00  0.00000000E+00
  0.00000000E+00  0.00000000E+00  0.00000000E+00
  0.00000000E+00  0.00000000E+00  0.00000000E+00
  0.00000000E+00  0.00000000E+00  0.00000000E+00
  0.00000000E+00  0.00000000E+00  0.00000000E+00
  0.00000000E+00  0.00000000E+00  0.00000000E+00
  0.00000000E+00  0.00000000E+00  0.00000000E+00
  0.00000000E+00  0.00000000E+00  0.00000000E+00
  0.00000000E+00  0.00000000E+00  0.00000000E+00
  0.00000000E+00  0.00000000E+00  0.00000000E+00
  0.00000000E+00  0.00000000E+00  0.00000000E+00
  0.00000000E+00  0.00000000E+00  0.00000000E+00
  0.00000000E+00  0.00000000E+00  0.00000000E+00
  0.00000000E+00  0.00000000E+00  0.00000000E+00
  0.00000000E+00  0.00000000E+00  0.00000000E+00
  0.00000000E+00  0.00000000E+00  0.00000000E+00
  0.00000000E+00  0.00000000E+00  0.00000000E+00
  0.00000000E+00  0.00000000E+00  0.00000000E+00
  0.00000000E+00  0.00000000E+00  0.00000000E+00
  0.00000000E+00  0.00000000E+00  0.00000000E+00
  0.00000000E+00  0.00000000E+00  0.00000000E+00
  0.00000000E+00  0.00000000E+00  0.00000000E+00
  0.00000000E+00  0.00000000E+00  0.00000000E+00
  0.00000000E+00  0.00000000E+00  0.00000000E+00
  0.00000000E+00  0.00000000E+00  0.00000000E+00
  0.00000000E+00  0.00000000E+00  0.00000000E+00
  0.00000000E+00  0.00000000E+00  0.00000000E+00
  0.00000000E+00  0.00000000E+00  0.00000000E+00
  0.00000000E+00  0.00000000E+00  0.00000000E+00
  0.00000000E+00  0.00000000E+00  0.00000000E+00
  0.00000000E+00  0.00000000E+00  0.00000000E+00
  0.00000000E+00  0.00000000E+00  0.00000000E+00
  0.00000000E+00  0.00000000E+00  0.00000000E+00
  0.00000000E+00  0.00000000E+00  0.00000000E+00
  0.00000000E+00  0.00000000E+00  0.00000000E+00
  0.00000000E+00  0.00000000E+00  0.00000000E+00
  0.00000000E+00  0.00000000E+00  0.00000000E+00
  0.00000000E+00  0.00000000E+00  0.00000000E+00
  0.00000000E+00  0.00000000E+00  0.00000000E+00
  0.00000000E+00  0.00000000E+00  0.00000000E+00
  0.00000000E+00  0.00000000E+00  0.00000000E+00
  0.00000000E+00  0.00000000E+00  0.00000000E+00
  0.00000000E+00  0.00000000E+00  0.00000000E+00
  0.00000000E+00  0.00000000E+00  0.00000000E+00
  0.00000000E+00  0.00000000E+00  0.00000000E+00
  0.00000000E+00  0.00000000E+00  0.00000000E+00
  0.00000000E+00  0.00000000E+00  0.00000000E+00
  0.00000000E+00  0.00000000E+00  0.00000000E+00
  0.00000000E+00  0.00000000E+00  0.00000000E+00
  0.00000000E+00  0.00000000E+00  0.00000000E+00
  0.00000000E+00  0.00000000E+00  0.00000000E+00
  0.00000000E+00  0.00000000E+00  0.00000000E+00
  0.00000000E+00  0.00000000E+00  0.00000000E+00
  0.00000000E+00  0.00000000E+00  0.00000000E+00
  0.00000000E+00  0.00000000E+00  0.00000000E+00
  0.00000000E+00  0.00000000E+00  0.00000000E+00
  0.00000000E+00  0.00000000E+00  0.00000000E+00
  0.00000000E+00  0.00000000E+00  0.00000000E+00
  0.00000000E+00  0.00000000E+00  0.00000000E+00
  0.00000000E+00  0.00000000E+00  0.00000000E+00
  0.00000000E+00  0.00000000E+00  0.00000000E+00
  0.00000000E+00  0.00000000E+00  0.00000000E+00
  0.00000000E+00  0.00000000E+00  0.00000000E+00
  0.00000000E+00  0.00000000E+00  0.00000000E+00
  0.00000000E+00  0.00000000E+00  0.00000000E+00
  0.00000000E+00  0.00000000E+00  0.00000000E+00
  0.00000000E+00  0.00000000E+00  0.00000000E+00
  0.00000000E+00  0.00000000E+00  0.00000000E+00
  0.00000000E+00  0.00000000E+00  0.00000000E+00
