CONTCAR\(3)                             
   1.00000000000000     
    12.8629999160999997    0.0000000000000000    0.0000000000000000
     0.0000000000000000   14.3196001052999993    0.0000000000000000
     0.0000000000000000    0.0000000000000000   19.5569992064999987
   Ag   Au   S    O    H 
    12    24    24     2     1
Direct
  0.0749538375776386  0.3210998008180729  0.5937453911081240
  0.2305434246943966  0.0818778869187795  0.6086722434137654
  0.4091392196080543  0.3381130351847734  0.5976671357940863
  0.5714227496554616  0.0849161312903162  0.6008225205276814
  0.7462044441464128  0.3309604882556920  0.5927585111654536
  0.8967566999879285  0.0682884221610510  0.6004153391287456
  0.0808155695461332  0.8249581756736266  0.5860356535293449
  0.2260512835773805  0.5873956304135476  0.6094177082268346
  0.4170188207188905  0.8400901676128464  0.5923230713261145
  0.5648640654906013  0.5831856140775656  0.6153207293137807
  0.7496288551540342  0.8232233537914730  0.5878563842675482
  0.9005349844688687  0.5695060976875487  0.6037323152000533
  0.0300775320409477  0.4910649405398596  0.4916695244317524
  0.3059516181160874  0.2451015473209047  0.4805455211916903
  0.1649479601564187  0.3677348615191761  0.4130001502673244
  0.1692060343032219  0.1173234295077180  0.4052297776344888
  0.3579662554081450  0.5001723173503729  0.5095289787831079
  0.6268865411417550  0.2473606493592238  0.4837167839199387
  0.5049940570385434  0.3747244260594946  0.3948959699810879
  0.5025386696637852  0.1296287968245963  0.3871921286322130
  0.6839330129653037  0.4970492148924898  0.5046645699570544
  0.9620775831696200  0.2352507511971435  0.4841181313762233
  0.8403303151066791  0.3687930552422893  0.3998526240666153
  0.8315786936454540  0.1167836741771902  0.4050144638365510
  0.0284229473773386  0.9907251142182592  0.4951864779249140
  0.3152620641744171  0.7465666441205268  0.4787445911293728
  0.1730785697300229  0.8717007019807997  0.4029517274576727
  0.1745615282586170  0.6195862609010492  0.4047081057885473
  0.3593998719001778  0.0014171957784464  0.5028315140067645
  0.6312520713551921  0.7309592537503167  0.4799432945899770
  0.5120363888698729  0.8809370324817477  0.3860853203500428
  0.5220535319287999  0.6281422012603596  0.3869554894391703
  0.6834798889162973  0.9976632170740777  0.4756002879565022
  0.9701768219945809  0.7353684128951249  0.4783825181521369
  0.8295325445708787  0.8646643477122911  0.4052008260678083
  0.8449779533173601  0.6155939077236484  0.3950149798814394
  0.2824741887818221  0.4904839213758940  0.4037005610615773
  0.2455656178271929  0.2485900054852707  0.5935961554417833
  0.0722506762727719  0.4914214741877487  0.6082446629840933
  0.0586860255270691  0.2411203418161991  0.3832404616162890
  0.6278541484975001  0.4934932664610604  0.3932004611738946
  0.5706053800914739  0.2530439660337270  0.5971109258384527
  0.4005969697309291  0.5048684859435318  0.6252061324107818
  0.3885707304470082  0.2535749808752019  0.3746369589184264
  0.9570313991934585  0.4900336684849155  0.3826612776654775
  0.9038404914814786  0.2392088436241049  0.5972110933065101
  0.7321939339180525  0.4975041340031109  0.6195647208711758
  0.7268299683924707  0.2462060075725468  0.3840480908153338
  0.2877891178225921 -0.0035496019098680  0.3950179221990626
  0.2507760867196289  0.7519755856998123  0.5904634011020369
  0.0722571985063592  0.9929891271130814  0.6113511876420032
  0.0676944059264065  0.7447829688434173  0.3775939837762180
  0.6172824437123329  0.0082878365229129  0.3649907131149308
  0.5748990611929045  0.7490183061098176  0.5923972186692340
  0.4069872002193772  0.0065432959121096  0.6175958408593542
  0.4038613154969447  0.7538951439397260  0.3751344088196948
  0.9425769972884034  0.9892721413822343  0.3909215401990430
  0.9104777619718081  0.7388697279192625  0.5911921028988880
  0.7290212607745200  0.9919007061355259  0.5914264886283328
  0.7266809584581996  0.7352842925378239  0.3786523451613704
  0.4395582892337351  0.5536163048298840  0.3106849051816498
  0.4182502754902759  0.6062968071919030  0.2517334300234022
  0.3557019352499332  0.6421718091366877  0.2649828927970414
 
  0.00000000E+00  0.00000000E+00  0.00000000E+00
  0.00000000E+00  0.00000000E+00  0.00000000E+00
  0.00000000E+00  0.00000000E+00  0.00000000E+00
  0.00000000E+00  0.00000000E+00  0.00000000E+00
  0.00000000E+00  0.00000000E+00  0.00000000E+00
  0.00000000E+00  0.00000000E+00  0.00000000E+00
  0.00000000E+00  0.00000000E+00  0.00000000E+00
  0.00000000E+00  0.00000000E+00  0.00000000E+00
  0.00000000E+00  0.00000000E+00  0.00000000E+00
  0.00000000E+00  0.00000000E+00  0.00000000E+00
  0.00000000E+00  0.00000000E+00  0.00000000E+00
  0.00000000E+00  0.00000000E+00  0.00000000E+00
  0.00000000E+00  0.00000000E+00  0.00000000E+00
  0.00000000E+00  0.00000000E+00  0.00000000E+00
  0.00000000E+00  0.00000000E+00  0.00000000E+00
  0.00000000E+00  0.00000000E+00  0.00000000E+00
  0.00000000E+00  0.00000000E+00  0.00000000E+00
  0.00000000E+00  0.00000000E+00  0.00000000E+00
  0.00000000E+00  0.00000000E+00  0.00000000E+00
  0.00000000E+00  0.00000000E+00  0.00000000E+00
  0.00000000E+00  0.00000000E+00  0.00000000E+00
  0.00000000E+00  0.00000000E+00  0.00000000E+00
  0.00000000E+00  0.00000000E+00  0.00000000E+00
  0.00000000E+00  0.00000000E+00  0.00000000E+00
  0.00000000E+00  0.00000000E+00  0.00000000E+00
  0.00000000E+00  0.00000000E+00  0.00000000E+00
  0.00000000E+00  0.00000000E+00  0.00000000E+00
  0.00000000E+00  0.00000000E+00  0.00000000E+00
  0.00000000E+00  0.00000000E+00  0.00000000E+00
  0.00000000E+00  0.00000000E+00  0.00000000E+00
  0.00000000E+00  0.00000000E+00  0.00000000E+00
  0.00000000E+00  0.00000000E+00  0.00000000E+00
  0.00000000E+00  0.00000000E+00  0.00000000E+00
  0.00000000E+00  0.00000000E+00  0.00000000E+00
  0.00000000E+00  0.00000000E+00  0.00000000E+00
  0.00000000E+00  0.00000000E+00  0.00000000E+00
  0.00000000E+00  0.00000000E+00  0.00000000E+00
  0.00000000E+00  0.00000000E+00  0.00000000E+00
  0.00000000E+00  0.00000000E+00  0.00000000E+00
  0.00000000E+00  0.00000000E+00  0.00000000E+00
  0.00000000E+00  0.00000000E+00  0.00000000E+00
  0.00000000E+00  0.00000000E+00  0.00000000E+00
  0.00000000E+00  0.00000000E+00  0.00000000E+00
  0.00000000E+00  0.00000000E+00  0.00000000E+00
  0.00000000E+00  0.00000000E+00  0.00000000E+00
  0.00000000E+00  0.00000000E+00  0.00000000E+00
  0.00000000E+00  0.00000000E+00  0.00000000E+00
  0.00000000E+00  0.00000000E+00  0.00000000E+00
  0.00000000E+00  0.00000000E+00  0.00000000E+00
  0.00000000E+00  0.00000000E+00  0.00000000E+00
  0.00000000E+00  0.00000000E+00  0.00000000E+00
  0.00000000E+00  0.00000000E+00  0.00000000E+00
  0.00000000E+00  0.00000000E+00  0.00000000E+00
  0.00000000E+00  0.00000000E+00  0.00000000E+00
  0.00000000E+00  0.00000000E+00  0.00000000E+00
  0.00000000E+00  0.00000000E+00  0.00000000E+00
  0.00000000E+00  0.00000000E+00  0.00000000E+00
  0.00000000E+00  0.00000000E+00  0.00000000E+00
  0.00000000E+00  0.00000000E+00  0.00000000E+00
  0.00000000E+00  0.00000000E+00  0.00000000E+00
  0.00000000E+00  0.00000000E+00  0.00000000E+00
  0.00000000E+00  0.00000000E+00  0.00000000E+00
  0.00000000E+00  0.00000000E+00  0.00000000E+00
