In9 Te12                                
   1.00000000000000     
     4.3344208474945161    0.0000000000000000    0.0000000000000000
    -2.1672104237472580    3.7537185647034881    0.0000000000000000
     0.0000000000000000    0.0000000000000002   41.3306375719404215
   In   Te
     9    12
Direct
 -0.0000000000000000 -0.0000000000000000 -0.0000000000000000
  0.3333333229999980  0.6666666460000030  0.0931564305861838
  0.3333333229999980  0.6666666460000030  0.2401769214138201
  0.6666667160000017  0.3333333229999980  0.3333333409999995
  0.0000000000000000  0.0000000000000000  0.4264897375861804
 -0.0000000000000000 -0.0000000000000000  0.5735102624138194
  0.3333333229999980  0.6666666460000030  0.6666666819999989
  0.6666667160000017  0.3333333229999980  0.7598230555861817
  0.6666667160000017  0.3333333229999980  0.9068435344138167
 -0.0000000000000000 -0.0000000000000000  0.1289348396173786
  0.6666667160000017  0.3333333229999980  0.2043984893826199
  0.0000000000000000  0.0000000000000000  0.2905188538465050
  0.6666667160000017  0.3333333229999980  0.0428144811534940
  0.6666667160000017  0.3333333229999980  0.4622681696173807
  0.3333333229999980  0.6666666460000030  0.5377318303826193
  0.6666667160000017  0.3333333229999980  0.6238522178465027
  0.3333333229999980  0.6666666460000030  0.3761478281534939
  0.3333333229999980  0.6666666460000030  0.7956014876173818
  0.0000000000000000  0.0000000000000000  0.8710651483826204
  0.3333333229999980  0.6666666460000030  0.9571854898465000
 -0.0000000000000000 -0.0000000000000000  0.7094811921534989
 
  0.00000000E+00  0.00000000E+00  0.00000000E+00
  0.00000000E+00  0.00000000E+00  0.00000000E+00
  0.00000000E+00  0.00000000E+00  0.00000000E+00
  0.00000000E+00  0.00000000E+00  0.00000000E+00
  0.00000000E+00  0.00000000E+00  0.00000000E+00
  0.00000000E+00  0.00000000E+00  0.00000000E+00
  0.00000000E+00  0.00000000E+00  0.00000000E+00
  0.00000000E+00  0.00000000E+00  0.00000000E+00
  0.00000000E+00  0.00000000E+00  0.00000000E+00
  0.00000000E+00  0.00000000E+00  0.00000000E+00
  0.00000000E+00  0.00000000E+00  0.00000000E+00
  0.00000000E+00  0.00000000E+00  0.00000000E+00
  0.00000000E+00  0.00000000E+00  0.00000000E+00
  0.00000000E+00  0.00000000E+00  0.00000000E+00
  0.00000000E+00  0.00000000E+00  0.00000000E+00
  0.00000000E+00  0.00000000E+00  0.00000000E+00
  0.00000000E+00  0.00000000E+00  0.00000000E+00
  0.00000000E+00  0.00000000E+00  0.00000000E+00
  0.00000000E+00  0.00000000E+00  0.00000000E+00
  0.00000000E+00  0.00000000E+00  0.00000000E+00
  0.00000000E+00  0.00000000E+00  0.00000000E+00
