 Mn1 S2                                 
   1.00000000000000     
     3.3198601611733789    0.0000000000000000    0.0000000000000000
     1.6599295853481666    2.8750702316468044    0.0000000000000000
     0.0000000000000000    0.0000000000000000   17.6412901752959996
   Mn   S 
     1     2
Direct
  0.9999999965717024  0.0000000000183746  0.5000000000119442
  0.6666668442240464  0.6666683418608912  0.5757364125152890
  0.3333331592042512  0.3333316581207342  0.4242635874727668
 
  0.00000000E+00  0.00000000E+00  0.00000000E+00
  0.00000000E+00  0.00000000E+00  0.00000000E+00
  0.00000000E+00  0.00000000E+00  0.00000000E+00
