CONTCAR\(10)                            
   1.00000000000000     
    12.0179996490000001    0.0000000000000000    0.0000000000000000
     5.5443836140000000   17.3830097696000010    0.0000000000000000
     0.0000000000000000    0.0000000000000000   18.4081001282000010
   Nb   Ir   Se   O    H 
    16     4    40     2     1
Direct
  0.3132206696974080  0.4181957177801721  0.4987011532233367
  0.3771556765794699  0.1945098727707304  0.5025158675613071
  0.0450446961150206  0.9965179861616988  0.5023729569988973
  0.0866283059591595  0.3145630883488337  0.4978949660928009
  0.8165897777398214  0.4175655489409777  0.4991594396052434
  0.8743294669892734  0.1984919943124055  0.5049091500406107
  0.5445474572231888  0.9960412336076061  0.5033966725885151
  0.5807653475976693  0.3093611049421909  0.4982699147316012
  0.3167576076098797  0.9151542163597099  0.4997758306998250
  0.3711103380872274  0.7050884020978643  0.5036203272867112
  0.0445029784199207  0.4991773351892093  0.5013571643318571
  0.0820192928066206  0.8136589882200269  0.4954076938609262
  0.8134376127954752  0.9166742651026283  0.4994695966369562
  0.8751317022069713  0.6992242351578284  0.5013226485936855
  0.5452058960923338  0.5010361665527583  0.4995706099820936
  0.5900553801164818  0.8176439448724153  0.4968016303982097
  0.2131878510403595  0.0920637559692636  0.5017899275156452
  0.7142579116011802  0.0925833043406783  0.5021155522587009
  0.2136529916677858  0.5936468634337118  0.5003716162250100
  0.7118151355133122  0.5944922685859027  0.4999949391928027
  0.1869651916827451  0.0025755069099915  0.6006214046750529
  0.0433119372880526  0.1035167164489224  0.4156910168548933
  0.2718118423388205  0.3044259445523849  0.5840866503928765
  0.1526875080441528  0.4005471073523950  0.4068830243368211
  0.3769312914948486  0.0936080750156307  0.5908130459876944
  0.2249578092210029  0.1968967366209711  0.4107509778039216
  0.4789627403145857  0.4054744656528868  0.5928904490381441
  0.3554042843721064  0.0058514351218548  0.4119306615831704
  0.0723265630069747  0.1971624505308114  0.5755613563034530
  0.4273900592015707  0.3033308891866966  0.4100685251138430
  0.6862079681496454  0.0035872651218654  0.6012625959537061
  0.5447449099807429  0.1031682745768663  0.4153500025971795
  0.7686616564376791  0.3050252544118948  0.5860802455585628
  0.6540056950768403  0.3972723457157343  0.4109783671515359
  0.8791663158634933  0.0930431744968061  0.5901221011667559
  0.7260484271911380  0.1969424361567889  0.4107920515195786
  0.9789726379636789  0.4060148890291018  0.5954613773073518
  0.8550562075337140  0.0072719673584274  0.4115324031537995
  0.5722673551952795  0.1952511762644136  0.5779799503686789
  0.9305552424956005  0.3027089978343085  0.4119385459090452
  0.1860707449532271  0.5054937471271685  0.5997779937146319
  0.0442385058768267  0.6046249445721088  0.4133966319573545
  0.2656546745054627  0.8049674600652494  0.5886253650666191
  0.1540566228649567  0.8998645366803544  0.4075155395586876
  0.3806258224593648  0.5945815617682584  0.5863880988337016
  0.2244673996156976  0.6995687579570955  0.4097479680528409
  0.4780561005883897  0.9048868840511233  0.5966084622246015
  0.3553495798318593  0.5076986976329110  0.4097362253337451
  0.0718565764346266  0.6976242318558548  0.5744788534201106
  0.4320895866383623  0.8026090576231368  0.4112387194043166
  0.6861736464254307  0.5052429995740297  0.5990608219378331
  0.5439563877025648  0.6049242937566461  0.4126035899426483
  0.7702559447054327  0.8044246894945175  0.5860685532837522
  0.6529657604807895  0.9025446618597144  0.4045604371207432
  0.8769817251232794  0.5953307246412010  0.5880392906455825
  0.7245279547743664  0.6998391616195789  0.4092987606187606
  0.9770342783636110  0.9040933124230079  0.5949754242680214
  0.8547058111444770  0.5074567202481433  0.4103761472030243
  0.5709914843826454  0.6995151053816642  0.5734924101311805
  0.9272080968525174  0.8045930541113648  0.4087794299358620
  0.5285594626287278  0.4173336107054837  0.7475991084584948
  0.4492284050080002  0.4051917557648608  0.7953371942376393
  0.4764742389281480  0.3491129679811280  0.8044219910490042
 
  0.00000000E+00  0.00000000E+00  0.00000000E+00
  0.00000000E+00  0.00000000E+00  0.00000000E+00
  0.00000000E+00  0.00000000E+00  0.00000000E+00
  0.00000000E+00  0.00000000E+00  0.00000000E+00
  0.00000000E+00  0.00000000E+00  0.00000000E+00
  0.00000000E+00  0.00000000E+00  0.00000000E+00
  0.00000000E+00  0.00000000E+00  0.00000000E+00
  0.00000000E+00  0.00000000E+00  0.00000000E+00
  0.00000000E+00  0.00000000E+00  0.00000000E+00
  0.00000000E+00  0.00000000E+00  0.00000000E+00
  0.00000000E+00  0.00000000E+00  0.00000000E+00
  0.00000000E+00  0.00000000E+00  0.00000000E+00
  0.00000000E+00  0.00000000E+00  0.00000000E+00
  0.00000000E+00  0.00000000E+00  0.00000000E+00
  0.00000000E+00  0.00000000E+00  0.00000000E+00
  0.00000000E+00  0.00000000E+00  0.00000000E+00
  0.00000000E+00  0.00000000E+00  0.00000000E+00
  0.00000000E+00  0.00000000E+00  0.00000000E+00
  0.00000000E+00  0.00000000E+00  0.00000000E+00
  0.00000000E+00  0.00000000E+00  0.00000000E+00
  0.00000000E+00  0.00000000E+00  0.00000000E+00
  0.00000000E+00  0.00000000E+00  0.00000000E+00
  0.00000000E+00  0.00000000E+00  0.00000000E+00
  0.00000000E+00  0.00000000E+00  0.00000000E+00
  0.00000000E+00  0.00000000E+00  0.00000000E+00
  0.00000000E+00  0.00000000E+00  0.00000000E+00
  0.00000000E+00  0.00000000E+00  0.00000000E+00
  0.00000000E+00  0.00000000E+00  0.00000000E+00
  0.00000000E+00  0.00000000E+00  0.00000000E+00
  0.00000000E+00  0.00000000E+00  0.00000000E+00
  0.00000000E+00  0.00000000E+00  0.00000000E+00
  0.00000000E+00  0.00000000E+00  0.00000000E+00
  0.00000000E+00  0.00000000E+00  0.00000000E+00
  0.00000000E+00  0.00000000E+00  0.00000000E+00
  0.00000000E+00  0.00000000E+00  0.00000000E+00
  0.00000000E+00  0.00000000E+00  0.00000000E+00
  0.00000000E+00  0.00000000E+00  0.00000000E+00
  0.00000000E+00  0.00000000E+00  0.00000000E+00
  0.00000000E+00  0.00000000E+00  0.00000000E+00
  0.00000000E+00  0.00000000E+00  0.00000000E+00
  0.00000000E+00  0.00000000E+00  0.00000000E+00
  0.00000000E+00  0.00000000E+00  0.00000000E+00
  0.00000000E+00  0.00000000E+00  0.00000000E+00
  0.00000000E+00  0.00000000E+00  0.00000000E+00
  0.00000000E+00  0.00000000E+00  0.00000000E+00
  0.00000000E+00  0.00000000E+00  0.00000000E+00
  0.00000000E+00  0.00000000E+00  0.00000000E+00
  0.00000000E+00  0.00000000E+00  0.00000000E+00
  0.00000000E+00  0.00000000E+00  0.00000000E+00
  0.00000000E+00  0.00000000E+00  0.00000000E+00
  0.00000000E+00  0.00000000E+00  0.00000000E+00
  0.00000000E+00  0.00000000E+00  0.00000000E+00
  0.00000000E+00  0.00000000E+00  0.00000000E+00
  0.00000000E+00  0.00000000E+00  0.00000000E+00
  0.00000000E+00  0.00000000E+00  0.00000000E+00
  0.00000000E+00  0.00000000E+00  0.00000000E+00
  0.00000000E+00  0.00000000E+00  0.00000000E+00
  0.00000000E+00  0.00000000E+00  0.00000000E+00
  0.00000000E+00  0.00000000E+00  0.00000000E+00
  0.00000000E+00  0.00000000E+00  0.00000000E+00
  0.00000000E+00  0.00000000E+00  0.00000000E+00
  0.00000000E+00  0.00000000E+00  0.00000000E+00
  0.00000000E+00  0.00000000E+00  0.00000000E+00
