CONTCAR\(3)                             
   1.00000000000000     
    13.3114004134999995    0.0000000000000000    0.0000000000000000
     0.0000000000000000   13.2841997146999997    0.0000000000000000
     0.0000000000000000    0.0000000000000000   29.9494991301999995
   Bi   I    O    H 
    54    12     1     1
Direct
  0.2496920016836981  0.6563931353786217  0.6518791447779080
  0.0817035835221276  0.3421117184064215  0.3466473912077177
  0.2482802235246595  0.2989016771631583  0.4151003511208913
  0.0836776192285100  0.7039308701937586  0.5837429762372679
  0.2505101177974538  0.0777394015696871  0.3851823697885237
  0.0835032718971505  0.9238350542228986  0.6139969821063360
  0.2501894462822349  0.9762237524828095  0.5481283867821460
  0.0839783897194764  0.0229964742223387  0.4510506464111188
  0.2506103571664298  0.2003445799860515  0.5746574269305285
  0.0826351458997081  0.7999434945505328  0.4241440745049232
  0.2496310022325972  0.7502910320679277  0.4908946468397204
  0.0835882196627864  0.2480485041895903  0.5079805084916913
  0.2480438303114667  0.5248238941418037  0.4680805337008707
  0.0831587962493288  0.4699837745884494  0.5376794965415641
  0.0828766492476021  0.5650134479965985  0.3713278614573525
  0.2511331266071437  0.4344085167620335  0.6270846620893238
  0.0819173566970974  0.3855743676597925  0.6938599489613324
  0.2502565231701652  0.6157837886856470  0.3033609138564302
  0.5826573706164453  0.6589138847793379  0.6524079067605584
  0.4170714496785664  0.3416808918629428  0.3476115254101728
  0.5834346453727051  0.2987054599173860  0.4159295687870213
  0.4171325525413963  0.7034132498663794  0.5841120666500572
  0.5838608279611677  0.0779553511021192  0.3857985202596552
  0.4165409933606057  0.9235288641876807  0.6142735251409022
  0.5832982183552815  0.9783953977304236  0.5486242054685846
  0.4165061930063558  0.0240705225367748  0.4513399390298645
  0.5827304465931178  0.2019274936630282  0.5759626576217372
  0.4177623591377895  0.8000035426316501  0.4245671003205231
  0.5837180313620465  0.7519481959792671  0.4922976325222237
  0.4174410764797756  0.2500122617052796  0.5081518161984633
  0.5830711205751911  0.5278108036099596  0.4668127214111379
  0.4160101265117859  0.4752590822758833  0.5329754500361545
  0.4152508351996005  0.5647913964208513  0.3726363182830070
  0.5835624342992389  0.4365408382265485  0.6271665777433739
  0.4283639340151808  0.3837340102797668  0.7011581732150987
  0.5823940290587970  0.6149904258973820  0.3043218690921421
  0.9180893191205612  0.6562221981948966  0.6516471823444263
  0.7502941385354447  0.3422650029281087  0.3475934672649146
  0.9173331330951129  0.2994455086399057  0.4158291436716155
  0.7496145428138306  0.7033670294387022  0.5845466368345669
  0.9164333504363071  0.0784063248437903  0.3857864229682662
  0.7499526096853018  0.9240981670978812  0.6145073112048323
  0.9162959944535132  0.9768065501634524  0.5482356338770344
  0.7502590852741804  0.0241564508643322  0.4517711782898530
  0.9176400299547964  0.2002199255608446  0.5754987266201894
  0.7507050214109299  0.8001240715206990  0.4252468428820890
  0.9177115695085973  0.7506445531475521  0.4919742229122335
  0.7500510897520485  0.2494953152108863  0.5090987269237672
  0.9193643007001171  0.5259599521697496  0.4680539481181256
  0.7509122594661122  0.4747141202290663  0.5328097521755311
  0.7515937698959831  0.5657333963901294  0.3716744740061912
  0.9143638973040993  0.4346694763446024  0.6265680625739378
  0.7380635921134981  0.3840195643776951  0.7012409859184174
  0.9171985487214229  0.6160119141150560  0.3025983519460169
  0.0831349503579304  0.5952278819879382  0.7386822488946123
  0.2520680197012837  0.4063586779493633  0.2600820241714459
  0.0835525143911653  0.1585928342197889  0.6685545395473156
  0.2510602685142800  0.8421205866019790  0.3314882814762825
  0.4173449680718093  0.5972679707788444  0.7409327835618527
  0.5823474575191412  0.4052015344389091  0.2606562453035934
  0.4176102608007284  0.1608723155109857  0.6693026390286008
  0.5832885080239976  0.8410663962059814  0.3319920169474244
  0.7494528026547300  0.5972409397758085  0.7406978840077088
  0.9144857735752510  0.4058079207797007  0.2593392740850220
  0.7483072605090655  0.1612236465992396  0.6691160446332418
  0.9156056271789268  0.8418915022040707  0.3311133507592743
  0.5835063105601677  0.3610620556324022  0.7384874912401358
  0.5835964268750047  0.3895968851367542  0.7686684380551938
 
  0.00000000E+00  0.00000000E+00  0.00000000E+00
  0.00000000E+00  0.00000000E+00  0.00000000E+00
  0.00000000E+00  0.00000000E+00  0.00000000E+00
  0.00000000E+00  0.00000000E+00  0.00000000E+00
  0.00000000E+00  0.00000000E+00  0.00000000E+00
  0.00000000E+00  0.00000000E+00  0.00000000E+00
  0.00000000E+00  0.00000000E+00  0.00000000E+00
  0.00000000E+00  0.00000000E+00  0.00000000E+00
  0.00000000E+00  0.00000000E+00  0.00000000E+00
  0.00000000E+00  0.00000000E+00  0.00000000E+00
  0.00000000E+00  0.00000000E+00  0.00000000E+00
  0.00000000E+00  0.00000000E+00  0.00000000E+00
  0.00000000E+00  0.00000000E+00  0.00000000E+00
  0.00000000E+00  0.00000000E+00  0.00000000E+00
  0.00000000E+00  0.00000000E+00  0.00000000E+00
  0.00000000E+00  0.00000000E+00  0.00000000E+00
  0.00000000E+00  0.00000000E+00  0.00000000E+00
  0.00000000E+00  0.00000000E+00  0.00000000E+00
  0.00000000E+00  0.00000000E+00  0.00000000E+00
  0.00000000E+00  0.00000000E+00  0.00000000E+00
  0.00000000E+00  0.00000000E+00  0.00000000E+00
  0.00000000E+00  0.00000000E+00  0.00000000E+00
  0.00000000E+00  0.00000000E+00  0.00000000E+00
  0.00000000E+00  0.00000000E+00  0.00000000E+00
  0.00000000E+00  0.00000000E+00  0.00000000E+00
  0.00000000E+00  0.00000000E+00  0.00000000E+00
  0.00000000E+00  0.00000000E+00  0.00000000E+00
  0.00000000E+00  0.00000000E+00  0.00000000E+00
  0.00000000E+00  0.00000000E+00  0.00000000E+00
  0.00000000E+00  0.00000000E+00  0.00000000E+00
  0.00000000E+00  0.00000000E+00  0.00000000E+00
  0.00000000E+00  0.00000000E+00  0.00000000E+00
  0.00000000E+00  0.00000000E+00  0.00000000E+00
  0.00000000E+00  0.00000000E+00  0.00000000E+00
  0.00000000E+00  0.00000000E+00  0.00000000E+00
  0.00000000E+00  0.00000000E+00  0.00000000E+00
  0.00000000E+00  0.00000000E+00  0.00000000E+00
  0.00000000E+00  0.00000000E+00  0.00000000E+00
  0.00000000E+00  0.00000000E+00  0.00000000E+00
  0.00000000E+00  0.00000000E+00  0.00000000E+00
  0.00000000E+00  0.00000000E+00  0.00000000E+00
  0.00000000E+00  0.00000000E+00  0.00000000E+00
  0.00000000E+00  0.00000000E+00  0.00000000E+00
  0.00000000E+00  0.00000000E+00  0.00000000E+00
  0.00000000E+00  0.00000000E+00  0.00000000E+00
  0.00000000E+00  0.00000000E+00  0.00000000E+00
  0.00000000E+00  0.00000000E+00  0.00000000E+00
  0.00000000E+00  0.00000000E+00  0.00000000E+00
  0.00000000E+00  0.00000000E+00  0.00000000E+00
  0.00000000E+00  0.00000000E+00  0.00000000E+00
  0.00000000E+00  0.00000000E+00  0.00000000E+00
  0.00000000E+00  0.00000000E+00  0.00000000E+00
  0.00000000E+00  0.00000000E+00  0.00000000E+00
  0.00000000E+00  0.00000000E+00  0.00000000E+00
  0.00000000E+00  0.00000000E+00  0.00000000E+00
  0.00000000E+00  0.00000000E+00  0.00000000E+00
  0.00000000E+00  0.00000000E+00  0.00000000E+00
  0.00000000E+00  0.00000000E+00  0.00000000E+00
  0.00000000E+00  0.00000000E+00  0.00000000E+00
  0.00000000E+00  0.00000000E+00  0.00000000E+00
  0.00000000E+00  0.00000000E+00  0.00000000E+00
  0.00000000E+00  0.00000000E+00  0.00000000E+00
  0.00000000E+00  0.00000000E+00  0.00000000E+00
  0.00000000E+00  0.00000000E+00  0.00000000E+00
  0.00000000E+00  0.00000000E+00  0.00000000E+00
  0.00000000E+00  0.00000000E+00  0.00000000E+00
  0.00000000E+00  0.00000000E+00  0.00000000E+00
  0.00000000E+00  0.00000000E+00  0.00000000E+00
