 Ta6 Si2 Te12                           
   1.00000000000000     
     6.3489535629745708    0.0000000000000000    0.0000000000000000
     0.0000000000000000   11.4748136521713278    0.0000000000000000
     0.0000000000000000    0.0000000000000000   18.8322766805399979
   Ta   Si   Te
     6     2    12
Direct
  0.6647260731540098  0.5851983997716165  0.4999999939571232
  0.1647237291858537  0.4148004132318575  0.4999999968939831
  0.9684449254244928  0.9380002441785484  0.5000000016559474
  0.4684442396779306  0.0620014139649042  0.5000000030050676
  0.6979781740815046  0.2846223506829691  0.5000000021118549
  0.1979838165977484  0.7153751687790135  0.4999999933756926
  0.5762007139510299  0.8248995680022183  0.5000000002639755
  0.0761982951562314  0.1751024505704765  0.5000000028813549
  0.7971506929641153  0.0941912681953198  0.6002211188867053
  0.2971519867028474  0.9058102513142841  0.3997787072412405
  0.2971519944288876  0.9058102493472776  0.6002212935274327
  0.7971506826927455  0.0941912687016980  0.3997788860123630
  0.8545998437988968  0.7470116656560355  0.5972456378606064
  0.3546007961378361  0.2529879830447520  0.4027542745502468
  0.3546007924025608  0.2529879894855540  0.5972457312669871
  0.8545998534080333  0.7470116723884941  0.4027543609937304
  0.8482263713390140  0.4327171184707639  0.6027143051124736
  0.3482273192146565  0.5672817041292911  0.3972848921128008
  0.3482273294657136  0.5672817111757549  0.6027151012667389
  0.8482263702158966  0.4327171089091713  0.3972856970236756
 
  0.00000000E+00  0.00000000E+00  0.00000000E+00
  0.00000000E+00  0.00000000E+00  0.00000000E+00
  0.00000000E+00  0.00000000E+00  0.00000000E+00
  0.00000000E+00  0.00000000E+00  0.00000000E+00
  0.00000000E+00  0.00000000E+00  0.00000000E+00
  0.00000000E+00  0.00000000E+00  0.00000000E+00
  0.00000000E+00  0.00000000E+00  0.00000000E+00
  0.00000000E+00  0.00000000E+00  0.00000000E+00
  0.00000000E+00  0.00000000E+00  0.00000000E+00
  0.00000000E+00  0.00000000E+00  0.00000000E+00
  0.00000000E+00  0.00000000E+00  0.00000000E+00
  0.00000000E+00  0.00000000E+00  0.00000000E+00
  0.00000000E+00  0.00000000E+00  0.00000000E+00
  0.00000000E+00  0.00000000E+00  0.00000000E+00
  0.00000000E+00  0.00000000E+00  0.00000000E+00
  0.00000000E+00  0.00000000E+00  0.00000000E+00
  0.00000000E+00  0.00000000E+00  0.00000000E+00
  0.00000000E+00  0.00000000E+00  0.00000000E+00
  0.00000000E+00  0.00000000E+00  0.00000000E+00
  0.00000000E+00  0.00000000E+00  0.00000000E+00
