 Ta9 Te18                               
   1.00000000000000     
    10.7356346547323724    0.0000000000000000    0.0000000000000000
     5.3678163450275935    9.5571473153066790    0.0000000000000000
     0.0000000000000000    0.0000000000000000   19.1463930642959994
   Ta   Te
     9    18
Direct
  0.8060808493637026  0.7133773325173749  0.5010057673410628
  0.5194535213036673  0.2866232130542912  0.4989948616362696
  0.1939228560634447  0.2866235852100729  0.4989949305562575
  0.4805424254009196  0.7133772862453611  0.5010056585398956
  0.8566475948359127  0.2867007351411601  0.4962096862426009
  0.1433525187131082  0.7132982882183043  0.5037908890187950
  0.1970986285334888  0.0000039206472096  0.4999986585430918
  0.8028973186911372  0.0000044492711098  0.4999987950874498
  0.4999978642664473  0.0000047322104351  0.4999988484479445
  0.9423609117882634  0.4474334132510549  0.5784785651642608
  0.3898016004845317  0.5525540775106350  0.4215216414732197
  0.0576442138336475  0.5525544910003646  0.4215218148081306
  0.6102052021014543  0.4474336052058590  0.5784789018997287
  0.7245336792691077  0.5509326363923037  0.4189594139689348
  0.2754647500613956  0.4490709594740352  0.5810480111742251
  0.7144427072085833  0.8936093269851284  0.3916359946520913
  0.6080500089637653  0.1063953297925622  0.6083615456717055
  0.2855545026314985  0.1063953088626519  0.6083615652243282
  0.3911536888627083  0.2176929542960764  0.3933685353131082
  0.6088467002290656  0.7823065812551206  0.6066320156879854
  0.7215796106089982  0.2151166667560105  0.3945357324372765
  0.9366980732852142  0.7848830865304137  0.6054634946001940
  0.2784193083035760  0.7848831160718319  0.6054640062233290
  0.0633025733356334  0.2151171735644013  0.3945363408108946
  0.0468153376022897  0.9063693062066207  0.4042997979181138
  0.9531852891309214  0.0936292122341271  0.5956986107691051
  0.3919482651275246  0.8936092120954910  0.3916359167900012
 
  0.00000000E+00  0.00000000E+00  0.00000000E+00
  0.00000000E+00  0.00000000E+00  0.00000000E+00
  0.00000000E+00  0.00000000E+00  0.00000000E+00
  0.00000000E+00  0.00000000E+00  0.00000000E+00
  0.00000000E+00  0.00000000E+00  0.00000000E+00
  0.00000000E+00  0.00000000E+00  0.00000000E+00
  0.00000000E+00  0.00000000E+00  0.00000000E+00
  0.00000000E+00  0.00000000E+00  0.00000000E+00
  0.00000000E+00  0.00000000E+00  0.00000000E+00
  0.00000000E+00  0.00000000E+00  0.00000000E+00
  0.00000000E+00  0.00000000E+00  0.00000000E+00
  0.00000000E+00  0.00000000E+00  0.00000000E+00
  0.00000000E+00  0.00000000E+00  0.00000000E+00
  0.00000000E+00  0.00000000E+00  0.00000000E+00
  0.00000000E+00  0.00000000E+00  0.00000000E+00
  0.00000000E+00  0.00000000E+00  0.00000000E+00
  0.00000000E+00  0.00000000E+00  0.00000000E+00
  0.00000000E+00  0.00000000E+00  0.00000000E+00
  0.00000000E+00  0.00000000E+00  0.00000000E+00
  0.00000000E+00  0.00000000E+00  0.00000000E+00
  0.00000000E+00  0.00000000E+00  0.00000000E+00
  0.00000000E+00  0.00000000E+00  0.00000000E+00
  0.00000000E+00  0.00000000E+00  0.00000000E+00
  0.00000000E+00  0.00000000E+00  0.00000000E+00
  0.00000000E+00  0.00000000E+00  0.00000000E+00
  0.00000000E+00  0.00000000E+00  0.00000000E+00
  0.00000000E+00  0.00000000E+00  0.00000000E+00
