G   24   24    1    0.005     # Parameters to Generate KPOINTS (Don't Edit This Line)
     290
Reciprocal lattice
    0.000000000000    0.000000000000    0.000000000000       1
    0.041666666667    0.000000000000    0.000000000000       2
    0.083333333333    0.000000000000    0.000000000000       2
    0.125000000000    0.000000000000    0.000000000000       2
    0.166666666667    0.000000000000    0.000000000000       2
    0.208333333333    0.000000000000    0.000000000000       2
    0.250000000000    0.000000000000    0.000000000000       2
    0.291666666667    0.000000000000    0.000000000000       2
    0.333333333333    0.000000000000    0.000000000000       2
    0.375000000000    0.000000000000    0.000000000000       2
    0.416666666667    0.000000000000    0.000000000000       2
    0.458333333333    0.000000000000    0.000000000000       2
    0.500000000000    0.000000000000    0.000000000000       1
    0.000000000000    0.041666666667    0.000000000000       2
    0.041666666667    0.041666666667    0.000000000000       2
    0.083333333333    0.041666666667    0.000000000000       2
    0.125000000000    0.041666666667    0.000000000000       2
    0.166666666667    0.041666666667    0.000000000000       2
    0.208333333333    0.041666666667    0.000000000000       2
    0.250000000000    0.041666666667    0.000000000000       2
    0.291666666667    0.041666666667    0.000000000000       2
    0.333333333333    0.041666666667    0.000000000000       2
    0.375000000000    0.041666666667    0.000000000000       2
    0.416666666667    0.041666666667    0.000000000000       2
    0.458333333333    0.041666666667    0.000000000000       2
    0.500000000000    0.041666666667    0.000000000000       2
   -0.458333333333    0.041666666667    0.000000000000       2
   -0.416666666667    0.041666666667    0.000000000000       2
   -0.375000000000    0.041666666667    0.000000000000       2
   -0.333333333333    0.041666666667    0.000000000000       2
   -0.291666666667    0.041666666667    0.000000000000       2
   -0.250000000000    0.041666666667    0.000000000000       2
   -0.208333333333    0.041666666667    0.000000000000       2
   -0.166666666667    0.041666666667    0.000000000000       2
   -0.125000000000    0.041666666667    0.000000000000       2
   -0.083333333333    0.041666666667    0.000000000000       2
   -0.041666666667    0.041666666667    0.000000000000       2
    0.000000000000    0.083333333333    0.000000000000       2
    0.041666666667    0.083333333333    0.000000000000       2
    0.083333333333    0.083333333333    0.000000000000       2
    0.125000000000    0.083333333333    0.000000000000       2
    0.166666666667    0.083333333333    0.000000000000       2
    0.208333333333    0.083333333333    0.000000000000       2
    0.250000000000    0.083333333333    0.000000000000       2
    0.291666666667    0.083333333333    0.000000000000       2
    0.333333333333    0.083333333333    0.000000000000       2
    0.375000000000    0.083333333333    0.000000000000       2
    0.416666666667    0.083333333333    0.000000000000       2
    0.458333333333    0.083333333333    0.000000000000       2
    0.500000000000    0.083333333333    0.000000000000       2
   -0.458333333333    0.083333333333    0.000000000000       2
   -0.416666666667    0.083333333333    0.000000000000       2
   -0.375000000000    0.083333333333    0.000000000000       2
   -0.333333333333    0.083333333333    0.000000000000       2
   -0.291666666667    0.083333333333    0.000000000000       2
   -0.250000000000    0.083333333333    0.000000000000       2
   -0.208333333333    0.083333333333    0.000000000000       2
   -0.166666666667    0.083333333333    0.000000000000       2
   -0.125000000000    0.083333333333    0.000000000000       2
   -0.083333333333    0.083333333333    0.000000000000       2
   -0.041666666667    0.083333333333    0.000000000000       2
    0.000000000000    0.125000000000    0.000000000000       2
    0.041666666667    0.125000000000    0.000000000000       2
    0.083333333333    0.125000000000    0.000000000000       2
    0.125000000000    0.125000000000    0.000000000000       2
    0.166666666667    0.125000000000    0.000000000000       2
    0.208333333333    0.125000000000    0.000000000000       2
    0.250000000000    0.125000000000    0.000000000000       2
    0.291666666667    0.125000000000    0.000000000000       2
    0.333333333333    0.125000000000    0.000000000000       2
    0.375000000000    0.125000000000    0.000000000000       2
    0.416666666667    0.125000000000    0.000000000000       2
    0.458333333333    0.125000000000    0.000000000000       2
    0.500000000000    0.125000000000    0.000000000000       2
   -0.458333333333    0.125000000000    0.000000000000       2
   -0.416666666667    0.125000000000    0.000000000000       2
   -0.375000000000    0.125000000000    0.000000000000       2
   -0.333333333333    0.125000000000    0.000000000000       2
   -0.291666666667    0.125000000000    0.000000000000       2
   -0.250000000000    0.125000000000    0.000000000000       2
   -0.208333333333    0.125000000000    0.000000000000       2
   -0.166666666667    0.125000000000    0.000000000000       2
   -0.125000000000    0.125000000000    0.000000000000       2
   -0.083333333333    0.125000000000    0.000000000000       2
   -0.041666666667    0.125000000000    0.000000000000       2
    0.000000000000    0.166666666667    0.000000000000       2
    0.041666666667    0.166666666667    0.000000000000       2
    0.083333333333    0.166666666667    0.000000000000       2
    0.125000000000    0.166666666667    0.000000000000       2
    0.166666666667    0.166666666667    0.000000000000       2
    0.208333333333    0.166666666667    0.000000000000       2
    0.250000000000    0.166666666667    0.000000000000       2
    0.291666666667    0.166666666667    0.000000000000       2
    0.333333333333    0.166666666667    0.000000000000       2
    0.375000000000    0.166666666667    0.000000000000       2
    0.416666666667    0.166666666667    0.000000000000       2
    0.458333333333    0.166666666667    0.000000000000       2
    0.500000000000    0.166666666667    0.000000000000       2
   -0.458333333333    0.166666666667    0.000000000000       2
   -0.416666666667    0.166666666667    0.000000000000       2
   -0.375000000000    0.166666666667    0.000000000000       2
   -0.333333333333    0.166666666667    0.000000000000       2
   -0.291666666667    0.166666666667    0.000000000000       2
   -0.250000000000    0.166666666667    0.000000000000       2
   -0.208333333333    0.166666666667    0.000000000000       2
   -0.166666666667    0.166666666667    0.000000000000       2
   -0.125000000000    0.166666666667    0.000000000000       2
   -0.083333333333    0.166666666667    0.000000000000       2
   -0.041666666667    0.166666666667    0.000000000000       2
    0.000000000000    0.208333333333    0.000000000000       2
    0.041666666667    0.208333333333    0.000000000000       2
    0.083333333333    0.208333333333    0.000000000000       2
    0.125000000000    0.208333333333    0.000000000000       2
    0.166666666667    0.208333333333    0.000000000000       2
    0.208333333333    0.208333333333    0.000000000000       2
    0.250000000000    0.208333333333    0.000000000000       2
    0.291666666667    0.208333333333    0.000000000000       2
    0.333333333333    0.208333333333    0.000000000000       2
    0.375000000000    0.208333333333    0.000000000000       2
    0.416666666667    0.208333333333    0.000000000000       2
    0.458333333333    0.208333333333    0.000000000000       2
    0.500000000000    0.208333333333    0.000000000000       2
   -0.458333333333    0.208333333333    0.000000000000       2
   -0.416666666667    0.208333333333    0.000000000000       2
   -0.375000000000    0.208333333333    0.000000000000       2
   -0.333333333333    0.208333333333    0.000000000000       2
   -0.291666666667    0.208333333333    0.000000000000       2
   -0.250000000000    0.208333333333    0.000000000000       2
   -0.208333333333    0.208333333333    0.000000000000       2
   -0.166666666667    0.208333333333    0.000000000000       2
   -0.125000000000    0.208333333333    0.000000000000       2
   -0.083333333333    0.208333333333    0.000000000000       2
   -0.041666666667    0.208333333333    0.000000000000       2
    0.000000000000    0.250000000000    0.000000000000       2
    0.041666666667    0.250000000000    0.000000000000       2
    0.083333333333    0.250000000000    0.000000000000       2
    0.125000000000    0.250000000000    0.000000000000       2
    0.166666666667    0.250000000000    0.000000000000       2
    0.208333333333    0.250000000000    0.000000000000       2
    0.250000000000    0.250000000000    0.000000000000       2
    0.291666666667    0.250000000000    0.000000000000       2
    0.333333333333    0.250000000000    0.000000000000       2
    0.375000000000    0.250000000000    0.000000000000       2
    0.416666666667    0.250000000000    0.000000000000       2
    0.458333333333    0.250000000000    0.000000000000       2
    0.500000000000    0.250000000000    0.000000000000       2
   -0.458333333333    0.250000000000    0.000000000000       2
   -0.416666666667    0.250000000000    0.000000000000       2
   -0.375000000000    0.250000000000    0.000000000000       2
   -0.333333333333    0.250000000000    0.000000000000       2
   -0.291666666667    0.250000000000    0.000000000000       2
   -0.250000000000    0.250000000000    0.000000000000       2
   -0.208333333333    0.250000000000    0.000000000000       2
   -0.166666666667    0.250000000000    0.000000000000       2
   -0.125000000000    0.250000000000    0.000000000000       2
   -0.083333333333    0.250000000000    0.000000000000       2
   -0.041666666667    0.250000000000    0.000000000000       2
    0.000000000000    0.291666666667    0.000000000000       2
    0.041666666667    0.291666666667    0.000000000000       2
    0.083333333333    0.291666666667    0.000000000000       2
    0.125000000000    0.291666666667    0.000000000000       2
    0.166666666667    0.291666666667    0.000000000000       2
    0.208333333333    0.291666666667    0.000000000000       2
    0.250000000000    0.291666666667    0.000000000000       2
    0.291666666667    0.291666666667    0.000000000000       2
    0.333333333333    0.291666666667    0.000000000000       2
    0.375000000000    0.291666666667    0.000000000000       2
    0.416666666667    0.291666666667    0.000000000000       2
    0.458333333333    0.291666666667    0.000000000000       2
    0.500000000000    0.291666666667    0.000000000000       2
   -0.458333333333    0.291666666667    0.000000000000       2
   -0.416666666667    0.291666666667    0.000000000000       2
   -0.375000000000    0.291666666667    0.000000000000       2
   -0.333333333333    0.291666666667    0.000000000000       2
   -0.291666666667    0.291666666667    0.000000000000       2
   -0.250000000000    0.291666666667    0.000000000000       2
   -0.208333333333    0.291666666667    0.000000000000       2
   -0.166666666667    0.291666666667    0.000000000000       2
   -0.125000000000    0.291666666667    0.000000000000       2
   -0.083333333333    0.291666666667    0.000000000000       2
   -0.041666666667    0.291666666667    0.000000000000       2
    0.000000000000    0.333333333333    0.000000000000       2
    0.041666666667    0.333333333333    0.000000000000       2
    0.083333333333    0.333333333333    0.000000000000       2
    0.125000000000    0.333333333333    0.000000000000       2
    0.166666666667    0.333333333333    0.000000000000       2
    0.208333333333    0.333333333333    0.000000000000       2
    0.250000000000    0.333333333333    0.000000000000       2
    0.291666666667    0.333333333333    0.000000000000       2
    0.333333333333    0.333333333333    0.000000000000       2
    0.375000000000    0.333333333333    0.000000000000       2
    0.416666666667    0.333333333333    0.000000000000       2
    0.458333333333    0.333333333333    0.000000000000       2
    0.500000000000    0.333333333333    0.000000000000       2
   -0.458333333333    0.333333333333    0.000000000000       2
   -0.416666666667    0.333333333333    0.000000000000       2
   -0.375000000000    0.333333333333    0.000000000000       2
   -0.333333333333    0.333333333333    0.000000000000       2
   -0.291666666667    0.333333333333    0.000000000000       2
   -0.250000000000    0.333333333333    0.000000000000       2
   -0.208333333333    0.333333333333    0.000000000000       2
   -0.166666666667    0.333333333333    0.000000000000       2
   -0.125000000000    0.333333333333    0.000000000000       2
   -0.083333333333    0.333333333333    0.000000000000       2
   -0.041666666667    0.333333333333    0.000000000000       2
    0.000000000000    0.375000000000    0.000000000000       2
    0.041666666667    0.375000000000    0.000000000000       2
    0.083333333333    0.375000000000    0.000000000000       2
    0.125000000000    0.375000000000    0.000000000000       2
    0.166666666667    0.375000000000    0.000000000000       2
    0.208333333333    0.375000000000    0.000000000000       2
    0.250000000000    0.375000000000    0.000000000000       2
    0.291666666667    0.375000000000    0.000000000000       2
    0.333333333333    0.375000000000    0.000000000000       2
    0.375000000000    0.375000000000    0.000000000000       2
    0.416666666667    0.375000000000    0.000000000000       2
    0.458333333333    0.375000000000    0.000000000000       2
    0.500000000000    0.375000000000    0.000000000000       2
   -0.458333333333    0.375000000000    0.000000000000       2
   -0.416666666667    0.375000000000    0.000000000000       2
   -0.375000000000    0.375000000000    0.000000000000       2
   -0.333333333333    0.375000000000    0.000000000000       2
   -0.291666666667    0.375000000000    0.000000000000       2
   -0.250000000000    0.375000000000    0.000000000000       2
   -0.208333333333    0.375000000000    0.000000000000       2
   -0.166666666667    0.375000000000    0.000000000000       2
   -0.125000000000    0.375000000000    0.000000000000       2
   -0.083333333333    0.375000000000    0.000000000000       2
   -0.041666666667    0.375000000000    0.000000000000       2
    0.000000000000    0.416666666667    0.000000000000       2
    0.041666666667    0.416666666667    0.000000000000       2
    0.083333333333    0.416666666667    0.000000000000       2
    0.125000000000    0.416666666667    0.000000000000       2
    0.166666666667    0.416666666667    0.000000000000       2
    0.208333333333    0.416666666667    0.000000000000       2
    0.250000000000    0.416666666667    0.000000000000       2
    0.291666666667    0.416666666667    0.000000000000       2
    0.333333333333    0.416666666667    0.000000000000       2
    0.375000000000    0.416666666667    0.000000000000       2
    0.416666666667    0.416666666667    0.000000000000       2
    0.458333333333    0.416666666667    0.000000000000       2
    0.500000000000    0.416666666667    0.000000000000       2
   -0.458333333333    0.416666666667    0.000000000000       2
   -0.416666666667    0.416666666667    0.000000000000       2
   -0.375000000000    0.416666666667    0.000000000000       2
   -0.333333333333    0.416666666667    0.000000000000       2
   -0.291666666667    0.416666666667    0.000000000000       2
   -0.250000000000    0.416666666667    0.000000000000       2
   -0.208333333333    0.416666666667    0.000000000000       2
   -0.166666666667    0.416666666667    0.000000000000       2
   -0.125000000000    0.416666666667    0.000000000000       2
   -0.083333333333    0.416666666667    0.000000000000       2
   -0.041666666667    0.416666666667    0.000000000000       2
    0.000000000000    0.458333333333    0.000000000000       2
    0.041666666667    0.458333333333    0.000000000000       2
    0.083333333333    0.458333333333    0.000000000000       2
    0.125000000000    0.458333333333    0.000000000000       2
    0.166666666667    0.458333333333    0.000000000000       2
    0.208333333333    0.458333333333    0.000000000000       2
    0.250000000000    0.458333333333    0.000000000000       2
    0.291666666667    0.458333333333    0.000000000000       2
    0.333333333333    0.458333333333    0.000000000000       2
    0.375000000000    0.458333333333    0.000000000000       2
    0.416666666667    0.458333333333    0.000000000000       2
    0.458333333333    0.458333333333    0.000000000000       2
    0.500000000000    0.458333333333    0.000000000000       2
   -0.458333333333    0.458333333333    0.000000000000       2
   -0.416666666667    0.458333333333    0.000000000000       2
   -0.375000000000    0.458333333333    0.000000000000       2
   -0.333333333333    0.458333333333    0.000000000000       2
   -0.291666666667    0.458333333333    0.000000000000       2
   -0.250000000000    0.458333333333    0.000000000000       2
   -0.208333333333    0.458333333333    0.000000000000       2
   -0.166666666667    0.458333333333    0.000000000000       2
   -0.125000000000    0.458333333333    0.000000000000       2
   -0.083333333333    0.458333333333    0.000000000000       2
   -0.041666666667    0.458333333333    0.000000000000       2
    0.000000000000    0.500000000000    0.000000000000       1
    0.041666666667    0.500000000000    0.000000000000       2
    0.083333333333    0.500000000000    0.000000000000       2
    0.125000000000    0.500000000000    0.000000000000       2
    0.166666666667    0.500000000000    0.000000000000       2
    0.208333333333    0.500000000000    0.000000000000       2
    0.250000000000    0.500000000000    0.000000000000       2
    0.291666666667    0.500000000000    0.000000000000       2
    0.333333333333    0.500000000000    0.000000000000       2
    0.375000000000    0.500000000000    0.000000000000       2
    0.416666666667    0.500000000000    0.000000000000       2
    0.458333333333    0.500000000000    0.000000000000       2
    0.500000000000    0.500000000000    0.000000000000       1
