CONTCAR\(21)                            
   1.00000000000000     
    11.6593999863000004    0.0000000000000000    0.0000000000000000
    -5.8296999931000002   10.0973365810000004    0.0000000000000000
     0.0000000000000000    0.0000000000000000   24.5373001098999985
   Zn   In   S    O 
     9    18    36     1
Selective dynamics
Direct
  0.1049555706383387  0.2198550505932459  0.3263929381130737   F   F   F
  0.4374766612089118  0.2185864196968126  0.3246769783062007   F   F   F
  0.7710014291982361  0.2188307235991118  0.3249213184588911   F   F   F
  0.1049555776383357  0.5517705290450934  0.3263929381130737   F   F   F
  0.4366510907817940  0.5516655418908982  0.3270660570779995   F   F   F
  0.7627382420662769  0.5361994546563906  0.3321518858722072   F   F   F
  0.1184963866447220  0.8925832208223596  0.3301087386237143   F   F   F
  0.4374766812089135  0.8855602775121056  0.3246769783062007   F   F   F
  0.7627382560662781  0.8932088294098790  0.3321518858722072   F   F   F
  0.9974204926234620  0.0000943824625139  0.4858579165836403   F   F   F
  0.2221285339008432  0.1109339824205762  0.6479034209622796   F   F   F
  0.3303313693322991  0.9985006811661492  0.4834333698267841   F   F   F
  0.5555540741248066  0.1111070445623952  0.6483563455273043   F   F   F
  0.6629805901223591  0.9992905311369427  0.4845080183593566   F   F   F
  0.8888924028674481  0.1110693334152870  0.6483826863756974   F   F   F
  0.9970072917692505  0.3318336548846261  0.4838044634469441   F   F   F
  0.2221519728125116  0.4444059969062621  0.6477682505702020   F   F   F
  0.3299529026199366  0.3316401790160413  0.4836162654133673   F   F   F
  0.5552138003782545  0.4442225171152430  0.6485534754042561   F   F   F
  0.6629805911223627  0.3303500349854147  0.4845080183593566   F   F   F
  0.8888923638674484  0.4444830474521595  0.6483826863756974   F   F   F
  0.9974204916234655  0.6639961421609399  0.4858579165836403   F   F   F
  0.2221285419008439  0.7778645614802713  0.6479034209622796   F   F   F
  0.3299528996199328  0.6649827566038837  0.4836162654133673   F   F   F
  0.5552138063782550  0.7776513162630181  0.6485534754042561   F   F   F
  0.6619278468273961  0.6642989389136957  0.4868322364358590   F   F   F
  0.8883682042078931  0.7775191111039490  0.6487963968042294   F   F   F
  0.2151411871312163  0.1086613367278346  0.3069805570117481   F   F   F
  0.2207302575165357  0.1098124935431741  0.5489263645833660   F   F   F
  0.1073050496456318  0.2196011877147725  0.4337137613675708   F   F   F
  0.1114080468175658  0.2224109670631762  0.6943257648643950   F   F   F
  0.5489149969391676  0.1077875059695828  0.3085095448832504   F   F   F
  0.5525919997282216  0.1096260073641062  0.5494429183626437   F   F   F
  0.4415140432334681  0.2209053670757370  0.4334027771630318   F   F   F
  0.4439896846902229  0.2218477926166784  0.6945581344636196   F   F   F
  0.8833011769614103  0.1083994355734106  0.3077987743606485   F   F   F
  0.8858320225507015  0.1100477723240445  0.5493582368676897   F   F   F
  0.7746502387247887  0.2206551283623952  0.4336139964626469   F   F   F
  0.7776586369003482  0.2221593274501714  0.6946267934573314   F   F   F
  0.2156969099456276  0.4411784654728095  0.3088892933374439   F   F   F
  0.2198392493405521  0.4432496351702753  0.5489013857085752   F   F   F
  0.1073050566456288  0.5543738709308528  0.4337137613675708   F   F   F
  0.1114080538175628  0.5556670887543902  0.6943257648643950   F   F   F
  0.5477249877302555  0.4412538402848938  0.3076528720836791   F   F   F
  0.5529783530240167  0.4422633557234690  0.5495021999635625   F   F   F
  0.4424861791174663  0.5545830860587344  0.4340902400069595   F   F   F
  0.4437397478266973  0.5552098704133428  0.6945909741152505   F   F   F
  0.8833011379614106  0.4415617193879910  0.3077987743606485   F   F   F
  0.8858319835507018  0.4424442282266554  0.5493582368676897   F   F   F
  0.7748833559771313  0.5557739203469367  0.4346353477252975   F   F   F
  0.7775212422270528  0.5552096566280014  0.6948224717027642   F   F   F
  0.2151411951312170  0.7731498604033931  0.3069805570117481   F   F   F
  0.2207302655165364  0.7775877739733588  0.5489263645833660   F   F   F
  0.1048255925559687  0.8857478237779830  0.4339490153845844   F   F   F
  0.1112232099837485  0.8889466324918800  0.6944312322092969   F   F   F
  0.5477249937302560  0.7731311804453611  0.3076528720836791   F   F   F
  0.5529783590240172  0.7773750303005471  0.5495021999635625   F   F   F
  0.4415140632334698  0.8872787121577304  0.4334027771630318   F   F   F
  0.4439897046902246  0.8888119280735509  0.6945581344636196   F   F   F
  0.8810338195237222  0.7738519187618635  0.3092777153643596   F   F   F
  0.8870820798766914  0.7768760489383482  0.5497162398214854   F   F   F
  0.7748833699771325  0.8857794776301944  0.4346353477252975   F   F   F
  0.7775212562270539  0.8889816275990441  0.6948224717027642   F   F   F
  0.8773010699760847  0.7719755089880423  0.2460003538189113   T   T   T
 
  0.00000000E+00  0.00000000E+00  0.00000000E+00
  0.00000000E+00  0.00000000E+00  0.00000000E+00
  0.00000000E+00  0.00000000E+00  0.00000000E+00
  0.00000000E+00  0.00000000E+00  0.00000000E+00
  0.00000000E+00  0.00000000E+00  0.00000000E+00
  0.00000000E+00  0.00000000E+00  0.00000000E+00
  0.00000000E+00  0.00000000E+00  0.00000000E+00
  0.00000000E+00  0.00000000E+00  0.00000000E+00
  0.00000000E+00  0.00000000E+00  0.00000000E+00
  0.00000000E+00  0.00000000E+00  0.00000000E+00
  0.00000000E+00  0.00000000E+00  0.00000000E+00
  0.00000000E+00  0.00000000E+00  0.00000000E+00
  0.00000000E+00  0.00000000E+00  0.00000000E+00
  0.00000000E+00  0.00000000E+00  0.00000000E+00
  0.00000000E+00  0.00000000E+00  0.00000000E+00
  0.00000000E+00  0.00000000E+00  0.00000000E+00
  0.00000000E+00  0.00000000E+00  0.00000000E+00
  0.00000000E+00  0.00000000E+00  0.00000000E+00
  0.00000000E+00  0.00000000E+00  0.00000000E+00
  0.00000000E+00  0.00000000E+00  0.00000000E+00
  0.00000000E+00  0.00000000E+00  0.00000000E+00
  0.00000000E+00  0.00000000E+00  0.00000000E+00
  0.00000000E+00  0.00000000E+00  0.00000000E+00
  0.00000000E+00  0.00000000E+00  0.00000000E+00
  0.00000000E+00  0.00000000E+00  0.00000000E+00
  0.00000000E+00  0.00000000E+00  0.00000000E+00
  0.00000000E+00  0.00000000E+00  0.00000000E+00
  0.00000000E+00  0.00000000E+00  0.00000000E+00
  0.00000000E+00  0.00000000E+00  0.00000000E+00
  0.00000000E+00  0.00000000E+00  0.00000000E+00
  0.00000000E+00  0.00000000E+00  0.00000000E+00
  0.00000000E+00  0.00000000E+00  0.00000000E+00
  0.00000000E+00  0.00000000E+00  0.00000000E+00
  0.00000000E+00  0.00000000E+00  0.00000000E+00
  0.00000000E+00  0.00000000E+00  0.00000000E+00
  0.00000000E+00  0.00000000E+00  0.00000000E+00
  0.00000000E+00  0.00000000E+00  0.00000000E+00
  0.00000000E+00  0.00000000E+00  0.00000000E+00
  0.00000000E+00  0.00000000E+00  0.00000000E+00
  0.00000000E+00  0.00000000E+00  0.00000000E+00
  0.00000000E+00  0.00000000E+00  0.00000000E+00
  0.00000000E+00  0.00000000E+00  0.00000000E+00
  0.00000000E+00  0.00000000E+00  0.00000000E+00
  0.00000000E+00  0.00000000E+00  0.00000000E+00
  0.00000000E+00  0.00000000E+00  0.00000000E+00
  0.00000000E+00  0.00000000E+00  0.00000000E+00
  0.00000000E+00  0.00000000E+00  0.00000000E+00
  0.00000000E+00  0.00000000E+00  0.00000000E+00
  0.00000000E+00  0.00000000E+00  0.00000000E+00
  0.00000000E+00  0.00000000E+00  0.00000000E+00
  0.00000000E+00  0.00000000E+00  0.00000000E+00
  0.00000000E+00  0.00000000E+00  0.00000000E+00
  0.00000000E+00  0.00000000E+00  0.00000000E+00
  0.00000000E+00  0.00000000E+00  0.00000000E+00
  0.00000000E+00  0.00000000E+00  0.00000000E+00
  0.00000000E+00  0.00000000E+00  0.00000000E+00
  0.00000000E+00  0.00000000E+00  0.00000000E+00
  0.00000000E+00  0.00000000E+00  0.00000000E+00
  0.00000000E+00  0.00000000E+00  0.00000000E+00
  0.00000000E+00  0.00000000E+00  0.00000000E+00
  0.00000000E+00  0.00000000E+00  0.00000000E+00
  0.00000000E+00  0.00000000E+00  0.00000000E+00
  0.00000000E+00  0.00000000E+00  0.00000000E+00
  0.00000000E+00  0.00000000E+00  0.00000000E+00
