CONTCAR\(6)                             
   1.00000000000000     
    11.7119998931999998    0.0000000000000000    0.0000000000000000
    -5.1174287261000000   10.4860139793999991    0.0000000000000000
     0.0000000000000000    0.0000000000000000   18.3064994811999995
   Mo   Cl   O 
     8    24     1
Direct
  0.0609778605057006  0.4308092955225856  0.5008989480827821
  0.4308117648170254  0.0610069978937759  0.5009312074967619
  0.5616652786435732  0.4294295419549905  0.5016546479126908
  0.9306020579339209  0.0621995313382749  0.5005729947076208
  0.0623092347715472  0.9306765957856487  0.5005333303563104
  0.4293217999660997  0.5615790113689918  0.5017162818484608
  0.5619709506459006  0.9293539994257546  0.5010627466178873
  0.9292635514313861  0.5618809422269790  0.5012144764985849
  0.0802080954760828  0.0805874393792325  0.5928928137042453
  0.4116212278238713  0.4112781104452062  0.4100627408340643
  0.0727572633005566  0.2463649572162289  0.4291002577469235
  0.2457474510946425  0.4209348591268253  0.5726837954681844
  0.4210322101335958  0.2458839670854298  0.5727637366602724
  0.2464790041686474  0.0728848202226834  0.4292087745545229
  0.5791723012116634  0.0782333082172918  0.5937778284032277
  0.9117869717746717  0.4126638524203857  0.4084603775875397
  0.5742068464859746  0.2430966708909106  0.4294458099947351
  0.7456728912893241  0.4209826235455722  0.5739697049175196
  0.9188230128525007  0.2462319336861976  0.5723145987006436
  0.7453174322877266  0.0718696926940889  0.4292838142630085
  0.0778281435544713  0.5793207910172036  0.5938786452810961
  0.4130599772746960  0.9116549750797998  0.4083772011754480
  0.0718155086539526  0.7451113127311864  0.4292666034934551
  0.2462282878523875  0.9188478930719262  0.5722295582135518
  0.4210506339433754  0.7458506991762611  0.5739929095955796
  0.2430305838814553  0.5741885615864037  0.4295504605610270
  0.5817610211102068  0.5821353166343655  0.5900856145442408
  0.9138678466933161  0.9134923505257130  0.4076679172068203
  0.5710177378348689  0.7443161179640904  0.4288321024136559
  0.7470318502819471  0.9185577707949694  0.5721396897568972
  0.9187872592544146  0.7472297540302695  0.5723175974398381
  0.7445335971665392  0.5713401401478289  0.4290682131677574
  0.5298607108839767  0.5298667977928959  0.6666848357946213
 
  0.00000000E+00  0.00000000E+00  0.00000000E+00
  0.00000000E+00  0.00000000E+00  0.00000000E+00
  0.00000000E+00  0.00000000E+00  0.00000000E+00
  0.00000000E+00  0.00000000E+00  0.00000000E+00
  0.00000000E+00  0.00000000E+00  0.00000000E+00
  0.00000000E+00  0.00000000E+00  0.00000000E+00
  0.00000000E+00  0.00000000E+00  0.00000000E+00
  0.00000000E+00  0.00000000E+00  0.00000000E+00
  0.00000000E+00  0.00000000E+00  0.00000000E+00
  0.00000000E+00  0.00000000E+00  0.00000000E+00
  0.00000000E+00  0.00000000E+00  0.00000000E+00
  0.00000000E+00  0.00000000E+00  0.00000000E+00
  0.00000000E+00  0.00000000E+00  0.00000000E+00
  0.00000000E+00  0.00000000E+00  0.00000000E+00
  0.00000000E+00  0.00000000E+00  0.00000000E+00
  0.00000000E+00  0.00000000E+00  0.00000000E+00
  0.00000000E+00  0.00000000E+00  0.00000000E+00
  0.00000000E+00  0.00000000E+00  0.00000000E+00
  0.00000000E+00  0.00000000E+00  0.00000000E+00
  0.00000000E+00  0.00000000E+00  0.00000000E+00
  0.00000000E+00  0.00000000E+00  0.00000000E+00
  0.00000000E+00  0.00000000E+00  0.00000000E+00
  0.00000000E+00  0.00000000E+00  0.00000000E+00
  0.00000000E+00  0.00000000E+00  0.00000000E+00
  0.00000000E+00  0.00000000E+00  0.00000000E+00
  0.00000000E+00  0.00000000E+00  0.00000000E+00
  0.00000000E+00  0.00000000E+00  0.00000000E+00
  0.00000000E+00  0.00000000E+00  0.00000000E+00
  0.00000000E+00  0.00000000E+00  0.00000000E+00
  0.00000000E+00  0.00000000E+00  0.00000000E+00
  0.00000000E+00  0.00000000E+00  0.00000000E+00
  0.00000000E+00  0.00000000E+00  0.00000000E+00
  0.00000000E+00  0.00000000E+00  0.00000000E+00
