CONTCAR\(4)                             
   1.00000000000000     
    10.0733995438000008    0.0000000000000000    0.0000000000000000
     0.0000000000000000    9.7955999374000005    0.0000000000000000
     0.0000000000000000    0.0000000000000000   18.6921005248999990
   Ta   Se   O 
    12    18     1
Selective dynamics
Direct
  0.0877709572857484  0.5588856443320935  0.5012516856062561   F   F   F
  0.2611697347121194  0.3050600045414456  0.5009959352269249   F   F   F
  0.0886710072613255  0.8698431443138830  0.5518230585007373   F   F   F
  0.2554048557503705  0.9939243542810559  0.4506930139718790   F   F   F
  0.4248404056303343  0.5564902331794315  0.5010599240368592   F   F   F
  0.5886153604693831  0.3074219021911802  0.5003361420698766   F   F   F
  0.4225304298137331  0.8686407061220152  0.5516031533474077   F   F   F
  0.5887849871775686  0.9940508894824802  0.4506789675199983   F   F   F
  0.7534329854635331  0.5564655210931662  0.5013508512778770   F   F   F
  0.9161577289100364  0.3049446044245911  0.5011247396694500   F   F   F
  0.7549283989199083  0.8688576497043314  0.5517261200567560   F   F   F
  0.9218699409319342  0.9942570305460805  0.4508367436648086   F   F   F
  0.0888324417143238  0.3715798181145402  0.5950352755693729   F   F   F
  0.2557901402430218  0.4906959678077385  0.4022184811713103   F   F   F
  0.0887805906925294  0.1821010887507128  0.4067371843624130   F   F   F
  0.2554276977900471  0.6801636992121587  0.5953455127218774   F   F   F
  0.2560120420140493  0.0632119129363744  0.5852659529723425   F   F   F
  0.0884196655667395  0.8001788659840656  0.4171896991621935   F   F   F
  0.4230537821539855  0.3736586648139593  0.6011567769984580   F   F   F
  0.5891855545151188  0.4899858140828997  0.4005388420365179   F   F   F
  0.4224894572724267  0.1823215161128786  0.4054878394666019   F   F   F
  0.5887653460631483  0.6799005666327744  0.5964199773824177   F   F   F
  0.5886133541424101  0.0629672103371846  0.5851089447915072   F   F   F
  0.4222482103918139  0.8001058637876355  0.4171080813083279   F   F   F
  0.7541899010369661  0.3733692584498272  0.6013374844016326   F   F   F
  0.9213167498464685  0.4899202219142325  0.4019460716756953   F   F   F
  0.7549267253621892  0.1823874444392430  0.4054527609135548   F   F   F
  0.9219117647559969  0.6801647373292070  0.5956399434688251   F   F   F
  0.9214730280778127  0.0632718233568212  0.5855650298264408   F   F   F
  0.7553471865711856  0.8002414452791058  0.4172326765332741   F   F   F
  0.0888693864637915  0.3694319054469162  0.6845603772586913   T   T   T
 
  0.00000000E+00  0.00000000E+00  0.00000000E+00
  0.00000000E+00  0.00000000E+00  0.00000000E+00
  0.00000000E+00  0.00000000E+00  0.00000000E+00
  0.00000000E+00  0.00000000E+00  0.00000000E+00
  0.00000000E+00  0.00000000E+00  0.00000000E+00
  0.00000000E+00  0.00000000E+00  0.00000000E+00
  0.00000000E+00  0.00000000E+00  0.00000000E+00
  0.00000000E+00  0.00000000E+00  0.00000000E+00
  0.00000000E+00  0.00000000E+00  0.00000000E+00
  0.00000000E+00  0.00000000E+00  0.00000000E+00
  0.00000000E+00  0.00000000E+00  0.00000000E+00
  0.00000000E+00  0.00000000E+00  0.00000000E+00
  0.00000000E+00  0.00000000E+00  0.00000000E+00
  0.00000000E+00  0.00000000E+00  0.00000000E+00
  0.00000000E+00  0.00000000E+00  0.00000000E+00
  0.00000000E+00  0.00000000E+00  0.00000000E+00
  0.00000000E+00  0.00000000E+00  0.00000000E+00
  0.00000000E+00  0.00000000E+00  0.00000000E+00
  0.00000000E+00  0.00000000E+00  0.00000000E+00
  0.00000000E+00  0.00000000E+00  0.00000000E+00
  0.00000000E+00  0.00000000E+00  0.00000000E+00
  0.00000000E+00  0.00000000E+00  0.00000000E+00
  0.00000000E+00  0.00000000E+00  0.00000000E+00
  0.00000000E+00  0.00000000E+00  0.00000000E+00
  0.00000000E+00  0.00000000E+00  0.00000000E+00
  0.00000000E+00  0.00000000E+00  0.00000000E+00
  0.00000000E+00  0.00000000E+00  0.00000000E+00
  0.00000000E+00  0.00000000E+00  0.00000000E+00
  0.00000000E+00  0.00000000E+00  0.00000000E+00
  0.00000000E+00  0.00000000E+00  0.00000000E+00
  0.00000000E+00  0.00000000E+00  0.00000000E+00
