CONTCAR\(8)                             
   1.00000000000000     
    11.5721998214999999    0.0000000000000000    0.0000000000000000
     0.0000000000000000   11.5721998214999999    0.0000000000000000
     0.0000000000000000    0.0000000000000000   18.7880992888999998
   Nd   I    O 
     9    18     1
Direct
  0.0000722997835699  0.9997422141870858  0.4866167322632129
  0.3331561669326222  0.9930754330377513  0.4882908129197659
  0.6663366129806082  0.9999274779487445  0.4866223314337119
  0.0003164608275853  0.3334859253165763  0.4865762015990474
  0.3333884898297197  0.3403189830842214  0.4881927140020945
  0.6666074944832531  0.3337013104005871  0.4865635427175397
  0.0069653338575161  0.6666288529958824  0.4881789264619773
  0.3332778788158199  0.6667773166926234  0.6724142868415596
  0.6596961238703003  0.6667784052874023  0.4881941238274838
  0.1707582705443031  0.1666049567350840  0.3887120293949665
  0.1694940782011025  0.1665733080072480  0.5869789571857196
  0.4958792805285002  0.1666929951343077  0.3887086130184447
  0.4973365293588314  0.1671279540527262  0.5869331258023678
  0.8333363478500851  0.1667108061106941  0.3851968671182308
  0.8335826639545946  0.1668279764202342  0.5879184764772544
  0.1632324178173386  0.4964371565784625  0.3893665218652571
  0.1559406742744013  0.4890449703795542  0.5964609293495788
  0.5033416188470636  0.4964974931642182  0.3894267163783197
  0.5110897673445383  0.4893848243581535  0.5964559269023618
  0.8333079125000245  0.5041822692111313  0.3886791748949226
  0.8336020959924869  0.5028303326153623  0.5869087471699461
  0.1630337187087812  0.8366967779782108  0.3894796165526363
  0.1555078164068419  0.8440745979890569  0.5965842734711208
  0.5031689282256300  0.8368341961810741  0.3895826833115771
  0.5105638468769308  0.8445178061688320  0.5966014730960405
  0.8332319651977329  0.8293176982882025  0.3887232082441089
  0.8330553166978789  0.8304102815319213  0.5869234933741609
  0.3333798252919660  0.6667676141446929  0.7737997373266083
 
  0.00000000E+00  0.00000000E+00  0.00000000E+00
  0.00000000E+00  0.00000000E+00  0.00000000E+00
  0.00000000E+00  0.00000000E+00  0.00000000E+00
  0.00000000E+00  0.00000000E+00  0.00000000E+00
  0.00000000E+00  0.00000000E+00  0.00000000E+00
  0.00000000E+00  0.00000000E+00  0.00000000E+00
  0.00000000E+00  0.00000000E+00  0.00000000E+00
  0.00000000E+00  0.00000000E+00  0.00000000E+00
  0.00000000E+00  0.00000000E+00  0.00000000E+00
  0.00000000E+00  0.00000000E+00  0.00000000E+00
  0.00000000E+00  0.00000000E+00  0.00000000E+00
  0.00000000E+00  0.00000000E+00  0.00000000E+00
  0.00000000E+00  0.00000000E+00  0.00000000E+00
  0.00000000E+00  0.00000000E+00  0.00000000E+00
  0.00000000E+00  0.00000000E+00  0.00000000E+00
  0.00000000E+00  0.00000000E+00  0.00000000E+00
  0.00000000E+00  0.00000000E+00  0.00000000E+00
  0.00000000E+00  0.00000000E+00  0.00000000E+00
  0.00000000E+00  0.00000000E+00  0.00000000E+00
  0.00000000E+00  0.00000000E+00  0.00000000E+00
  0.00000000E+00  0.00000000E+00  0.00000000E+00
  0.00000000E+00  0.00000000E+00  0.00000000E+00
  0.00000000E+00  0.00000000E+00  0.00000000E+00
  0.00000000E+00  0.00000000E+00  0.00000000E+00
  0.00000000E+00  0.00000000E+00  0.00000000E+00
  0.00000000E+00  0.00000000E+00  0.00000000E+00
  0.00000000E+00  0.00000000E+00  0.00000000E+00
  0.00000000E+00  0.00000000E+00  0.00000000E+00
