CONTCAR                                 
   1.00000000000000     
    12.4666996002000001    0.0000000000000000    0.0000000000000000
     6.2333871787000001   10.7964569744999999    0.0000000000000000
     0.0000000000000000    0.0000000000000000   17.7942008971999996
   Li   W    Cl   O 
     4     4    24     1
Direct
  0.3304621253671185  0.3360941795972526  0.5010524689084719
  0.4772722738439360  0.5164090887706089  0.4860154480290135
  0.4988228773862198  0.0042752540339912  0.5026107440782869
 -0.0012001142870063  0.4966328322723595  0.5036321470915582
  0.1599185168147296  0.1614323055490796  0.5045189844287359
  0.6613168437633439  0.6653388017130409  0.5036351362379635
  0.1500785136679474  0.6833138255254702  0.4999807657309508
  0.6773357918885409  0.1558194755823096  0.5082985920726314
  0.6601350108822982  0.0144825846720659  0.4274434889101160
  0.1644970088080574  0.0151281627032919  0.4269346057722643
  0.6559730326533868  0.8198116295532220  0.5812544215257839
  0.0001622056519605  0.8211633011146923  0.4227325724134180
  0.8178210976646779  0.5135049428381424  0.5799531565403091
  0.3202034773882845  0.0161819770588458  0.5805172747810736
  0.0129460838702434  0.3199680470587637  0.4277914142199462
  0.5117001635754830  0.3208891044405301  0.4302974387648187
  0.5060782026692873  0.1745827734819360  0.5815345457491752
  0.5109577076913524  0.6563925056582414  0.5781390533705343
  0.1648735357273289  0.3238032476509589  0.5787280218400309
  0.6586655279055497  0.5123655105776129  0.4259325913055060
  0.8178920361733376  0.1674773306801630  0.4318032178891006
  0.0148076955977978  0.1663403725074361  0.5837792356871381
  0.1597456149582306  0.5133331404490167  0.4260493418173237
  0.3204107083942940  0.1670895935857014  0.4285820524151497
  0.3177724303268039  0.5188071881786215  0.5728178043081478
  0.8168363001251129  0.6604646542415769  0.4270483750154150
  0.6751205414639634  0.3109322357437215  0.5841397629940078
  0.1560871138074809  0.8250504417512786  0.5768027071723409
  0.8133470494281504  0.0068338454065626  0.5861606785065653
  0.0097645277056899  0.6651361515738330  0.5788537916363694
  0.3040936257098578  0.6767097592794832  0.4191154968203397
  0.5106887764529090  0.8206872235082032  0.4273294820849527
  0.6339331969236063  0.3176587972419745  0.6673149358826013
 
  0.00000000E+00  0.00000000E+00  0.00000000E+00
  0.00000000E+00  0.00000000E+00  0.00000000E+00
  0.00000000E+00  0.00000000E+00  0.00000000E+00
  0.00000000E+00  0.00000000E+00  0.00000000E+00
  0.00000000E+00  0.00000000E+00  0.00000000E+00
  0.00000000E+00  0.00000000E+00  0.00000000E+00
  0.00000000E+00  0.00000000E+00  0.00000000E+00
  0.00000000E+00  0.00000000E+00  0.00000000E+00
  0.00000000E+00  0.00000000E+00  0.00000000E+00
  0.00000000E+00  0.00000000E+00  0.00000000E+00
  0.00000000E+00  0.00000000E+00  0.00000000E+00
  0.00000000E+00  0.00000000E+00  0.00000000E+00
  0.00000000E+00  0.00000000E+00  0.00000000E+00
  0.00000000E+00  0.00000000E+00  0.00000000E+00
  0.00000000E+00  0.00000000E+00  0.00000000E+00
  0.00000000E+00  0.00000000E+00  0.00000000E+00
  0.00000000E+00  0.00000000E+00  0.00000000E+00
  0.00000000E+00  0.00000000E+00  0.00000000E+00
  0.00000000E+00  0.00000000E+00  0.00000000E+00
  0.00000000E+00  0.00000000E+00  0.00000000E+00
  0.00000000E+00  0.00000000E+00  0.00000000E+00
  0.00000000E+00  0.00000000E+00  0.00000000E+00
  0.00000000E+00  0.00000000E+00  0.00000000E+00
  0.00000000E+00  0.00000000E+00  0.00000000E+00
  0.00000000E+00  0.00000000E+00  0.00000000E+00
  0.00000000E+00  0.00000000E+00  0.00000000E+00
  0.00000000E+00  0.00000000E+00  0.00000000E+00
  0.00000000E+00  0.00000000E+00  0.00000000E+00
  0.00000000E+00  0.00000000E+00  0.00000000E+00
  0.00000000E+00  0.00000000E+00  0.00000000E+00
  0.00000000E+00  0.00000000E+00  0.00000000E+00
  0.00000000E+00  0.00000000E+00  0.00000000E+00
  0.00000000E+00  0.00000000E+00  0.00000000E+00
