CONTCAR\(4)                             
   1.00000000000000     
    13.7056999207000008    0.0000000000000000    0.0000000000000000
     4.1214080124999999   12.9276297616000004    0.0000000000000000
     0.0000000000000000    0.0000000000000000   18.6212005615000002
   Bi   Rh   S 
    16    24    16
Direct
  0.1933452231744651  0.1950476934544915  0.5866124127038023
  0.4448880519529984  0.4452278787346675  0.5925462366816603
  0.0817519860470053  0.0814321022653342  0.4074337643183441
  0.3332747508255339  0.3315922955455116  0.4133975992962019
  0.6933451881744658  0.1950476934544915  0.5866124127038023
  0.9448880519529984  0.4452278787346675  0.5925462366816603
  0.5817519690470073  0.0814321022653342  0.4074337643183441
  0.8332747508255339  0.3315922955455116  0.4133975992962019
  0.1933452381744628  0.6950477014544921  0.5866124127038023
  0.4448880829529974  0.9452278307346705  0.5925462366816603
  0.0817519940470059  0.5814320722653318  0.4074337643183441
  0.3332747468255336  0.8315922475455076  0.4133975992962019
  0.6933452031744635  0.6950477014544921  0.5866124127038023
  0.9448880829529974  0.9452278307346705  0.5925462366816603
  0.5817519940470058  0.5814320722653318  0.4074337643183441
  0.8332747818255400  0.8315922475455076  0.4133975992962019
  0.0133299960000031  0.2633399959999991  0.5000200249999978
  0.4154170598420462  0.1111067924863048  0.4991699850857536
  0.1112529701579520  0.4155731985136969  0.5008100409142494
  0.2633500069999997  0.0133300009999999  0.5000200249999978
  0.3187543342229511  0.3176402018890684  0.5580640219703001
  0.2078656517770490  0.2089697811109318  0.4419259910297014
  0.5133299789999981  0.2633399959999991  0.5000200249999978
  0.9154170248420469  0.1111067924863048  0.4991699850857536
  0.6112529521579505  0.4155731985136969  0.5008100409142494
  0.7633499889999982  0.0133300009999999  0.5000200249999978
  0.8187543692229504  0.3176402018890684  0.5580640219703001
  0.7078656867770554  0.2089697811109318  0.4419259910297014
  0.0133300219999981  0.7633399659999967  0.5000200249999978
  0.4154170448420486  0.6111067814863074  0.4991699850857536
  0.1112529721579521  0.9155731875136925  0.5008100409142494
  0.2633500130000002  0.5133299760000014  0.5000200249999978
  0.3187543192229463  0.8176401908890710  0.5580640219703001
  0.2078656257770539  0.7089698071109268  0.4419259910297014
  0.5133300039999966  0.7633399659999967  0.5000200249999978
  0.9154170448420486  0.6111067814863074  0.4991699850857536
  0.6112529721579522  0.9155731875136925  0.5008100409142494
  0.7633500130000002  0.5133299760000014  0.5000200249999978
  0.8187543192229463  0.8176401908890710  0.5580640219703001
  0.7078656957770526  0.7089698071109268  0.4419259910297014
  0.4574292585045286  0.1890039042738948  0.5997857855969670
  0.1908914224208060  0.4571428871395162  0.6004253342657405
  0.0692107234954774  0.3376460807261040  0.4002142404030279
  0.3357585595791962  0.0694870928604866  0.3995846777342566
  0.9574292585045286  0.1890039042738948  0.5997857855969670
  0.6908914224208059  0.4571428871395162  0.6004253342657405
  0.5692107064954725  0.3376460807261040  0.4002142404030279
  0.8357585945791955  0.0694870928604866  0.3995846777342566
  0.4574292955045281  0.6890038372738928  0.5997857855969670
  0.1908914314208031  0.9571429121395146  0.6004253342657405
  0.0692107044954723  0.8376461437261057  0.4002142404030279
  0.3357585455791950  0.5694870768604853  0.3995846777342566
  0.9574292955045282  0.6890038372738928  0.5997857855969670
  0.6908914314208031  0.9571429121395146  0.6004253342657405
  0.5692107044954723  0.8376461437261057  0.4002142404030279
  0.8357586155791937  0.5694870768604853  0.3995846777342566
 
  0.00000000E+00  0.00000000E+00  0.00000000E+00
  0.00000000E+00  0.00000000E+00  0.00000000E+00
  0.00000000E+00  0.00000000E+00  0.00000000E+00
  0.00000000E+00  0.00000000E+00  0.00000000E+00
  0.00000000E+00  0.00000000E+00  0.00000000E+00
  0.00000000E+00  0.00000000E+00  0.00000000E+00
  0.00000000E+00  0.00000000E+00  0.00000000E+00
  0.00000000E+00  0.00000000E+00  0.00000000E+00
  0.00000000E+00  0.00000000E+00  0.00000000E+00
  0.00000000E+00  0.00000000E+00  0.00000000E+00
  0.00000000E+00  0.00000000E+00  0.00000000E+00
  0.00000000E+00  0.00000000E+00  0.00000000E+00
  0.00000000E+00  0.00000000E+00  0.00000000E+00
  0.00000000E+00  0.00000000E+00  0.00000000E+00
  0.00000000E+00  0.00000000E+00  0.00000000E+00
  0.00000000E+00  0.00000000E+00  0.00000000E+00
  0.00000000E+00  0.00000000E+00  0.00000000E+00
  0.00000000E+00  0.00000000E+00  0.00000000E+00
  0.00000000E+00  0.00000000E+00  0.00000000E+00
  0.00000000E+00  0.00000000E+00  0.00000000E+00
  0.00000000E+00  0.00000000E+00  0.00000000E+00
  0.00000000E+00  0.00000000E+00  0.00000000E+00
  0.00000000E+00  0.00000000E+00  0.00000000E+00
  0.00000000E+00  0.00000000E+00  0.00000000E+00
  0.00000000E+00  0.00000000E+00  0.00000000E+00
  0.00000000E+00  0.00000000E+00  0.00000000E+00
  0.00000000E+00  0.00000000E+00  0.00000000E+00
  0.00000000E+00  0.00000000E+00  0.00000000E+00
  0.00000000E+00  0.00000000E+00  0.00000000E+00
  0.00000000E+00  0.00000000E+00  0.00000000E+00
  0.00000000E+00  0.00000000E+00  0.00000000E+00
  0.00000000E+00  0.00000000E+00  0.00000000E+00
  0.00000000E+00  0.00000000E+00  0.00000000E+00
  0.00000000E+00  0.00000000E+00  0.00000000E+00
  0.00000000E+00  0.00000000E+00  0.00000000E+00
  0.00000000E+00  0.00000000E+00  0.00000000E+00
  0.00000000E+00  0.00000000E+00  0.00000000E+00
  0.00000000E+00  0.00000000E+00  0.00000000E+00
  0.00000000E+00  0.00000000E+00  0.00000000E+00
  0.00000000E+00  0.00000000E+00  0.00000000E+00
  0.00000000E+00  0.00000000E+00  0.00000000E+00
  0.00000000E+00  0.00000000E+00  0.00000000E+00
  0.00000000E+00  0.00000000E+00  0.00000000E+00
  0.00000000E+00  0.00000000E+00  0.00000000E+00
  0.00000000E+00  0.00000000E+00  0.00000000E+00
  0.00000000E+00  0.00000000E+00  0.00000000E+00
  0.00000000E+00  0.00000000E+00  0.00000000E+00
  0.00000000E+00  0.00000000E+00  0.00000000E+00
  0.00000000E+00  0.00000000E+00  0.00000000E+00
  0.00000000E+00  0.00000000E+00  0.00000000E+00
  0.00000000E+00  0.00000000E+00  0.00000000E+00
  0.00000000E+00  0.00000000E+00  0.00000000E+00
  0.00000000E+00  0.00000000E+00  0.00000000E+00
  0.00000000E+00  0.00000000E+00  0.00000000E+00
  0.00000000E+00  0.00000000E+00  0.00000000E+00
  0.00000000E+00  0.00000000E+00  0.00000000E+00
