CONTCAR\(5)                             
   1.00000000000000     
    11.2482995986999992    0.0000000000000000    0.0000000000000000
     0.0000000000000000   13.7291002274000000    0.0000000000000000
     0.0000000000000000    0.0000000000000000   19.4125995636000006
   Zr   I    O 
    12    24     1
Direct
  0.9960340254184246  0.2433812322064455  0.5157292682342387
  0.1648995511147930  0.0578921680021196  0.5196595434417191
  0.3218820824676172  0.2487630668513461  0.5164308342907589
  0.4690344113477423  0.0480449992482903  0.5263277652244511
  0.6625254203032327  0.2411915575786665  0.5166830739989550
  0.8323591082554245  0.0540005740362020  0.5108930914707699
  0.9857185022780257  0.7414781254848819  0.4988239013670110
  0.1346601598188357  0.5475821928342981  0.4974350854247049
  0.3847293762215784  0.7776976337014645  0.4841330829926704
  0.5245424438656840  0.5481805190331173  0.4961458189923249
  0.6717970877463486  0.7412719988274930  0.4907520125913081
  0.8287364546867764  0.5489651188593854  0.4973216753529783
  0.9912235076391127  0.4425166955276225  0.5949419540676786
  0.9979360004110021  0.1059464261246106  0.4024664901869457
  0.1574521774304500  0.3546557503474759  0.4210423320290246
  0.1578658604043994  0.2054577374363546  0.6287909370648279
  0.3290928272889175  0.4519595875257494  0.5836341040534094
  0.3256305650442926  0.1053761931119297  0.4068385725779393
  0.4963262867961760  0.3506352398286410  0.4241435180934729
  0.4936924361410604  0.2044857135166041  0.6287320964498520
  0.6670814323731875  0.4403888258364574  0.5946607812628741
  0.6489011769840189  0.0940941962849564  0.4097905785104174
  0.8275458541109160  0.3495278414683014  0.4239521609383914
  0.8290398973142743  0.1884679755715979  0.6263326624869023
  0.9922735385009958  0.9324501110132246  0.5935950241158494
  0.9910588475311854  0.6061402285055877  0.3835555924063883
  0.1692913172384465  0.8622508068802048  0.4221389105727056
  0.1796564291281300  0.7034061265930589  0.5932239418272403
  0.3124350311818276  0.9696973875985577  0.6361001540241844
  0.3287178908052795  0.5987763582982026  0.3994324771823443
  0.5217370133793153  0.8205355308450208  0.3617700072722911
  0.5042577252261395  0.6955722917513043  0.6033580804097980
  0.6640346011036300  0.9327879491931270  0.5913357069401926
  0.6717698604511853  0.5918710905395983  0.3817847122804707
  0.8375632802141340  0.8635381641600262  0.4105758948346434
  0.8296838345426778  0.6894429093511079  0.6104648521374685
  0.4324743222348175  0.9080695670269989  0.4977731608928124
 
  0.00000000E+00  0.00000000E+00  0.00000000E+00
  0.00000000E+00  0.00000000E+00  0.00000000E+00
  0.00000000E+00  0.00000000E+00  0.00000000E+00
  0.00000000E+00  0.00000000E+00  0.00000000E+00
  0.00000000E+00  0.00000000E+00  0.00000000E+00
  0.00000000E+00  0.00000000E+00  0.00000000E+00
  0.00000000E+00  0.00000000E+00  0.00000000E+00
  0.00000000E+00  0.00000000E+00  0.00000000E+00
  0.00000000E+00  0.00000000E+00  0.00000000E+00
  0.00000000E+00  0.00000000E+00  0.00000000E+00
  0.00000000E+00  0.00000000E+00  0.00000000E+00
  0.00000000E+00  0.00000000E+00  0.00000000E+00
  0.00000000E+00  0.00000000E+00  0.00000000E+00
  0.00000000E+00  0.00000000E+00  0.00000000E+00
  0.00000000E+00  0.00000000E+00  0.00000000E+00
  0.00000000E+00  0.00000000E+00  0.00000000E+00
  0.00000000E+00  0.00000000E+00  0.00000000E+00
  0.00000000E+00  0.00000000E+00  0.00000000E+00
  0.00000000E+00  0.00000000E+00  0.00000000E+00
  0.00000000E+00  0.00000000E+00  0.00000000E+00
  0.00000000E+00  0.00000000E+00  0.00000000E+00
  0.00000000E+00  0.00000000E+00  0.00000000E+00
  0.00000000E+00  0.00000000E+00  0.00000000E+00
  0.00000000E+00  0.00000000E+00  0.00000000E+00
  0.00000000E+00  0.00000000E+00  0.00000000E+00
  0.00000000E+00  0.00000000E+00  0.00000000E+00
  0.00000000E+00  0.00000000E+00  0.00000000E+00
  0.00000000E+00  0.00000000E+00  0.00000000E+00
  0.00000000E+00  0.00000000E+00  0.00000000E+00
  0.00000000E+00  0.00000000E+00  0.00000000E+00
  0.00000000E+00  0.00000000E+00  0.00000000E+00
  0.00000000E+00  0.00000000E+00  0.00000000E+00
  0.00000000E+00  0.00000000E+00  0.00000000E+00
  0.00000000E+00  0.00000000E+00  0.00000000E+00
  0.00000000E+00  0.00000000E+00  0.00000000E+00
  0.00000000E+00  0.00000000E+00  0.00000000E+00
  0.00000000E+00  0.00000000E+00  0.00000000E+00
