Repeated-UnitCell:     2    2    1      
   1.00000000000000     
     8.2024326324000008    0.0000000000000000    0.0000000000000000
     4.1012158822000000    7.1035262952000000    0.0000000000000000
     0.0000000000000000    0.0000000000000000   24.8090591431000007
   Mn   In   Se
     4     8    15
Direct
  0.3326610983180156  0.3326609153180111  0.3277046536048374
  0.8346792413639741  0.3326609153180111  0.3277046536048374
  0.3326611143180169  0.8346791373639726  0.3277046536048374
  0.8333338480000023  0.8333336700000018  0.3277540410961129
  0.0003188269343833  0.0003188269343833  0.4874760365080086
  0.4993622301312307  0.0003188269343833  0.4874760365080086
  0.0003188399343809  0.4993621991312317  0.4874760365080086
  0.4999999260000010  0.4999998529999985  0.4876840060507373
  0.1666662499999987  0.1666663549999967  0.6563081209937508
  0.6381807303679067  0.2236373942641805  0.6561308247875784
  0.2236373132641845  0.6381808393679050  0.6561308247875784
  0.6381807543679087  0.6381808393679050  0.6561308247875784
 -0.0001894016701917 -0.0001894016701917  0.2970258266271453
  0.5003792683403828 -0.0001894016701917  0.2970258266271453
 -0.0001894046701884  0.5003793273403842  0.2970258266271453
  0.5000004620000027  0.5000005240000007  0.2987538305629005
 -0.0045441907840372 -0.0045441907840372  0.6942923367903315
  0.5090880905680752 -0.0045441907840372  0.6942923367903315
 -0.0045441977840342  0.5090881005680761  0.6942923367903315
  0.3326676371410202  0.3326676561410182  0.4295568405020599
  0.8346645087179594  0.3326676561410182  0.4295568405020599
  0.3326676461410174  0.8346644477179579  0.4295568405020599
  0.8333332699999971  0.8333331999999984  0.4296223871559630
  0.1666666059999997  0.1666665730000005  0.5493936493167653
  0.6664943902741857  0.1670110044516288  0.5482207871212901
  0.1670110704516272  0.6664943442741890  0.5482207871212901
  0.6664944232741847  0.6664943442741890  0.5482207871212901
 
  0.00000000E+00  0.00000000E+00  0.00000000E+00
  0.00000000E+00  0.00000000E+00  0.00000000E+00
  0.00000000E+00  0.00000000E+00  0.00000000E+00
  0.00000000E+00  0.00000000E+00  0.00000000E+00
  0.00000000E+00  0.00000000E+00  0.00000000E+00
  0.00000000E+00  0.00000000E+00  0.00000000E+00
  0.00000000E+00  0.00000000E+00  0.00000000E+00
  0.00000000E+00  0.00000000E+00  0.00000000E+00
  0.00000000E+00  0.00000000E+00  0.00000000E+00
  0.00000000E+00  0.00000000E+00  0.00000000E+00
  0.00000000E+00  0.00000000E+00  0.00000000E+00
  0.00000000E+00  0.00000000E+00  0.00000000E+00
  0.00000000E+00  0.00000000E+00  0.00000000E+00
  0.00000000E+00  0.00000000E+00  0.00000000E+00
  0.00000000E+00  0.00000000E+00  0.00000000E+00
  0.00000000E+00  0.00000000E+00  0.00000000E+00
  0.00000000E+00  0.00000000E+00  0.00000000E+00
  0.00000000E+00  0.00000000E+00  0.00000000E+00
  0.00000000E+00  0.00000000E+00  0.00000000E+00
  0.00000000E+00  0.00000000E+00  0.00000000E+00
  0.00000000E+00  0.00000000E+00  0.00000000E+00
  0.00000000E+00  0.00000000E+00  0.00000000E+00
  0.00000000E+00  0.00000000E+00  0.00000000E+00
  0.00000000E+00  0.00000000E+00  0.00000000E+00
  0.00000000E+00  0.00000000E+00  0.00000000E+00
  0.00000000E+00  0.00000000E+00  0.00000000E+00
  0.00000000E+00  0.00000000E+00  0.00000000E+00
