 Hf1 Fe1 Cl6                            
   1.00000000000000     
     5.9580041551674734    0.0000000000000000    0.0000000000000000
    -2.9790030331790920    5.1747278065175930    0.0000000000000000
     0.0000000000000000    0.0000000000000000   17.8166613786000028
   Hf   Fe   Cl
     1     1     6
Direct
  0.3349021462526593  0.6667510218996969  0.5001397107631376
 -0.0009439305981654 -0.0005774590318963  0.4999801571932131
  0.3098802189670610  0.9939808279881645  0.5781471595748974
  0.6839554286281799  0.6898350382470474  0.5789273602141177
  0.0040505821227949  0.3165677154054824  0.5777941801312843
  0.3109034033524274  0.3164287281490160  0.4218012464132425
  0.0069413018585449  0.6902131955457556  0.4217890349087200
  0.6836398494165281  0.9934719317967086  0.4214211508014472
 
  0.00000000E+00  0.00000000E+00  0.00000000E+00
  0.00000000E+00  0.00000000E+00  0.00000000E+00
  0.00000000E+00  0.00000000E+00  0.00000000E+00
  0.00000000E+00  0.00000000E+00  0.00000000E+00
  0.00000000E+00  0.00000000E+00  0.00000000E+00
  0.00000000E+00  0.00000000E+00  0.00000000E+00
  0.00000000E+00  0.00000000E+00  0.00000000E+00
  0.00000000E+00  0.00000000E+00  0.00000000E+00
