CONTCAR\(2)                             
   1.00000000000000     
    16.2672996521000002    0.0000000000000000    0.0000000000000000
     2.6171829271000000   16.2219330010999983    0.0000000000000000
     0.0000000000000000    0.0000000000000000   16.8505992888999998
   Ag   H    O 
    18    18    37
Selective dynamics
Direct
  0.1845041244157670  0.1242039420832413  0.5449592547685640   F   F   F
  0.0223763505526122  0.3039600535870406  0.5189186527636522   F   F   F
  0.5156294900642351  0.1302125133434160  0.5244855438161906   F   F   F
  0.3557146551299439  0.2810864080911273  0.5706188399224672   F   F   F
  0.8660107788619840  0.1284216661544093  0.5084358374654272   F   F   F
  0.6920390624791608  0.2904128771173831  0.5360047910784331   F   F   F
  0.1895248078105993  0.4712942137063294  0.5457119016417380   F   F   F
  0.0166660612608140  0.6289100060381969  0.5276712021797749   F   F   F
  0.5296226066734846  0.4613357701072687  0.5443230606706351   F   F   F
  0.3653308334492635  0.6337535194162101  0.5367192533754093   F   F   F
  0.8506135897288800  0.4688300957798361  0.5450581362723810   F   F   F
  0.6971258607852349  0.6249952646080956  0.5499077695269818   F   F   F
  0.1840275301223286  0.7985798381273881  0.5623874829996183   F   F   F
  0.0225686200353010  0.9525249405270628  0.5533933054635085   F   F   F
  0.5398087891355559  0.7998748329948100  0.4973660056175717   F   F   F
  0.3599182675893644  0.9613198924850650  0.5297546007801159   F   F   F
  0.8437068516852335  0.7918303759522587  0.4962246078980286   F   F   F
  0.6841193216154835  0.9759824889700326  0.4656793177793119   F   F   F
  0.1787406475642754  0.2828611159067762  0.5471710912355050   F   F   F
  0.2005952079801574  0.9703767918424830  0.5001926555329703   F   F   F
  0.5089646537102936  0.2598438692155511  0.6077968120942359   F   F   F
  0.5500359107861357  0.0508326396373704  0.3881681930155025   F   F   F
  0.8477365906105163  0.2897242473777766  0.5150929346889086   F   F   F
  0.9351126880093972  0.0001643452989839  0.4278009190489627   F   F   F
  0.1764487115950644  0.6294745371782042  0.5380209244557079   F   F   F
  0.2481277553076424  0.3424816813258644  0.4651390572740937   F   F   F
  0.5256764295683070  0.6158224976291820  0.5317757866337089   F   F   F
  0.5312299227296080  0.3125992079560191  0.4973396231131986   F   F   F
  0.8425817322546436  0.6134942687138505  0.5940258192070473   F   F   F
  0.8986840545517651  0.3687283308758040  0.4256180324672556   F   F   F
  0.1648051198726250  0.9415962618684546  0.6156992794259679   F   F   F
  0.2378862459609792  0.6975370941726453  0.4481717070408280   F   F   F
  0.5106785762331469  0.9613871345120870  0.4813703323318990   F   F   F
  0.5995490855714678  0.6607941342824759  0.4312933487285306   F   F   F
  0.8442865466625520  0.9480067217104562  0.4945349643134378   F   F   F
  0.8670995938232053  0.6313269942245583  0.4637590569561425   F   F   F
  0.1367397389823495  0.2462006605912066  0.5594654190094417   F   F   F
  0.0590882121560199  0.1004404220023787  0.5178106008380681   F   F   F
  0.2291929274041280  0.9963931391652565  0.5417901742331566   F   F   F
  0.3120925253254612  0.1404592602167938  0.5592721204810545   F   F   F
  0.4713082983480774  0.2186364978738311  0.6094591179710136   F   F   F
  0.3645863668998928  0.0921813376216463  0.5108822370448678   F   F   F
  0.5602304268403557  0.0346866889414983  0.4432187039860338   F   F   F
  0.6744865438063954  0.1605853700297999  0.5335901722998742   F   F   F
  0.8167270699797626  0.2478113453583859  0.5396601474504834   F   F   F
  0.7290842977219185  0.1112798686508754  0.4900022379091808   F   F   F
  0.9181082523900344  0.0036964971077822  0.4832548685360223   F   F   F
  0.9961497891412776  0.1601043327947949  0.5322906048210783   F   F   F
  0.1382220248909718  0.5937944254727654  0.5622907106096235   F   F   F
  0.0655543906525224  0.4482279664576865  0.5112742933006302   F   F   F
  0.2426791662744350  0.3468582527834201  0.5226120569012807   F   F   F
  0.3037294363201681  0.5106331736972365  0.5824870204519854   F   F   F
  0.4893292970076146  0.5840890853540301  0.5636139369219890   F   F   F
  0.3683178722103833  0.4459442509374867  0.5833823301157182   F   F   F
  0.5639619225123411  0.3330980460982929  0.5393670283628111   F   F   F
  0.6500695664886180  0.4665212732129902  0.5819727847529848   F   F   F
  0.8047546067839590  0.5754071334929449  0.6103350453310341   F   F   F
  0.7064936478932253  0.4194610671599293  0.5362835891583018   F   F   F
  0.9010479220040324  0.3593887488300354  0.4825988233949872   F   F   F
  0.0052337102838891  0.5014732978486478  0.5464028370908665   F   F   F
  0.1250803157482352  0.9026460182478999  0.6221648690533499   F   F   F
  0.0280461340677434  0.7561867562406945  0.5102100685246427   F   F   F
  0.2416855426526467  0.6900206291336559  0.5054054464166882   F   F   F
  0.3491612603500798  0.8323792259780234  0.5641387769305766   F   F   F
  0.4845509102570773  0.9205400177390359  0.5126976700076895   F   F   F
  0.4087552568399886  0.7715807695205399  0.5477718703521006   F   F   F
  0.5877539050892580  0.6717841560835538  0.4872565777132962   F   F   F
  0.6620983638716567  0.8306974538520748  0.4390879962212253   F   F   F
  0.7983112864823241  0.9142166842415875  0.4999222497512932   F   F   F
  0.7268394116612029  0.7716442599437698  0.4380826198895278   F   F   F
  0.8896112341689886  0.6649714946346137  0.5034271019052383   F   F   F
  0.9655865803579431  0.8072347223921597  0.5435112187051203   F   F   F
  0.4115044479480616  0.4407561574749366  0.5090169459179780   T   T   T
 
  0.00000000E+00  0.00000000E+00  0.00000000E+00
  0.00000000E+00  0.00000000E+00  0.00000000E+00
  0.00000000E+00  0.00000000E+00  0.00000000E+00
  0.00000000E+00  0.00000000E+00  0.00000000E+00
  0.00000000E+00  0.00000000E+00  0.00000000E+00
  0.00000000E+00  0.00000000E+00  0.00000000E+00
  0.00000000E+00  0.00000000E+00  0.00000000E+00
  0.00000000E+00  0.00000000E+00  0.00000000E+00
  0.00000000E+00  0.00000000E+00  0.00000000E+00
  0.00000000E+00  0.00000000E+00  0.00000000E+00
  0.00000000E+00  0.00000000E+00  0.00000000E+00
  0.00000000E+00  0.00000000E+00  0.00000000E+00
  0.00000000E+00  0.00000000E+00  0.00000000E+00
  0.00000000E+00  0.00000000E+00  0.00000000E+00
  0.00000000E+00  0.00000000E+00  0.00000000E+00
  0.00000000E+00  0.00000000E+00  0.00000000E+00
  0.00000000E+00  0.00000000E+00  0.00000000E+00
  0.00000000E+00  0.00000000E+00  0.00000000E+00
  0.00000000E+00  0.00000000E+00  0.00000000E+00
  0.00000000E+00  0.00000000E+00  0.00000000E+00
  0.00000000E+00  0.00000000E+00  0.00000000E+00
  0.00000000E+00  0.00000000E+00  0.00000000E+00
  0.00000000E+00  0.00000000E+00  0.00000000E+00
  0.00000000E+00  0.00000000E+00  0.00000000E+00
  0.00000000E+00  0.00000000E+00  0.00000000E+00
  0.00000000E+00  0.00000000E+00  0.00000000E+00
  0.00000000E+00  0.00000000E+00  0.00000000E+00
  0.00000000E+00  0.00000000E+00  0.00000000E+00
  0.00000000E+00  0.00000000E+00  0.00000000E+00
  0.00000000E+00  0.00000000E+00  0.00000000E+00
  0.00000000E+00  0.00000000E+00  0.00000000E+00
  0.00000000E+00  0.00000000E+00  0.00000000E+00
  0.00000000E+00  0.00000000E+00  0.00000000E+00
  0.00000000E+00  0.00000000E+00  0.00000000E+00
  0.00000000E+00  0.00000000E+00  0.00000000E+00
  0.00000000E+00  0.00000000E+00  0.00000000E+00
  0.00000000E+00  0.00000000E+00  0.00000000E+00
  0.00000000E+00  0.00000000E+00  0.00000000E+00
  0.00000000E+00  0.00000000E+00  0.00000000E+00
  0.00000000E+00  0.00000000E+00  0.00000000E+00
  0.00000000E+00  0.00000000E+00  0.00000000E+00
  0.00000000E+00  0.00000000E+00  0.00000000E+00
  0.00000000E+00  0.00000000E+00  0.00000000E+00
  0.00000000E+00  0.00000000E+00  0.00000000E+00
  0.00000000E+00  0.00000000E+00  0.00000000E+00
  0.00000000E+00  0.00000000E+00  0.00000000E+00
  0.00000000E+00  0.00000000E+00  0.00000000E+00
  0.00000000E+00  0.00000000E+00  0.00000000E+00
  0.00000000E+00  0.00000000E+00  0.00000000E+00
  0.00000000E+00  0.00000000E+00  0.00000000E+00
  0.00000000E+00  0.00000000E+00  0.00000000E+00
  0.00000000E+00  0.00000000E+00  0.00000000E+00
  0.00000000E+00  0.00000000E+00  0.00000000E+00
  0.00000000E+00  0.00000000E+00  0.00000000E+00
  0.00000000E+00  0.00000000E+00  0.00000000E+00
  0.00000000E+00  0.00000000E+00  0.00000000E+00
  0.00000000E+00  0.00000000E+00  0.00000000E+00
  0.00000000E+00  0.00000000E+00  0.00000000E+00
  0.00000000E+00  0.00000000E+00  0.00000000E+00
  0.00000000E+00  0.00000000E+00  0.00000000E+00
  0.00000000E+00  0.00000000E+00  0.00000000E+00
  0.00000000E+00  0.00000000E+00  0.00000000E+00
  0.00000000E+00  0.00000000E+00  0.00000000E+00
  0.00000000E+00  0.00000000E+00  0.00000000E+00
  0.00000000E+00  0.00000000E+00  0.00000000E+00
  0.00000000E+00  0.00000000E+00  0.00000000E+00
  0.00000000E+00  0.00000000E+00  0.00000000E+00
  0.00000000E+00  0.00000000E+00  0.00000000E+00
  0.00000000E+00  0.00000000E+00  0.00000000E+00
  0.00000000E+00  0.00000000E+00  0.00000000E+00
  0.00000000E+00  0.00000000E+00  0.00000000E+00
  0.00000000E+00  0.00000000E+00  0.00000000E+00
  0.00000000E+00  0.00000000E+00  0.00000000E+00
