G   60   14    1    0.005     # Parameters to Generate KPOINTS (Don't Edit This Line)
     248
Reciprocal lattice
    0.000000000000    0.000000000000    0.000000000000       1
    0.016666666667    0.000000000000    0.000000000000       2
    0.033333333333    0.000000000000    0.000000000000       2
    0.050000000000    0.000000000000    0.000000000000       2
    0.066666666667    0.000000000000    0.000000000000       2
    0.083333333333    0.000000000000    0.000000000000       2
    0.100000000000    0.000000000000    0.000000000000       2
    0.116666666667    0.000000000000    0.000000000000       2
    0.133333333333    0.000000000000    0.000000000000       2
    0.150000000000    0.000000000000    0.000000000000       2
    0.166666666667    0.000000000000    0.000000000000       2
    0.183333333333    0.000000000000    0.000000000000       2
    0.200000000000    0.000000000000    0.000000000000       2
    0.216666666667    0.000000000000    0.000000000000       2
    0.233333333333    0.000000000000    0.000000000000       2
    0.250000000000    0.000000000000    0.000000000000       2
    0.266666666667    0.000000000000    0.000000000000       2
    0.283333333333    0.000000000000    0.000000000000       2
    0.300000000000    0.000000000000    0.000000000000       2
    0.316666666667    0.000000000000    0.000000000000       2
    0.333333333333    0.000000000000    0.000000000000       2
    0.350000000000    0.000000000000    0.000000000000       2
    0.366666666667    0.000000000000    0.000000000000       2
    0.383333333333    0.000000000000    0.000000000000       2
    0.400000000000    0.000000000000    0.000000000000       2
    0.416666666667    0.000000000000    0.000000000000       2
    0.433333333333    0.000000000000    0.000000000000       2
    0.450000000000    0.000000000000    0.000000000000       2
    0.466666666667    0.000000000000    0.000000000000       2
    0.483333333333    0.000000000000    0.000000000000       2
    0.500000000000    0.000000000000    0.000000000000       1
    0.000000000000    0.071428571429    0.000000000000       2
    0.016666666667    0.071428571429    0.000000000000       4
    0.033333333333    0.071428571429    0.000000000000       4
    0.050000000000    0.071428571429    0.000000000000       4
    0.066666666667    0.071428571429    0.000000000000       4
    0.083333333333    0.071428571429    0.000000000000       4
    0.100000000000    0.071428571429    0.000000000000       4
    0.116666666667    0.071428571429    0.000000000000       4
    0.133333333333    0.071428571429    0.000000000000       4
    0.150000000000    0.071428571429    0.000000000000       4
    0.166666666667    0.071428571429    0.000000000000       4
    0.183333333333    0.071428571429    0.000000000000       4
    0.200000000000    0.071428571429    0.000000000000       4
    0.216666666667    0.071428571429    0.000000000000       4
    0.233333333333    0.071428571429    0.000000000000       4
    0.250000000000    0.071428571429    0.000000000000       4
    0.266666666667    0.071428571429    0.000000000000       4
    0.283333333333    0.071428571429    0.000000000000       4
    0.300000000000    0.071428571429    0.000000000000       4
    0.316666666667    0.071428571429    0.000000000000       4
    0.333333333333    0.071428571429    0.000000000000       4
    0.350000000000    0.071428571429    0.000000000000       4
    0.366666666667    0.071428571429    0.000000000000       4
    0.383333333333    0.071428571429    0.000000000000       4
    0.400000000000    0.071428571429    0.000000000000       4
    0.416666666667    0.071428571429    0.000000000000       4
    0.433333333333    0.071428571429    0.000000000000       4
    0.450000000000    0.071428571429    0.000000000000       4
    0.466666666667    0.071428571429    0.000000000000       4
    0.483333333333    0.071428571429    0.000000000000       4
    0.500000000000    0.071428571429    0.000000000000       2
    0.000000000000    0.142857142857    0.000000000000       2
    0.016666666667    0.142857142857    0.000000000000       4
    0.033333333333    0.142857142857    0.000000000000       4
    0.050000000000    0.142857142857    0.000000000000       4
    0.066666666667    0.142857142857    0.000000000000       4
    0.083333333333    0.142857142857    0.000000000000       4
    0.100000000000    0.142857142857    0.000000000000       4
    0.116666666667    0.142857142857    0.000000000000       4
    0.133333333333    0.142857142857    0.000000000000       4
    0.150000000000    0.142857142857    0.000000000000       4
    0.166666666667    0.142857142857    0.000000000000       4
    0.183333333333    0.142857142857    0.000000000000       4
    0.200000000000    0.142857142857    0.000000000000       4
    0.216666666667    0.142857142857    0.000000000000       4
    0.233333333333    0.142857142857    0.000000000000       4
    0.250000000000    0.142857142857    0.000000000000       4
    0.266666666667    0.142857142857    0.000000000000       4
    0.283333333333    0.142857142857    0.000000000000       4
    0.300000000000    0.142857142857    0.000000000000       4
    0.316666666667    0.142857142857    0.000000000000       4
    0.333333333333    0.142857142857    0.000000000000       4
    0.350000000000    0.142857142857    0.000000000000       4
    0.366666666667    0.142857142857    0.000000000000       4
    0.383333333333    0.142857142857    0.000000000000       4
    0.400000000000    0.142857142857    0.000000000000       4
    0.416666666667    0.142857142857    0.000000000000       4
    0.433333333333    0.142857142857    0.000000000000       4
    0.450000000000    0.142857142857    0.000000000000       4
    0.466666666667    0.142857142857    0.000000000000       4
    0.483333333333    0.142857142857    0.000000000000       4
    0.500000000000    0.142857142857    0.000000000000       2
    0.000000000000    0.214285714286    0.000000000000       2
    0.016666666667    0.214285714286    0.000000000000       4
    0.033333333333    0.214285714286    0.000000000000       4
    0.050000000000    0.214285714286    0.000000000000       4
    0.066666666667    0.214285714286    0.000000000000       4
    0.083333333333    0.214285714286    0.000000000000       4
    0.100000000000    0.214285714286    0.000000000000       4
    0.116666666667    0.214285714286    0.000000000000       4
    0.133333333333    0.214285714286    0.000000000000       4
    0.150000000000    0.214285714286    0.000000000000       4
    0.166666666667    0.214285714286    0.000000000000       4
    0.183333333333    0.214285714286    0.000000000000       4
    0.200000000000    0.214285714286    0.000000000000       4
    0.216666666667    0.214285714286    0.000000000000       4
    0.233333333333    0.214285714286    0.000000000000       4
    0.250000000000    0.214285714286    0.000000000000       4
    0.266666666667    0.214285714286    0.000000000000       4
    0.283333333333    0.214285714286    0.000000000000       4
    0.300000000000    0.214285714286    0.000000000000       4
    0.316666666667    0.214285714286    0.000000000000       4
    0.333333333333    0.214285714286    0.000000000000       4
    0.350000000000    0.214285714286    0.000000000000       4
    0.366666666667    0.214285714286    0.000000000000       4
    0.383333333333    0.214285714286    0.000000000000       4
    0.400000000000    0.214285714286    0.000000000000       4
    0.416666666667    0.214285714286    0.000000000000       4
    0.433333333333    0.214285714286    0.000000000000       4
    0.450000000000    0.214285714286    0.000000000000       4
    0.466666666667    0.214285714286    0.000000000000       4
    0.483333333333    0.214285714286    0.000000000000       4
    0.500000000000    0.214285714286    0.000000000000       2
    0.000000000000    0.285714285714    0.000000000000       2
    0.016666666667    0.285714285714    0.000000000000       4
    0.033333333333    0.285714285714    0.000000000000       4
    0.050000000000    0.285714285714    0.000000000000       4
    0.066666666667    0.285714285714    0.000000000000       4
    0.083333333333    0.285714285714    0.000000000000       4
    0.100000000000    0.285714285714    0.000000000000       4
    0.116666666667    0.285714285714    0.000000000000       4
    0.133333333333    0.285714285714    0.000000000000       4
    0.150000000000    0.285714285714    0.000000000000       4
    0.166666666667    0.285714285714    0.000000000000       4
    0.183333333333    0.285714285714    0.000000000000       4
    0.200000000000    0.285714285714    0.000000000000       4
    0.216666666667    0.285714285714    0.000000000000       4
    0.233333333333    0.285714285714    0.000000000000       4
    0.250000000000    0.285714285714    0.000000000000       4
    0.266666666667    0.285714285714    0.000000000000       4
    0.283333333333    0.285714285714    0.000000000000       4
    0.300000000000    0.285714285714    0.000000000000       4
    0.316666666667    0.285714285714    0.000000000000       4
    0.333333333333    0.285714285714    0.000000000000       4
    0.350000000000    0.285714285714    0.000000000000       4
    0.366666666667    0.285714285714    0.000000000000       4
    0.383333333333    0.285714285714    0.000000000000       4
    0.400000000000    0.285714285714    0.000000000000       4
    0.416666666667    0.285714285714    0.000000000000       4
    0.433333333333    0.285714285714    0.000000000000       4
    0.450000000000    0.285714285714    0.000000000000       4
    0.466666666667    0.285714285714    0.000000000000       4
    0.483333333333    0.285714285714    0.000000000000       4
    0.500000000000    0.285714285714    0.000000000000       2
    0.000000000000    0.357142857143    0.000000000000       2
    0.016666666667    0.357142857143    0.000000000000       4
    0.033333333333    0.357142857143    0.000000000000       4
    0.050000000000    0.357142857143    0.000000000000       4
    0.066666666667    0.357142857143    0.000000000000       4
    0.083333333333    0.357142857143    0.000000000000       4
    0.100000000000    0.357142857143    0.000000000000       4
    0.116666666667    0.357142857143    0.000000000000       4
    0.133333333333    0.357142857143    0.000000000000       4
    0.150000000000    0.357142857143    0.000000000000       4
    0.166666666667    0.357142857143    0.000000000000       4
    0.183333333333    0.357142857143    0.000000000000       4
    0.200000000000    0.357142857143    0.000000000000       4
    0.216666666667    0.357142857143    0.000000000000       4
    0.233333333333    0.357142857143    0.000000000000       4
    0.250000000000    0.357142857143    0.000000000000       4
    0.266666666667    0.357142857143    0.000000000000       4
    0.283333333333    0.357142857143    0.000000000000       4
    0.300000000000    0.357142857143    0.000000000000       4
    0.316666666667    0.357142857143    0.000000000000       4
    0.333333333333    0.357142857143    0.000000000000       4
    0.350000000000    0.357142857143    0.000000000000       4
    0.366666666667    0.357142857143    0.000000000000       4
    0.383333333333    0.357142857143    0.000000000000       4
    0.400000000000    0.357142857143    0.000000000000       4
    0.416666666667    0.357142857143    0.000000000000       4
    0.433333333333    0.357142857143    0.000000000000       4
    0.450000000000    0.357142857143    0.000000000000       4
    0.466666666667    0.357142857143    0.000000000000       4
    0.483333333333    0.357142857143    0.000000000000       4
    0.500000000000    0.357142857143    0.000000000000       2
    0.000000000000    0.428571428571    0.000000000000       2
    0.016666666667    0.428571428571    0.000000000000       4
    0.033333333333    0.428571428571    0.000000000000       4
    0.050000000000    0.428571428571    0.000000000000       4
    0.066666666667    0.428571428571    0.000000000000       4
    0.083333333333    0.428571428571    0.000000000000       4
    0.100000000000    0.428571428571    0.000000000000       4
    0.116666666667    0.428571428571    0.000000000000       4
    0.133333333333    0.428571428571    0.000000000000       4
    0.150000000000    0.428571428571    0.000000000000       4
    0.166666666667    0.428571428571    0.000000000000       4
    0.183333333333    0.428571428571    0.000000000000       4
    0.200000000000    0.428571428571    0.000000000000       4
    0.216666666667    0.428571428571    0.000000000000       4
    0.233333333333    0.428571428571    0.000000000000       4
    0.250000000000    0.428571428571    0.000000000000       4
    0.266666666667    0.428571428571    0.000000000000       4
    0.283333333333    0.428571428571    0.000000000000       4
    0.300000000000    0.428571428571    0.000000000000       4
    0.316666666667    0.428571428571    0.000000000000       4
    0.333333333333    0.428571428571    0.000000000000       4
    0.350000000000    0.428571428571    0.000000000000       4
    0.366666666667    0.428571428571    0.000000000000       4
    0.383333333333    0.428571428571    0.000000000000       4
    0.400000000000    0.428571428571    0.000000000000       4
    0.416666666667    0.428571428571    0.000000000000       4
    0.433333333333    0.428571428571    0.000000000000       4
    0.450000000000    0.428571428571    0.000000000000       4
    0.466666666667    0.428571428571    0.000000000000       4
    0.483333333333    0.428571428571    0.000000000000       4
    0.500000000000    0.428571428571    0.000000000000       2
    0.000000000000    0.500000000000    0.000000000000       1
    0.016666666667    0.500000000000    0.000000000000       2
    0.033333333333    0.500000000000    0.000000000000       2
    0.050000000000    0.500000000000    0.000000000000       2
    0.066666666667    0.500000000000    0.000000000000       2
    0.083333333333    0.500000000000    0.000000000000       2
    0.100000000000    0.500000000000    0.000000000000       2
    0.116666666667    0.500000000000    0.000000000000       2
    0.133333333333    0.500000000000    0.000000000000       2
    0.150000000000    0.500000000000    0.000000000000       2
    0.166666666667    0.500000000000    0.000000000000       2
    0.183333333333    0.500000000000    0.000000000000       2
    0.200000000000    0.500000000000    0.000000000000       2
    0.216666666667    0.500000000000    0.000000000000       2
    0.233333333333    0.500000000000    0.000000000000       2
    0.250000000000    0.500000000000    0.000000000000       2
    0.266666666667    0.500000000000    0.000000000000       2
    0.283333333333    0.500000000000    0.000000000000       2
    0.300000000000    0.500000000000    0.000000000000       2
    0.316666666667    0.500000000000    0.000000000000       2
    0.333333333333    0.500000000000    0.000000000000       2
    0.350000000000    0.500000000000    0.000000000000       2
    0.366666666667    0.500000000000    0.000000000000       2
    0.383333333333    0.500000000000    0.000000000000       2
    0.400000000000    0.500000000000    0.000000000000       2
    0.416666666667    0.500000000000    0.000000000000       2
    0.433333333333    0.500000000000    0.000000000000       2
    0.450000000000    0.500000000000    0.000000000000       2
    0.466666666667    0.500000000000    0.000000000000       2
    0.483333333333    0.500000000000    0.000000000000       2
    0.500000000000    0.500000000000    0.000000000000       1
