 Nb4 Ir1 Se10                           
   1.00000000000000     
     6.0090054473385068    0.0000000000000000    0.0000000000000000
     2.7721802978325516    8.6914963577712658    0.0000000000000000
     0.0000000000000000    0.0000000000000000   18.4081236356679980
   Nb   Ir   Se
     4     1    10
Direct
  0.6556620722738391  0.8066497525352890  0.4998948198126744
  0.7435179042161447  0.4096480717018205  0.5011819915871895
  0.0907680061039549  0.0020169171110153  0.4988580328580693
  0.1779769981351754  0.6051682942312486  0.5000368816682825
  0.4172364927940284  0.2056918795184420  0.5000434368363913
  0.3801318341949904  0.0101117858928525  0.5947227329981356
  0.0811419410143313  0.2163941703057095  0.4138213715169337
  0.5311939280167259  0.6114449805605058  0.5893324056968025
  0.3028252029733061  0.8002060278414090  0.4106523636999051
  0.7531979143562845  0.1952036940979416  0.5862509332222869
  0.4542876169741833  0.4014210435435634  0.4053144682431077
  0.9657888603245500  0.8107419541786923  0.5932739731276244
  0.7021335251222133  0.0152075142504344  0.4165995438424875
  0.1323504264441443  0.3965067952793905  0.5833686969286744
  0.8680632770561220  0.6010021189516832  0.4066483479614345
 
  0.00000000E+00  0.00000000E+00  0.00000000E+00
  0.00000000E+00  0.00000000E+00  0.00000000E+00
  0.00000000E+00  0.00000000E+00  0.00000000E+00
  0.00000000E+00  0.00000000E+00  0.00000000E+00
  0.00000000E+00  0.00000000E+00  0.00000000E+00
  0.00000000E+00  0.00000000E+00  0.00000000E+00
  0.00000000E+00  0.00000000E+00  0.00000000E+00
  0.00000000E+00  0.00000000E+00  0.00000000E+00
  0.00000000E+00  0.00000000E+00  0.00000000E+00
  0.00000000E+00  0.00000000E+00  0.00000000E+00
  0.00000000E+00  0.00000000E+00  0.00000000E+00
  0.00000000E+00  0.00000000E+00  0.00000000E+00
  0.00000000E+00  0.00000000E+00  0.00000000E+00
  0.00000000E+00  0.00000000E+00  0.00000000E+00
  0.00000000E+00  0.00000000E+00  0.00000000E+00
