CONTCAR\(2)                             
   1.00000000000000     
    15.1182003021000000    0.0000000000000000    0.0000000000000000
     7.5590774867999997   13.0927586063000003    0.0000000000000000
     0.0000000000000000    0.0000000000000000   18.6788005828999992
   Ni   Te   O    H 
    32    32     1     1
Direct
  0.0860826046644567  0.0770388806829028  0.5367876629469918
  0.0001988775208098 -0.0026815124122411  0.4638807673812617
  0.3357359036680170  0.0784555722542308  0.5369473523208383
  0.2511303318702292 -0.0024531912027497  0.4636141486996032
  0.5858657286330234  0.0775568626963900  0.5373030207683240
  0.5018440265280060 -0.0054927701820874  0.4645290632755643
  0.8342106315841167  0.0787993953590907  0.5369198520740130
  0.7525809780127596 -0.0057454646087376  0.4644802359862079
  0.0849366520185856  0.3280671175164001  0.5375541550467414
  0.0022689972552911  0.2442932633337252  0.4647528476442575
  0.3358613838068820  0.3270047599417448  0.5372648762844113
  0.2513294642512382  0.2451414631241740  0.4648641422653763
  0.5856624058665563  0.3277991920017482  0.5370450320184239
  0.5019226167914570  0.2449916835587516  0.4645328657282485
  0.8359278405200584  0.3280443671606469  0.5373543922802534
  0.7519268378371595  0.2454466406329977  0.4645811725548800
  0.0857754263047872  0.5784420810218424  0.5368459390405357
  0.0023973466458333  0.4950204514888450  0.4646573289134892
  0.3357218143994352  0.5767741460955815  0.5348133146970080
  0.2513386593065230  0.4936818213665917  0.4639319153203335
  0.5839938690217870  0.5788261349232320  0.5364083191800885
  0.5029223172775268  0.4942620797788253  0.4637046206110646
  0.8361440606781504  0.5762760822234042  0.5373382057561255
  0.7509425578243376  0.4947239629553599  0.4645181855867611
  0.0824323784746763  0.8292386399128792  0.5349448814089449
 -0.0001720931090976  0.7443189936921727  0.4639290037846970
  0.3358145987200127  0.8294579480954315  0.5338324280819045
  0.2511021882558195  0.7462480646150629  0.4517274004113737
  0.5857649800734833  0.8276381983978927  0.5369795465420278
  0.5029613141255529  0.7446029516050997  0.4633453107538312
  0.8338501515375826  0.8280445231413517  0.5367782649801399
  0.7518802998845663  0.7435277477126173  0.4646374502884805
  0.0848322296071178  0.0787886428877120  0.3986792654108059
  0.0011353835196214  0.9953507058833856  0.6014010901861979
  0.3356386195081374  0.0794799319062428  0.3990777178480963
  0.2524553118998982  0.9948586129617416  0.6013659207452906
  0.5855814051443846  0.0778333849000724  0.4001400482262256
  0.5023382554433581 -0.0056232049137157  0.6019938364273328
  0.8336450672988328  0.0794273778104468  0.3991200103940477
  0.7522929322138381 -0.0056844003100087  0.6022020504921426
  0.0850073539159380  0.3282352837564173  0.4000670154698653
  0.0025025701119082  0.2438408884039931  0.6022918261215021
  0.3354013599168632  0.3269951383511355  0.3995357969749841
  0.2517564778147550  0.2446807402956189  0.6024156586138569
  0.5858331337510029  0.3274535995429835  0.3993483356505355
  0.5024838512402943  0.2442954009793475  0.6020802087085074
  0.8357657515905259  0.3279628547570598  0.3998672554721574
  0.7520848935468774  0.2451795228770779  0.6021565870036568
  0.0849673939612227  0.5780513705170703  0.3987931722139197
  0.0025836034254352  0.4948974300909327  0.6022681467607799
  0.3368635738277471  0.5742901290240336  0.3979128702574169
  0.2523170135225853  0.4943436068207234  0.6015324348347708
  0.5853063279224077  0.5781406314239262  0.3984148616995121
  0.5017024452728712  0.4948874526690468  0.6014458857189157
  0.8355789935949929  0.5769933515224441  0.4000725315012834
  0.7508031766205362  0.4948958865461500  0.6019853836897923
  0.0791554750796371  0.8311499127513959  0.3980834994621341
  0.0006092690446019  0.7450628942579963  0.6014167958628528
  0.3370900693915409  0.8318711495026848  0.3969623448018089
  0.2508722344570444  0.7462610462229766  0.5886833534016926
  0.5861344020190385  0.8282610379754028  0.3991504491859683
  0.5013232839772264  0.7451924483207945  0.6011987165234788
  0.8334389855940670  0.8279363624775433  0.3990383424617258
  0.7522827274865008  0.7433330159034790  0.6020896228161748
  0.2450690764199775  0.7540274728414598  0.6985816838852980
  0.3098710256095777  0.7472092251592436  0.7146623555451963
 
  0.00000000E+00  0.00000000E+00  0.00000000E+00
  0.00000000E+00  0.00000000E+00  0.00000000E+00
  0.00000000E+00  0.00000000E+00  0.00000000E+00
  0.00000000E+00  0.00000000E+00  0.00000000E+00
  0.00000000E+00  0.00000000E+00  0.00000000E+00
  0.00000000E+00  0.00000000E+00  0.00000000E+00
  0.00000000E+00  0.00000000E+00  0.00000000E+00
  0.00000000E+00  0.00000000E+00  0.00000000E+00
  0.00000000E+00  0.00000000E+00  0.00000000E+00
  0.00000000E+00  0.00000000E+00  0.00000000E+00
  0.00000000E+00  0.00000000E+00  0.00000000E+00
  0.00000000E+00  0.00000000E+00  0.00000000E+00
  0.00000000E+00  0.00000000E+00  0.00000000E+00
  0.00000000E+00  0.00000000E+00  0.00000000E+00
  0.00000000E+00  0.00000000E+00  0.00000000E+00
  0.00000000E+00  0.00000000E+00  0.00000000E+00
  0.00000000E+00  0.00000000E+00  0.00000000E+00
  0.00000000E+00  0.00000000E+00  0.00000000E+00
  0.00000000E+00  0.00000000E+00  0.00000000E+00
  0.00000000E+00  0.00000000E+00  0.00000000E+00
  0.00000000E+00  0.00000000E+00  0.00000000E+00
  0.00000000E+00  0.00000000E+00  0.00000000E+00
  0.00000000E+00  0.00000000E+00  0.00000000E+00
  0.00000000E+00  0.00000000E+00  0.00000000E+00
  0.00000000E+00  0.00000000E+00  0.00000000E+00
  0.00000000E+00  0.00000000E+00  0.00000000E+00
  0.00000000E+00  0.00000000E+00  0.00000000E+00
  0.00000000E+00  0.00000000E+00  0.00000000E+00
  0.00000000E+00  0.00000000E+00  0.00000000E+00
  0.00000000E+00  0.00000000E+00  0.00000000E+00
  0.00000000E+00  0.00000000E+00  0.00000000E+00
  0.00000000E+00  0.00000000E+00  0.00000000E+00
  0.00000000E+00  0.00000000E+00  0.00000000E+00
  0.00000000E+00  0.00000000E+00  0.00000000E+00
  0.00000000E+00  0.00000000E+00  0.00000000E+00
  0.00000000E+00  0.00000000E+00  0.00000000E+00
  0.00000000E+00  0.00000000E+00  0.00000000E+00
  0.00000000E+00  0.00000000E+00  0.00000000E+00
  0.00000000E+00  0.00000000E+00  0.00000000E+00
  0.00000000E+00  0.00000000E+00  0.00000000E+00
  0.00000000E+00  0.00000000E+00  0.00000000E+00
  0.00000000E+00  0.00000000E+00  0.00000000E+00
  0.00000000E+00  0.00000000E+00  0.00000000E+00
  0.00000000E+00  0.00000000E+00  0.00000000E+00
  0.00000000E+00  0.00000000E+00  0.00000000E+00
  0.00000000E+00  0.00000000E+00  0.00000000E+00
  0.00000000E+00  0.00000000E+00  0.00000000E+00
  0.00000000E+00  0.00000000E+00  0.00000000E+00
  0.00000000E+00  0.00000000E+00  0.00000000E+00
  0.00000000E+00  0.00000000E+00  0.00000000E+00
  0.00000000E+00  0.00000000E+00  0.00000000E+00
  0.00000000E+00  0.00000000E+00  0.00000000E+00
  0.00000000E+00  0.00000000E+00  0.00000000E+00
  0.00000000E+00  0.00000000E+00  0.00000000E+00
  0.00000000E+00  0.00000000E+00  0.00000000E+00
  0.00000000E+00  0.00000000E+00  0.00000000E+00
  0.00000000E+00  0.00000000E+00  0.00000000E+00
  0.00000000E+00  0.00000000E+00  0.00000000E+00
  0.00000000E+00  0.00000000E+00  0.00000000E+00
  0.00000000E+00  0.00000000E+00  0.00000000E+00
  0.00000000E+00  0.00000000E+00  0.00000000E+00
  0.00000000E+00  0.00000000E+00  0.00000000E+00
  0.00000000E+00  0.00000000E+00  0.00000000E+00
  0.00000000E+00  0.00000000E+00  0.00000000E+00
  0.00000000E+00  0.00000000E+00  0.00000000E+00
  0.00000000E+00  0.00000000E+00  0.00000000E+00
