CONTCAR\(6)                             
   1.00000000000000     
    14.1683998108000004    0.0000000000000000    0.0000000000000000
     0.0000000000000000   20.5298995972000000    0.0000000000000000
     0.0000000000000000    0.0000000000000000   19.1021003723000007
   Nb   Te
    32    48
Direct
  0.0625199950000024  0.1357390537497594  0.5487697900984827
  0.1875199910000021  0.0755019626600273  0.4512656931366124
  0.0625199950000024  0.2938621669472283  0.4986289535905470
  0.1875199910000021  0.4174553299998536  0.5013565305854328
  0.3125200079999999  0.1357390537497594  0.5487697900984827
  0.4375200079999999  0.0755019626600273  0.4512656931366124
  0.3125200079999999  0.2938621669472283  0.4986289535905470
  0.4375200079999999  0.4174553299998536  0.5013565305854328
  0.5625200420000027  0.1357390537497594  0.5487697900984827
  0.6875200079999999  0.0755019626600273  0.4512656931366124
  0.5625200420000027  0.2938621669472283  0.4986289535905470
  0.6875200079999999  0.4174553299998536  0.5013565305854328
  0.8125200420000027  0.1357390537497594  0.5487697900984827
  0.9375200079999999  0.0755019626600273  0.4512656931366124
  0.8125200420000027  0.2938621669472283  0.4986289535905470
  0.9375200079999999  0.4174553299998536  0.5013565305854328
  0.0625199950000024  0.6357390537497594  0.5487697900984827
  0.1875199910000021  0.5755019736600246  0.4512656931366124
  0.0625199950000024  0.7938622129472250  0.4986289535905470
  0.1875199910000021  0.9174552829998532  0.5013565305854328
  0.3125200079999999  0.6357390537497594  0.5487697900984827
  0.4375200079999999  0.5755019736600246  0.4512656931366124
  0.3125200079999999  0.7938622129472250  0.4986289535905470
  0.4375200079999999  0.9174552829998532  0.5013565305854328
  0.5625200420000027  0.6357390537497594  0.5487697900984827
  0.6875200079999999  0.5755019736600246  0.4512656931366124
  0.5625200420000027  0.7938622129472250  0.4986289535905470
  0.6875200079999999  0.9174552829998532  0.5013565305854328
  0.8125200420000027  0.6357390537497594  0.5487697900984827
  0.9375200079999999  0.5755019736600246  0.4512656931366124
  0.8125200420000027  0.7938622129472250  0.4986289535905470
  0.9375200079999999  0.9174552829998532  0.5013565305854328
  0.1875199910000021  0.3284391891072502  0.3925155654537349
  0.0625199950000024  0.1738566430855286  0.4095261738348768
  0.1875199910000021  0.2318079241244391  0.5995247945260189
  0.0625199950000024  0.4794846285095389  0.4004319136733585
  0.0625199950000024  0.3828669116705683  0.6074691735312143
  0.1875199910000021  0.0374062801458095  0.5905212955697081
  0.4375200079999999  0.3284391891072502  0.3925155654537349
  0.3125200079999999  0.1738566430855286  0.4095261738348768
  0.4375200079999999  0.2318079241244391  0.5995247945260189
  0.3125200079999999  0.4794846285095389  0.4004319136733585
  0.3125200079999999  0.3828669116705683  0.6074691735312143
  0.4375200079999999  0.0374062801458095  0.5905212955697081
  0.6875200079999999  0.3284391891072502  0.3925155654537349
  0.5625200420000027  0.1738566430855286  0.4095261738348768
  0.6875200079999999  0.2318079241244391  0.5995247945260189
  0.5625200420000027  0.4794846285095389  0.4004319136733585
  0.5625200420000027  0.3828669116705683  0.6074691735312143
  0.6875200079999999  0.0374062801458095  0.5905212955697081
  0.9375200079999999  0.3284391891072502  0.3925155654537349
  0.8125200420000027  0.1738566430855286  0.4095261738348768
  0.9375200079999999  0.2318079241244391  0.5995247945260189
  0.8125200420000027  0.4794846285095389  0.4004319136733585
  0.8125200420000027  0.3828669116705683  0.6074691735312143
  0.9375200079999999  0.0374062801458095  0.5905212955697081
  0.1875199910000021  0.8284391891072502  0.3925155654537349
  0.0625199950000024  0.6738566200855303  0.4095261738348768
  0.1875199910000021  0.7318078781244424  0.5995247945260189
  0.0625199950000024  0.9794846285095389  0.4004319136733585
  0.0625199950000024  0.8828669346705666  0.6074691735312143
  0.1875199910000021  0.5374062541458073  0.5905212955697081
  0.4375200079999999  0.8284391891072502  0.3925155654537349
  0.3125200079999999  0.6738566200855303  0.4095261738348768
  0.4375200079999999  0.7318078781244424  0.5995247945260189
  0.3125200079999999  0.9794846285095389  0.4004319136733585
  0.3125200079999999  0.8828669346705666  0.6074691735312143
  0.4375200079999999  0.5374062541458073  0.5905212955697081
  0.6875200079999999  0.8284391891072502  0.3925155654537349
  0.5625200420000027  0.6738566200855303  0.4095261738348768
  0.6875200079999999  0.7318078781244424  0.5995247945260189
  0.5625200420000027  0.9794846285095389  0.4004319136733585
  0.5625200420000027  0.8828669346705666  0.6074691735312143
  0.6875200079999999  0.5374062541458073  0.5905212955697081
  0.9375200079999999  0.8284391891072502  0.3925155654537349
  0.8125200420000027  0.6738566200855303  0.4095261738348768
  0.9375200079999999  0.7318078781244424  0.5995247945260189
  0.8125200420000027  0.9794846285095389  0.4004319136733585
  0.8125200420000027  0.8828669346705666  0.6074691735312143
  0.9375200079999999  0.5374062541458073  0.5905212955697081
 
  0.00000000E+00  0.00000000E+00  0.00000000E+00
  0.00000000E+00  0.00000000E+00  0.00000000E+00
  0.00000000E+00  0.00000000E+00  0.00000000E+00
  0.00000000E+00  0.00000000E+00  0.00000000E+00
  0.00000000E+00  0.00000000E+00  0.00000000E+00
  0.00000000E+00  0.00000000E+00  0.00000000E+00
  0.00000000E+00  0.00000000E+00  0.00000000E+00
  0.00000000E+00  0.00000000E+00  0.00000000E+00
  0.00000000E+00  0.00000000E+00  0.00000000E+00
  0.00000000E+00  0.00000000E+00  0.00000000E+00
  0.00000000E+00  0.00000000E+00  0.00000000E+00
  0.00000000E+00  0.00000000E+00  0.00000000E+00
  0.00000000E+00  0.00000000E+00  0.00000000E+00
  0.00000000E+00  0.00000000E+00  0.00000000E+00
  0.00000000E+00  0.00000000E+00  0.00000000E+00
  0.00000000E+00  0.00000000E+00  0.00000000E+00
  0.00000000E+00  0.00000000E+00  0.00000000E+00
  0.00000000E+00  0.00000000E+00  0.00000000E+00
  0.00000000E+00  0.00000000E+00  0.00000000E+00
  0.00000000E+00  0.00000000E+00  0.00000000E+00
  0.00000000E+00  0.00000000E+00  0.00000000E+00
  0.00000000E+00  0.00000000E+00  0.00000000E+00
  0.00000000E+00  0.00000000E+00  0.00000000E+00
  0.00000000E+00  0.00000000E+00  0.00000000E+00
  0.00000000E+00  0.00000000E+00  0.00000000E+00
  0.00000000E+00  0.00000000E+00  0.00000000E+00
  0.00000000E+00  0.00000000E+00  0.00000000E+00
  0.00000000E+00  0.00000000E+00  0.00000000E+00
  0.00000000E+00  0.00000000E+00  0.00000000E+00
  0.00000000E+00  0.00000000E+00  0.00000000E+00
  0.00000000E+00  0.00000000E+00  0.00000000E+00
  0.00000000E+00  0.00000000E+00  0.00000000E+00
  0.00000000E+00  0.00000000E+00  0.00000000E+00
  0.00000000E+00  0.00000000E+00  0.00000000E+00
  0.00000000E+00  0.00000000E+00  0.00000000E+00
  0.00000000E+00  0.00000000E+00  0.00000000E+00
  0.00000000E+00  0.00000000E+00  0.00000000E+00
  0.00000000E+00  0.00000000E+00  0.00000000E+00
  0.00000000E+00  0.00000000E+00  0.00000000E+00
  0.00000000E+00  0.00000000E+00  0.00000000E+00
  0.00000000E+00  0.00000000E+00  0.00000000E+00
  0.00000000E+00  0.00000000E+00  0.00000000E+00
  0.00000000E+00  0.00000000E+00  0.00000000E+00
  0.00000000E+00  0.00000000E+00  0.00000000E+00
  0.00000000E+00  0.00000000E+00  0.00000000E+00
  0.00000000E+00  0.00000000E+00  0.00000000E+00
  0.00000000E+00  0.00000000E+00  0.00000000E+00
  0.00000000E+00  0.00000000E+00  0.00000000E+00
  0.00000000E+00  0.00000000E+00  0.00000000E+00
  0.00000000E+00  0.00000000E+00  0.00000000E+00
  0.00000000E+00  0.00000000E+00  0.00000000E+00
  0.00000000E+00  0.00000000E+00  0.00000000E+00
  0.00000000E+00  0.00000000E+00  0.00000000E+00
  0.00000000E+00  0.00000000E+00  0.00000000E+00
  0.00000000E+00  0.00000000E+00  0.00000000E+00
  0.00000000E+00  0.00000000E+00  0.00000000E+00
  0.00000000E+00  0.00000000E+00  0.00000000E+00
  0.00000000E+00  0.00000000E+00  0.00000000E+00
  0.00000000E+00  0.00000000E+00  0.00000000E+00
  0.00000000E+00  0.00000000E+00  0.00000000E+00
  0.00000000E+00  0.00000000E+00  0.00000000E+00
  0.00000000E+00  0.00000000E+00  0.00000000E+00
  0.00000000E+00  0.00000000E+00  0.00000000E+00
  0.00000000E+00  0.00000000E+00  0.00000000E+00
  0.00000000E+00  0.00000000E+00  0.00000000E+00
  0.00000000E+00  0.00000000E+00  0.00000000E+00
  0.00000000E+00  0.00000000E+00  0.00000000E+00
  0.00000000E+00  0.00000000E+00  0.00000000E+00
  0.00000000E+00  0.00000000E+00  0.00000000E+00
  0.00000000E+00  0.00000000E+00  0.00000000E+00
  0.00000000E+00  0.00000000E+00  0.00000000E+00
  0.00000000E+00  0.00000000E+00  0.00000000E+00
  0.00000000E+00  0.00000000E+00  0.00000000E+00
  0.00000000E+00  0.00000000E+00  0.00000000E+00
  0.00000000E+00  0.00000000E+00  0.00000000E+00
  0.00000000E+00  0.00000000E+00  0.00000000E+00
  0.00000000E+00  0.00000000E+00  0.00000000E+00
  0.00000000E+00  0.00000000E+00  0.00000000E+00
  0.00000000E+00  0.00000000E+00  0.00000000E+00
  0.00000000E+00  0.00000000E+00  0.00000000E+00
