CONTCAR\(3)                             
   1.00000000000000     
    13.2069997787000002    0.0000000000000000    0.0000000000000000
     0.0000000000000000   13.2070999146000005    0.0000000000000000
     0.0000000000000000    0.0000000000000000   33.6773986816000033
   Nd   Te   O    H 
    36    90     2     1
Direct
  0.1660653681206554  0.0000622355464799  0.4240608081226753
  0.9993442592163717  0.1670400500302947  0.5753541249850755
  0.1651055903723417  0.9999519847290728  0.7006337045274051
  0.9996788112368264  0.1669643657828885  0.2987087238892983
  0.4993673980064344  0.0002191147226256  0.4240418410966242
  0.3324402342254658  0.1670566949830814  0.5753900130443981
  0.4983703157962154  0.0007877555638416  0.7007638163627732
  0.3329745317123383  0.1667706899771630  0.2987989405006957
  0.8328499530436488  0.0001486760710065  0.4240635508791399
  0.6661470994493612  0.1670325503544490  0.5753855512897275
  0.8319203978344945  0.0004700077727477  0.7007044557684452
  0.6664527113263148  0.1667389696169721  0.2988088953337069
  0.1663017342826691  0.3334132766372591  0.4238972134051195
  0.9993724245903906  0.5003278369998370  0.5753895176284445
  0.1663849993218918  0.3332741069040068  0.7007036929933506
  0.9990010893301218  0.5003742125292305  0.2985422519234433
  0.4995157219982858  0.3334046404016462  0.4240715745879839
  0.3326722038499241  0.5001813618143345  0.5753107513562981
  0.4997603782339866  0.3338775910791512  0.7004299574774961
  0.3324268404855033  0.5000473718723555  0.2987443173691418
  0.8328881821393850  0.3334092288584785  0.4239519007936252
  0.6661653304775541  0.5002255345776021  0.5753423109479385
  0.8327810540933172  0.3337473303055702  0.7008119887986624
  0.6658000560239898  0.5000148817565631  0.2987339828875761
  0.1663356371906559  0.6667883470319325  0.4239179104200090
  0.9994392633625111  0.8335694437151560  0.5753502278891460
  0.1658335286448107  0.6666404636389274  0.7006427081972149
  0.9995931881428177  0.8335704890878617  0.2987148238559882
  0.4995622656937186  0.6668037184030595  0.4240856682983178
  0.3325067591562743  0.8336532207108505  0.5754042673666575
  0.4995007002712555  0.6679350728180964  0.7003812702587950
  0.3329345319946881  0.8333010188784513  0.2988008355826679
  0.8328169304818971  0.6668930646727276  0.4239457511599980
  0.6660928222626410  0.8336892668652069  0.5753136785455126
  0.8322302019638599  0.6670590918820665  0.7006909523599063
  0.6664171227515396  0.8332865114798977  0.2988212758113278
  0.1663000390958516  0.0000658039405366  0.3279035451418792
  0.9990114534398771  0.1671785303549598  0.6715518381513021
  0.1659078424406815  0.0004243035505525  0.6020023839725610
  0.9996043550184197  0.1666881342693927  0.3973630870126499
  0.1660166613951475  0.1657378628690793  0.7755810821131064
  0.9984711781839550  0.0006162939916550  0.2236840543141270
  0.1668352055212026  0.1665192981899537  0.2237792358094524
  0.9973218714916072  0.0019954928614254  0.7757487493527080
  0.1659047089907446  0.1667820518992258  0.4997028845703895
  0.9995539925436034  0.0001771329732492  0.4997838347881327
  0.4995890728205765  0.0001103462580829  0.3278054920148321
  0.3324312755574468  0.1669675881745150  0.6715490338631298
  0.4992259406968742  0.0003802609515091  0.6019414589053156
  0.3327383563779946  0.1667344699261690  0.3974343781180707
  0.4991773693866151  0.1686832075040385  0.7757720036394176
  0.3315898390741978  0.0000040795903047  0.2237047908371963
  0.5000499520586459  0.1673553267400791  0.2237920963628426
  0.3303872313225753  0.0004178220165016  0.7758533566104830
  0.4993710539835376  0.1668296280962878  0.4997054896545379
  0.3324852190913958  0.0001674570090842  0.4997498200490469
  0.8329532982902421  0.0001281073596786  0.3279232189970571
  0.6657296875423384  0.1669236092212500  0.6715559841638807
  0.8326856596655858  0.0003848370566217  0.6020172904176917
  0.6661050169318870  0.1667028354275502  0.3975091539978379
  0.8324553322810715  0.1673750068873048  0.7757633081131132
  0.6649435387205287  0.9998137305405805  0.2238299294475325
  0.8333833694446682  0.1666215336574410  0.2237804644311225
  0.6636722560909902  0.9989552130520352  0.7757573777454496
  0.8329448783672007  0.1668340958861947  0.4996885535294666
  0.6662226468246146  0.0002936459767824  0.4996741267268234
  0.1658709826427511  0.3336825476333019  0.3277203502557668
  0.9991462885847611  0.5003076499944683  0.6715803595479315
  0.1658281533989481  0.3338248880768973  0.6019641621566620
  0.9995228270179553  0.5001338969451936  0.3972478490644917
  0.1638085110525438  0.4992067361829271  0.7756969558958318
  0.9999056899612455  0.3342005915930741  0.2235611541215832
  0.1649854158383803  0.4998785857299382  0.2235761047989158
  0.0006670106360076  0.3353563656931797  0.7757701415978673
  0.1663341183544418  0.5001403837159799  0.4995034416332871
  0.9995137462803427  0.3335445803723829  0.4995478237240150
  0.4994404758202862  0.3334183863223004  0.3279160943450137
  0.3326277316538793  0.5003730466537704  0.6714445327976719
  0.4993176375784927  0.3335376155477974  0.6019036285882748
  0.3331049383554401  0.5000727507360452  0.3973487833251426
  0.4972564964620574  0.5025358046087263  0.7755110699501557
  0.3332431681665682  0.3332159952661158  0.2237917682858779
  0.4984923793809770  0.5006509161849166  0.2237003876478099
  0.3346008197636223  0.3343036057775777  0.7755630239951259
  0.4996285911800626  0.5001369162093425  0.4997872729905239
  0.3329691290024286  0.3335618967475398  0.4996509939050000
  0.8329963075282123  0.3336141597020870  0.3277766806804649
  0.6658228717406729  0.5002965651653781  0.6714757088236709
  0.8327708080817686  0.3337813959884812  0.6020095858549155
  0.6661929765430301  0.5000859125811559  0.3973856012785433
  0.8298868616856083  0.5006327041756791  0.7758636601520550
  0.6666189611599904  0.3330582179704180  0.2237943448780229
  0.8315212376707279  0.4999930131708723  0.2234847918205958
  0.6668697527937368  0.3326447391695950  0.7759168572886921
  0.8327679208656917  0.5002388836435117  0.4995886837288595
  0.6660137876882075  0.3336160357698787  0.4997182189009521
  0.1659249186385736  0.6665998529460069  0.3277457828615340
  0.9990133530581033  0.8335558435168693  0.6715176936390534
  0.1658909399106605  0.6668929778147472  0.6019310223771228
  0.9995964146663141  0.8334627265753340  0.3973578615628881
  0.1672897266373710  0.8325126179093942  0.7757115907462975
  0.0000562127558226  0.6674533052181104  0.2235340206871754
  0.1666713544549623  0.8330630164018373  0.2237836107832223
  0.9989529829582438  0.6687403319652532  0.7757346189338250
  0.1658849713159185  0.8335455709303403  0.4997240976727539
  0.9994962515615669  0.6667485702312064  0.4995405953973275
  0.4994289261715039  0.6667737815408898  0.3279234063537757
  0.3324560580631157  0.8340254974690211  0.6715467284460530
  0.4993279331949694  0.6670160963209923  0.6018851781662278
  0.3329646915657136  0.8335910337856376  0.3974947849782566
  0.5008151299677408  0.8349667516086043  0.7757766695364197
  0.3334737648503534  0.6666607215938853  0.2237868944866079
  0.4998718818283265  0.8343169477957559  0.2238310076212144
  0.3327264411722126  0.6673857982670484  0.7752045080707077
  0.4994002106418307  0.8335866193947226  0.4996812551711329
  0.3329439708387696  0.6667675283022305  0.4996719404275396
  0.8329694145728510  0.6666593209373275  0.3277704989518142
  0.6657954139819537  0.8340357458882366  0.6714649789121339
  0.8327462806366484  0.6668877250488379  0.6019588796839273
  0.6661082970380789  0.8336292656271311  0.3975017694826875
  0.8339940249026299  0.8338695030587999  0.7755876864182625
  0.6667922887377458  0.6665922932252784  0.2237748901605130
  0.8331772108036830  0.8332330729863315  0.2237760584731774
  0.6656551814259828  0.6655282737228703  0.7756303656983121
  0.8330276457236110  0.8335632994661566  0.4996783371743945
  0.6660673872727330  0.6668407774583258  0.4997035920292348
  0.4320319277406099  0.6280666822738112  0.8721715226763962
  0.5023394019633756  0.5574439885218041  0.8608862354089553
  0.3730851063250427  0.5875917365657628  0.8808415484117020
 
  0.00000000E+00  0.00000000E+00  0.00000000E+00
  0.00000000E+00  0.00000000E+00  0.00000000E+00
  0.00000000E+00  0.00000000E+00  0.00000000E+00
  0.00000000E+00  0.00000000E+00  0.00000000E+00
  0.00000000E+00  0.00000000E+00  0.00000000E+00
  0.00000000E+00  0.00000000E+00  0.00000000E+00
  0.00000000E+00  0.00000000E+00  0.00000000E+00
  0.00000000E+00  0.00000000E+00  0.00000000E+00
  0.00000000E+00  0.00000000E+00  0.00000000E+00
  0.00000000E+00  0.00000000E+00  0.00000000E+00
  0.00000000E+00  0.00000000E+00  0.00000000E+00
  0.00000000E+00  0.00000000E+00  0.00000000E+00
  0.00000000E+00  0.00000000E+00  0.00000000E+00
  0.00000000E+00  0.00000000E+00  0.00000000E+00
  0.00000000E+00  0.00000000E+00  0.00000000E+00
  0.00000000E+00  0.00000000E+00  0.00000000E+00
  0.00000000E+00  0.00000000E+00  0.00000000E+00
  0.00000000E+00  0.00000000E+00  0.00000000E+00
  0.00000000E+00  0.00000000E+00  0.00000000E+00
  0.00000000E+00  0.00000000E+00  0.00000000E+00
  0.00000000E+00  0.00000000E+00  0.00000000E+00
  0.00000000E+00  0.00000000E+00  0.00000000E+00
  0.00000000E+00  0.00000000E+00  0.00000000E+00
  0.00000000E+00  0.00000000E+00  0.00000000E+00
  0.00000000E+00  0.00000000E+00  0.00000000E+00
  0.00000000E+00  0.00000000E+00  0.00000000E+00
  0.00000000E+00  0.00000000E+00  0.00000000E+00
  0.00000000E+00  0.00000000E+00  0.00000000E+00
  0.00000000E+00  0.00000000E+00  0.00000000E+00
  0.00000000E+00  0.00000000E+00  0.00000000E+00
  0.00000000E+00  0.00000000E+00  0.00000000E+00
  0.00000000E+00  0.00000000E+00  0.00000000E+00
  0.00000000E+00  0.00000000E+00  0.00000000E+00
  0.00000000E+00  0.00000000E+00  0.00000000E+00
  0.00000000E+00  0.00000000E+00  0.00000000E+00
  0.00000000E+00  0.00000000E+00  0.00000000E+00
  0.00000000E+00  0.00000000E+00  0.00000000E+00
  0.00000000E+00  0.00000000E+00  0.00000000E+00
  0.00000000E+00  0.00000000E+00  0.00000000E+00
  0.00000000E+00  0.00000000E+00  0.00000000E+00
  0.00000000E+00  0.00000000E+00  0.00000000E+00
  0.00000000E+00  0.00000000E+00  0.00000000E+00
  0.00000000E+00  0.00000000E+00  0.00000000E+00
  0.00000000E+00  0.00000000E+00  0.00000000E+00
  0.00000000E+00  0.00000000E+00  0.00000000E+00
  0.00000000E+00  0.00000000E+00  0.00000000E+00
  0.00000000E+00  0.00000000E+00  0.00000000E+00
  0.00000000E+00  0.00000000E+00  0.00000000E+00
  0.00000000E+00  0.00000000E+00  0.00000000E+00
  0.00000000E+00  0.00000000E+00  0.00000000E+00
  0.00000000E+00  0.00000000E+00  0.00000000E+00
  0.00000000E+00  0.00000000E+00  0.00000000E+00
  0.00000000E+00  0.00000000E+00  0.00000000E+00
  0.00000000E+00  0.00000000E+00  0.00000000E+00
  0.00000000E+00  0.00000000E+00  0.00000000E+00
  0.00000000E+00  0.00000000E+00  0.00000000E+00
  0.00000000E+00  0.00000000E+00  0.00000000E+00
  0.00000000E+00  0.00000000E+00  0.00000000E+00
  0.00000000E+00  0.00000000E+00  0.00000000E+00
  0.00000000E+00  0.00000000E+00  0.00000000E+00
  0.00000000E+00  0.00000000E+00  0.00000000E+00
  0.00000000E+00  0.00000000E+00  0.00000000E+00
  0.00000000E+00  0.00000000E+00  0.00000000E+00
  0.00000000E+00  0.00000000E+00  0.00000000E+00
  0.00000000E+00  0.00000000E+00  0.00000000E+00
  0.00000000E+00  0.00000000E+00  0.00000000E+00
  0.00000000E+00  0.00000000E+00  0.00000000E+00
  0.00000000E+00  0.00000000E+00  0.00000000E+00
  0.00000000E+00  0.00000000E+00  0.00000000E+00
  0.00000000E+00  0.00000000E+00  0.00000000E+00
  0.00000000E+00  0.00000000E+00  0.00000000E+00
  0.00000000E+00  0.00000000E+00  0.00000000E+00
  0.00000000E+00  0.00000000E+00  0.00000000E+00
  0.00000000E+00  0.00000000E+00  0.00000000E+00
  0.00000000E+00  0.00000000E+00  0.00000000E+00
  0.00000000E+00  0.00000000E+00  0.00000000E+00
  0.00000000E+00  0.00000000E+00  0.00000000E+00
  0.00000000E+00  0.00000000E+00  0.00000000E+00
  0.00000000E+00  0.00000000E+00  0.00000000E+00
  0.00000000E+00  0.00000000E+00  0.00000000E+00
  0.00000000E+00  0.00000000E+00  0.00000000E+00
  0.00000000E+00  0.00000000E+00  0.00000000E+00
  0.00000000E+00  0.00000000E+00  0.00000000E+00
  0.00000000E+00  0.00000000E+00  0.00000000E+00
  0.00000000E+00  0.00000000E+00  0.00000000E+00
  0.00000000E+00  0.00000000E+00  0.00000000E+00
  0.00000000E+00  0.00000000E+00  0.00000000E+00
  0.00000000E+00  0.00000000E+00  0.00000000E+00
  0.00000000E+00  0.00000000E+00  0.00000000E+00
  0.00000000E+00  0.00000000E+00  0.00000000E+00
  0.00000000E+00  0.00000000E+00  0.00000000E+00
  0.00000000E+00  0.00000000E+00  0.00000000E+00
  0.00000000E+00  0.00000000E+00  0.00000000E+00
  0.00000000E+00  0.00000000E+00  0.00000000E+00
  0.00000000E+00  0.00000000E+00  0.00000000E+00
  0.00000000E+00  0.00000000E+00  0.00000000E+00
  0.00000000E+00  0.00000000E+00  0.00000000E+00
  0.00000000E+00  0.00000000E+00  0.00000000E+00
  0.00000000E+00  0.00000000E+00  0.00000000E+00
  0.00000000E+00  0.00000000E+00  0.00000000E+00
  0.00000000E+00  0.00000000E+00  0.00000000E+00
  0.00000000E+00  0.00000000E+00  0.00000000E+00
  0.00000000E+00  0.00000000E+00  0.00000000E+00
  0.00000000E+00  0.00000000E+00  0.00000000E+00
  0.00000000E+00  0.00000000E+00  0.00000000E+00
  0.00000000E+00  0.00000000E+00  0.00000000E+00
  0.00000000E+00  0.00000000E+00  0.00000000E+00
  0.00000000E+00  0.00000000E+00  0.00000000E+00
  0.00000000E+00  0.00000000E+00  0.00000000E+00
  0.00000000E+00  0.00000000E+00  0.00000000E+00
  0.00000000E+00  0.00000000E+00  0.00000000E+00
  0.00000000E+00  0.00000000E+00  0.00000000E+00
  0.00000000E+00  0.00000000E+00  0.00000000E+00
  0.00000000E+00  0.00000000E+00  0.00000000E+00
  0.00000000E+00  0.00000000E+00  0.00000000E+00
  0.00000000E+00  0.00000000E+00  0.00000000E+00
  0.00000000E+00  0.00000000E+00  0.00000000E+00
  0.00000000E+00  0.00000000E+00  0.00000000E+00
  0.00000000E+00  0.00000000E+00  0.00000000E+00
  0.00000000E+00  0.00000000E+00  0.00000000E+00
  0.00000000E+00  0.00000000E+00  0.00000000E+00
  0.00000000E+00  0.00000000E+00  0.00000000E+00
  0.00000000E+00  0.00000000E+00  0.00000000E+00
  0.00000000E+00  0.00000000E+00  0.00000000E+00
  0.00000000E+00  0.00000000E+00  0.00000000E+00
  0.00000000E+00  0.00000000E+00  0.00000000E+00
  0.00000000E+00  0.00000000E+00  0.00000000E+00
  0.00000000E+00  0.00000000E+00  0.00000000E+00
  0.00000000E+00  0.00000000E+00  0.00000000E+00
