CONTCAR\(9)                             
   1.00000000000000     
    13.5033998488999991    0.0000000000000000    0.0000000000000000
     0.0000000000000000   19.6100006104000002    0.0000000000000000
     0.0000000000000000    0.0000000000000000   18.7679004668999987
   Nb   Se   O 
    32    48     1
Direct
  0.0653509455015157  0.4378629440185341  0.5016129881018019
  0.1871237754637964  0.0646267886773182  0.4999281078781527
  0.0625487119850295  0.2821200409191214  0.4503394648670889
  0.1876128132258796  0.2203266902847385  0.5519744444380084
  0.3109965451999328  0.4366574164339028  0.5009094025099013
  0.4374439378146944  0.0646600978364350  0.4997508160439356
  0.3124442234278085  0.2815773670317843  0.4497934758179704
  0.4374634097447591  0.2202644359645236  0.5515300338275152
  0.5640444307867863  0.4366091127811818  0.5009005006607005
  0.6879494681992515  0.0646240843614949  0.4999516394831622
  0.5625754644690164  0.2815601657832026  0.4497438230579741
  0.6873231364090564  0.2203287649597909  0.5519140726279997
  0.8097192519443702  0.4379254919789879  0.5015850094779677
  0.9373797528843065  0.0646358035774327  0.5002319532906000
  0.8124726243328638  0.2821061840430104  0.4503211038074520
  0.9374847312176792  0.2206785687880768  0.5521900973506852
  0.0623819695632118  0.9376612695482519  0.4998540897183074
  0.1880667511438895  0.5645413511645999  0.5005074518212159
  0.0625249545213367  0.7817518251740685  0.4485686821718377
  0.1876442094344912  0.7207240405696909  0.5506735004499238
  0.3126926158307967  0.9377987264916029  0.4997317919042893
  0.4374599804173845  0.5664013980504061  0.5001849188233832
  0.3123099951178558  0.7819852547968474  0.4486088988759686
  0.4374845519621396  0.7212926066252279  0.5505978338637395
  0.5623408691983975  0.9378097846854611  0.4997076536394942
  0.6870190000495222  0.5644903241595467  0.5004492264566621
  0.5626646531466338  0.7819741970727382  0.4484996116041357
  0.6872499511215209  0.7207331060276645  0.5506281124705237
  0.8126890837817208  0.9376980231041386  0.4998858330495856
  0.9373968394813728  0.5649730451811206  0.5003094429255418
  0.8124076270975884  0.7817548949051907  0.4486434351655489
  0.9374834993868746  0.7205259639768806  0.5506423517330656
  0.0621370389310832  0.0297160838085943  0.4023240255822053
  0.1889138501492601  0.4735427779404195  0.5996000194663023
  0.0625322588877385  0.1256253475558624  0.5941634194868470
  0.1875709840156898  0.3763614191150159  0.4067693339988677
  0.1872034230386168  0.1853403193156413  0.4192052374477155
  0.0629544137288421  0.3169818550821532  0.5831976241959448
  0.3123289244866156  0.0298145732979428  0.4021375116530498
  0.4376114967098767  0.4743098093009517  0.5943682314152585
  0.3125882709962538  0.1255066663790921  0.5939335994043049
  0.4374692921688813  0.3758929011860419  0.4071617687995666
  0.4374887546902654  0.1852073771952551  0.4186241653591624
  0.3127605033836007  0.3168276179610920  0.5827685419779776
  0.5626964403245935  0.0300193501397325  0.4022277956189977
  0.6862023031078418  0.4735034443761594  0.5996006016997261
  0.5624871740626728  0.1254337343840721  0.5938667863697439
  0.6874775709927831  0.3763617871835137  0.4067475325791767
  0.6878294410042971  0.1853462425571526  0.4191238969807197
  0.5621846374715862  0.3167715179305779  0.5826995012157388
  0.8127798749210731  0.0296366197274681  0.4022024825746220
  0.9376093677610093  0.4730060826513642  0.5976002101925927
  0.8124981290307838  0.1257409588944788  0.5942478315214967
  0.9375053816289169  0.3766907265698620  0.4083600741626623
  0.9375139972308686  0.1856707188997340  0.4193802316426771
  0.8120821320113254  0.3170125711951075  0.5831799288529940
  0.0628391257487190  0.5291795481908519  0.4033723158785511
  0.1875872548000464  0.9726045694587726  0.5974264691542471
  0.0627582671776290  0.6261555257777675  0.5937415509182181
  0.1873405910873939  0.8766963386896088  0.4060587593708645
  0.1876306447623860  0.6850486567613765  0.4180813761414799
  0.0623059789924009  0.8170947948590499  0.5812308261190049
  0.3127880335742276  0.5288013686674259  0.4028317174804335
  0.4376412560531743  0.9727641348493077  0.5973928152993400
  0.3128736800572957  0.6266427546424741  0.5937601489159074
  0.4374196623212848  0.8766720587840980  0.4058023685271199
  0.4374344321192037  0.6856370442773529  0.4175746146820745
  0.3123511433326834  0.8174599994389182  0.5813745571141633
  0.5621293219720085  0.5288173991243291  0.4028971391529742
  0.6875584289638627  0.9725683326290019  0.5974391446977979
  0.5622255543752528  0.6264828621366214  0.5937274472619724
  0.6876135144376346  0.8767335944226727  0.4060805592791097
  0.6874119335057595  0.6850262187834304  0.4180411847556472
  0.5625207675973082  0.8174424000233259  0.5811916728506148
  0.8122351444493146  0.5291096729478368  0.4031622382925888
  0.9376995227627424  0.9726762450621118  0.5976639268753586
  0.8122755750923822  0.6263651418347010  0.5937279773978885
  0.9373792139772108  0.8763544740383470  0.4059634212790377
  0.9374895038617032  0.6851146359158383  0.4180287435375437
  0.8125464924833034  0.8171231017702538  0.5814135117405178
  0.4374497508992007  0.4769983372942839  0.6840162971650113
 
  0.00000000E+00  0.00000000E+00  0.00000000E+00
  0.00000000E+00  0.00000000E+00  0.00000000E+00
  0.00000000E+00  0.00000000E+00  0.00000000E+00
  0.00000000E+00  0.00000000E+00  0.00000000E+00
  0.00000000E+00  0.00000000E+00  0.00000000E+00
  0.00000000E+00  0.00000000E+00  0.00000000E+00
  0.00000000E+00  0.00000000E+00  0.00000000E+00
  0.00000000E+00  0.00000000E+00  0.00000000E+00
  0.00000000E+00  0.00000000E+00  0.00000000E+00
  0.00000000E+00  0.00000000E+00  0.00000000E+00
  0.00000000E+00  0.00000000E+00  0.00000000E+00
  0.00000000E+00  0.00000000E+00  0.00000000E+00
  0.00000000E+00  0.00000000E+00  0.00000000E+00
  0.00000000E+00  0.00000000E+00  0.00000000E+00
  0.00000000E+00  0.00000000E+00  0.00000000E+00
  0.00000000E+00  0.00000000E+00  0.00000000E+00
  0.00000000E+00  0.00000000E+00  0.00000000E+00
  0.00000000E+00  0.00000000E+00  0.00000000E+00
  0.00000000E+00  0.00000000E+00  0.00000000E+00
  0.00000000E+00  0.00000000E+00  0.00000000E+00
  0.00000000E+00  0.00000000E+00  0.00000000E+00
  0.00000000E+00  0.00000000E+00  0.00000000E+00
  0.00000000E+00  0.00000000E+00  0.00000000E+00
  0.00000000E+00  0.00000000E+00  0.00000000E+00
  0.00000000E+00  0.00000000E+00  0.00000000E+00
  0.00000000E+00  0.00000000E+00  0.00000000E+00
  0.00000000E+00  0.00000000E+00  0.00000000E+00
  0.00000000E+00  0.00000000E+00  0.00000000E+00
  0.00000000E+00  0.00000000E+00  0.00000000E+00
  0.00000000E+00  0.00000000E+00  0.00000000E+00
  0.00000000E+00  0.00000000E+00  0.00000000E+00
  0.00000000E+00  0.00000000E+00  0.00000000E+00
  0.00000000E+00  0.00000000E+00  0.00000000E+00
  0.00000000E+00  0.00000000E+00  0.00000000E+00
  0.00000000E+00  0.00000000E+00  0.00000000E+00
  0.00000000E+00  0.00000000E+00  0.00000000E+00
  0.00000000E+00  0.00000000E+00  0.00000000E+00
  0.00000000E+00  0.00000000E+00  0.00000000E+00
  0.00000000E+00  0.00000000E+00  0.00000000E+00
  0.00000000E+00  0.00000000E+00  0.00000000E+00
  0.00000000E+00  0.00000000E+00  0.00000000E+00
  0.00000000E+00  0.00000000E+00  0.00000000E+00
  0.00000000E+00  0.00000000E+00  0.00000000E+00
  0.00000000E+00  0.00000000E+00  0.00000000E+00
  0.00000000E+00  0.00000000E+00  0.00000000E+00
  0.00000000E+00  0.00000000E+00  0.00000000E+00
  0.00000000E+00  0.00000000E+00  0.00000000E+00
  0.00000000E+00  0.00000000E+00  0.00000000E+00
  0.00000000E+00  0.00000000E+00  0.00000000E+00
  0.00000000E+00  0.00000000E+00  0.00000000E+00
  0.00000000E+00  0.00000000E+00  0.00000000E+00
  0.00000000E+00  0.00000000E+00  0.00000000E+00
  0.00000000E+00  0.00000000E+00  0.00000000E+00
  0.00000000E+00  0.00000000E+00  0.00000000E+00
  0.00000000E+00  0.00000000E+00  0.00000000E+00
  0.00000000E+00  0.00000000E+00  0.00000000E+00
  0.00000000E+00  0.00000000E+00  0.00000000E+00
  0.00000000E+00  0.00000000E+00  0.00000000E+00
  0.00000000E+00  0.00000000E+00  0.00000000E+00
  0.00000000E+00  0.00000000E+00  0.00000000E+00
  0.00000000E+00  0.00000000E+00  0.00000000E+00
  0.00000000E+00  0.00000000E+00  0.00000000E+00
  0.00000000E+00  0.00000000E+00  0.00000000E+00
  0.00000000E+00  0.00000000E+00  0.00000000E+00
  0.00000000E+00  0.00000000E+00  0.00000000E+00
  0.00000000E+00  0.00000000E+00  0.00000000E+00
  0.00000000E+00  0.00000000E+00  0.00000000E+00
  0.00000000E+00  0.00000000E+00  0.00000000E+00
  0.00000000E+00  0.00000000E+00  0.00000000E+00
  0.00000000E+00  0.00000000E+00  0.00000000E+00
  0.00000000E+00  0.00000000E+00  0.00000000E+00
  0.00000000E+00  0.00000000E+00  0.00000000E+00
  0.00000000E+00  0.00000000E+00  0.00000000E+00
  0.00000000E+00  0.00000000E+00  0.00000000E+00
  0.00000000E+00  0.00000000E+00  0.00000000E+00
  0.00000000E+00  0.00000000E+00  0.00000000E+00
  0.00000000E+00  0.00000000E+00  0.00000000E+00
  0.00000000E+00  0.00000000E+00  0.00000000E+00
  0.00000000E+00  0.00000000E+00  0.00000000E+00
  0.00000000E+00  0.00000000E+00  0.00000000E+00
  0.00000000E+00  0.00000000E+00  0.00000000E+00
