CONTCAR\(3)                             
   1.00000000000000     
    13.0656995773000002    0.0000000000000000    0.0000000000000000
     6.5328497887000001   11.3152277522000002    0.0000000000000000
     0.0000000000000000    0.0000000000000000   20.6284008026000016
   Ta   C    S    O    H 
    32    16    32     1     1
Selective dynamics
Direct
  0.1674649919026621  0.1670025141349214  0.5592631196166167   F   F   F
  0.0839369791338456  0.0837103942981727  0.4441081965470772   F   F   F
  0.4175845804870306  0.1666146295396516  0.5590746086930380   F   F   F
  0.3342575099092002  0.0837096804187922  0.4441117204054450   F   F   F
  0.6686374144420455  0.1648032452110115  0.5590690767610340   F   F   F
  0.5835601076819046  0.0835434830421491  0.4439949390362727   F   F   F
  0.9174787263322131  0.1668647355594288  0.5593034310040608   F   F   F
  0.8348147059408717  0.0836948194852383  0.4440596944983284   F   F   F
  0.1665045827230429  0.4168884814224967  0.5591219722142711   F   F   F
  0.0843261693824218  0.3332977931680361  0.4438868346883780   F   F   F
  0.4159874452694297  0.4179182256756704  0.5589175487835121   F   F   F
  0.3343954676281200  0.3328255875970925  0.4440756003741271   F   F   F
  0.6682612856462526  0.4177278783083054  0.5597760115437040   F   F   F
  0.5843338226106241  0.3335324803160731  0.4443623346473231   F   F   F
  0.9186715798541627  0.4167064547688781  0.5591515664003879   F   F   F
  0.8346582252096866  0.3327580513246176  0.4442572757834284   F   F   F
  0.1667553484608320  0.6678913302256220  0.5590238045364586   F   F   F
  0.0832459724781600  0.5839707974335937  0.4442175827451891   F   F   F
  0.4175325923436546  0.6669419591997467  0.5591725121151399   F   F   F
  0.3343335241177314  0.5841458346583224  0.4439806005077642   F   F   F
  0.6673340783126562  0.6681310461781109  0.5591694429168115   F   F   F
  0.5836414069670113  0.5839902143250413  0.4441750245845810   F   F   F
  0.9174701263361769  0.6669057460596832  0.5594094417795503   F   F   F
  0.8346870477561126  0.5840337954813180  0.4443480089727885   F   F   F
  0.1674673139910468  0.9167816209873436  0.5592161131736759   F   F   F
  0.0844174783516962  0.8336779473686704  0.4438188371826826   F   F   F
  0.4175892762865416  0.9168006700924067  0.5592091356444300   F   F   F
  0.3343075601711902  0.8333321011540207  0.4440383306044069   F   F   F
  0.6674415989056897  0.9157725144575082  0.5591073167760356   F   F   F
  0.5839430108498647  0.8336048195298460  0.4438513233056085   F   F   F
  0.9185590317550307  0.9160745917904336  0.5590655980999770   F   F   F
  0.8345847379928202  0.8326071994476152  0.4442274521873060   F   F   F
  0.0010677833719726  0.0001234007500983  0.5016389219395734   F   F   F
  0.2508371546801555  0.0002239175914411  0.5016668311520576   F   F   F
  0.5008239885305343  0.0000464070710322  0.5016054617812955   F   F   F
  0.7506823117078198  0.0006223772434240  0.5013140421320372   F   F   F
  0.0010825267936667  0.2501057701645308  0.5017230585462187   F   F   F
  0.2507347765832719  0.2501951234933415  0.5016746172325526   F   F   F
  0.5007374834025455  0.2497423139619883  0.5014618042129513   F   F   F
  0.7514435951099898  0.2499190009730086  0.5016143035458001   F   F   F
  0.0009975093298920  0.5002089607679423  0.5016334618711369   F   F   F
  0.2512134251096896  0.5000994432152694  0.5012731647960962   F   F   F
  0.5007140595855333  0.5008678735994536  0.5014490769354936   F   F   F
  0.7504286420214683  0.4997470281899723  0.5016187255820768   F   F   F
  0.0009064707438213  0.7502164364060278  0.5015475601407147   F   F   F
  0.2507997190172233  0.7504222330882513  0.5015820458956455   F   F   F
  0.5007720448028437  0.7504216349852584  0.5016409464234073   F   F   F
  0.7508491038046330  0.7502552167404488  0.5015960441062290   F   F   F
  0.1674937418350524  0.1668202535866001  0.3649824211038322   F   F   F
  0.0843457790838116  0.0834555177841452  0.6383548618835917   F   F   F
  0.4173631174276196  0.1667647735302253  0.3647065456226883   F   F   F
  0.3340674518732456  0.0834583326528318  0.6383211653983523   F   F   F
  0.6674204604226688  0.1670948937737791  0.3652747029773380   F   F   F
  0.5839693922744615  0.0829986414747452  0.6383949862457428   F   F   F
  0.9176959095158281  0.1668771163668978  0.3647263550052742   F   F   F
  0.8346597484246274  0.0831215759706438  0.6383889371356375   F   F   F
  0.1676227881712649  0.4168157467303715  0.3650885983204759   F   F   F
  0.0841809965901561  0.3335566297834802  0.6386006099323396   F   F   F
  0.4179356160966066  0.4166045827212272  0.3652901363277508   F   F   F
  0.3340600639174056  0.3332448924536067  0.6385001696027999   F   F   F
  0.6675322388742373  0.4166559461342132  0.3653648729526537   F   F   F
  0.5834634744528060  0.3335670788732017  0.6350626964133070   F   F   F
  0.9173215065906390  0.4168587923930005  0.3652298420827762   F   F   F
  0.8350319384625280  0.3334209601813711  0.6385235087369026   F   F   F
  0.1676113639555084  0.6667638653474697  0.3650426208505664   F   F   F
  0.0841863385381956  0.5836662719409063  0.6381825388830507   F   F   F
  0.4176038165340614  0.6670294021543484  0.3646816535454747   F   F   F
  0.3337928606307656  0.5841130138627904  0.6382616237550280   F   F   F
  0.6675817332920175  0.6666644210293668  0.3651438991406835   F   F   F
  0.5839700569657680  0.5845091413991454  0.6384647274362365   F   F   F
  0.9173835943174993  0.6667744013191381  0.3647538940180581   F   F   F
  0.8341646999785937  0.5836456252826636  0.6382309038262903   F   F   F
  0.1675188337214308  0.9169830057446688  0.3649267060480952   F   F   F
  0.0841513295425500  0.8335577262177836  0.6385199118629146   F   F   F
  0.4173911055493562  0.9169525256997204  0.3649553256190927   F   F   F
  0.3340611406667193  0.8337304820115818  0.6383240798568508   F   F   F
  0.6675089536964123  0.9168664059196558  0.3650433729792582   F   F   F
  0.5840138900682561  0.8336356220858931  0.6385921900522362   F   F   F
  0.9173701003573029  0.9169896032566811  0.3651071099888483   F   F   F
  0.8341606233159240  0.8336061412457383  0.6381797372272615   F   F   F
  0.5797629285703607  0.3368065250752394  0.7161394706279225   T   T   T
  0.5173682774615358  0.3194316180956633  0.7281781472890382   T   T   T
 
  0.00000000E+00  0.00000000E+00  0.00000000E+00
  0.00000000E+00  0.00000000E+00  0.00000000E+00
  0.00000000E+00  0.00000000E+00  0.00000000E+00
  0.00000000E+00  0.00000000E+00  0.00000000E+00
  0.00000000E+00  0.00000000E+00  0.00000000E+00
  0.00000000E+00  0.00000000E+00  0.00000000E+00
  0.00000000E+00  0.00000000E+00  0.00000000E+00
  0.00000000E+00  0.00000000E+00  0.00000000E+00
  0.00000000E+00  0.00000000E+00  0.00000000E+00
  0.00000000E+00  0.00000000E+00  0.00000000E+00
  0.00000000E+00  0.00000000E+00  0.00000000E+00
  0.00000000E+00  0.00000000E+00  0.00000000E+00
  0.00000000E+00  0.00000000E+00  0.00000000E+00
  0.00000000E+00  0.00000000E+00  0.00000000E+00
  0.00000000E+00  0.00000000E+00  0.00000000E+00
  0.00000000E+00  0.00000000E+00  0.00000000E+00
  0.00000000E+00  0.00000000E+00  0.00000000E+00
  0.00000000E+00  0.00000000E+00  0.00000000E+00
  0.00000000E+00  0.00000000E+00  0.00000000E+00
  0.00000000E+00  0.00000000E+00  0.00000000E+00
  0.00000000E+00  0.00000000E+00  0.00000000E+00
  0.00000000E+00  0.00000000E+00  0.00000000E+00
  0.00000000E+00  0.00000000E+00  0.00000000E+00
  0.00000000E+00  0.00000000E+00  0.00000000E+00
  0.00000000E+00  0.00000000E+00  0.00000000E+00
  0.00000000E+00  0.00000000E+00  0.00000000E+00
  0.00000000E+00  0.00000000E+00  0.00000000E+00
  0.00000000E+00  0.00000000E+00  0.00000000E+00
  0.00000000E+00  0.00000000E+00  0.00000000E+00
  0.00000000E+00  0.00000000E+00  0.00000000E+00
  0.00000000E+00  0.00000000E+00  0.00000000E+00
  0.00000000E+00  0.00000000E+00  0.00000000E+00
  0.00000000E+00  0.00000000E+00  0.00000000E+00
  0.00000000E+00  0.00000000E+00  0.00000000E+00
  0.00000000E+00  0.00000000E+00  0.00000000E+00
  0.00000000E+00  0.00000000E+00  0.00000000E+00
  0.00000000E+00  0.00000000E+00  0.00000000E+00
  0.00000000E+00  0.00000000E+00  0.00000000E+00
  0.00000000E+00  0.00000000E+00  0.00000000E+00
  0.00000000E+00  0.00000000E+00  0.00000000E+00
  0.00000000E+00  0.00000000E+00  0.00000000E+00
  0.00000000E+00  0.00000000E+00  0.00000000E+00
  0.00000000E+00  0.00000000E+00  0.00000000E+00
  0.00000000E+00  0.00000000E+00  0.00000000E+00
  0.00000000E+00  0.00000000E+00  0.00000000E+00
  0.00000000E+00  0.00000000E+00  0.00000000E+00
  0.00000000E+00  0.00000000E+00  0.00000000E+00
  0.00000000E+00  0.00000000E+00  0.00000000E+00
  0.00000000E+00  0.00000000E+00  0.00000000E+00
  0.00000000E+00  0.00000000E+00  0.00000000E+00
  0.00000000E+00  0.00000000E+00  0.00000000E+00
  0.00000000E+00  0.00000000E+00  0.00000000E+00
  0.00000000E+00  0.00000000E+00  0.00000000E+00
  0.00000000E+00  0.00000000E+00  0.00000000E+00
  0.00000000E+00  0.00000000E+00  0.00000000E+00
  0.00000000E+00  0.00000000E+00  0.00000000E+00
  0.00000000E+00  0.00000000E+00  0.00000000E+00
  0.00000000E+00  0.00000000E+00  0.00000000E+00
  0.00000000E+00  0.00000000E+00  0.00000000E+00
  0.00000000E+00  0.00000000E+00  0.00000000E+00
  0.00000000E+00  0.00000000E+00  0.00000000E+00
  0.00000000E+00  0.00000000E+00  0.00000000E+00
  0.00000000E+00  0.00000000E+00  0.00000000E+00
  0.00000000E+00  0.00000000E+00  0.00000000E+00
  0.00000000E+00  0.00000000E+00  0.00000000E+00
  0.00000000E+00  0.00000000E+00  0.00000000E+00
  0.00000000E+00  0.00000000E+00  0.00000000E+00
  0.00000000E+00  0.00000000E+00  0.00000000E+00
  0.00000000E+00  0.00000000E+00  0.00000000E+00
  0.00000000E+00  0.00000000E+00  0.00000000E+00
  0.00000000E+00  0.00000000E+00  0.00000000E+00
  0.00000000E+00  0.00000000E+00  0.00000000E+00
  0.00000000E+00  0.00000000E+00  0.00000000E+00
  0.00000000E+00  0.00000000E+00  0.00000000E+00
  0.00000000E+00  0.00000000E+00  0.00000000E+00
  0.00000000E+00  0.00000000E+00  0.00000000E+00
  0.00000000E+00  0.00000000E+00  0.00000000E+00
  0.00000000E+00  0.00000000E+00  0.00000000E+00
  0.00000000E+00  0.00000000E+00  0.00000000E+00
  0.00000000E+00  0.00000000E+00  0.00000000E+00
  0.00000000E+00  0.00000000E+00  0.00000000E+00
  0.00000000E+00  0.00000000E+00  0.00000000E+00
