CONTCAR\(2)                             
   1.00000000000000     
    11.3502998351999995    0.0000000000000000    0.0000000000000000
    -5.6751499175999998    9.8296479979000004    0.0000000000000000
     0.0000000000000000    0.0000000000000000   21.7800998688000007
   Gd   Br   O    H 
    18    18     2     1
Selective dynamics
Direct
  0.1075102998945141  0.2163563778117208  0.5593269711677564   F   F   F
  0.2248554553797106  0.1149801026735418  0.4251546712710734   F   F   F
  0.4412168533227003  0.2167069123217686  0.5588318865476793   F   F   F
  0.5564447537076163  0.1127819022243486  0.4283468295256156   F   F   F
  0.7787260186462461  0.2249087415082869  0.5586293518683902   F   F   F
  0.8907956065716149  0.1128640768881084  0.4285468672243908   F   F   F
  0.1081403336570190  0.5622413566852558  0.5588690093532733   F   F   F
  0.2172120798957948  0.4431874615147535  0.4337021331093425   F   F   F
  0.4446618084609639  0.5577682646196465  0.6312242446085676   F   F   F
  0.5612269795336786  0.4427611019081041  0.4326644427942412   F   F   F
  0.7862144877729946  0.5619338332764130  0.5587018220551698   F   F   F
  0.8913355800290645  0.4475235309214085  0.4280698262769533   F   F   F
  0.1120035595360491  0.8916261020244960  0.5581407041499062   F   F   F
  0.2250530656165566  0.7794674175993066  0.4252797887443691   F   F   F
  0.4421137842327312  0.8949493641359538  0.5595711310651126   F   F   F
  0.5604673484357932  0.7864713980513045  0.4342102908807774   F   F   F
  0.7855565972617597  0.8953479975020713  0.5597292192790917   F   F   F
  0.8891393202735571  0.7794517017155300  0.4252559268035370   F   F   F
  0.1137291713456463  0.2291652449176240  0.3376878127168723   F   F   F
  0.2238871559124718  0.1149966152377786  0.6513360019046814   F   F   F
  0.4504680200268183  0.2288632774225761  0.3370908043074152   F   F   F
  0.5557365552394202  0.1132808144972230  0.6492485637953180   F   F   F
  0.7795217424354348  0.2239723172577257  0.3383939703520227   F   F   F
  0.8893784861605099  0.1133185612357579  0.6497347513599934   F   F   F
  0.1147673031756398  0.5538425387938446  0.3375289227922877   F   F   F
  0.1687227286443971  0.4204058116198794  0.6544759017287376   F   F   F
  0.4463802833898569  0.5581536150776785  0.3500158190567149   F   F   F
  0.5829504153952456  0.4200195129001898  0.6540052834302870   F   F   F
  0.7757629542496929  0.5542799201267812  0.3370973663291110   F   F   F
  0.8900353919836803  0.4480976380235120  0.6488992133949267   F   F   F
  0.1132311933038821  0.8912526602058222  0.3348739023192451   F   F   F
  0.2229304925207458  0.7799281032566583  0.6508397712229552   F   F   F
  0.4509570738089650  0.8898303175169318  0.3377990678011500   F   F   F
  0.5819821323632155  0.8320389656162916  0.6566037545463388   F   F   F
  0.7742919006252578  0.8896972344821776  0.3379050949530651   F   F   F
  0.8886941541363171  0.7795011541453292  0.6507314107568263   F   F   F
  0.4396176057565597  0.5469346124094443  0.7234382940043460   T   T   T
  0.4289344952025118  0.5209536756902153  0.7877293647132575   T   T   T
  0.3703773300953586  0.4216001471844920  0.7878913827130218   T   T   T
 
  0.00000000E+00  0.00000000E+00  0.00000000E+00
  0.00000000E+00  0.00000000E+00  0.00000000E+00
  0.00000000E+00  0.00000000E+00  0.00000000E+00
  0.00000000E+00  0.00000000E+00  0.00000000E+00
  0.00000000E+00  0.00000000E+00  0.00000000E+00
  0.00000000E+00  0.00000000E+00  0.00000000E+00
  0.00000000E+00  0.00000000E+00  0.00000000E+00
  0.00000000E+00  0.00000000E+00  0.00000000E+00
  0.00000000E+00  0.00000000E+00  0.00000000E+00
  0.00000000E+00  0.00000000E+00  0.00000000E+00
  0.00000000E+00  0.00000000E+00  0.00000000E+00
  0.00000000E+00  0.00000000E+00  0.00000000E+00
  0.00000000E+00  0.00000000E+00  0.00000000E+00
  0.00000000E+00  0.00000000E+00  0.00000000E+00
  0.00000000E+00  0.00000000E+00  0.00000000E+00
  0.00000000E+00  0.00000000E+00  0.00000000E+00
  0.00000000E+00  0.00000000E+00  0.00000000E+00
  0.00000000E+00  0.00000000E+00  0.00000000E+00
  0.00000000E+00  0.00000000E+00  0.00000000E+00
  0.00000000E+00  0.00000000E+00  0.00000000E+00
  0.00000000E+00  0.00000000E+00  0.00000000E+00
  0.00000000E+00  0.00000000E+00  0.00000000E+00
  0.00000000E+00  0.00000000E+00  0.00000000E+00
  0.00000000E+00  0.00000000E+00  0.00000000E+00
  0.00000000E+00  0.00000000E+00  0.00000000E+00
  0.00000000E+00  0.00000000E+00  0.00000000E+00
  0.00000000E+00  0.00000000E+00  0.00000000E+00
  0.00000000E+00  0.00000000E+00  0.00000000E+00
  0.00000000E+00  0.00000000E+00  0.00000000E+00
  0.00000000E+00  0.00000000E+00  0.00000000E+00
  0.00000000E+00  0.00000000E+00  0.00000000E+00
  0.00000000E+00  0.00000000E+00  0.00000000E+00
  0.00000000E+00  0.00000000E+00  0.00000000E+00
  0.00000000E+00  0.00000000E+00  0.00000000E+00
  0.00000000E+00  0.00000000E+00  0.00000000E+00
  0.00000000E+00  0.00000000E+00  0.00000000E+00
  0.00000000E+00  0.00000000E+00  0.00000000E+00
  0.00000000E+00  0.00000000E+00  0.00000000E+00
  0.00000000E+00  0.00000000E+00  0.00000000E+00
