CONTCAR                                 
   1.00000000000000     
    11.3364000320000002    0.0000000000000000    0.0000000000000000
     0.0000000000000000   11.1918001174999997    0.0000000000000000
     0.0000000000000000    0.0000000000000000   20.5198993682999991
   Mn   Sb   Se   Br   O    H 
     6     6    12     6     1     1
Direct
  0.1575461472084345  0.5130874944937044  0.5093667232720580
  0.1571401840306558 -0.0023743845407715  0.4950963722471946
  0.4903166663778208  0.5087401447474108  0.5140170874782835
  0.4897224929239056  0.0031412965077936  0.4984892693982660
  0.8229491322641620  0.5132993744577895  0.5094514632904121
  0.8221620655177915 -0.0025738270704997  0.4952991894479423
 -0.0105096940754585  0.7831561811386376  0.5983638252293402
  0.3234542485142944  0.2902965808857513  0.4023967890641612
  0.3261270918760144  0.7958481222731218  0.6151493373927355
  0.6569257659757396  0.2902383134998912  0.4029237758599438
  0.6521743592627701  0.7956348192880033  0.6158987640120063
 -0.0114111659854388  0.2871491790727538  0.4014965478823962
  0.3257596294062519  0.5173780902173469  0.4206305154706623
  0.1562516137239873  0.2459094083886043  0.4898643274057501
  0.1580460829652662  0.7508453094336873  0.5127852168374900
 -0.0101561514115735  0.0150973732483806  0.5833493879405359
  0.6544829251447094  0.5172999546992277  0.4207647479978713
  0.4897680731889177  0.2472012738131677  0.4912446657929673
  0.4898943797059965  0.7496098124106836  0.5248792287646021
  0.3202264420740488  0.0208795769325428  0.5862245819513373
 -0.0101090745531111  0.5142960654241404  0.4185227801561818
  0.8231417515489923  0.2459344394665099  0.4910115362931277
  0.8203299675582126  0.7506343994084719  0.5131086995334649
  0.6590876860887773  0.0203926618216490  0.5865176177662634
 -0.0097688952388346  0.4808255426645124  0.5970537836168003
 -0.0103593924753831  0.9821542448026073  0.4055184054425111
  0.3217106091192568  0.4770706467146374  0.5994054509357454
  0.3254543820125356  0.9777294216706345  0.4081813216833924
  0.6588015179418341  0.4772005874639457  0.5994525019113860
  0.6537857576761298  0.9774929088490776  0.4083598287722535
  0.4892202803885977  0.8304273226402658  0.6760536769587803
  0.4889452772447044  0.7817777011763516  0.7156328771940723
 
  0.00000000E+00  0.00000000E+00  0.00000000E+00
  0.00000000E+00  0.00000000E+00  0.00000000E+00
  0.00000000E+00  0.00000000E+00  0.00000000E+00
  0.00000000E+00  0.00000000E+00  0.00000000E+00
  0.00000000E+00  0.00000000E+00  0.00000000E+00
  0.00000000E+00  0.00000000E+00  0.00000000E+00
  0.00000000E+00  0.00000000E+00  0.00000000E+00
  0.00000000E+00  0.00000000E+00  0.00000000E+00
  0.00000000E+00  0.00000000E+00  0.00000000E+00
  0.00000000E+00  0.00000000E+00  0.00000000E+00
  0.00000000E+00  0.00000000E+00  0.00000000E+00
  0.00000000E+00  0.00000000E+00  0.00000000E+00
  0.00000000E+00  0.00000000E+00  0.00000000E+00
  0.00000000E+00  0.00000000E+00  0.00000000E+00
  0.00000000E+00  0.00000000E+00  0.00000000E+00
  0.00000000E+00  0.00000000E+00  0.00000000E+00
  0.00000000E+00  0.00000000E+00  0.00000000E+00
  0.00000000E+00  0.00000000E+00  0.00000000E+00
  0.00000000E+00  0.00000000E+00  0.00000000E+00
  0.00000000E+00  0.00000000E+00  0.00000000E+00
  0.00000000E+00  0.00000000E+00  0.00000000E+00
  0.00000000E+00  0.00000000E+00  0.00000000E+00
  0.00000000E+00  0.00000000E+00  0.00000000E+00
  0.00000000E+00  0.00000000E+00  0.00000000E+00
  0.00000000E+00  0.00000000E+00  0.00000000E+00
  0.00000000E+00  0.00000000E+00  0.00000000E+00
  0.00000000E+00  0.00000000E+00  0.00000000E+00
  0.00000000E+00  0.00000000E+00  0.00000000E+00
  0.00000000E+00  0.00000000E+00  0.00000000E+00
  0.00000000E+00  0.00000000E+00  0.00000000E+00
  0.00000000E+00  0.00000000E+00  0.00000000E+00
  0.00000000E+00  0.00000000E+00  0.00000000E+00
