 Ho2 Te6                                
   1.00000000000000     
     4.3061535780195639    0.0000000000000000    0.0000000000000000
     0.0000000000000000    4.3061563432754708    0.0000000000000000
     0.0000000000000000    0.0000000000000000   24.0865583349039944
   Ho   Te
     2     6
Direct
  0.5000006839947049 -0.0000002435488504  0.5849493332178874
 -0.0000005852673619  0.5000000975382112  0.4150506961316630
 -0.0000000471167812  0.0000000420963943  0.3114212967080547
  0.4999999070191075  0.5000001023095866  0.6885786716803040
  0.0000000014978417  0.0000000059962502  0.6885786775319983
  0.4999999585111496  0.5000000063914840  0.3114212911278396
  0.4999999719227136  0.0000000302570091  0.4534732865388616
  0.0000001094386262  0.4999999589599151  0.5465267470633918
 
  0.00000000E+00  0.00000000E+00  0.00000000E+00
  0.00000000E+00  0.00000000E+00  0.00000000E+00
  0.00000000E+00  0.00000000E+00  0.00000000E+00
  0.00000000E+00  0.00000000E+00  0.00000000E+00
  0.00000000E+00  0.00000000E+00  0.00000000E+00
  0.00000000E+00  0.00000000E+00  0.00000000E+00
  0.00000000E+00  0.00000000E+00  0.00000000E+00
  0.00000000E+00  0.00000000E+00  0.00000000E+00
