CONTCAR\(16)                            
   1.00000000000000     
    12.5135002136000004    0.0000000000000000    0.0000000000000000
     0.0000000000000000   15.7480001450000007    0.0000000000000000
     0.0000000000000000    0.0000000000000000   19.7180004119999985
   Nb   Fe   Te   O 
    16    16    32     1
Selective dynamics
Direct
  0.2599142561321059  0.1538893272042685  0.5083019945915481   F   F   F
  0.9824990991931060  0.4041527538740795  0.5094826711993292   F   F   F
  0.0096304765142605  0.0951182984848131  0.4925506635382959   F   F   F
  0.2342830580146824  0.3453696857650925  0.4932947710379025   F   F   F
  0.7596988538892333  0.1531917107232488  0.5077317906443923   F   F   F
  0.4857674969938230  0.4037517912825948  0.5083470230701508   F   F   F
  0.5097286722061938  0.0951230951341842  0.4925723526129460   F   F   F
  0.7363999559162906  0.3459374930018626  0.4910862789939898   F   F   F
  0.2595010361412236  0.6534339736338310  0.5093485852390600   F   F   F
  0.9860315400693196  0.9036391770155277  0.5084785206094438   F   F   F
  0.0083931705869063  0.5959832834837684  0.4935630650188969   F   F   F
  0.2363138101129536  0.8452805447378182  0.4933616467677382   F   F   F
  0.7617603246131708  0.6513839790120883  0.5061727711690978   F   F   F
  0.4861889620070272  0.9036304897663641  0.5087537049260007   F   F   F
  0.5100922208884242  0.5946197949760403  0.4931589861753665   F   F   F
  0.7363632325269336  0.8451998977203559  0.4925560713722774   F   F   F
  0.0686492191553256  0.2535807039673941  0.5387717642813428   F   F   F
  0.3200284999807792  0.9957462785049174  0.4622166666536032   F   F   F
  0.4257836953800975  0.2461998494657038  0.4622424342084486   F   F   F
  0.1760253133348044  0.0033633551355976  0.5389031512964380   F   F   F
  0.5699507765715737  0.2536332767530851  0.5386051280446722   F   F   F
  0.8198634307436947  0.9955456248162378  0.4620815850212026   F   F   F
  0.9249080518108528  0.2451437466167405  0.4619442220647016   F   F   F
  0.6759731335760719  0.0030455839730408  0.5389428258897908   F   F   F
  0.0701974389597027  0.7539238170255089  0.5394608437315043   F   F   F
  0.3187813632789727  0.4956309054062515  0.4631802416306741   F   F   F
  0.4268122695549010  0.7453194941977230  0.4629144845244042   F   F   F
  0.1758538411284150  0.5034977855150942  0.5402924475589259   F   F   F
  0.5711926412406854  0.7526250522505507  0.5393376947597659   F   F   F
  0.8174561431909879  0.4957795973027856  0.4553585512342337   F   F   F
  0.9268810566370718  0.7460921858662246  0.4616072183278774   F   F   F
  0.6828734802280394  0.5026125349934887  0.5374428334052794   F   F   F
  0.3762932481249877  0.3705884030134783  0.3835773483920732   F   F   F
  0.1248954699578562  0.9773309915752364  0.4117258559534207   F   F   F
  0.3710800074227691  0.0216359187631454  0.5894305096931589   F   F   F
  0.1254661870318898  0.3789347552833249  0.6184129728087129   F   F   F
  0.3743338455850207  0.2720865471154639  0.5895155437838397   F   F   F
  0.1205833550744657  0.2274015737316830  0.4118176994003235   F   F   F
  0.1171931954162417  0.1289891404666150  0.6176899397676863   F   F   F
  0.3672176070537461  0.1206903486927260  0.3830580984110838   F   F   F
  0.8796316507648783  0.3680896333175454  0.3814763119880240   F   F   F
  0.6244909006736705  0.9773199534839279  0.4117521825689394   F   F   F
  0.8709416527006013  0.0213728241512072  0.5893739642519265   F   F   F
  0.6296033907324272  0.3799019406520330  0.6168796900088651   F   F   F
  0.8727021982305203  0.2716074261980950  0.5889823398343452   F   F   F
  0.6205745234473881  0.2275815440594471  0.4111733298084275   F   F   F
  0.6173377343418238  0.1288431904704979  0.6176034470968048   F   F   F
  0.8674810910559856  0.1196446958206607  0.3825667101946095   F   F   F
  0.3784710106455549  0.8698055272673315  0.3835579012603247   F   F   F
  0.1233545578330464  0.4773077653398374  0.4130851501786807   F   F   F
  0.3718426729534059  0.5214392115816082  0.5902447909605328   F   F   F
  0.1281866063022079  0.8790587393452824  0.6184004527602127   F   F   F
  0.3752364941122579  0.7710189898687005  0.5898680788500741   F   F   F
  0.1216430881743875  0.7271259369205367  0.4122541595673894   F   F   F
  0.1154446323443707  0.6286099749381364  0.6187134679249624   F   F   F
  0.3666301299346486  0.6200170392290403  0.3842004441630849   F   F   F
  0.8786290138564468  0.8705851698556870  0.3828597977005046   F   F   F
  0.6218961896963080  0.4771441986246074  0.4105115194509423   F   F   F
  0.8703763077614894  0.5210565038365829  0.5894904676285151   F   F   F
  0.6290569725607753  0.8783858698651628  0.6181701922750023   F   F   F
  0.8743120641581612  0.7694346166755608  0.5885876913950270   F   F   F
  0.6210264345807843  0.7274253995196887  0.4115720295439118   F   F   F
  0.6201947018881881  0.6268621235983858  0.6169440213492763   F   F   F
  0.8696120824121181  0.6223463480319751  0.3809498145200436   F   F   F
  0.8759541305939109  0.5387921561005697  0.6822003396858827   T   T   T
 
  0.00000000E+00  0.00000000E+00  0.00000000E+00
  0.00000000E+00  0.00000000E+00  0.00000000E+00
  0.00000000E+00  0.00000000E+00  0.00000000E+00
  0.00000000E+00  0.00000000E+00  0.00000000E+00
  0.00000000E+00  0.00000000E+00  0.00000000E+00
  0.00000000E+00  0.00000000E+00  0.00000000E+00
  0.00000000E+00  0.00000000E+00  0.00000000E+00
  0.00000000E+00  0.00000000E+00  0.00000000E+00
  0.00000000E+00  0.00000000E+00  0.00000000E+00
  0.00000000E+00  0.00000000E+00  0.00000000E+00
  0.00000000E+00  0.00000000E+00  0.00000000E+00
  0.00000000E+00  0.00000000E+00  0.00000000E+00
  0.00000000E+00  0.00000000E+00  0.00000000E+00
  0.00000000E+00  0.00000000E+00  0.00000000E+00
  0.00000000E+00  0.00000000E+00  0.00000000E+00
  0.00000000E+00  0.00000000E+00  0.00000000E+00
  0.00000000E+00  0.00000000E+00  0.00000000E+00
  0.00000000E+00  0.00000000E+00  0.00000000E+00
  0.00000000E+00  0.00000000E+00  0.00000000E+00
  0.00000000E+00  0.00000000E+00  0.00000000E+00
  0.00000000E+00  0.00000000E+00  0.00000000E+00
  0.00000000E+00  0.00000000E+00  0.00000000E+00
  0.00000000E+00  0.00000000E+00  0.00000000E+00
  0.00000000E+00  0.00000000E+00  0.00000000E+00
  0.00000000E+00  0.00000000E+00  0.00000000E+00
  0.00000000E+00  0.00000000E+00  0.00000000E+00
  0.00000000E+00  0.00000000E+00  0.00000000E+00
  0.00000000E+00  0.00000000E+00  0.00000000E+00
  0.00000000E+00  0.00000000E+00  0.00000000E+00
  0.00000000E+00  0.00000000E+00  0.00000000E+00
  0.00000000E+00  0.00000000E+00  0.00000000E+00
  0.00000000E+00  0.00000000E+00  0.00000000E+00
  0.00000000E+00  0.00000000E+00  0.00000000E+00
  0.00000000E+00  0.00000000E+00  0.00000000E+00
  0.00000000E+00  0.00000000E+00  0.00000000E+00
  0.00000000E+00  0.00000000E+00  0.00000000E+00
  0.00000000E+00  0.00000000E+00  0.00000000E+00
  0.00000000E+00  0.00000000E+00  0.00000000E+00
  0.00000000E+00  0.00000000E+00  0.00000000E+00
  0.00000000E+00  0.00000000E+00  0.00000000E+00
  0.00000000E+00  0.00000000E+00  0.00000000E+00
  0.00000000E+00  0.00000000E+00  0.00000000E+00
  0.00000000E+00  0.00000000E+00  0.00000000E+00
  0.00000000E+00  0.00000000E+00  0.00000000E+00
  0.00000000E+00  0.00000000E+00  0.00000000E+00
  0.00000000E+00  0.00000000E+00  0.00000000E+00
  0.00000000E+00  0.00000000E+00  0.00000000E+00
  0.00000000E+00  0.00000000E+00  0.00000000E+00
  0.00000000E+00  0.00000000E+00  0.00000000E+00
  0.00000000E+00  0.00000000E+00  0.00000000E+00
  0.00000000E+00  0.00000000E+00  0.00000000E+00
  0.00000000E+00  0.00000000E+00  0.00000000E+00
  0.00000000E+00  0.00000000E+00  0.00000000E+00
  0.00000000E+00  0.00000000E+00  0.00000000E+00
  0.00000000E+00  0.00000000E+00  0.00000000E+00
  0.00000000E+00  0.00000000E+00  0.00000000E+00
  0.00000000E+00  0.00000000E+00  0.00000000E+00
  0.00000000E+00  0.00000000E+00  0.00000000E+00
  0.00000000E+00  0.00000000E+00  0.00000000E+00
  0.00000000E+00  0.00000000E+00  0.00000000E+00
  0.00000000E+00  0.00000000E+00  0.00000000E+00
  0.00000000E+00  0.00000000E+00  0.00000000E+00
  0.00000000E+00  0.00000000E+00  0.00000000E+00
  0.00000000E+00  0.00000000E+00  0.00000000E+00
  0.00000000E+00  0.00000000E+00  0.00000000E+00
