CONTCAR\(7)                             
   1.00000000000000     
    12.0179996490000001    0.0000000000000000    0.0000000000000000
     5.5443836140000000   17.3830097696000010    0.0000000000000000
     0.0000000000000000    0.0000000000000000   18.4081001282000010
   Nb   Ir   Se   O 
    16     4    40     1
Direct
  0.3140357236906038  0.4167597927303550  0.5016406923944510
  0.3702320776134468  0.2085222951522448  0.5039700748431223
  0.0439542154444166  0.0040179502473342  0.4990462489978911
  0.0869123767563350  0.3198188835581646  0.4977260001195761
  0.8147497246672480  0.4162414844758400  0.5012709180386293
  0.8716432008734809  0.2079850991141741  0.5044557135210962
  0.5439581983639705  0.0040959681020524  0.4990244300768507
  0.5881214736753156  0.3166257482694106  0.4990486765824715
  0.3131888691883325  0.9207374264907818  0.4982907740209884
  0.3753938851818536  0.6948314069052129  0.5023120545708737
  0.0413406288111312  0.4959857242175309  0.5052817381412098
  0.0804371473920102  0.8118259493585211  0.4981552800500288
  0.8133660312709023  0.9207809438208177  0.4983450423049822
  0.8758804375797373  0.6939983851058632  0.5040327121974839
  0.5403275305037467  0.4970586959976645  0.5011980189653894
  0.5802586790296728  0.8115053480839460  0.4984816202969413
  0.2112660370522582  0.0970593396099160  0.5007212928587628
  0.7112713332489996  0.0970520885700831  0.5008555148605547
  0.2115235030250640  0.5923581918757636  0.5021842640229968
  0.7112963105384746  0.5924931630074388  0.5018557182364057
  0.1850856671331187  0.0075571035094405  0.5988849798051810
  0.0432729659549948  0.1081763590653107  0.4129733601975156
  0.2655081479153664  0.3071061561145543  0.5915322537987806
  0.1525196573254061  0.4043185954564853  0.4060989878790072
  0.3792145174571880  0.0971916086123205  0.5860580312760502
  0.2226811397264772  0.2039910924301060  0.4111506882467076
  0.4745197398709552  0.4063800446441562  0.5947543266234311
  0.3532967412874317  0.0109296023137611  0.4097049424245425
  0.0708090267026201  0.2015306279534624  0.5752001185887105
  0.4295044438160522  0.3053523342906627  0.4120454696509731
  0.6852379957616792  0.0073705018826265  0.5989011268266483
  0.5430730092151481  0.1083147332577192  0.4131854181956305
  0.7661692489055030  0.3068463459190171  0.5912728767048602
  0.6522306897754591  0.4023879939367312  0.4061340703791143
  0.8794775457922609  0.0968912296475456  0.5862644965659987
  0.7229429194877854  0.2038440976419361  0.4112340225873611
  0.9739027282615147  0.4064418312683746  0.5988040629545061
  0.8531847117369848  0.0110106265998347  0.4096334452658905
  0.5705832582652929  0.2004777836563217  0.5764890304689925
  0.9299623766741171  0.3054062947860147  0.4117335660311444
  0.1837702782808911  0.5041316688394349  0.6023502799694542
  0.0410230538469248  0.6033830297503661  0.4162402412508097
  0.2697294284237943  0.8058907532536477  0.5821262930573645
  0.1512555039263283  0.8999434015731748  0.4098654086938045
  0.3748571747627615  0.5945102719296824  0.5907841896609258
  0.2230563958492516  0.6964244664935683  0.4103095784309113
  0.4782252478499666  0.9074366441451788  0.5933587244828689
  0.3523631171064791  0.5069194811733767  0.4117401588851388
  0.0707964048312185  0.6964453896245990  0.5772477638606206
  0.4264720954036857  0.8049221016681226  0.4104286079132694
  0.6811720346205662  0.5036686644371112  0.6007731130999424
  0.5423924870757080  0.6046049263229929  0.4140569690263916
  0.7695558762112149  0.8063119839235414  0.5825121028182968
  0.6512918022008033  0.8998165094447445  0.4102325748131974
  0.8729418324266098  0.5941609271520362  0.5925031556587630
  0.7246202697512488  0.6967627593553626  0.4108789295651505
  0.9786113937998797  0.9073709021676049  0.5933444791877517
  0.8532612331916860  0.5064812961657904  0.4125921842889678
  0.5701832953305670  0.6963112954920457  0.5768233677523797
  0.9261581545327078  0.8045942568311414  0.4109142312816248
  0.4753694996053346  0.4159187935769760  0.6853450567305815
 
  0.00000000E+00  0.00000000E+00  0.00000000E+00
  0.00000000E+00  0.00000000E+00  0.00000000E+00
  0.00000000E+00  0.00000000E+00  0.00000000E+00
  0.00000000E+00  0.00000000E+00  0.00000000E+00
  0.00000000E+00  0.00000000E+00  0.00000000E+00
  0.00000000E+00  0.00000000E+00  0.00000000E+00
  0.00000000E+00  0.00000000E+00  0.00000000E+00
  0.00000000E+00  0.00000000E+00  0.00000000E+00
  0.00000000E+00  0.00000000E+00  0.00000000E+00
  0.00000000E+00  0.00000000E+00  0.00000000E+00
  0.00000000E+00  0.00000000E+00  0.00000000E+00
  0.00000000E+00  0.00000000E+00  0.00000000E+00
  0.00000000E+00  0.00000000E+00  0.00000000E+00
  0.00000000E+00  0.00000000E+00  0.00000000E+00
  0.00000000E+00  0.00000000E+00  0.00000000E+00
  0.00000000E+00  0.00000000E+00  0.00000000E+00
  0.00000000E+00  0.00000000E+00  0.00000000E+00
  0.00000000E+00  0.00000000E+00  0.00000000E+00
  0.00000000E+00  0.00000000E+00  0.00000000E+00
  0.00000000E+00  0.00000000E+00  0.00000000E+00
  0.00000000E+00  0.00000000E+00  0.00000000E+00
  0.00000000E+00  0.00000000E+00  0.00000000E+00
  0.00000000E+00  0.00000000E+00  0.00000000E+00
  0.00000000E+00  0.00000000E+00  0.00000000E+00
  0.00000000E+00  0.00000000E+00  0.00000000E+00
  0.00000000E+00  0.00000000E+00  0.00000000E+00
  0.00000000E+00  0.00000000E+00  0.00000000E+00
  0.00000000E+00  0.00000000E+00  0.00000000E+00
  0.00000000E+00  0.00000000E+00  0.00000000E+00
  0.00000000E+00  0.00000000E+00  0.00000000E+00
  0.00000000E+00  0.00000000E+00  0.00000000E+00
  0.00000000E+00  0.00000000E+00  0.00000000E+00
  0.00000000E+00  0.00000000E+00  0.00000000E+00
  0.00000000E+00  0.00000000E+00  0.00000000E+00
  0.00000000E+00  0.00000000E+00  0.00000000E+00
  0.00000000E+00  0.00000000E+00  0.00000000E+00
  0.00000000E+00  0.00000000E+00  0.00000000E+00
  0.00000000E+00  0.00000000E+00  0.00000000E+00
  0.00000000E+00  0.00000000E+00  0.00000000E+00
  0.00000000E+00  0.00000000E+00  0.00000000E+00
  0.00000000E+00  0.00000000E+00  0.00000000E+00
  0.00000000E+00  0.00000000E+00  0.00000000E+00
  0.00000000E+00  0.00000000E+00  0.00000000E+00
  0.00000000E+00  0.00000000E+00  0.00000000E+00
  0.00000000E+00  0.00000000E+00  0.00000000E+00
  0.00000000E+00  0.00000000E+00  0.00000000E+00
  0.00000000E+00  0.00000000E+00  0.00000000E+00
  0.00000000E+00  0.00000000E+00  0.00000000E+00
  0.00000000E+00  0.00000000E+00  0.00000000E+00
  0.00000000E+00  0.00000000E+00  0.00000000E+00
  0.00000000E+00  0.00000000E+00  0.00000000E+00
  0.00000000E+00  0.00000000E+00  0.00000000E+00
  0.00000000E+00  0.00000000E+00  0.00000000E+00
  0.00000000E+00  0.00000000E+00  0.00000000E+00
  0.00000000E+00  0.00000000E+00  0.00000000E+00
  0.00000000E+00  0.00000000E+00  0.00000000E+00
  0.00000000E+00  0.00000000E+00  0.00000000E+00
  0.00000000E+00  0.00000000E+00  0.00000000E+00
  0.00000000E+00  0.00000000E+00  0.00000000E+00
  0.00000000E+00  0.00000000E+00  0.00000000E+00
  0.00000000E+00  0.00000000E+00  0.00000000E+00
