 V1 Ag1 P2 Se6                          
   1.00000000000000     
     6.3480973688140905    0.0000000000000000    0.0000000000000000
     3.1740486844070452    5.5083026814189360    0.0000000000000000
     0.0000000000000000    0.0000000000000000   18.4927657223940045
   V    Ag   P    Se
     1     1     2     6
Direct
  0.3277034171780330  0.3445903859667993  0.4999997341883195
  0.6660694340070057  0.6678620161154099  0.5000000273237486
 -0.0023444920690796  0.0068892160353727  0.5600884354496810
  0.9954554462781645  0.0068890413175554  0.4399117159764961
  0.3102714352052486  0.6509798698649918  0.4063640605982065
  0.0387489344890514  0.6509797947600698  0.5936360652943974
  0.6403505592035503  0.3218512864014357  0.5930892015851341
  0.0377982344991919  0.3218512989795863  0.4069106192376865
  0.6390959120918394  0.0474580343384321  0.4075752654144247
  0.3134461191169867  0.0474580562203605  0.5924248749319052
 
  0.00000000E+00  0.00000000E+00  0.00000000E+00
  0.00000000E+00  0.00000000E+00  0.00000000E+00
  0.00000000E+00  0.00000000E+00  0.00000000E+00
  0.00000000E+00  0.00000000E+00  0.00000000E+00
  0.00000000E+00  0.00000000E+00  0.00000000E+00
  0.00000000E+00  0.00000000E+00  0.00000000E+00
  0.00000000E+00  0.00000000E+00  0.00000000E+00
  0.00000000E+00  0.00000000E+00  0.00000000E+00
  0.00000000E+00  0.00000000E+00  0.00000000E+00
  0.00000000E+00  0.00000000E+00  0.00000000E+00
