CONTCAR                                 
   1.00000000000000     
    14.0806999207000008    0.0000000000000000    0.0000000000000000
     0.0000000000000000   14.0806999207000008    0.0000000000000000
     0.0000000000000000    0.0000000000000000   21.7056999206999990
   Zr   Si   Se   O    H 
    32    32    32     2     1
Direct
  0.1242491058986886  0.0009080822290152  0.5999795653336581
  0.9995961995699815  0.1258362003942428  0.4002253179146142
  0.3745952861902243  0.0008926581976679  0.6004266408493216
  0.2497730647009715  0.1260540800484634  0.4007920252205534
  0.6250065581543994  0.0008838219471823  0.6000609543969987
  0.4993963654248202  0.1259846640969399  0.4009219785044847
  0.8747488895414046  0.0009062569427564  0.5997187868353966
  0.7495468221814833  0.1258511907254859  0.4003082359248822
  0.1228778229332816  0.2492087737281626  0.5997536551852334
  0.9997196616507823  0.3760091684490349  0.4007383640280766
  0.3741587953273172  0.2498278080074874  0.6012436638175611
  0.2499602072242654  0.3763855620061955  0.4023068518629009
  0.6266951734876592  0.2487271505519882  0.5999422542698295
  0.4992536125882719  0.3763428053962787  0.4024097884424870
  0.8746598981478882  0.2506373393293871  0.5999579470356037
  0.7494173671182566  0.3760043422753686  0.4008442149423904
  0.1241288199574275  0.5010338417634337  0.6012696556419348
  0.9997259406122578  0.6256958007844891  0.4007158357159886
  0.3739869688168063  0.4989064621992240  0.6125201105182003
  0.2500160320941766  0.6254354827265023  0.4022515150395604
  0.6253301371701200  0.5015840824430525  0.6013338258560409
  0.4991612493335086  0.6253702098961976  0.4023423390782002
  0.8746434756203565  0.5009734873226904  0.6003670866092745
  0.7494005130121275  0.6257087774616990  0.4007875025533633
  0.1228356282624630  0.7527161959188331  0.5999097596900780
  0.9996118036516887  0.8758628743587770  0.4002266223844260
  0.3745906178187883  0.7510959568899835  0.6015863512867317
  0.2498640763627780  0.8756042060022194  0.4008350300779820
  0.6262845837742302  0.7526673917525166  0.6000488617056398
  0.4994105681496407  0.8755849832987151  0.4009436684575711
  0.8747178772467402  0.7513090081672238  0.6000118965533809
  0.7495407057011835  0.8758097587577716  0.4003083490197910
  0.9995638055266758  0.0008454618845750  0.4998940601918850
  0.1245421710915787  0.1255747363209155  0.5000215012240251
  0.2496649237354596  0.0008260991924948  0.5004270755365708
  0.3745208624225866  0.1259949633832622  0.5008020169162010
  0.4996824100597078  0.0008307349233514  0.5005714215382320
  0.6247269340922452  0.1255368735773779  0.5001449530850522
  0.7498048837856223  0.0008130338325273  0.4999494479410159
  0.8746152306289878  0.1256851562863028  0.4999126774113564
  0.9992300709781339  0.2507569240045599  0.4999960220342413
  0.1243415774534952  0.3761308917164084  0.5008852173882964
  0.2496962267603655  0.2508792528997211  0.5009629146693660
  0.3746820735046792  0.3770419678858348  0.5034266371629841
  0.4994941796021639  0.2507396127510504  0.5011769039360116
  0.6247753477563768  0.3761362628652663  0.5011062639033147
  0.7499712492857779  0.2508751805033112  0.5001327423278568
  0.8746429362623590  0.3759510566715729  0.5004272451975114
  0.9997294423530486  0.5009423937932889  0.5006476225015628
  0.1244585679037234  0.6258636198259043  0.5009431050275089
  0.2500569760851925  0.5010164709503755  0.5029642579821892
  0.3745252751912314  0.6248771393955657  0.5033244708788810
  0.4991571080274586  0.5010227508405287  0.5031036565642255
  0.6247872762985632  0.6258995130399575  0.5010338410661762
  0.7495274817867721  0.5009646363532163  0.5007680342115480
  0.8746130127067134  0.6259451063075108  0.5004554193427554
  0.9992660398491613  0.7509449624007543  0.5000467904940618
  0.1246057062050881  0.8761630610962656  0.5000660577703289
  0.2498613547315520  0.7509741629609056  0.5010543939321753
  0.3746003325616152  0.8756436761329295  0.5008822231755706
  0.4993777670085022  0.7508890767463183  0.5011758118982597
  0.6247428137925397  0.8761393011674964  0.5001924982905488
  0.7499524213147379  0.7510486823101306  0.5001672166316112
  0.8746538203252440  0.8760750094946799  0.4999086154437101
  0.9990401141051505  0.1252370911959159  0.6546533111451386
  0.1249757879027781  0.0008140373820816  0.3462809366068378
  0.2490780301661842  0.1248720126453853  0.6545807447172775
  0.3747066532975034  0.0007757409067197  0.3466305306412432
  0.4999910471516348  0.1249693745953771  0.6547550570809557
  0.6243246204878922  0.0008331913020508  0.3464190920176481
  0.7504793372448048  0.1252232199721555  0.6547571906316033
  0.8745581773426041  0.0008053465166978  0.3457919536989706
  0.9986169459188390  0.3755884286764012  0.6544202876439019
  0.1250862394387706  0.2513676865235027  0.3467377804986646
  0.2432038134078054  0.3697853534628224  0.6536581560820635
  0.3746641408533319  0.2515239027399170  0.3472927488457121
  0.5060287693543231  0.3697452197585572  0.6537073932570846
  0.6237969962966646  0.2512473040664002  0.3469212510780061
  0.7505043388236553  0.3755914930124661  0.6545683128438948
  0.8744397187597779  0.2511059624025335  0.3461372851048152
  0.9985679920568310  0.6263504840248744  0.6545192040404546
  0.1252442767143233  0.5008196602610869  0.3470826432840542
  0.2432815067937049  0.6319863520349355  0.6538170458368077
  0.3746546162768897  0.5007531532434104  0.3478600245781914
  0.5056730044567554  0.6317056217341599  0.6543040816223161
  0.6239740075019045  0.5007065944455412  0.3471915981526619
  0.7507294092304140  0.6265785767454697  0.6546390357251749
  0.8745446329921576  0.5007817534628939  0.3464909678022662
  0.9989261629468699  0.8768071140046315  0.6548139723035998
  0.1251217110041534  0.7503493986768431  0.3467631089898827
  0.2491802604304875  0.8769518993112452  0.6544956670474757
  0.3747099977322597  0.7502457584410562  0.3471411386657187
  0.4999919326320226  0.8769763228702443  0.6546481347440153
  0.6237037642689425  0.7502390114089974  0.3468489832322166
  0.7504708377355177  0.8766429920804065  0.6547629038790863
  0.8745513784124060  0.7506381245532948  0.3461460749754797
  0.3737000910863935  0.5074420135807648  0.7095008101304437
  0.3675797608420744  0.4360443790258763  0.7570225041813482
  0.4236358075228143  0.3959892543519445  0.7476200004877969
 
  0.00000000E+00  0.00000000E+00  0.00000000E+00
  0.00000000E+00  0.00000000E+00  0.00000000E+00
  0.00000000E+00  0.00000000E+00  0.00000000E+00
  0.00000000E+00  0.00000000E+00  0.00000000E+00
  0.00000000E+00  0.00000000E+00  0.00000000E+00
  0.00000000E+00  0.00000000E+00  0.00000000E+00
  0.00000000E+00  0.00000000E+00  0.00000000E+00
  0.00000000E+00  0.00000000E+00  0.00000000E+00
  0.00000000E+00  0.00000000E+00  0.00000000E+00
  0.00000000E+00  0.00000000E+00  0.00000000E+00
  0.00000000E+00  0.00000000E+00  0.00000000E+00
  0.00000000E+00  0.00000000E+00  0.00000000E+00
  0.00000000E+00  0.00000000E+00  0.00000000E+00
  0.00000000E+00  0.00000000E+00  0.00000000E+00
  0.00000000E+00  0.00000000E+00  0.00000000E+00
  0.00000000E+00  0.00000000E+00  0.00000000E+00
  0.00000000E+00  0.00000000E+00  0.00000000E+00
  0.00000000E+00  0.00000000E+00  0.00000000E+00
  0.00000000E+00  0.00000000E+00  0.00000000E+00
  0.00000000E+00  0.00000000E+00  0.00000000E+00
  0.00000000E+00  0.00000000E+00  0.00000000E+00
  0.00000000E+00  0.00000000E+00  0.00000000E+00
  0.00000000E+00  0.00000000E+00  0.00000000E+00
  0.00000000E+00  0.00000000E+00  0.00000000E+00
  0.00000000E+00  0.00000000E+00  0.00000000E+00
  0.00000000E+00  0.00000000E+00  0.00000000E+00
  0.00000000E+00  0.00000000E+00  0.00000000E+00
  0.00000000E+00  0.00000000E+00  0.00000000E+00
  0.00000000E+00  0.00000000E+00  0.00000000E+00
  0.00000000E+00  0.00000000E+00  0.00000000E+00
  0.00000000E+00  0.00000000E+00  0.00000000E+00
  0.00000000E+00  0.00000000E+00  0.00000000E+00
  0.00000000E+00  0.00000000E+00  0.00000000E+00
  0.00000000E+00  0.00000000E+00  0.00000000E+00
  0.00000000E+00  0.00000000E+00  0.00000000E+00
  0.00000000E+00  0.00000000E+00  0.00000000E+00
  0.00000000E+00  0.00000000E+00  0.00000000E+00
  0.00000000E+00  0.00000000E+00  0.00000000E+00
  0.00000000E+00  0.00000000E+00  0.00000000E+00
  0.00000000E+00  0.00000000E+00  0.00000000E+00
  0.00000000E+00  0.00000000E+00  0.00000000E+00
  0.00000000E+00  0.00000000E+00  0.00000000E+00
  0.00000000E+00  0.00000000E+00  0.00000000E+00
  0.00000000E+00  0.00000000E+00  0.00000000E+00
  0.00000000E+00  0.00000000E+00  0.00000000E+00
  0.00000000E+00  0.00000000E+00  0.00000000E+00
  0.00000000E+00  0.00000000E+00  0.00000000E+00
  0.00000000E+00  0.00000000E+00  0.00000000E+00
  0.00000000E+00  0.00000000E+00  0.00000000E+00
  0.00000000E+00  0.00000000E+00  0.00000000E+00
  0.00000000E+00  0.00000000E+00  0.00000000E+00
  0.00000000E+00  0.00000000E+00  0.00000000E+00
  0.00000000E+00  0.00000000E+00  0.00000000E+00
  0.00000000E+00  0.00000000E+00  0.00000000E+00
  0.00000000E+00  0.00000000E+00  0.00000000E+00
  0.00000000E+00  0.00000000E+00  0.00000000E+00
  0.00000000E+00  0.00000000E+00  0.00000000E+00
  0.00000000E+00  0.00000000E+00  0.00000000E+00
  0.00000000E+00  0.00000000E+00  0.00000000E+00
  0.00000000E+00  0.00000000E+00  0.00000000E+00
  0.00000000E+00  0.00000000E+00  0.00000000E+00
  0.00000000E+00  0.00000000E+00  0.00000000E+00
  0.00000000E+00  0.00000000E+00  0.00000000E+00
  0.00000000E+00  0.00000000E+00  0.00000000E+00
  0.00000000E+00  0.00000000E+00  0.00000000E+00
  0.00000000E+00  0.00000000E+00  0.00000000E+00
  0.00000000E+00  0.00000000E+00  0.00000000E+00
  0.00000000E+00  0.00000000E+00  0.00000000E+00
  0.00000000E+00  0.00000000E+00  0.00000000E+00
  0.00000000E+00  0.00000000E+00  0.00000000E+00
  0.00000000E+00  0.00000000E+00  0.00000000E+00
  0.00000000E+00  0.00000000E+00  0.00000000E+00
  0.00000000E+00  0.00000000E+00  0.00000000E+00
  0.00000000E+00  0.00000000E+00  0.00000000E+00
  0.00000000E+00  0.00000000E+00  0.00000000E+00
  0.00000000E+00  0.00000000E+00  0.00000000E+00
  0.00000000E+00  0.00000000E+00  0.00000000E+00
  0.00000000E+00  0.00000000E+00  0.00000000E+00
  0.00000000E+00  0.00000000E+00  0.00000000E+00
  0.00000000E+00  0.00000000E+00  0.00000000E+00
  0.00000000E+00  0.00000000E+00  0.00000000E+00
  0.00000000E+00  0.00000000E+00  0.00000000E+00
  0.00000000E+00  0.00000000E+00  0.00000000E+00
  0.00000000E+00  0.00000000E+00  0.00000000E+00
  0.00000000E+00  0.00000000E+00  0.00000000E+00
  0.00000000E+00  0.00000000E+00  0.00000000E+00
  0.00000000E+00  0.00000000E+00  0.00000000E+00
  0.00000000E+00  0.00000000E+00  0.00000000E+00
  0.00000000E+00  0.00000000E+00  0.00000000E+00
  0.00000000E+00  0.00000000E+00  0.00000000E+00
  0.00000000E+00  0.00000000E+00  0.00000000E+00
  0.00000000E+00  0.00000000E+00  0.00000000E+00
  0.00000000E+00  0.00000000E+00  0.00000000E+00
  0.00000000E+00  0.00000000E+00  0.00000000E+00
  0.00000000E+00  0.00000000E+00  0.00000000E+00
  0.00000000E+00  0.00000000E+00  0.00000000E+00
  0.00000000E+00  0.00000000E+00  0.00000000E+00
  0.00000000E+00  0.00000000E+00  0.00000000E+00
  0.00000000E+00  0.00000000E+00  0.00000000E+00
