CONTCAR\(4)                             
   1.00000000000000     
    11.6593999863000004    0.0000000000000000    0.0000000000000000
    -5.8296999931000002   10.0973365810000004    0.0000000000000000
     0.0000000000000000    0.0000000000000000   24.5373001098999985
   Zn   In   S    O    H 
     9    18    36     1     1
Selective dynamics
Direct
  0.1150619670343929  0.2252405686845265  0.3250249755146797   F   F   F
  0.4487893733323887  0.2253918060952955  0.3208767143941600   F   F   F
  0.7820674268607419  0.2245553017093798  0.3214792157757174   F   F   F
  0.1150890769973998  0.5566937422028033  0.3250623820743002   F   F   F
  0.4477423341698028  0.5572787220991486  0.3253133411007383   F   F   F
  0.7740141165830110  0.5401897064703931  0.3325785302169209   F   F   F
  0.1323090857690943  0.8996340407810663  0.3287686500791196   F   F   F
  0.4488039342842498  0.8904312107319328  0.3208808511363870   F   F   F
  0.7740152559523352  0.9007773357085469  0.3326914135171464   F   F   F
  0.0022825873821404  0.0029109560361888  0.4845406093853981   F   F   F
  0.2224302557371090  0.1101530830471162  0.6469103179924502   F   F   F
  0.3356529592415711  0.0016817383414534  0.4822589369076269   F   F   F
  0.5560235918046175  0.1107858292258612  0.6475322367581597   F   F   F
  0.6658289293364490  0.0022120712704705  0.4830342700529613   F   F   F
  0.8889003677423233  0.1103471972916168  0.6471577975864804   F   F   F
  0.0001392397152884  0.3334527784318340  0.4831153024928554   F   F   F
  0.2224154809471131  0.4436926218000110  0.6461816107095544   F   F   F
  0.3336497690072875  0.3335074143679648  0.4821075305770393   F   F   F
  0.5557850072090673  0.4442590752714111  0.6466099281906565   F   F   F
  0.6657675441509525  0.3306731608780993  0.4832458447023029   F   F   F
  0.8886679103966983  0.4436684305784979  0.6471081047543237   F   F   F
  0.0024316989585813  0.6666570078681389  0.4840483090410928   F   F   F
  0.2223103516320819  0.7773051101156767  0.6465403272725823   F   F   F
  0.3340325054942923  0.6679271973943983  0.4822567255188375   F   F   F
  0.5557532307184871  0.7773193639036009  0.6465944350945492   F   F   F
  0.6646207841963658  0.6659658337130949  0.4842913051437776   F   F   F
  0.8889111761757249  0.7773057085606752  0.6468993457125265   F   F   F
  0.2258012234291726  0.1146069881304115  0.3046435625519308   F   F   F
  0.2240583138047114  0.1114902919063780  0.5475209263727123   F   F   F
  0.1109955604630457  0.2220522364486186  0.4321026696039141   F   F   F
  0.1116713226250283  0.2219364938528443  0.6928684108615215   F   F   F
  0.5594453008219560  0.1132514955493846  0.3060477998025846   F   F   F
  0.5552808549307855  0.1111176741601128  0.5482335099763915   F   F   F
  0.4454614991808299  0.2232065685337972  0.4313842496924991   F   F   F
  0.4446250223209276  0.2222881322695542  0.6931218652245192   F   F   F
  0.8937152527287111  0.1134514589433877  0.3049432456657399   F   F   F
  0.8881345796926112  0.1111345860807162  0.5478922932294239   F   F   F
  0.7788842218566572  0.2230740479501563  0.4317920560788977   F   F   F
  0.7782364375631303  0.2217929387465603  0.6935675167796163   F   F   F
  0.2264603774335399  0.4466700408061968  0.3068089388245951   F   F   F
  0.2230454840895817  0.4448969365640139  0.5471681075033104   F   F   F
  0.1113467788957507  0.5558730760350841  0.4321185839470374   F   F   F
  0.1116637504269846  0.5550419247428167  0.6926396283565026   F   F   F
  0.5609654382045122  0.4489877683087116  0.3041408389656723   F   F   F
  0.5556517134687766  0.4438457775788720  0.5474072257188141   F   F   F
  0.4457720975844452  0.5566033656430349  0.4318235289292289   F   F   F
  0.4443047920738010  0.5549938456434660  0.6927802523325113   F   F   F
  0.8938102562651267  0.4472388343638016  0.3048742987002129   F   F   F
  0.8882523732417766  0.4440299951867601  0.5478304727536099   F   F   F
  0.7788527360768072  0.5567109150804370  0.4334765511272138   F   F   F
  0.7775625445718291  0.5550381669233673  0.6931955630735231   F   F   F
  0.2257843519182572  0.7780862105151272  0.3046485615281540   F   F   F
  0.2238564829391052  0.7796355976287899  0.5472436908519072   F   F   F
  0.1098345490582773  0.8887261561716002  0.4323286860216697   F   F   F
  0.1110617813420731  0.8880141366603738  0.6931480289852701   F   F   F
  0.5610240363626673  0.7788953436101664  0.3042445964230183   F   F   F
  0.5557064149231365  0.7791265999502741  0.5474367953988803   F   F   F
  0.4453271506456105  0.8894570223456810  0.4314214878706792   F   F   F
  0.4442795335711196  0.8879408079964293  0.6930904284080626   F   F   F
  0.8904389389418839  0.7786607834222750  0.3146314768599581   F   F   F
  0.8893362314228668  0.7780682671358647  0.5475410012731246   F   F   F
  0.7790705811270087  0.8892683041278957  0.4335230408523003   F   F   F
  0.7774917889727533  0.8880158693307223  0.6932582496436552   F   F   F
  0.8891827847329168  0.7783948076874339  0.2461150424928604   T   T   T
  0.7958821664623130  0.7325904203896983  0.2343063804156713   T   T   T
 
  0.00000000E+00  0.00000000E+00  0.00000000E+00
  0.00000000E+00  0.00000000E+00  0.00000000E+00
  0.00000000E+00  0.00000000E+00  0.00000000E+00
  0.00000000E+00  0.00000000E+00  0.00000000E+00
  0.00000000E+00  0.00000000E+00  0.00000000E+00
  0.00000000E+00  0.00000000E+00  0.00000000E+00
  0.00000000E+00  0.00000000E+00  0.00000000E+00
  0.00000000E+00  0.00000000E+00  0.00000000E+00
  0.00000000E+00  0.00000000E+00  0.00000000E+00
  0.00000000E+00  0.00000000E+00  0.00000000E+00
  0.00000000E+00  0.00000000E+00  0.00000000E+00
  0.00000000E+00  0.00000000E+00  0.00000000E+00
  0.00000000E+00  0.00000000E+00  0.00000000E+00
  0.00000000E+00  0.00000000E+00  0.00000000E+00
  0.00000000E+00  0.00000000E+00  0.00000000E+00
  0.00000000E+00  0.00000000E+00  0.00000000E+00
  0.00000000E+00  0.00000000E+00  0.00000000E+00
  0.00000000E+00  0.00000000E+00  0.00000000E+00
  0.00000000E+00  0.00000000E+00  0.00000000E+00
  0.00000000E+00  0.00000000E+00  0.00000000E+00
  0.00000000E+00  0.00000000E+00  0.00000000E+00
  0.00000000E+00  0.00000000E+00  0.00000000E+00
  0.00000000E+00  0.00000000E+00  0.00000000E+00
  0.00000000E+00  0.00000000E+00  0.00000000E+00
  0.00000000E+00  0.00000000E+00  0.00000000E+00
  0.00000000E+00  0.00000000E+00  0.00000000E+00
  0.00000000E+00  0.00000000E+00  0.00000000E+00
  0.00000000E+00  0.00000000E+00  0.00000000E+00
  0.00000000E+00  0.00000000E+00  0.00000000E+00
  0.00000000E+00  0.00000000E+00  0.00000000E+00
  0.00000000E+00  0.00000000E+00  0.00000000E+00
  0.00000000E+00  0.00000000E+00  0.00000000E+00
  0.00000000E+00  0.00000000E+00  0.00000000E+00
  0.00000000E+00  0.00000000E+00  0.00000000E+00
  0.00000000E+00  0.00000000E+00  0.00000000E+00
  0.00000000E+00  0.00000000E+00  0.00000000E+00
  0.00000000E+00  0.00000000E+00  0.00000000E+00
  0.00000000E+00  0.00000000E+00  0.00000000E+00
  0.00000000E+00  0.00000000E+00  0.00000000E+00
  0.00000000E+00  0.00000000E+00  0.00000000E+00
  0.00000000E+00  0.00000000E+00  0.00000000E+00
  0.00000000E+00  0.00000000E+00  0.00000000E+00
  0.00000000E+00  0.00000000E+00  0.00000000E+00
  0.00000000E+00  0.00000000E+00  0.00000000E+00
  0.00000000E+00  0.00000000E+00  0.00000000E+00
  0.00000000E+00  0.00000000E+00  0.00000000E+00
  0.00000000E+00  0.00000000E+00  0.00000000E+00
  0.00000000E+00  0.00000000E+00  0.00000000E+00
  0.00000000E+00  0.00000000E+00  0.00000000E+00
  0.00000000E+00  0.00000000E+00  0.00000000E+00
  0.00000000E+00  0.00000000E+00  0.00000000E+00
  0.00000000E+00  0.00000000E+00  0.00000000E+00
  0.00000000E+00  0.00000000E+00  0.00000000E+00
  0.00000000E+00  0.00000000E+00  0.00000000E+00
  0.00000000E+00  0.00000000E+00  0.00000000E+00
  0.00000000E+00  0.00000000E+00  0.00000000E+00
  0.00000000E+00  0.00000000E+00  0.00000000E+00
  0.00000000E+00  0.00000000E+00  0.00000000E+00
  0.00000000E+00  0.00000000E+00  0.00000000E+00
  0.00000000E+00  0.00000000E+00  0.00000000E+00
  0.00000000E+00  0.00000000E+00  0.00000000E+00
  0.00000000E+00  0.00000000E+00  0.00000000E+00
  0.00000000E+00  0.00000000E+00  0.00000000E+00
  0.00000000E+00  0.00000000E+00  0.00000000E+00
  0.00000000E+00  0.00000000E+00  0.00000000E+00
