CONTCAR\(17)                            
   1.00000000000000     
    13.6164999007999992    0.0000000000000000    0.0000000000000000
     0.0000000000000000   12.7049999237000009    0.0000000000000000
     0.0000000000000000    0.0000000000000000   19.1487998961999999
   Te   Mo
    32    16
Direct
  0.1874999959999997  0.2160301334271395  0.4215607410301772
  0.0625000000000000  0.2839698665728605  0.5784392589698228
  0.0625000000000000  0.4613502413779997  0.3917016920085956
  0.1874999959999997  0.0386497586220003  0.6082982829914059
  0.4374999959999997  0.2160301334271395  0.4215607410301772
  0.3124999870000025  0.2839698665728605  0.5784392589698228
  0.3124999870000025  0.4613502413779997  0.3917016920085956
  0.4374999959999997  0.0386497586220003  0.6082982829914059
  0.6874999779999982  0.2160301334271395  0.4215607410301772
  0.5625000040000003  0.2839698665728605  0.5784392589698228
  0.5625000040000003  0.4613502413779997  0.3917016920085956
  0.6874999779999982  0.0386497586220003  0.6082982829914059
  0.9374999959999997  0.2160301334271395  0.4215607410301772
  0.8124999870000025  0.2839698665728605  0.5784392589698228
  0.8124999870000025  0.4613502413779997  0.3917016920085956
  0.9374999959999997  0.0386497586220003  0.6082982829914059
  0.1874999959999997  0.7160301894271370  0.4215607410301772
  0.0625000000000000  0.7839698105728630  0.5784392589698228
  0.0625000000000000  0.9613502793780029  0.3917016920085956
  0.1874999959999997  0.5386497586220003  0.6082982829914059
  0.4374999959999997  0.7160301894271370  0.4215607410301772
  0.3124999870000025  0.7839698105728630  0.5784392589698228
  0.3124999870000025  0.9613502793780029  0.3917016920085956
  0.4374999959999997  0.5386497586220003  0.6082982829914059
  0.6874999779999982  0.7160301894271370  0.4215607410301772
  0.5625000040000003  0.7839698105728630  0.5784392589698228
  0.5625000040000003  0.9613502793780029  0.3917016920085956
  0.6874999779999982  0.5386497586220003  0.6082982829914059
  0.9374999959999997  0.7160301894271370  0.4215607410301772
  0.8124999870000025  0.7839698105728630  0.5784392589698228
  0.8124999870000025  0.9613502793780029  0.3917016920085956
  0.9374999959999997  0.5386497586220003  0.6082982829914059
  0.1874999959999997  0.4089507410312976  0.4954333647089300
  0.0625000000000000  0.0910392749687006  0.5045665852910730
  0.4374999959999997  0.4089507410312976  0.4954333647089300
  0.3124999870000025  0.0910392749687006  0.5045665852910730
  0.6874999779999982  0.4089507410312976  0.4954333647089300
  0.5625000040000003  0.0910392749687006  0.5045665852910730
  0.9374999959999997  0.4089507410312976  0.4954333647089300
  0.8124999870000025  0.0910392749687006  0.5045665852910730
  0.1874999959999997  0.9089507040312981  0.4954333647089300
  0.0625000000000000  0.5910392379687011  0.5045665852910730
  0.4374999959999997  0.9089507040312981  0.4954333647089300
  0.3124999870000025  0.5910392379687011  0.5045665852910730
  0.6874999779999982  0.9089507040312981  0.4954333647089300
  0.5625000040000003  0.5910392379687011  0.5045665852910730
  0.9374999959999997  0.9089507040312981  0.4954333647089300
  0.8124999870000025  0.5910392379687011  0.5045665852910730
 
  0.00000000E+00  0.00000000E+00  0.00000000E+00
  0.00000000E+00  0.00000000E+00  0.00000000E+00
  0.00000000E+00  0.00000000E+00  0.00000000E+00
  0.00000000E+00  0.00000000E+00  0.00000000E+00
  0.00000000E+00  0.00000000E+00  0.00000000E+00
  0.00000000E+00  0.00000000E+00  0.00000000E+00
  0.00000000E+00  0.00000000E+00  0.00000000E+00
  0.00000000E+00  0.00000000E+00  0.00000000E+00
  0.00000000E+00  0.00000000E+00  0.00000000E+00
  0.00000000E+00  0.00000000E+00  0.00000000E+00
  0.00000000E+00  0.00000000E+00  0.00000000E+00
  0.00000000E+00  0.00000000E+00  0.00000000E+00
  0.00000000E+00  0.00000000E+00  0.00000000E+00
  0.00000000E+00  0.00000000E+00  0.00000000E+00
  0.00000000E+00  0.00000000E+00  0.00000000E+00
  0.00000000E+00  0.00000000E+00  0.00000000E+00
  0.00000000E+00  0.00000000E+00  0.00000000E+00
  0.00000000E+00  0.00000000E+00  0.00000000E+00
  0.00000000E+00  0.00000000E+00  0.00000000E+00
  0.00000000E+00  0.00000000E+00  0.00000000E+00
  0.00000000E+00  0.00000000E+00  0.00000000E+00
  0.00000000E+00  0.00000000E+00  0.00000000E+00
  0.00000000E+00  0.00000000E+00  0.00000000E+00
  0.00000000E+00  0.00000000E+00  0.00000000E+00
  0.00000000E+00  0.00000000E+00  0.00000000E+00
  0.00000000E+00  0.00000000E+00  0.00000000E+00
  0.00000000E+00  0.00000000E+00  0.00000000E+00
  0.00000000E+00  0.00000000E+00  0.00000000E+00
  0.00000000E+00  0.00000000E+00  0.00000000E+00
  0.00000000E+00  0.00000000E+00  0.00000000E+00
  0.00000000E+00  0.00000000E+00  0.00000000E+00
  0.00000000E+00  0.00000000E+00  0.00000000E+00
  0.00000000E+00  0.00000000E+00  0.00000000E+00
  0.00000000E+00  0.00000000E+00  0.00000000E+00
  0.00000000E+00  0.00000000E+00  0.00000000E+00
  0.00000000E+00  0.00000000E+00  0.00000000E+00
  0.00000000E+00  0.00000000E+00  0.00000000E+00
  0.00000000E+00  0.00000000E+00  0.00000000E+00
  0.00000000E+00  0.00000000E+00  0.00000000E+00
  0.00000000E+00  0.00000000E+00  0.00000000E+00
  0.00000000E+00  0.00000000E+00  0.00000000E+00
  0.00000000E+00  0.00000000E+00  0.00000000E+00
  0.00000000E+00  0.00000000E+00  0.00000000E+00
  0.00000000E+00  0.00000000E+00  0.00000000E+00
  0.00000000E+00  0.00000000E+00  0.00000000E+00
  0.00000000E+00  0.00000000E+00  0.00000000E+00
  0.00000000E+00  0.00000000E+00  0.00000000E+00
  0.00000000E+00  0.00000000E+00  0.00000000E+00
