CONTCAR\(14)                            
   1.00000000000000     
    11.8042001723999999    0.0000000000000000    0.0000000000000000
     0.0000000000000000   11.8042001723999999    0.0000000000000000
     0.0000000000000000    0.0000000000000000   18.3845996856999996
   Li   H    Pd   O 
    32    32    16     1
Direct
  0.0000049232900583  0.9990870985883311  0.4178389723557565
  0.0002309236090533  0.9991910914852277  0.5848223860523831
  0.2523602382896210  0.0015338340716273  0.4199172482091864
  0.2525093002990985  0.0010820084963344  0.5838243536809444
  0.5006256916923638  0.0028008931358189  0.4188591780011385
  0.5004456451250059  0.0061773918071235  0.5853985064018923
  0.7483471342147491  0.0016842981373323  0.4201328017818846
  0.7482684862182140  0.0011665890426862  0.5841070850677359
  0.0001692683381357  0.2525525414059609  0.4204866751060165
  0.0005082998130510  0.2524075216006697  0.5838545805257994
  0.2475469070105226  0.2481662729637674  0.4131439895311834
  0.2485580298424523  0.2507573972979959  0.5840229676637160
  0.5010936827629543  0.2520939802384432  0.4124747371961308
  0.4971902080338023  0.3142505621409108  0.6139931416772698
  0.7525531760150360  0.2491255207278237  0.4140318116505565
  0.7514028382333036  0.2525525495291990  0.5846470327962477
  0.0003282812907260  0.4994357409564969  0.4164014668809362
  0.0003337747562178  0.4992825374362752  0.5876476397698319
  0.2474536332355311  0.5001140693565335  0.4108125874422518
  0.3474950742540830  0.4867310333220497  0.6436818924880153
  0.5007555439554660  0.5000979590385400  0.4105069213718681
  0.4986409283959143  0.5064174988520774  0.5696966925759164
  0.7530305962044538  0.4998853420093523  0.4120248654405872
  0.6383608071610053  0.4870448806433341  0.6516464092648683
  0.0002578710287486  0.7470956885766686  0.4202806703956211
  0.0005923956306379  0.7459824465010999  0.5836786839773480
  0.2481389422712164  0.7515185083026453  0.4146529396170250
  0.2504404451997334  0.7444115644070814  0.5837982797594513
  0.5008063914870844  0.7500175944992200  0.4165838734786277
  0.4999859155097070  0.7439689409216390  0.5811882912032079
  0.7523027910921480  0.7509411423893257  0.4152899572009426
  0.7503399190759101  0.7437096140338426  0.5844807458504176
  0.1240184856508036  0.1234907326618997  0.5928661805829269
  0.1250809123811429  0.1253456728538876  0.4083415428066076
  0.3723355050674620  0.1268898850940298  0.5937003533043573
  0.3774940770441871  0.1278097853284758  0.4090646549492900
  0.6284279546997557  0.1265847912004592  0.5938616730602891
  0.6235684910603947  0.1283223253947763  0.4092350300300499
  0.8766632925843429  0.1238323663429239  0.5932706679395531
  0.8751146611039268  0.1256705524880190  0.4087630349391953
  0.1227263356985214  0.3706091487000735  0.5930931466966980
  0.1254853710136181  0.3774296245487147  0.4084034833210897
  0.3556406454227490  0.3667094938811510  0.5775306386563316
  0.3769196630035120  0.3775317241404655  0.3961986373700330
  0.6426385865018258  0.3694981488491130  0.5810808594288696
  0.6253890197440815  0.3772198010355874  0.3990752270739301
  0.8792914135375398  0.3705974154044764  0.5929106325885225
  0.8748599073637789  0.3775038296257620  0.4084205934308267
  0.1238955931891368  0.6269206999442979  0.5924812025869104
  0.1253293307709450  0.6219079779947745  0.4078096090558035
  0.3732689627831213  0.6279045478403562  0.5852706512822456
  0.3718376835515909  0.6264924776487607  0.4013098211018586
  0.6259651389445977  0.6266482058450390  0.5874580148579834
  0.6295240367073701  0.6258490565067194  0.4032169484514952
  0.8778446986687538  0.6272202721851753  0.5923331275123058
  0.8751242063228585  0.6218872570734687  0.4078199936687252
  0.1257909789496431  0.8752291813942783  0.5935093335423459
  0.1250679345491650  0.8745022868424359  0.4089129658950555
  0.3758111743395165  0.8734777751937026  0.5928439471307319
  0.3756459075856622  0.8775507008779461  0.4083620766050471
  0.6248396466176089  0.8734203789714781  0.5930504010090817
  0.6253662750294121  0.8771063631319379  0.4085744763004758
  0.8749700520128610  0.8751641076958057  0.5937601783433837
  0.8753518217355926  0.8744748267093825  0.4091737205525696
  0.1252476739723433  0.1247335584475599  0.5007774865239263
  0.3770633230191269  0.1302881305277096  0.5014998603578650
  0.6237516173047086  0.1302025494698108  0.5017242390601123
  0.8751709995565592  0.1251547283240179  0.5012215987246067
  0.1266191662027153  0.3770872270635099  0.5008863168195155
  0.3703986020093469  0.3744117658060529  0.4893889724850116
  0.6297947538339947  0.3751674518106126  0.4922323721095260
  0.8745438317077224  0.3771474988279011  0.5009507773989613
  0.1264445533395094  0.6218009622668095  0.5005011286056144
  0.3712454617038077  0.6242238778570811  0.4936803042335858
  0.6290357335341514  0.6235286812303574  0.4953814370991905
  0.8744349871498954  0.6220253912247709  0.5005295995868769
  0.1257854698556863  0.8742647002176549  0.5013921077912727
  0.3759923067176705  0.8754545011979266  0.5007335650365341
  0.6250147232692512  0.8753343847590846  0.5010457861932880
  0.8748258033706883  0.8741296119304337  0.5015973457891206
  0.4924454494813318  0.4514497477179203  0.6650373146955075
 
  0.00000000E+00  0.00000000E+00  0.00000000E+00
  0.00000000E+00  0.00000000E+00  0.00000000E+00
  0.00000000E+00  0.00000000E+00  0.00000000E+00
  0.00000000E+00  0.00000000E+00  0.00000000E+00
  0.00000000E+00  0.00000000E+00  0.00000000E+00
  0.00000000E+00  0.00000000E+00  0.00000000E+00
  0.00000000E+00  0.00000000E+00  0.00000000E+00
  0.00000000E+00  0.00000000E+00  0.00000000E+00
  0.00000000E+00  0.00000000E+00  0.00000000E+00
  0.00000000E+00  0.00000000E+00  0.00000000E+00
  0.00000000E+00  0.00000000E+00  0.00000000E+00
  0.00000000E+00  0.00000000E+00  0.00000000E+00
  0.00000000E+00  0.00000000E+00  0.00000000E+00
  0.00000000E+00  0.00000000E+00  0.00000000E+00
  0.00000000E+00  0.00000000E+00  0.00000000E+00
  0.00000000E+00  0.00000000E+00  0.00000000E+00
  0.00000000E+00  0.00000000E+00  0.00000000E+00
  0.00000000E+00  0.00000000E+00  0.00000000E+00
  0.00000000E+00  0.00000000E+00  0.00000000E+00
  0.00000000E+00  0.00000000E+00  0.00000000E+00
  0.00000000E+00  0.00000000E+00  0.00000000E+00
  0.00000000E+00  0.00000000E+00  0.00000000E+00
  0.00000000E+00  0.00000000E+00  0.00000000E+00
  0.00000000E+00  0.00000000E+00  0.00000000E+00
  0.00000000E+00  0.00000000E+00  0.00000000E+00
  0.00000000E+00  0.00000000E+00  0.00000000E+00
  0.00000000E+00  0.00000000E+00  0.00000000E+00
  0.00000000E+00  0.00000000E+00  0.00000000E+00
  0.00000000E+00  0.00000000E+00  0.00000000E+00
  0.00000000E+00  0.00000000E+00  0.00000000E+00
  0.00000000E+00  0.00000000E+00  0.00000000E+00
  0.00000000E+00  0.00000000E+00  0.00000000E+00
  0.00000000E+00  0.00000000E+00  0.00000000E+00
  0.00000000E+00  0.00000000E+00  0.00000000E+00
  0.00000000E+00  0.00000000E+00  0.00000000E+00
  0.00000000E+00  0.00000000E+00  0.00000000E+00
  0.00000000E+00  0.00000000E+00  0.00000000E+00
  0.00000000E+00  0.00000000E+00  0.00000000E+00
  0.00000000E+00  0.00000000E+00  0.00000000E+00
  0.00000000E+00  0.00000000E+00  0.00000000E+00
  0.00000000E+00  0.00000000E+00  0.00000000E+00
  0.00000000E+00  0.00000000E+00  0.00000000E+00
  0.00000000E+00  0.00000000E+00  0.00000000E+00
  0.00000000E+00  0.00000000E+00  0.00000000E+00
  0.00000000E+00  0.00000000E+00  0.00000000E+00
  0.00000000E+00  0.00000000E+00  0.00000000E+00
  0.00000000E+00  0.00000000E+00  0.00000000E+00
  0.00000000E+00  0.00000000E+00  0.00000000E+00
  0.00000000E+00  0.00000000E+00  0.00000000E+00
  0.00000000E+00  0.00000000E+00  0.00000000E+00
  0.00000000E+00  0.00000000E+00  0.00000000E+00
  0.00000000E+00  0.00000000E+00  0.00000000E+00
  0.00000000E+00  0.00000000E+00  0.00000000E+00
  0.00000000E+00  0.00000000E+00  0.00000000E+00
  0.00000000E+00  0.00000000E+00  0.00000000E+00
  0.00000000E+00  0.00000000E+00  0.00000000E+00
  0.00000000E+00  0.00000000E+00  0.00000000E+00
  0.00000000E+00  0.00000000E+00  0.00000000E+00
  0.00000000E+00  0.00000000E+00  0.00000000E+00
  0.00000000E+00  0.00000000E+00  0.00000000E+00
  0.00000000E+00  0.00000000E+00  0.00000000E+00
  0.00000000E+00  0.00000000E+00  0.00000000E+00
  0.00000000E+00  0.00000000E+00  0.00000000E+00
  0.00000000E+00  0.00000000E+00  0.00000000E+00
  0.00000000E+00  0.00000000E+00  0.00000000E+00
  0.00000000E+00  0.00000000E+00  0.00000000E+00
  0.00000000E+00  0.00000000E+00  0.00000000E+00
  0.00000000E+00  0.00000000E+00  0.00000000E+00
  0.00000000E+00  0.00000000E+00  0.00000000E+00
  0.00000000E+00  0.00000000E+00  0.00000000E+00
  0.00000000E+00  0.00000000E+00  0.00000000E+00
  0.00000000E+00  0.00000000E+00  0.00000000E+00
  0.00000000E+00  0.00000000E+00  0.00000000E+00
  0.00000000E+00  0.00000000E+00  0.00000000E+00
  0.00000000E+00  0.00000000E+00  0.00000000E+00
  0.00000000E+00  0.00000000E+00  0.00000000E+00
  0.00000000E+00  0.00000000E+00  0.00000000E+00
  0.00000000E+00  0.00000000E+00  0.00000000E+00
  0.00000000E+00  0.00000000E+00  0.00000000E+00
  0.00000000E+00  0.00000000E+00  0.00000000E+00
  0.00000000E+00  0.00000000E+00  0.00000000E+00
