CONTCAR\(3)                             
   1.00000000000000     
    14.0806999207000008    0.0000000000000000    0.0000000000000000
     0.0000000000000000   14.0806999207000008    0.0000000000000000
     0.0000000000000000    0.0000000000000000   21.7056999206999990
   Zr   Si   Se
    32    32    32
Direct
  0.1250000000000000  0.0000000000000000  0.5995947635581415
 -0.0000000000000000  0.1250000000000000  0.4004052364418585
  0.3750000000000000  0.0000000000000000  0.5995947635581415
  0.2500000000000000  0.1250000000000000  0.4004052364418585
  0.6250000340000028  0.0000000000000000  0.5995947635581415
  0.5000000000000000  0.1250000000000000  0.4004052364418585
  0.8749999659999972  0.0000000000000000  0.5995947635581415
  0.7500000000000000  0.1250000000000000  0.4004052364418585
  0.1250000000000000  0.2500000000000000  0.5995947635581415
 -0.0000000000000000  0.3750000000000000  0.4004052364418585
  0.3750000000000000  0.2500000000000000  0.5995947635581415
  0.2500000000000000  0.3750000000000000  0.4004052364418585
  0.6250000340000028  0.2500000000000000  0.5995947635581415
  0.5000000000000000  0.3750000000000000  0.4004052364418585
  0.8749999659999972  0.2500000000000000  0.5995947635581415
  0.7500000000000000  0.3750000000000000  0.4004052364418585
  0.1250000000000000  0.5000000000000000  0.5995947635581415
 -0.0000000000000000  0.6250000340000028  0.4004052364418585
  0.3750000000000000  0.5000000000000000  0.5995947635581415
  0.2500000000000000  0.6250000340000028  0.4004052364418585
  0.6250000340000028  0.5000000000000000  0.5995947635581415
  0.5000000000000000  0.6250000340000028  0.4004052364418585
  0.8749999659999972  0.5000000000000000  0.5995947635581415
  0.7500000000000000  0.6250000340000028  0.4004052364418585
  0.1250000000000000  0.7500000000000000  0.5995947635581415
 -0.0000000000000000  0.8749999659999972  0.4004052364418585
  0.3750000000000000  0.7500000000000000  0.5995947635581415
  0.2500000000000000  0.8749999659999972  0.4004052364418585
  0.6250000340000028  0.7500000000000000  0.5995947635581415
  0.5000000000000000  0.8749999659999972  0.4004052364418585
  0.8749999659999972  0.7500000000000000  0.5995947635581415
  0.7500000000000000  0.8749999659999972  0.4004052364418585
 -0.0000000000000000 -0.0000000000000000  0.5000000000000000
  0.1250000000000000  0.1250000000000000  0.5000000000000000
  0.2500000000000000 -0.0000000000000000  0.5000000000000000
  0.3750000000000000  0.1250000000000000  0.5000000000000000
  0.5000000000000000 -0.0000000000000000  0.5000000000000000
  0.6250000340000028  0.1250000000000000  0.5000000000000000
  0.7500000000000000 -0.0000000000000000  0.5000000000000000
  0.8749999659999972  0.1250000000000000  0.5000000000000000
 -0.0000000000000000  0.2500000000000000  0.5000000000000000
  0.1250000000000000  0.3750000000000000  0.5000000000000000
  0.2500000000000000  0.2500000000000000  0.5000000000000000
  0.3750000000000000  0.3750000000000000  0.5000000000000000
  0.5000000000000000  0.2500000000000000  0.5000000000000000
  0.6250000340000028  0.3750000000000000  0.5000000000000000
  0.7500000000000000  0.2500000000000000  0.5000000000000000
  0.8749999659999972  0.3750000000000000  0.5000000000000000
 -0.0000000000000000  0.5000000000000000  0.5000000000000000
  0.1250000000000000  0.6250000340000028  0.5000000000000000
  0.2500000000000000  0.5000000000000000  0.5000000000000000
  0.3750000000000000  0.6250000340000028  0.5000000000000000
  0.5000000000000000  0.5000000000000000  0.5000000000000000
  0.6250000340000028  0.6250000340000028  0.5000000000000000
  0.7500000000000000  0.5000000000000000  0.5000000000000000
  0.8749999659999972  0.6250000340000028  0.5000000000000000
 -0.0000000000000000  0.7500000000000000  0.5000000000000000
  0.1250000000000000  0.8749999659999972  0.5000000000000000
  0.2500000000000000  0.7500000000000000  0.5000000000000000
  0.3750000000000000  0.8749999659999972  0.5000000000000000
  0.5000000000000000  0.7500000000000000  0.5000000000000000
  0.6250000340000028  0.8749999659999972  0.5000000000000000
  0.7500000000000000  0.7500000000000000  0.5000000000000000
  0.8749999659999972  0.8749999659999972  0.5000000000000000
  0.0000000000000000  0.1250000000000000  0.6534938922741174
  0.1250000000000000 -0.0000000000000000  0.3465060637258789
  0.2500000000000000  0.1250000000000000  0.6534938922741174
  0.3750000000000000 -0.0000000000000000  0.3465060637258789
  0.5000000000000000  0.1250000000000000  0.6534938922741174
  0.6250000340000028 -0.0000000000000000  0.3465060637258789
  0.7500000000000000  0.1250000000000000  0.6534938922741174
  0.8749999659999972 -0.0000000000000000  0.3465060637258789
 -0.0000000000000000  0.3750000000000000  0.6534938922741174
  0.1250000000000000  0.2500000000000000  0.3465060637258789
  0.2500000000000000  0.3750000000000000  0.6534938922741174
  0.3750000000000000  0.2500000000000000  0.3465060637258789
  0.5000000000000000  0.3750000000000000  0.6534938922741174
  0.6250000340000028  0.2500000000000000  0.3465060637258789
  0.7500000000000000  0.3750000000000000  0.6534938922741174
  0.8749999659999972  0.2500000000000000  0.3465060637258789
 -0.0000000000000000  0.6250000340000028  0.6534938922741174
  0.1250000000000000  0.5000000000000000  0.3465060637258789
  0.2500000000000000  0.6250000340000028  0.6534938922741174
  0.3750000000000000  0.5000000000000000  0.3465060637258789
  0.5000000000000000  0.6250000340000028  0.6534938922741174
  0.6250000340000028  0.5000000000000000  0.3465060637258789
  0.7500000000000000  0.6250000340000028  0.6534938922741174
  0.8749999659999972  0.5000000000000000  0.3465060637258789
 -0.0000000000000000  0.8749999659999972  0.6534938922741174
  0.1250000000000000  0.7500000000000000  0.3465060637258789
  0.2500000000000000  0.8749999659999972  0.6534938922741174
  0.3750000000000000  0.7500000000000000  0.3465060637258789
  0.5000000000000000  0.8749999659999972  0.6534938922741174
  0.6250000340000028  0.7500000000000000  0.3465060637258789
  0.7500000000000000  0.8749999659999972  0.6534938922741174
  0.8749999659999972  0.7500000000000000  0.3465060637258789
 
  0.00000000E+00  0.00000000E+00  0.00000000E+00
  0.00000000E+00  0.00000000E+00  0.00000000E+00
  0.00000000E+00  0.00000000E+00  0.00000000E+00
  0.00000000E+00  0.00000000E+00  0.00000000E+00
  0.00000000E+00  0.00000000E+00  0.00000000E+00
  0.00000000E+00  0.00000000E+00  0.00000000E+00
  0.00000000E+00  0.00000000E+00  0.00000000E+00
  0.00000000E+00  0.00000000E+00  0.00000000E+00
  0.00000000E+00  0.00000000E+00  0.00000000E+00
  0.00000000E+00  0.00000000E+00  0.00000000E+00
  0.00000000E+00  0.00000000E+00  0.00000000E+00
  0.00000000E+00  0.00000000E+00  0.00000000E+00
  0.00000000E+00  0.00000000E+00  0.00000000E+00
  0.00000000E+00  0.00000000E+00  0.00000000E+00
  0.00000000E+00  0.00000000E+00  0.00000000E+00
  0.00000000E+00  0.00000000E+00  0.00000000E+00
  0.00000000E+00  0.00000000E+00  0.00000000E+00
  0.00000000E+00  0.00000000E+00  0.00000000E+00
  0.00000000E+00  0.00000000E+00  0.00000000E+00
  0.00000000E+00  0.00000000E+00  0.00000000E+00
  0.00000000E+00  0.00000000E+00  0.00000000E+00
  0.00000000E+00  0.00000000E+00  0.00000000E+00
  0.00000000E+00  0.00000000E+00  0.00000000E+00
  0.00000000E+00  0.00000000E+00  0.00000000E+00
  0.00000000E+00  0.00000000E+00  0.00000000E+00
  0.00000000E+00  0.00000000E+00  0.00000000E+00
  0.00000000E+00  0.00000000E+00  0.00000000E+00
  0.00000000E+00  0.00000000E+00  0.00000000E+00
  0.00000000E+00  0.00000000E+00  0.00000000E+00
  0.00000000E+00  0.00000000E+00  0.00000000E+00
  0.00000000E+00  0.00000000E+00  0.00000000E+00
  0.00000000E+00  0.00000000E+00  0.00000000E+00
  0.00000000E+00  0.00000000E+00  0.00000000E+00
  0.00000000E+00  0.00000000E+00  0.00000000E+00
  0.00000000E+00  0.00000000E+00  0.00000000E+00
  0.00000000E+00  0.00000000E+00  0.00000000E+00
  0.00000000E+00  0.00000000E+00  0.00000000E+00
  0.00000000E+00  0.00000000E+00  0.00000000E+00
  0.00000000E+00  0.00000000E+00  0.00000000E+00
  0.00000000E+00  0.00000000E+00  0.00000000E+00
  0.00000000E+00  0.00000000E+00  0.00000000E+00
  0.00000000E+00  0.00000000E+00  0.00000000E+00
  0.00000000E+00  0.00000000E+00  0.00000000E+00
  0.00000000E+00  0.00000000E+00  0.00000000E+00
  0.00000000E+00  0.00000000E+00  0.00000000E+00
  0.00000000E+00  0.00000000E+00  0.00000000E+00
  0.00000000E+00  0.00000000E+00  0.00000000E+00
  0.00000000E+00  0.00000000E+00  0.00000000E+00
  0.00000000E+00  0.00000000E+00  0.00000000E+00
  0.00000000E+00  0.00000000E+00  0.00000000E+00
  0.00000000E+00  0.00000000E+00  0.00000000E+00
  0.00000000E+00  0.00000000E+00  0.00000000E+00
  0.00000000E+00  0.00000000E+00  0.00000000E+00
  0.00000000E+00  0.00000000E+00  0.00000000E+00
  0.00000000E+00  0.00000000E+00  0.00000000E+00
  0.00000000E+00  0.00000000E+00  0.00000000E+00
  0.00000000E+00  0.00000000E+00  0.00000000E+00
  0.00000000E+00  0.00000000E+00  0.00000000E+00
  0.00000000E+00  0.00000000E+00  0.00000000E+00
  0.00000000E+00  0.00000000E+00  0.00000000E+00
  0.00000000E+00  0.00000000E+00  0.00000000E+00
  0.00000000E+00  0.00000000E+00  0.00000000E+00
  0.00000000E+00  0.00000000E+00  0.00000000E+00
  0.00000000E+00  0.00000000E+00  0.00000000E+00
  0.00000000E+00  0.00000000E+00  0.00000000E+00
  0.00000000E+00  0.00000000E+00  0.00000000E+00
  0.00000000E+00  0.00000000E+00  0.00000000E+00
  0.00000000E+00  0.00000000E+00  0.00000000E+00
  0.00000000E+00  0.00000000E+00  0.00000000E+00
  0.00000000E+00  0.00000000E+00  0.00000000E+00
  0.00000000E+00  0.00000000E+00  0.00000000E+00
  0.00000000E+00  0.00000000E+00  0.00000000E+00
  0.00000000E+00  0.00000000E+00  0.00000000E+00
  0.00000000E+00  0.00000000E+00  0.00000000E+00
  0.00000000E+00  0.00000000E+00  0.00000000E+00
  0.00000000E+00  0.00000000E+00  0.00000000E+00
  0.00000000E+00  0.00000000E+00  0.00000000E+00
  0.00000000E+00  0.00000000E+00  0.00000000E+00
  0.00000000E+00  0.00000000E+00  0.00000000E+00
  0.00000000E+00  0.00000000E+00  0.00000000E+00
  0.00000000E+00  0.00000000E+00  0.00000000E+00
  0.00000000E+00  0.00000000E+00  0.00000000E+00
  0.00000000E+00  0.00000000E+00  0.00000000E+00
  0.00000000E+00  0.00000000E+00  0.00000000E+00
  0.00000000E+00  0.00000000E+00  0.00000000E+00
  0.00000000E+00  0.00000000E+00  0.00000000E+00
  0.00000000E+00  0.00000000E+00  0.00000000E+00
  0.00000000E+00  0.00000000E+00  0.00000000E+00
  0.00000000E+00  0.00000000E+00  0.00000000E+00
  0.00000000E+00  0.00000000E+00  0.00000000E+00
  0.00000000E+00  0.00000000E+00  0.00000000E+00
  0.00000000E+00  0.00000000E+00  0.00000000E+00
  0.00000000E+00  0.00000000E+00  0.00000000E+00
  0.00000000E+00  0.00000000E+00  0.00000000E+00
  0.00000000E+00  0.00000000E+00  0.00000000E+00
  0.00000000E+00  0.00000000E+00  0.00000000E+00
