CONTCAR\(5)                             
   1.00000000000000     
    10.2070999146000005    0.0000000000000000    0.0000000000000000
    -1.7011927660999999   18.1179073708000011    0.0000000000000000
     0.0000000000000000    0.0000000000000000   20.2910003661999987
   Ta   Co   Pd   Se   O    H 
    12     6     3    36     1     1
Selective dynamics
Direct
  0.0186324501746995  0.1518964908887455  0.4667131152177717   F   F   F
  0.3018215524543493  0.8492995652287689  0.5290368577379496   F   F   F
  0.0613570807335293  0.4088080258785141  0.4721953116430484   F   F   F
  0.2644207539487553  0.5949375596925179  0.5324163358607308   F   F   F
  0.3517884969291032  0.1518447035186483  0.4666883115546980   F   F   F
  0.6376701715549444  0.8493825365576271  0.5291602957744388   F   F   F
  0.3939480426175948  0.4090309668947540  0.4735424881199819   F   F   F
  0.5899458234155048  0.5950633580348068  0.5316233952857701   F   F   F
  0.6849002381490408  0.1519016476496162  0.4666791647500830   F   F   F
  0.9696915394815093  0.8491593348622501  0.5304353040648948   F   F   F
  0.7271781020403409  0.4088473189883572  0.4723815389332557   F   F   F
  0.9275861341487612  0.5929818763174950  0.5273571202090253   F   F   F
  0.2075033606648660  0.2855294222217353  0.4410542135075772   F   F   F
  0.1129439231191824  0.7152909271606802  0.5567308106951216   F   F   F
  0.5407142003807621  0.2855113276083401  0.4412987610474843   F   F   F
  0.4476928636493440  0.7169868359671341  0.5529146482428615   F   F   F
  0.8744009345300867  0.2859995559467450  0.4410335779946450   F   F   F
  0.7813572438045924  0.7154921232500584  0.5570722167707842   F   F   F
  0.1603439201896038  0.0001661365777395  0.4981854958194134   F   F   F
  0.4940088818388659  0.0004778725027421  0.4976171757740175   F   F   F
  0.8278026385007706  0.0002512060277198  0.4982390292735772   F   F   F
  0.1792785797560725  0.1174234099609777  0.5595776130595524   F   F   F
  0.1410644913517984  0.8830160348440117  0.4365627100297189   F   F   F
  0.0917451045539579  0.6055266219254705  0.6222032420536081   F   F   F
  0.2268549522213377  0.3968428004803286  0.3793340531258025   F   F   F
  0.2345116098623024  0.4489810389448721  0.5637113115823738   F   F   F
  0.0893905227094365  0.5530754058670269  0.4386050436257634   F   F   F
  0.0331972930831625  0.2397409874776244  0.3701737581849542   F   F   F
  0.2912283802069879  0.7600804041391456  0.6254300672607727   F   F   F
  0.1722501353247665  0.0757955143357378  0.3968159971903091   F   F   F
  0.1496403649620746  0.9249017464690397  0.5999189008584054   F   F   F
  0.0399706191062918  0.2808224076018462  0.5252518255280023   F   F   F
  0.2783020222896724  0.7194598410859641  0.4713052416968111   F   F   F
  0.5127156384049911  0.1174803278513181  0.5594453507748653   F   F   F
  0.4756799002782017  0.8828905331937875  0.4365118319529202   F   F   F
  0.4253169665506960  0.5978757542686779  0.6286246947885488   F   F   F
  0.5585958361028887  0.3969126021995990  0.3794826520835883   F   F   F
  0.5681410682782797  0.4491599485058799  0.5637988731189338   F   F   F
  0.4183033710281379  0.5524125943002431  0.4395199072513662   F   F   F
  0.3666029124250869  0.2396653676403133  0.3702330346229417   F   F   F
  0.6178898595201900  0.7601782064411395  0.6256092386433068   F   F   F
  0.5059641835756921  0.0762011026681577  0.3964065316196255   F   F   F
  0.4823181995687662  0.9249281535464888  0.5986070742498697   F   F   F
  0.3730283171082220  0.2804372665309671  0.5254410611794569   F   F   F
  0.6174050487465195  0.7196798517029137  0.4713545673719111   F   F   F
  0.8461219313454151  0.1175214429603955  0.5594904705301005   F   F   F
  0.8097467798962228  0.8831132570201063  0.4366782687770225   F   F   F
  0.7632410930835505  0.6053014936675325  0.6217835197556525   F   F   F
  0.8927545868175883  0.3976490182083694  0.3790468095342092   F   F   F
  0.9017046996746743  0.4489066046244261  0.5633304225734932   F   F   F
  0.7485423409500740  0.5530512697022942  0.4387593114839277   F   F   F
  0.6996489310042406  0.2398828780813886  0.3702860744523946   F   F   F
  0.9553162308198964  0.7628898923297101  0.6277829814802161   F   F   F
  0.8390760191220679  0.0760066132742310  0.3968883327241457   F   F   F
  0.8151695145217417  0.9250547603225812  0.5999408571032205   F   F   F
  0.7071873587959487  0.2809516003141184  0.5253368508740053   F   F   F
  0.9476865125651130  0.7196718671280280  0.4728137384924480   F   F   F
  0.3952975130225838  0.5050718899451354  0.6793850652125499   T   T   T
  0.4708425420391577  0.5057194856651391  0.7084687288895752   T   T   T
 
  0.00000000E+00  0.00000000E+00  0.00000000E+00
  0.00000000E+00  0.00000000E+00  0.00000000E+00
  0.00000000E+00  0.00000000E+00  0.00000000E+00
  0.00000000E+00  0.00000000E+00  0.00000000E+00
  0.00000000E+00  0.00000000E+00  0.00000000E+00
  0.00000000E+00  0.00000000E+00  0.00000000E+00
  0.00000000E+00  0.00000000E+00  0.00000000E+00
  0.00000000E+00  0.00000000E+00  0.00000000E+00
  0.00000000E+00  0.00000000E+00  0.00000000E+00
  0.00000000E+00  0.00000000E+00  0.00000000E+00
  0.00000000E+00  0.00000000E+00  0.00000000E+00
  0.00000000E+00  0.00000000E+00  0.00000000E+00
  0.00000000E+00  0.00000000E+00  0.00000000E+00
  0.00000000E+00  0.00000000E+00  0.00000000E+00
  0.00000000E+00  0.00000000E+00  0.00000000E+00
  0.00000000E+00  0.00000000E+00  0.00000000E+00
  0.00000000E+00  0.00000000E+00  0.00000000E+00
  0.00000000E+00  0.00000000E+00  0.00000000E+00
  0.00000000E+00  0.00000000E+00  0.00000000E+00
  0.00000000E+00  0.00000000E+00  0.00000000E+00
  0.00000000E+00  0.00000000E+00  0.00000000E+00
  0.00000000E+00  0.00000000E+00  0.00000000E+00
  0.00000000E+00  0.00000000E+00  0.00000000E+00
  0.00000000E+00  0.00000000E+00  0.00000000E+00
  0.00000000E+00  0.00000000E+00  0.00000000E+00
  0.00000000E+00  0.00000000E+00  0.00000000E+00
  0.00000000E+00  0.00000000E+00  0.00000000E+00
  0.00000000E+00  0.00000000E+00  0.00000000E+00
  0.00000000E+00  0.00000000E+00  0.00000000E+00
  0.00000000E+00  0.00000000E+00  0.00000000E+00
  0.00000000E+00  0.00000000E+00  0.00000000E+00
  0.00000000E+00  0.00000000E+00  0.00000000E+00
  0.00000000E+00  0.00000000E+00  0.00000000E+00
  0.00000000E+00  0.00000000E+00  0.00000000E+00
  0.00000000E+00  0.00000000E+00  0.00000000E+00
  0.00000000E+00  0.00000000E+00  0.00000000E+00
  0.00000000E+00  0.00000000E+00  0.00000000E+00
  0.00000000E+00  0.00000000E+00  0.00000000E+00
  0.00000000E+00  0.00000000E+00  0.00000000E+00
  0.00000000E+00  0.00000000E+00  0.00000000E+00
  0.00000000E+00  0.00000000E+00  0.00000000E+00
  0.00000000E+00  0.00000000E+00  0.00000000E+00
  0.00000000E+00  0.00000000E+00  0.00000000E+00
  0.00000000E+00  0.00000000E+00  0.00000000E+00
  0.00000000E+00  0.00000000E+00  0.00000000E+00
  0.00000000E+00  0.00000000E+00  0.00000000E+00
  0.00000000E+00  0.00000000E+00  0.00000000E+00
  0.00000000E+00  0.00000000E+00  0.00000000E+00
  0.00000000E+00  0.00000000E+00  0.00000000E+00
  0.00000000E+00  0.00000000E+00  0.00000000E+00
  0.00000000E+00  0.00000000E+00  0.00000000E+00
  0.00000000E+00  0.00000000E+00  0.00000000E+00
  0.00000000E+00  0.00000000E+00  0.00000000E+00
  0.00000000E+00  0.00000000E+00  0.00000000E+00
  0.00000000E+00  0.00000000E+00  0.00000000E+00
  0.00000000E+00  0.00000000E+00  0.00000000E+00
  0.00000000E+00  0.00000000E+00  0.00000000E+00
  0.00000000E+00  0.00000000E+00  0.00000000E+00
  0.00000000E+00  0.00000000E+00  0.00000000E+00
