                                        
   1.00000000000000     
    14.9264001846000003    0.0000000000000000    0.0000000000000000
     0.0000000000000000   14.9455995559999995    0.0000000000000000
     0.0000000000000000    0.0000000000000000   18.3726005553999983
   Li   H    Pt   O 
    50    50    25     1
Direct
  0.1000035777445716  0.9984423959552957  0.4233159318776759
  0.1000099475911435 -0.0016981045121649  0.5804475259750186
  0.3016324413905171  0.9977039950084918  0.4235027591905479
  0.3027068637050769  0.9964912048960468  0.5796074431089310
  0.5007338130086616 -0.0012954748621785  0.4221761450567034
  0.5020678843861651  0.9944538348501002  0.5792314071892796
  0.6992892629337288 -0.0013005859554203  0.4221887386523982
  0.6979512932477532  0.9944550424146761  0.5792287460269930
  0.8983868497637523  0.9977073601527706  0.4235152470046468
  0.8973170303254123  0.9964897138887261  0.5796022807050001
  0.1000265098544128  0.1992205081715530  0.4234173316997299
  0.1000387092603862  0.1989753143131799  0.5805917495303252
  0.3008910255953658  0.1992712819266370  0.4235712625842549
  0.3007757690786154  0.1989940282515763  0.5807747269651469
  0.5002577707704425  0.1994739940776025  0.4233686314391811
  0.5001761641172360  0.1991336316440398  0.5815458535213743
  0.6997475146527353  0.1994730970039761  0.4233788478486510
  0.6998110588315145  0.1991166169893642  0.5815583224286639
  0.8991394851951449  0.1992766144126675  0.4235764118444184
  0.8992575563609030  0.1989820636711749  0.5807964817368484
  0.1000108859598375  0.3995787674628443  0.4234445307793956
  0.1000359915747901  0.3999568457358588  0.5806257816508434
  0.3017096690578346  0.4005699204794103  0.4236867921818604
  0.3024434734279122  0.4017900623249842  0.5799501922276649
  0.5008854667913396  0.4000835232575427  0.4227072898159847
  0.5018932313544499  0.4038431033017037  0.5798252732529980
  0.6991462961319820  0.4000620942078354  0.4227121553653861
  0.6981167622351985  0.4038293617888430  0.5798346782682854
  0.8983158954993260  0.4005319915022243  0.4237207097579476
  0.8975785261832272  0.4017640813196752  0.5799576170553756
  0.1000013144451484  0.5991474176667304  0.4229364179457696
  0.1000063010299270  0.5992351171469142  0.5810415663715953
  0.3008406965850918  0.5997586818173385  0.4222329065622563
  0.3043896094058414  0.6012381058662943  0.5792897164499980
  0.4991166804837355  0.5982464538312735  0.4089202132674271
  0.5107884374838276  0.6104384728473695  0.5907336374781679
  0.7009103744414394  0.5982466029150328  0.4089375198366350
  0.6892280171811641  0.6104436460466512  0.5907382667542093
  0.8991824913648196  0.5997310954959520  0.4222394553530809
  0.8956341656492059  0.6012202085975469  0.5792961529259841
  0.1000091476083862  0.7989140346711320  0.4230192010855023
  0.1000104595619783  0.7988587858967088  0.5810003997325242
  0.3007340183725294  0.7983431108525355  0.4221288756715968
  0.3046846931291396  0.7971796864265981  0.5792512385704822
  0.4997883410311859  0.7996179370987956  0.4083536416600071
  0.5109909812556014  0.7884614815596992  0.5901528861427430
  0.7002274370590101  0.7995986934880445  0.4083764907313811
  0.6890243881228070  0.7884555571692630  0.5901575518640741
  0.8992743803497636  0.7983435664085596  0.4221310349004198
  0.8953389987314334  0.7971769630369853  0.5792545910766026
 -0.0007468234270290  0.0982788223410792  0.5935177262858471
 -0.0007223103302864  0.0986031129568351  0.4109232158170035
  0.2007828051820690  0.0982669703734686  0.5935213472179222
  0.2007559474973112  0.0985783047194400  0.4109260320785118
  0.4012733332502511  0.0972702452221586  0.5936553066977455
  0.4011678016328726  0.0990247839071837  0.4110795702358044
  0.5999954318097959  0.0965829020446380  0.5937436122069445
  0.6000049287100773  0.1000121624844006  0.4111064337565564
  0.7987420758236502  0.0972661864716414  0.5936615217280691
  0.7988420798876514  0.0990351759434713  0.4110876337520191
  0.9992551702860498  0.2999317514977619  0.5938166858193680
 -0.0006637315642841  0.2996455370764323  0.4112150078390722
  0.2008178124342706  0.2999521555904371  0.5937932387217427
  0.2007009092375455  0.2996464829617307  0.4111901558216624
  0.4011862227265358  0.3006729325557293  0.5939265979313126
  0.4011564822015090  0.2998404124538716  0.4113339688733616
  0.5999891331947865  0.3016324711088766  0.5941029792708838
  0.6000102271386930  0.2997868213813134  0.4114576380692338
  0.7988212572180268  0.3006438052657801  0.5939485251158139
  0.7988627824814760  0.2998074150270976  0.4113558570585354
  0.9986260801279392  0.5004748514408547  0.5934471723069058
 -0.0007105637479140  0.4999647399293542  0.4108604272842085
  0.2014017031959823  0.5004929489590053  0.5934302339703361
  0.2007203292089019  0.4999936314078045  0.4108418547290894
  0.4043090130151094  0.5039271362165296  0.5919703467314130
  0.4019029784921019  0.5006928723400510  0.4093228800089745
  0.6000152219223200  0.5051290946899112  0.5898324818177570
  0.6000247495350477  0.4995192802771062  0.4076764844350201
  0.7957122255833465  0.5039129107947271  0.5919898008868636
  0.7981270501651840  0.5006648251082426  0.4093425903543538
  0.9975433181212572  0.6990437402753665  0.5934186038079654
  0.0000652302550117  0.6991455184687742  0.4107783234558859
  0.2024738429474954  0.6990396169852182  0.5934187002986968
  0.1999414955075216  0.6991548965087602  0.4107792948912762
  0.4059014649248517  0.6992201574264321  0.5892107615351996
  0.3997874007414914  0.6990379710710356  0.4071091254720557
  0.6000052886501741  0.6989727936740761  0.5798171744682113
  0.6000086587428480  0.7033770711914331  0.3782414235601967
  0.7941215102433298  0.6992063641112055  0.5892231637738954
  0.8002307837113757  0.6990198841474335  0.4071205738520701
  0.9982702264455153  0.8978924267310182  0.5934608030556084
  0.9996825005185788  0.8981822019053584  0.4108871031801797
  0.2017525752973146  0.8978900497266462  0.5934537566734428
  0.2003404800170757  0.8981899373552878  0.4108794362604604
  0.4048669264828371  0.8942679005554777  0.5913568225675345
  0.4015077663611163  0.8976954778718156  0.4087396909820791
  0.6000063884633671  0.8930757198654083  0.5888442553993194
  0.6000098874042245  0.9001660663476707  0.4068086988602601
  0.7951461044127345  0.8942507799664599  0.5913635651758330
  0.7985017436770011  0.8976827091421885  0.4087490632300360
  0.9993143801758646  0.0984865007803312  0.5022945971901797
  0.2007115460104942  0.0985480136769191  0.5023006784777406
  0.4012031851391623  0.0980829400264878  0.5024428356827300
  0.5999707846825428  0.0984360120826735  0.5024669437736433
  0.7988059363322861  0.0980601993169476  0.5024692676008052
  0.9993338752737619  0.2997236544745174  0.5025838513128120
  0.2007039807440486  0.2997034540827276  0.5025447746850943
  0.4012476077497146  0.3002962299774702  0.5027224351943868
  0.6000185729388835  0.3002676110994514  0.5028591816997727
  0.7987667306747225  0.3003257359828158  0.5027250113095950
  0.9988626741076647  0.5002779238874100  0.5022442555597108
  0.2011443633042442  0.5003242889256218  0.5022164963643766
  0.4038419046529553  0.5030485525992300  0.5008837964592489
  0.6000056036795783  0.5051379561184383  0.4986456947878456
  0.7961900126167960  0.5030070729959102  0.5008966043115433
  0.9990906651920681  0.6990250492513295  0.5021627876344947
  0.2009337247202378  0.6990455082311641  0.5021426176781651
  0.4057455113115839  0.6990767116174240  0.4979594606918042
  0.5999934283312470  0.6985283718686305  0.4759372270652321
  0.7942870305818411  0.6990615271092530  0.4979786408131003
  0.9989096640509072  0.8979856664341616  0.5022604066656041
  0.2010905887018724  0.8979742799554197  0.5022539354494187
  0.4039759240390119  0.8952100809613008  0.5002634479508974
  0.6000070702494504  0.8936479337898997  0.4976612160537582
  0.7960176863919630  0.8951962963994892  0.5002676429620193
  0.6000052812115416  0.7000096839626362  0.6375858921814785
 
  0.00000000E+00  0.00000000E+00  0.00000000E+00
  0.00000000E+00  0.00000000E+00  0.00000000E+00
  0.00000000E+00  0.00000000E+00  0.00000000E+00
  0.00000000E+00  0.00000000E+00  0.00000000E+00
  0.00000000E+00  0.00000000E+00  0.00000000E+00
  0.00000000E+00  0.00000000E+00  0.00000000E+00
  0.00000000E+00  0.00000000E+00  0.00000000E+00
  0.00000000E+00  0.00000000E+00  0.00000000E+00
  0.00000000E+00  0.00000000E+00  0.00000000E+00
  0.00000000E+00  0.00000000E+00  0.00000000E+00
  0.00000000E+00  0.00000000E+00  0.00000000E+00
  0.00000000E+00  0.00000000E+00  0.00000000E+00
  0.00000000E+00  0.00000000E+00  0.00000000E+00
  0.00000000E+00  0.00000000E+00  0.00000000E+00
  0.00000000E+00  0.00000000E+00  0.00000000E+00
  0.00000000E+00  0.00000000E+00  0.00000000E+00
  0.00000000E+00  0.00000000E+00  0.00000000E+00
  0.00000000E+00  0.00000000E+00  0.00000000E+00
  0.00000000E+00  0.00000000E+00  0.00000000E+00
  0.00000000E+00  0.00000000E+00  0.00000000E+00
  0.00000000E+00  0.00000000E+00  0.00000000E+00
  0.00000000E+00  0.00000000E+00  0.00000000E+00
  0.00000000E+00  0.00000000E+00  0.00000000E+00
  0.00000000E+00  0.00000000E+00  0.00000000E+00
  0.00000000E+00  0.00000000E+00  0.00000000E+00
  0.00000000E+00  0.00000000E+00  0.00000000E+00
  0.00000000E+00  0.00000000E+00  0.00000000E+00
  0.00000000E+00  0.00000000E+00  0.00000000E+00
  0.00000000E+00  0.00000000E+00  0.00000000E+00
  0.00000000E+00  0.00000000E+00  0.00000000E+00
  0.00000000E+00  0.00000000E+00  0.00000000E+00
  0.00000000E+00  0.00000000E+00  0.00000000E+00
  0.00000000E+00  0.00000000E+00  0.00000000E+00
  0.00000000E+00  0.00000000E+00  0.00000000E+00
  0.00000000E+00  0.00000000E+00  0.00000000E+00
  0.00000000E+00  0.00000000E+00  0.00000000E+00
  0.00000000E+00  0.00000000E+00  0.00000000E+00
  0.00000000E+00  0.00000000E+00  0.00000000E+00
  0.00000000E+00  0.00000000E+00  0.00000000E+00
  0.00000000E+00  0.00000000E+00  0.00000000E+00
  0.00000000E+00  0.00000000E+00  0.00000000E+00
  0.00000000E+00  0.00000000E+00  0.00000000E+00
  0.00000000E+00  0.00000000E+00  0.00000000E+00
  0.00000000E+00  0.00000000E+00  0.00000000E+00
  0.00000000E+00  0.00000000E+00  0.00000000E+00
  0.00000000E+00  0.00000000E+00  0.00000000E+00
  0.00000000E+00  0.00000000E+00  0.00000000E+00
  0.00000000E+00  0.00000000E+00  0.00000000E+00
  0.00000000E+00  0.00000000E+00  0.00000000E+00
  0.00000000E+00  0.00000000E+00  0.00000000E+00
  0.00000000E+00  0.00000000E+00  0.00000000E+00
  0.00000000E+00  0.00000000E+00  0.00000000E+00
  0.00000000E+00  0.00000000E+00  0.00000000E+00
  0.00000000E+00  0.00000000E+00  0.00000000E+00
  0.00000000E+00  0.00000000E+00  0.00000000E+00
  0.00000000E+00  0.00000000E+00  0.00000000E+00
  0.00000000E+00  0.00000000E+00  0.00000000E+00
  0.00000000E+00  0.00000000E+00  0.00000000E+00
  0.00000000E+00  0.00000000E+00  0.00000000E+00
  0.00000000E+00  0.00000000E+00  0.00000000E+00
  0.00000000E+00  0.00000000E+00  0.00000000E+00
  0.00000000E+00  0.00000000E+00  0.00000000E+00
  0.00000000E+00  0.00000000E+00  0.00000000E+00
  0.00000000E+00  0.00000000E+00  0.00000000E+00
  0.00000000E+00  0.00000000E+00  0.00000000E+00
  0.00000000E+00  0.00000000E+00  0.00000000E+00
  0.00000000E+00  0.00000000E+00  0.00000000E+00
  0.00000000E+00  0.00000000E+00  0.00000000E+00
  0.00000000E+00  0.00000000E+00  0.00000000E+00
  0.00000000E+00  0.00000000E+00  0.00000000E+00
  0.00000000E+00  0.00000000E+00  0.00000000E+00
  0.00000000E+00  0.00000000E+00  0.00000000E+00
  0.00000000E+00  0.00000000E+00  0.00000000E+00
  0.00000000E+00  0.00000000E+00  0.00000000E+00
  0.00000000E+00  0.00000000E+00  0.00000000E+00
  0.00000000E+00  0.00000000E+00  0.00000000E+00
  0.00000000E+00  0.00000000E+00  0.00000000E+00
  0.00000000E+00  0.00000000E+00  0.00000000E+00
  0.00000000E+00  0.00000000E+00  0.00000000E+00
  0.00000000E+00  0.00000000E+00  0.00000000E+00
  0.00000000E+00  0.00000000E+00  0.00000000E+00
  0.00000000E+00  0.00000000E+00  0.00000000E+00
  0.00000000E+00  0.00000000E+00  0.00000000E+00
  0.00000000E+00  0.00000000E+00  0.00000000E+00
  0.00000000E+00  0.00000000E+00  0.00000000E+00
  0.00000000E+00  0.00000000E+00  0.00000000E+00
  0.00000000E+00  0.00000000E+00  0.00000000E+00
  0.00000000E+00  0.00000000E+00  0.00000000E+00
  0.00000000E+00  0.00000000E+00  0.00000000E+00
  0.00000000E+00  0.00000000E+00  0.00000000E+00
  0.00000000E+00  0.00000000E+00  0.00000000E+00
  0.00000000E+00  0.00000000E+00  0.00000000E+00
  0.00000000E+00  0.00000000E+00  0.00000000E+00
  0.00000000E+00  0.00000000E+00  0.00000000E+00
  0.00000000E+00  0.00000000E+00  0.00000000E+00
  0.00000000E+00  0.00000000E+00  0.00000000E+00
  0.00000000E+00  0.00000000E+00  0.00000000E+00
  0.00000000E+00  0.00000000E+00  0.00000000E+00
  0.00000000E+00  0.00000000E+00  0.00000000E+00
  0.00000000E+00  0.00000000E+00  0.00000000E+00
  0.00000000E+00  0.00000000E+00  0.00000000E+00
  0.00000000E+00  0.00000000E+00  0.00000000E+00
  0.00000000E+00  0.00000000E+00  0.00000000E+00
  0.00000000E+00  0.00000000E+00  0.00000000E+00
  0.00000000E+00  0.00000000E+00  0.00000000E+00
  0.00000000E+00  0.00000000E+00  0.00000000E+00
  0.00000000E+00  0.00000000E+00  0.00000000E+00
  0.00000000E+00  0.00000000E+00  0.00000000E+00
  0.00000000E+00  0.00000000E+00  0.00000000E+00
  0.00000000E+00  0.00000000E+00  0.00000000E+00
  0.00000000E+00  0.00000000E+00  0.00000000E+00
  0.00000000E+00  0.00000000E+00  0.00000000E+00
  0.00000000E+00  0.00000000E+00  0.00000000E+00
  0.00000000E+00  0.00000000E+00  0.00000000E+00
  0.00000000E+00  0.00000000E+00  0.00000000E+00
  0.00000000E+00  0.00000000E+00  0.00000000E+00
  0.00000000E+00  0.00000000E+00  0.00000000E+00
  0.00000000E+00  0.00000000E+00  0.00000000E+00
  0.00000000E+00  0.00000000E+00  0.00000000E+00
  0.00000000E+00  0.00000000E+00  0.00000000E+00
  0.00000000E+00  0.00000000E+00  0.00000000E+00
  0.00000000E+00  0.00000000E+00  0.00000000E+00
  0.00000000E+00  0.00000000E+00  0.00000000E+00
  0.00000000E+00  0.00000000E+00  0.00000000E+00
  0.00000000E+00  0.00000000E+00  0.00000000E+00
  0.00000000E+00  0.00000000E+00  0.00000000E+00
