CONTCAR\(2)                             
   1.00000000000000     
    13.6564998627000005    0.0000000000000000    0.0000000000000000
     0.0000000000000000   10.3198995589999996    0.0000000000000000
     0.0000000000000000    0.0000000000000000   19.5949993133999989
   Ta   Fe   Te   O    H 
     8     8    24     1     1
Direct
  0.0620115106675456  0.2520231709660266  0.4910917116091795
  0.1863451188894487  0.6436604469221976  0.5170610131444633
  0.3085257555924130  0.2457168038391444  0.4888552363164109
  0.4377090318263228  0.6553989396215698  0.5173388461717536
  0.5668845741979283  0.2456150920975801  0.4890069610245646
  0.6888146276973330  0.6435342763463368  0.5169537697569240
  0.8133602778901334  0.2519212140928246  0.4912044593069069
  0.9377213538326501  0.6421145758539808  0.5162475009812582
  0.1842647356728619  0.0409808085534991  0.4930145494048475
  0.0618175224649917  0.8524079045702138  0.5141058425512526
  0.4375514772181219  0.0408745305995311  0.4941801846415217
  0.3104193747825263  0.8559744038289878  0.5135020941839770
  0.6913677180924651  0.0407398709017812  0.4930951103422601
  0.5649631620513915  0.8558215286806288  0.5134940582769474
  0.9375944369554929  0.0417582161624281  0.4933617799275538
  0.8135896695079552  0.8522560391645868  0.5141290254551691
  0.1870727139349100  0.3876281593920652  0.5826818739754174
  0.0627991932911982  0.5064268132262200  0.4242333736303650
  0.1864500999530989  0.8356097495631190  0.4150605187015373
  0.0611285846898824  0.0573733115153843  0.5923542384345737
  0.0617557926033072  0.7093159627680805  0.6220944931336874
  0.1847930172085341  0.1830448806816420  0.3841618656731782
  0.4376425877517036  0.3981181003852114  0.5650584906436151
  0.3132077478999022  0.5056014048518733  0.4273234606990712
  0.4377049992834188  0.8385509963300208  0.4144628884453994
  0.3105400046597211  0.0603126467584048  0.5922478739768664
  0.3112018994207020  0.7132470473330486  0.6221359939123232
  0.4378706536252110  0.1816944379694121  0.3852248752150373
  0.6882245184636915  0.3875189808516097  0.5827674141998074
  0.5622459858793931  0.5049625272794742  0.4272833785263899
  0.6889579745064296  0.8356370084222959  0.4150233823495242
  0.5646752045956944  0.0600905880930185  0.5921432082301763
  0.5640803362867075  0.7129268965115472  0.6221192580979675
  0.6905505497949775  0.1829597314685358  0.3843370626571669
  0.9376415591155833  0.3881456841875419  0.5834636403101285
  0.8124373897857140  0.5062349853950749  0.4242444304416892
  0.9377483727972731  0.8367850729932229  0.4153364686683361
  0.8143157146415021  0.0570358680125622  0.5924508454517081
  0.8133988034158293  0.7087809054236232  0.6220655151143646
  0.9375742401077432  0.1849412440591180  0.3855269784897857
  0.4373249754667725  0.3690536035132226  0.6668956027856225
  0.4356868604815389  0.2753256288133556  0.6749807591412491
 
  0.00000000E+00  0.00000000E+00  0.00000000E+00
  0.00000000E+00  0.00000000E+00  0.00000000E+00
  0.00000000E+00  0.00000000E+00  0.00000000E+00
  0.00000000E+00  0.00000000E+00  0.00000000E+00
  0.00000000E+00  0.00000000E+00  0.00000000E+00
  0.00000000E+00  0.00000000E+00  0.00000000E+00
  0.00000000E+00  0.00000000E+00  0.00000000E+00
  0.00000000E+00  0.00000000E+00  0.00000000E+00
  0.00000000E+00  0.00000000E+00  0.00000000E+00
  0.00000000E+00  0.00000000E+00  0.00000000E+00
  0.00000000E+00  0.00000000E+00  0.00000000E+00
  0.00000000E+00  0.00000000E+00  0.00000000E+00
  0.00000000E+00  0.00000000E+00  0.00000000E+00
  0.00000000E+00  0.00000000E+00  0.00000000E+00
  0.00000000E+00  0.00000000E+00  0.00000000E+00
  0.00000000E+00  0.00000000E+00  0.00000000E+00
  0.00000000E+00  0.00000000E+00  0.00000000E+00
  0.00000000E+00  0.00000000E+00  0.00000000E+00
  0.00000000E+00  0.00000000E+00  0.00000000E+00
  0.00000000E+00  0.00000000E+00  0.00000000E+00
  0.00000000E+00  0.00000000E+00  0.00000000E+00
  0.00000000E+00  0.00000000E+00  0.00000000E+00
  0.00000000E+00  0.00000000E+00  0.00000000E+00
  0.00000000E+00  0.00000000E+00  0.00000000E+00
  0.00000000E+00  0.00000000E+00  0.00000000E+00
  0.00000000E+00  0.00000000E+00  0.00000000E+00
  0.00000000E+00  0.00000000E+00  0.00000000E+00
  0.00000000E+00  0.00000000E+00  0.00000000E+00
  0.00000000E+00  0.00000000E+00  0.00000000E+00
  0.00000000E+00  0.00000000E+00  0.00000000E+00
  0.00000000E+00  0.00000000E+00  0.00000000E+00
  0.00000000E+00  0.00000000E+00  0.00000000E+00
  0.00000000E+00  0.00000000E+00  0.00000000E+00
  0.00000000E+00  0.00000000E+00  0.00000000E+00
  0.00000000E+00  0.00000000E+00  0.00000000E+00
  0.00000000E+00  0.00000000E+00  0.00000000E+00
  0.00000000E+00  0.00000000E+00  0.00000000E+00
  0.00000000E+00  0.00000000E+00  0.00000000E+00
  0.00000000E+00  0.00000000E+00  0.00000000E+00
  0.00000000E+00  0.00000000E+00  0.00000000E+00
  0.00000000E+00  0.00000000E+00  0.00000000E+00
  0.00000000E+00  0.00000000E+00  0.00000000E+00
