G   60   21    1    0.005     # Parameters to Generate KPOINTS (Don't Edit This Line)
     631
Reciprocal lattice
    0.000000000000    0.000000000000    0.000000000000       1
    0.016666666667    0.000000000000    0.000000000000       2
    0.033333333333    0.000000000000    0.000000000000       2
    0.050000000000    0.000000000000    0.000000000000       2
    0.066666666667    0.000000000000    0.000000000000       2
    0.083333333333    0.000000000000    0.000000000000       2
    0.100000000000    0.000000000000    0.000000000000       2
    0.116666666667    0.000000000000    0.000000000000       2
    0.133333333333    0.000000000000    0.000000000000       2
    0.150000000000    0.000000000000    0.000000000000       2
    0.166666666667    0.000000000000    0.000000000000       2
    0.183333333333    0.000000000000    0.000000000000       2
    0.200000000000    0.000000000000    0.000000000000       2
    0.216666666667    0.000000000000    0.000000000000       2
    0.233333333333    0.000000000000    0.000000000000       2
    0.250000000000    0.000000000000    0.000000000000       2
    0.266666666667    0.000000000000    0.000000000000       2
    0.283333333333    0.000000000000    0.000000000000       2
    0.300000000000    0.000000000000    0.000000000000       2
    0.316666666667    0.000000000000    0.000000000000       2
    0.333333333333    0.000000000000    0.000000000000       2
    0.350000000000    0.000000000000    0.000000000000       2
    0.366666666667    0.000000000000    0.000000000000       2
    0.383333333333    0.000000000000    0.000000000000       2
    0.400000000000    0.000000000000    0.000000000000       2
    0.416666666667    0.000000000000    0.000000000000       2
    0.433333333333    0.000000000000    0.000000000000       2
    0.450000000000    0.000000000000    0.000000000000       2
    0.466666666667    0.000000000000    0.000000000000       2
    0.483333333333    0.000000000000    0.000000000000       2
    0.500000000000    0.000000000000    0.000000000000       1
    0.000000000000    0.047619047619    0.000000000000       2
    0.016666666667    0.047619047619    0.000000000000       2
    0.033333333333    0.047619047619    0.000000000000       2
    0.050000000000    0.047619047619    0.000000000000       2
    0.066666666667    0.047619047619    0.000000000000       2
    0.083333333333    0.047619047619    0.000000000000       2
    0.100000000000    0.047619047619    0.000000000000       2
    0.116666666667    0.047619047619    0.000000000000       2
    0.133333333333    0.047619047619    0.000000000000       2
    0.150000000000    0.047619047619    0.000000000000       2
    0.166666666667    0.047619047619    0.000000000000       2
    0.183333333333    0.047619047619    0.000000000000       2
    0.200000000000    0.047619047619    0.000000000000       2
    0.216666666667    0.047619047619    0.000000000000       2
    0.233333333333    0.047619047619    0.000000000000       2
    0.250000000000    0.047619047619    0.000000000000       2
    0.266666666667    0.047619047619    0.000000000000       2
    0.283333333333    0.047619047619    0.000000000000       2
    0.300000000000    0.047619047619    0.000000000000       2
    0.316666666667    0.047619047619    0.000000000000       2
    0.333333333333    0.047619047619    0.000000000000       2
    0.350000000000    0.047619047619    0.000000000000       2
    0.366666666667    0.047619047619    0.000000000000       2
    0.383333333333    0.047619047619    0.000000000000       2
    0.400000000000    0.047619047619    0.000000000000       2
    0.416666666667    0.047619047619    0.000000000000       2
    0.433333333333    0.047619047619    0.000000000000       2
    0.450000000000    0.047619047619    0.000000000000       2
    0.466666666667    0.047619047619    0.000000000000       2
    0.483333333333    0.047619047619    0.000000000000       2
    0.500000000000    0.047619047619    0.000000000000       2
   -0.483333333333    0.047619047619    0.000000000000       2
   -0.466666666667    0.047619047619    0.000000000000       2
   -0.450000000000    0.047619047619    0.000000000000       2
   -0.433333333333    0.047619047619    0.000000000000       2
   -0.416666666667    0.047619047619    0.000000000000       2
   -0.400000000000    0.047619047619    0.000000000000       2
   -0.383333333333    0.047619047619    0.000000000000       2
   -0.366666666667    0.047619047619    0.000000000000       2
   -0.350000000000    0.047619047619    0.000000000000       2
   -0.333333333333    0.047619047619    0.000000000000       2
   -0.316666666667    0.047619047619    0.000000000000       2
   -0.300000000000    0.047619047619    0.000000000000       2
   -0.283333333333    0.047619047619    0.000000000000       2
   -0.266666666667    0.047619047619    0.000000000000       2
   -0.250000000000    0.047619047619    0.000000000000       2
   -0.233333333333    0.047619047619    0.000000000000       2
   -0.216666666667    0.047619047619    0.000000000000       2
   -0.200000000000    0.047619047619    0.000000000000       2
   -0.183333333333    0.047619047619    0.000000000000       2
   -0.166666666667    0.047619047619    0.000000000000       2
   -0.150000000000    0.047619047619    0.000000000000       2
   -0.133333333333    0.047619047619    0.000000000000       2
   -0.116666666667    0.047619047619    0.000000000000       2
   -0.100000000000    0.047619047619    0.000000000000       2
   -0.083333333333    0.047619047619    0.000000000000       2
   -0.066666666667    0.047619047619    0.000000000000       2
   -0.050000000000    0.047619047619    0.000000000000       2
   -0.033333333333    0.047619047619    0.000000000000       2
   -0.016666666667    0.047619047619    0.000000000000       2
    0.000000000000    0.095238095238    0.000000000000       2
    0.016666666667    0.095238095238    0.000000000000       2
    0.033333333333    0.095238095238    0.000000000000       2
    0.050000000000    0.095238095238    0.000000000000       2
    0.066666666667    0.095238095238    0.000000000000       2
    0.083333333333    0.095238095238    0.000000000000       2
    0.100000000000    0.095238095238    0.000000000000       2
    0.116666666667    0.095238095238    0.000000000000       2
    0.133333333333    0.095238095238    0.000000000000       2
    0.150000000000    0.095238095238    0.000000000000       2
    0.166666666667    0.095238095238    0.000000000000       2
    0.183333333333    0.095238095238    0.000000000000       2
    0.200000000000    0.095238095238    0.000000000000       2
    0.216666666667    0.095238095238    0.000000000000       2
    0.233333333333    0.095238095238    0.000000000000       2
    0.250000000000    0.095238095238    0.000000000000       2
    0.266666666667    0.095238095238    0.000000000000       2
    0.283333333333    0.095238095238    0.000000000000       2
    0.300000000000    0.095238095238    0.000000000000       2
    0.316666666667    0.095238095238    0.000000000000       2
    0.333333333333    0.095238095238    0.000000000000       2
    0.350000000000    0.095238095238    0.000000000000       2
    0.366666666667    0.095238095238    0.000000000000       2
    0.383333333333    0.095238095238    0.000000000000       2
    0.400000000000    0.095238095238    0.000000000000       2
    0.416666666667    0.095238095238    0.000000000000       2
    0.433333333333    0.095238095238    0.000000000000       2
    0.450000000000    0.095238095238    0.000000000000       2
    0.466666666667    0.095238095238    0.000000000000       2
    0.483333333333    0.095238095238    0.000000000000       2
    0.500000000000    0.095238095238    0.000000000000       2
   -0.483333333333    0.095238095238    0.000000000000       2
   -0.466666666667    0.095238095238    0.000000000000       2
   -0.450000000000    0.095238095238    0.000000000000       2
   -0.433333333333    0.095238095238    0.000000000000       2
   -0.416666666667    0.095238095238    0.000000000000       2
   -0.400000000000    0.095238095238    0.000000000000       2
   -0.383333333333    0.095238095238    0.000000000000       2
   -0.366666666667    0.095238095238    0.000000000000       2
   -0.350000000000    0.095238095238    0.000000000000       2
   -0.333333333333    0.095238095238    0.000000000000       2
   -0.316666666667    0.095238095238    0.000000000000       2
   -0.300000000000    0.095238095238    0.000000000000       2
   -0.283333333333    0.095238095238    0.000000000000       2
   -0.266666666667    0.095238095238    0.000000000000       2
   -0.250000000000    0.095238095238    0.000000000000       2
   -0.233333333333    0.095238095238    0.000000000000       2
   -0.216666666667    0.095238095238    0.000000000000       2
   -0.200000000000    0.095238095238    0.000000000000       2
   -0.183333333333    0.095238095238    0.000000000000       2
   -0.166666666667    0.095238095238    0.000000000000       2
   -0.150000000000    0.095238095238    0.000000000000       2
   -0.133333333333    0.095238095238    0.000000000000       2
   -0.116666666667    0.095238095238    0.000000000000       2
   -0.100000000000    0.095238095238    0.000000000000       2
   -0.083333333333    0.095238095238    0.000000000000       2
   -0.066666666667    0.095238095238    0.000000000000       2
   -0.050000000000    0.095238095238    0.000000000000       2
   -0.033333333333    0.095238095238    0.000000000000       2
   -0.016666666667    0.095238095238    0.000000000000       2
    0.000000000000    0.142857142857    0.000000000000       2
    0.016666666667    0.142857142857    0.000000000000       2
    0.033333333333    0.142857142857    0.000000000000       2
    0.050000000000    0.142857142857    0.000000000000       2
    0.066666666667    0.142857142857    0.000000000000       2
    0.083333333333    0.142857142857    0.000000000000       2
    0.100000000000    0.142857142857    0.000000000000       2
    0.116666666667    0.142857142857    0.000000000000       2
    0.133333333333    0.142857142857    0.000000000000       2
    0.150000000000    0.142857142857    0.000000000000       2
    0.166666666667    0.142857142857    0.000000000000       2
    0.183333333333    0.142857142857    0.000000000000       2
    0.200000000000    0.142857142857    0.000000000000       2
    0.216666666667    0.142857142857    0.000000000000       2
    0.233333333333    0.142857142857    0.000000000000       2
    0.250000000000    0.142857142857    0.000000000000       2
    0.266666666667    0.142857142857    0.000000000000       2
    0.283333333333    0.142857142857    0.000000000000       2
    0.300000000000    0.142857142857    0.000000000000       2
    0.316666666667    0.142857142857    0.000000000000       2
    0.333333333333    0.142857142857    0.000000000000       2
    0.350000000000    0.142857142857    0.000000000000       2
    0.366666666667    0.142857142857    0.000000000000       2
    0.383333333333    0.142857142857    0.000000000000       2
    0.400000000000    0.142857142857    0.000000000000       2
    0.416666666667    0.142857142857    0.000000000000       2
    0.433333333333    0.142857142857    0.000000000000       2
    0.450000000000    0.142857142857    0.000000000000       2
    0.466666666667    0.142857142857    0.000000000000       2
    0.483333333333    0.142857142857    0.000000000000       2
    0.500000000000    0.142857142857    0.000000000000       2
   -0.483333333333    0.142857142857    0.000000000000       2
   -0.466666666667    0.142857142857    0.000000000000       2
   -0.450000000000    0.142857142857    0.000000000000       2
   -0.433333333333    0.142857142857    0.000000000000       2
   -0.416666666667    0.142857142857    0.000000000000       2
   -0.400000000000    0.142857142857    0.000000000000       2
   -0.383333333333    0.142857142857    0.000000000000       2
   -0.366666666667    0.142857142857    0.000000000000       2
   -0.350000000000    0.142857142857    0.000000000000       2
   -0.333333333333    0.142857142857    0.000000000000       2
   -0.316666666667    0.142857142857    0.000000000000       2
   -0.300000000000    0.142857142857    0.000000000000       2
   -0.283333333333    0.142857142857    0.000000000000       2
   -0.266666666667    0.142857142857    0.000000000000       2
   -0.250000000000    0.142857142857    0.000000000000       2
   -0.233333333333    0.142857142857    0.000000000000       2
   -0.216666666667    0.142857142857    0.000000000000       2
   -0.200000000000    0.142857142857    0.000000000000       2
   -0.183333333333    0.142857142857    0.000000000000       2
   -0.166666666667    0.142857142857    0.000000000000       2
   -0.150000000000    0.142857142857    0.000000000000       2
   -0.133333333333    0.142857142857    0.000000000000       2
   -0.116666666667    0.142857142857    0.000000000000       2
   -0.100000000000    0.142857142857    0.000000000000       2
   -0.083333333333    0.142857142857    0.000000000000       2
   -0.066666666667    0.142857142857    0.000000000000       2
   -0.050000000000    0.142857142857    0.000000000000       2
   -0.033333333333    0.142857142857    0.000000000000       2
   -0.016666666667    0.142857142857    0.000000000000       2
    0.000000000000    0.190476190476    0.000000000000       2
    0.016666666667    0.190476190476    0.000000000000       2
    0.033333333333    0.190476190476    0.000000000000       2
    0.050000000000    0.190476190476    0.000000000000       2
    0.066666666667    0.190476190476    0.000000000000       2
    0.083333333333    0.190476190476    0.000000000000       2
    0.100000000000    0.190476190476    0.000000000000       2
    0.116666666667    0.190476190476    0.000000000000       2
    0.133333333333    0.190476190476    0.000000000000       2
    0.150000000000    0.190476190476    0.000000000000       2
    0.166666666667    0.190476190476    0.000000000000       2
    0.183333333333    0.190476190476    0.000000000000       2
    0.200000000000    0.190476190476    0.000000000000       2
    0.216666666667    0.190476190476    0.000000000000       2
    0.233333333333    0.190476190476    0.000000000000       2
    0.250000000000    0.190476190476    0.000000000000       2
    0.266666666667    0.190476190476    0.000000000000       2
    0.283333333333    0.190476190476    0.000000000000       2
    0.300000000000    0.190476190476    0.000000000000       2
    0.316666666667    0.190476190476    0.000000000000       2
    0.333333333333    0.190476190476    0.000000000000       2
    0.350000000000    0.190476190476    0.000000000000       2
    0.366666666667    0.190476190476    0.000000000000       2
    0.383333333333    0.190476190476    0.000000000000       2
    0.400000000000    0.190476190476    0.000000000000       2
    0.416666666667    0.190476190476    0.000000000000       2
    0.433333333333    0.190476190476    0.000000000000       2
    0.450000000000    0.190476190476    0.000000000000       2
    0.466666666667    0.190476190476    0.000000000000       2
    0.483333333333    0.190476190476    0.000000000000       2
    0.500000000000    0.190476190476    0.000000000000       2
   -0.483333333333    0.190476190476    0.000000000000       2
   -0.466666666667    0.190476190476    0.000000000000       2
   -0.450000000000    0.190476190476    0.000000000000       2
   -0.433333333333    0.190476190476    0.000000000000       2
   -0.416666666667    0.190476190476    0.000000000000       2
   -0.400000000000    0.190476190476    0.000000000000       2
   -0.383333333333    0.190476190476    0.000000000000       2
   -0.366666666667    0.190476190476    0.000000000000       2
   -0.350000000000    0.190476190476    0.000000000000       2
   -0.333333333333    0.190476190476    0.000000000000       2
   -0.316666666667    0.190476190476    0.000000000000       2
   -0.300000000000    0.190476190476    0.000000000000       2
   -0.283333333333    0.190476190476    0.000000000000       2
   -0.266666666667    0.190476190476    0.000000000000       2
   -0.250000000000    0.190476190476    0.000000000000       2
   -0.233333333333    0.190476190476    0.000000000000       2
   -0.216666666667    0.190476190476    0.000000000000       2
   -0.200000000000    0.190476190476    0.000000000000       2
   -0.183333333333    0.190476190476    0.000000000000       2
   -0.166666666667    0.190476190476    0.000000000000       2
   -0.150000000000    0.190476190476    0.000000000000       2
   -0.133333333333    0.190476190476    0.000000000000       2
   -0.116666666667    0.190476190476    0.000000000000       2
   -0.100000000000    0.190476190476    0.000000000000       2
   -0.083333333333    0.190476190476    0.000000000000       2
   -0.066666666667    0.190476190476    0.000000000000       2
   -0.050000000000    0.190476190476    0.000000000000       2
   -0.033333333333    0.190476190476    0.000000000000       2
   -0.016666666667    0.190476190476    0.000000000000       2
    0.000000000000    0.238095238095    0.000000000000       2
    0.016666666667    0.238095238095    0.000000000000       2
    0.033333333333    0.238095238095    0.000000000000       2
    0.050000000000    0.238095238095    0.000000000000       2
    0.066666666667    0.238095238095    0.000000000000       2
    0.083333333333    0.238095238095    0.000000000000       2
    0.100000000000    0.238095238095    0.000000000000       2
    0.116666666667    0.238095238095    0.000000000000       2
    0.133333333333    0.238095238095    0.000000000000       2
    0.150000000000    0.238095238095    0.000000000000       2
    0.166666666667    0.238095238095    0.000000000000       2
    0.183333333333    0.238095238095    0.000000000000       2
    0.200000000000    0.238095238095    0.000000000000       2
    0.216666666667    0.238095238095    0.000000000000       2
    0.233333333333    0.238095238095    0.000000000000       2
    0.250000000000    0.238095238095    0.000000000000       2
    0.266666666667    0.238095238095    0.000000000000       2
    0.283333333333    0.238095238095    0.000000000000       2
    0.300000000000    0.238095238095    0.000000000000       2
    0.316666666667    0.238095238095    0.000000000000       2
    0.333333333333    0.238095238095    0.000000000000       2
    0.350000000000    0.238095238095    0.000000000000       2
    0.366666666667    0.238095238095    0.000000000000       2
    0.383333333333    0.238095238095    0.000000000000       2
    0.400000000000    0.238095238095    0.000000000000       2
    0.416666666667    0.238095238095    0.000000000000       2
    0.433333333333    0.238095238095    0.000000000000       2
    0.450000000000    0.238095238095    0.000000000000       2
    0.466666666667    0.238095238095    0.000000000000       2
    0.483333333333    0.238095238095    0.000000000000       2
    0.500000000000    0.238095238095    0.000000000000       2
   -0.483333333333    0.238095238095    0.000000000000       2
   -0.466666666667    0.238095238095    0.000000000000       2
   -0.450000000000    0.238095238095    0.000000000000       2
   -0.433333333333    0.238095238095    0.000000000000       2
   -0.416666666667    0.238095238095    0.000000000000       2
   -0.400000000000    0.238095238095    0.000000000000       2
   -0.383333333333    0.238095238095    0.000000000000       2
   -0.366666666667    0.238095238095    0.000000000000       2
   -0.350000000000    0.238095238095    0.000000000000       2
   -0.333333333333    0.238095238095    0.000000000000       2
   -0.316666666667    0.238095238095    0.000000000000       2
   -0.300000000000    0.238095238095    0.000000000000       2
   -0.283333333333    0.238095238095    0.000000000000       2
   -0.266666666667    0.238095238095    0.000000000000       2
   -0.250000000000    0.238095238095    0.000000000000       2
   -0.233333333333    0.238095238095    0.000000000000       2
   -0.216666666667    0.238095238095    0.000000000000       2
   -0.200000000000    0.238095238095    0.000000000000       2
   -0.183333333333    0.238095238095    0.000000000000       2
   -0.166666666667    0.238095238095    0.000000000000       2
   -0.150000000000    0.238095238095    0.000000000000       2
   -0.133333333333    0.238095238095    0.000000000000       2
   -0.116666666667    0.238095238095    0.000000000000       2
   -0.100000000000    0.238095238095    0.000000000000       2
   -0.083333333333    0.238095238095    0.000000000000       2
   -0.066666666667    0.238095238095    0.000000000000       2
   -0.050000000000    0.238095238095    0.000000000000       2
   -0.033333333333    0.238095238095    0.000000000000       2
   -0.016666666667    0.238095238095    0.000000000000       2
    0.000000000000    0.285714285714    0.000000000000       2
    0.016666666667    0.285714285714    0.000000000000       2
    0.033333333333    0.285714285714    0.000000000000       2
    0.050000000000    0.285714285714    0.000000000000       2
    0.066666666667    0.285714285714    0.000000000000       2
    0.083333333333    0.285714285714    0.000000000000       2
    0.100000000000    0.285714285714    0.000000000000       2
    0.116666666667    0.285714285714    0.000000000000       2
    0.133333333333    0.285714285714    0.000000000000       2
    0.150000000000    0.285714285714    0.000000000000       2
    0.166666666667    0.285714285714    0.000000000000       2
    0.183333333333    0.285714285714    0.000000000000       2
    0.200000000000    0.285714285714    0.000000000000       2
    0.216666666667    0.285714285714    0.000000000000       2
    0.233333333333    0.285714285714    0.000000000000       2
    0.250000000000    0.285714285714    0.000000000000       2
    0.266666666667    0.285714285714    0.000000000000       2
    0.283333333333    0.285714285714    0.000000000000       2
    0.300000000000    0.285714285714    0.000000000000       2
    0.316666666667    0.285714285714    0.000000000000       2
    0.333333333333    0.285714285714    0.000000000000       2
    0.350000000000    0.285714285714    0.000000000000       2
    0.366666666667    0.285714285714    0.000000000000       2
    0.383333333333    0.285714285714    0.000000000000       2
    0.400000000000    0.285714285714    0.000000000000       2
    0.416666666667    0.285714285714    0.000000000000       2
    0.433333333333    0.285714285714    0.000000000000       2
    0.450000000000    0.285714285714    0.000000000000       2
    0.466666666667    0.285714285714    0.000000000000       2
    0.483333333333    0.285714285714    0.000000000000       2
    0.500000000000    0.285714285714    0.000000000000       2
   -0.483333333333    0.285714285714    0.000000000000       2
   -0.466666666667    0.285714285714    0.000000000000       2
   -0.450000000000    0.285714285714    0.000000000000       2
   -0.433333333333    0.285714285714    0.000000000000       2
   -0.416666666667    0.285714285714    0.000000000000       2
   -0.400000000000    0.285714285714    0.000000000000       2
   -0.383333333333    0.285714285714    0.000000000000       2
   -0.366666666667    0.285714285714    0.000000000000       2
   -0.350000000000    0.285714285714    0.000000000000       2
   -0.333333333333    0.285714285714    0.000000000000       2
   -0.316666666667    0.285714285714    0.000000000000       2
   -0.300000000000    0.285714285714    0.000000000000       2
   -0.283333333333    0.285714285714    0.000000000000       2
   -0.266666666667    0.285714285714    0.000000000000       2
   -0.250000000000    0.285714285714    0.000000000000       2
   -0.233333333333    0.285714285714    0.000000000000       2
   -0.216666666667    0.285714285714    0.000000000000       2
   -0.200000000000    0.285714285714    0.000000000000       2
   -0.183333333333    0.285714285714    0.000000000000       2
   -0.166666666667    0.285714285714    0.000000000000       2
   -0.150000000000    0.285714285714    0.000000000000       2
   -0.133333333333    0.285714285714    0.000000000000       2
   -0.116666666667    0.285714285714    0.000000000000       2
   -0.100000000000    0.285714285714    0.000000000000       2
   -0.083333333333    0.285714285714    0.000000000000       2
   -0.066666666667    0.285714285714    0.000000000000       2
   -0.050000000000    0.285714285714    0.000000000000       2
   -0.033333333333    0.285714285714    0.000000000000       2
   -0.016666666667    0.285714285714    0.000000000000       2
    0.000000000000    0.333333333333    0.000000000000       2
    0.016666666667    0.333333333333    0.000000000000       2
    0.033333333333    0.333333333333    0.000000000000       2
    0.050000000000    0.333333333333    0.000000000000       2
    0.066666666667    0.333333333333    0.000000000000       2
    0.083333333333    0.333333333333    0.000000000000       2
    0.100000000000    0.333333333333    0.000000000000       2
    0.116666666667    0.333333333333    0.000000000000       2
    0.133333333333    0.333333333333    0.000000000000       2
    0.150000000000    0.333333333333    0.000000000000       2
    0.166666666667    0.333333333333    0.000000000000       2
    0.183333333333    0.333333333333    0.000000000000       2
    0.200000000000    0.333333333333    0.000000000000       2
    0.216666666667    0.333333333333    0.000000000000       2
    0.233333333333    0.333333333333    0.000000000000       2
    0.250000000000    0.333333333333    0.000000000000       2
    0.266666666667    0.333333333333    0.000000000000       2
    0.283333333333    0.333333333333    0.000000000000       2
    0.300000000000    0.333333333333    0.000000000000       2
    0.316666666667    0.333333333333    0.000000000000       2
    0.333333333333    0.333333333333    0.000000000000       2
    0.350000000000    0.333333333333    0.000000000000       2
    0.366666666667    0.333333333333    0.000000000000       2
    0.383333333333    0.333333333333    0.000000000000       2
    0.400000000000    0.333333333333    0.000000000000       2
    0.416666666667    0.333333333333    0.000000000000       2
    0.433333333333    0.333333333333    0.000000000000       2
    0.450000000000    0.333333333333    0.000000000000       2
    0.466666666667    0.333333333333    0.000000000000       2
    0.483333333333    0.333333333333    0.000000000000       2
    0.500000000000    0.333333333333    0.000000000000       2
   -0.483333333333    0.333333333333    0.000000000000       2
   -0.466666666667    0.333333333333    0.000000000000       2
   -0.450000000000    0.333333333333    0.000000000000       2
   -0.433333333333    0.333333333333    0.000000000000       2
   -0.416666666667    0.333333333333    0.000000000000       2
   -0.400000000000    0.333333333333    0.000000000000       2
   -0.383333333333    0.333333333333    0.000000000000       2
   -0.366666666667    0.333333333333    0.000000000000       2
   -0.350000000000    0.333333333333    0.000000000000       2
   -0.333333333333    0.333333333333    0.000000000000       2
   -0.316666666667    0.333333333333    0.000000000000       2
   -0.300000000000    0.333333333333    0.000000000000       2
   -0.283333333333    0.333333333333    0.000000000000       2
   -0.266666666667    0.333333333333    0.000000000000       2
   -0.250000000000    0.333333333333    0.000000000000       2
   -0.233333333333    0.333333333333    0.000000000000       2
   -0.216666666667    0.333333333333    0.000000000000       2
   -0.200000000000    0.333333333333    0.000000000000       2
   -0.183333333333    0.333333333333    0.000000000000       2
   -0.166666666667    0.333333333333    0.000000000000       2
   -0.150000000000    0.333333333333    0.000000000000       2
   -0.133333333333    0.333333333333    0.000000000000       2
   -0.116666666667    0.333333333333    0.000000000000       2
   -0.100000000000    0.333333333333    0.000000000000       2
   -0.083333333333    0.333333333333    0.000000000000       2
   -0.066666666667    0.333333333333    0.000000000000       2
   -0.050000000000    0.333333333333    0.000000000000       2
   -0.033333333333    0.333333333333    0.000000000000       2
   -0.016666666667    0.333333333333    0.000000000000       2
    0.000000000000    0.380952380952    0.000000000000       2
    0.016666666667    0.380952380952    0.000000000000       2
    0.033333333333    0.380952380952    0.000000000000       2
    0.050000000000    0.380952380952    0.000000000000       2
    0.066666666667    0.380952380952    0.000000000000       2
    0.083333333333    0.380952380952    0.000000000000       2
    0.100000000000    0.380952380952    0.000000000000       2
    0.116666666667    0.380952380952    0.000000000000       2
    0.133333333333    0.380952380952    0.000000000000       2
    0.150000000000    0.380952380952    0.000000000000       2
    0.166666666667    0.380952380952    0.000000000000       2
    0.183333333333    0.380952380952    0.000000000000       2
    0.200000000000    0.380952380952    0.000000000000       2
    0.216666666667    0.380952380952    0.000000000000       2
    0.233333333333    0.380952380952    0.000000000000       2
    0.250000000000    0.380952380952    0.000000000000       2
    0.266666666667    0.380952380952    0.000000000000       2
    0.283333333333    0.380952380952    0.000000000000       2
    0.300000000000    0.380952380952    0.000000000000       2
    0.316666666667    0.380952380952    0.000000000000       2
    0.333333333333    0.380952380952    0.000000000000       2
    0.350000000000    0.380952380952    0.000000000000       2
    0.366666666667    0.380952380952    0.000000000000       2