CONTCAR\(2)                             
   1.00000000000000     
    11.1623001099000003    0.0000000000000000    0.0000000000000000
     0.0000000000000000   10.7430000304999993    0.0000000000000000
     0.0000000000000000    0.0000000000000000   21.1923999786000010
   Hf   Se   O    H 
    12    36     1     1
Direct
  0.0826042121761219  0.3329064869073406  0.5727476857952993
  0.2502725746596610  0.0820849935570820  0.4317172861390617
  0.4172761791859472  0.3301881399171691  0.5736601286741845
  0.5820779733643917  0.0816595559732818  0.4317879552649302
  0.7483487177949968  0.3303029840680693  0.5728787623327563
  0.9164329990374469  0.0829965662121452  0.4290363357799336
  0.0839907132674682  0.8320590265539138  0.5637966107467918
  0.2487972691682430  0.5798620182688552  0.4308357606448965
  0.4198371187957761  0.8215118586856320  0.5761681928868754
  0.5823505624026240  0.5797780719447090  0.4305732988624058
  0.7521386118130522  0.8345522640819212  0.5675963005833111
  0.9148054332332123  0.5792799021004242  0.4287954194689547
  0.0830079918248359  0.4672931108895853  0.3544174696954485
  0.2507007283189751  0.4476447293818282  0.6474699075579977
  0.2493743875546244  0.3309629684953563  0.4788286480743480
  0.0812620140730118  0.0831574688801808  0.5240683107240329
  0.2465143061196926  0.2232737696767018  0.6501017471853814
  0.0847950869547489  0.1919123083318865  0.3528641252490203
  0.4150531595204257  0.4725178233560072  0.3513113359440112
  0.5844226450435244  0.4434672653638216  0.6473386339366485
  0.5825518593097243  0.3307121630749705  0.4783794380175479
  0.4153536206324020  0.0801323776978009  0.5267181016659919
  0.5837700179546985  0.2130024490062326  0.6474935939919462
  0.4160581483437369  0.1969902678101079  0.3584352673829656
  0.7480559946086061  0.4681592354442046  0.3534824938422361
  0.9154856114138497  0.4471565182460111  0.6458207524407698
  0.9160480308041272  0.3313890307006275  0.4777779267881215
  0.7512954600517645  0.0830045226556706  0.5227937307444108
  0.9158054055032352  0.2212698162109774  0.6505865568811018
  0.7474001978013760  0.1924907255396207  0.3533653371168768
  0.0850429015621330  0.9683980278818041  0.3554068723501231
  0.2472582270458901  0.9305057450901586  0.6480263036729355
  0.2554878564736143  0.8304012647937284  0.4780387226910392
  0.0785546301841009  0.5823532764491972  0.5239769922732762
  0.1726602342289922  0.7226464294001929  0.6637465635885107
  0.0830387917633715  0.6908514313254130  0.3528653973692215
  0.4161246339369455  0.9737570923337415  0.3524109197440168
  0.5917566125953613  0.9470284857507991  0.6434045554015881
  0.5811492210207803  0.8293671150029027  0.4786760704776398
  0.4152132429570585  0.5777814932389802  0.5238943066490407
  0.6734237616033596  0.7096235772547033  0.6701196147314690
  0.4148195648618440  0.6955892450299856  0.3571022700092215
  0.7486001104627675  0.9692353586073139  0.3546478108923736
  0.9203839664767628  0.9476593105482678  0.6407607595243050
  0.9156163251890348  0.8303417943999634  0.4740606225090005
  0.7504505785533411  0.5818069476919376  0.5233886746078511
  0.8895326088740916  0.7247489457542713  0.6695487141274157
  0.7469402910079879  0.6916092501349880  0.3527310342946492
  0.4422973450367564  0.7052158667194561  0.6485549870004732
  0.4238025024335741  0.7269208755600474  0.6920514186676030
 
  0.00000000E+00  0.00000000E+00  0.00000000E+00
  0.00000000E+00  0.00000000E+00  0.00000000E+00
  0.00000000E+00  0.00000000E+00  0.00000000E+00
  0.00000000E+00  0.00000000E+00  0.00000000E+00
  0.00000000E+00  0.00000000E+00  0.00000000E+00
  0.00000000E+00  0.00000000E+00  0.00000000E+00
  0.00000000E+00  0.00000000E+00  0.00000000E+00
  0.00000000E+00  0.00000000E+00  0.00000000E+00
  0.00000000E+00  0.00000000E+00  0.00000000E+00
  0.00000000E+00  0.00000000E+00  0.00000000E+00
  0.00000000E+00  0.00000000E+00  0.00000000E+00
  0.00000000E+00  0.00000000E+00  0.00000000E+00
  0.00000000E+00  0.00000000E+00  0.00000000E+00
  0.00000000E+00  0.00000000E+00  0.00000000E+00
  0.00000000E+00  0.00000000E+00  0.00000000E+00
  0.00000000E+00  0.00000000E+00  0.00000000E+00
  0.00000000E+00  0.00000000E+00  0.00000000E+00
  0.00000000E+00  0.00000000E+00  0.00000000E+00
  0.00000000E+00  0.00000000E+00  0.00000000E+00
  0.00000000E+00  0.00000000E+00  0.00000000E+00
  0.00000000E+00  0.00000000E+00  0.00000000E+00
  0.00000000E+00  0.00000000E+00  0.00000000E+00
  0.00000000E+00  0.00000000E+00  0.00000000E+00
  0.00000000E+00  0.00000000E+00  0.00000000E+00
  0.00000000E+00  0.00000000E+00  0.00000000E+00
  0.00000000E+00  0.00000000E+00  0.00000000E+00
  0.00000000E+00  0.00000000E+00  0.00000000E+00
  0.00000000E+00  0.00000000E+00  0.00000000E+00
  0.00000000E+00  0.00000000E+00  0.00000000E+00
  0.00000000E+00  0.00000000E+00  0.00000000E+00
  0.00000000E+00  0.00000000E+00  0.00000000E+00
  0.00000000E+00  0.00000000E+00  0.00000000E+00
  0.00000000E+00  0.00000000E+00  0.00000000E+00
  0.00000000E+00  0.00000000E+00  0.00000000E+00
  0.00000000E+00  0.00000000E+00  0.00000000E+00
  0.00000000E+00  0.00000000E+00  0.00000000E+00
  0.00000000E+00  0.00000000E+00  0.00000000E+00
  0.00000000E+00  0.00000000E+00  0.00000000E+00
  0.00000000E+00  0.00000000E+00  0.00000000E+00
  0.00000000E+00  0.00000000E+00  0.00000000E+00
  0.00000000E+00  0.00000000E+00  0.00000000E+00
  0.00000000E+00  0.00000000E+00  0.00000000E+00
  0.00000000E+00  0.00000000E+00  0.00000000E+00
  0.00000000E+00  0.00000000E+00  0.00000000E+00
  0.00000000E+00  0.00000000E+00  0.00000000E+00
  0.00000000E+00  0.00000000E+00  0.00000000E+00
  0.00000000E+00  0.00000000E+00  0.00000000E+00
  0.00000000E+00  0.00000000E+00  0.00000000E+00
  0.00000000E+00  0.00000000E+00  0.00000000E+00
  0.00000000E+00  0.00000000E+00  0.00000000E+00
