CONTCAR\(4)                             
   1.00000000000000     
    12.9882001877000004    0.0000000000000000    0.0000000000000000
     0.0000000000000000   20.1457004546999983    0.0000000000000000
     0.0000000000000000    0.0000000000000000   19.8038997650000006
   Ce   I    O 
    12    36     1
Direct
  0.1649218588413079  0.9984964374069906  0.5071217669835664
  0.0005886121677989  0.2499916751276462  0.4924353895808211
  0.5015644583820277  0.9986063292044107  0.5074455642523007
  0.3336417051045013  0.2499895552360971  0.4932771304423957
  0.8335409996330174  0.0006139713889044  0.5029595398663648
  0.6657974622466823  0.2500601478819076  0.4924204867408292
  0.1651799298999572  0.5014915428422962  0.5072335595455026
 -0.0003111523596619  0.7498494052451790  0.4906342988864856
  0.5015269644059799  0.5013560846604990  0.5074456692453431
  0.3333402015016355  0.7500425084855309  0.5277038403738181
  0.8331822276062860  0.4995025466672908  0.5029619051716177
  0.6671607294732015  0.7499872969837851  0.4905998219341643
  0.0014203112450109  0.4069522231320178  0.4244951789278506
  0.1672632889557769  0.3411291965062195  0.5751024974896451
  0.1673320592750489  0.1587992725942350  0.5750371410054660
  0.0013614585552118  0.0931773142329775  0.4242818472808014
 -0.0048710234723567  0.0042701335654635  0.6207202639877983
  0.1682510612968525  0.2499922378120749  0.3772403737988256
  0.3332141179735920  0.4093415185624660  0.4264164513134116
  0.4995153933700289  0.3409446134190279  0.5752408401375800
  0.4995229537878855  0.1589774797555449  0.5751261154224663
  0.3331520930020279  0.0905630079074336  0.4263346434934193
  0.3330054453766944 -0.0018610156399483  0.6223153933696512
  0.4987343211406055  0.2499745724865233  0.3770910599632882
  0.6649932066347366  0.4068137155677741  0.4245302948139695
  0.8331272573953867  0.3402143363017150  0.5729302883925513
  0.8331795874864391  0.1597252076880777  0.5729208200093613
  0.6650292097675518  0.0931623800053152  0.4244991257128685
  0.6716400551856746  0.0045767834743812  0.6212478615966509
  0.8332255033680361  0.2500416376715595  0.3768138320610214
  0.9988707202747287  0.9115705686193305  0.4193922628114253
  0.1427797192025633  0.8464528400825101  0.5774875985014970
  0.1429121974636152  0.6534639471948110  0.5775583274673551
  0.9988616224120525  0.5884931067930479  0.4194397083644149
 -0.0050354037221081  0.4957896459058785  0.6207774791372110
  0.1726851888646125  0.7499893352444033  0.3873027764362966
  0.3335450799869608  0.9071802593164223  0.4327697764507263
  0.5240770183557182  0.8465821164779365  0.5777190535005255
  0.5239797909467326  0.6534705657332164  0.5776670448415405
  0.3335885222835101  0.5927710365613783  0.4327016992874952
  0.3331219456714434  0.5018668348521761  0.6223083024235123
  0.4941449235869645  0.7500271641057854  0.3873858943600217
  0.6683023953273568  0.9117471380874325  0.4195954064006294
  0.8333616178071920  0.8422104857073778  0.5705377848777284
  0.8332554468747645  0.6577326789314797  0.5705578995558791
  0.6681272693184471  0.5883388561223194  0.4196204876065959
  0.6714106518881836  0.4953502366219852  0.6212158056165922
  0.8332835000071511  0.7500252937369902  0.3750430327567817
  0.3332276502032044  0.7500259737321625  0.6188166778039279
 
  0.00000000E+00  0.00000000E+00  0.00000000E+00
  0.00000000E+00  0.00000000E+00  0.00000000E+00
  0.00000000E+00  0.00000000E+00  0.00000000E+00
  0.00000000E+00  0.00000000E+00  0.00000000E+00
  0.00000000E+00  0.00000000E+00  0.00000000E+00
  0.00000000E+00  0.00000000E+00  0.00000000E+00
  0.00000000E+00  0.00000000E+00  0.00000000E+00
  0.00000000E+00  0.00000000E+00  0.00000000E+00
  0.00000000E+00  0.00000000E+00  0.00000000E+00
  0.00000000E+00  0.00000000E+00  0.00000000E+00
  0.00000000E+00  0.00000000E+00  0.00000000E+00
  0.00000000E+00  0.00000000E+00  0.00000000E+00
  0.00000000E+00  0.00000000E+00  0.00000000E+00
  0.00000000E+00  0.00000000E+00  0.00000000E+00
  0.00000000E+00  0.00000000E+00  0.00000000E+00
  0.00000000E+00  0.00000000E+00  0.00000000E+00
  0.00000000E+00  0.00000000E+00  0.00000000E+00
  0.00000000E+00  0.00000000E+00  0.00000000E+00
  0.00000000E+00  0.00000000E+00  0.00000000E+00
  0.00000000E+00  0.00000000E+00  0.00000000E+00
  0.00000000E+00  0.00000000E+00  0.00000000E+00
  0.00000000E+00  0.00000000E+00  0.00000000E+00
  0.00000000E+00  0.00000000E+00  0.00000000E+00
  0.00000000E+00  0.00000000E+00  0.00000000E+00
  0.00000000E+00  0.00000000E+00  0.00000000E+00
  0.00000000E+00  0.00000000E+00  0.00000000E+00
  0.00000000E+00  0.00000000E+00  0.00000000E+00
  0.00000000E+00  0.00000000E+00  0.00000000E+00
  0.00000000E+00  0.00000000E+00  0.00000000E+00
  0.00000000E+00  0.00000000E+00  0.00000000E+00
  0.00000000E+00  0.00000000E+00  0.00000000E+00
  0.00000000E+00  0.00000000E+00  0.00000000E+00
  0.00000000E+00  0.00000000E+00  0.00000000E+00
  0.00000000E+00  0.00000000E+00  0.00000000E+00
  0.00000000E+00  0.00000000E+00  0.00000000E+00
  0.00000000E+00  0.00000000E+00  0.00000000E+00
  0.00000000E+00  0.00000000E+00  0.00000000E+00
  0.00000000E+00  0.00000000E+00  0.00000000E+00
  0.00000000E+00  0.00000000E+00  0.00000000E+00
  0.00000000E+00  0.00000000E+00  0.00000000E+00
  0.00000000E+00  0.00000000E+00  0.00000000E+00
  0.00000000E+00  0.00000000E+00  0.00000000E+00
  0.00000000E+00  0.00000000E+00  0.00000000E+00
  0.00000000E+00  0.00000000E+00  0.00000000E+00
  0.00000000E+00  0.00000000E+00  0.00000000E+00
  0.00000000E+00  0.00000000E+00  0.00000000E+00
  0.00000000E+00  0.00000000E+00  0.00000000E+00
  0.00000000E+00  0.00000000E+00  0.00000000E+00
  0.00000000E+00  0.00000000E+00  0.00000000E+00
