CONTCAR\(2)                             
   1.00000000000000     
    11.7923002242999999    0.0000000000000000    0.0000000000000000
     0.0000000000000000   21.3097991942999982    0.0000000000000000
     0.0000000000000000    0.0000000000000000   18.7763004303000010
   V    Ag   P    S    O 
     8     8    16    48     1
Direct
  0.1310932680286831  0.4607441823663317  0.5005677293393583
  0.3772032524875456  0.0374101263925294  0.4973496823381459
  0.6301173217893936  0.4637942167302725  0.5018035390943901
  0.8923219483492698  0.0333043105066428  0.4988840190366575
  0.1096460260481811  0.9657026414094143  0.4944168309517974
  0.3739288305881615  0.5353362284821626  0.5064626208098328
  0.6216016789606651  0.9605446971712065  0.4959819308088532
  0.8691299779645956  0.5361719583181586  0.5063065603279311
  0.3867799996432991  0.2133456609071792  0.4949872134020073
  0.1431737342618153  0.2848135233537175  0.5018341959609789
  0.8732834549402334  0.2138864654667267  0.4922136197579463
  0.6394868257021112  0.2828096130967356  0.5028044956959772
  0.3579630839852103  0.7247497674357629  0.4759515670274592
  0.1312951541181309  0.7760872395489590  0.5304909326051007
  0.8677745287717908  0.7136768485109567  0.4997128044685834
  0.6283649972462347  0.7870912449232168  0.5034355359515439
  0.1249889939499047  0.1234194179329586  0.5610723882029847
  0.3772735152606617  0.3722355684346637  0.5565782331766316
  0.3845223769163182  0.3764777384790420  0.4377192519554279
  0.1343595946488161  0.1292113970300913  0.4419032533240675
  0.6285961462838539  0.1207257717681579  0.5596067174441812
  0.8770843266757482  0.3733191439673625  0.5561555915824995
  0.8832212896702922  0.3764989687539593  0.4373182176603924
  0.6361711874254388  0.1232899768744400  0.4409236882571511
  0.1195639664969848  0.6194258128001198  0.5734987994648220
  0.3650947397924556  0.8739102593614371  0.5471008426404598
  0.3726121362079958  0.8799078003895686  0.4283919302499560
  0.1269513158468360  0.6258535915469332  0.4549450927645686
  0.6239146095602356  0.6243842599405641  0.5680917542935869
  0.8669918902358575  0.8717855436456712  0.5564243633127717
  0.8772314980411939  0.8744889982110304  0.4370196059788671
  0.6265497541431193  0.6265188206232331  0.4486185334112042
  0.4635245042155427  0.4564856333657289  0.5805553419770867
  0.3139889445716675  0.3014379657796797  0.3952873178975145
  0.4599415954285299  0.1115293162852973  0.5830446091560695
  0.3009751795074257  0.1188108617064841  0.4167622461071513
  0.0597798086803305  0.2056446853021388  0.4045783162932525
  0.2084251173876402  0.3809599871794713  0.5809098784704753
  0.0493190709467813  0.3892369453549187  0.4117867960556398
  0.2953432466031246  0.4608658173769926  0.4206373462938178
  0.0434207890533830  0.0444600910507646  0.4179338031511006
  0.2076809558938367  0.0364441388769320  0.5755506632225814
  0.1975769985557249  0.1964847210640946  0.6052358347331652
  0.4514541120354114  0.2956734269641683  0.5939532330262917
  0.9624804327171568  0.4567068968289055  0.5804287519233279
  0.8065953874815687  0.3030132718520389  0.3950189150273315
  0.9551354465191326  0.1109033494390698  0.5810620230027442
  0.8037614867283498  0.1107817288622952  0.4163699218150954
  0.5682390047183836  0.2006334543756499  0.4010436407333633
  0.7071802583226643  0.3843573360284973  0.5793855460039904
  0.5523721998786852  0.3900982777075389  0.4155929245103371
  0.7909384988932091  0.4621785742961805  0.4227538185885646
  0.5431341900982887  0.0410655406517619  0.4185795651503698
  0.7160246089018285  0.0353612752110749  0.5758430851030738
  0.7038534239259725  0.1949703879648424  0.6013281931456615
  0.9472190633553977  0.2959847750988442  0.5935574033358199
  0.4557369272159535  0.9557450939621528  0.5743737218036933
  0.2982403511246040  0.8083979792552772  0.3813569380787166
  0.4454231015255522  0.6048061624245773  0.5937306448786747
  0.2957345153076544  0.6159950548689408  0.4289946164856098
  0.0609018820587474  0.7056757324713127  0.4195220133760752
  0.1983332674732193  0.8856236361268419  0.5744966169829322
  0.0457205721692507  0.8866189748033955  0.4151155943738439
  0.2837929752312280  0.9653761113879911  0.4155064319919924
  0.0401580940746012  0.5431701114275990  0.4278463964585707
  0.2088434643922467  0.5334451229763373  0.5856689187007984
  0.1969374896736193  0.6901003890567227  0.6203575693490546
  0.4330491055514671  0.7942694580694568  0.5829578546653540
  0.9595267310078577  0.9559117194460280  0.5774571577295891
  0.8027856035000873  0.8000150458757717  0.3963762538928290
  0.9508939477001384  0.6090346714022025  0.5943414228809659
  0.7950897040280382  0.6162537714099141  0.4252295648729974
  0.5575232841948213  0.7028689891880336  0.4070499931682554
  0.6990191152221593  0.8836450456983476  0.5800413215106135
  0.5425552139580470  0.8894939389936387  0.4079698134647834
  0.7940882647362820  0.9608252940056009  0.4198033013023636
  0.5406465298651104  0.5423617228333363  0.4265903716270728
  0.7079838062493107  0.5373513250031526  0.5859620303255431
  0.6916031900235515  0.6988375457014986  0.6113927723405991
  0.9342269942609231  0.7957460705822356  0.5999576326045664
  0.4412203839944205  0.5898703990270027  0.6717705501144825
 
  0.00000000E+00  0.00000000E+00  0.00000000E+00
  0.00000000E+00  0.00000000E+00  0.00000000E+00
  0.00000000E+00  0.00000000E+00  0.00000000E+00
  0.00000000E+00  0.00000000E+00  0.00000000E+00
  0.00000000E+00  0.00000000E+00  0.00000000E+00
  0.00000000E+00  0.00000000E+00  0.00000000E+00
  0.00000000E+00  0.00000000E+00  0.00000000E+00
  0.00000000E+00  0.00000000E+00  0.00000000E+00
  0.00000000E+00  0.00000000E+00  0.00000000E+00
  0.00000000E+00  0.00000000E+00  0.00000000E+00
  0.00000000E+00  0.00000000E+00  0.00000000E+00
  0.00000000E+00  0.00000000E+00  0.00000000E+00
  0.00000000E+00  0.00000000E+00  0.00000000E+00
  0.00000000E+00  0.00000000E+00  0.00000000E+00
  0.00000000E+00  0.00000000E+00  0.00000000E+00
  0.00000000E+00  0.00000000E+00  0.00000000E+00
  0.00000000E+00  0.00000000E+00  0.00000000E+00
  0.00000000E+00  0.00000000E+00  0.00000000E+00
  0.00000000E+00  0.00000000E+00  0.00000000E+00
  0.00000000E+00  0.00000000E+00  0.00000000E+00
  0.00000000E+00  0.00000000E+00  0.00000000E+00
  0.00000000E+00  0.00000000E+00  0.00000000E+00
  0.00000000E+00  0.00000000E+00  0.00000000E+00
  0.00000000E+00  0.00000000E+00  0.00000000E+00
  0.00000000E+00  0.00000000E+00  0.00000000E+00
  0.00000000E+00  0.00000000E+00  0.00000000E+00
  0.00000000E+00  0.00000000E+00  0.00000000E+00
  0.00000000E+00  0.00000000E+00  0.00000000E+00
  0.00000000E+00  0.00000000E+00  0.00000000E+00
  0.00000000E+00  0.00000000E+00  0.00000000E+00
  0.00000000E+00  0.00000000E+00  0.00000000E+00
  0.00000000E+00  0.00000000E+00  0.00000000E+00
  0.00000000E+00  0.00000000E+00  0.00000000E+00
  0.00000000E+00  0.00000000E+00  0.00000000E+00
  0.00000000E+00  0.00000000E+00  0.00000000E+00
  0.00000000E+00  0.00000000E+00  0.00000000E+00
  0.00000000E+00  0.00000000E+00  0.00000000E+00
  0.00000000E+00  0.00000000E+00  0.00000000E+00
  0.00000000E+00  0.00000000E+00  0.00000000E+00
  0.00000000E+00  0.00000000E+00  0.00000000E+00
  0.00000000E+00  0.00000000E+00  0.00000000E+00
  0.00000000E+00  0.00000000E+00  0.00000000E+00
  0.00000000E+00  0.00000000E+00  0.00000000E+00
  0.00000000E+00  0.00000000E+00  0.00000000E+00
  0.00000000E+00  0.00000000E+00  0.00000000E+00
  0.00000000E+00  0.00000000E+00  0.00000000E+00
  0.00000000E+00  0.00000000E+00  0.00000000E+00
  0.00000000E+00  0.00000000E+00  0.00000000E+00
  0.00000000E+00  0.00000000E+00  0.00000000E+00
  0.00000000E+00  0.00000000E+00  0.00000000E+00
  0.00000000E+00  0.00000000E+00  0.00000000E+00
  0.00000000E+00  0.00000000E+00  0.00000000E+00
  0.00000000E+00  0.00000000E+00  0.00000000E+00
  0.00000000E+00  0.00000000E+00  0.00000000E+00
  0.00000000E+00  0.00000000E+00  0.00000000E+00
  0.00000000E+00  0.00000000E+00  0.00000000E+00
  0.00000000E+00  0.00000000E+00  0.00000000E+00
  0.00000000E+00  0.00000000E+00  0.00000000E+00
  0.00000000E+00  0.00000000E+00  0.00000000E+00
  0.00000000E+00  0.00000000E+00  0.00000000E+00
  0.00000000E+00  0.00000000E+00  0.00000000E+00
  0.00000000E+00  0.00000000E+00  0.00000000E+00
  0.00000000E+00  0.00000000E+00  0.00000000E+00
  0.00000000E+00  0.00000000E+00  0.00000000E+00
  0.00000000E+00  0.00000000E+00  0.00000000E+00
  0.00000000E+00  0.00000000E+00  0.00000000E+00
  0.00000000E+00  0.00000000E+00  0.00000000E+00
  0.00000000E+00  0.00000000E+00  0.00000000E+00
  0.00000000E+00  0.00000000E+00  0.00000000E+00
  0.00000000E+00  0.00000000E+00  0.00000000E+00
  0.00000000E+00  0.00000000E+00  0.00000000E+00
  0.00000000E+00  0.00000000E+00  0.00000000E+00
  0.00000000E+00  0.00000000E+00  0.00000000E+00
  0.00000000E+00  0.00000000E+00  0.00000000E+00
  0.00000000E+00  0.00000000E+00  0.00000000E+00
  0.00000000E+00  0.00000000E+00  0.00000000E+00
  0.00000000E+00  0.00000000E+00  0.00000000E+00
  0.00000000E+00  0.00000000E+00  0.00000000E+00
  0.00000000E+00  0.00000000E+00  0.00000000E+00
  0.00000000E+00  0.00000000E+00  0.00000000E+00
  0.00000000E+00  0.00000000E+00  0.00000000E+00
