CONTCAR\(3)                             
   1.00000000000000     
    12.9047002792000001    0.0000000000000000    0.0000000000000000
     0.0000000000000000   17.0116996765000010    0.0000000000000000
     0.0000000000000000    0.0000000000000000   20.7707004546999983
   Pr   I    O 
    12    30     1
Direct
  0.2528103806638683  0.1376597513682316  0.5135235905463117
  0.0839748490322796  0.8633675100954189  0.4774895942796587
  0.2467682430109667  0.6362224866531654  0.5242832475683787
  0.0825305784651471  0.3640797983957156  0.4635509752706476
  0.5831064810768209  0.1332515060552770  0.6112858532792071
  0.4176165836935858  0.8663420663894019  0.4791173318252668
  0.5824163075901698  0.6333719912128619  0.5265084562214275
  0.4073010236207031  0.3626562703436637  0.4657817585130162
  0.9139471361585071  0.1378915844726255  0.5129678492439266
  0.7491407875073900  0.8667775366348288  0.4792688411070256
  0.9207222826582317  0.6358839637174697  0.5246125974151004
  0.7592178649854958  0.3628064493990362  0.4659975811345949
  0.2486344570816024  0.3809972193483567  0.3533670115753884
  0.0840648340379835  0.6206889268594198  0.6367290228881844
  0.2508524569033522  0.9837476287348733  0.4118479122842241
  0.0835907185281568  0.0166613730993772  0.5758416265204299
  0.0830962173181700  0.5610656809808729  0.4253067499182866
  0.2444773840755751  0.4448660402343719  0.5607147518831458
  0.0831361513968622  0.2444236690064810  0.5883095423068062
  0.2525570338177844  0.7570809012070855  0.4006675169815346
  0.0836730665705009  0.1846821224145206  0.4056705516153331
  0.2480171652227597  0.8115591719584718  0.5852054649663340
  0.5833969589439749  0.3769174610080047  0.3606011989807226
  0.4155312783660305  0.6187286235336927  0.6348526366631122
  0.5833674368969284  0.9833614325184650  0.4215947291783775
  0.3957618578201418  0.0090621245658492  0.5863865668647908
  0.4159492803942102  0.5590155007833660  0.4289641104216651
  0.5831241796110209  0.4351004810346618  0.5606272099538875
  0.3896127414768155  0.2554265050091342  0.5988319115750937
  0.5837432692763189  0.7542602796938817  0.4038471252735251
  0.4180573444329893  0.1871725939752062  0.4130702905550521
  0.5833366457497909  0.8130752804533399  0.5869569942350192
  0.9175977354397674  0.3808945109619672  0.3529346581612122
  0.7505975023084808  0.6192157560746481  0.6344238903510429
  0.9164942665061969  0.9837094935094858  0.4120106364902553
  0.7708516497298354  0.0092863381904283  0.5861428903968042
  0.7505622236047558  0.5592577073948557  0.4295686225222834
  0.9219287609870439  0.4448982817256549  0.5613927192755209
  0.7763480066232252  0.2553627062075707  0.5983436815081991
  0.9145987182345302  0.7575114630317621  0.4009330126256820
  0.7484672948323495  0.1873597413535551  0.4126739908186582
  0.9189489600413264  0.8112308721773512  0.5851726911274023
  0.5835618953083538  0.1256594392156322  0.7038127856774548
 
  0.00000000E+00  0.00000000E+00  0.00000000E+00
  0.00000000E+00  0.00000000E+00  0.00000000E+00
  0.00000000E+00  0.00000000E+00  0.00000000E+00
  0.00000000E+00  0.00000000E+00  0.00000000E+00
  0.00000000E+00  0.00000000E+00  0.00000000E+00
  0.00000000E+00  0.00000000E+00  0.00000000E+00
  0.00000000E+00  0.00000000E+00  0.00000000E+00
  0.00000000E+00  0.00000000E+00  0.00000000E+00
  0.00000000E+00  0.00000000E+00  0.00000000E+00
  0.00000000E+00  0.00000000E+00  0.00000000E+00
  0.00000000E+00  0.00000000E+00  0.00000000E+00
  0.00000000E+00  0.00000000E+00  0.00000000E+00
  0.00000000E+00  0.00000000E+00  0.00000000E+00
  0.00000000E+00  0.00000000E+00  0.00000000E+00
  0.00000000E+00  0.00000000E+00  0.00000000E+00
  0.00000000E+00  0.00000000E+00  0.00000000E+00
  0.00000000E+00  0.00000000E+00  0.00000000E+00
  0.00000000E+00  0.00000000E+00  0.00000000E+00
  0.00000000E+00  0.00000000E+00  0.00000000E+00
  0.00000000E+00  0.00000000E+00  0.00000000E+00
  0.00000000E+00  0.00000000E+00  0.00000000E+00
  0.00000000E+00  0.00000000E+00  0.00000000E+00
  0.00000000E+00  0.00000000E+00  0.00000000E+00
  0.00000000E+00  0.00000000E+00  0.00000000E+00
  0.00000000E+00  0.00000000E+00  0.00000000E+00
  0.00000000E+00  0.00000000E+00  0.00000000E+00
  0.00000000E+00  0.00000000E+00  0.00000000E+00
  0.00000000E+00  0.00000000E+00  0.00000000E+00
  0.00000000E+00  0.00000000E+00  0.00000000E+00
  0.00000000E+00  0.00000000E+00  0.00000000E+00
  0.00000000E+00  0.00000000E+00  0.00000000E+00
  0.00000000E+00  0.00000000E+00  0.00000000E+00
  0.00000000E+00  0.00000000E+00  0.00000000E+00
  0.00000000E+00  0.00000000E+00  0.00000000E+00
  0.00000000E+00  0.00000000E+00  0.00000000E+00
  0.00000000E+00  0.00000000E+00  0.00000000E+00
  0.00000000E+00  0.00000000E+00  0.00000000E+00
  0.00000000E+00  0.00000000E+00  0.00000000E+00
  0.00000000E+00  0.00000000E+00  0.00000000E+00
  0.00000000E+00  0.00000000E+00  0.00000000E+00
  0.00000000E+00  0.00000000E+00  0.00000000E+00
  0.00000000E+00  0.00000000E+00  0.00000000E+00
  0.00000000E+00  0.00000000E+00  0.00000000E+00
