Layer                                   
   1.00000000000000     
     6.9102001189999998    0.0000000000000000    0.0000000000000000
     1.7075399424000000   15.0073707208999991    0.0000000000000000
     0.0000000000000000    0.0000000000000000   13.0000000000000000
   H    O    Nb   Ir   Se
    30    17     9     1    20
Direct
  0.3085280706099454  0.3634116839405476  0.3999820430567851
  0.1370901415425832  0.4062804423154104  0.3456873695541486
  0.7270922281114998  0.5321088243316848  0.3031179229336935
  0.7216613121639648  0.5867000983657886  0.4102270833243240
  0.4558382692812153  0.7237446866845942  0.4313347893228921
  0.4161594430442118  0.6786630785252650  0.3275311547197993
  0.3542333622211437  0.9674365974229386  0.5086408343334925
  0.3911886323368248  0.8667084267876064  0.4555164698068391
  0.9003942052749198  0.3787271806362967  0.5323589622914208
  0.1166789319471052  0.3967576055335202  0.5362065918630784
  0.9859804016610335  0.9270996929301679  0.3268674922704887
  0.1308449662959270  0.9814806279461152  0.2677326824586542
  0.2254150075583584  0.0907262847792433  0.5404084641332394
  0.4562773676566966  0.0843007752238420  0.5598787140353166
  0.3762078147184272  0.9747188433646780  0.3555636154523732
  0.5157853976072361  0.9484081328718931  0.2654293195995421
  0.7826382470261432  0.1241704690697266  0.5272631701444620
  0.7738614381211956  0.0417734239777564  0.5981835258337457
  0.0579328168359324  0.2104739232963624  0.4980870159896884
  0.0606739652227805  0.1600173575096928  0.3963892673350516
  0.5826661238974995  0.3144372411796365  0.5461542124025406
  0.5550530860636869  0.4094139282286131  0.5766208059116588
  0.1099799029739702  0.5541441755080567  0.6107447563076149
  0.3105268362774716  0.5523113805330079  0.5391493473819067
  0.7668076386058285  0.7656277871844571  0.4829027996481886
  0.6493180363191154  0.7631071201993018  0.5942356251992783
  0.0266193837741256  0.7644996495717177  0.3783841892378951
  0.8387381293520755  0.7902599091567366  0.3251178197660564
  0.2730158755113142  0.1493814628143101  0.2487599096357896
  0.2136075147684746  0.2471767651709197  0.2854541024968363
  0.2596503391708800  0.3760312315069995  0.3294339500114914
  0.6860300317102502  0.5911796070742403  0.3351981167876451
  0.3496684218913827  0.7054395990323810  0.3850084114362670
  0.3163237601817013  0.9294448086821893  0.4496944719036912
  0.0312541497248499  0.3483542759020247  0.5206146875945180
  0.9922736988847637  0.9714479452608048  0.2735682363045245
  0.3353047003110787  0.0620782295153239  0.5841298924458100
  0.4072006877647917  0.9903525144090876  0.2832664703479933
  0.6957245802063815  0.0840694555378998  0.5559176751789029
  0.0372169001289824  0.1502383035872233  0.4703774183210491
  0.6053099945712946  0.3732767469233751  0.5186576219588173
  0.1817361104598883  0.5374996933015778  0.5488540302705929
  0.6407809850380247  0.7515128775504281  0.5186492411611966
  0.9122172530200244  0.8064746210575848  0.3884287645268159
  0.1602894775207530  0.1902192022756460  0.2714593022396478
  0.4013157831812935  0.5917267131181222  0.0340018534410967
  0.9139400288587625  0.5576067944612511  0.6965010616989270
  0.2150555648479146  0.1721553306574645  0.9144140614458648
  0.0487268403842683  0.9689478731876888  0.9190198259687188
  0.8005086456059651  0.8099692201676393  0.9342612983423598
  0.5968836246327229  0.6196129610680955  0.9320670174912540
  0.5289039437326736  0.9904962424200527  0.9153217497597347
  0.4621500154794436  0.3700613568311519  0.9150070559804048
  0.3196545548329254  0.8057863430984415  0.9234932186265459
  0.1447588598620019  0.6157149118129065  0.9467809081155154
  0.9595599467437068  0.3639514527348355  0.9066788586518888
  0.7749065461840906  0.2041320568571381  0.8999812620072880
  0.9684001012023283  0.2544207535056435  0.0517322860295200
  0.2144896449600711  0.3131408485304905  0.7813328130928189
  0.7723112103155946  0.0707387866993901  0.0233957483994279
  0.0048865532967579  0.1076262829641875  0.7862307138588907
  0.5591951210515854  0.8804103566187411  0.0608151784711316
  0.4979117769071171  0.2407746853436075  0.0326888880456360
  0.7995409765458180  0.9156936095955455  0.7862305363759039
  0.7003303516521585  0.3372706533639054  0.7701607158398415
  0.3135271393354744  0.7174071481479044  0.0876259076141381
  0.2539883315060464  0.0577309364048125  0.0535641591292412
  0.5201780778626063  0.1239402204666897  0.7943125086388121
  0.5710842140931123  0.7346601595959609  0.7928623343257192
  0.1678991900624270  0.4497422292026081  0.0272130514224547
  0.0547623181339315  0.8574608988734158  0.0687092095857571
  0.4038600691891070  0.5264179616208861  0.8028797740506219
  0.3019576024418731  0.9268481171855486  0.7792071094226393
  0.8481193615561295  0.6638158365022553  0.0526961197782372
  0.0926804474393318  0.7276432364705058  0.8065018146722325
  0.6823704147006840  0.4530856926544731  0.0202791283220093
  0.8966577318422149  0.5339963711392329  0.8255806841508868
 
 -0.13290603E-02 -0.50429629E-02  0.95993223E-02
 -0.94016158E-02 -0.93348813E-02  0.34156865E-02
  0.70428421E-02  0.48369658E-02  0.17264511E-02
 -0.10523164E-01  0.12748685E-02  0.16162156E-01
 -0.16482875E-01  0.12280147E-01  0.90903142E-02
 -0.16669486E-01 -0.30325885E-02 -0.13675095E-02
  0.29599894E-02  0.14329688E-01  0.21467706E-01
 -0.26075291E-01  0.51082881E-02 -0.29152680E-02
  0.23127387E-02 -0.35577245E-01  0.34478734E-02
  0.91842563E-02 -0.17494891E-01  0.31283610E-01
 -0.31349100E-02 -0.98614178E-02 -0.21000138E-01
 -0.24865662E-01  0.11992487E-01  0.62792657E-03
 -0.13210629E-01 -0.74150283E-02  0.59944709E-02
  0.32681036E-02  0.24885252E-01 -0.18036938E-01
  0.62081020E-02  0.97205723E-03  0.12182156E-02
 -0.56838007E-02 -0.20782945E-03 -0.62208189E-03
 -0.14126707E-01 -0.17014269E-02  0.21448773E-01
  0.20750045E-01  0.10794068E-01 -0.12395209E-01
 -0.59256529E-02  0.18413319E-01 -0.17062842E-01
 -0.21857325E-01  0.24228256E-01  0.17974372E-01
 -0.13992015E-01  0.12717627E-02 -0.63995595E-02
 -0.51624507E-02  0.61226397E-02 -0.30411402E-01
 -0.11812879E-01  0.51138812E-01 -0.10572438E-01
 -0.73404653E-02 -0.15973440E-01 -0.94905264E-02
  0.35783441E-01 -0.10162383E-01  0.19322548E-01
 -0.27220778E-01  0.36815260E-03  0.11957253E-01
  0.89476740E-02 -0.24530663E-01 -0.70442264E-02
  0.10634900E-02  0.25357479E-01 -0.69981256E-02
  0.13427104E-01 -0.41204699E-02 -0.64701455E-02
  0.14186472E-01 -0.59905451E-02 -0.65976781E-03
 -0.55076653E-02  0.11528033E-02  0.32343185E-02
 -0.28948741E-02 -0.22344021E-02  0.54064247E-03
 -0.69216524E-02  0.23378239E-02  0.57387960E-02
 -0.11655569E-03  0.88223758E-03 -0.32402892E-02
 -0.20403341E-02 -0.39451079E-02  0.27938178E-02
 -0.10034176E-02 -0.45492273E-03  0.35702715E-02
 -0.27454037E-02  0.39139727E-02 -0.17816193E-02
 -0.14371319E-02  0.58566279E-02  0.17311929E-02
 -0.12972353E-02  0.43741184E-02  0.71783457E-02
  0.36803528E-02  0.51862028E-04 -0.44149294E-02
 -0.43368623E-02 -0.25461671E-02 -0.27626944E-02
  0.75414353E-03  0.46640705E-02 -0.59297996E-02
  0.33621200E-02  0.27890668E-03  0.49125960E-02
 -0.99494042E-02  0.61069656E-02 -0.72245278E-03
  0.67887228E-04 -0.19125173E-02  0.12338590E-01
  0.12335016E-02  0.54451263E-04 -0.41068468E-02
 -0.43022568E-02  0.22768655E-02  0.25376857E-02
 -0.11145251E-02  0.14695772E-02 -0.96579538E-03
 -0.45066254E-03 -0.71496339E-03  0.12425355E-02
  0.36699008E-03 -0.16245507E-02 -0.21105163E-02
  0.58002904E-03 -0.28581653E-03 -0.34720553E-03
 -0.86248525E-03 -0.10922540E-02 -0.33461913E-02
  0.11428543E-02  0.37323953E-02  0.11504609E-02
  0.16187158E-02 -0.38271624E-02 -0.49025637E-03
  0.84918699E-03 -0.16255338E-02 -0.22175193E-03
  0.40889822E-03  0.21057589E-02  0.18061212E-02
 -0.65375526E-03  0.19945176E-02 -0.80625055E-03
 -0.11011755E-03 -0.29001575E-03  0.16740471E-02
 -0.54256581E-03  0.10572946E-02  0.61333471E-03
 -0.30215826E-03 -0.22574671E-02  0.16749415E-02
  0.12435536E-02 -0.13370560E-02 -0.15350792E-02
  0.14342418E-02 -0.17272914E-02  0.24477473E-02
  0.29919273E-02 -0.20648938E-02 -0.62999725E-03
 -0.14281063E-02 -0.38531351E-03  0.72320145E-03
 -0.15191547E-03 -0.12189467E-02 -0.25999275E-02
  0.12192239E-03 -0.49471087E-02  0.44407197E-02
 -0.11661554E-02  0.34853298E-03  0.84470595E-03
  0.22857641E-03  0.41730440E-02  0.18594317E-02
  0.97056879E-03 -0.33492552E-03 -0.42666533E-03
  0.29962423E-02  0.34144433E-02  0.29331744E-03
  0.16206930E-02 -0.24385607E-02  0.29058936E-02
 -0.23287971E-02  0.23983091E-02 -0.11200561E-02
  0.98587823E-03 -0.13827249E-02  0.90593516E-04
  0.34816106E-02 -0.10436804E-02 -0.50636558E-02
 -0.17510288E-02 -0.16648799E-02 -0.11629697E-02
  0.31169500E-04 -0.62328821E-03  0.35392615E-04
 -0.15534607E-02  0.26372618E-02 -0.39151369E-02
 
           1
   1.00000000000000     
  0.14921569E+01  0.55747174E-02 -0.31515783E-17  0.00000000E+00
  0.30841877E+00  0.36307565E+00  0.40072045E+00
  0.13588330E+00  0.40565842E+00  0.34595011E+00
  0.72803178E+00  0.53243113E+00  0.30325073E+00
  0.72011748E+00  0.58678505E+00  0.41147033E+00
  0.45325077E+00  0.72456296E+00  0.43203404E+00
  0.41379707E+00  0.67846101E+00  0.32742596E+00
  0.35442577E+00  0.96839144E+00  0.51029220E+00
  0.38733107E+00  0.86704881E+00  0.45529222E+00
  0.90131469E+00  0.37635653E+00  0.53262418E+00
  0.11829608E+00  0.39559185E+00  0.53861302E+00
  0.98568911E+00  0.92644259E+00  0.32525210E+00
  0.12704910E+00  0.98227973E+00  0.26778098E+00
  0.22362534E+00  0.90232192E-01  0.54086958E+00
  0.45634056E+00  0.85958977E-01  0.55849126E+00
  0.37709021E+00  0.97478362E+00  0.35565732E+00
  0.51496630E+00  0.94839428E+00  0.26538147E+00
  0.78062194E+00  0.12405710E+00  0.52891308E+00
  0.77668652E+00  0.42492675E-01  0.59723005E+00
  0.56772109E-01  0.21170088E+00  0.49677449E+00
  0.57111982E-01  0.16163178E+00  0.39777191E+00
  0.58062035E+00  0.31452198E+00  0.54566194E+00
  0.55420520E+00  0.40982190E+00  0.57428147E+00
  0.10742839E+00  0.55755176E+00  0.60993149E+00
  0.30972758E+00  0.55124701E+00  0.53841931E+00
  0.77215332E+00  0.76495063E+00  0.48438915E+00
  0.64537276E+00  0.76313165E+00  0.59515541E+00
  0.28318144E-01  0.76286508E+00  0.37784233E+00
  0.83847451E+00  0.79194958E+00  0.32457950E+00
  0.27502681E+00  0.14910690E+00  0.24826221E+00
  0.21575913E+00  0.24677759E+00  0.28540335E+00
  0.25883432E+00  0.37610805E+00  0.32968274E+00
  0.68564789E+00  0.59103072E+00  0.33523970E+00
  0.34862827E+00  0.70559538E+00  0.38544986E+00
  0.31629237E+00  0.92950360E+00  0.44944522E+00
  0.31023844E-01  0.34809140E+00  0.52082960E+00
  0.99213598E+00  0.97141763E+00  0.27384287E+00
  0.33484296E+00  0.62339033E-01  0.58399284E+00
  0.40689628E+00  0.99074276E+00  0.28339964E+00
  0.69546483E+00  0.84360920E-01  0.55646986E+00
  0.37748643E-01  0.15024176E+00  0.47003781E+00
  0.60472432E+00  0.37310709E+00  0.51844511E+00
  0.18176845E+00  0.53781048E+00  0.54839789E+00
  0.64126294E+00  0.75153146E+00  0.51902713E+00
  0.91067688E+00  0.80688155E+00  0.38837319E+00
  0.16033079E+00  0.19009176E+00  0.27240842E+00
  0.40149339E+00  0.59173034E+00  0.33685942E-01
  0.91327994E+00  0.55775851E+00  0.69669627E+00
  0.21487008E+00  0.17225325E+00  0.91433977E+00
  0.48673396E-01  0.96890023E+00  0.91911541E+00
  0.80058850E+00  0.80986097E+00  0.93409895E+00
  0.59697227E+00  0.61959392E+00  0.93204031E+00
  0.52879711E+00  0.99042346E+00  0.91506435E+00
  0.46225395E+00  0.37031006E+00  0.91509555E+00
  0.31995182E+00  0.80553132E+00  0.92345551E+00
  0.14490851E+00  0.61560660E+00  0.94676385E+00
  0.95958445E+00  0.36409177E+00  0.90681779E+00
  0.77477910E+00  0.20426496E+00  0.89991924E+00
  0.96838894E+00  0.25440143E+00  0.51861059E-01
  0.21439372E+00  0.31321130E+00  0.78137999E+00
  0.77230465E+00  0.70588363E-01  0.23524590E-01
  0.50885278E-02  0.10753719E+00  0.78611263E+00
  0.55943112E+00  0.88029526E+00  0.61003467E-01
  0.49837875E+00  0.24063709E+00  0.32640427E-01
  0.79934065E+00  0.91566793E+00  0.78628617E+00
  0.70032844E+00  0.33718943E+00  0.76996072E+00
  0.31362624E+00  0.71707750E+00  0.87967501E-01
  0.25381383E+00  0.57754161E-01  0.53629137E-01
  0.52014244E+00  0.12421829E+00  0.79445554E+00
  0.57123018E+00  0.73463784E+00  0.79282951E+00
  0.16827657E+00  0.44996975E+00  0.27235614E-01
  0.55037007E-01  0.85729841E+00  0.68932740E-01
  0.40348357E+00  0.52657777E+00  0.80279362E+00
  0.30212304E+00  0.92675598E+00  0.77921408E+00
  0.84864038E+00  0.66374629E+00  0.52306608E-01
  0.92454463E-01  0.72753230E+00  0.80641236E+00
  0.68238519E+00  0.45304416E+00  0.20281851E-01
  0.89638950E+00  0.53417210E+00  0.82527952E+00
 -0.30374994E-03 -0.30588288E-03  0.98373975E-03
  0.82553298E-04 -0.91425616E-03  0.26340481E-03
  0.10856653E-02  0.46580114E-04 -0.11801707E-03
 -0.13586995E-02  0.13341118E-03  0.17648596E-02
 -0.21528746E-02  0.96089224E-03  0.86073176E-03
 -0.29857227E-02  0.58960137E-04  0.26791069E-03
  0.32981752E-03  0.10100522E-02  0.16193570E-02
 -0.32654487E-02 -0.26962404E-03 -0.25808256E-03
  0.11144280E-02 -0.23016527E-02  0.30146501E-03
  0.21009817E-02 -0.94558105E-03  0.24491995E-02
 -0.40012129E-03 -0.54321361E-03 -0.17281348E-02
 -0.36600686E-02  0.87689208E-03  0.12731373E-04
 -0.20515025E-02 -0.48148102E-03  0.36901432E-03
 -0.12323854E-03  0.16483769E-02 -0.14555836E-02
  0.92092080E-03  0.20201947E-03 -0.60752141E-04
 -0.12478514E-02  0.13396345E-03  0.62396186E-04
 -0.23340761E-02 -0.10555981E-03  0.17206111E-02
  0.25980424E-02  0.81325034E-03 -0.10194961E-02
 -0.96159458E-03  0.14083402E-02 -0.12755534E-02
 -0.36894441E-02  0.17095124E-02  0.14948443E-02
 -0.22370169E-02  0.54068610E-04 -0.27847929E-03
 -0.82584338E-03  0.22082551E-03 -0.22993284E-02
 -0.25635148E-02  0.32875175E-02 -0.12586122E-02
 -0.12348561E-02 -0.12509689E-02 -0.95001574E-03
  0.60456503E-02 -0.68531076E-03  0.12583115E-02
 -0.40193301E-02  0.84362844E-04  0.13578904E-02
  0.91786403E-03 -0.15242781E-02 -0.67722522E-03
 -0.46789265E-03  0.14880596E-02 -0.96135174E-03
  0.21757484E-02 -0.29497726E-03 -0.59202953E-03
  0.22504969E-02 -0.38582675E-03 -0.42952440E-04
 -0.89566100E-03  0.98597135E-04  0.23939163E-03
 -0.41039930E-03 -0.13542747E-03  0.25980375E-04
 -0.10196449E-02  0.13013708E-03  0.40269279E-03
 -0.68650764E-04  0.97933182E-04 -0.26930676E-03
 -0.27113090E-03 -0.28079982E-03  0.20856778E-03
 -0.14098125E-03 -0.40064205E-04  0.28680747E-03
 -0.42619245E-03  0.26413098E-03 -0.12768288E-03
 -0.28528454E-03  0.36697984E-03  0.15221471E-03
 -0.24302152E-03  0.28661529E-03  0.56112246E-03
  0.53078360E-03 -0.21276838E-04 -0.35124614E-03
 -0.57060741E-03 -0.15796444E-03 -0.22413108E-03
  0.64744854E-04  0.33908133E-03 -0.41738907E-03
  0.45300024E-03  0.12310460E-04  0.37161109E-03
 -0.14902792E-02  0.41543113E-03 -0.24512927E-04
  0.22002784E-04 -0.12858414E-03  0.95241591E-03
  0.18495311E-03  0.69652173E-05 -0.32539679E-03
 -0.64961505E-03  0.15118685E-03  0.18826552E-03
 -0.18410998E-03  0.97090795E-04 -0.74871218E-04
 -0.52845305E-04 -0.49264707E-04  0.95689753E-04
  0.74467558E-04 -0.10583029E-03 -0.16098179E-03
  0.90838360E-04 -0.18542132E-04 -0.25414291E-04
 -0.10221087E-03 -0.71022421E-04 -0.25770960E-03
  0.10232613E-03  0.24875921E-03  0.89487139E-04
  0.29721910E-03 -0.25503639E-03 -0.40084574E-04
  0.14051891E-03 -0.10855987E-03 -0.17843833E-04
  0.25723451E-04  0.14090849E-03  0.13929311E-03
 -0.12461257E-03  0.13272276E-03 -0.63608183E-04
 -0.13958262E-04 -0.18595467E-04  0.13219820E-03
 -0.96543650E-04  0.70665225E-04  0.49407628E-04
 -0.81429596E-05 -0.15049251E-03  0.13010037E-03
  0.20370229E-03 -0.90868972E-04 -0.11657470E-03
  0.23574789E-03 -0.11301532E-03  0.18661529E-03
  0.46918011E-03 -0.13843606E-03 -0.48182504E-04
 -0.19932152E-03 -0.28331035E-04  0.56157426E-04
 -0.67922542E-05 -0.77633335E-04 -0.20021748E-03
  0.10386995E-03 -0.32778327E-03  0.34349611E-03
 -0.17643775E-03  0.24895532E-04  0.67796322E-04
 -0.37974001E-04  0.27497644E-03  0.14313548E-03
  0.13886172E-03 -0.22697758E-04 -0.31953987E-04
  0.37852928E-03  0.22742965E-03  0.22117643E-04
  0.27932238E-03 -0.16534727E-03  0.22385335E-03
 -0.37281387E-03  0.15879040E-03 -0.88253299E-04
  0.16562938E-03 -0.93048389E-04  0.73833845E-05
  0.52292387E-03 -0.70111334E-04 -0.39556792E-03
 -0.22291011E-03 -0.11117720E-03 -0.87390011E-04
  0.13771054E-04 -0.42637050E-04  0.86270806E-06
 -0.27158432E-03  0.17624256E-03 -0.30026248E-03
  0.00000000E+00  0.00000000E+00  0.00000000E+00
  0.00000000E+00  0.00000000E+00  0.00000000E+00
  0.00000000E+00  0.00000000E+00  0.00000000E+00
  0.00000000E+00  0.00000000E+00  0.00000000E+00
  0.00000000E+00  0.00000000E+00  0.00000000E+00
  0.00000000E+00  0.00000000E+00  0.00000000E+00
  0.00000000E+00  0.00000000E+00  0.00000000E+00
  0.00000000E+00  0.00000000E+00  0.00000000E+00
  0.00000000E+00  0.00000000E+00  0.00000000E+00
  0.00000000E+00  0.00000000E+00  0.00000000E+00
  0.00000000E+00  0.00000000E+00  0.00000000E+00
  0.00000000E+00  0.00000000E+00  0.00000000E+00
  0.00000000E+00  0.00000000E+00  0.00000000E+00
  0.00000000E+00  0.00000000E+00  0.00000000E+00
  0.00000000E+00  0.00000000E+00  0.00000000E+00
  0.00000000E+00  0.00000000E+00  0.00000000E+00
  0.00000000E+00  0.00000000E+00  0.00000000E+00
  0.00000000E+00  0.00000000E+00  0.00000000E+00
  0.00000000E+00  0.00000000E+00  0.00000000E+00
  0.00000000E+00  0.00000000E+00  0.00000000E+00
  0.00000000E+00  0.00000000E+00  0.00000000E+00
  0.00000000E+00  0.00000000E+00  0.00000000E+00
  0.00000000E+00  0.00000000E+00  0.00000000E+00
  0.00000000E+00  0.00000000E+00  0.00000000E+00
  0.00000000E+00  0.00000000E+00  0.00000000E+00
  0.00000000E+00  0.00000000E+00  0.00000000E+00
  0.00000000E+00  0.00000000E+00  0.00000000E+00
  0.00000000E+00  0.00000000E+00  0.00000000E+00
  0.00000000E+00  0.00000000E+00  0.00000000E+00
  0.00000000E+00  0.00000000E+00  0.00000000E+00
  0.00000000E+00  0.00000000E+00  0.00000000E+00
  0.00000000E+00  0.00000000E+00  0.00000000E+00
  0.00000000E+00  0.00000000E+00  0.00000000E+00
  0.00000000E+00  0.00000000E+00  0.00000000E+00
  0.00000000E+00  0.00000000E+00  0.00000000E+00
  0.00000000E+00  0.00000000E+00  0.00000000E+00
  0.00000000E+00  0.00000000E+00  0.00000000E+00
  0.00000000E+00  0.00000000E+00  0.00000000E+00
  0.00000000E+00  0.00000000E+00  0.00000000E+00
  0.00000000E+00  0.00000000E+00  0.00000000E+00
  0.00000000E+00  0.00000000E+00  0.00000000E+00
  0.00000000E+00  0.00000000E+00  0.00000000E+00
  0.00000000E+00  0.00000000E+00  0.00000000E+00
  0.00000000E+00  0.00000000E+00  0.00000000E+00
  0.00000000E+00  0.00000000E+00  0.00000000E+00
  0.00000000E+00  0.00000000E+00  0.00000000E+00
  0.00000000E+00  0.00000000E+00  0.00000000E+00
  0.00000000E+00  0.00000000E+00  0.00000000E+00
  0.00000000E+00  0.00000000E+00  0.00000000E+00
  0.00000000E+00  0.00000000E+00  0.00000000E+00
  0.00000000E+00  0.00000000E+00  0.00000000E+00
  0.00000000E+00  0.00000000E+00  0.00000000E+00
  0.00000000E+00  0.00000000E+00  0.00000000E+00
  0.00000000E+00  0.00000000E+00  0.00000000E+00
  0.00000000E+00  0.00000000E+00  0.00000000E+00
  0.00000000E+00  0.00000000E+00  0.00000000E+00
  0.00000000E+00  0.00000000E+00  0.00000000E+00
  0.00000000E+00  0.00000000E+00  0.00000000E+00
  0.00000000E+00  0.00000000E+00  0.00000000E+00
  0.00000000E+00  0.00000000E+00  0.00000000E+00
  0.00000000E+00  0.00000000E+00  0.00000000E+00
  0.00000000E+00  0.00000000E+00  0.00000000E+00
  0.00000000E+00  0.00000000E+00  0.00000000E+00
  0.00000000E+00  0.00000000E+00  0.00000000E+00
  0.00000000E+00  0.00000000E+00  0.00000000E+00
  0.00000000E+00  0.00000000E+00  0.00000000E+00
  0.00000000E+00  0.00000000E+00  0.00000000E+00
  0.00000000E+00  0.00000000E+00  0.00000000E+00
  0.00000000E+00  0.00000000E+00  0.00000000E+00
  0.00000000E+00  0.00000000E+00  0.00000000E+00
  0.00000000E+00  0.00000000E+00  0.00000000E+00
  0.00000000E+00  0.00000000E+00  0.00000000E+00
  0.00000000E+00  0.00000000E+00  0.00000000E+00
  0.00000000E+00  0.00000000E+00  0.00000000E+00
  0.00000000E+00  0.00000000E+00  0.00000000E+00
  0.00000000E+00  0.00000000E+00  0.00000000E+00
  0.00000000E+00  0.00000000E+00  0.00000000E+00
