CONTCAR                                 
   1.00000000000000     
    13.2834997176999998    0.0000000000000000    0.0000000000000000
     0.0000000000000000   13.2517004013000008    0.0000000000000000
     0.0000000000000000    0.0000000000000000   28.4766006470000015
   Bi   I    O    H 
    48    12     2     1
Direct
  0.0001905601757717  0.9386987180127635  0.5985448872438512
  0.9991261487583436  0.0560941276500254  0.3990765143869897
  0.1710747387133925  0.7910940318919113  0.3587860382546483
  0.1692861570063707  0.3346438441679355  0.4411111118562842
  0.9980654401639113  0.1627489707536245  0.5698352761197216
 -0.0001688442133438  0.6095909914071057  0.4871899830161742
  0.0076118553096450  0.8354095641160464  0.4319459053007550
  0.0038338297839708  0.5191297358330411  0.3122725874814568
  0.1658394965322425  0.1089236959121918  0.4685831408744988
  0.1657184219170771  0.6617018061432076  0.5572886853491281
  0.0025497415799835  0.3828508568139305  0.5107774008929106
  0.1668955135332055  0.8869833848835553  0.5298883952124913
  0.1668184215782410  0.2069512628733662  0.6401953134156522
  0.1647418137057799  0.4312815274924135  0.6149429613529852
  0.1705777729704748  0.5669958082994737  0.3842639846598435
  0.9993658306161264  0.4803525768989915  0.6869500651126002
  0.3382014124285173  0.9424288789307154  0.6013872294393550
  0.3339872918499451  0.0560685081970183  0.4001068069741353
  0.5023007243082599  0.7935680374587010  0.3587745318318010
  0.5021507700908092  0.3367358944182371  0.4413902125113107
  0.3303832376207950  0.1641796561291139  0.5671452811310744
  0.3323355896231036  0.6114250170443135  0.4876708127531695
  0.3369299219104453  0.8333637875625614  0.4313772031506558
  0.3379542564470823  0.5169885653024767  0.3132977847109160
  0.5003633305553271  0.1100302342708821  0.4699390205910087
  0.4997514164546846  0.6599971574374502  0.5585662033283809
  0.3362771103606068  0.3841659046264336  0.5114679142400184
  0.5002757699479801  0.8908477982669122  0.5302794897328187
  0.4968121563643625  0.2069013692585993  0.6396119789110708
  0.4959689643684860  0.4431217294844206  0.6128969460265574
  0.5047717561614703  0.5697344253780225  0.3846540806307543
  0.3323943881827117  0.4863524414344607  0.6855473332181903
  0.6708060745605537  0.9376164211376239  0.5983776862007535
  0.6670183734073274  0.0565160902214262  0.4004164382420066
  0.8377943121807430  0.7939809371477973  0.3599190159261279
  0.8356125959226817  0.3360883086015617  0.4400001079486918
  0.6674686260261646  0.1608999898895201  0.5697260061791193
  0.6659376692204340  0.6092485955632375  0.4883959165524611
  0.6702999528713416  0.8337562360317883  0.4308515997847860
  0.6710595744354370  0.5208690338491092  0.3129277604944626
  0.8343196225988144  0.1117406113469410  0.4692693566536585
  0.8346078212932999  0.6599734046316191  0.5575833526071943
  0.6700911604413780  0.3814045960614565  0.5113436245112947
  0.8352378508451231  0.8844007301633666  0.5283644611618239
  0.8321881731743984  0.2064516345834404  0.6420037457803274
  0.8331646248992624  0.4296000503878236  0.6153409832596122
  0.8382003767326988  0.5697695537518953  0.3843070966245212
  0.6642750000586740  0.4846846766220407  0.6850185663619872
  0.0003932593796402  0.2688050336408005  0.7323836232743279
  0.0064776215036784  0.7297703863865473  0.2668962075621495
  0.0050218653675912  0.2917136868812930  0.3422101419077419
  0.9965824795405099  0.7068371724766617  0.6569629116464846
  0.3364207081871023  0.2723167598528157  0.7309632997044267
  0.3408705264977714  0.7287115940951433  0.2675223789402347
  0.3373582189049504  0.2901814265930714  0.3423248813710624
  0.3285877643777071  0.7141917151026215  0.6585383834262500
  0.6633881680536240  0.2731411821932722  0.7316064098531179
  0.6736118793200195  0.7346031212854977  0.2683387902678614
  0.6708080980204260  0.2939526564963497  0.3418816607227742
  0.6683845612116320  0.7120682434866332  0.6573770722097897
  0.4551324416457941  0.0385785441237422  0.6572899622973152
  0.5296998098742670  0.9847483596635197  0.6856800804100208
  0.4952157816412346  0.9802090023814692  0.7160837534064206
 
  0.00000000E+00  0.00000000E+00  0.00000000E+00
  0.00000000E+00  0.00000000E+00  0.00000000E+00
  0.00000000E+00  0.00000000E+00  0.00000000E+00
  0.00000000E+00  0.00000000E+00  0.00000000E+00
  0.00000000E+00  0.00000000E+00  0.00000000E+00
  0.00000000E+00  0.00000000E+00  0.00000000E+00
  0.00000000E+00  0.00000000E+00  0.00000000E+00
  0.00000000E+00  0.00000000E+00  0.00000000E+00
  0.00000000E+00  0.00000000E+00  0.00000000E+00
  0.00000000E+00  0.00000000E+00  0.00000000E+00
  0.00000000E+00  0.00000000E+00  0.00000000E+00
  0.00000000E+00  0.00000000E+00  0.00000000E+00
  0.00000000E+00  0.00000000E+00  0.00000000E+00
  0.00000000E+00  0.00000000E+00  0.00000000E+00
  0.00000000E+00  0.00000000E+00  0.00000000E+00
  0.00000000E+00  0.00000000E+00  0.00000000E+00
  0.00000000E+00  0.00000000E+00  0.00000000E+00
  0.00000000E+00  0.00000000E+00  0.00000000E+00
  0.00000000E+00  0.00000000E+00  0.00000000E+00
  0.00000000E+00  0.00000000E+00  0.00000000E+00
  0.00000000E+00  0.00000000E+00  0.00000000E+00
  0.00000000E+00  0.00000000E+00  0.00000000E+00
  0.00000000E+00  0.00000000E+00  0.00000000E+00
  0.00000000E+00  0.00000000E+00  0.00000000E+00
  0.00000000E+00  0.00000000E+00  0.00000000E+00
  0.00000000E+00  0.00000000E+00  0.00000000E+00
  0.00000000E+00  0.00000000E+00  0.00000000E+00
  0.00000000E+00  0.00000000E+00  0.00000000E+00
  0.00000000E+00  0.00000000E+00  0.00000000E+00
  0.00000000E+00  0.00000000E+00  0.00000000E+00
  0.00000000E+00  0.00000000E+00  0.00000000E+00
  0.00000000E+00  0.00000000E+00  0.00000000E+00
  0.00000000E+00  0.00000000E+00  0.00000000E+00
  0.00000000E+00  0.00000000E+00  0.00000000E+00
  0.00000000E+00  0.00000000E+00  0.00000000E+00
  0.00000000E+00  0.00000000E+00  0.00000000E+00
  0.00000000E+00  0.00000000E+00  0.00000000E+00
  0.00000000E+00  0.00000000E+00  0.00000000E+00
  0.00000000E+00  0.00000000E+00  0.00000000E+00
  0.00000000E+00  0.00000000E+00  0.00000000E+00
  0.00000000E+00  0.00000000E+00  0.00000000E+00
  0.00000000E+00  0.00000000E+00  0.00000000E+00
  0.00000000E+00  0.00000000E+00  0.00000000E+00
  0.00000000E+00  0.00000000E+00  0.00000000E+00
  0.00000000E+00  0.00000000E+00  0.00000000E+00
  0.00000000E+00  0.00000000E+00  0.00000000E+00
  0.00000000E+00  0.00000000E+00  0.00000000E+00
  0.00000000E+00  0.00000000E+00  0.00000000E+00
  0.00000000E+00  0.00000000E+00  0.00000000E+00
  0.00000000E+00  0.00000000E+00  0.00000000E+00
  0.00000000E+00  0.00000000E+00  0.00000000E+00
  0.00000000E+00  0.00000000E+00  0.00000000E+00
  0.00000000E+00  0.00000000E+00  0.00000000E+00
  0.00000000E+00  0.00000000E+00  0.00000000E+00
  0.00000000E+00  0.00000000E+00  0.00000000E+00
  0.00000000E+00  0.00000000E+00  0.00000000E+00
  0.00000000E+00  0.00000000E+00  0.00000000E+00
  0.00000000E+00  0.00000000E+00  0.00000000E+00
  0.00000000E+00  0.00000000E+00  0.00000000E+00
  0.00000000E+00  0.00000000E+00  0.00000000E+00
  0.00000000E+00  0.00000000E+00  0.00000000E+00
  0.00000000E+00  0.00000000E+00  0.00000000E+00
  0.00000000E+00  0.00000000E+00  0.00000000E+00
