 Ce2 I6                                 
   1.00000000000000     
     4.3268065115649099    0.0000000000000000    0.0000000000000000
     0.0000000000000000   10.1036548709657019    0.0000000000000000
     0.0000000000000000    0.0000000000000000   19.8038660740979964
   Ce   I 
     2     6
Direct
  0.4999999987036456  0.0000000058640578  0.5056409842915494
  0.0000000043641752  0.5000000032614018  0.4943588974319333
  0.0000000172680705  0.8171455027202063  0.4248713206357529
  0.4999999806866374  0.6828521338577477  0.5751280833739418
  0.5000000064045325  0.3171478580656654  0.5751280838686459
 -0.0000000248870944  0.1828545043825043  0.4248713248303622
  0.0000000090893390 -0.0000000025940105  0.6212890041173246
  0.5000000083706942  0.4999999944424271  0.3787123014504898
 
  0.00000000E+00  0.00000000E+00  0.00000000E+00
  0.00000000E+00  0.00000000E+00  0.00000000E+00
  0.00000000E+00  0.00000000E+00  0.00000000E+00
  0.00000000E+00  0.00000000E+00  0.00000000E+00
  0.00000000E+00  0.00000000E+00  0.00000000E+00
  0.00000000E+00  0.00000000E+00  0.00000000E+00
  0.00000000E+00  0.00000000E+00  0.00000000E+00
  0.00000000E+00  0.00000000E+00  0.00000000E+00
