CONTCAR                                 
   1.00000000000000     
    13.7902002335000002    0.0000000000000000    0.0000000000000000
     6.8951001167000001   11.9426637253999992    0.0000000000000000
     0.0000000000000000    0.0000000000000000   18.3686008453000014
   Nb   Se   H 
    16    32     1
Direct
  0.0848556643898657  0.0848890777413366  0.5002883642112467
  0.3297873578638288  0.0889145200555738  0.5007359307670458
  0.5850189780399279  0.0844103397110926  0.5000703948279127
  0.8357363245142924  0.0888062179247646  0.5000837216871041
  0.0888786496596898  0.3298321697444502  0.5007398610809707
  0.3270815742541122  0.3271010540118156  0.5004450678920550
  0.6001453802881629  0.3271131975271041  0.4999026091825181
  0.8358117546671744  0.3297458452297802  0.5003701684307398
  0.0843979107657666  0.5850472041995508  0.5000621672539801
  0.3270610059886191  0.6001699100955945  0.4998699717061262
  0.5851266197027835  0.5851719398369220  0.4997567773636387
  0.8340132837961719  0.5865372334814086  0.5004579406632859
  0.0887633340713493  0.8357764827164441  0.5000754064600040
  0.3296692980704776  0.8358936594351734  0.5003243867848062
  0.5864761598786133  0.8340845468609334  0.5004491543758741
  0.8339171512683602  0.8340075882647568  0.5002865507703288
  0.1671559459592364  0.1671744220846550  0.5940168673958074
  0.1674465402426494  0.1674988899950023  0.4072092739469689
  0.4189988685572039  0.1654389051386397  0.5933007586037132
  0.4187842765233108  0.1654288973556308  0.4079319135455852
  0.6702689157738047  0.1656889093937840  0.5929195531869177
  0.6698497045473457  0.1654189107976898  0.4075380393195697
  0.9199942995468240  0.1670084654619984  0.5936827428404516
  0.9199996781164566  0.1672385428474356  0.4068972921194756
  0.1654120024880668  0.4190453709617114  0.5933013349021270
  0.1654099966660155  0.4188016477696360  0.4079224862596551
  0.4183986293114054  0.4184225890630300  0.5807867583160028
  0.4179349646804079  0.4179648436791056  0.4192787242304449
  0.6699550842180206  0.4189557907926291  0.5928013474554235
  0.6701810891406649  0.4189196068145620  0.4076039435421351
  0.9180053394332350  0.4178128883211258  0.5904423607613881
  0.9184150861657998  0.4178695783755607  0.4106962171830673
  0.1656830908491583  0.6702899014752638  0.5929233374538485
  0.1653612249401634  0.6699374108840016  0.4075191489174252
  0.4188261994540229  0.6700558960412827  0.5927434582420485
  0.4188921420303360  0.6702109476424943  0.4075889844265949
  0.6678746536935750  0.6679614140415199  0.5924020430079625
  0.6683010095593792  0.6683786998964583  0.4080000905711888
  0.9186628889244618  0.6680253901506731  0.5924590382005166
  0.9181203638975700  0.6681047947442336  0.4081564084704788
  0.1669626675493955  0.9200162752269475  0.5936791765523194
  0.1671767745271452  0.9200418699864655  0.4068728004719670
  0.4177602090207583  0.9180283633955545  0.5904341298069039
  0.4178254654268485  0.9184800315279198  0.4106686836764307
  0.6679803207729964  0.9186789551110622  0.5924656600557870
  0.6680167442376542  0.9181903009694327  0.4081286457119851
  0.9183815709261204  0.9183591422216940  0.5900509748620247
  0.9180769906135157  0.9181766257859624  0.4101993569026361
  0.4190756349872512  0.4191158702101682  0.6623403716035507
 
  0.00000000E+00  0.00000000E+00  0.00000000E+00
  0.00000000E+00  0.00000000E+00  0.00000000E+00
  0.00000000E+00  0.00000000E+00  0.00000000E+00
  0.00000000E+00  0.00000000E+00  0.00000000E+00
  0.00000000E+00  0.00000000E+00  0.00000000E+00
  0.00000000E+00  0.00000000E+00  0.00000000E+00
  0.00000000E+00  0.00000000E+00  0.00000000E+00
  0.00000000E+00  0.00000000E+00  0.00000000E+00
  0.00000000E+00  0.00000000E+00  0.00000000E+00
  0.00000000E+00  0.00000000E+00  0.00000000E+00
  0.00000000E+00  0.00000000E+00  0.00000000E+00
  0.00000000E+00  0.00000000E+00  0.00000000E+00
  0.00000000E+00  0.00000000E+00  0.00000000E+00
  0.00000000E+00  0.00000000E+00  0.00000000E+00
  0.00000000E+00  0.00000000E+00  0.00000000E+00
  0.00000000E+00  0.00000000E+00  0.00000000E+00
  0.00000000E+00  0.00000000E+00  0.00000000E+00
  0.00000000E+00  0.00000000E+00  0.00000000E+00
  0.00000000E+00  0.00000000E+00  0.00000000E+00
  0.00000000E+00  0.00000000E+00  0.00000000E+00
  0.00000000E+00  0.00000000E+00  0.00000000E+00
  0.00000000E+00  0.00000000E+00  0.00000000E+00
  0.00000000E+00  0.00000000E+00  0.00000000E+00
  0.00000000E+00  0.00000000E+00  0.00000000E+00
  0.00000000E+00  0.00000000E+00  0.00000000E+00
  0.00000000E+00  0.00000000E+00  0.00000000E+00
  0.00000000E+00  0.00000000E+00  0.00000000E+00
  0.00000000E+00  0.00000000E+00  0.00000000E+00
  0.00000000E+00  0.00000000E+00  0.00000000E+00
  0.00000000E+00  0.00000000E+00  0.00000000E+00
  0.00000000E+00  0.00000000E+00  0.00000000E+00
  0.00000000E+00  0.00000000E+00  0.00000000E+00
  0.00000000E+00  0.00000000E+00  0.00000000E+00
  0.00000000E+00  0.00000000E+00  0.00000000E+00
  0.00000000E+00  0.00000000E+00  0.00000000E+00
  0.00000000E+00  0.00000000E+00  0.00000000E+00
  0.00000000E+00  0.00000000E+00  0.00000000E+00
  0.00000000E+00  0.00000000E+00  0.00000000E+00
  0.00000000E+00  0.00000000E+00  0.00000000E+00
  0.00000000E+00  0.00000000E+00  0.00000000E+00
  0.00000000E+00  0.00000000E+00  0.00000000E+00
  0.00000000E+00  0.00000000E+00  0.00000000E+00
  0.00000000E+00  0.00000000E+00  0.00000000E+00
  0.00000000E+00  0.00000000E+00  0.00000000E+00
  0.00000000E+00  0.00000000E+00  0.00000000E+00
  0.00000000E+00  0.00000000E+00  0.00000000E+00
  0.00000000E+00  0.00000000E+00  0.00000000E+00
  0.00000000E+00  0.00000000E+00  0.00000000E+00
  0.00000000E+00  0.00000000E+00  0.00000000E+00
