CONTCAR\(4)                             
   1.00000000000000     
    11.1612997054999994    0.0000000000000000    0.0000000000000000
     0.0000000000000000   15.5193004608000003    0.0000000000000000
     0.0000000000000000    0.0000000000000000   19.4729003905999996
   Nb   Te   Pd   O 
     6    30     6     1
Direct
  0.1663498828111126  0.8418278503751939  0.4953160282559637
  0.1699111692089926  0.3426250826786573  0.5085496333507354
  0.4990816153439338  0.8422332104253504  0.4946960857271514
  0.5023560964675521  0.3456087118612644  0.5085562986049107
  0.8336751404366856  0.8460289295046639  0.4937114262684175
  0.8370656972586502  0.3420826900456925  0.5078073191193931
  0.0008572361928189  0.9435276728151530  0.5726313517454215
  0.0040060882753007  0.4454414057832721  0.4323726159662896
  0.1685158191725286  0.0072787864325879  0.4240460430571321
  0.1717850677862006  0.5103516782456496  0.5780626059252610
  0.0021297058241054  0.3398719621871091  0.6202888583576216
  0.0017892780436539  0.8497869033415868  0.3824022231828069
  0.9961165270739839  0.7438413984575437  0.5723008896768249
  0.0030430179020815  0.2447755500980864  0.4282369685107804
  0.1593100718312246  0.6729358383084049  0.4271958377309832
  0.1694922822384584  0.1752778375513160  0.5777390082889102
  0.3331948868555819  0.9413137431901464  0.5733592228657217
  0.3357276253024720  0.4415436918699758  0.4291395324231959
  0.5000756636355470  0.0078473550262893  0.4235853446151859
  0.5129821745483919  0.5185761528744035  0.5705786592137503
  0.3347863952597822  0.3424700624386904  0.6240203844352384
  0.3321283532456297  0.8379007145622451  0.3833196849082859
  0.3332099021900962  0.7441522542465469  0.5747329458648399
  0.3368612625800617  0.2447249634320738  0.4299310992281855
  0.5028931646298075  0.6758438437020818  0.4249982633281793
  0.4976521937734060  0.1800329223416594  0.5801416507486750
  0.6653430052594368  0.9421905903781230  0.5726820696573151
  0.6719468678984580  0.4413618862057205  0.4289045976376356
  0.8319600311248587  0.0140042403881670  0.4275803575459844
  0.8375827239505643  0.5063276398366120  0.5806279285619037
  0.6706933019177505  0.3395016245553175  0.6198838281667183
  0.6655326981158497  0.8463791573946650  0.3821466036412658
  0.6691190764572568  0.7453304818907719  0.5719757140870817
  0.6677251605051520  0.2456860723131799  0.4287026195750754
  0.8279970799063079  0.6874787046293604  0.4124678419314787
  0.8342584735994286  0.1753972536833037  0.5768626989672617
  0.9787607010760642  0.5972235390715546  0.4966140077158302
  0.0043047928813124  0.0938070182060030  0.5004846498264734
  0.3339227571580752  0.5939605387839429  0.5001316043234973
  0.3355399984206186  0.0918362966080764  0.5009007500728377
  0.6830128126038228  0.5954867841824143  0.4964508110240990
  0.6620519429379705  0.0947703122211530  0.5018026372140633
  0.2884723562990051  0.4644566938559891  0.6524416136515856
 
  0.00000000E+00  0.00000000E+00  0.00000000E+00
  0.00000000E+00  0.00000000E+00  0.00000000E+00
  0.00000000E+00  0.00000000E+00  0.00000000E+00
  0.00000000E+00  0.00000000E+00  0.00000000E+00
  0.00000000E+00  0.00000000E+00  0.00000000E+00
  0.00000000E+00  0.00000000E+00  0.00000000E+00
  0.00000000E+00  0.00000000E+00  0.00000000E+00
  0.00000000E+00  0.00000000E+00  0.00000000E+00
  0.00000000E+00  0.00000000E+00  0.00000000E+00
  0.00000000E+00  0.00000000E+00  0.00000000E+00
  0.00000000E+00  0.00000000E+00  0.00000000E+00
  0.00000000E+00  0.00000000E+00  0.00000000E+00
  0.00000000E+00  0.00000000E+00  0.00000000E+00
  0.00000000E+00  0.00000000E+00  0.00000000E+00
  0.00000000E+00  0.00000000E+00  0.00000000E+00
  0.00000000E+00  0.00000000E+00  0.00000000E+00
  0.00000000E+00  0.00000000E+00  0.00000000E+00
  0.00000000E+00  0.00000000E+00  0.00000000E+00
  0.00000000E+00  0.00000000E+00  0.00000000E+00
  0.00000000E+00  0.00000000E+00  0.00000000E+00
  0.00000000E+00  0.00000000E+00  0.00000000E+00
  0.00000000E+00  0.00000000E+00  0.00000000E+00
  0.00000000E+00  0.00000000E+00  0.00000000E+00
  0.00000000E+00  0.00000000E+00  0.00000000E+00
  0.00000000E+00  0.00000000E+00  0.00000000E+00
  0.00000000E+00  0.00000000E+00  0.00000000E+00
  0.00000000E+00  0.00000000E+00  0.00000000E+00
  0.00000000E+00  0.00000000E+00  0.00000000E+00
  0.00000000E+00  0.00000000E+00  0.00000000E+00
  0.00000000E+00  0.00000000E+00  0.00000000E+00
  0.00000000E+00  0.00000000E+00  0.00000000E+00
  0.00000000E+00  0.00000000E+00  0.00000000E+00
  0.00000000E+00  0.00000000E+00  0.00000000E+00
  0.00000000E+00  0.00000000E+00  0.00000000E+00
  0.00000000E+00  0.00000000E+00  0.00000000E+00
  0.00000000E+00  0.00000000E+00  0.00000000E+00
  0.00000000E+00  0.00000000E+00  0.00000000E+00
  0.00000000E+00  0.00000000E+00  0.00000000E+00
  0.00000000E+00  0.00000000E+00  0.00000000E+00
  0.00000000E+00  0.00000000E+00  0.00000000E+00
  0.00000000E+00  0.00000000E+00  0.00000000E+00
  0.00000000E+00  0.00000000E+00  0.00000000E+00
  0.00000000E+00  0.00000000E+00  0.00000000E+00
