CONTCAR\(2)                             
   1.00000000000000     
    14.8165998459000008    0.0000000000000000    0.0000000000000000
    -7.4083277786000004   12.8316514086000009    0.0000000000000000
     0.0000000000000000    0.0000000000000000   18.0188999175999989
   Fe   Br   O 
    16    32     1
Direct
 -0.0007007910406098  0.9972978254694488  0.5025435811947261
  0.2503154763611114  0.0008970175444619  0.4997318084119893
  0.5009553150637982  0.0010908922037555  0.4985671080453225
  0.7500745601887031 -0.0025331984281341  0.5021519809469346
  0.0011706236601280  0.2592704136004043  0.5007334483926313
  0.2482172921504638  0.2541798928934009  0.5020529464618134
  0.5009451050696344  0.2513597693795876  0.4994510389219992
  0.7583486077194662  0.2539347314317665  0.5001673987404155
  0.0056948586710522  0.4930589456945637  0.5003474221816475
  0.2419597184009700  0.4958058035833227  0.4983705408486759
  0.5041499570541824  0.5013721186513779  0.5019958843008563
  0.7504130591578713  0.5022935675328484  0.5010025777160385
 -0.0005806393380279  0.7514918009575998  0.5011181097998662
  0.2576297369824562  0.7490586339366374  0.5000643951488674
  0.4906505328470376  0.7492840967747635  0.5016230431296985
  0.7514329464144172  0.7496733025975663  0.5020941629017159
  0.1609457973471270  0.0740580457554897  0.4266561896797508
  0.0792555844088552  0.1572131244500022  0.5801465569319656
  0.4162605881600311  0.0866504461566363  0.4261478648517609
  0.3380941381405489  0.1645490717871197  0.5731423031530087
  0.6643203942907153  0.0748130858679021  0.4250074255860827
  0.5764379346900778  0.1649341438687585  0.5720924635849962
  0.9127563770784514  0.0732880421555242  0.4293241387267935
  0.8294667764809406  0.1578395693397481  0.5796473072014782
  0.1652532036459269  0.3305137532126864  0.4155820837106955
  0.0845414423621316  0.4155229889889488  0.5885995687868008
  0.4263039616404995  0.3387345664000817  0.4264735185402524
  0.3458708882747062  0.4238717974198393  0.5787643699380273
  0.6638131310850514  0.3396684192258748  0.4256584796615363
  0.5853747543476978  0.4177896869494942  0.5719069979021585
  0.9173529530521572  0.3342275695288698  0.4123543510227243
  0.8307217796675211  0.4227331761545446  0.5783965090348535
  0.1698546863390722  0.5859334658550464  0.4148463396448106
  0.0818501909582036  0.6729418376735089  0.5761663686394490
  0.4226604986164065  0.5791720128023861  0.4243635353388424
  0.3316195993785734  0.6656050535147253  0.5866113228570379
  0.6694090115674930  0.5854930564109464  0.4307807113838676
  0.5910511001027215  0.6643219391163214  0.5758156932956290
  0.9128080778891041  0.5891446255136310  0.4272687641543965
  0.8343928666552960  0.6678054098163739  0.5724848401927785
  0.1616863438495895  0.8377763044514933  0.4265722155386757
  0.0831015150999391  0.9158626843830432  0.5728392374270621
  0.4215118107420517  0.8430035453991178  0.4173349589704251
  0.3390517745216974  0.9265468790582808  0.5726891699240240
  0.6752216866298257  0.8352330594656590  0.4286562505172200
  0.5882299836962738  0.9245144715785644  0.5761107671462473
  0.9166298959889715  0.8331179399835129  0.4312265240609688
  0.8337681692307518  0.9134902673805460  0.5743611092657163
  0.3769371966989137  0.5593347915119037  0.6667766321867404
 
  0.00000000E+00  0.00000000E+00  0.00000000E+00
  0.00000000E+00  0.00000000E+00  0.00000000E+00
  0.00000000E+00  0.00000000E+00  0.00000000E+00
  0.00000000E+00  0.00000000E+00  0.00000000E+00
  0.00000000E+00  0.00000000E+00  0.00000000E+00
  0.00000000E+00  0.00000000E+00  0.00000000E+00
  0.00000000E+00  0.00000000E+00  0.00000000E+00
  0.00000000E+00  0.00000000E+00  0.00000000E+00
  0.00000000E+00  0.00000000E+00  0.00000000E+00
  0.00000000E+00  0.00000000E+00  0.00000000E+00
  0.00000000E+00  0.00000000E+00  0.00000000E+00
  0.00000000E+00  0.00000000E+00  0.00000000E+00
  0.00000000E+00  0.00000000E+00  0.00000000E+00
  0.00000000E+00  0.00000000E+00  0.00000000E+00
  0.00000000E+00  0.00000000E+00  0.00000000E+00
  0.00000000E+00  0.00000000E+00  0.00000000E+00
  0.00000000E+00  0.00000000E+00  0.00000000E+00
  0.00000000E+00  0.00000000E+00  0.00000000E+00
  0.00000000E+00  0.00000000E+00  0.00000000E+00
  0.00000000E+00  0.00000000E+00  0.00000000E+00
  0.00000000E+00  0.00000000E+00  0.00000000E+00
  0.00000000E+00  0.00000000E+00  0.00000000E+00
  0.00000000E+00  0.00000000E+00  0.00000000E+00
  0.00000000E+00  0.00000000E+00  0.00000000E+00
  0.00000000E+00  0.00000000E+00  0.00000000E+00
  0.00000000E+00  0.00000000E+00  0.00000000E+00
  0.00000000E+00  0.00000000E+00  0.00000000E+00
  0.00000000E+00  0.00000000E+00  0.00000000E+00
  0.00000000E+00  0.00000000E+00  0.00000000E+00
  0.00000000E+00  0.00000000E+00  0.00000000E+00
  0.00000000E+00  0.00000000E+00  0.00000000E+00
  0.00000000E+00  0.00000000E+00  0.00000000E+00
  0.00000000E+00  0.00000000E+00  0.00000000E+00
  0.00000000E+00  0.00000000E+00  0.00000000E+00
  0.00000000E+00  0.00000000E+00  0.00000000E+00
  0.00000000E+00  0.00000000E+00  0.00000000E+00
  0.00000000E+00  0.00000000E+00  0.00000000E+00
  0.00000000E+00  0.00000000E+00  0.00000000E+00
  0.00000000E+00  0.00000000E+00  0.00000000E+00
  0.00000000E+00  0.00000000E+00  0.00000000E+00
  0.00000000E+00  0.00000000E+00  0.00000000E+00
  0.00000000E+00  0.00000000E+00  0.00000000E+00
  0.00000000E+00  0.00000000E+00  0.00000000E+00
  0.00000000E+00  0.00000000E+00  0.00000000E+00
  0.00000000E+00  0.00000000E+00  0.00000000E+00
  0.00000000E+00  0.00000000E+00  0.00000000E+00
  0.00000000E+00  0.00000000E+00  0.00000000E+00
  0.00000000E+00  0.00000000E+00  0.00000000E+00
  0.00000000E+00  0.00000000E+00  0.00000000E+00
