CONTCAR\(8)                             
   1.00000000000000     
    13.0193004608000003    0.0000000000000000    0.0000000000000000
    -1.6274128543999999    9.0662962906000004    0.0000000000000000
     0.0000000000000000    0.0000000000000000   18.6888999939000016
   Nb   Pd   S    O 
     8     4    24     1
Direct
  0.0424816553245217  0.3053872455477508  0.4754563456093173
  0.2204684697189461  0.7042078108693807  0.5241579218865571
  0.2908169453723021  0.3050878490319084  0.4749617236927455
  0.4669479973168362  0.7057235438079565  0.5247820433427040
  0.5414554055860780  0.3010536746951144  0.4767509517748190
  0.7163039816194380  0.7039326308887615  0.5253338559247981
  0.7909296569374120  0.3006030844596352  0.4761289944848126
  0.9617570377145571  0.7027836476632062  0.5237727213697012
  0.1303109754292582  0.0188112653424747  0.4981378320526708
  0.3769025196503867  0.9992285587824382  0.5017717718948606
  0.6296663947300907  0.0061703019139177  0.4996117236372262
  0.8795927343500449  0.9977174490735097  0.5023844751212815
  0.1027615077857966  0.7957177700124360  0.4344001401940443
  0.1570580298110461  0.2304111599226695  0.5685693519043019
  0.0684636707161955  0.5220245709401172  0.5693496609632441
  0.1901196353159760  0.4935382280261004  0.4300034582349945
  0.1500606688827881  0.1768576664551273  0.3969292939822069
  0.1097463833626792  0.8575901747985184  0.5905928878830126
  0.3527229972040467  0.7843972229447842  0.4312086741340152
  0.4038974640388377  0.2161487845769499  0.5689168070135778
  0.3195090689690377  0.5171294137642456  0.5690667036552559
  0.4409195243675004  0.4889936389138242  0.4316875173336513
  0.3981686422059428  0.1584198722066548  0.4036171586336719
  0.3576108508709266  0.8391982259105361  0.6016672334846861
  0.6029262618467155  0.7901383636639626  0.4318160084333644
  0.6557487671541693  0.2211064185241667  0.5695371723374969
  0.5677093188367455  0.5182958287931181  0.5693542139689404
  0.6892465534680715  0.4886965578061360  0.4319258184918405
  0.6491175371412410  0.1663372886862680  0.4004322725768522
  0.6095918203432577  0.8477051433212694  0.5981328386796771
  0.8500695154139110  0.7831685797374367  0.4314774343038207
  0.9059288860121644  0.2159701147756858  0.5689344891709200
  0.8169164656541058  0.5145242061318958  0.5692666917383707
  0.9382668567461689  0.4870085623519209  0.4298894943028544
  0.8989599933883020  0.1563090295659180  0.4043790217809915
  0.8591876055148073  0.8366633932515141  0.6022203632476754
  0.1148485021996890  0.8987930398427116  0.6676346497590309
 
  0.00000000E+00  0.00000000E+00  0.00000000E+00
  0.00000000E+00  0.00000000E+00  0.00000000E+00
  0.00000000E+00  0.00000000E+00  0.00000000E+00
  0.00000000E+00  0.00000000E+00  0.00000000E+00
  0.00000000E+00  0.00000000E+00  0.00000000E+00
  0.00000000E+00  0.00000000E+00  0.00000000E+00
  0.00000000E+00  0.00000000E+00  0.00000000E+00
  0.00000000E+00  0.00000000E+00  0.00000000E+00
  0.00000000E+00  0.00000000E+00  0.00000000E+00
  0.00000000E+00  0.00000000E+00  0.00000000E+00
  0.00000000E+00  0.00000000E+00  0.00000000E+00
  0.00000000E+00  0.00000000E+00  0.00000000E+00
  0.00000000E+00  0.00000000E+00  0.00000000E+00
  0.00000000E+00  0.00000000E+00  0.00000000E+00
  0.00000000E+00  0.00000000E+00  0.00000000E+00
  0.00000000E+00  0.00000000E+00  0.00000000E+00
  0.00000000E+00  0.00000000E+00  0.00000000E+00
  0.00000000E+00  0.00000000E+00  0.00000000E+00
  0.00000000E+00  0.00000000E+00  0.00000000E+00
  0.00000000E+00  0.00000000E+00  0.00000000E+00
  0.00000000E+00  0.00000000E+00  0.00000000E+00
  0.00000000E+00  0.00000000E+00  0.00000000E+00
  0.00000000E+00  0.00000000E+00  0.00000000E+00
  0.00000000E+00  0.00000000E+00  0.00000000E+00
  0.00000000E+00  0.00000000E+00  0.00000000E+00
  0.00000000E+00  0.00000000E+00  0.00000000E+00
  0.00000000E+00  0.00000000E+00  0.00000000E+00
  0.00000000E+00  0.00000000E+00  0.00000000E+00
  0.00000000E+00  0.00000000E+00  0.00000000E+00
  0.00000000E+00  0.00000000E+00  0.00000000E+00
  0.00000000E+00  0.00000000E+00  0.00000000E+00
  0.00000000E+00  0.00000000E+00  0.00000000E+00
  0.00000000E+00  0.00000000E+00  0.00000000E+00
  0.00000000E+00  0.00000000E+00  0.00000000E+00
  0.00000000E+00  0.00000000E+00  0.00000000E+00
  0.00000000E+00  0.00000000E+00  0.00000000E+00
  0.00000000E+00  0.00000000E+00  0.00000000E+00
