CONTCAR\(2)                             
   1.00000000000000     
    12.2558002471999998    0.0000000000000000    0.0000000000000000
     6.1279165570999998   10.6146331497999995    0.0000000000000000
     0.0000000000000000    0.0000000000000000   18.0618000031000001
   Ni   P    Se   O    H 
     8     8    24     2     1
Direct
  0.1700577212732668  0.1658469215082619  0.4983600769304672
  0.3376278365548515  0.3334972536490639  0.5009801573051362
  0.6683781170284178  0.1685388068848894  0.5000790036887253
  0.8353910725383713  0.3333220907606247  0.5002576153196827
  0.1706398508960092  0.6658299231840772  0.5015572466800151
  0.3368982402352287  0.8319012654163842  0.5005319496415694
  0.6688605994406416  0.6661915374217671  0.5000069388869832
  0.8356611346237699  0.8338220570461203  0.4978178291805904
  0.0022068566021716  0.0007940999310776  0.4382580360572632
  0.5023903447414213  0.9995466470577838  0.5610689574767704
  0.5026805954640849  0.9988135124742072  0.4372469430008223
  0.0021084124718342  0.0004636254130901  0.5620283678248938
  0.0039362696999845  0.5001158830041348  0.4379946777752295
  0.5054294695493127  0.4987739912509497  0.5912986716199171
  0.5026322313283842  0.4999342682727388  0.4601905010607155
  0.0028406338181028  0.4999995198951908  0.5615674905632204
  0.3240976632748698  0.9977093155878762  0.4130688342824413
  0.1817342944870006  0.0005268577924156  0.5858775246807610
  0.1844173619075988  0.3219792446070144  0.4135960515569650
  0.0010119617694926  0.1804580181369033  0.4133293788971812
  0.3227473870344753  0.1792517229974067  0.5848736380172923
  0.5035900914816551  0.3104534184484322  0.5861534828213451
  0.8211212611440075  0.0040890569554435  0.4138597083923372
  0.6824388248895374  0.9993145851461946  0.5843744055600908
  0.6751875363091173  0.3271117898904379  0.4181792753694680
  0.5044281032119073  0.1768795270885661  0.4125145383517577
  0.8226348018935212  0.1786472496539204  0.5869334659814172
  0.0051046938396198  0.3190315243657409  0.5852189696070269
  0.3292105694246388  0.4995535922414618  0.4196287113267587
  0.1803498162436483  0.4998841761954154  0.5888349126388519
  0.1815020767454882  0.8221517402689216  0.4133981411183569
  0.0057994431457828  0.6783457780774143  0.4135690020484972
  0.3159864648964401  0.6865782890259808  0.5874600436024551
  0.5017436359119714  0.8212851917683111  0.5866594299372991
  0.8255087703093764  0.4998462747971431  0.4121843392366245
  0.6933018623323051  0.4998676731516127  0.5866606930959293
  0.6810380449933149  0.8188431828369360  0.4126206386787530
  0.5024903969604892  0.6721664043848392  0.4177568592912948
  0.8236907473473778  0.6805860954714902  0.5849449708852532
  0.0009110106014276  0.8215002844481063  0.5857329022758151
  0.4215670738408690  0.4926856789596528  0.7258028729074084
  0.5249201118509887  0.4974141914397521  0.6859598494427814
  0.3639258228872393  0.5833085250921854  0.7341123219838366
 
  0.00000000E+00  0.00000000E+00  0.00000000E+00
  0.00000000E+00  0.00000000E+00  0.00000000E+00
  0.00000000E+00  0.00000000E+00  0.00000000E+00
  0.00000000E+00  0.00000000E+00  0.00000000E+00
  0.00000000E+00  0.00000000E+00  0.00000000E+00
  0.00000000E+00  0.00000000E+00  0.00000000E+00
  0.00000000E+00  0.00000000E+00  0.00000000E+00
  0.00000000E+00  0.00000000E+00  0.00000000E+00
  0.00000000E+00  0.00000000E+00  0.00000000E+00
  0.00000000E+00  0.00000000E+00  0.00000000E+00
  0.00000000E+00  0.00000000E+00  0.00000000E+00
  0.00000000E+00  0.00000000E+00  0.00000000E+00
  0.00000000E+00  0.00000000E+00  0.00000000E+00
  0.00000000E+00  0.00000000E+00  0.00000000E+00
  0.00000000E+00  0.00000000E+00  0.00000000E+00
  0.00000000E+00  0.00000000E+00  0.00000000E+00
  0.00000000E+00  0.00000000E+00  0.00000000E+00
  0.00000000E+00  0.00000000E+00  0.00000000E+00
  0.00000000E+00  0.00000000E+00  0.00000000E+00
  0.00000000E+00  0.00000000E+00  0.00000000E+00
  0.00000000E+00  0.00000000E+00  0.00000000E+00
  0.00000000E+00  0.00000000E+00  0.00000000E+00
  0.00000000E+00  0.00000000E+00  0.00000000E+00
  0.00000000E+00  0.00000000E+00  0.00000000E+00
  0.00000000E+00  0.00000000E+00  0.00000000E+00
  0.00000000E+00  0.00000000E+00  0.00000000E+00
  0.00000000E+00  0.00000000E+00  0.00000000E+00
  0.00000000E+00  0.00000000E+00  0.00000000E+00
  0.00000000E+00  0.00000000E+00  0.00000000E+00
  0.00000000E+00  0.00000000E+00  0.00000000E+00
  0.00000000E+00  0.00000000E+00  0.00000000E+00
  0.00000000E+00  0.00000000E+00  0.00000000E+00
  0.00000000E+00  0.00000000E+00  0.00000000E+00
  0.00000000E+00  0.00000000E+00  0.00000000E+00
  0.00000000E+00  0.00000000E+00  0.00000000E+00
  0.00000000E+00  0.00000000E+00  0.00000000E+00
  0.00000000E+00  0.00000000E+00  0.00000000E+00
  0.00000000E+00  0.00000000E+00  0.00000000E+00
  0.00000000E+00  0.00000000E+00  0.00000000E+00
  0.00000000E+00  0.00000000E+00  0.00000000E+00
  0.00000000E+00  0.00000000E+00  0.00000000E+00
  0.00000000E+00  0.00000000E+00  0.00000000E+00
  0.00000000E+00  0.00000000E+00  0.00000000E+00
