CONTCAR                                 
   1.00000000000000     
    10.4560003281000000    0.0000000000000000    0.0000000000000000
     1.7426699834999999   13.6526291618000002    0.0000000000000000
     0.0000000000000000    0.0000000000000000   22.6816005706999988
   Sc   C    Cl   O 
    21     6    30     1
Direct
  0.2577990780151935  0.4534824914424395  0.4469331318171790
  0.0758660442578059  0.5450292776738469  0.5479337025875093
  0.2198983153521557  0.6809954144295199  0.4554854948886334
  0.1138128304847480  0.3171955104935908  0.5397885191576337
  0.0700627616736301  0.5796873365424466  0.3529466493271340
  0.2634812505400534  0.4192602037374351  0.6421061755711872
  0.9866375094885169  0.9995135006274561  0.4946724629363893
  0.5909924130275586  0.4535323321732830  0.4468345904586791
  0.4090595076268199  0.5455014108712957  0.5478966759507788
  0.5573561258150390  0.6829967070918767  0.4553717990040502
  0.4470181806958758  0.3184447138111267  0.5396518948815995
  0.4036833576920344  0.5796959361203670  0.3529253842713918
  0.5967766548642368  0.4189052009909568  0.6421795180555010
  0.3457647069209446  0.9993045520766632  0.4950301701511834
  0.9248660338109728  0.4532751700906757  0.4468643763597926
  0.7427159549939566  0.5446971062785305  0.5481082199083050
  0.8819890829471418  0.6828505609432137  0.4554425578682013
  0.7801689395363074  0.3182620855955401  0.5396381799558528
  0.7371697090148032  0.5784313999706505  0.3525301857913268
  0.9300915512512420  0.4189879095039270  0.6421048925921413
  0.6586696821955216  0.0405313183220237  0.6108514358458178
  0.0715648383618060  0.5709644665287477  0.4466867360641552
  0.2617551134576355  0.4279162849036310  0.5480310408653937
  0.4050160549575332  0.5712386768103479  0.4466638671201678
  0.5951652403321351  0.4284219418474275  0.5480391711049400
  0.7385891054996619  0.5694372658858818  0.4465727228641327
  0.9291420602212768  0.4275418895109174  0.5480239531924013
  0.1733025365519998  0.9547328756744212  0.5642734907636047
  0.1591296803406373  0.0443421265475885  0.4270946604326580
  0.2149151483291666  0.7117505060448350  0.3369481480137938
  0.1189235159209122  0.2870661758672332  0.6579803425480811
  0.0289063999740612  0.8224633216964914  0.4528291227499262
  0.0758467568111987  0.5442443927904537  0.6702653814839378
  0.2576051156031818  0.4547704469265253  0.3247654779550334
  0.1149866678237878  0.3124457019394011  0.4295454877741260
  0.2189559509557697  0.6859366275776710  0.5655598870936329
  0.3053823895919656  0.1747056169019706  0.5421391397151404
  0.4831425808406957  0.9409751904924445  0.5812813271952827
  0.4900275797706876  0.0437866537492992  0.4265299054211253
  0.5488096083236221  0.7104145557415147  0.3357950949385586
  0.4517661712602457  0.2882507198277972  0.6569558710623344
  0.3635068711539282  0.8225077438413577  0.4529485723938086
  0.4091358765132065  0.5445071094743367  0.6699385350961894
  0.5907569181275593  0.4539135934428033  0.3248558054978561
  0.4470118200612980  0.3136308322875960  0.4291357383300438
  0.5526732960465981  0.6844910074006648  0.5658701665234641
  0.6368296218584885  0.1784328096411555  0.5338742203536949
  0.8674703016731534  0.9415334407960259  0.5805941597804549
  0.8289992274427905  0.0440507284354234  0.4255069185199805
  0.8813956323847287  0.7103703751275425  0.3357225500047779
  0.7852897287192938  0.2880576027788749  0.6569532926656518
  0.6973127493148485  0.8175325236617612  0.4557682692250389
  0.7426473843916193  0.5442946022388964  0.6699669100194611
  0.9251117026343028  0.4538254142448672  0.3248836653538971
  0.7816609850546941  0.3133972222941672  0.4291480893299016
  0.8863737657083668  0.6843552297821084  0.5659338631752441
  0.9695170193038386  0.1746979474426830  0.5419694006572802
  0.6503449324787498  0.0919153970582260  0.6797829483345643
 
  0.00000000E+00  0.00000000E+00  0.00000000E+00
  0.00000000E+00  0.00000000E+00  0.00000000E+00
  0.00000000E+00  0.00000000E+00  0.00000000E+00
  0.00000000E+00  0.00000000E+00  0.00000000E+00
  0.00000000E+00  0.00000000E+00  0.00000000E+00
  0.00000000E+00  0.00000000E+00  0.00000000E+00
  0.00000000E+00  0.00000000E+00  0.00000000E+00
  0.00000000E+00  0.00000000E+00  0.00000000E+00
  0.00000000E+00  0.00000000E+00  0.00000000E+00
  0.00000000E+00  0.00000000E+00  0.00000000E+00
  0.00000000E+00  0.00000000E+00  0.00000000E+00
  0.00000000E+00  0.00000000E+00  0.00000000E+00
  0.00000000E+00  0.00000000E+00  0.00000000E+00
  0.00000000E+00  0.00000000E+00  0.00000000E+00
  0.00000000E+00  0.00000000E+00  0.00000000E+00
  0.00000000E+00  0.00000000E+00  0.00000000E+00
  0.00000000E+00  0.00000000E+00  0.00000000E+00
  0.00000000E+00  0.00000000E+00  0.00000000E+00
  0.00000000E+00  0.00000000E+00  0.00000000E+00
  0.00000000E+00  0.00000000E+00  0.00000000E+00
  0.00000000E+00  0.00000000E+00  0.00000000E+00
  0.00000000E+00  0.00000000E+00  0.00000000E+00
  0.00000000E+00  0.00000000E+00  0.00000000E+00
  0.00000000E+00  0.00000000E+00  0.00000000E+00
  0.00000000E+00  0.00000000E+00  0.00000000E+00
  0.00000000E+00  0.00000000E+00  0.00000000E+00
  0.00000000E+00  0.00000000E+00  0.00000000E+00
  0.00000000E+00  0.00000000E+00  0.00000000E+00
  0.00000000E+00  0.00000000E+00  0.00000000E+00
  0.00000000E+00  0.00000000E+00  0.00000000E+00
  0.00000000E+00  0.00000000E+00  0.00000000E+00
  0.00000000E+00  0.00000000E+00  0.00000000E+00
  0.00000000E+00  0.00000000E+00  0.00000000E+00
  0.00000000E+00  0.00000000E+00  0.00000000E+00
  0.00000000E+00  0.00000000E+00  0.00000000E+00
  0.00000000E+00  0.00000000E+00  0.00000000E+00
  0.00000000E+00  0.00000000E+00  0.00000000E+00
  0.00000000E+00  0.00000000E+00  0.00000000E+00
  0.00000000E+00  0.00000000E+00  0.00000000E+00
  0.00000000E+00  0.00000000E+00  0.00000000E+00
  0.00000000E+00  0.00000000E+00  0.00000000E+00
  0.00000000E+00  0.00000000E+00  0.00000000E+00
  0.00000000E+00  0.00000000E+00  0.00000000E+00
  0.00000000E+00  0.00000000E+00  0.00000000E+00
  0.00000000E+00  0.00000000E+00  0.00000000E+00
  0.00000000E+00  0.00000000E+00  0.00000000E+00
  0.00000000E+00  0.00000000E+00  0.00000000E+00
  0.00000000E+00  0.00000000E+00  0.00000000E+00
  0.00000000E+00  0.00000000E+00  0.00000000E+00
  0.00000000E+00  0.00000000E+00  0.00000000E+00
  0.00000000E+00  0.00000000E+00  0.00000000E+00
  0.00000000E+00  0.00000000E+00  0.00000000E+00
  0.00000000E+00  0.00000000E+00  0.00000000E+00
  0.00000000E+00  0.00000000E+00  0.00000000E+00
  0.00000000E+00  0.00000000E+00  0.00000000E+00
  0.00000000E+00  0.00000000E+00  0.00000000E+00
  0.00000000E+00  0.00000000E+00  0.00000000E+00
  0.00000000E+00  0.00000000E+00  0.00000000E+00
