CONTCAR\(4)                             
   1.00000000000000     
    14.3999004363999994    0.0000000000000000    0.0000000000000000
    -3.5999958350000001   11.0732005957999995    0.0000000000000000
     0.0000000000000000    0.0000000000000000   23.2912006377999994
   K    V    O    H 
     8    32    81     1
Selective dynamics
Direct
  0.1031342288101698  0.4115625225843473  0.4988398310097537   F   F   F
  0.3862770363181767  0.5569822651190961  0.5001616134636109   F   F   F
  0.6419398677788095  0.5692264162870941  0.4991836652095003   F   F   F
  0.9098782557357197  0.5958166740296917  0.5006366312294972   F   F   F
  0.1564324695398156  0.0614523935499705  0.5002684289671748   F   F   F
  0.3267134518760102  0.8456033821947244  0.5080981920038994   F   F   F
  0.6290684141667100  0.0733334563853418  0.5010321100834219   F   F   F
  0.8888936444154254  0.0561588452266761  0.4980411352125742   F   F   F
  0.0518323617451983  0.2092200694559878  0.3571482107284254   F   F   F
  0.0545736820519949  0.2245951792488512  0.6397228996173041   F   F   F
  0.2296915308726923  0.4136060072867451  0.3527280037091813   F   F   F
  0.2331180523862457  0.4378499481154847  0.6456958082158692   F   F   F
  0.3009651103782574  0.2082995317307166  0.3533261555212661   F   F   F
  0.3059579570103352  0.2280925845501045  0.6423284777326757   F   F   F
  0.4771176595111868  0.4132004876524888  0.3555164171310565   F   F   F
  0.4840437780177709  0.4365165888479083  0.6417178544839430   F   F   F
  0.5507034863511464  0.2082419080578433  0.3578720360094962   F   F   F
  0.5582458295379169  0.2304895413880246  0.6419911894271593   F   F   F
  0.7285115790412746  0.4144209461816573  0.3578057624716848   F   F   F
  0.7358180470977516  0.4399738344954685  0.6414897981987195   F   F   F
  0.8009827043968301  0.2065552753094337  0.3573056253368847   F   F   F
  0.8067433659298970  0.2289158017273323  0.6402413094086299   F   F   F
  0.9758865477336798  0.4157551865969324  0.3547621545972390   F   F   F
  0.9837630373430954  0.4415877058294555  0.6434143312226297   F   F   F
  0.0539777965452757  0.7088486913058460  0.3541627429801864   F   F   F
  0.0626173597477191  0.7366213708387264  0.6461503953830032   F   F   F
  0.2289929024372555  0.9146399991573375  0.3528560192575370   F   F   F
  0.2365341596859167  0.9376770593441819  0.6530954250165166   F   F   F
  0.3005766666924785  0.7058362610566817  0.3522554437004004   F   F   F
  0.3064749301956198  0.7321652082296026  0.6756888593530519   F   F   F
  0.4776047295925707  0.9131966455846268  0.3561473541729256   F   F   F
  0.4821346989980242  0.9384360870071262  0.6496971764044588   F   F   F
  0.5505059847347269  0.7069606521595091  0.3568815296942276   F   F   F
  0.5535125691775704  0.7319477043026055  0.6438203268176323   F   F   F
  0.7269237993697288  0.9123669791984454  0.3592293728137932   F   F   F
  0.7327683464140478  0.9342148626817846  0.6382744057091472   F   F   F
  0.8024469167935493  0.7091027689393528  0.3589874208670949   F   F   F
  0.8078779107630467  0.7341527994286565  0.6379452455000703   F   F   F
  0.9793713565393105  0.9133630897641112  0.3586105793455587   F   F   F
  0.9832138064047058  0.9289311200708497  0.6396334793544511   F   F   F
  0.0141976417164145  0.0612797131055842  0.3279611821158497   F   F   F
  0.0515471709967414  0.2089051548334737  0.5701783312027615   F   F   F
  0.0510846697776870  0.1953892669378234  0.4266776188191486   F   F   F
  0.0166440429288883  0.0807388677908989  0.6701070005861425   F   F   F
  0.0945654320368163  0.3843314712530557  0.3389949954728877   F   F   F
  0.0969393756196624  0.3982679634616559  0.6583060754245054   F   F   F
  0.1828986401257211  0.2398600213438513  0.3339471484779182   F   F   F
  0.2412349755443515  0.4318093539924277  0.4215513172367054   F   F   F
  0.1874555104189852  0.2605925383875274  0.6597920544212101   F   F   F
  0.2426758886810632  0.4705104866217624  0.5774926174058379   F   F   F
  0.2650038301076805  0.0608842450074079  0.3218527893908742   F   F   F
  0.2976290531360135  0.2056237784282757  0.5741620830775389   F   F   F
  0.2933169393338133  0.1916562525762302  0.4217191373664733   F   F   F
  0.2697301132394756  0.0885320576336284  0.6797862666221590   F   F   F
  0.3456751786811054  0.3821658286676950  0.3320924436278645   F   F   F
  0.3497667017570478  0.4002528700535706  0.6601280766606905   F   F   F
  0.4345562943539747  0.2384711171631793  0.3364332995027723   F   F   F
  0.4770460396383882  0.4314234136926061  0.4241657532126979   F   F   F
  0.4405372755684525  0.2614611265658624  0.6593431938426733   F   F   F
  0.4887407659510075  0.4556496314043130  0.5729367400068313   F   F   F
  0.5153419947174314  0.0604681505578952  0.3265013860200625   F   F   F
  0.5546973932116117  0.2089954626724904  0.5738817150802120   F   F   F
  0.5445585294547399  0.1907230886979008  0.4261959823796602   F   F   F
  0.5259464092642858  0.0885767813666192  0.6774391388573164   F   F   F
  0.5959205474189346  0.3840802031116866  0.3397145613891794   F   F   F
  0.6015462487945697  0.4062097039762875  0.6592848647250520   F   F   F
  0.6837909641291233  0.2381223954449183  0.3398565144078702   F   F   F
  0.7359672883848631  0.4325626195380536  0.4264445851277117   F   F   F
  0.6923266881625949  0.2649723397635739  0.6602768249241393   F   F   F
  0.7421565068186666  0.4559279265904905  0.5725808186863262   F   F   F
  0.7641444204362529  0.0594448433467250  0.3272769608119006   F   F   F
  0.8022819702096911  0.2129343662084651  0.5713629093047103   F   F   F
  0.7986150930946678  0.1903820353332364  0.4262007747418224   F   F   F
  0.7717641332232006  0.0828617523644155  0.6699340155973275   F   F   F
  0.8437267963629367  0.3808930774180865  0.3350955904222630   F   F   F
  0.8516030652437436  0.4055806698200826  0.6619754050963280   F   F   F
  0.9344157278168765  0.2394735512534467  0.3380473900264818   F   F   F
  0.9752468362668552  0.4355487794942903  0.4234717273601589   F   F   F
  0.9395063421123524  0.2626927086962638  0.6582093392776045   F   F   F
  0.9851910509151338  0.4624459038956488  0.5745926784805064   F   F   F
  0.0140198605764468  0.5612078508886498  0.3228148682350565   F   F   F
  0.0733152370010117  0.7208924343782783  0.5780796841293565   F   F   F
  0.0561629002951918  0.6920149006860328  0.4226958005528445   F   F   F
  0.0237012928746552  0.5837027672250485  0.6758336482738514   F   F   F
  0.0957256045177459  0.8837141603856296  0.3355261278804846   F   F   F
  0.1008827701823023  0.9106456981083468  0.6648449181333973   F   F   F
  0.1853809072531263  0.7404912462029429  0.3315222453468749   F   F   F
  0.2337777533010694  0.9302738299572724  0.4219161422025195   F   F   F
  0.1883244797739536  0.7686711578556853  0.6785701622332141   F   F   F
  0.2439385458034593  0.9477383769478749  0.5839132766670119   F   F   F
  0.2642805240706352  0.5599687202991603  0.3205521367722852   F   F   F
  0.3081865049052013  0.7071185168395431  0.6056090136800591   F   F   F
  0.2935317189589739  0.6862442557123174  0.4212436833968383   F   F   F
  0.2610726123471494  0.5614388300204709  0.6888034281234567   F   F   F
  0.3458471750935530  0.8814011012795362  0.3343372342126685   F   F   F
  0.3542542920767957  0.9146915635025863  0.6753105850635137   F   F   F
  0.4341636478695960  0.7379884749989145  0.3356659221807092   F   F   F
  0.4784414377440811  0.9264306412169319  0.4252974630038224   F   F   F
  0.4508529316322694  0.7724615029037025  0.6756603092528550   F   F   F
  0.4751182859093888  0.9481295786561432  0.5806374700211236   F   F   F
  0.5155480588540868  0.5611348662402307  0.3249567072767263   F   F   F
  0.5362694765130414  0.7142136481340842  0.5753488276494565   F   F   F
  0.5424057671333600  0.6881297283194314  0.4257323115574607   F   F   F
  0.5178891185840584  0.5819193256302455  0.6734928297876976   F   F   F
  0.5947986659829070  0.8818279809893710  0.3382484863076414   F   F   F
  0.6045517500674933  0.9113916719539574  0.6584358673260624   F   F   F
  0.6842824353725732  0.7380622211596375  0.3402185428536555   F   F   F
  0.7288030682362958  0.9310852382415149  0.4279133890876849   F   F   F
  0.6873536786648344  0.7595126503014455  0.6566378165775362   F   F   F
  0.7356400414099582  0.9523210378752367  0.5694109850043745   F   F   F
  0.7655056821447843  0.5620969834964242  0.3275152271877317   F   F   F
  0.8026147698733226  0.7143864995052667  0.5692077142996013   F   F   F
  0.7984954230344954  0.6907520558410880  0.4278565290931340   F   F   F
  0.7700604628174617  0.5860435326157898  0.6710305019603808   F   F   F
  0.8458857109107925  0.8842366141191746  0.3416159910945851   F   F   F
  0.8507454101250573  0.9057619663955805  0.6577375326555881   F   F   F
  0.9346984070763327  0.7389606363063095  0.3392998878375479   F   F   F
  0.9881699826284489  0.9312142390596208  0.4274425183544182   F   F   F
  0.9390944560754733  0.7544884879951255  0.6575406457683144   F   F   F
  0.9925668620891983  0.9470650971282879  0.5708331396345798   F   F   F
  0.3205622943723014  0.7311661949367121  0.7557796341286362   T   T   T
  0.3259202140576463  0.6626626132981812  0.7772316026020285   T   T   T
 
  0.00000000E+00  0.00000000E+00  0.00000000E+00
  0.00000000E+00  0.00000000E+00  0.00000000E+00
  0.00000000E+00  0.00000000E+00  0.00000000E+00
  0.00000000E+00  0.00000000E+00  0.00000000E+00
  0.00000000E+00  0.00000000E+00  0.00000000E+00
  0.00000000E+00  0.00000000E+00  0.00000000E+00
  0.00000000E+00  0.00000000E+00  0.00000000E+00
  0.00000000E+00  0.00000000E+00  0.00000000E+00
  0.00000000E+00  0.00000000E+00  0.00000000E+00
  0.00000000E+00  0.00000000E+00  0.00000000E+00
  0.00000000E+00  0.00000000E+00  0.00000000E+00
  0.00000000E+00  0.00000000E+00  0.00000000E+00
  0.00000000E+00  0.00000000E+00  0.00000000E+00
  0.00000000E+00  0.00000000E+00  0.00000000E+00
  0.00000000E+00  0.00000000E+00  0.00000000E+00
  0.00000000E+00  0.00000000E+00  0.00000000E+00
  0.00000000E+00  0.00000000E+00  0.00000000E+00
  0.00000000E+00  0.00000000E+00  0.00000000E+00
  0.00000000E+00  0.00000000E+00  0.00000000E+00
  0.00000000E+00  0.00000000E+00  0.00000000E+00
  0.00000000E+00  0.00000000E+00  0.00000000E+00
  0.00000000E+00  0.00000000E+00  0.00000000E+00
  0.00000000E+00  0.00000000E+00  0.00000000E+00
  0.00000000E+00  0.00000000E+00  0.00000000E+00
  0.00000000E+00  0.00000000E+00  0.00000000E+00
  0.00000000E+00  0.00000000E+00  0.00000000E+00
  0.00000000E+00  0.00000000E+00  0.00000000E+00
  0.00000000E+00  0.00000000E+00  0.00000000E+00
  0.00000000E+00  0.00000000E+00  0.00000000E+00
  0.00000000E+00  0.00000000E+00  0.00000000E+00
  0.00000000E+00  0.00000000E+00  0.00000000E+00
  0.00000000E+00  0.00000000E+00  0.00000000E+00
  0.00000000E+00  0.00000000E+00  0.00000000E+00
  0.00000000E+00  0.00000000E+00  0.00000000E+00
  0.00000000E+00  0.00000000E+00  0.00000000E+00
  0.00000000E+00  0.00000000E+00  0.00000000E+00
  0.00000000E+00  0.00000000E+00  0.00000000E+00
  0.00000000E+00  0.00000000E+00  0.00000000E+00
  0.00000000E+00  0.00000000E+00  0.00000000E+00
  0.00000000E+00  0.00000000E+00  0.00000000E+00
  0.00000000E+00  0.00000000E+00  0.00000000E+00
  0.00000000E+00  0.00000000E+00  0.00000000E+00
  0.00000000E+00  0.00000000E+00  0.00000000E+00
  0.00000000E+00  0.00000000E+00  0.00000000E+00
  0.00000000E+00  0.00000000E+00  0.00000000E+00
  0.00000000E+00  0.00000000E+00  0.00000000E+00
  0.00000000E+00  0.00000000E+00  0.00000000E+00
  0.00000000E+00  0.00000000E+00  0.00000000E+00
  0.00000000E+00  0.00000000E+00  0.00000000E+00
  0.00000000E+00  0.00000000E+00  0.00000000E+00
  0.00000000E+00  0.00000000E+00  0.00000000E+00
  0.00000000E+00  0.00000000E+00  0.00000000E+00
  0.00000000E+00  0.00000000E+00  0.00000000E+00
  0.00000000E+00  0.00000000E+00  0.00000000E+00
  0.00000000E+00  0.00000000E+00  0.00000000E+00
  0.00000000E+00  0.00000000E+00  0.00000000E+00
  0.00000000E+00  0.00000000E+00  0.00000000E+00
  0.00000000E+00  0.00000000E+00  0.00000000E+00
  0.00000000E+00  0.00000000E+00  0.00000000E+00
  0.00000000E+00  0.00000000E+00  0.00000000E+00
  0.00000000E+00  0.00000000E+00  0.00000000E+00
  0.00000000E+00  0.00000000E+00  0.00000000E+00
  0.00000000E+00  0.00000000E+00  0.00000000E+00
  0.00000000E+00  0.00000000E+00  0.00000000E+00
  0.00000000E+00  0.00000000E+00  0.00000000E+00
  0.00000000E+00  0.00000000E+00  0.00000000E+00
  0.00000000E+00  0.00000000E+00  0.00000000E+00
  0.00000000E+00  0.00000000E+00  0.00000000E+00
  0.00000000E+00  0.00000000E+00  0.00000000E+00
  0.00000000E+00  0.00000000E+00  0.00000000E+00
  0.00000000E+00  0.00000000E+00  0.00000000E+00
  0.00000000E+00  0.00000000E+00  0.00000000E+00
  0.00000000E+00  0.00000000E+00  0.00000000E+00
  0.00000000E+00  0.00000000E+00  0.00000000E+00
  0.00000000E+00  0.00000000E+00  0.00000000E+00
  0.00000000E+00  0.00000000E+00  0.00000000E+00
  0.00000000E+00  0.00000000E+00  0.00000000E+00
  0.00000000E+00  0.00000000E+00  0.00000000E+00
  0.00000000E+00  0.00000000E+00  0.00000000E+00
  0.00000000E+00  0.00000000E+00  0.00000000E+00
  0.00000000E+00  0.00000000E+00  0.00000000E+00
  0.00000000E+00  0.00000000E+00  0.00000000E+00
  0.00000000E+00  0.00000000E+00  0.00000000E+00
  0.00000000E+00  0.00000000E+00  0.00000000E+00
  0.00000000E+00  0.00000000E+00  0.00000000E+00
  0.00000000E+00  0.00000000E+00  0.00000000E+00
  0.00000000E+00  0.00000000E+00  0.00000000E+00
  0.00000000E+00  0.00000000E+00  0.00000000E+00
  0.00000000E+00  0.00000000E+00  0.00000000E+00
  0.00000000E+00  0.00000000E+00  0.00000000E+00
  0.00000000E+00  0.00000000E+00  0.00000000E+00
  0.00000000E+00  0.00000000E+00  0.00000000E+00
  0.00000000E+00  0.00000000E+00  0.00000000E+00
  0.00000000E+00  0.00000000E+00  0.00000000E+00
  0.00000000E+00  0.00000000E+00  0.00000000E+00
  0.00000000E+00  0.00000000E+00  0.00000000E+00
  0.00000000E+00  0.00000000E+00  0.00000000E+00
  0.00000000E+00  0.00000000E+00  0.00000000E+00
  0.00000000E+00  0.00000000E+00  0.00000000E+00
  0.00000000E+00  0.00000000E+00  0.00000000E+00
  0.00000000E+00  0.00000000E+00  0.00000000E+00
  0.00000000E+00  0.00000000E+00  0.00000000E+00
  0.00000000E+00  0.00000000E+00  0.00000000E+00
  0.00000000E+00  0.00000000E+00  0.00000000E+00
  0.00000000E+00  0.00000000E+00  0.00000000E+00
  0.00000000E+00  0.00000000E+00  0.00000000E+00
  0.00000000E+00  0.00000000E+00  0.00000000E+00
  0.00000000E+00  0.00000000E+00  0.00000000E+00
  0.00000000E+00  0.00000000E+00  0.00000000E+00
  0.00000000E+00  0.00000000E+00  0.00000000E+00
  0.00000000E+00  0.00000000E+00  0.00000000E+00
  0.00000000E+00  0.00000000E+00  0.00000000E+00
  0.00000000E+00  0.00000000E+00  0.00000000E+00
  0.00000000E+00  0.00000000E+00  0.00000000E+00
  0.00000000E+00  0.00000000E+00  0.00000000E+00
  0.00000000E+00  0.00000000E+00  0.00000000E+00
  0.00000000E+00  0.00000000E+00  0.00000000E+00
  0.00000000E+00  0.00000000E+00  0.00000000E+00
  0.00000000E+00  0.00000000E+00  0.00000000E+00
  0.00000000E+00  0.00000000E+00  0.00000000E+00
  0.00000000E+00  0.00000000E+00  0.00000000E+00
  0.00000000E+00  0.00000000E+00  0.00000000E+00
