CONTCAR\(6)                             
   1.00000000000000     
    10.9576997757000001    0.0000000000000000    0.0000000000000000
     0.0000000000000000   18.6480007171999986    0.0000000000000000
     0.0000000000000000    0.0000000000000000   19.2721004485999998
   Ta   Te   Pd   O    H 
    12    30    18     2     1
Direct
  0.0057182902055928  0.9211810800529179  0.4983424739016300
  0.1702154067501453  0.4225794309914335  0.5022919906271923
  0.0055027448351481  0.1731523917889461  0.4983971552890267
  0.1704784185836701  0.6719975313775848  0.5021275677192563
  0.3388880102177083  0.9205881429207068  0.4989134858177238
  0.5086997380437239  0.4214505811649545  0.5027351067094514
  0.3387266196875913  0.1736329959097560  0.4989627864446575
  0.5089074228813004  0.6732182614176878  0.5025635466139420
  0.6720898401880504  0.9214568565506909  0.4980932488390408
  0.8367820064771081  0.4204944167158047  0.5003699215438289
  0.6720641223847892  0.1727941224123128  0.4980861355528177
  0.8371039826145577  0.6739373061319966  0.5003225899106454
  0.0044647984935224  0.7246639356265803  0.6049518286111422
  0.1735245995437751  0.8693499169856125  0.3950380499495836
  0.1733776604992059  0.2250061378666857  0.3951549714358507
  0.0040996414159054  0.3697031928589993  0.6050038771443624
  0.0060665672141695  0.6524036664385875  0.3887428011571998
  0.1723189108510894  0.1514628394227486  0.6109128188846427
  0.1627378166829203  0.5475239303824111  0.5839697282212697
  0.0056793520822538  0.0471817948173694  0.4160536002142194
  0.0058690996608490  0.4417797557500194  0.3888022153458053
  0.1725848819422353  0.9429172822906864  0.6108257480434318
  0.3398457040114877  0.7236970378090390  0.6050949735253752
  0.5041604978715881  0.8700996315623684  0.3947388166452086
  0.5040415986963609  0.2240215286684446  0.3948063252655487
  0.3395855154751359  0.3702743167958147  0.6051440981708751
  0.3401575873579930  0.6490009193717938  0.3922850302685106
  0.5063724723996827  0.1508154795228265  0.6107770957621881
  0.5220756454142759  0.5477358199925817  0.5853382608016418
  0.3378669861806571  0.0471843718012011  0.4170957949685601
  0.3398625870929806  0.4450863672610339  0.3922748673605625
  0.5064618095489308  0.9434316248615460  0.6108094161537991
  0.6732876523253637  0.7253909070962621  0.6061995373386395
  0.8391998613521494  0.8709398898177270  0.3941781029098905
  0.8389953322552941  0.2235717943364435  0.3941858020221787
  0.6726665637030749  0.3692224115855822  0.6062361338086220
  0.6713560525873916  0.6536673601514167  0.3870039834095778
  0.8392127116729853  0.1506615137218290  0.6104792358558484
  0.8351646962039752  0.5472074024290450  0.5831879115879630
  0.6710558978049477  0.0471363651683987  0.4155608985035855
  0.6709562701033178  0.4405874666171670  0.3870226091267313
  0.8392762637126054  0.9437098696413528  0.6104365512816869
  0.0043378087497103  0.3150274164291531  0.4518088635284627
  0.0044854164703594  0.7793463525514710  0.4516190575232386
  0.1715998256172924  0.2790384579426970  0.5482521207528919
  0.1718601559907356  0.8153131287708533  0.5481452012024732
  0.9987559089877536  0.5470542090344495  0.4807572593571692
  0.1711723371273663  0.0472498390744747  0.5179303616910786
  0.3398939680689068  0.3167686162829355  0.4529081074427808
  0.3399286391891110  0.7774852439764217  0.4529990564260729
  0.5064703662765453  0.2783770836843829  0.5485784773035434
  0.5067497166033874  0.8158966194839508  0.5485842621515857
  0.3426469441483775  0.5469673425503316  0.4889335177117786
  0.5053713685909287  0.0471542705805064  0.5174253183100532
  0.6721971021370905  0.3146658725733360  0.4514684855568731
  0.6726537033049809  0.7796701873997947  0.4515258755289224
  0.8380266925329778  0.2781107878117695  0.5481156054732210
  0.8385827362894034  0.8163034594713423  0.5480755587451185
  0.6826913845251710  0.5471421415937314  0.4768547415871751
  0.8382067786657430  0.0472117944315258  0.5168476878220289
  0.3623073607015428  0.5507883167814853  0.6601297220369915
  0.3960700220659419  0.5726699207022889  0.7302708394465327
  0.4033006069311256  0.5261015397867297  0.7535927136582927
 
  0.00000000E+00  0.00000000E+00  0.00000000E+00
  0.00000000E+00  0.00000000E+00  0.00000000E+00
  0.00000000E+00  0.00000000E+00  0.00000000E+00
  0.00000000E+00  0.00000000E+00  0.00000000E+00
  0.00000000E+00  0.00000000E+00  0.00000000E+00
  0.00000000E+00  0.00000000E+00  0.00000000E+00
  0.00000000E+00  0.00000000E+00  0.00000000E+00
  0.00000000E+00  0.00000000E+00  0.00000000E+00
  0.00000000E+00  0.00000000E+00  0.00000000E+00
  0.00000000E+00  0.00000000E+00  0.00000000E+00
  0.00000000E+00  0.00000000E+00  0.00000000E+00
  0.00000000E+00  0.00000000E+00  0.00000000E+00
  0.00000000E+00  0.00000000E+00  0.00000000E+00
  0.00000000E+00  0.00000000E+00  0.00000000E+00
  0.00000000E+00  0.00000000E+00  0.00000000E+00
  0.00000000E+00  0.00000000E+00  0.00000000E+00
  0.00000000E+00  0.00000000E+00  0.00000000E+00
  0.00000000E+00  0.00000000E+00  0.00000000E+00
  0.00000000E+00  0.00000000E+00  0.00000000E+00
  0.00000000E+00  0.00000000E+00  0.00000000E+00
  0.00000000E+00  0.00000000E+00  0.00000000E+00
  0.00000000E+00  0.00000000E+00  0.00000000E+00
  0.00000000E+00  0.00000000E+00  0.00000000E+00
  0.00000000E+00  0.00000000E+00  0.00000000E+00
  0.00000000E+00  0.00000000E+00  0.00000000E+00
  0.00000000E+00  0.00000000E+00  0.00000000E+00
  0.00000000E+00  0.00000000E+00  0.00000000E+00
  0.00000000E+00  0.00000000E+00  0.00000000E+00
  0.00000000E+00  0.00000000E+00  0.00000000E+00
  0.00000000E+00  0.00000000E+00  0.00000000E+00
  0.00000000E+00  0.00000000E+00  0.00000000E+00
  0.00000000E+00  0.00000000E+00  0.00000000E+00
  0.00000000E+00  0.00000000E+00  0.00000000E+00
  0.00000000E+00  0.00000000E+00  0.00000000E+00
  0.00000000E+00  0.00000000E+00  0.00000000E+00
  0.00000000E+00  0.00000000E+00  0.00000000E+00
  0.00000000E+00  0.00000000E+00  0.00000000E+00
  0.00000000E+00  0.00000000E+00  0.00000000E+00
  0.00000000E+00  0.00000000E+00  0.00000000E+00
  0.00000000E+00  0.00000000E+00  0.00000000E+00
  0.00000000E+00  0.00000000E+00  0.00000000E+00
  0.00000000E+00  0.00000000E+00  0.00000000E+00
  0.00000000E+00  0.00000000E+00  0.00000000E+00
  0.00000000E+00  0.00000000E+00  0.00000000E+00
  0.00000000E+00  0.00000000E+00  0.00000000E+00
  0.00000000E+00  0.00000000E+00  0.00000000E+00
  0.00000000E+00  0.00000000E+00  0.00000000E+00
  0.00000000E+00  0.00000000E+00  0.00000000E+00
  0.00000000E+00  0.00000000E+00  0.00000000E+00
  0.00000000E+00  0.00000000E+00  0.00000000E+00
  0.00000000E+00  0.00000000E+00  0.00000000E+00
  0.00000000E+00  0.00000000E+00  0.00000000E+00
  0.00000000E+00  0.00000000E+00  0.00000000E+00
  0.00000000E+00  0.00000000E+00  0.00000000E+00
  0.00000000E+00  0.00000000E+00  0.00000000E+00
  0.00000000E+00  0.00000000E+00  0.00000000E+00
  0.00000000E+00  0.00000000E+00  0.00000000E+00
  0.00000000E+00  0.00000000E+00  0.00000000E+00
  0.00000000E+00  0.00000000E+00  0.00000000E+00
  0.00000000E+00  0.00000000E+00  0.00000000E+00
  0.00000000E+00  0.00000000E+00  0.00000000E+00
  0.00000000E+00  0.00000000E+00  0.00000000E+00
  0.00000000E+00  0.00000000E+00  0.00000000E+00
