CONTCAR\(24)                            
   1.00000000000000     
    14.0611000061000002    0.0000000000000000    0.0000000000000000
     0.0000000000000000   17.2483997345000013    0.0000000000000000
     0.0000000000000000    0.0000000000000000   18.5618991852000015
   Cu   H    Se   O 
     7    16    16    48
Direct
 -0.0000000000000000  0.0000000000000000  0.5000000000000000
  0.2518199921423674  0.2495454862927447  0.5056885147371712
  0.5000000000000000  0.0000000000000000  0.5000000000000000
  0.7531542008281471  0.2526321680425028  0.4977431717906697
 -0.0000000000000000  0.5000000000000000  0.5000000000000000
  0.2468457991718523  0.7473678599574997  0.5022568282093305
  0.7481800078576323  0.7504545417072584  0.4943114852628284
  0.3104155960862586  0.0199350409338756  0.4371713819059737
  0.0612049146446752  0.2292733395721422  0.5677453241631127
  0.4379877844969767  0.2835015367948689  0.4385671038976151
  0.1947421356991397  0.4859355585346778  0.5607950746182960
  0.8084559929940217  0.0199214616341781  0.4313183127736568
  0.5698245265365003  0.2259055684977804  0.5529221423539376
  0.9459136847339860  0.2743839718010105  0.4356543385184977
  0.6891984241011230  0.4810373654599127  0.5708914186173373
  0.3108015758988776  0.5189626345400872  0.4290986143826658
  0.0540863192660144  0.7256059651989917  0.5643556804815034
  0.4301755074634956  0.7740844105022177  0.4470878766460639
  0.1915440240059839  0.9800786283658224  0.5686717202263459
  0.8052578813008652  0.5140644414653224  0.4391949583817067
  0.5620122495030191  0.7164884002051329  0.5614429151023858
  0.9387950893553253  0.7707166394278565  0.4322646948368887
  0.6895844039137407  0.9800650490661245  0.5628186510940297
  0.3324865210619851  0.4162102980298151  0.5491800893855997
  0.0829443987504924  0.3441714493515392  0.4445746770943098
  0.4311815832061882  0.1566063329746958  0.5589848962111369
  0.1777789010716190  0.0944982589012979  0.4457954480280100
  0.8240546530333048  0.4062256976080796  0.5673661237349672
  0.5710252397380468  0.3555501924018403  0.4585328964133665
  0.9250113826251444  0.1587750664421344  0.5594614162071958
  0.6768848506291127  0.0959348468408470  0.4389446654524163
  0.3231151493708875  0.9040651671591543  0.5610552825475857
  0.0749786053748589  0.8412249475578658  0.4405385317928066
  0.4289647222619534  0.6444497795981582  0.5414670515866364
  0.1759453639666931  0.5937743023919205  0.4326338242650363
  0.8222211159283789  0.9055017550987036  0.5542044999719925
  0.5688083787938135  0.8433936810253050  0.4410150517888657
  0.9170455892495105  0.6558285226484575  0.5554252709056933
  0.6675134789380154  0.5837897019701851  0.4508198586144032
  0.1191207860813336  0.2605274647203933  0.4912026857867078
  0.3845573132281337  0.2390307920876543  0.5176963976374511
  0.3648067242835030  0.4845274206322134  0.4904780934784667
  0.2347649134049616  0.1399075280104847  0.5166778167764701
  0.1357245921793179  0.0137787160741223  0.4915589937112746
  0.4733398161359407  0.1084969395553331  0.4842461379282268
  0.2659708391044198  0.3560305428836601  0.4889809935958270
  0.0244599469806345  0.3904117034201417  0.5132466178723563
  0.2731860425178578  0.0496493135506392  0.3996577058673491
  0.0220786467784850  0.2017577920314151  0.6054759067350276
  0.2351989200048123  0.4598370715760270  0.5976610055732582
  0.4777321312774473  0.3139701525769874  0.4042622865393553
  0.6242438062318589  0.2599665494884255  0.4773424031181756
  0.8865815089368817  0.2415497428277273  0.5137492977822657
  0.8678849942422685  0.4860930034248341  0.5207962079213615
  0.7395947770459853  0.1430395195765102  0.5061820189652201
  0.6351066903354354  0.0182112582727870  0.4888997654985855
  0.9809969126119548  0.1112096781254629  0.4902726278256936
  0.7689657600612125  0.3612972280229513  0.4941976441583907
  0.5217678921377858  0.3726603596429184  0.5372757901661167
  0.7705250370152102  0.0477875054215561  0.3931270633924965
  0.5363884498362509  0.1972901040272650  0.5938649536566001
  0.7288763634562566  0.4511370519160895  0.6103711931177926
  0.9863491038349045  0.3001021507620293  0.3979407438435913
  0.1134185080631167  0.7584502571722724  0.4862606702177342
  0.3757561597681379  0.7400334785115771  0.5226675648818245
  0.3648933096645643  0.9817887867272130  0.5111001835014212
  0.2310442439387834  0.6387027169770478  0.5058023048416089
  0.1321150227577289  0.5139069415751646  0.4792037410786446
  0.4782421118622099  0.6273396403570819  0.4627341778338844
  0.2604152609540137  0.8569605354234916  0.4938179300347798
  0.0190131173880442  0.8887903418745317  0.5097373401743071
  0.2711236365437428  0.5488729550839112  0.3896187628822078
  0.0136508751650971  0.6998878142379682  0.6020592311564105
  0.2294749459847924  0.9522224435784394  0.6068628926075036
  0.4636115501637488  0.8026998599727360  0.4061350213434011
  0.6154426527718628  0.7609692079123459  0.4823135703625496
  0.8808792309186642  0.7394725632796093  0.5088072822132931
  0.8642754248206801  0.9862213289258779  0.5084409552887320
  0.7340391988955794  0.6439694021163381  0.5110189554041719
  0.6351932757164973  0.5154725243677858  0.5095218555215404
  0.9755500830193639  0.6095882965798582  0.4867633501276441
  0.7652450905950345  0.8600925269895157  0.4833221322235298
  0.5266701878640559  0.8915030804446614  0.5157638300717741
  0.7648010629951895  0.5401729354239734  0.4023289504267425
  0.5222678687225524  0.6860198124230102  0.5957376884606456
  0.7268139574821417  0.9503606354493556  0.6003322501326510
  0.9779213322215174  0.7982321719685854  0.3945240682649743
 
  0.00000000E+00  0.00000000E+00  0.00000000E+00
  0.00000000E+00  0.00000000E+00  0.00000000E+00
  0.00000000E+00  0.00000000E+00  0.00000000E+00
  0.00000000E+00  0.00000000E+00  0.00000000E+00
  0.00000000E+00  0.00000000E+00  0.00000000E+00
  0.00000000E+00  0.00000000E+00  0.00000000E+00
  0.00000000E+00  0.00000000E+00  0.00000000E+00
  0.00000000E+00  0.00000000E+00  0.00000000E+00
  0.00000000E+00  0.00000000E+00  0.00000000E+00
  0.00000000E+00  0.00000000E+00  0.00000000E+00
  0.00000000E+00  0.00000000E+00  0.00000000E+00
  0.00000000E+00  0.00000000E+00  0.00000000E+00
  0.00000000E+00  0.00000000E+00  0.00000000E+00
  0.00000000E+00  0.00000000E+00  0.00000000E+00
  0.00000000E+00  0.00000000E+00  0.00000000E+00
  0.00000000E+00  0.00000000E+00  0.00000000E+00
  0.00000000E+00  0.00000000E+00  0.00000000E+00
  0.00000000E+00  0.00000000E+00  0.00000000E+00
  0.00000000E+00  0.00000000E+00  0.00000000E+00
  0.00000000E+00  0.00000000E+00  0.00000000E+00
  0.00000000E+00  0.00000000E+00  0.00000000E+00
  0.00000000E+00  0.00000000E+00  0.00000000E+00
  0.00000000E+00  0.00000000E+00  0.00000000E+00
  0.00000000E+00  0.00000000E+00  0.00000000E+00
  0.00000000E+00  0.00000000E+00  0.00000000E+00
  0.00000000E+00  0.00000000E+00  0.00000000E+00
  0.00000000E+00  0.00000000E+00  0.00000000E+00
  0.00000000E+00  0.00000000E+00  0.00000000E+00
  0.00000000E+00  0.00000000E+00  0.00000000E+00
  0.00000000E+00  0.00000000E+00  0.00000000E+00
  0.00000000E+00  0.00000000E+00  0.00000000E+00
  0.00000000E+00  0.00000000E+00  0.00000000E+00
  0.00000000E+00  0.00000000E+00  0.00000000E+00
  0.00000000E+00  0.00000000E+00  0.00000000E+00
  0.00000000E+00  0.00000000E+00  0.00000000E+00
  0.00000000E+00  0.00000000E+00  0.00000000E+00
  0.00000000E+00  0.00000000E+00  0.00000000E+00
  0.00000000E+00  0.00000000E+00  0.00000000E+00
  0.00000000E+00  0.00000000E+00  0.00000000E+00
  0.00000000E+00  0.00000000E+00  0.00000000E+00
  0.00000000E+00  0.00000000E+00  0.00000000E+00
  0.00000000E+00  0.00000000E+00  0.00000000E+00
  0.00000000E+00  0.00000000E+00  0.00000000E+00
  0.00000000E+00  0.00000000E+00  0.00000000E+00
  0.00000000E+00  0.00000000E+00  0.00000000E+00
  0.00000000E+00  0.00000000E+00  0.00000000E+00
  0.00000000E+00  0.00000000E+00  0.00000000E+00
  0.00000000E+00  0.00000000E+00  0.00000000E+00
  0.00000000E+00  0.00000000E+00  0.00000000E+00
  0.00000000E+00  0.00000000E+00  0.00000000E+00
  0.00000000E+00  0.00000000E+00  0.00000000E+00
  0.00000000E+00  0.00000000E+00  0.00000000E+00
  0.00000000E+00  0.00000000E+00  0.00000000E+00
  0.00000000E+00  0.00000000E+00  0.00000000E+00
  0.00000000E+00  0.00000000E+00  0.00000000E+00
  0.00000000E+00  0.00000000E+00  0.00000000E+00
  0.00000000E+00  0.00000000E+00  0.00000000E+00
  0.00000000E+00  0.00000000E+00  0.00000000E+00
  0.00000000E+00  0.00000000E+00  0.00000000E+00
  0.00000000E+00  0.00000000E+00  0.00000000E+00
  0.00000000E+00  0.00000000E+00  0.00000000E+00
  0.00000000E+00  0.00000000E+00  0.00000000E+00
  0.00000000E+00  0.00000000E+00  0.00000000E+00
  0.00000000E+00  0.00000000E+00  0.00000000E+00
  0.00000000E+00  0.00000000E+00  0.00000000E+00
  0.00000000E+00  0.00000000E+00  0.00000000E+00
  0.00000000E+00  0.00000000E+00  0.00000000E+00
  0.00000000E+00  0.00000000E+00  0.00000000E+00
  0.00000000E+00  0.00000000E+00  0.00000000E+00
  0.00000000E+00  0.00000000E+00  0.00000000E+00
  0.00000000E+00  0.00000000E+00  0.00000000E+00
  0.00000000E+00  0.00000000E+00  0.00000000E+00
  0.00000000E+00  0.00000000E+00  0.00000000E+00
  0.00000000E+00  0.00000000E+00  0.00000000E+00
  0.00000000E+00  0.00000000E+00  0.00000000E+00
  0.00000000E+00  0.00000000E+00  0.00000000E+00
  0.00000000E+00  0.00000000E+00  0.00000000E+00
  0.00000000E+00  0.00000000E+00  0.00000000E+00
  0.00000000E+00  0.00000000E+00  0.00000000E+00
  0.00000000E+00  0.00000000E+00  0.00000000E+00
  0.00000000E+00  0.00000000E+00  0.00000000E+00
  0.00000000E+00  0.00000000E+00  0.00000000E+00
  0.00000000E+00  0.00000000E+00  0.00000000E+00
  0.00000000E+00  0.00000000E+00  0.00000000E+00
  0.00000000E+00  0.00000000E+00  0.00000000E+00
  0.00000000E+00  0.00000000E+00  0.00000000E+00
  0.00000000E+00  0.00000000E+00  0.00000000E+00
