CONTCAR\(2)                             
   1.00000000000000     
    12.6855001450000007    0.0000000000000000    0.0000000000000000
     6.3427500725000003   10.9859653852000001    0.0000000000000000
     0.0000000000000000    0.0000000000000000   18.4181995391999997
   Mn   P    Se   O    H 
     8     8    24     2     1
Direct
  0.1699962398756441  0.1661771655540178  0.4994460074851972
  0.3359744868401293  0.3345180315204104  0.5017580614772257
  0.6695296898947518  0.1676092565940053  0.5012451441845087
  0.8346751685560818  0.3339226026231330  0.5015576153817918
  0.1715053594750771  0.6657091834769702  0.5019299492669234
  0.3374676708565545  0.8309223669568837  0.5010416070612749
  0.6690422005291339  0.6662100077466988  0.5012599963343618
  0.8365128599930074  0.8333231322549679  0.4992560781340458
  0.0017683014063437  0.0012075595435093  0.4395902653511499
  0.0031110551204776  0.9997352404085547  0.5612847547858877
  0.5030583721811297  0.9987426505962915  0.4396880201155824
  0.5033095773753118  0.9992482341374469  0.5613639098915186
  0.0042887655314345  0.4999106683231034  0.4395571195991366
  0.0036467425830367  0.4998149875535205  0.5613477165346552
  0.5030046422771974  0.5003780232935640  0.4627247507339618
  0.5039393223355617  0.5009434444453760  0.5942322052564748
  0.1713081835691810  0.4999701805369199  0.5949917699608918
  0.5023942108982027  0.3204391287186894  0.5924748350044595
  0.3333247296001929  0.1685274071791838  0.5921159264826343
  0.3347873843110776  0.9964313392866231  0.4085911424059034
  0.0000616372079065  0.1717684158628288  0.4092049094302865
  0.1745599674593379  0.3313679015584583  0.4085511450376416
  0.6844244805437469  0.5002190597145812  0.5937022945464392
  0.0038871174852844  0.3300952702164324  0.5920637914555158
  0.8353842299695486  0.1677034301027120  0.5946805213823012
  0.8315529814053662  0.0030396794037983  0.4083230943290701
  0.5023945989811338  0.1679376630066471  0.4080145173185343
  0.6664410385649902  0.3363697499936009  0.4159283471381272
  0.1730933783257882  0.9995466972551768  0.5914903286465076
  0.5034174503138260  0.8314074238716671  0.5946493292867316
  0.3225231932835371  0.6806788571397817  0.5928420778540442
  0.3388019562178854  0.5002121381506868  0.4164060745305775
  0.0066145326189471  0.6683513483432222  0.4087174291179991
  0.1700416596882377  0.8324731946010360  0.4074266217591003
  0.6731107240427505  0.9994001854071257  0.5918006304488301
  0.0022636617878575  0.8306338858204754  0.5920876253462168
  0.8343068537454741  0.6697310580679670  0.5919796243577409
  0.8353470287792319  0.4999434624041612  0.4076035054095826
  0.5032003398169422  0.6636639247387990  0.4154894265331990
  0.6716771479371886  0.8289114224974625  0.4084537724773654
  0.5209100008968903  0.4995217060528248  0.6874526161843306
  0.4172947361164816  0.5030483216892989  0.7262096091342585
  0.4448858146021166  0.4152853523513613  0.7285058138279865
 
  0.00000000E+00  0.00000000E+00  0.00000000E+00
  0.00000000E+00  0.00000000E+00  0.00000000E+00
  0.00000000E+00  0.00000000E+00  0.00000000E+00
  0.00000000E+00  0.00000000E+00  0.00000000E+00
  0.00000000E+00  0.00000000E+00  0.00000000E+00
  0.00000000E+00  0.00000000E+00  0.00000000E+00
  0.00000000E+00  0.00000000E+00  0.00000000E+00
  0.00000000E+00  0.00000000E+00  0.00000000E+00
  0.00000000E+00  0.00000000E+00  0.00000000E+00
  0.00000000E+00  0.00000000E+00  0.00000000E+00
  0.00000000E+00  0.00000000E+00  0.00000000E+00
  0.00000000E+00  0.00000000E+00  0.00000000E+00
  0.00000000E+00  0.00000000E+00  0.00000000E+00
  0.00000000E+00  0.00000000E+00  0.00000000E+00
  0.00000000E+00  0.00000000E+00  0.00000000E+00
  0.00000000E+00  0.00000000E+00  0.00000000E+00
  0.00000000E+00  0.00000000E+00  0.00000000E+00
  0.00000000E+00  0.00000000E+00  0.00000000E+00
  0.00000000E+00  0.00000000E+00  0.00000000E+00
  0.00000000E+00  0.00000000E+00  0.00000000E+00
  0.00000000E+00  0.00000000E+00  0.00000000E+00
  0.00000000E+00  0.00000000E+00  0.00000000E+00
  0.00000000E+00  0.00000000E+00  0.00000000E+00
  0.00000000E+00  0.00000000E+00  0.00000000E+00
  0.00000000E+00  0.00000000E+00  0.00000000E+00
  0.00000000E+00  0.00000000E+00  0.00000000E+00
  0.00000000E+00  0.00000000E+00  0.00000000E+00
  0.00000000E+00  0.00000000E+00  0.00000000E+00
  0.00000000E+00  0.00000000E+00  0.00000000E+00
  0.00000000E+00  0.00000000E+00  0.00000000E+00
  0.00000000E+00  0.00000000E+00  0.00000000E+00
  0.00000000E+00  0.00000000E+00  0.00000000E+00
  0.00000000E+00  0.00000000E+00  0.00000000E+00
  0.00000000E+00  0.00000000E+00  0.00000000E+00
  0.00000000E+00  0.00000000E+00  0.00000000E+00
  0.00000000E+00  0.00000000E+00  0.00000000E+00
  0.00000000E+00  0.00000000E+00  0.00000000E+00
  0.00000000E+00  0.00000000E+00  0.00000000E+00
  0.00000000E+00  0.00000000E+00  0.00000000E+00
  0.00000000E+00  0.00000000E+00  0.00000000E+00
  0.00000000E+00  0.00000000E+00  0.00000000E+00
  0.00000000E+00  0.00000000E+00  0.00000000E+00
  0.00000000E+00  0.00000000E+00  0.00000000E+00
