 CONTCAR\(4)                            
   1.00000000000000     
    11.9881000519000001    0.0000000000000000    0.0000000000000000
    -5.9940500259000000   10.3819991880000000    0.0000000000000000
     0.0000000000000000    0.0000000000000000   19.4676265674155431
   Ti   C    O 
    32    16    32
Direct
  0.1666699909999991  0.0833299980000035  0.5672650645280370
  0.0833299960000033  0.1666699860000023  0.4327067431370608
  0.4166699909999991  0.0833299980000035  0.5672650645280370
  0.3333300010000002  0.1666699860000023  0.4327067431370608
  0.6666700310000024  0.0833299980000035  0.5672650645280370
  0.5833299809999986  0.1666699860000023  0.4327067431370608
  0.9166700310000024  0.0833299980000035  0.5672650645280370
  0.8333299419999989  0.1666699860000023  0.4327067431370608
  0.1666699949999995  0.3333300059999971  0.5672650645280370
  0.0833300110000010  0.4166700050000003  0.4327067431370608
  0.4166699749999978  0.3333300059999971  0.5672650645280370
  0.3333300110000010  0.4166700050000003  0.4327067431370608
  0.6666700150000011  0.3333300059999971  0.5672650645280370
  0.5833300110000010  0.4166700050000003  0.4327067431370608
  0.9166700540000008  0.3333300059999971  0.5672650645280370
  0.8333299709999977  0.4166700050000003  0.4327067431370608
  0.1666699909999991  0.5833299780000019  0.5672650645280370
  0.0833299999999966  0.6666700239999983  0.4327067431370608
  0.4166699809999983  0.5833299780000019  0.5672650645280370
  0.3333299999999966  0.6666700239999983  0.4327067431370608
  0.6666700210000016  0.5833299780000019  0.5672650645280370
  0.5833299800000020  0.6666700239999983  0.4327067431370608
  0.9166700210000016  0.5833299780000019  0.5672650645280370
  0.8333299210000007  0.6666700239999983  0.4327067431370608
  0.1666700099999971  0.8333299969999999  0.5672650645280370
  0.0833299900000029  0.9166700430000034  0.4327067431370608
  0.4166700099999971  0.8333299969999999  0.5672650645280370
  0.3333300099999974  0.9166700430000034  0.4327067431370608
  0.6666700500000005  0.8333299969999999  0.5672650645280370
  0.5833299900000029  0.9166700430000034  0.4327067431370608
  0.9166700500000005  0.8333299969999999  0.5672650645280370
  0.8333299499999995  0.9166700430000034  0.4327067431370608
  0.0000000000000000  0.0000000000000000  0.4999858914845063
  0.2500000000000000  0.0000000000000000  0.4999858914845063
  0.5000000000000000  0.0000000000000000  0.4999858914845063
  0.7500000400000033  0.0000000000000000  0.4999858914845063
  0.9999999979999998  0.2499999959999997  0.4999858914845063
  0.2499999979999998  0.2499999959999997  0.4999858914845063
  0.5000000180000015  0.2499999959999997  0.4999858914845063
  0.7500000579999977  0.2499999959999997  0.4999858914845063
  0.9999999959999997  0.4999999919999993  0.4999858914845063
  0.2499999959999997  0.4999999919999993  0.4999858914845063
  0.4999999959999997  0.4999999919999993  0.4999858914845063
  0.7500000360000030  0.4999999919999993  0.4999858914845063
  0.9999999619999969  0.7499999650000007  0.4999858914845063
  0.2499999619999969  0.7499999650000007  0.4999858914845063
  0.4999999619999969  0.7499999650000007  0.4999858914845063
  0.7500000020000002  0.7499999650000007  0.4999858914845063
  0.0833299960000033  0.1666699860000023  0.6147450243085473
  0.1666699909999991  0.0833299980000035  0.3852549756914527
  0.3333300010000002  0.1666699860000023  0.6147450243085473
  0.4166699909999991  0.0833299980000035  0.3852549756914527
  0.5833299809999986  0.1666699860000023  0.6147450243085473
  0.6666700310000024  0.0833299980000035  0.3852549756914527
  0.8333299419999989  0.1666699860000023  0.6147450243085473
  0.9166700310000024  0.0833299980000035  0.3852549756914527
  0.0833300110000010  0.4166700050000003  0.6147450243085473
  0.1666699949999995  0.3333300059999971  0.3852549756914527
  0.3333300110000010  0.4166700050000003  0.6147450243085473
  0.4166699749999978  0.3333300059999971  0.3852549756914527
  0.5833300110000010  0.4166700050000003  0.6147450243085473
  0.6666700150000011  0.3333300059999971  0.3852549756914527
  0.8333299709999977  0.4166700050000003  0.6147450243085473
  0.9166700540000008  0.3333300059999971  0.3852549756914527
  0.0833299999999966  0.6666700239999983  0.6147450243085473
  0.1666699909999991  0.5833299780000019  0.3852549756914527
  0.3333299999999966  0.6666700239999983  0.6147450243085473
  0.4166699809999983  0.5833299780000019  0.3852549756914527
  0.5833299800000020  0.6666700239999983  0.6147450243085473
  0.6666700210000016  0.5833299780000019  0.3852549756914527
  0.8333299210000007  0.6666700239999983  0.6147450243085473
  0.9166700210000016  0.5833299780000019  0.3852549756914527
  0.0833299900000029  0.9166700430000034  0.6147450243085473
  0.1666700099999971  0.8333299969999999  0.3852549756914527
  0.3333300099999974  0.9166700430000034  0.6147450243085473
  0.4166700099999971  0.8333299969999999  0.3852549756914527
  0.5833299900000029  0.9166700430000034  0.6147450243085473
  0.6666700500000005  0.8333299969999999  0.3852549756914527
  0.8333299499999995  0.9166700430000034  0.6147450243085473
  0.9166700500000005  0.8333299969999999  0.3852549756914527
 
  0.00000000E+00  0.00000000E+00  0.00000000E+00
  0.00000000E+00  0.00000000E+00  0.00000000E+00
  0.00000000E+00  0.00000000E+00  0.00000000E+00
  0.00000000E+00  0.00000000E+00  0.00000000E+00
  0.00000000E+00  0.00000000E+00  0.00000000E+00
  0.00000000E+00  0.00000000E+00  0.00000000E+00
  0.00000000E+00  0.00000000E+00  0.00000000E+00
  0.00000000E+00  0.00000000E+00  0.00000000E+00
  0.00000000E+00  0.00000000E+00  0.00000000E+00
  0.00000000E+00  0.00000000E+00  0.00000000E+00
  0.00000000E+00  0.00000000E+00  0.00000000E+00
  0.00000000E+00  0.00000000E+00  0.00000000E+00
  0.00000000E+00  0.00000000E+00  0.00000000E+00
  0.00000000E+00  0.00000000E+00  0.00000000E+00
  0.00000000E+00  0.00000000E+00  0.00000000E+00
  0.00000000E+00  0.00000000E+00  0.00000000E+00
  0.00000000E+00  0.00000000E+00  0.00000000E+00
  0.00000000E+00  0.00000000E+00  0.00000000E+00
  0.00000000E+00  0.00000000E+00  0.00000000E+00
  0.00000000E+00  0.00000000E+00  0.00000000E+00
  0.00000000E+00  0.00000000E+00  0.00000000E+00
  0.00000000E+00  0.00000000E+00  0.00000000E+00
  0.00000000E+00  0.00000000E+00  0.00000000E+00
  0.00000000E+00  0.00000000E+00  0.00000000E+00
  0.00000000E+00  0.00000000E+00  0.00000000E+00
  0.00000000E+00  0.00000000E+00  0.00000000E+00
  0.00000000E+00  0.00000000E+00  0.00000000E+00
  0.00000000E+00  0.00000000E+00  0.00000000E+00
  0.00000000E+00  0.00000000E+00  0.00000000E+00
  0.00000000E+00  0.00000000E+00  0.00000000E+00
  0.00000000E+00  0.00000000E+00  0.00000000E+00
  0.00000000E+00  0.00000000E+00  0.00000000E+00
  0.00000000E+00  0.00000000E+00  0.00000000E+00
  0.00000000E+00  0.00000000E+00  0.00000000E+00
  0.00000000E+00  0.00000000E+00  0.00000000E+00
  0.00000000E+00  0.00000000E+00  0.00000000E+00
  0.00000000E+00  0.00000000E+00  0.00000000E+00
  0.00000000E+00  0.00000000E+00  0.00000000E+00
  0.00000000E+00  0.00000000E+00  0.00000000E+00
  0.00000000E+00  0.00000000E+00  0.00000000E+00
  0.00000000E+00  0.00000000E+00  0.00000000E+00
  0.00000000E+00  0.00000000E+00  0.00000000E+00
  0.00000000E+00  0.00000000E+00  0.00000000E+00
  0.00000000E+00  0.00000000E+00  0.00000000E+00
  0.00000000E+00  0.00000000E+00  0.00000000E+00
  0.00000000E+00  0.00000000E+00  0.00000000E+00
  0.00000000E+00  0.00000000E+00  0.00000000E+00
  0.00000000E+00  0.00000000E+00  0.00000000E+00
  0.00000000E+00  0.00000000E+00  0.00000000E+00
  0.00000000E+00  0.00000000E+00  0.00000000E+00
  0.00000000E+00  0.00000000E+00  0.00000000E+00
  0.00000000E+00  0.00000000E+00  0.00000000E+00
  0.00000000E+00  0.00000000E+00  0.00000000E+00
  0.00000000E+00  0.00000000E+00  0.00000000E+00
  0.00000000E+00  0.00000000E+00  0.00000000E+00
  0.00000000E+00  0.00000000E+00  0.00000000E+00
  0.00000000E+00  0.00000000E+00  0.00000000E+00
  0.00000000E+00  0.00000000E+00  0.00000000E+00
  0.00000000E+00  0.00000000E+00  0.00000000E+00
  0.00000000E+00  0.00000000E+00  0.00000000E+00
  0.00000000E+00  0.00000000E+00  0.00000000E+00
  0.00000000E+00  0.00000000E+00  0.00000000E+00
  0.00000000E+00  0.00000000E+00  0.00000000E+00
  0.00000000E+00  0.00000000E+00  0.00000000E+00
  0.00000000E+00  0.00000000E+00  0.00000000E+00
  0.00000000E+00  0.00000000E+00  0.00000000E+00
  0.00000000E+00  0.00000000E+00  0.00000000E+00
  0.00000000E+00  0.00000000E+00  0.00000000E+00
  0.00000000E+00  0.00000000E+00  0.00000000E+00
  0.00000000E+00  0.00000000E+00  0.00000000E+00
  0.00000000E+00  0.00000000E+00  0.00000000E+00
  0.00000000E+00  0.00000000E+00  0.00000000E+00
  0.00000000E+00  0.00000000E+00  0.00000000E+00
  0.00000000E+00  0.00000000E+00  0.00000000E+00
  0.00000000E+00  0.00000000E+00  0.00000000E+00
  0.00000000E+00  0.00000000E+00  0.00000000E+00
  0.00000000E+00  0.00000000E+00  0.00000000E+00
  0.00000000E+00  0.00000000E+00  0.00000000E+00
  0.00000000E+00  0.00000000E+00  0.00000000E+00
  0.00000000E+00  0.00000000E+00  0.00000000E+00
