G   57   16    1    0.005     # Parameters to Generate KPOINTS (Don't Edit This Line)
     261
Reciprocal lattice
    0.000000000000    0.000000000000    0.000000000000       1
    0.017543859649    0.000000000000    0.000000000000       2
    0.035087719298    0.000000000000    0.000000000000       2
    0.052631578947    0.000000000000    0.000000000000       2
    0.070175438596    0.000000000000    0.000000000000       2
    0.087719298246    0.000000000000    0.000000000000       2
    0.105263157895    0.000000000000    0.000000000000       2
    0.122807017544    0.000000000000    0.000000000000       2
    0.140350877193    0.000000000000    0.000000000000       2
    0.157894736842    0.000000000000    0.000000000000       2
    0.175438596491    0.000000000000    0.000000000000       2
    0.192982456140    0.000000000000    0.000000000000       2
    0.210526315789    0.000000000000    0.000000000000       2
    0.228070175439    0.000000000000    0.000000000000       2
    0.245614035088    0.000000000000    0.000000000000       2
    0.263157894737    0.000000000000    0.000000000000       2
    0.280701754386    0.000000000000    0.000000000000       2
    0.298245614035    0.000000000000    0.000000000000       2
    0.315789473684    0.000000000000    0.000000000000       2
    0.333333333333    0.000000000000    0.000000000000       2
    0.350877192982    0.000000000000    0.000000000000       2
    0.368421052632    0.000000000000    0.000000000000       2
    0.385964912281    0.000000000000    0.000000000000       2
    0.403508771930    0.000000000000    0.000000000000       2
    0.421052631579    0.000000000000    0.000000000000       2
    0.438596491228    0.000000000000    0.000000000000       2
    0.456140350877    0.000000000000    0.000000000000       2
    0.473684210526    0.000000000000    0.000000000000       2
    0.491228070175    0.000000000000    0.000000000000       2
    0.000000000000    0.062500000000    0.000000000000       2
    0.017543859649    0.062500000000    0.000000000000       4
    0.035087719298    0.062500000000    0.000000000000       4
    0.052631578947    0.062500000000    0.000000000000       4
    0.070175438596    0.062500000000    0.000000000000       4
    0.087719298246    0.062500000000    0.000000000000       4
    0.105263157895    0.062500000000    0.000000000000       4
    0.122807017544    0.062500000000    0.000000000000       4
    0.140350877193    0.062500000000    0.000000000000       4
    0.157894736842    0.062500000000    0.000000000000       4
    0.175438596491    0.062500000000    0.000000000000       4
    0.192982456140    0.062500000000    0.000000000000       4
    0.210526315789    0.062500000000    0.000000000000       4
    0.228070175439    0.062500000000    0.000000000000       4
    0.245614035088    0.062500000000    0.000000000000       4
    0.263157894737    0.062500000000    0.000000000000       4
    0.280701754386    0.062500000000    0.000000000000       4
    0.298245614035    0.062500000000    0.000000000000       4
    0.315789473684    0.062500000000    0.000000000000       4
    0.333333333333    0.062500000000    0.000000000000       4
    0.350877192982    0.062500000000    0.000000000000       4
    0.368421052632    0.062500000000    0.000000000000       4
    0.385964912281    0.062500000000    0.000000000000       4
    0.403508771930    0.062500000000    0.000000000000       4
    0.421052631579    0.062500000000    0.000000000000       4
    0.438596491228    0.062500000000    0.000000000000       4
    0.456140350877    0.062500000000    0.000000000000       4
    0.473684210526    0.062500000000    0.000000000000       4
    0.491228070175    0.062500000000    0.000000000000       4
    0.000000000000    0.125000000000    0.000000000000       2
    0.017543859649    0.125000000000    0.000000000000       4
    0.035087719298    0.125000000000    0.000000000000       4
    0.052631578947    0.125000000000    0.000000000000       4
    0.070175438596    0.125000000000    0.000000000000       4
    0.087719298246    0.125000000000    0.000000000000       4
    0.105263157895    0.125000000000    0.000000000000       4
    0.122807017544    0.125000000000    0.000000000000       4
    0.140350877193    0.125000000000    0.000000000000       4
    0.157894736842    0.125000000000    0.000000000000       4
    0.175438596491    0.125000000000    0.000000000000       4
    0.192982456140    0.125000000000    0.000000000000       4
    0.210526315789    0.125000000000    0.000000000000       4
    0.228070175439    0.125000000000    0.000000000000       4
    0.245614035088    0.125000000000    0.000000000000       4
    0.263157894737    0.125000000000    0.000000000000       4
    0.280701754386    0.125000000000    0.000000000000       4
    0.298245614035    0.125000000000    0.000000000000       4
    0.315789473684    0.125000000000    0.000000000000       4
    0.333333333333    0.125000000000    0.000000000000       4
    0.350877192982    0.125000000000    0.000000000000       4
    0.368421052632    0.125000000000    0.000000000000       4
    0.385964912281    0.125000000000    0.000000000000       4
    0.403508771930    0.125000000000    0.000000000000       4
    0.421052631579    0.125000000000    0.000000000000       4
    0.438596491228    0.125000000000    0.000000000000       4
    0.456140350877    0.125000000000    0.000000000000       4
    0.473684210526    0.125000000000    0.000000000000       4
    0.491228070175    0.125000000000    0.000000000000       4
    0.000000000000    0.187500000000    0.000000000000       2
    0.017543859649    0.187500000000    0.000000000000       4
    0.035087719298    0.187500000000    0.000000000000       4
    0.052631578947    0.187500000000    0.000000000000       4
    0.070175438596    0.187500000000    0.000000000000       4
    0.087719298246    0.187500000000    0.000000000000       4
    0.105263157895    0.187500000000    0.000000000000       4
    0.122807017544    0.187500000000    0.000000000000       4
    0.140350877193    0.187500000000    0.000000000000       4
    0.157894736842    0.187500000000    0.000000000000       4
    0.175438596491    0.187500000000    0.000000000000       4
    0.192982456140    0.187500000000    0.000000000000       4
    0.210526315789    0.187500000000    0.000000000000       4
    0.228070175439    0.187500000000    0.000000000000       4
    0.245614035088    0.187500000000    0.000000000000       4
    0.263157894737    0.187500000000    0.000000000000       4
    0.280701754386    0.187500000000    0.000000000000       4
    0.298245614035    0.187500000000    0.000000000000       4
    0.315789473684    0.187500000000    0.000000000000       4
    0.333333333333    0.187500000000    0.000000000000       4
    0.350877192982    0.187500000000    0.000000000000       4
    0.368421052632    0.187500000000    0.000000000000       4
    0.385964912281    0.187500000000    0.000000000000       4
    0.403508771930    0.187500000000    0.000000000000       4
    0.421052631579    0.187500000000    0.000000000000       4
    0.438596491228    0.187500000000    0.000000000000       4
    0.456140350877    0.187500000000    0.000000000000       4
    0.473684210526    0.187500000000    0.000000000000       4
    0.491228070175    0.187500000000    0.000000000000       4
    0.000000000000    0.250000000000    0.000000000000       2
    0.017543859649    0.250000000000    0.000000000000       4
    0.035087719298    0.250000000000    0.000000000000       4
    0.052631578947    0.250000000000    0.000000000000       4
    0.070175438596    0.250000000000    0.000000000000       4
    0.087719298246    0.250000000000    0.000000000000       4
    0.105263157895    0.250000000000    0.000000000000       4
    0.122807017544    0.250000000000    0.000000000000       4
    0.140350877193    0.250000000000    0.000000000000       4
    0.157894736842    0.250000000000    0.000000000000       4
    0.175438596491    0.250000000000    0.000000000000       4
    0.192982456140    0.250000000000    0.000000000000       4
    0.210526315789    0.250000000000    0.000000000000       4
    0.228070175439    0.250000000000    0.000000000000       4
    0.245614035088    0.250000000000    0.000000000000       4
    0.263157894737    0.250000000000    0.000000000000       4
    0.280701754386    0.250000000000    0.000000000000       4
    0.298245614035    0.250000000000    0.000000000000       4
    0.315789473684    0.250000000000    0.000000000000       4
    0.333333333333    0.250000000000    0.000000000000       4
    0.350877192982    0.250000000000    0.000000000000       4
    0.368421052632    0.250000000000    0.000000000000       4
    0.385964912281    0.250000000000    0.000000000000       4
    0.403508771930    0.250000000000    0.000000000000       4
    0.421052631579    0.250000000000    0.000000000000       4
    0.438596491228    0.250000000000    0.000000000000       4
    0.456140350877    0.250000000000    0.000000000000       4
    0.473684210526    0.250000000000    0.000000000000       4
    0.491228070175    0.250000000000    0.000000000000       4
    0.000000000000    0.312500000000    0.000000000000       2
    0.017543859649    0.312500000000    0.000000000000       4
    0.035087719298    0.312500000000    0.000000000000       4
    0.052631578947    0.312500000000    0.000000000000       4
    0.070175438596    0.312500000000    0.000000000000       4
    0.087719298246    0.312500000000    0.000000000000       4
    0.105263157895    0.312500000000    0.000000000000       4
    0.122807017544    0.312500000000    0.000000000000       4
    0.140350877193    0.312500000000    0.000000000000       4
    0.157894736842    0.312500000000    0.000000000000       4
    0.175438596491    0.312500000000    0.000000000000       4
    0.192982456140    0.312500000000    0.000000000000       4
    0.210526315789    0.312500000000    0.000000000000       4
    0.228070175439    0.312500000000    0.000000000000       4
    0.245614035088    0.312500000000    0.000000000000       4
    0.263157894737    0.312500000000    0.000000000000       4
    0.280701754386    0.312500000000    0.000000000000       4
    0.298245614035    0.312500000000    0.000000000000       4
    0.315789473684    0.312500000000    0.000000000000       4
    0.333333333333    0.312500000000    0.000000000000       4
    0.350877192982    0.312500000000    0.000000000000       4
    0.368421052632    0.312500000000    0.000000000000       4
    0.385964912281    0.312500000000    0.000000000000       4
    0.403508771930    0.312500000000    0.000000000000       4
    0.421052631579    0.312500000000    0.000000000000       4
    0.438596491228    0.312500000000    0.000000000000       4
    0.456140350877    0.312500000000    0.000000000000       4
    0.473684210526    0.312500000000    0.000000000000       4
    0.491228070175    0.312500000000    0.000000000000       4
    0.000000000000    0.375000000000    0.000000000000       2
    0.017543859649    0.375000000000    0.000000000000       4
    0.035087719298    0.375000000000    0.000000000000       4
    0.052631578947    0.375000000000    0.000000000000       4
    0.070175438596    0.375000000000    0.000000000000       4
    0.087719298246    0.375000000000    0.000000000000       4
    0.105263157895    0.375000000000    0.000000000000       4
    0.122807017544    0.375000000000    0.000000000000       4
    0.140350877193    0.375000000000    0.000000000000       4
    0.157894736842    0.375000000000    0.000000000000       4
    0.175438596491    0.375000000000    0.000000000000       4
    0.192982456140    0.375000000000    0.000000000000       4
    0.210526315789    0.375000000000    0.000000000000       4
    0.228070175439    0.375000000000    0.000000000000       4
    0.245614035088    0.375000000000    0.000000000000       4
    0.263157894737    0.375000000000    0.000000000000       4
    0.280701754386    0.375000000000    0.000000000000       4
    0.298245614035    0.375000000000    0.000000000000       4
    0.315789473684    0.375000000000    0.000000000000       4
    0.333333333333    0.375000000000    0.000000000000       4
    0.350877192982    0.375000000000    0.000000000000       4
    0.368421052632    0.375000000000    0.000000000000       4
    0.385964912281    0.375000000000    0.000000000000       4
    0.403508771930    0.375000000000    0.000000000000       4
    0.421052631579    0.375000000000    0.000000000000       4
    0.438596491228    0.375000000000    0.000000000000       4
    0.456140350877    0.375000000000    0.000000000000       4
    0.473684210526    0.375000000000    0.000000000000       4
    0.491228070175    0.375000000000    0.000000000000       4
    0.000000000000    0.437500000000    0.000000000000       2
    0.017543859649    0.437500000000    0.000000000000       4
    0.035087719298    0.437500000000    0.000000000000       4
    0.052631578947    0.437500000000    0.000000000000       4
    0.070175438596    0.437500000000    0.000000000000       4
    0.087719298246    0.437500000000    0.000000000000       4
    0.105263157895    0.437500000000    0.000000000000       4
    0.122807017544    0.437500000000    0.000000000000       4
    0.140350877193    0.437500000000    0.000000000000       4
    0.157894736842    0.437500000000    0.000000000000       4
    0.175438596491    0.437500000000    0.000000000000       4
    0.192982456140    0.437500000000    0.000000000000       4
    0.210526315789    0.437500000000    0.000000000000       4
    0.228070175439    0.437500000000    0.000000000000       4
    0.245614035088    0.437500000000    0.000000000000       4
    0.263157894737    0.437500000000    0.000000000000       4
    0.280701754386    0.437500000000    0.000000000000       4
    0.298245614035    0.437500000000    0.000000000000       4
    0.315789473684    0.437500000000    0.000000000000       4
    0.333333333333    0.437500000000    0.000000000000       4
    0.350877192982    0.437500000000    0.000000000000       4
    0.368421052632    0.437500000000    0.000000000000       4
    0.385964912281    0.437500000000    0.000000000000       4
    0.403508771930    0.437500000000    0.000000000000       4
    0.421052631579    0.437500000000    0.000000000000       4
    0.438596491228    0.437500000000    0.000000000000       4
    0.456140350877    0.437500000000    0.000000000000       4
    0.473684210526    0.437500000000    0.000000000000       4
    0.491228070175    0.437500000000    0.000000000000       4
    0.000000000000    0.500000000000    0.000000000000       1
    0.017543859649    0.500000000000    0.000000000000       2
    0.035087719298    0.500000000000    0.000000000000       2
    0.052631578947    0.500000000000    0.000000000000       2
    0.070175438596    0.500000000000    0.000000000000       2
    0.087719298246    0.500000000000    0.000000000000       2
    0.105263157895    0.500000000000    0.000000000000       2
    0.122807017544    0.500000000000    0.000000000000       2
    0.140350877193    0.500000000000    0.000000000000       2
    0.157894736842    0.500000000000    0.000000000000       2
    0.175438596491    0.500000000000    0.000000000000       2
    0.192982456140    0.500000000000    0.000000000000       2
    0.210526315789    0.500000000000    0.000000000000       2
    0.228070175439    0.500000000000    0.000000000000       2
    0.245614035088    0.500000000000    0.000000000000       2
    0.263157894737    0.500000000000    0.000000000000       2
    0.280701754386    0.500000000000    0.000000000000       2
    0.298245614035    0.500000000000    0.000000000000       2
    0.315789473684    0.500000000000    0.000000000000       2
    0.333333333333    0.500000000000    0.000000000000       2
    0.350877192982    0.500000000000    0.000000000000       2
    0.368421052632    0.500000000000    0.000000000000       2
    0.385964912281    0.500000000000    0.000000000000       2
    0.403508771930    0.500000000000    0.000000000000       2
    0.421052631579    0.500000000000    0.000000000000       2
    0.438596491228    0.500000000000    0.000000000000       2
    0.456140350877    0.500000000000    0.000000000000       2
    0.473684210526    0.500000000000    0.000000000000       2
    0.491228070175    0.500000000000    0.000000000000       2
