 Ti1 Te2                                
   1.00000000000000     
     3.7318619356038250    0.0000000000000000    0.0000000000000000
    -1.8659309678019125    3.2318844651620608    0.0000000000000000
     0.0000000000000000    0.0000000000000000   18.4460211688199998
   Ti   Te
     1     2
Direct
  0.9999964598312516  0.0000032657657556  0.5000019960524824
  0.6666678890201609  0.3333310625766046  0.5950067547401829
  0.3333356511485874  0.6666656716576398  0.4049912492073346
 
  0.00000000E+00  0.00000000E+00  0.00000000E+00
  0.00000000E+00  0.00000000E+00  0.00000000E+00
  0.00000000E+00  0.00000000E+00  0.00000000E+00
