CONTCAR\(10)                            
   1.00000000000000     
    13.0895996094000004    0.0000000000000000    0.0000000000000000
     6.5373165239000004   11.3368964473999991    0.0000000000000000
     0.0000000000000000    0.0000000000000000   17.7437992095999988
   Cr   S 
    16    32
Direct
  0.9999999910000028  0.2500000100000008  0.5000000000000000
  0.2499999730000013  0.2500000100000008  0.5000000000000000
  0.4999999730000013  0.2500000100000008  0.5000000000000000
  0.7499999730000013  0.2500000100000008  0.5000000000000000
  0.9999999819999985  0.5000000200000017  0.5000000000000000
  0.2499999819999985  0.5000000200000017  0.5000000000000000
  0.4999999460000026  0.5000000200000017  0.5000000000000000
  0.7499999460000026  0.5000000200000017  0.5000000000000000
  0.0000000129999975  0.7499999879999990  0.5000000000000000
  0.2500000129999975  0.7499999879999990  0.5000000000000000
  0.5000000129999975  0.7499999879999990  0.5000000000000000
  0.7500000129999975  0.7499999879999990  0.5000000000000000
  0.0000000000000000  0.0000000000000000  0.5000000000000000
  0.2500000000000000  0.0000000000000000  0.5000000000000000
  0.5000000000000000  0.0000000000000000  0.5000000000000000
  0.7500000000000000  0.0000000000000000  0.5000000000000000
  0.0833599959999987  0.0833399999999997  0.4219999900000033
  0.1666499860000030  0.1666499999999971  0.5779999829999980
  0.3333599770000006  0.0833399999999997  0.4219999900000033
  0.4166499860000030  0.1666499999999971  0.5779999829999980
  0.5833600140000001  0.0833399999999997  0.4219999900000033
  0.6666500589999984  0.1666499999999971  0.5779999829999980
  0.8333600140000001  0.0833399999999997  0.4219999900000033
  0.9166500589999984  0.1666499999999971  0.5779999829999980
  0.0833599919999983  0.3333399990000032  0.4219999900000033
  0.1666499640000012  0.4166499990000005  0.5779999829999980
  0.3333599919999983  0.3333399990000032  0.4219999900000033
  0.4166499640000012  0.4166499990000005  0.5779999829999980
  0.5833599919999983  0.3333399990000032  0.4219999900000033
  0.6666500369999966  0.4166499990000005  0.5779999829999980
  0.8333599919999983  0.3333399990000032  0.4219999900000033
  0.9166500369999966  0.4166499990000005  0.5779999829999980
  0.0833599549999988  0.5833400300000022  0.4219999900000033
  0.1666499729999984  0.6666500090000014  0.5779999829999980
  0.3333599549999988  0.5833400300000022  0.4219999900000033
  0.4166500099999979  0.6666500090000014  0.5779999829999980
  0.5833599549999988  0.5833400300000022  0.4219999900000033
  0.6666500099999979  0.6666500090000014  0.5779999829999980
  0.8333599549999988  0.5833400300000022  0.4219999900000033
  0.9166500099999979  0.6666500090000014  0.5779999829999980
  0.0833599999999990  0.8333400400000031  0.4219999900000033
  0.1666499620000010  0.9166500609999986  0.5779999829999980
  0.3333599280000001  0.8333400400000031  0.4219999900000033
  0.4166499620000010  0.9166500609999986  0.5779999829999980
  0.5833599999999990  0.8333400400000031  0.4219999900000033
  0.6666499620000010  0.9166500609999986  0.5779999829999980
  0.8333599280000001  0.8333400400000031  0.4219999900000033
  0.9166499620000010  0.9166500609999986  0.5779999829999980
 
  0.00000000E+00  0.00000000E+00  0.00000000E+00
  0.00000000E+00  0.00000000E+00  0.00000000E+00
  0.00000000E+00  0.00000000E+00  0.00000000E+00
  0.00000000E+00  0.00000000E+00  0.00000000E+00
  0.00000000E+00  0.00000000E+00  0.00000000E+00
  0.00000000E+00  0.00000000E+00  0.00000000E+00
  0.00000000E+00  0.00000000E+00  0.00000000E+00
  0.00000000E+00  0.00000000E+00  0.00000000E+00
  0.00000000E+00  0.00000000E+00  0.00000000E+00
  0.00000000E+00  0.00000000E+00  0.00000000E+00
  0.00000000E+00  0.00000000E+00  0.00000000E+00
  0.00000000E+00  0.00000000E+00  0.00000000E+00
  0.00000000E+00  0.00000000E+00  0.00000000E+00
  0.00000000E+00  0.00000000E+00  0.00000000E+00
  0.00000000E+00  0.00000000E+00  0.00000000E+00
  0.00000000E+00  0.00000000E+00  0.00000000E+00
  0.00000000E+00  0.00000000E+00  0.00000000E+00
  0.00000000E+00  0.00000000E+00  0.00000000E+00
  0.00000000E+00  0.00000000E+00  0.00000000E+00
  0.00000000E+00  0.00000000E+00  0.00000000E+00
  0.00000000E+00  0.00000000E+00  0.00000000E+00
  0.00000000E+00  0.00000000E+00  0.00000000E+00
  0.00000000E+00  0.00000000E+00  0.00000000E+00
  0.00000000E+00  0.00000000E+00  0.00000000E+00
  0.00000000E+00  0.00000000E+00  0.00000000E+00
  0.00000000E+00  0.00000000E+00  0.00000000E+00
  0.00000000E+00  0.00000000E+00  0.00000000E+00
  0.00000000E+00  0.00000000E+00  0.00000000E+00
  0.00000000E+00  0.00000000E+00  0.00000000E+00
  0.00000000E+00  0.00000000E+00  0.00000000E+00
  0.00000000E+00  0.00000000E+00  0.00000000E+00
  0.00000000E+00  0.00000000E+00  0.00000000E+00
  0.00000000E+00  0.00000000E+00  0.00000000E+00
  0.00000000E+00  0.00000000E+00  0.00000000E+00
  0.00000000E+00  0.00000000E+00  0.00000000E+00
  0.00000000E+00  0.00000000E+00  0.00000000E+00
  0.00000000E+00  0.00000000E+00  0.00000000E+00
  0.00000000E+00  0.00000000E+00  0.00000000E+00
  0.00000000E+00  0.00000000E+00  0.00000000E+00
  0.00000000E+00  0.00000000E+00  0.00000000E+00
  0.00000000E+00  0.00000000E+00  0.00000000E+00
  0.00000000E+00  0.00000000E+00  0.00000000E+00
  0.00000000E+00  0.00000000E+00  0.00000000E+00
  0.00000000E+00  0.00000000E+00  0.00000000E+00
  0.00000000E+00  0.00000000E+00  0.00000000E+00
  0.00000000E+00  0.00000000E+00  0.00000000E+00
  0.00000000E+00  0.00000000E+00  0.00000000E+00
  0.00000000E+00  0.00000000E+00  0.00000000E+00
