 Ge3 Te6 As2                            
   1.00000000000000     
     4.1382276910899005    0.0000000000000000    0.0000000000000000
     2.0691133504915418    3.5838069984274274    0.0000000000000000
     0.0000000000000000    0.0000000000000000   32.3559488587199979
   Ge   Te   As
     3     6     2
Direct
 -0.0000000035302218  0.0000000062857836  0.5000000775963882
  0.3333337845858156  0.3333336310051257  0.6102487121196546
  0.6666662498093304  0.6666663296640868  0.3897503449739319
  0.0000000779604421  0.0000000735514788  0.3364742759869414
 -0.0000000844242478 -0.0000000664987330  0.6635261694164867
  0.3333332101757273  0.3333334116521127  0.7685230327973601
  0.6666667778861456  0.6666665991855234  0.2314771850263904
  0.3333333069825881  0.3333333135684371  0.4454159484267500
  0.6666666842690778  0.6666666959462594  0.5545848791788975
  0.3333332481811689  0.3333332776917004  0.2789068460502069
  0.6666667481041734  0.6666667279482242  0.7210925284269926
 
  0.00000000E+00  0.00000000E+00  0.00000000E+00
  0.00000000E+00  0.00000000E+00  0.00000000E+00
  0.00000000E+00  0.00000000E+00  0.00000000E+00
  0.00000000E+00  0.00000000E+00  0.00000000E+00
  0.00000000E+00  0.00000000E+00  0.00000000E+00
  0.00000000E+00  0.00000000E+00  0.00000000E+00
  0.00000000E+00  0.00000000E+00  0.00000000E+00
  0.00000000E+00  0.00000000E+00  0.00000000E+00
  0.00000000E+00  0.00000000E+00  0.00000000E+00
  0.00000000E+00  0.00000000E+00  0.00000000E+00
  0.00000000E+00  0.00000000E+00  0.00000000E+00
