CONTCAR\(6)                             
   1.00000000000000     
    12.5569000244000009    0.0000000000000000    0.0000000000000000
     0.0000000000000000   12.5685997009000001    0.0000000000000000
     0.0000000000000000    0.0000000000000000   19.2248001098999985
   Cu   Ag   Te   O    H 
    12    12    24     1     1
Selective dynamics
Direct
  0.0934564710433889  0.0127355581108972  0.5315932970056210   F   F   F
  0.3776455281517173  0.9789823515949223  0.5110413778056042   F   F   F
  0.5774956047933202  0.0126904041255713  0.5322635305751007   F   F   F
  0.8864099842510029  0.9930474878891715  0.5152745529663250   F   F   F
  0.1887980895471983  0.3433777676298604  0.5361794329200649   F   F   F
  0.3866437777872420  0.3073899328092438  0.5726706448545045   F   F   F
  0.6178763350470717  0.3663028479042083  0.5898927667657006   F   F   F
  0.8162501674341271  0.3239925024995003  0.5365594842413230   F   F   F
  0.0733355259598838  0.6715937936937664  0.5367253643360783   F   F   F
  0.4052134926979107  0.6511881643139716  0.5179407115851831   F   F   F
  0.6026765465035595  0.6733229262451559  0.5639420317278123   F   F   F
  0.8638693502897041  0.6566714920772725  0.5215885521546468   F   F   F
  0.0100734398008484  0.2188181510961513  0.4812346204950089   F   F   F
  0.2487648567664351  0.1531237191407087  0.4790635380465886   F   F   F
  0.5114750520007689  0.2057127180352722  0.4814259287321150   F   F   F
  0.7347220348025303  0.1421889238976419  0.4793101980910706   F   F   F
  0.0033261028762155  0.4501450669115954  0.4790936545142799   F   F   F
  0.2260465060234154  0.5326090989763657  0.4696346165056866   F   F   F
  0.4880397099946450  0.4593616374441041  0.4837221420813123   F   F   F
  0.7068529083947510  0.5118971382423396  0.4962732818192919   F   F   F
  0.0238755883148229  0.8408432714623757  0.4611107230518101   F   F   F
  0.2470837488536546  0.8069310661044327  0.4717740488692996   F   F   F
  0.5249362945081728  0.8199035677279980  0.4699434460668925   F   F   F
  0.7491324337737808  0.8360277191404180  0.4766038741684895   F   F   F
  0.0205345910440897  0.0317042020007960  0.3949360808233138   F   F   F
  0.1362016064485374  0.1757386517711623  0.6117796027380820   F   F   F
  0.2818537574189435  0.9893487867294439  0.3865924650605024   F   F   F
  0.3833117408413500  0.1182460554876315  0.6113668860055270   F   F   F
  0.5165505690864194  0.0120014941255633  0.3977657105935322   F   F   F
  0.6374194297190101  0.1730924508847238  0.6153748852638898   F   F   F
  0.7897426499422053  0.9956602899199467  0.3811253646887067   F   F   F
  0.8838511122895412  0.1521943077108361  0.6019157537842545   F   F   F
  0.9469450463290556  0.3337068480612828  0.3637071914920611   F   F   F
  0.0997541316688313  0.5011223252461008  0.6094876778593417   F   F   F
  0.2356013073978644  0.3348845205245112  0.3960882756289124   F   F   F
  0.3477306256286994  0.4945455751988277  0.6005567621415722   F   F   F
  0.4563654880311248  0.3277915968270690  0.3700519644690701   F   F   F
  0.5838805932403801  0.5347401872314492  0.6572740749866242   F   F   F
  0.7326934394714968  0.3351322019207359  0.4063648853096993   F   F   F
  0.8676837430566877  0.4905409533714860  0.6049564209275715   F   F   F
  0.9930974742528775  0.6472739163757808  0.4012077705469608   F   F   F
  0.1299432968153766  0.8420600289823881  0.6048466923983469   F   F   F
  0.2689713940345086  0.6673600051306607  0.3613458347817300   F   F   F
  0.3713672128190026  0.8120295331297740  0.5982215024454618   F   F   F
  0.4897204860580757  0.6414816376009043  0.3907849522117033   F   F   F
  0.6333277098623640  0.8595757442245500  0.6134750998822511   F   F   F
  0.7628436879743319  0.6583497678581622  0.3932203863937431   F   F   F
  0.8733652851044909  0.8260588827914717  0.6009266895659167   F   F   F
  0.7093587746364989  0.5730211665866491  0.7210242121526065   T   T   T
  0.7374853192120838  0.5067614452351917  0.7396103522861202   T   T   T
 
  0.00000000E+00  0.00000000E+00  0.00000000E+00
  0.00000000E+00  0.00000000E+00  0.00000000E+00
  0.00000000E+00  0.00000000E+00  0.00000000E+00
  0.00000000E+00  0.00000000E+00  0.00000000E+00
  0.00000000E+00  0.00000000E+00  0.00000000E+00
  0.00000000E+00  0.00000000E+00  0.00000000E+00
  0.00000000E+00  0.00000000E+00  0.00000000E+00
  0.00000000E+00  0.00000000E+00  0.00000000E+00
  0.00000000E+00  0.00000000E+00  0.00000000E+00
  0.00000000E+00  0.00000000E+00  0.00000000E+00
  0.00000000E+00  0.00000000E+00  0.00000000E+00
  0.00000000E+00  0.00000000E+00  0.00000000E+00
  0.00000000E+00  0.00000000E+00  0.00000000E+00
  0.00000000E+00  0.00000000E+00  0.00000000E+00
  0.00000000E+00  0.00000000E+00  0.00000000E+00
  0.00000000E+00  0.00000000E+00  0.00000000E+00
  0.00000000E+00  0.00000000E+00  0.00000000E+00
  0.00000000E+00  0.00000000E+00  0.00000000E+00
  0.00000000E+00  0.00000000E+00  0.00000000E+00
  0.00000000E+00  0.00000000E+00  0.00000000E+00
  0.00000000E+00  0.00000000E+00  0.00000000E+00
  0.00000000E+00  0.00000000E+00  0.00000000E+00
  0.00000000E+00  0.00000000E+00  0.00000000E+00
  0.00000000E+00  0.00000000E+00  0.00000000E+00
  0.00000000E+00  0.00000000E+00  0.00000000E+00
  0.00000000E+00  0.00000000E+00  0.00000000E+00
  0.00000000E+00  0.00000000E+00  0.00000000E+00
  0.00000000E+00  0.00000000E+00  0.00000000E+00
  0.00000000E+00  0.00000000E+00  0.00000000E+00
  0.00000000E+00  0.00000000E+00  0.00000000E+00
  0.00000000E+00  0.00000000E+00  0.00000000E+00
  0.00000000E+00  0.00000000E+00  0.00000000E+00
  0.00000000E+00  0.00000000E+00  0.00000000E+00
  0.00000000E+00  0.00000000E+00  0.00000000E+00
  0.00000000E+00  0.00000000E+00  0.00000000E+00
  0.00000000E+00  0.00000000E+00  0.00000000E+00
  0.00000000E+00  0.00000000E+00  0.00000000E+00
  0.00000000E+00  0.00000000E+00  0.00000000E+00
  0.00000000E+00  0.00000000E+00  0.00000000E+00
  0.00000000E+00  0.00000000E+00  0.00000000E+00
  0.00000000E+00  0.00000000E+00  0.00000000E+00
  0.00000000E+00  0.00000000E+00  0.00000000E+00
  0.00000000E+00  0.00000000E+00  0.00000000E+00
  0.00000000E+00  0.00000000E+00  0.00000000E+00
  0.00000000E+00  0.00000000E+00  0.00000000E+00
  0.00000000E+00  0.00000000E+00  0.00000000E+00
  0.00000000E+00  0.00000000E+00  0.00000000E+00
  0.00000000E+00  0.00000000E+00  0.00000000E+00
  0.00000000E+00  0.00000000E+00  0.00000000E+00
  0.00000000E+00  0.00000000E+00  0.00000000E+00
