CONTCAR\(8)                             
   1.00000000000000     
    11.9334001540999992    0.0000000000000000    0.0000000000000000
    -5.9667003860000003   10.3361284282000003    0.0000000000000000
     0.0000000000000000    0.0000000000000000   17.6816005706999988
   Ru   Cl
     8    24
Direct
  0.3333399890000024  0.1666899989999990  0.5000000000000000
  0.1666599790000021  0.3333099910000001  0.5000000000000000
  0.8333399090000029  0.1666899989999990  0.5000000000000000
  0.6666599989999966  0.3333099910000001  0.5000000000000000
  0.3333399659999969  0.6666899670000035  0.5000000000000000
  0.1666599989999966  0.8333100050000013  0.5000000000000000
  0.8333399260000007  0.6666899670000035  0.5000000000000000
  0.6666599989999966  0.8333100050000013  0.5000000000000000
  0.1746100069999983  0.1746099949999973  0.5763800249999989
  0.1745699920000021  0.0000000000000000  0.4236600229999965
  0.9999999970000033  0.1746099949999973  0.4236199750000011
  0.3253900070000029  0.3253900070000029  0.4236199750000011
  0.9999999970000033  0.3253900070000029  0.5763800249999989
  0.3254300079999979  0.0000000000000000  0.5763400040000022
  0.6746100269999999  0.1746099949999973  0.5763800249999989
  0.6745700520000000  0.0000000000000000  0.4236600229999965
  0.4999999770000016  0.1746099949999973  0.4236199750000011
  0.8253899669999996  0.3253900070000029  0.4236199750000011
  0.4999999770000016  0.3253900070000029  0.5763800249999989
  0.8254299880000033  0.0000000000000000  0.5763400040000022
  0.1746099810000032  0.6746099969999975  0.5763800249999989
  0.1745699800000011  0.4999999910000028  0.4236600229999965
  0.9999999710000012  0.6746099969999975  0.4236199750000011
  0.3253900039999991  0.8253899750000002  0.4236199750000011
  0.9999999939999995  0.8253899750000002  0.5763800249999989
  0.3254299959999969  0.4999999910000028  0.5763400040000022
  0.6746099810000032  0.6746099969999975  0.5763800249999989
  0.6745700399999990  0.4999999910000028  0.4236600229999965
  0.4999999710000012  0.6746099969999975  0.4236199750000011
  0.8253899440000012  0.8253899750000002  0.4236199750000011
  0.4999999939999995  0.8253899750000002  0.5763800249999989
  0.8254299760000023  0.4999999910000028  0.5763400040000022
 
  0.00000000E+00  0.00000000E+00  0.00000000E+00
  0.00000000E+00  0.00000000E+00  0.00000000E+00
  0.00000000E+00  0.00000000E+00  0.00000000E+00
  0.00000000E+00  0.00000000E+00  0.00000000E+00
  0.00000000E+00  0.00000000E+00  0.00000000E+00
  0.00000000E+00  0.00000000E+00  0.00000000E+00
  0.00000000E+00  0.00000000E+00  0.00000000E+00
  0.00000000E+00  0.00000000E+00  0.00000000E+00
  0.00000000E+00  0.00000000E+00  0.00000000E+00
  0.00000000E+00  0.00000000E+00  0.00000000E+00
  0.00000000E+00  0.00000000E+00  0.00000000E+00
  0.00000000E+00  0.00000000E+00  0.00000000E+00
  0.00000000E+00  0.00000000E+00  0.00000000E+00
  0.00000000E+00  0.00000000E+00  0.00000000E+00
  0.00000000E+00  0.00000000E+00  0.00000000E+00
  0.00000000E+00  0.00000000E+00  0.00000000E+00
  0.00000000E+00  0.00000000E+00  0.00000000E+00
  0.00000000E+00  0.00000000E+00  0.00000000E+00
  0.00000000E+00  0.00000000E+00  0.00000000E+00
  0.00000000E+00  0.00000000E+00  0.00000000E+00
  0.00000000E+00  0.00000000E+00  0.00000000E+00
  0.00000000E+00  0.00000000E+00  0.00000000E+00
  0.00000000E+00  0.00000000E+00  0.00000000E+00
  0.00000000E+00  0.00000000E+00  0.00000000E+00
  0.00000000E+00  0.00000000E+00  0.00000000E+00
  0.00000000E+00  0.00000000E+00  0.00000000E+00
  0.00000000E+00  0.00000000E+00  0.00000000E+00
  0.00000000E+00  0.00000000E+00  0.00000000E+00
  0.00000000E+00  0.00000000E+00  0.00000000E+00
  0.00000000E+00  0.00000000E+00  0.00000000E+00
  0.00000000E+00  0.00000000E+00  0.00000000E+00
  0.00000000E+00  0.00000000E+00  0.00000000E+00
