CONTCAR\(7)                             
   1.00000000000000     
    13.5958003997999999    0.0000000000000000    0.0000000000000000
     0.0000000000000000   14.8882999419999997    0.0000000000000000
     0.0000000000000000    0.0000000000000000   20.6940002440999997
   Ti   S    O    H 
    24    72     2     1
Direct
  0.0628454319357603  0.0436601942836795  0.5665019175493398
  0.1877819016359520  0.2104821169023696  0.4365707772704011
  0.3127608585362622  0.0434388169093311  0.5667323074426656
  0.4375364914150658  0.2104746014583038  0.4365339705353930
  0.5625600315050648  0.0434977181150034  0.5666508578744670
  0.6875668315797984  0.2105042763477768  0.4365637934333602
  0.8126660684663898  0.0437732434763591  0.5665530631369626
  0.9375639361150191  0.2105366406243066  0.4364279129917999
  0.0625162138322291  0.3770753180789130  0.5664893131406581
  0.1873782116154528  0.5436835311415903  0.4361115688150016
  0.3123671435418073  0.3772210720466347  0.5666050983769383
  0.4373230899792737  0.5440251123107075  0.4359543608307324
  0.5624483439789466  0.3771822059330615  0.5665281805747190
  0.6875136985153005  0.5436701771641133  0.4360765761585446
  0.8124396262859952  0.3770881767888754  0.5665058742373085
  0.9374298475680226  0.5436341648536643  0.4361075087111869
  0.0622505845071876  0.7104826408295112  0.5660934630246910
  0.1874720951239086  0.8773431396706511  0.4358873944705864
  0.3101244020326512  0.7103853125739035  0.5655108708968568
  0.4374850731371250  0.8769901805200794  0.4358934122251836
  0.5648186434740639  0.7104294885900569  0.5650181120630329
  0.6878365991346800  0.8773667864608008  0.4359008062470131
  0.8130992595099363  0.7105195556638876  0.5660097694093700
  0.9376039729421511  0.8774376365163433  0.4359297369597890
  0.0628628455102227  0.1416540956114550  0.3640007499571382
  0.1875663534729866  0.1118958450810956  0.6396038126395843
  0.1877375576077970  0.0437765584037235  0.4803181309746404
  0.0625663113451303  0.2104606188405658  0.5226120095607483
  0.1874735294846279  0.3083399880379848  0.6391868695829183
  0.0625864477174986  0.2786961893820207  0.3633085771562531
  0.3128466058706156  0.1419271996285362  0.3636112510430697
  0.4376693251794745  0.1118718369362189  0.6396781445702824
  0.4376005683784089  0.0435640113584472  0.4803472698463208
  0.3127646954709635  0.2103877330871765  0.5228452055955680
  0.4375561254172466  0.3094128024358576  0.6399299789070680
  0.3124588246906026  0.2790526023513163  0.3637139746858915
  0.5627856953339009  0.1416473456621970  0.3639827952068253
  0.6874968610164177  0.1122508521516195  0.6394020115621561
  0.6875351959557281  0.0437639848885749  0.4803449717912899
  0.5624009649640557  0.2104881239401352  0.5227638030391830
  0.6876195297729856  0.3086171488571362  0.6394205948228454
  0.5623908443269070  0.2787389433827507  0.3634261416954696
  0.8126911790614505  0.1419190170313684  0.3636503893507642
  0.9377761549015375  0.1121810777062201  0.6394304436429062
  0.9376689077470501  0.0438865219305011  0.4803245203341940
  0.8125753483048255  0.2104280623348424  0.5226504762512819
  0.9375805208544515  0.3085084927001470  0.6392679803995374
  0.8123430673221970  0.2790343371270377  0.3635683997722817
  0.0624665229049738  0.4746981156179066  0.3636005362464080
  0.1873218046521449  0.4454905035634644  0.6396073178434729
  0.1875743588165363  0.3771587338816553  0.4803123592558713
  0.0624515267977629  0.5438002639251045  0.5223376487040209
  0.1866848385458315  0.6415829785166204  0.6389295223002739
  0.0622310408973782  0.6118054873120310  0.3629344769170231
  0.3123507207344890  0.4751607036547213  0.3631970397335172
  0.4373430855082332  0.4467364227105086  0.6387017898998841
  0.4374548386820567  0.3771546868332253  0.4803302263713702
  0.3124352905776519  0.5439559378640672  0.5223970791541754
  0.4377122999600453  0.6447335711589960  0.6398075761898173
  0.3121148827283123  0.6122887725004309  0.3631817722904433
  0.5625216892832561  0.4748638525126024  0.3635545716517904
  0.6872703750111345  0.4458084435114583  0.6393766634549124
  0.6874469130090978  0.3771561750639617  0.4803123497351289
  0.5623761544252662  0.5440580118294711  0.5223784537874100
  0.6883554966924593  0.6420441324139031  0.6391064581792969
  0.5623450473247414  0.6119944411303246  0.3629640589478829
  0.8124641150283647  0.4750065867594209  0.3632501431490165
  0.9372951560674515  0.4456324258739756  0.6393111421405497
  0.9375021457943506  0.3771047659825447  0.4802861204232910
  0.8123859021820522  0.5437795700197386  0.5222895250557524
  0.9376528945478955  0.6419763528466785  0.6389610749335527
  0.8122913964990620  0.6121180147669204  0.3631548899157918
  0.0625433260546530  0.8087599643184804  0.3631137914269283
  0.1866589309782801  0.7786394855608133  0.6390353227189896
  0.1866854434475266  0.7105826221511327  0.4794607065154642
  0.0626119742701870  0.8771986481353888  0.5221653993200596
  0.1879484137237142  0.9747852386751064  0.6393576740637140
  0.0625506995266901  0.9458975423840631  0.3628465260278628
  0.3125490186310346  0.8087319801805765  0.3629956670107092
  0.4368910346535669  0.7805913819682915  0.6360461962593198
  0.4373769957699261  0.7104127985205874  0.4795641932602385
  0.3123375615367332  0.8770418123334298  0.5221821560607681
  0.4380170750721012  0.9743095610269428  0.6389312469527487
  0.3126070272649064  0.9458923124051877  0.3631418053698006
  0.5627866092830801  0.8085775720446566  0.3632314279720351
  0.6877004760769013  0.7792802229953747  0.6385082416255390
  0.6884644780833885  0.7105524313549613  0.4793794842503987
  0.5628389994261060  0.8770729730965167  0.5221136772692974
  0.6880065531733658  0.9751397743437542  0.6395343063374521
  0.5624518784689720  0.9457193463586696  0.3630024400614920
  0.8127935027683302  0.8089122778316061  0.3629828307218645
  0.9372915984139444  0.7790802555778517  0.6389160802790730
  0.9375240846664713  0.7105783230326306  0.4796928227549229
  0.8127636945157611  0.8772352612867521  0.5221977699435643
  0.9379880026392166  0.9750809379277678  0.6393247197403191
  0.8125860507944627  0.9460589355236224  0.3630495841109404
  0.4146165321152019  0.7235357851470993  0.7723961837044543
  0.4321504587455943  0.8033439229671582  0.7393151363549193
  0.4811295801542281  0.7002542204749852  0.7813463728422301
 
  0.00000000E+00  0.00000000E+00  0.00000000E+00
  0.00000000E+00  0.00000000E+00  0.00000000E+00
  0.00000000E+00  0.00000000E+00  0.00000000E+00
  0.00000000E+00  0.00000000E+00  0.00000000E+00
  0.00000000E+00  0.00000000E+00  0.00000000E+00
  0.00000000E+00  0.00000000E+00  0.00000000E+00
  0.00000000E+00  0.00000000E+00  0.00000000E+00
  0.00000000E+00  0.00000000E+00  0.00000000E+00
  0.00000000E+00  0.00000000E+00  0.00000000E+00
  0.00000000E+00  0.00000000E+00  0.00000000E+00
  0.00000000E+00  0.00000000E+00  0.00000000E+00
  0.00000000E+00  0.00000000E+00  0.00000000E+00
  0.00000000E+00  0.00000000E+00  0.00000000E+00
  0.00000000E+00  0.00000000E+00  0.00000000E+00
  0.00000000E+00  0.00000000E+00  0.00000000E+00
  0.00000000E+00  0.00000000E+00  0.00000000E+00
  0.00000000E+00  0.00000000E+00  0.00000000E+00
  0.00000000E+00  0.00000000E+00  0.00000000E+00
  0.00000000E+00  0.00000000E+00  0.00000000E+00
  0.00000000E+00  0.00000000E+00  0.00000000E+00
  0.00000000E+00  0.00000000E+00  0.00000000E+00
  0.00000000E+00  0.00000000E+00  0.00000000E+00
  0.00000000E+00  0.00000000E+00  0.00000000E+00
  0.00000000E+00  0.00000000E+00  0.00000000E+00
  0.00000000E+00  0.00000000E+00  0.00000000E+00
  0.00000000E+00  0.00000000E+00  0.00000000E+00
  0.00000000E+00  0.00000000E+00  0.00000000E+00
  0.00000000E+00  0.00000000E+00  0.00000000E+00
  0.00000000E+00  0.00000000E+00  0.00000000E+00
  0.00000000E+00  0.00000000E+00  0.00000000E+00
  0.00000000E+00  0.00000000E+00  0.00000000E+00
  0.00000000E+00  0.00000000E+00  0.00000000E+00
  0.00000000E+00  0.00000000E+00  0.00000000E+00
  0.00000000E+00  0.00000000E+00  0.00000000E+00
  0.00000000E+00  0.00000000E+00  0.00000000E+00
  0.00000000E+00  0.00000000E+00  0.00000000E+00
  0.00000000E+00  0.00000000E+00  0.00000000E+00
  0.00000000E+00  0.00000000E+00  0.00000000E+00
  0.00000000E+00  0.00000000E+00  0.00000000E+00
  0.00000000E+00  0.00000000E+00  0.00000000E+00
  0.00000000E+00  0.00000000E+00  0.00000000E+00
  0.00000000E+00  0.00000000E+00  0.00000000E+00
  0.00000000E+00  0.00000000E+00  0.00000000E+00
  0.00000000E+00  0.00000000E+00  0.00000000E+00
  0.00000000E+00  0.00000000E+00  0.00000000E+00
  0.00000000E+00  0.00000000E+00  0.00000000E+00
  0.00000000E+00  0.00000000E+00  0.00000000E+00
  0.00000000E+00  0.00000000E+00  0.00000000E+00
  0.00000000E+00  0.00000000E+00  0.00000000E+00
  0.00000000E+00  0.00000000E+00  0.00000000E+00
  0.00000000E+00  0.00000000E+00  0.00000000E+00
  0.00000000E+00  0.00000000E+00  0.00000000E+00
  0.00000000E+00  0.00000000E+00  0.00000000E+00
  0.00000000E+00  0.00000000E+00  0.00000000E+00
  0.00000000E+00  0.00000000E+00  0.00000000E+00
  0.00000000E+00  0.00000000E+00  0.00000000E+00
  0.00000000E+00  0.00000000E+00  0.00000000E+00
  0.00000000E+00  0.00000000E+00  0.00000000E+00
  0.00000000E+00  0.00000000E+00  0.00000000E+00
  0.00000000E+00  0.00000000E+00  0.00000000E+00
  0.00000000E+00  0.00000000E+00  0.00000000E+00
  0.00000000E+00  0.00000000E+00  0.00000000E+00
  0.00000000E+00  0.00000000E+00  0.00000000E+00
  0.00000000E+00  0.00000000E+00  0.00000000E+00
  0.00000000E+00  0.00000000E+00  0.00000000E+00
  0.00000000E+00  0.00000000E+00  0.00000000E+00
  0.00000000E+00  0.00000000E+00  0.00000000E+00
  0.00000000E+00  0.00000000E+00  0.00000000E+00
  0.00000000E+00  0.00000000E+00  0.00000000E+00
  0.00000000E+00  0.00000000E+00  0.00000000E+00
  0.00000000E+00  0.00000000E+00  0.00000000E+00
  0.00000000E+00  0.00000000E+00  0.00000000E+00
  0.00000000E+00  0.00000000E+00  0.00000000E+00
  0.00000000E+00  0.00000000E+00  0.00000000E+00
  0.00000000E+00  0.00000000E+00  0.00000000E+00
  0.00000000E+00  0.00000000E+00  0.00000000E+00
  0.00000000E+00  0.00000000E+00  0.00000000E+00
  0.00000000E+00  0.00000000E+00  0.00000000E+00
  0.00000000E+00  0.00000000E+00  0.00000000E+00
  0.00000000E+00  0.00000000E+00  0.00000000E+00
  0.00000000E+00  0.00000000E+00  0.00000000E+00
  0.00000000E+00  0.00000000E+00  0.00000000E+00
  0.00000000E+00  0.00000000E+00  0.00000000E+00
  0.00000000E+00  0.00000000E+00  0.00000000E+00
  0.00000000E+00  0.00000000E+00  0.00000000E+00
  0.00000000E+00  0.00000000E+00  0.00000000E+00
  0.00000000E+00  0.00000000E+00  0.00000000E+00
  0.00000000E+00  0.00000000E+00  0.00000000E+00
  0.00000000E+00  0.00000000E+00  0.00000000E+00
  0.00000000E+00  0.00000000E+00  0.00000000E+00
  0.00000000E+00  0.00000000E+00  0.00000000E+00
  0.00000000E+00  0.00000000E+00  0.00000000E+00
  0.00000000E+00  0.00000000E+00  0.00000000E+00
  0.00000000E+00  0.00000000E+00  0.00000000E+00
  0.00000000E+00  0.00000000E+00  0.00000000E+00
  0.00000000E+00  0.00000000E+00  0.00000000E+00
  0.00000000E+00  0.00000000E+00  0.00000000E+00
  0.00000000E+00  0.00000000E+00  0.00000000E+00
  0.00000000E+00  0.00000000E+00  0.00000000E+00
