 Gd2 C1 Cl2                             
   1.00000000000000     
     3.7348499730564222    0.0000000000000000    0.0000000000000000
    -1.8674244919455361    3.2344756021209906    0.0000000000000000
     0.0000000000000000    0.0000000000000000   21.2590479658760003
   Gd   C    Cl
     2     1     2
Direct
  0.3333331650574226  0.6666668351236822  0.5643993265502719
  0.6666668382524610  0.3333331668748885  0.4356006738508616
 -0.0000000010449323 -0.0000000027592041  0.4999999995486432
  0.3333330782702042  0.6666669119927912  0.3529010584619526
  0.6666669194648445  0.3333330887678423  0.6470989415882706
 
  0.00000000E+00  0.00000000E+00  0.00000000E+00
  0.00000000E+00  0.00000000E+00  0.00000000E+00
  0.00000000E+00  0.00000000E+00  0.00000000E+00
  0.00000000E+00  0.00000000E+00  0.00000000E+00
  0.00000000E+00  0.00000000E+00  0.00000000E+00
