CONTCAR\(2)                             
   1.00000000000000     
     6.8951001167000001    0.0000000000000000    0.0000000000000000
     3.4475500584000001    5.9713318626999996    0.0000000000000000
     0.0000000000000000    0.0000000000000000   18.3700008391999994
   Nb   Se
     4     8
Direct
  0.1666699969999996  0.1666700000000034  0.5000200389999989
  0.6666699969999996  0.1666700000000034  0.5000200389999989
  0.1666699649999970  0.6666700970000008  0.5000200389999989
  0.6666700000000034  0.6666700970000008  0.5000200389999989
  0.3333299769999982  0.3333300179999981  0.5917000119999969
  0.3333299769999982  0.3333300179999981  0.4083299939999989
  0.8333298740000004  0.3333300179999981  0.5917000119999969
  0.8333298740000004  0.3333300179999981  0.4083299939999989
  0.3333299709999977  0.8333299960000033  0.5917000119999969
  0.3333299709999977  0.8333299960000033  0.4083299939999989
  0.8333297980000012  0.8333299960000033  0.5917000119999969
  0.8333297980000012  0.8333299960000033  0.4083299939999989
 
  0.00000000E+00  0.00000000E+00  0.00000000E+00
  0.00000000E+00  0.00000000E+00  0.00000000E+00
  0.00000000E+00  0.00000000E+00  0.00000000E+00
  0.00000000E+00  0.00000000E+00  0.00000000E+00
  0.00000000E+00  0.00000000E+00  0.00000000E+00
  0.00000000E+00  0.00000000E+00  0.00000000E+00
  0.00000000E+00  0.00000000E+00  0.00000000E+00
  0.00000000E+00  0.00000000E+00  0.00000000E+00
  0.00000000E+00  0.00000000E+00  0.00000000E+00
  0.00000000E+00  0.00000000E+00  0.00000000E+00
  0.00000000E+00  0.00000000E+00  0.00000000E+00
  0.00000000E+00  0.00000000E+00  0.00000000E+00
