Tl2 Cu3 Se6 O18                         
   1.00000000000000     
     4.7711179743232632    0.0237934925485354    0.0029815976175153
     1.8127141070755346    9.5962464345206318    0.0297814216241139
     1.3982516760910324    3.6601365568945932    9.2799841874342572
   Tl   Cu   Se   O 
     2     3     6    18
Direct
  0.4414136135821343  0.3144844280985294  0.6791275686974855
  0.5585864114178644  0.6855155909014755  0.3208724503025124
  0.2055612030808995  0.5289538093679387  0.0876372734730137
  0.7944387069191001  0.4710462636320567  0.9123627325269867
 -0.0000000000000000 -0.0000000000000000 -0.0000000000000000
  0.6187856431724561  0.7884660381313618  0.9587741534534386
  0.9117510277705625  0.9254734461570276  0.3542136881854061
  0.0882488952294346  0.0745265628429696  0.6457863558145905
  0.3056033000643125  0.6481833564957916  0.6748986848445094
  0.6943967469356878  0.3518166215042067  0.3251013091554897
  0.3812142958275496  0.2115339158686414  0.0412259065465593
  0.9002616729881471  0.6442764610304558  0.9539803767958152
  0.5800992407455824  0.5799390159191297  0.5758264453087367
  0.2645646446402601  0.1458217800670820  0.9216362501219798
  0.9801912465316533  0.0395219235589598  0.1759439961454891
  0.0997382570118543  0.3557235649695463  0.0460196202041811
  0.4199007872544202  0.4200610120808655  0.4241735476912661
  0.8755855130135111  0.5063171177475750  0.2696573513714938
  0.3698963781570994  0.6964715130646939  0.0955313950260990
  0.7354353093597431  0.8541782129329211  0.0783637058780235
  0.4783646040859403  0.6237264219301526  0.8237189684996602
  0.4401155454452658  0.1007339432190589  0.6358951969519551
  0.5216353969140562  0.3762735660698536  0.1762809995003369
  0.9329750789307335  0.2535840990013695  0.6355135359801234
  0.5598844595547382  0.8992660547809409  0.3641047450480472
  0.0670249040692688  0.7464159379986300  0.3644864320198739
  0.0198087264683482  0.9604781014410386  0.8240560228545158
  0.1244144749864878  0.4936829992524239  0.7303426676285044
  0.6301035558428952  0.3035285239353055  0.9044685729739054
 
  0.00000000E+00  0.00000000E+00  0.00000000E+00
  0.00000000E+00  0.00000000E+00  0.00000000E+00
  0.00000000E+00  0.00000000E+00  0.00000000E+00
  0.00000000E+00  0.00000000E+00  0.00000000E+00
  0.00000000E+00  0.00000000E+00  0.00000000E+00
  0.00000000E+00  0.00000000E+00  0.00000000E+00
  0.00000000E+00  0.00000000E+00  0.00000000E+00
  0.00000000E+00  0.00000000E+00  0.00000000E+00
  0.00000000E+00  0.00000000E+00  0.00000000E+00
  0.00000000E+00  0.00000000E+00  0.00000000E+00
  0.00000000E+00  0.00000000E+00  0.00000000E+00
  0.00000000E+00  0.00000000E+00  0.00000000E+00
  0.00000000E+00  0.00000000E+00  0.00000000E+00
  0.00000000E+00  0.00000000E+00  0.00000000E+00
  0.00000000E+00  0.00000000E+00  0.00000000E+00
  0.00000000E+00  0.00000000E+00  0.00000000E+00
  0.00000000E+00  0.00000000E+00  0.00000000E+00
  0.00000000E+00  0.00000000E+00  0.00000000E+00
  0.00000000E+00  0.00000000E+00  0.00000000E+00
  0.00000000E+00  0.00000000E+00  0.00000000E+00
  0.00000000E+00  0.00000000E+00  0.00000000E+00
  0.00000000E+00  0.00000000E+00  0.00000000E+00
  0.00000000E+00  0.00000000E+00  0.00000000E+00
  0.00000000E+00  0.00000000E+00  0.00000000E+00
  0.00000000E+00  0.00000000E+00  0.00000000E+00
  0.00000000E+00  0.00000000E+00  0.00000000E+00
  0.00000000E+00  0.00000000E+00  0.00000000E+00
  0.00000000E+00  0.00000000E+00  0.00000000E+00
  0.00000000E+00  0.00000000E+00  0.00000000E+00
