K-Spacing Value to Generate K-Mesh: 0.030
0
Gamma
   7   4   4
0.0  0.0  0.0
