CONTCAR\(11)                            
   1.00000000000000     
    12.8708000183000006    0.0000000000000000    0.0000000000000000
     0.0000000000000000   12.8761997223000009    0.0000000000000000
     0.0000000000000000    0.0000000000000000   24.0524005890000012
   Pr   Te   Se   O    H 
    18    36    18     1     1
Direct
  0.1649591499222538  0.0001599165909736  0.5766344951578752
  0.0003713512403533  0.1672210742896641  0.4213870763639181
  0.4993656868406200  0.0008066331907326  0.5772487956156862
  0.3339496710012746  0.1667511758715308  0.4214675587175072
  0.8334626286861072  0.0004077444080003  0.5762339759322453
  0.6670992678567697  0.1664611210439788  0.4208986999028804
  0.1678818000914681  0.3337774613714278  0.5766710051826460
  0.0005427062801952  0.5005539524799529  0.4215921998084299
  0.5029755692392485  0.3281252365519166  0.5744051557709677
  0.3340876502399710  0.5002664739137603  0.4223987498513626
  0.8353904619522468  0.3335150239260100  0.5761669753716707
  0.6671838048481685  0.5005186987198410  0.4218776342196383
  0.1665635437135639  0.6663805830500239  0.5764415779110296
  0.0005415094946565  0.8336152900981835  0.4214205532136638
  0.5019491824333322  0.6730703897128372  0.5742115749976775
  0.3339046132283773  0.8342997040419932  0.4213034590221227
  0.8344396734070215  0.6672531786570353  0.5764340408392294
  0.6672491800396991  0.8342131424656479  0.4210839869846289
  0.1701224840403216  0.1678673424077302  0.6857282021662368
  0.0004437345377290  0.0002154014421747  0.3116096267742449
  0.1668851933662143  0.1670484131091940  0.3117823521382284
  0.9953103675088375  0.0024292745079008  0.6862045747109833
  0.5037842392227704  0.1685713245429094  0.6884590368939655
  0.3338867755525035  0.0004781530521474  0.3116738488665385
  0.5004541299113254  0.1669492015051394  0.3113538855222210
  0.3295046775349428  0.0026093041414691  0.6868634444038316
  0.8367206744790838  0.1668262650221888  0.6866661501719162
  0.6672239074790656  0.0004519936425359  0.3112877929762354
  0.8338359855929468  0.1670050095063853  0.3113989731590142
  0.6655105155011604 -0.0019362988700627  0.6865758888801462
  0.1651289868343345  0.4982842649696881  0.6866712673046902
  0.0004412392035745  0.3339586943587771  0.3118510201475009
  0.1675135692319714  0.5002866634216708  0.3121054107450771
  0.0036083183820532  0.3357364605276664  0.6870006805101077
  0.4897426033475228  0.5013788477831054  0.7346579645500778
  0.3335601817945019  0.3335998473308694  0.3120505135700750
  0.5003673647932781  0.5002609851053123  0.3125394134776663
  0.3473151013388658  0.3376138973828309  0.6913439574517407
  0.8274696851334625  0.5018964943245213  0.6870465631425688
  0.6671277210241197  0.3336538747882273  0.3114966009578686
  0.8338660978830481  0.5003128102510722  0.3119299564178662
  0.6654201660956878  0.3372058402516714  0.6827285663773368
  0.1731144770309650  0.8305961779582746  0.6863800549561616
  0.0005371207061655  0.6667138870649795  0.3118737745577850
  0.1670082325765930  0.8335564780886962  0.3117148981878526
  0.0005765612500041  0.6685497149537688  0.6870673984481093
  0.5046274542776968  0.8355935988808826  0.6874989906725378
  0.3337183212205709  0.6668054904927045  0.3119765783413430
  0.5002535352345646  0.8338675512113162  0.3114500384505084
  0.3368906663702765  0.6680167768082588  0.6873174702223703
  0.8371188270793903  0.8324759538964467  0.6868828667116598
  0.6669657598665191  0.6670492570715940  0.3116840263284859
  0.8337038803643672  0.8335566808499568  0.3114787683688031
  0.6623459909792699  0.6605866472668278  0.6871647223008746
  0.1672269403813261  0.0005867780064597  0.4511174226227652
  0.0008478508335017  0.1679991685484967  0.5472707282792086
  0.5002946907667137  0.0003800957878338  0.4513859370877373
  0.3340522787235544  0.1677303179742574  0.5481636665537197
  0.8343834508304093  0.0001564566391118  0.4507505401927724
  0.6676091851003337  0.1653948282319481  0.5469528271129844
  0.1676310963075214  0.3343376724390772  0.4513564697731685
  0.0003028208503240  0.5005340516575173  0.5477781344728764
  0.5008421816811949  0.3326822522018701  0.4501684416345169
  0.3394300877604304  0.5001044148408957  0.5498606973878400
  0.8331707951424557  0.3340445498153830  0.4509111556112609
  0.6631996315387886  0.5010334109726209  0.5484500583959522
  0.1677098322275300  0.6664861229301619  0.4512098526585607
  0.0007961638390655  0.8330841242844803  0.5474781069549156
  0.5005094685282355  0.6683671612107195  0.4502929018747840
  0.3335959978163753  0.8341275566064684  0.5477211689174468
  0.8335880815400573  0.6669012484298694  0.4510892799671591
  0.6677354530320181  0.8341687796319925  0.5474607266484577
  0.4202285412940567  0.5395223417840641  0.8068693612085336
  0.3663636945450335  0.5913895345744480  0.7985308379195580
 
  0.00000000E+00  0.00000000E+00  0.00000000E+00
  0.00000000E+00  0.00000000E+00  0.00000000E+00
  0.00000000E+00  0.00000000E+00  0.00000000E+00
  0.00000000E+00  0.00000000E+00  0.00000000E+00
  0.00000000E+00  0.00000000E+00  0.00000000E+00
  0.00000000E+00  0.00000000E+00  0.00000000E+00
  0.00000000E+00  0.00000000E+00  0.00000000E+00
  0.00000000E+00  0.00000000E+00  0.00000000E+00
  0.00000000E+00  0.00000000E+00  0.00000000E+00
  0.00000000E+00  0.00000000E+00  0.00000000E+00
  0.00000000E+00  0.00000000E+00  0.00000000E+00
  0.00000000E+00  0.00000000E+00  0.00000000E+00
  0.00000000E+00  0.00000000E+00  0.00000000E+00
  0.00000000E+00  0.00000000E+00  0.00000000E+00
  0.00000000E+00  0.00000000E+00  0.00000000E+00
  0.00000000E+00  0.00000000E+00  0.00000000E+00
  0.00000000E+00  0.00000000E+00  0.00000000E+00
  0.00000000E+00  0.00000000E+00  0.00000000E+00
  0.00000000E+00  0.00000000E+00  0.00000000E+00
  0.00000000E+00  0.00000000E+00  0.00000000E+00
  0.00000000E+00  0.00000000E+00  0.00000000E+00
  0.00000000E+00  0.00000000E+00  0.00000000E+00
  0.00000000E+00  0.00000000E+00  0.00000000E+00
  0.00000000E+00  0.00000000E+00  0.00000000E+00
  0.00000000E+00  0.00000000E+00  0.00000000E+00
  0.00000000E+00  0.00000000E+00  0.00000000E+00
  0.00000000E+00  0.00000000E+00  0.00000000E+00
  0.00000000E+00  0.00000000E+00  0.00000000E+00
  0.00000000E+00  0.00000000E+00  0.00000000E+00
  0.00000000E+00  0.00000000E+00  0.00000000E+00
  0.00000000E+00  0.00000000E+00  0.00000000E+00
  0.00000000E+00  0.00000000E+00  0.00000000E+00
  0.00000000E+00  0.00000000E+00  0.00000000E+00
  0.00000000E+00  0.00000000E+00  0.00000000E+00
  0.00000000E+00  0.00000000E+00  0.00000000E+00
  0.00000000E+00  0.00000000E+00  0.00000000E+00
  0.00000000E+00  0.00000000E+00  0.00000000E+00
  0.00000000E+00  0.00000000E+00  0.00000000E+00
  0.00000000E+00  0.00000000E+00  0.00000000E+00
  0.00000000E+00  0.00000000E+00  0.00000000E+00
  0.00000000E+00  0.00000000E+00  0.00000000E+00
  0.00000000E+00  0.00000000E+00  0.00000000E+00
  0.00000000E+00  0.00000000E+00  0.00000000E+00
  0.00000000E+00  0.00000000E+00  0.00000000E+00
  0.00000000E+00  0.00000000E+00  0.00000000E+00
  0.00000000E+00  0.00000000E+00  0.00000000E+00
  0.00000000E+00  0.00000000E+00  0.00000000E+00
  0.00000000E+00  0.00000000E+00  0.00000000E+00
  0.00000000E+00  0.00000000E+00  0.00000000E+00
  0.00000000E+00  0.00000000E+00  0.00000000E+00
  0.00000000E+00  0.00000000E+00  0.00000000E+00
  0.00000000E+00  0.00000000E+00  0.00000000E+00
  0.00000000E+00  0.00000000E+00  0.00000000E+00
  0.00000000E+00  0.00000000E+00  0.00000000E+00
  0.00000000E+00  0.00000000E+00  0.00000000E+00
  0.00000000E+00  0.00000000E+00  0.00000000E+00
  0.00000000E+00  0.00000000E+00  0.00000000E+00
  0.00000000E+00  0.00000000E+00  0.00000000E+00
  0.00000000E+00  0.00000000E+00  0.00000000E+00
  0.00000000E+00  0.00000000E+00  0.00000000E+00
  0.00000000E+00  0.00000000E+00  0.00000000E+00
  0.00000000E+00  0.00000000E+00  0.00000000E+00
  0.00000000E+00  0.00000000E+00  0.00000000E+00
  0.00000000E+00  0.00000000E+00  0.00000000E+00
  0.00000000E+00  0.00000000E+00  0.00000000E+00
  0.00000000E+00  0.00000000E+00  0.00000000E+00
  0.00000000E+00  0.00000000E+00  0.00000000E+00
  0.00000000E+00  0.00000000E+00  0.00000000E+00
  0.00000000E+00  0.00000000E+00  0.00000000E+00
  0.00000000E+00  0.00000000E+00  0.00000000E+00
  0.00000000E+00  0.00000000E+00  0.00000000E+00
  0.00000000E+00  0.00000000E+00  0.00000000E+00
  0.00000000E+00  0.00000000E+00  0.00000000E+00
  0.00000000E+00  0.00000000E+00  0.00000000E+00
