CONTCAR\(11)                            
   1.00000000000000     
    15.5289001464999998    0.0000000000000000    0.0000000000000000
     0.0000000000000000   11.7992000580000003    0.0000000000000000
     0.0000000000000000    0.0000000000000000   21.8141002654999987
   Hf   Te   O    H 
    16    48     1     1
Selective dynamics
Direct
  0.1888530434937223  0.3271869864495685  0.4225611188331371   F   F   F
  0.0644177606361609  0.0796384068745652  0.5773743620967480   F   F   F
  0.4394080313747608  0.3287013866140356  0.4265082265456428   F   F   F
  0.3142392516544490  0.0815653640286627  0.5796868195462679   F   F   F
  0.6877987195946815  0.3297623537869541  0.4263584832826908   F   F   F
  0.5627379372710521  0.0810579289479634  0.5797770668687718   F   F   F
  0.9380988111220674  0.3278366984100458  0.4230093180974634   F   F   F
  0.8144519573617828  0.0796582082588770  0.5781775975472669   F   F   F
  0.1902226045944673  0.8296081996435873  0.4228551870575856   F   F   F
  0.0632676361249835  0.5772212667615690  0.5717321426562023   F   F   F
  0.4396578832351139  0.8302586906546452  0.4259937383088968   F   F   F
  0.3088082505280241  0.5770115985165276  0.5747806181717650   F   F   F
  0.6900086947181876  0.8305565718905257  0.4254320867146291   F   F   F
  0.5668555146550389  0.5918233912691875  0.5851076460414859   F   F   F
  0.9400959257066503  0.8290177921311113  0.4237984711978626   F   F   F
  0.8177354416963709  0.5790712253939816  0.5755526648459295   F   F   F
  0.1897582076372046  0.0790425859823785  0.4765027763896512   F   F   F
  0.0636351236385764  0.3266903059700113  0.5232953707578716   F   F   F
  0.1823368610215894  0.4545406773720089  0.6503721416963018   F   F   F
  0.0634661161384216  0.4492900973979062  0.3451842160081213   F   F   F
  0.1878066543361854  0.1983176515690417  0.6592827714942189   F   F   F
  0.0634586705889433  0.2089240581403331  0.3432825629713889   F   F   F
  0.4386800639183690  0.0800257732678347  0.4780883016286737   F   F   F
  0.3117597949369610  0.3276565771164925  0.5246117378680424   F   F   F
  0.4313028529823342  0.4626185461667589  0.6540953839503132   F   F   F
  0.3156980346248730  0.4503180975055088  0.3479776923820594   F   F   F
  0.4395270823944557  0.2046795837646087  0.6575958040542744   F   F   F
  0.3159914065394887  0.2098785779818613  0.3446564824813976   F   F   F
  0.6885430344334580  0.0813441886536594  0.4782979491368380   F   F   F
  0.5635278750652830  0.3284999493868881  0.5281483130476730   F   F   F
  0.6865242690297606  0.4638490465758736  0.6579029844524484   F   F   F
  0.5628799970280127  0.4516788718398530  0.3496665101707421   F   F   F
  0.6921686801617781  0.1975389770357978  0.6592987209136822   F   F   F
  0.5642227282848182  0.2111196671853222  0.3465375172250944   F   F   F
  0.9387948085487068  0.0790908653063127  0.4765435678016772   F   F   F
  0.8148208943932360  0.3286009203312759  0.5256327613909306   F   F   F
  0.9369823214976876  0.4585534706199681  0.6538164044670367   F   F   F
  0.8111831735684092  0.4502852501046419  0.3470992376097470   F   F   F
  0.9415127897431361  0.1979757571242260  0.6572441793851880   F   F   F
  0.8119587373367381  0.2096118338819508  0.3460660958364485   F   F   F
  0.1887633171234384  0.5795224482050685  0.4735723299136296   F   F   F
  0.0659725307276275  0.8280245467875886  0.5241581124378740   F   F   F
  0.1876691877542243  0.9577229865925148  0.6536537807334994   F   F   F
  0.0646131100135960  0.9501889161553194  0.3463708919309099   F   F   F
  0.1838406118912204  0.6970693079076824  0.6718902017462369   F   F   F
  0.0646625010944533  0.7100211694448788  0.3432549485574228   F   F   F
  0.4420547374188573  0.5828593003355635  0.4811539820156909   F   F   F
  0.3123494554070092  0.8283135176473522  0.5252690601324730   F   F   F
  0.4351556517763555  0.9603482507737979  0.6570874252795846   F   F   F
  0.3157742282692269  0.9503884525146091  0.3466588076572350   F   F   F
  0.3658043632043544  0.7043163730026833  0.6805178973132797   F   F   F
  0.3170022508495265  0.7099271364486839  0.3452752402195287   F   F   F
  0.6887040870995023  0.5817682611572295  0.4795145239586418   F   F   F
  0.5660399598945247  0.8344542319028534  0.5260936770955098   F   F   F
  0.6877811085841898  0.9585582810263702  0.6565751762244076   F   F   F
  0.5645791382812106  0.9514581754569491  0.3479230694446329   F   F   F
  0.7215045744585495  0.6974917346070484  0.6664187166652624   F   F   F
  0.5648875278327807  0.7112907379477917  0.3470911675078128   F   F   F
  0.9393605683402626  0.5778977315397924  0.4739861057004404   F   F   F
  0.8165955786478065  0.8293235427267547  0.5255305775028845   F   F   F
  0.9383798397421828  0.9578458149939948  0.6550139822862988   F   F   F
  0.8142363483779036  0.9503029474013474  0.3471860396875215   F   F   F
  0.9567235132815739  0.6968473345166402  0.6578902709881334   F   F   F
  0.8140086214350433  0.7095159566692004  0.3458443455268281   F   F   F
  0.5227686063794366  0.6930728735087044  0.6528009979796678   T   T   T
  0.5466409554991785  0.7688625988172147  0.6587653109268955   T   T   T
 
  0.00000000E+00  0.00000000E+00  0.00000000E+00
  0.00000000E+00  0.00000000E+00  0.00000000E+00
  0.00000000E+00  0.00000000E+00  0.00000000E+00
  0.00000000E+00  0.00000000E+00  0.00000000E+00
  0.00000000E+00  0.00000000E+00  0.00000000E+00
  0.00000000E+00  0.00000000E+00  0.00000000E+00
  0.00000000E+00  0.00000000E+00  0.00000000E+00
  0.00000000E+00  0.00000000E+00  0.00000000E+00
  0.00000000E+00  0.00000000E+00  0.00000000E+00
  0.00000000E+00  0.00000000E+00  0.00000000E+00
  0.00000000E+00  0.00000000E+00  0.00000000E+00
  0.00000000E+00  0.00000000E+00  0.00000000E+00
  0.00000000E+00  0.00000000E+00  0.00000000E+00
  0.00000000E+00  0.00000000E+00  0.00000000E+00
  0.00000000E+00  0.00000000E+00  0.00000000E+00
  0.00000000E+00  0.00000000E+00  0.00000000E+00
  0.00000000E+00  0.00000000E+00  0.00000000E+00
  0.00000000E+00  0.00000000E+00  0.00000000E+00
  0.00000000E+00  0.00000000E+00  0.00000000E+00
  0.00000000E+00  0.00000000E+00  0.00000000E+00
  0.00000000E+00  0.00000000E+00  0.00000000E+00
  0.00000000E+00  0.00000000E+00  0.00000000E+00
  0.00000000E+00  0.00000000E+00  0.00000000E+00
  0.00000000E+00  0.00000000E+00  0.00000000E+00
  0.00000000E+00  0.00000000E+00  0.00000000E+00
  0.00000000E+00  0.00000000E+00  0.00000000E+00
  0.00000000E+00  0.00000000E+00  0.00000000E+00
  0.00000000E+00  0.00000000E+00  0.00000000E+00
  0.00000000E+00  0.00000000E+00  0.00000000E+00
  0.00000000E+00  0.00000000E+00  0.00000000E+00
  0.00000000E+00  0.00000000E+00  0.00000000E+00
  0.00000000E+00  0.00000000E+00  0.00000000E+00
  0.00000000E+00  0.00000000E+00  0.00000000E+00
  0.00000000E+00  0.00000000E+00  0.00000000E+00
  0.00000000E+00  0.00000000E+00  0.00000000E+00
  0.00000000E+00  0.00000000E+00  0.00000000E+00
  0.00000000E+00  0.00000000E+00  0.00000000E+00
  0.00000000E+00  0.00000000E+00  0.00000000E+00
  0.00000000E+00  0.00000000E+00  0.00000000E+00
  0.00000000E+00  0.00000000E+00  0.00000000E+00
  0.00000000E+00  0.00000000E+00  0.00000000E+00
  0.00000000E+00  0.00000000E+00  0.00000000E+00
  0.00000000E+00  0.00000000E+00  0.00000000E+00
  0.00000000E+00  0.00000000E+00  0.00000000E+00
  0.00000000E+00  0.00000000E+00  0.00000000E+00
  0.00000000E+00  0.00000000E+00  0.00000000E+00
  0.00000000E+00  0.00000000E+00  0.00000000E+00
  0.00000000E+00  0.00000000E+00  0.00000000E+00
  0.00000000E+00  0.00000000E+00  0.00000000E+00
  0.00000000E+00  0.00000000E+00  0.00000000E+00
  0.00000000E+00  0.00000000E+00  0.00000000E+00
  0.00000000E+00  0.00000000E+00  0.00000000E+00
  0.00000000E+00  0.00000000E+00  0.00000000E+00
  0.00000000E+00  0.00000000E+00  0.00000000E+00
  0.00000000E+00  0.00000000E+00  0.00000000E+00
  0.00000000E+00  0.00000000E+00  0.00000000E+00
  0.00000000E+00  0.00000000E+00  0.00000000E+00
  0.00000000E+00  0.00000000E+00  0.00000000E+00
  0.00000000E+00  0.00000000E+00  0.00000000E+00
  0.00000000E+00  0.00000000E+00  0.00000000E+00
  0.00000000E+00  0.00000000E+00  0.00000000E+00
  0.00000000E+00  0.00000000E+00  0.00000000E+00
  0.00000000E+00  0.00000000E+00  0.00000000E+00
  0.00000000E+00  0.00000000E+00  0.00000000E+00
  0.00000000E+00  0.00000000E+00  0.00000000E+00
  0.00000000E+00  0.00000000E+00  0.00000000E+00
