 Cr1 S2                                 
   1.00000000000000     
     3.2723975943364851    0.0000000000000000    0.0000000000000000
     1.6343230782030378    2.8342169677290387    0.0000000000000000
     0.0000000000000000    0.0000000000000000   17.7437823564039974
   Cr   S 
     1     2
Direct
  0.0000109179916922 -0.0000191615569923  0.4999999552857239
  0.3334320717495594  0.3333453342536114  0.4219976348968595
  0.6666005449315399  0.6665866580279700  0.5780024098174167
 
  0.00000000E+00  0.00000000E+00  0.00000000E+00
  0.00000000E+00  0.00000000E+00  0.00000000E+00
  0.00000000E+00  0.00000000E+00  0.00000000E+00
