CONTCAR\(12)                            
   1.00000000000000     
    12.9062995910999998    0.0000000000000000    0.0000000000000000
     6.4531410738000003   11.1773039768999993    0.0000000000000000
     0.0000000000000000    0.0000000000000000   25.2430000304999993
   Bi   Se
    27    36
Direct
  0.0000000000000000  0.0000000000000000  0.5000400090000028
  0.1111099949999996  0.1111100079999972  0.3547521826041091
  0.2222199899999993  0.2222200169999979  0.6452777773958900
  0.3333299960000033  0.0000000000000000  0.5000400090000028
  0.4444400089999974  0.1111100079999972  0.3547521826041091
  0.5555599610000002  0.2222200169999979  0.6452777773958900
  0.6666700410000033  0.0000000000000000  0.5000400090000028
  0.7777799810000019  0.1111100079999972  0.3547521826041091
  0.8888900680000020  0.2222200169999979  0.6452777773958900
  0.9999999939999995  0.3333300139999977  0.5000400090000028
  0.1111099840000023  0.4444400329999993  0.3547521826041091
  0.2222200100000009  0.5555599930000028  0.6452777773958900
  0.3333299720000014  0.3333300139999977  0.5000400090000028
  0.4444399799999985  0.4444400329999993  0.3547521826041091
  0.5555600180000013  0.5555599930000028  0.6452777773958900
  0.6666700540000008  0.3333300139999977  0.5000400090000028
  0.7777799879999989  0.4444400329999993  0.3547521826041091
  0.8888900509999971  0.5555599930000028  0.6452777773958900
  0.0000000009999965  0.6666700540000008  0.5000400090000028
  0.1111100139999976  0.7777799879999989  0.3547521826041091
  0.2222200009999966  0.8888900500000005  0.6452777773958900
  0.3333299960000033  0.6666700540000008  0.5000400090000028
  0.4444399730000015  0.7777799879999989  0.3547521826041091
  0.5555600089999970  0.8888900500000005  0.6452777773958900
  0.6666700050000003  0.6666700540000008  0.5000400090000028
  0.7777799819999984  0.7777799879999989  0.3547521826041091
  0.8888900419999999  0.8888900500000005  0.6452777773958900
  0.0000000000000000  0.0000000000000000  0.2983695943584124
  0.0000000000000000  0.0000000000000000  0.7016104766415836
  0.1111099949999996  0.1111100079999972  0.5658329022167763
  0.2222199899999993  0.2222200169999979  0.4341270887832209
  0.3333299960000033  0.0000000000000000  0.2983695943584124
  0.3333299960000033  0.0000000000000000  0.7016104766415836
  0.4444400089999974  0.1111100079999972  0.5658329022167763
  0.5555599610000002  0.2222200169999979  0.4341270887832209
  0.6666700410000033  0.0000000000000000  0.2983695943584124
  0.6666700410000033  0.0000000000000000  0.7016104766415836
  0.7777799810000019  0.1111100079999972  0.5658329022167763
  0.8888900680000020  0.2222200169999979  0.4341270887832209
  0.9999999939999995  0.3333300139999977  0.2983695943584124
  0.9999999939999995  0.3333300139999977  0.7016104766415836
  0.1111099840000023  0.4444400329999993  0.5658329022167763
  0.2222200100000009  0.5555599930000028  0.4341270887832209
  0.3333299720000014  0.3333300139999977  0.2983695943584124
  0.3333299720000014  0.3333300139999977  0.7016104766415836
  0.4444399799999985  0.4444400329999993  0.5658329022167763
  0.5555600180000013  0.5555599930000028  0.4341270887832209
  0.6666700540000008  0.3333300139999977  0.2983695943584124
  0.6666700540000008  0.3333300139999977  0.7016104766415836
  0.7777799879999989  0.4444400329999993  0.5658329022167763
  0.8888900509999971  0.5555599930000028  0.4341270887832209
  0.0000000009999965  0.6666700540000008  0.2983695943584124
  0.0000000009999965  0.6666700540000008  0.7016104766415836
  0.1111100139999976  0.7777799879999989  0.5658329022167763
  0.2222200009999966  0.8888900500000005  0.4341270887832209
  0.3333299960000033  0.6666700540000008  0.2983695943584124
  0.3333299960000033  0.6666700540000008  0.7016104766415836
  0.4444399730000015  0.7777799879999989  0.5658329022167763
  0.5555600089999970  0.8888900500000005  0.4341270887832209
  0.6666700050000003  0.6666700540000008  0.2983695943584124
  0.6666700050000003  0.6666700540000008  0.7016104766415836
  0.7777799819999984  0.7777799879999989  0.5658329022167763
  0.8888900419999999  0.8888900500000005  0.4341270887832209
 
  0.00000000E+00  0.00000000E+00  0.00000000E+00
  0.00000000E+00  0.00000000E+00  0.00000000E+00
  0.00000000E+00  0.00000000E+00  0.00000000E+00
  0.00000000E+00  0.00000000E+00  0.00000000E+00
  0.00000000E+00  0.00000000E+00  0.00000000E+00
  0.00000000E+00  0.00000000E+00  0.00000000E+00
  0.00000000E+00  0.00000000E+00  0.00000000E+00
  0.00000000E+00  0.00000000E+00  0.00000000E+00
  0.00000000E+00  0.00000000E+00  0.00000000E+00
  0.00000000E+00  0.00000000E+00  0.00000000E+00
  0.00000000E+00  0.00000000E+00  0.00000000E+00
  0.00000000E+00  0.00000000E+00  0.00000000E+00
  0.00000000E+00  0.00000000E+00  0.00000000E+00
  0.00000000E+00  0.00000000E+00  0.00000000E+00
  0.00000000E+00  0.00000000E+00  0.00000000E+00
  0.00000000E+00  0.00000000E+00  0.00000000E+00
  0.00000000E+00  0.00000000E+00  0.00000000E+00
  0.00000000E+00  0.00000000E+00  0.00000000E+00
  0.00000000E+00  0.00000000E+00  0.00000000E+00
  0.00000000E+00  0.00000000E+00  0.00000000E+00
  0.00000000E+00  0.00000000E+00  0.00000000E+00
  0.00000000E+00  0.00000000E+00  0.00000000E+00
  0.00000000E+00  0.00000000E+00  0.00000000E+00
  0.00000000E+00  0.00000000E+00  0.00000000E+00
  0.00000000E+00  0.00000000E+00  0.00000000E+00
  0.00000000E+00  0.00000000E+00  0.00000000E+00
  0.00000000E+00  0.00000000E+00  0.00000000E+00
  0.00000000E+00  0.00000000E+00  0.00000000E+00
  0.00000000E+00  0.00000000E+00  0.00000000E+00
  0.00000000E+00  0.00000000E+00  0.00000000E+00
  0.00000000E+00  0.00000000E+00  0.00000000E+00
  0.00000000E+00  0.00000000E+00  0.00000000E+00
  0.00000000E+00  0.00000000E+00  0.00000000E+00
  0.00000000E+00  0.00000000E+00  0.00000000E+00
  0.00000000E+00  0.00000000E+00  0.00000000E+00
  0.00000000E+00  0.00000000E+00  0.00000000E+00
  0.00000000E+00  0.00000000E+00  0.00000000E+00
  0.00000000E+00  0.00000000E+00  0.00000000E+00
  0.00000000E+00  0.00000000E+00  0.00000000E+00
  0.00000000E+00  0.00000000E+00  0.00000000E+00
  0.00000000E+00  0.00000000E+00  0.00000000E+00
  0.00000000E+00  0.00000000E+00  0.00000000E+00
  0.00000000E+00  0.00000000E+00  0.00000000E+00
  0.00000000E+00  0.00000000E+00  0.00000000E+00
  0.00000000E+00  0.00000000E+00  0.00000000E+00
  0.00000000E+00  0.00000000E+00  0.00000000E+00
  0.00000000E+00  0.00000000E+00  0.00000000E+00
  0.00000000E+00  0.00000000E+00  0.00000000E+00
  0.00000000E+00  0.00000000E+00  0.00000000E+00
  0.00000000E+00  0.00000000E+00  0.00000000E+00
  0.00000000E+00  0.00000000E+00  0.00000000E+00
  0.00000000E+00  0.00000000E+00  0.00000000E+00
  0.00000000E+00  0.00000000E+00  0.00000000E+00
  0.00000000E+00  0.00000000E+00  0.00000000E+00
  0.00000000E+00  0.00000000E+00  0.00000000E+00
  0.00000000E+00  0.00000000E+00  0.00000000E+00
  0.00000000E+00  0.00000000E+00  0.00000000E+00
  0.00000000E+00  0.00000000E+00  0.00000000E+00
  0.00000000E+00  0.00000000E+00  0.00000000E+00
  0.00000000E+00  0.00000000E+00  0.00000000E+00
  0.00000000E+00  0.00000000E+00  0.00000000E+00
  0.00000000E+00  0.00000000E+00  0.00000000E+00
  0.00000000E+00  0.00000000E+00  0.00000000E+00
