CONTCAR\(2)                             
   1.00000000000000     
    13.4193000792999992    0.0000000000000000    0.0000000000000000
    -6.7096904058000000   11.6164658410000001    0.0000000000000000
     0.0000000000000000    0.0000000000000000   30.7367992401000016
   Bi   Te   Pb   O    H 
    18    45    18     1     1
Direct
  0.1079175152035887  0.2208472822673713  0.4347773617487789
  0.2191357727149494  0.1088086299127298  0.5648089960696012
  0.4412379807901345  0.2206345404550447  0.4346699853863356
  0.5510291405002263  0.1078960476097919  0.5647278307357340
  0.7752338138863024  0.2213178723730564  0.4345965987745117
  0.8857105661504576  0.1081016199975195  0.5648009334313926
  0.1079263211629780  0.5544560662680098  0.4347919976281673
  0.2191416961289150  0.4416446069617308  0.5645098057181315
  0.4414625592227139  0.5536273015635587  0.4348325699182638
  0.5507714334681424  0.4418457730737089  0.5646390623900004
  0.7752789484967053  0.5541546547020602  0.4346308043674156
  0.8823113106145755  0.4410485778567050  0.5634728973503229
  0.1079609761731959  0.8872859241312412  0.4347833458744219
  0.2191581251260004  0.7761317344941929  0.5643888609935672
  0.4417534146579740  0.8878668017062665  0.4348238791701888
  0.5520234959987960  0.7752728866392573  0.5640151810946605
  0.7753934469657011  0.8877971442098627  0.4349719355948523
  0.8855844871767715  0.7770386614019031  0.5648597115191905
  0.2169376615281919  0.1057214905146040  0.7583707062787468
  0.2189341789841990  0.1093868974007535  0.3801364825080782
  0.1082217295514880  0.2203477294594904  0.6199302946648331
  0.9971454610420665  0.9983953899547657  0.5002743938514271
  0.1098345808425094  0.2218848248412897  0.2409162851633297
  0.5532447526722564  0.1115518295550757  0.7599789631568044
  0.5526314074778398  0.1097428197676606  0.3799877838601304
  0.4410462064335405  0.2202276335136872  0.6199383786780217
  0.3301316740705573  0.9982653533603951  0.5001364994386392
  0.4422462847017457  0.2210896507899278  0.2407420839893462
  0.8875611999368118  0.1113381572733232  0.7601025128256964
  0.8859521960907131  0.1096861276723757  0.3800350503116405
  0.7738215166639222  0.2192968876468697  0.6196812345889668
  0.6639618622523997  0.9988813881339382  0.5000936674395859
  0.7754022195557013  0.2205943596626483  0.2411589145680892
  0.2185558917797650  0.4424524149172413  0.7593745246747119
  0.2188949067035040  0.4428126903478784  0.3801169834136573
  0.1050439095884954  0.5523058983204336  0.6185947552609434
  0.9959878824307040  0.3319091590669316  0.5004348993444054
  0.1095237766457799  0.5547421626507614  0.2412629029021574
  0.5510732305362680  0.4367545756341542  0.7605169040206334
  0.5526028471115083  0.4426902205914089  0.3800015466716360
  0.4412030471870310  0.5538347719261907  0.6196095246151430
  0.3298754762258653  0.3314335787054077  0.5001531658264184
  0.4428591639585306  0.5551813599562934  0.2413684130121183
  0.8857785205946698  0.4428921893463595  0.7583719773120947
  0.8861467501033289  0.4429574472922226  0.3796792223582557
  0.7727888020072200  0.5547265528650058  0.6200428169815027
  0.6626998491129754  0.3312708926683570  0.5001252202528548
  0.7754645678682763  0.5546261384539619  0.2410219315359186
  0.2194490582762896  0.7738276122009040  0.7590971713127246
  0.2191292246417689  0.7762073951486954  0.3800611987194600
  0.1082610968984739  0.8873354960841695  0.6198518847236869
  0.9960411393599529  0.6643173944635024  0.5003439101127327
  0.1099187091381992  0.8878381218802787  0.2410392136430488
  0.5444110925325063  0.7737359221248070  0.7509771004252102
  0.5529316477736472  0.7761457901178375  0.3802824985531998
  0.4411887578983951  0.8864361350470631  0.6195453811015597
  0.3299406977598736  0.6648349497115547  0.4999959132527394
  0.4428991342912454  0.8875030045498278  0.2413080110425554
  0.8862808789007062  0.7740896947893248  0.7596750280896813
  0.8859715580838312  0.7761285915028751  0.3800287293209479
  0.7739320108568677  0.8867296191494631  0.6197731909361082
  0.6639489535427998  0.6646881435301779  0.5000348743485858
  0.7765453386338663  0.8880969827189062  0.2414433095474422
  0.9997666416131210  0.9999005937860446  0.2934300250804114
  0.9937992419690289  0.9961994646642580  0.7058383030769164
  0.3322452428466534  0.9993222028878890  0.2935242326353844
  0.3314754425334883  0.9968055749047409  0.7059379573541378
  0.6649695910970976  0.9987013329611401  0.2939581699820835
  0.6711544554241655  0.0142717636394210  0.7065993099126260
  0.9978885347386210  0.3321860277962116  0.2935041871782786
  0.9964582858847422  0.3316159413683053  0.7059675577484583
  0.3320230781921367  0.3327649109700488  0.2934993548620923
  0.3287304555209190  0.3288522235359679  0.7065126434115996
  0.6643737267507603  0.3322489306687118  0.2933434640920112
  0.6642649600818444  0.3313652839186361  0.7056019582096127
  0.9977135764650882  0.6655404779554459  0.2935189721037403
  0.9966322276258026  0.6640534605275548  0.7057022297963158
  0.3314701766623855  0.6657486001099144  0.2940747947008617
  0.3103402454567501  0.6532199702660222  0.7021716697037022
  0.6648746755263559  0.6658639064107632  0.2939383721099560
  0.6667032670301865  0.6521112945357359  0.7079876015880160
  0.5064962854063424  0.7643088861366323  0.8143634683313223
  0.4231676504901500  0.7337066130236991  0.8162686667213990
 
  0.00000000E+00  0.00000000E+00  0.00000000E+00
  0.00000000E+00  0.00000000E+00  0.00000000E+00
  0.00000000E+00  0.00000000E+00  0.00000000E+00
  0.00000000E+00  0.00000000E+00  0.00000000E+00
  0.00000000E+00  0.00000000E+00  0.00000000E+00
  0.00000000E+00  0.00000000E+00  0.00000000E+00
  0.00000000E+00  0.00000000E+00  0.00000000E+00
  0.00000000E+00  0.00000000E+00  0.00000000E+00
  0.00000000E+00  0.00000000E+00  0.00000000E+00
  0.00000000E+00  0.00000000E+00  0.00000000E+00
  0.00000000E+00  0.00000000E+00  0.00000000E+00
  0.00000000E+00  0.00000000E+00  0.00000000E+00
  0.00000000E+00  0.00000000E+00  0.00000000E+00
  0.00000000E+00  0.00000000E+00  0.00000000E+00
  0.00000000E+00  0.00000000E+00  0.00000000E+00
  0.00000000E+00  0.00000000E+00  0.00000000E+00
  0.00000000E+00  0.00000000E+00  0.00000000E+00
  0.00000000E+00  0.00000000E+00  0.00000000E+00
  0.00000000E+00  0.00000000E+00  0.00000000E+00
  0.00000000E+00  0.00000000E+00  0.00000000E+00
  0.00000000E+00  0.00000000E+00  0.00000000E+00
  0.00000000E+00  0.00000000E+00  0.00000000E+00
  0.00000000E+00  0.00000000E+00  0.00000000E+00
  0.00000000E+00  0.00000000E+00  0.00000000E+00
  0.00000000E+00  0.00000000E+00  0.00000000E+00
  0.00000000E+00  0.00000000E+00  0.00000000E+00
  0.00000000E+00  0.00000000E+00  0.00000000E+00
  0.00000000E+00  0.00000000E+00  0.00000000E+00
  0.00000000E+00  0.00000000E+00  0.00000000E+00
  0.00000000E+00  0.00000000E+00  0.00000000E+00
  0.00000000E+00  0.00000000E+00  0.00000000E+00
  0.00000000E+00  0.00000000E+00  0.00000000E+00
  0.00000000E+00  0.00000000E+00  0.00000000E+00
  0.00000000E+00  0.00000000E+00  0.00000000E+00
  0.00000000E+00  0.00000000E+00  0.00000000E+00
  0.00000000E+00  0.00000000E+00  0.00000000E+00
  0.00000000E+00  0.00000000E+00  0.00000000E+00
  0.00000000E+00  0.00000000E+00  0.00000000E+00
  0.00000000E+00  0.00000000E+00  0.00000000E+00
  0.00000000E+00  0.00000000E+00  0.00000000E+00
  0.00000000E+00  0.00000000E+00  0.00000000E+00
  0.00000000E+00  0.00000000E+00  0.00000000E+00
  0.00000000E+00  0.00000000E+00  0.00000000E+00
  0.00000000E+00  0.00000000E+00  0.00000000E+00
  0.00000000E+00  0.00000000E+00  0.00000000E+00
  0.00000000E+00  0.00000000E+00  0.00000000E+00
  0.00000000E+00  0.00000000E+00  0.00000000E+00
  0.00000000E+00  0.00000000E+00  0.00000000E+00
  0.00000000E+00  0.00000000E+00  0.00000000E+00
  0.00000000E+00  0.00000000E+00  0.00000000E+00
  0.00000000E+00  0.00000000E+00  0.00000000E+00
  0.00000000E+00  0.00000000E+00  0.00000000E+00
  0.00000000E+00  0.00000000E+00  0.00000000E+00
  0.00000000E+00  0.00000000E+00  0.00000000E+00
  0.00000000E+00  0.00000000E+00  0.00000000E+00
  0.00000000E+00  0.00000000E+00  0.00000000E+00
  0.00000000E+00  0.00000000E+00  0.00000000E+00
  0.00000000E+00  0.00000000E+00  0.00000000E+00
  0.00000000E+00  0.00000000E+00  0.00000000E+00
  0.00000000E+00  0.00000000E+00  0.00000000E+00
  0.00000000E+00  0.00000000E+00  0.00000000E+00
  0.00000000E+00  0.00000000E+00  0.00000000E+00
  0.00000000E+00  0.00000000E+00  0.00000000E+00
  0.00000000E+00  0.00000000E+00  0.00000000E+00
  0.00000000E+00  0.00000000E+00  0.00000000E+00
  0.00000000E+00  0.00000000E+00  0.00000000E+00
  0.00000000E+00  0.00000000E+00  0.00000000E+00
  0.00000000E+00  0.00000000E+00  0.00000000E+00
  0.00000000E+00  0.00000000E+00  0.00000000E+00
  0.00000000E+00  0.00000000E+00  0.00000000E+00
  0.00000000E+00  0.00000000E+00  0.00000000E+00
  0.00000000E+00  0.00000000E+00  0.00000000E+00
  0.00000000E+00  0.00000000E+00  0.00000000E+00
  0.00000000E+00  0.00000000E+00  0.00000000E+00
  0.00000000E+00  0.00000000E+00  0.00000000E+00
  0.00000000E+00  0.00000000E+00  0.00000000E+00
  0.00000000E+00  0.00000000E+00  0.00000000E+00
  0.00000000E+00  0.00000000E+00  0.00000000E+00
  0.00000000E+00  0.00000000E+00  0.00000000E+00
  0.00000000E+00  0.00000000E+00  0.00000000E+00
  0.00000000E+00  0.00000000E+00  0.00000000E+00
  0.00000000E+00  0.00000000E+00  0.00000000E+00
  0.00000000E+00  0.00000000E+00  0.00000000E+00
