CONTCAR\(3)                             
   1.00000000000000     
    12.8648996353000005    0.0000000000000000    0.0000000000000000
    -6.4324498177000002   11.1413299013000007    0.0000000000000000
     0.0000000000000000    0.0000000000000000   18.7835006713999988
   Li   C 
     9   108
Direct
  0.0000000000000000  0.0000000000000000  0.5000000000000000
  0.3333300099999974  0.0000000000000000  0.5000000000000000
  0.6666700270000021  0.0000000000000000  0.5000000000000000
  0.9999999910000028  0.3333299909999994  0.5000000000000000
  0.3333299999999966  0.3333299909999994  0.5000000000000000
  0.6666699989999998  0.3333299909999994  0.5000000000000000
  0.9999999850000023  0.6666699969999996  0.5000000000000000
  0.3333299949999997  0.6666699969999996  0.5000000000000000
  0.6666700119999973  0.6666699969999996  0.5000000000000000
  0.2222400030000031  0.0000000000000000  0.3993299779999973
  0.0000000000000000  0.2222400019999995  0.3993299779999973
  0.1110899979999971  0.1110899990000007  0.3993299779999973
  0.1110899970000006  0.0000000000000000  0.3993299779999973
  0.0000000009999965  0.1110899990000007  0.3993299779999973
  0.2222400030000031  0.2222400019999995  0.3993299779999973
  0.1110899970000006  0.0000000000000000  0.6006699960000006
  0.0000000009999965  0.1110899990000007  0.6006699960000006
  0.2222400030000031  0.2222400019999995  0.6006699960000006
  0.2222400030000031  0.0000000000000000  0.6006699960000006
  0.0000000000000000  0.2222400019999995  0.6006699960000006
  0.1110899979999971  0.1110899990000007  0.6006699960000006
  0.5555800019999992  0.0000000000000000  0.3993299779999973
  0.3333299999999966  0.2222400019999995  0.3993299779999973
  0.4444199850000032  0.1110899990000007  0.3993299779999973
  0.4444199980000008  0.0000000000000000  0.3993299779999973
  0.3333300150000014  0.1110899990000007  0.3993299779999973
  0.5555799919999984  0.2222400019999995  0.3993299779999973
  0.4444199980000008  0.0000000000000000  0.6006699960000006
  0.3333300150000014  0.1110899990000007  0.6006699960000006
  0.5555799919999984  0.2222400019999995  0.6006699960000006
  0.5555800019999992  0.0000000000000000  0.6006699960000006
  0.3333299999999966  0.2222400019999995  0.6006699960000006
  0.4444199850000032  0.1110899990000007  0.6006699960000006
  0.8889099749999971  0.0000000000000000  0.3993299779999973
  0.6666700179999978  0.2222400019999995  0.3993299779999973
  0.7777600770000035  0.1110899990000007  0.3993299779999973
  0.7777600519999979  0.0000000000000000  0.3993299779999973
  0.6666700139999975  0.1110899990000007  0.3993299779999973
  0.8889100020000029  0.2222400019999995  0.3993299779999973
  0.7777600519999979  0.0000000000000000  0.6006699960000006
  0.6666700139999975  0.1110899990000007  0.6006699960000006
  0.8889100020000029  0.2222400019999995  0.6006699960000006
  0.8889099749999971  0.0000000000000000  0.6006699960000006
  0.6666700179999978  0.2222400019999995  0.6006699960000006
  0.7777600770000035  0.1110899990000007  0.6006699960000006
  0.2222399939999988  0.3333299909999994  0.3993299779999973
  0.0000000140000012  0.5555800300000016  0.3993299779999973
  0.1110899990000007  0.4444200009999975  0.3993299779999973
  0.1110899880000034  0.3333299909999994  0.3993299779999973
  0.0000000009999965  0.4444200009999975  0.3993299779999973
  0.2222400169999972  0.5555800300000016  0.3993299779999973
  0.1110899880000034  0.3333299909999994  0.6006699960000006
  0.0000000009999965  0.4444200009999975  0.6006699960000006
  0.2222400169999972  0.5555800300000016  0.6006699960000006
  0.2222399939999988  0.3333299909999994  0.6006699960000006
  0.0000000140000012  0.5555800300000016  0.6006699960000006
  0.1110899990000007  0.4444200009999975  0.6006699960000006
  0.5555799739999969  0.3333299909999994  0.3993299779999973
  0.3333300239999986  0.5555800300000016  0.3993299779999973
  0.4444199989999973  0.4444200009999975  0.3993299779999973
  0.4444199889999965  0.3333299909999994  0.3993299779999973
  0.3333300110000010  0.4444200009999975  0.3993299779999973
  0.5555800160000004  0.5555800300000016  0.3993299779999973
  0.4444199889999965  0.3333299909999994  0.6006699960000006
  0.3333300110000010  0.4444200009999975  0.6006699960000006
  0.5555800160000004  0.5555800300000016  0.6006699960000006
  0.5555799739999969  0.3333299909999994  0.6006699960000006
  0.3333300239999986  0.5555800300000016  0.6006699960000006
  0.4444199989999973  0.4444200009999975  0.6006699960000006
  0.8889099470000019  0.3333299909999994  0.3993299779999973
  0.6666700410000033  0.5555800300000016  0.3993299779999973
  0.7777600539999980  0.4444200009999975  0.3993299779999973
  0.7777600249999992  0.3333299909999994  0.3993299779999973
  0.6666700290000023  0.4444200009999975  0.3993299779999973
  0.8889099889999983  0.5555800300000016  0.3993299779999973
  0.7777600249999992  0.3333299909999994  0.6006699960000006
  0.6666700290000023  0.4444200009999975  0.6006699960000006
  0.8889099889999983  0.5555800300000016  0.6006699960000006
  0.8889099470000019  0.3333299909999994  0.6006699960000006
  0.6666700410000033  0.5555800300000016  0.6006699960000006
  0.7777600539999980  0.4444200009999975  0.6006699960000006
  0.2222399879999983  0.6666699969999996  0.3993299779999973
  0.0000000229999984  0.8889100210000009  0.3993299779999973
  0.1110899869999997  0.7777600499999977  0.3993299779999973
  0.1110899729999986  0.6666699969999996  0.3993299779999973
  0.9999999990000035  0.7777600499999977  0.3993299779999973
  0.2222400260000015  0.8889100210000009  0.3993299779999973
  0.1110899729999986  0.6666699969999996  0.6006699960000006
  0.9999999990000035  0.7777600499999977  0.6006699960000006
  0.2222400260000015  0.8889100210000009  0.6006699960000006
  0.2222399879999983  0.6666699969999996  0.6006699960000006
  0.0000000229999984  0.8889100210000009  0.6006699960000006
  0.1110899869999997  0.7777600499999977  0.6006699960000006
  0.5555799870000016  0.6666699969999996  0.3993299779999973
  0.3333300330000029  0.8889100210000009  0.3993299779999973
  0.4444199969999971  0.7777600499999977  0.3993299779999973
  0.4444199830000031  0.6666699969999996  0.3993299779999973
  0.3333300079999972  0.7777600499999977  0.3993299779999973
  0.5555800249999976  0.8889100210000009  0.3993299779999973
  0.4444199830000031  0.6666699969999996  0.6006699960000006
  0.3333300079999972  0.7777600499999977  0.6006699960000006
  0.5555800249999976  0.8889100210000009  0.6006699960000006
  0.5555799870000016  0.6666699969999996  0.6006699960000006
  0.3333300330000029  0.8889100210000009  0.6006699960000006
  0.4444199969999971  0.7777600499999977  0.6006699960000006
  0.8889099599999994  0.6666699969999996  0.3993299779999973
  0.6666700500000005  0.8889100210000009  0.3993299779999973
  0.7777600510000013  0.7777600499999977  0.3993299779999973
  0.7777600370000002  0.6666699969999996  0.3993299779999973
  0.6666700259999985  0.7777600499999977  0.3993299779999973
  0.8889099980000026  0.8889100210000009  0.3993299779999973
  0.7777600370000002  0.6666699969999996  0.6006699960000006
  0.6666700259999985  0.7777600499999977  0.6006699960000006
  0.8889099980000026  0.8889100210000009  0.6006699960000006
  0.8889099599999994  0.6666699969999996  0.6006699960000006
  0.6666700500000005  0.8889100210000009  0.6006699960000006
  0.7777600510000013  0.7777600499999977  0.6006699960000006
 
  0.00000000E+00  0.00000000E+00  0.00000000E+00
  0.00000000E+00  0.00000000E+00  0.00000000E+00
  0.00000000E+00  0.00000000E+00  0.00000000E+00
  0.00000000E+00  0.00000000E+00  0.00000000E+00
  0.00000000E+00  0.00000000E+00  0.00000000E+00
  0.00000000E+00  0.00000000E+00  0.00000000E+00
  0.00000000E+00  0.00000000E+00  0.00000000E+00
  0.00000000E+00  0.00000000E+00  0.00000000E+00
  0.00000000E+00  0.00000000E+00  0.00000000E+00
  0.00000000E+00  0.00000000E+00  0.00000000E+00
  0.00000000E+00  0.00000000E+00  0.00000000E+00
  0.00000000E+00  0.00000000E+00  0.00000000E+00
  0.00000000E+00  0.00000000E+00  0.00000000E+00
  0.00000000E+00  0.00000000E+00  0.00000000E+00
  0.00000000E+00  0.00000000E+00  0.00000000E+00
  0.00000000E+00  0.00000000E+00  0.00000000E+00
  0.00000000E+00  0.00000000E+00  0.00000000E+00
  0.00000000E+00  0.00000000E+00  0.00000000E+00
  0.00000000E+00  0.00000000E+00  0.00000000E+00
  0.00000000E+00  0.00000000E+00  0.00000000E+00
  0.00000000E+00  0.00000000E+00  0.00000000E+00
  0.00000000E+00  0.00000000E+00  0.00000000E+00
  0.00000000E+00  0.00000000E+00  0.00000000E+00
  0.00000000E+00  0.00000000E+00  0.00000000E+00
  0.00000000E+00  0.00000000E+00  0.00000000E+00
  0.00000000E+00  0.00000000E+00  0.00000000E+00
  0.00000000E+00  0.00000000E+00  0.00000000E+00
  0.00000000E+00  0.00000000E+00  0.00000000E+00
  0.00000000E+00  0.00000000E+00  0.00000000E+00
  0.00000000E+00  0.00000000E+00  0.00000000E+00
  0.00000000E+00  0.00000000E+00  0.00000000E+00
  0.00000000E+00  0.00000000E+00  0.00000000E+00
  0.00000000E+00  0.00000000E+00  0.00000000E+00
  0.00000000E+00  0.00000000E+00  0.00000000E+00
  0.00000000E+00  0.00000000E+00  0.00000000E+00
  0.00000000E+00  0.00000000E+00  0.00000000E+00
  0.00000000E+00  0.00000000E+00  0.00000000E+00
  0.00000000E+00  0.00000000E+00  0.00000000E+00
  0.00000000E+00  0.00000000E+00  0.00000000E+00
  0.00000000E+00  0.00000000E+00  0.00000000E+00
  0.00000000E+00  0.00000000E+00  0.00000000E+00
  0.00000000E+00  0.00000000E+00  0.00000000E+00
  0.00000000E+00  0.00000000E+00  0.00000000E+00
  0.00000000E+00  0.00000000E+00  0.00000000E+00
  0.00000000E+00  0.00000000E+00  0.00000000E+00
  0.00000000E+00  0.00000000E+00  0.00000000E+00
  0.00000000E+00  0.00000000E+00  0.00000000E+00
  0.00000000E+00  0.00000000E+00  0.00000000E+00
  0.00000000E+00  0.00000000E+00  0.00000000E+00
  0.00000000E+00  0.00000000E+00  0.00000000E+00
  0.00000000E+00  0.00000000E+00  0.00000000E+00
  0.00000000E+00  0.00000000E+00  0.00000000E+00
  0.00000000E+00  0.00000000E+00  0.00000000E+00
  0.00000000E+00  0.00000000E+00  0.00000000E+00
  0.00000000E+00  0.00000000E+00  0.00000000E+00
  0.00000000E+00  0.00000000E+00  0.00000000E+00
  0.00000000E+00  0.00000000E+00  0.00000000E+00
  0.00000000E+00  0.00000000E+00  0.00000000E+00
  0.00000000E+00  0.00000000E+00  0.00000000E+00
  0.00000000E+00  0.00000000E+00  0.00000000E+00
  0.00000000E+00  0.00000000E+00  0.00000000E+00
  0.00000000E+00  0.00000000E+00  0.00000000E+00
  0.00000000E+00  0.00000000E+00  0.00000000E+00
  0.00000000E+00  0.00000000E+00  0.00000000E+00
  0.00000000E+00  0.00000000E+00  0.00000000E+00
  0.00000000E+00  0.00000000E+00  0.00000000E+00
  0.00000000E+00  0.00000000E+00  0.00000000E+00
  0.00000000E+00  0.00000000E+00  0.00000000E+00
  0.00000000E+00  0.00000000E+00  0.00000000E+00
  0.00000000E+00  0.00000000E+00  0.00000000E+00
  0.00000000E+00  0.00000000E+00  0.00000000E+00
  0.00000000E+00  0.00000000E+00  0.00000000E+00
  0.00000000E+00  0.00000000E+00  0.00000000E+00
  0.00000000E+00  0.00000000E+00  0.00000000E+00
  0.00000000E+00  0.00000000E+00  0.00000000E+00
  0.00000000E+00  0.00000000E+00  0.00000000E+00
  0.00000000E+00  0.00000000E+00  0.00000000E+00
  0.00000000E+00  0.00000000E+00  0.00000000E+00
  0.00000000E+00  0.00000000E+00  0.00000000E+00
  0.00000000E+00  0.00000000E+00  0.00000000E+00
  0.00000000E+00  0.00000000E+00  0.00000000E+00
  0.00000000E+00  0.00000000E+00  0.00000000E+00
  0.00000000E+00  0.00000000E+00  0.00000000E+00
  0.00000000E+00  0.00000000E+00  0.00000000E+00
  0.00000000E+00  0.00000000E+00  0.00000000E+00
  0.00000000E+00  0.00000000E+00  0.00000000E+00
  0.00000000E+00  0.00000000E+00  0.00000000E+00
  0.00000000E+00  0.00000000E+00  0.00000000E+00
  0.00000000E+00  0.00000000E+00  0.00000000E+00
  0.00000000E+00  0.00000000E+00  0.00000000E+00
  0.00000000E+00  0.00000000E+00  0.00000000E+00
  0.00000000E+00  0.00000000E+00  0.00000000E+00
  0.00000000E+00  0.00000000E+00  0.00000000E+00
  0.00000000E+00  0.00000000E+00  0.00000000E+00
  0.00000000E+00  0.00000000E+00  0.00000000E+00
  0.00000000E+00  0.00000000E+00  0.00000000E+00
  0.00000000E+00  0.00000000E+00  0.00000000E+00
  0.00000000E+00  0.00000000E+00  0.00000000E+00
  0.00000000E+00  0.00000000E+00  0.00000000E+00
  0.00000000E+00  0.00000000E+00  0.00000000E+00
  0.00000000E+00  0.00000000E+00  0.00000000E+00
  0.00000000E+00  0.00000000E+00  0.00000000E+00
  0.00000000E+00  0.00000000E+00  0.00000000E+00
  0.00000000E+00  0.00000000E+00  0.00000000E+00
  0.00000000E+00  0.00000000E+00  0.00000000E+00
  0.00000000E+00  0.00000000E+00  0.00000000E+00
  0.00000000E+00  0.00000000E+00  0.00000000E+00
  0.00000000E+00  0.00000000E+00  0.00000000E+00
  0.00000000E+00  0.00000000E+00  0.00000000E+00
  0.00000000E+00  0.00000000E+00  0.00000000E+00
  0.00000000E+00  0.00000000E+00  0.00000000E+00
  0.00000000E+00  0.00000000E+00  0.00000000E+00
  0.00000000E+00  0.00000000E+00  0.00000000E+00
  0.00000000E+00  0.00000000E+00  0.00000000E+00
  0.00000000E+00  0.00000000E+00  0.00000000E+00
  0.00000000E+00  0.00000000E+00  0.00000000E+00
  0.00000000E+00  0.00000000E+00  0.00000000E+00
