 Hf1 Fe1 Cl6                            
   1.00000000000000     
     5.9580041551674734    0.0000000000000000    0.0000000000000000
    -2.9790030331790920    5.1747278065175930    0.0000000000000000
     0.0000000000000000    0.0000000000000000   17.8166613786000028
   Hf   Fe   Cl
     1     1     6
Direct
  0.3349021462526593  0.6667510218996995  0.5001397107631362
  0.9990560694018313  0.9994225409681050  0.4999801571932139
  0.3098802189670593  0.9939808279881674  0.5781471595748968
  0.6839554286281810  0.6898350382470468  0.5789273602141165
  0.0040505821227939  0.3165677154054833  0.5777941801312849
  0.3109034033524267  0.3164287281490132  0.4218012464132457
  0.0069413018585465  0.6902131955457520  0.4217890349087199
  0.6836398494165294  0.9934719317967051  0.4214211508014500
 
  0.00000000E+00  0.00000000E+00  0.00000000E+00
  0.00000000E+00  0.00000000E+00  0.00000000E+00
  0.00000000E+00  0.00000000E+00  0.00000000E+00
  0.00000000E+00  0.00000000E+00  0.00000000E+00
  0.00000000E+00  0.00000000E+00  0.00000000E+00
  0.00000000E+00  0.00000000E+00  0.00000000E+00
  0.00000000E+00  0.00000000E+00  0.00000000E+00
  0.00000000E+00  0.00000000E+00  0.00000000E+00
