CONTCAR\(2)                             
   1.00000000000000     
    11.0214996337999995    0.0000000000000000    0.0000000000000000
     0.0000000000000000   14.9139995575000004    0.0000000000000000
     0.0000000000000000    0.0000000000000000   19.5716991425000018
   Nb   Ni   Te   O 
     6     6    30     1
Direct
  0.9912272236846249  0.2459512857780197  0.4948902871446847
  0.9988392272522830  0.7492692452976684  0.5043599603935789
  0.3251199291959281  0.2502503402082397  0.5057444129211603
  0.3326226452888932  0.7465992325302224  0.5046026256821037
  0.6698993798922643  0.2475437122795086  0.4962367841347231
  0.6650159933764286  0.7489424717688067  0.5042375582325391
  0.1643718512094239  0.9991549598858569  0.5017430125602971
  0.1595787338508501  0.4999943586055764  0.5016604688869393
  0.5002455164723756  0.9965838301823808  0.4985855993693207
  0.5075851344963098  0.4949729575884305  0.5061106873298371
  0.8302844903120956  0.9977329339998917  0.5000140109302365
  0.8340928874251787  0.4995709560498369  0.5003412229537858
  0.9982363669110228  0.0723825166293040  0.4272153532038132
  0.9971653827137814  0.9227503052735386  0.5723034385710903
  0.9972150658448911  0.5775019746614944  0.5747545042737769
  0.9979779987863822  0.4205867517843913  0.4276257400569463
  0.1652573688089802  0.2487809816407278  0.3875220684423084
  0.1661244795487775  0.7496774025874586  0.6162782938653919
  0.1666372386380814  0.8548824306063025  0.4282247081051054
  0.1578469943892955  0.1425719881855727  0.5774172009094229
  0.1430231197654592  0.3561596638636573  0.5727788858378773
  0.1650983828294983  0.6435482983871168  0.4267326435635184
  0.3303315388768411  0.0773620138982736  0.4308024783743463
  0.3329866476010537  0.9210855168515195  0.5719380210735920
  0.3321226191611899  0.5711000482810533  0.5731271498465702
  0.3347605438394794  0.4230972367677168  0.4371474196793770
  0.4914893801919078  0.2516964355766333  0.3911101078417545
  0.4987298154467794  0.7474320792565408  0.6166003102519824
  0.4977282743189946  0.8528419335353163  0.4257820651554596
  0.5012845237100478  0.1367963948643833  0.5714861205861865
  0.5454657850509648  0.3648484618627350  0.5903203165790032
  0.4996723869916266  0.6367811059183666  0.4307155812552139
  0.6658793580360580  0.0747266106548778  0.4270744483508864
  0.6647698109866340  0.9216602654041708  0.5731564919012229
  0.6710960472256033  0.5779867692911367  0.5749229506026481
  0.6679244013469230  0.4213147528269658  0.4272206277427131
  0.8291894474703554  0.2471763449768360  0.3827032650123172
  0.8321511242363613  0.7526440477442407  0.6159152507590875
  0.8319327410472255  0.8541160753029544  0.4263594175274434
  0.8291719481860014  0.1401057132141332  0.5745864584495664
  0.8334567489418063  0.3567247707924182  0.5741540824734415
  0.8324003079619757  0.6429807098068423  0.4272244943050438
  0.3774713426793710  0.3128138563788525  0.5916234098636650
 
  0.00000000E+00  0.00000000E+00  0.00000000E+00
  0.00000000E+00  0.00000000E+00  0.00000000E+00
  0.00000000E+00  0.00000000E+00  0.00000000E+00
  0.00000000E+00  0.00000000E+00  0.00000000E+00
  0.00000000E+00  0.00000000E+00  0.00000000E+00
  0.00000000E+00  0.00000000E+00  0.00000000E+00
  0.00000000E+00  0.00000000E+00  0.00000000E+00
  0.00000000E+00  0.00000000E+00  0.00000000E+00
  0.00000000E+00  0.00000000E+00  0.00000000E+00
  0.00000000E+00  0.00000000E+00  0.00000000E+00
  0.00000000E+00  0.00000000E+00  0.00000000E+00
  0.00000000E+00  0.00000000E+00  0.00000000E+00
  0.00000000E+00  0.00000000E+00  0.00000000E+00
  0.00000000E+00  0.00000000E+00  0.00000000E+00
  0.00000000E+00  0.00000000E+00  0.00000000E+00
  0.00000000E+00  0.00000000E+00  0.00000000E+00
  0.00000000E+00  0.00000000E+00  0.00000000E+00
  0.00000000E+00  0.00000000E+00  0.00000000E+00
  0.00000000E+00  0.00000000E+00  0.00000000E+00
  0.00000000E+00  0.00000000E+00  0.00000000E+00
  0.00000000E+00  0.00000000E+00  0.00000000E+00
  0.00000000E+00  0.00000000E+00  0.00000000E+00
  0.00000000E+00  0.00000000E+00  0.00000000E+00
  0.00000000E+00  0.00000000E+00  0.00000000E+00
  0.00000000E+00  0.00000000E+00  0.00000000E+00
  0.00000000E+00  0.00000000E+00  0.00000000E+00
  0.00000000E+00  0.00000000E+00  0.00000000E+00
  0.00000000E+00  0.00000000E+00  0.00000000E+00
  0.00000000E+00  0.00000000E+00  0.00000000E+00
  0.00000000E+00  0.00000000E+00  0.00000000E+00
  0.00000000E+00  0.00000000E+00  0.00000000E+00
  0.00000000E+00  0.00000000E+00  0.00000000E+00
  0.00000000E+00  0.00000000E+00  0.00000000E+00
  0.00000000E+00  0.00000000E+00  0.00000000E+00
  0.00000000E+00  0.00000000E+00  0.00000000E+00
  0.00000000E+00  0.00000000E+00  0.00000000E+00
  0.00000000E+00  0.00000000E+00  0.00000000E+00
  0.00000000E+00  0.00000000E+00  0.00000000E+00
  0.00000000E+00  0.00000000E+00  0.00000000E+00
  0.00000000E+00  0.00000000E+00  0.00000000E+00
  0.00000000E+00  0.00000000E+00  0.00000000E+00
  0.00000000E+00  0.00000000E+00  0.00000000E+00
  0.00000000E+00  0.00000000E+00  0.00000000E+00
