CONTCAR\(6)                             
   1.00000000000000     
    10.0733995438000008    0.0000000000000000    0.0000000000000000
     0.0000000000000000    9.7955999374000005    0.0000000000000000
     0.0000000000000000    0.0000000000000000   18.6921005248999990
   Ta   Se   O    H 
    12    18     1     1
Selective dynamics
Direct
  0.0737979744205575  0.5499142932330159  0.4952401490998426   F   F   F
  0.2499335949299351  0.3043963384218742  0.4931078998196980   F   F   F
  0.0983277134873362  0.8642894596908519  0.5627221673499108   F   F   F
  0.2500043735445416  0.9886846534732285  0.4547850013636392   F   F   F
  0.4264434544548124  0.5497650009683639  0.4954027702752413   F   F   F
  0.5868243954740322  0.3008986495848234  0.4976954873007102   F   F   F
  0.4010950685875301  0.8645983706944804  0.5628732556420033   F   F   F
  0.5850774168847579  0.9907800201695594  0.4571593290332387   F   F   F
  0.7499892009096953  0.5535348955597570  0.5001839489287505   F   F   F
  0.9134649932496544  0.3009728464831412  0.4975634738928107   F   F   F
  0.7501921024296792  0.8658811232585251  0.5571788477033408   F   F   F
  0.9150160374047474  0.9907457835716187  0.4570003142422081   F   F   F
  0.0825769654019766  0.3690785309627458  0.5943689180885912   F   F   F
  0.2502183874261874  0.4928162661131665  0.3969862275415394   F   F   F
  0.0815178279247561  0.1728736058597065  0.4043264130565518   F   F   F
  0.2501299052427441  0.6493921835110754  0.5846339894196788   F   F   F
  0.2500177341283205  0.0942998295366664  0.5768502687601824   F   F   F
  0.0802350440592008  0.7980667211321730  0.4250878570039376   F   F   F
  0.4175195926346191  0.3687513838747520  0.5944593467020240   F   F   F
  0.5895188891080423  0.4822702470873637  0.3966970537703816   F   F   F
  0.4186068647683001  0.1727323326974997  0.4044169105602009   F   F   F
  0.5810309660809736  0.6742728972103436  0.5963173566897026   F   F   F
  0.5800105914423668  0.0590882703340938  0.5906308261456701   F   F   F
  0.4199000210479653  0.7980651041902362  0.4255260709932074   F   F   F
  0.7501645267664685  0.3683636933181020  0.5983951021598131   F   F   F
  0.9105361484078713  0.4823958752603588  0.3966211739174028   F   F   F
  0.7500083177794110  0.1714920591273952  0.4041108725817892   F   F   F
  0.9189578708940118  0.6739480956580550  0.5962022162238725   F   F   F
  0.9201681845920078  0.0593245840168493  0.5904399682299939   F   F   F
  0.7499582377664638  0.7976747703767302  0.4228521888317047   F   F   F
  0.2473808776286148  0.8729559316406039  0.6544560200065561   T   T   T
  0.2465865421224151  0.9568257329828782  0.6822958466360732   T   T   T
 
  0.00000000E+00  0.00000000E+00  0.00000000E+00
  0.00000000E+00  0.00000000E+00  0.00000000E+00
  0.00000000E+00  0.00000000E+00  0.00000000E+00
  0.00000000E+00  0.00000000E+00  0.00000000E+00
  0.00000000E+00  0.00000000E+00  0.00000000E+00
  0.00000000E+00  0.00000000E+00  0.00000000E+00
  0.00000000E+00  0.00000000E+00  0.00000000E+00
  0.00000000E+00  0.00000000E+00  0.00000000E+00
  0.00000000E+00  0.00000000E+00  0.00000000E+00
  0.00000000E+00  0.00000000E+00  0.00000000E+00
  0.00000000E+00  0.00000000E+00  0.00000000E+00
  0.00000000E+00  0.00000000E+00  0.00000000E+00
  0.00000000E+00  0.00000000E+00  0.00000000E+00
  0.00000000E+00  0.00000000E+00  0.00000000E+00
  0.00000000E+00  0.00000000E+00  0.00000000E+00
  0.00000000E+00  0.00000000E+00  0.00000000E+00
  0.00000000E+00  0.00000000E+00  0.00000000E+00
  0.00000000E+00  0.00000000E+00  0.00000000E+00
  0.00000000E+00  0.00000000E+00  0.00000000E+00
  0.00000000E+00  0.00000000E+00  0.00000000E+00
  0.00000000E+00  0.00000000E+00  0.00000000E+00
  0.00000000E+00  0.00000000E+00  0.00000000E+00
  0.00000000E+00  0.00000000E+00  0.00000000E+00
  0.00000000E+00  0.00000000E+00  0.00000000E+00
  0.00000000E+00  0.00000000E+00  0.00000000E+00
  0.00000000E+00  0.00000000E+00  0.00000000E+00
  0.00000000E+00  0.00000000E+00  0.00000000E+00
  0.00000000E+00  0.00000000E+00  0.00000000E+00
  0.00000000E+00  0.00000000E+00  0.00000000E+00
  0.00000000E+00  0.00000000E+00  0.00000000E+00
  0.00000000E+00  0.00000000E+00  0.00000000E+00
  0.00000000E+00  0.00000000E+00  0.00000000E+00
