 Ce2 Si2 I2                             
   1.00000000000000     
     4.1167898931236664    0.0000000000000000    0.0000000000000000
    -2.0583949465618332    3.5652465806953537    0.0000000000000000
     0.0000000000000000    0.0000000000000000   23.1849232981200046
   Ce   Si   I 
     2     2     2
Direct
 -0.0000000025442438  0.0000000350243253  0.5831610461870895
 -0.0000000286206089 -0.0000001568298563  0.4168384892337903
  0.3333333013008431  0.6666667504174396  0.5020054018014930
  0.6666666810276151  0.3333333479511669  0.4979939619867479
  0.3333331141565314  0.6666669173740888  0.3236549289633536
  0.6666669346798630  0.3333331060628358  0.6763461718275258
 
  0.00000000E+00  0.00000000E+00  0.00000000E+00
  0.00000000E+00  0.00000000E+00  0.00000000E+00
  0.00000000E+00  0.00000000E+00  0.00000000E+00
  0.00000000E+00  0.00000000E+00  0.00000000E+00
  0.00000000E+00  0.00000000E+00  0.00000000E+00
  0.00000000E+00  0.00000000E+00  0.00000000E+00
