CONTCAR\(22)                            
   1.00000000000000     
    11.6526002884000004    0.0000000000000000    0.0000000000000000
     0.0000000000000000   17.2355995178000008    0.0000000000000000
     0.0000000000000000    0.0000000000000000   19.4160995483000001
   Te   Pd   Pb
    16    24    16
Direct
  0.2500000000000000  0.1438323980397698  0.6129136738772161
  0.0000000000000000  0.3938323840397686  0.3870863021227890
  0.2500000000000000  0.3561676159602314  0.6129136738772161
  0.0000000000000000  0.1061675949602332  0.3870863021227890
  0.7500000200000017  0.1438323980397698  0.6129136738772161
  0.5000000000000000  0.3938323840397686  0.3870863021227890
  0.7500000200000017  0.3561676159602314  0.6129136738772161
  0.5000000000000000  0.1061675949602332  0.3870863021227890
  0.2500000000000000  0.6438323840397686  0.6129136738772161
  0.0000000000000000  0.8938323840397686  0.3870863021227890
  0.2500000000000000  0.8561676159602314  0.6129136738772161
  0.0000000000000000  0.6061676159602314  0.3870863021227890
  0.7500000200000017  0.6438323840397686  0.6129136738772161
  0.5000000000000000  0.8938323840397686  0.3870863021227890
  0.7500000200000017  0.8561676159602314  0.6129136738772161
  0.5000000000000000  0.6061676159602314  0.3870863021227890
  0.1250000000000000  0.1250000000000000  0.5000000000000000
  0.0000000000000000  0.2500000000000000  0.4331781757925057
  0.1250000000000000  0.3750000000000000  0.5000000000000000
  0.3750000100000008  0.1250000000000000  0.5000000000000000
  0.3750000100000008  0.3750000000000000  0.5000000000000000
  0.2500000000000000  0.0000000000000000  0.5668217752074938
  0.6249999899999992  0.1250000000000000  0.5000000000000000
  0.5000000000000000  0.2500000000000000  0.4331781757925057
  0.6249999899999992  0.3750000000000000  0.5000000000000000
  0.8749999690000010  0.1250000000000000  0.5000000000000000
  0.8749999690000010  0.3750000000000000  0.5000000000000000
  0.7500000200000017  0.0000000000000000  0.5668217752074938
  0.1250000000000000  0.6249999719999977  0.5000000000000000
  0.0000000000000000  0.7500000000000000  0.4331781757925057
  0.1250000000000000  0.8750000280000023  0.5000000000000000
  0.3750000100000008  0.6249999719999977  0.5000000000000000
  0.3750000100000008  0.8750000280000023  0.5000000000000000
  0.2500000000000000  0.5000000000000000  0.5668217752074938
  0.6249999899999992  0.6249999719999977  0.5000000000000000
  0.5000000000000000  0.7500000000000000  0.4331781757925057
  0.6249999899999992  0.8750000280000023  0.5000000000000000
  0.8749999690000010  0.6249999719999977  0.5000000000000000
  0.8749999690000010  0.8750000280000023  0.5000000000000000
  0.7500000200000017  0.5000000000000000  0.5668217752074938
  0.2500000000000000  0.0000000000000000  0.4157853268783427
  0.0000000000000000  0.2500000000000000  0.5842146731216573
  0.2500000000000000  0.2500000000000000  0.4286217786821851
  0.0000000000000000  0.0000000000000000  0.5713782213178149
  0.7500000200000017  0.0000000000000000  0.4157853268783427
  0.5000000000000000  0.2500000000000000  0.5842146731216573
  0.7500000200000017  0.2500000000000000  0.4286217786821851
  0.5000000000000000  0.0000000000000000  0.5713782213178149
  0.2500000000000000  0.5000000000000000  0.4157853268783427
  0.0000000000000000  0.7500000000000000  0.5842146731216573
  0.2500000000000000  0.7500000000000000  0.4286217786821851
  0.0000000000000000  0.5000000000000000  0.5713782213178149
  0.7500000200000017  0.5000000000000000  0.4157853268783427
  0.5000000000000000  0.7500000000000000  0.5842146731216573
  0.7500000200000017  0.7500000000000000  0.4286217786821851
  0.5000000000000000  0.5000000000000000  0.5713782213178149
 
  0.00000000E+00  0.00000000E+00  0.00000000E+00
  0.00000000E+00  0.00000000E+00  0.00000000E+00
  0.00000000E+00  0.00000000E+00  0.00000000E+00
  0.00000000E+00  0.00000000E+00  0.00000000E+00
  0.00000000E+00  0.00000000E+00  0.00000000E+00
  0.00000000E+00  0.00000000E+00  0.00000000E+00
  0.00000000E+00  0.00000000E+00  0.00000000E+00
  0.00000000E+00  0.00000000E+00  0.00000000E+00
  0.00000000E+00  0.00000000E+00  0.00000000E+00
  0.00000000E+00  0.00000000E+00  0.00000000E+00
  0.00000000E+00  0.00000000E+00  0.00000000E+00
  0.00000000E+00  0.00000000E+00  0.00000000E+00
  0.00000000E+00  0.00000000E+00  0.00000000E+00
  0.00000000E+00  0.00000000E+00  0.00000000E+00
  0.00000000E+00  0.00000000E+00  0.00000000E+00
  0.00000000E+00  0.00000000E+00  0.00000000E+00
  0.00000000E+00  0.00000000E+00  0.00000000E+00
  0.00000000E+00  0.00000000E+00  0.00000000E+00
  0.00000000E+00  0.00000000E+00  0.00000000E+00
  0.00000000E+00  0.00000000E+00  0.00000000E+00
  0.00000000E+00  0.00000000E+00  0.00000000E+00
  0.00000000E+00  0.00000000E+00  0.00000000E+00
  0.00000000E+00  0.00000000E+00  0.00000000E+00
  0.00000000E+00  0.00000000E+00  0.00000000E+00
  0.00000000E+00  0.00000000E+00  0.00000000E+00
  0.00000000E+00  0.00000000E+00  0.00000000E+00
  0.00000000E+00  0.00000000E+00  0.00000000E+00
  0.00000000E+00  0.00000000E+00  0.00000000E+00
  0.00000000E+00  0.00000000E+00  0.00000000E+00
  0.00000000E+00  0.00000000E+00  0.00000000E+00
  0.00000000E+00  0.00000000E+00  0.00000000E+00
  0.00000000E+00  0.00000000E+00  0.00000000E+00
  0.00000000E+00  0.00000000E+00  0.00000000E+00
  0.00000000E+00  0.00000000E+00  0.00000000E+00
  0.00000000E+00  0.00000000E+00  0.00000000E+00
  0.00000000E+00  0.00000000E+00  0.00000000E+00
  0.00000000E+00  0.00000000E+00  0.00000000E+00
  0.00000000E+00  0.00000000E+00  0.00000000E+00
  0.00000000E+00  0.00000000E+00  0.00000000E+00
  0.00000000E+00  0.00000000E+00  0.00000000E+00
  0.00000000E+00  0.00000000E+00  0.00000000E+00
  0.00000000E+00  0.00000000E+00  0.00000000E+00
  0.00000000E+00  0.00000000E+00  0.00000000E+00
  0.00000000E+00  0.00000000E+00  0.00000000E+00
  0.00000000E+00  0.00000000E+00  0.00000000E+00
  0.00000000E+00  0.00000000E+00  0.00000000E+00
  0.00000000E+00  0.00000000E+00  0.00000000E+00
  0.00000000E+00  0.00000000E+00  0.00000000E+00
  0.00000000E+00  0.00000000E+00  0.00000000E+00
  0.00000000E+00  0.00000000E+00  0.00000000E+00
  0.00000000E+00  0.00000000E+00  0.00000000E+00
  0.00000000E+00  0.00000000E+00  0.00000000E+00
  0.00000000E+00  0.00000000E+00  0.00000000E+00
  0.00000000E+00  0.00000000E+00  0.00000000E+00
  0.00000000E+00  0.00000000E+00  0.00000000E+00
  0.00000000E+00  0.00000000E+00  0.00000000E+00
