CONTCAR\(16)                            
   1.00000000000000     
    12.3274002075000002    0.0000000000000000    0.0000000000000000
     0.0000000000000000   15.7540998459000008    0.0000000000000000
     0.0000000000000000    0.0000000000000000   20.2700004577999984
   Pr   Br   O 
    12    30     1
Direct
  0.2506152869164307  0.6303822021780201  0.5123643913726962
  0.0879541153367618  0.3652153276174739  0.4727695177768206
  0.2360068223635807  0.1339340927660158  0.5215137086215218
  0.0813305936607076  0.8625676312421553  0.4621278846761199
  0.5827147070835730  0.6303822021780201  0.5123643913726962
  0.4166700059999968  0.3458420244128164  0.6580231290292300
  0.5973231716364223  0.1339340927660158  0.5215137086215218
  0.4166700059999968  0.8660731851717518  0.4618946120518285
  0.9166700450000036  0.6381363735202903  0.5105198070361563
  0.7453758786632412  0.3652153276174739  0.4727695177768206
  0.9166700450000036  0.1339389234290429  0.5202506361258390
  0.7519994003392958  0.8625676312421553  0.4621278846761199
  0.2502161787765600  0.8779754360475510  0.3608504249234312
  0.0761329013154638  0.1074982089067345  0.6247673924983113
  0.2504420893285033  0.4842079231630691  0.4219648557803893
  0.0787814892099990  0.5177815383396706  0.5731760725455249
  0.0788933732322147  0.0554260287828486  0.4279291104284385
  0.2500307544510874  0.9402704495914578  0.5540632841601799
  0.0855055578839304  0.7435473052546666  0.5819082563312122
  0.2421204421835903  0.2526101485496598  0.4098998585723686
  0.0851954545440518  0.6825386356740600  0.4098392195687850
  0.2051679437249054  0.3069994358920680  0.5896140083561828
  0.5831138152234431  0.8779754360475510  0.3608504249234312
  0.4166700059999968  0.1434657518982849  0.6208082977206907
  0.5828879046715070  0.4842079231630691  0.4219648557803893
  0.4166700059999968  0.5224125686982874  0.5848317909653021
  0.4166700059999968  0.0636672707604807  0.4350119753456668
  0.5832992395489085  0.9402704495914578  0.5540632841601799
  0.4166700059999968  0.7464792400836997  0.5801097251501819
  0.5912095518164129  0.2526101485496598  0.4098998585723686
  0.4166700059999968  0.6833041764383636  0.4108677233066089
  0.6281620502750979  0.3069994358920680  0.5896140083561828
  0.9166700450000036  0.8732545302684941  0.3590709598354345
  0.7571970926845396  0.1074982089067345  0.6247673924983113
  0.9166700450000036  0.4848718308868900  0.4158404271284715
  0.7545485047900043  0.5177815383396706  0.5731760725455249
  0.7544366207677813  0.0554260287828486  0.4279291104284385
  0.9166700450000036  0.9358336006323655  0.5531646823037515
  0.7478244361160731  0.7435473052546666  0.5819082563312122
  0.9166700450000036  0.2582730502518111  0.4019113730723993
  0.7481345394559514  0.6825386356740600  0.4098392195687850
  0.9166700450000036  0.3154045064236057  0.5727011166634152
  0.4166700059999968  0.3634538391129046  0.7517475700410469
 
  0.00000000E+00  0.00000000E+00  0.00000000E+00
  0.00000000E+00  0.00000000E+00  0.00000000E+00
  0.00000000E+00  0.00000000E+00  0.00000000E+00
  0.00000000E+00  0.00000000E+00  0.00000000E+00
  0.00000000E+00  0.00000000E+00  0.00000000E+00
  0.00000000E+00  0.00000000E+00  0.00000000E+00
  0.00000000E+00  0.00000000E+00  0.00000000E+00
  0.00000000E+00  0.00000000E+00  0.00000000E+00
  0.00000000E+00  0.00000000E+00  0.00000000E+00
  0.00000000E+00  0.00000000E+00  0.00000000E+00
  0.00000000E+00  0.00000000E+00  0.00000000E+00
  0.00000000E+00  0.00000000E+00  0.00000000E+00
  0.00000000E+00  0.00000000E+00  0.00000000E+00
  0.00000000E+00  0.00000000E+00  0.00000000E+00
  0.00000000E+00  0.00000000E+00  0.00000000E+00
  0.00000000E+00  0.00000000E+00  0.00000000E+00
  0.00000000E+00  0.00000000E+00  0.00000000E+00
  0.00000000E+00  0.00000000E+00  0.00000000E+00
  0.00000000E+00  0.00000000E+00  0.00000000E+00
  0.00000000E+00  0.00000000E+00  0.00000000E+00
  0.00000000E+00  0.00000000E+00  0.00000000E+00
  0.00000000E+00  0.00000000E+00  0.00000000E+00
  0.00000000E+00  0.00000000E+00  0.00000000E+00
  0.00000000E+00  0.00000000E+00  0.00000000E+00
  0.00000000E+00  0.00000000E+00  0.00000000E+00
  0.00000000E+00  0.00000000E+00  0.00000000E+00
  0.00000000E+00  0.00000000E+00  0.00000000E+00
  0.00000000E+00  0.00000000E+00  0.00000000E+00
  0.00000000E+00  0.00000000E+00  0.00000000E+00
  0.00000000E+00  0.00000000E+00  0.00000000E+00
  0.00000000E+00  0.00000000E+00  0.00000000E+00
  0.00000000E+00  0.00000000E+00  0.00000000E+00
  0.00000000E+00  0.00000000E+00  0.00000000E+00
  0.00000000E+00  0.00000000E+00  0.00000000E+00
  0.00000000E+00  0.00000000E+00  0.00000000E+00
  0.00000000E+00  0.00000000E+00  0.00000000E+00
  0.00000000E+00  0.00000000E+00  0.00000000E+00
  0.00000000E+00  0.00000000E+00  0.00000000E+00
  0.00000000E+00  0.00000000E+00  0.00000000E+00
  0.00000000E+00  0.00000000E+00  0.00000000E+00
  0.00000000E+00  0.00000000E+00  0.00000000E+00
  0.00000000E+00  0.00000000E+00  0.00000000E+00
  0.00000000E+00  0.00000000E+00  0.00000000E+00
