CONTCAR\(6)                             
   1.00000000000000     
    14.0840997695999999    0.0000000000000000    0.0000000000000000
     0.0000000000000000   11.8172998428000007    0.0000000000000000
     0.0000000000000000    0.0000000000000000   21.4158000946000016
   Zr   H    Br
    32    16    32
Direct
  0.1875000040000003  0.2444516002739110  0.4410621924279950
  0.0625000000000000  0.2555483797260945  0.5589377635720013
  0.1875000040000003  0.0046907869971999  0.5606011873617607
  0.0625000000000000  0.4953092060028030  0.4393988126382393
  0.4375000040000003  0.2444516002739110  0.4410621924279950
  0.3125000129999975  0.2555483797260945  0.5589377635720013
  0.4375000040000003  0.0046907869971999  0.5606011873617607
  0.3125000129999975  0.4953092060028030  0.4393988126382393
  0.6874999870000025  0.2444516002739110  0.4410621924279950
  0.5624999959999997  0.2555483797260945  0.5589377635720013
  0.6874999870000025  0.0046907869971999  0.5606011873617607
  0.5624999959999997  0.4953092060028030  0.4393988126382393
  0.9374999699999975  0.2444516002739110  0.4410621924279950
  0.8124999790000018  0.2555483797260945  0.5589377635720013
  0.9374999699999975  0.0046907869971999  0.5606011873617607
  0.8124999790000018  0.4953092060028030  0.4393988126382393
  0.1875000040000003  0.7444515802739093  0.4410621924279950
  0.0625000000000000  0.7555483797260945  0.5589377635720013
  0.1875000040000003  0.5046907939971970  0.5606011873617607
  0.0625000000000000  0.9953091660027997  0.4393988126382393
  0.4375000040000003  0.7444515802739093  0.4410621924279950
  0.3125000129999975  0.7555483797260945  0.5589377635720013
  0.4375000040000003  0.5046907939971970  0.5606011873617607
  0.3125000129999975  0.9953091660027997  0.4393988126382393
  0.6874999870000025  0.7444515802739093  0.4410621924279950
  0.5624999959999997  0.7555483797260945  0.5589377635720013
  0.6874999870000025  0.5046907939971970  0.5606011873617607
  0.5624999959999997  0.9953091660027997  0.4393988126382393
  0.9374999699999975  0.7444515802739093  0.4410621924279950
  0.8124999790000018  0.7555483797260945  0.5589377635720013
  0.9374999699999975  0.5046907939971970  0.5606011873617607
  0.8124999790000018  0.9953091660027997  0.4393988126382393
  0.1875000040000003  0.0695325713866011  0.4698982995053541
  0.0625000000000000  0.4304674236134021  0.5301016554946457
  0.4375000040000003  0.0695325713866011  0.4698982995053541
  0.3125000129999975  0.4304674236134021  0.5301016554946457
  0.6874999870000025  0.0695325713866011  0.4698982995053541
  0.5624999959999997  0.4304674236134021  0.5301016554946457
  0.9374999699999975  0.0695325713866011  0.4698982995053541
  0.8124999790000018  0.4304674236134021  0.5301016554946457
  0.1875000040000003  0.5695326173865978  0.4698982995053541
  0.0625000000000000  0.9304674236134021  0.5301016554946457
  0.4375000040000003  0.5695326173865978  0.4698982995053541
  0.3125000129999975  0.9304674236134021  0.5301016554946457
  0.6874999870000025  0.5695326173865978  0.4698982995053541
  0.5624999959999997  0.9304674236134021  0.5301016554946457
  0.9374999699999975  0.5695326173865978  0.4698982995053541
  0.8124999790000018  0.9304674236134021  0.5301016554946457
  0.1875000040000003  0.4113253015207174  0.3534242083314929
  0.0625000000000000  0.0886747284792851  0.6465758136685018
  0.1875000040000003  0.3385517616538642  0.6487751162274260
  0.0625000000000000  0.1614482183461341  0.3512248607725757
  0.4375000040000003  0.4113253015207174  0.3534242083314929
  0.3125000129999975  0.0886747284792851  0.6465758136685018
  0.4375000040000003  0.3385517616538642  0.6487751162274260
  0.3125000129999975  0.1614482183461341  0.3512248607725757
  0.6874999870000025  0.4113253015207174  0.3534242083314929
  0.5624999959999997  0.0886747284792851  0.6465758136685018
  0.6874999870000025  0.3385517616538642  0.6487751162274260
  0.5624999959999997  0.1614482183461341  0.3512248607725757
  0.9374999699999975  0.4113253015207174  0.3534242083314929
  0.8124999790000018  0.0886747284792851  0.6465758136685018
  0.9374999699999975  0.3385517616538642  0.6487751162274260
  0.8124999790000018  0.1614482183461341  0.3512248607725757
  0.1875000040000003  0.9113252615207141  0.3534242083314929
  0.0625000000000000  0.5886747384792859  0.6465758136685018
  0.1875000040000003  0.8385518426538603  0.6487751162274260
  0.0625000000000000  0.6614481973461359  0.3512248607725757
  0.4375000040000003  0.9113252615207141  0.3534242083314929
  0.3125000129999975  0.5886747384792859  0.6465758136685018
  0.4375000040000003  0.8385518426538603  0.6487751162274260
  0.3125000129999975  0.6614481973461359  0.3512248607725757
  0.6874999870000025  0.9113252615207141  0.3534242083314929
  0.5624999959999997  0.5886747384792859  0.6465758136685018
  0.6874999870000025  0.8385518426538603  0.6487751162274260
  0.5624999959999997  0.6614481973461359  0.3512248607725757
  0.9374999699999975  0.9113252615207141  0.3534242083314929
  0.8124999790000018  0.5886747384792859  0.6465758136685018
  0.9374999699999975  0.8385518426538603  0.6487751162274260
  0.8124999790000018  0.6614481973461359  0.3512248607725757
 
  0.00000000E+00  0.00000000E+00  0.00000000E+00
  0.00000000E+00  0.00000000E+00  0.00000000E+00
  0.00000000E+00  0.00000000E+00  0.00000000E+00
  0.00000000E+00  0.00000000E+00  0.00000000E+00
  0.00000000E+00  0.00000000E+00  0.00000000E+00
  0.00000000E+00  0.00000000E+00  0.00000000E+00
  0.00000000E+00  0.00000000E+00  0.00000000E+00
  0.00000000E+00  0.00000000E+00  0.00000000E+00
  0.00000000E+00  0.00000000E+00  0.00000000E+00
  0.00000000E+00  0.00000000E+00  0.00000000E+00
  0.00000000E+00  0.00000000E+00  0.00000000E+00
  0.00000000E+00  0.00000000E+00  0.00000000E+00
  0.00000000E+00  0.00000000E+00  0.00000000E+00
  0.00000000E+00  0.00000000E+00  0.00000000E+00
  0.00000000E+00  0.00000000E+00  0.00000000E+00
  0.00000000E+00  0.00000000E+00  0.00000000E+00
  0.00000000E+00  0.00000000E+00  0.00000000E+00
  0.00000000E+00  0.00000000E+00  0.00000000E+00
  0.00000000E+00  0.00000000E+00  0.00000000E+00
  0.00000000E+00  0.00000000E+00  0.00000000E+00
  0.00000000E+00  0.00000000E+00  0.00000000E+00
  0.00000000E+00  0.00000000E+00  0.00000000E+00
  0.00000000E+00  0.00000000E+00  0.00000000E+00
  0.00000000E+00  0.00000000E+00  0.00000000E+00
  0.00000000E+00  0.00000000E+00  0.00000000E+00
  0.00000000E+00  0.00000000E+00  0.00000000E+00
  0.00000000E+00  0.00000000E+00  0.00000000E+00
  0.00000000E+00  0.00000000E+00  0.00000000E+00
  0.00000000E+00  0.00000000E+00  0.00000000E+00
  0.00000000E+00  0.00000000E+00  0.00000000E+00
  0.00000000E+00  0.00000000E+00  0.00000000E+00
  0.00000000E+00  0.00000000E+00  0.00000000E+00
  0.00000000E+00  0.00000000E+00  0.00000000E+00
  0.00000000E+00  0.00000000E+00  0.00000000E+00
  0.00000000E+00  0.00000000E+00  0.00000000E+00
  0.00000000E+00  0.00000000E+00  0.00000000E+00
  0.00000000E+00  0.00000000E+00  0.00000000E+00
  0.00000000E+00  0.00000000E+00  0.00000000E+00
  0.00000000E+00  0.00000000E+00  0.00000000E+00
  0.00000000E+00  0.00000000E+00  0.00000000E+00
  0.00000000E+00  0.00000000E+00  0.00000000E+00
  0.00000000E+00  0.00000000E+00  0.00000000E+00
  0.00000000E+00  0.00000000E+00  0.00000000E+00
  0.00000000E+00  0.00000000E+00  0.00000000E+00
  0.00000000E+00  0.00000000E+00  0.00000000E+00
  0.00000000E+00  0.00000000E+00  0.00000000E+00
  0.00000000E+00  0.00000000E+00  0.00000000E+00
  0.00000000E+00  0.00000000E+00  0.00000000E+00
  0.00000000E+00  0.00000000E+00  0.00000000E+00
  0.00000000E+00  0.00000000E+00  0.00000000E+00
  0.00000000E+00  0.00000000E+00  0.00000000E+00
  0.00000000E+00  0.00000000E+00  0.00000000E+00
  0.00000000E+00  0.00000000E+00  0.00000000E+00
  0.00000000E+00  0.00000000E+00  0.00000000E+00
  0.00000000E+00  0.00000000E+00  0.00000000E+00
  0.00000000E+00  0.00000000E+00  0.00000000E+00
  0.00000000E+00  0.00000000E+00  0.00000000E+00
  0.00000000E+00  0.00000000E+00  0.00000000E+00
  0.00000000E+00  0.00000000E+00  0.00000000E+00
  0.00000000E+00  0.00000000E+00  0.00000000E+00
  0.00000000E+00  0.00000000E+00  0.00000000E+00
  0.00000000E+00  0.00000000E+00  0.00000000E+00
  0.00000000E+00  0.00000000E+00  0.00000000E+00
  0.00000000E+00  0.00000000E+00  0.00000000E+00
  0.00000000E+00  0.00000000E+00  0.00000000E+00
  0.00000000E+00  0.00000000E+00  0.00000000E+00
  0.00000000E+00  0.00000000E+00  0.00000000E+00
  0.00000000E+00  0.00000000E+00  0.00000000E+00
  0.00000000E+00  0.00000000E+00  0.00000000E+00
  0.00000000E+00  0.00000000E+00  0.00000000E+00
  0.00000000E+00  0.00000000E+00  0.00000000E+00
  0.00000000E+00  0.00000000E+00  0.00000000E+00
  0.00000000E+00  0.00000000E+00  0.00000000E+00
  0.00000000E+00  0.00000000E+00  0.00000000E+00
  0.00000000E+00  0.00000000E+00  0.00000000E+00
  0.00000000E+00  0.00000000E+00  0.00000000E+00
  0.00000000E+00  0.00000000E+00  0.00000000E+00
  0.00000000E+00  0.00000000E+00  0.00000000E+00
  0.00000000E+00  0.00000000E+00  0.00000000E+00
  0.00000000E+00  0.00000000E+00  0.00000000E+00
