CONTCAR\(8)                             
   1.00000000000000     
    12.9361000061000002    0.0000000000000000    0.0000000000000000
     0.0000000000000000   12.9357995986999992    0.0000000000000000
     0.0000000000000000    0.0000000000000000   24.1072998046999984
   Dy   Te   O 
    18    54     1
Direct
  0.1661707228499054  0.0007561240405920  0.5841540811063552
  0.9987601024793165  0.1668558494486376  0.4143737933786866
  0.5000732505950722  0.0013769086987665  0.5855909942099800
  0.3323378194852040  0.1665347476865477  0.4147553603099468
  0.8337522182634558  0.0039242280241538  0.5835700991075612
  0.6655442241787384  0.1665928807920949  0.4150786634661685
  0.1631976173941183  0.3331332145118608  0.5836181476801059
  0.9994345061208421  0.4997703834802678  0.4150100576484590
  0.4984738360462870  0.3315429192584531  0.5839589479332474
  0.3329271178482642  0.5005577480257344  0.4157909371821660
  0.8310907139041035  0.3357311548938284  0.5853067436417163
  0.6653847894136646  0.5003498856395581  0.4163243547851891
  0.1653953952377236  0.6671570063488801  0.5855300501697513
  0.9992965314599331  0.8333249303596730  0.4146184843714167
  0.4980279743193421  0.6690241757517583  0.5880955174674156
  0.3325083366706139  0.8333355484454188  0.4156431088047228
  0.8353954115692446  0.6679584385208628  0.5838620909230201
  0.6654432949423068  0.8328409027182317  0.4157271939355027
  0.9992391861344956  0.0000940350988898  0.3112174067486961
  0.1608517540077372  0.1666928142878064  0.6872376222759939
  0.0011672355999437  0.0077272710068002  0.6871972385993104
  0.1659858407612305  0.1666513971291579  0.3112818339736521
  0.1655461977667798  0.0002312823241297  0.4532634433075842
  0.9982514075726883  0.1687836086346763  0.5452635190265411
  0.3323270148711117  0.9995441500108484  0.3120191035220614
  0.4987435771898561  0.1680725813261290  0.6888964788208511
  0.3322896042551022  0.0033065692227581  0.6882668969692105
  0.4989732179032487  0.1661615271383212  0.3118806526204025
  0.4992010967418921  0.9999852160907281  0.4541455529467626
  0.3324985849816926  0.1661408721066948  0.5458546358674781
  0.6657910847321133  0.9995710207447246  0.3120053068810833
  0.8298176895608194  0.1701086565535661  0.6878832055887685
  0.6655539884713662  0.0041537998221699  0.6883815104088953
  0.8320089539856852  0.1667721495890007  0.3114432547370427
  0.8320381549770985  0.9996432659027903  0.4531273446688360
  0.6656036700540895  0.1676050962588747  0.5463928435065455
  0.9988914670008953  0.3332248564005909  0.3115804488226672
  0.1638352311454270  0.5020163050407547  0.6882906116983492
  0.9975009884016330  0.3372891818950947  0.6881049532174117
  0.1660563715626253  0.4999353946029217  0.3119859892965238
  0.1664050289236911  0.3336877168105090  0.4531455132727444
  0.9992884025494391  0.5007058550898975  0.5463306943385433
  0.3329207965299545  0.3335976459897552  0.3119618618617750
  0.4858108222488937  0.4974788653070235  0.6985840376141468
  0.3283097045442318  0.3317635601674596  0.6836088457829703
  0.4993879716729595  0.5000287001823978  0.3128426176303378
  0.4989161800034552  0.3332622028622794  0.4537893048680175
  0.3333750434042457  0.5012781346945374  0.5478882778521665
  0.6654549866528328  0.3331653169996542  0.3124480333083355
  0.8314287401385059  0.5068940301732567  0.6886291097203951
  0.6606491926311548  0.3372998937400027  0.6886742563305575
  0.8322911564964315  0.4996284135471925  0.3123557973140549
  0.8320730750970924  0.3339681308821341  0.4539978227138448
  0.6639576798976492  0.5026002664792273  0.5485926634247491
  0.9991383564618417  0.6659798554782270  0.3117479236467489
  0.1644872991185267  0.8364073780159629  0.6882276755101699
  0.0004433043031398  0.6694124243509236  0.6887611129967297
  0.1656700797621582  0.8330994334944961  0.3119669605829287
  0.1660498353845981  0.6667098777325791  0.4540894901567185
  0.0003097671305099  0.8342593580310620  0.5456516110880187
  0.3324298189233730  0.6666228801769449  0.3126154115082329
  0.4987416608852513  0.8371222601776154  0.6912228025448997
  0.3297059713031842  0.6693239389689793  0.6912170847231778
  0.4989999949730262  0.8329983473667042  0.3126477778334760
  0.4989079976525730  0.6671611638697854  0.4557140360562002
  0.3332770778902798  0.8337091567160257  0.5473181827208435
  0.6655834696680714  0.6660654526859631  0.3127619399167472
  0.8363739938265624  0.8396101068131685  0.6833377465089683
  0.6715729275334823  0.6816682083599872  0.6987062807945250
  0.8326283907089405  0.8331853276594074  0.3119143061010448
  0.8329982586888107  0.6664994388562420  0.4536507837868911
  0.6656683681118238  0.8331138454677429  0.5478422846040942
  0.5887485244276363  0.5791350940201880  0.7441784692609303
 
  0.00000000E+00  0.00000000E+00  0.00000000E+00
  0.00000000E+00  0.00000000E+00  0.00000000E+00
  0.00000000E+00  0.00000000E+00  0.00000000E+00
  0.00000000E+00  0.00000000E+00  0.00000000E+00
  0.00000000E+00  0.00000000E+00  0.00000000E+00
  0.00000000E+00  0.00000000E+00  0.00000000E+00
  0.00000000E+00  0.00000000E+00  0.00000000E+00
  0.00000000E+00  0.00000000E+00  0.00000000E+00
  0.00000000E+00  0.00000000E+00  0.00000000E+00
  0.00000000E+00  0.00000000E+00  0.00000000E+00
  0.00000000E+00  0.00000000E+00  0.00000000E+00
  0.00000000E+00  0.00000000E+00  0.00000000E+00
  0.00000000E+00  0.00000000E+00  0.00000000E+00
  0.00000000E+00  0.00000000E+00  0.00000000E+00
  0.00000000E+00  0.00000000E+00  0.00000000E+00
  0.00000000E+00  0.00000000E+00  0.00000000E+00
  0.00000000E+00  0.00000000E+00  0.00000000E+00
  0.00000000E+00  0.00000000E+00  0.00000000E+00
  0.00000000E+00  0.00000000E+00  0.00000000E+00
  0.00000000E+00  0.00000000E+00  0.00000000E+00
  0.00000000E+00  0.00000000E+00  0.00000000E+00
  0.00000000E+00  0.00000000E+00  0.00000000E+00
  0.00000000E+00  0.00000000E+00  0.00000000E+00
  0.00000000E+00  0.00000000E+00  0.00000000E+00
  0.00000000E+00  0.00000000E+00  0.00000000E+00
  0.00000000E+00  0.00000000E+00  0.00000000E+00
  0.00000000E+00  0.00000000E+00  0.00000000E+00
  0.00000000E+00  0.00000000E+00  0.00000000E+00
  0.00000000E+00  0.00000000E+00  0.00000000E+00
  0.00000000E+00  0.00000000E+00  0.00000000E+00
  0.00000000E+00  0.00000000E+00  0.00000000E+00
  0.00000000E+00  0.00000000E+00  0.00000000E+00
  0.00000000E+00  0.00000000E+00  0.00000000E+00
  0.00000000E+00  0.00000000E+00  0.00000000E+00
  0.00000000E+00  0.00000000E+00  0.00000000E+00
  0.00000000E+00  0.00000000E+00  0.00000000E+00
  0.00000000E+00  0.00000000E+00  0.00000000E+00
  0.00000000E+00  0.00000000E+00  0.00000000E+00
  0.00000000E+00  0.00000000E+00  0.00000000E+00
  0.00000000E+00  0.00000000E+00  0.00000000E+00
  0.00000000E+00  0.00000000E+00  0.00000000E+00
  0.00000000E+00  0.00000000E+00  0.00000000E+00
  0.00000000E+00  0.00000000E+00  0.00000000E+00
  0.00000000E+00  0.00000000E+00  0.00000000E+00
  0.00000000E+00  0.00000000E+00  0.00000000E+00
  0.00000000E+00  0.00000000E+00  0.00000000E+00
  0.00000000E+00  0.00000000E+00  0.00000000E+00
  0.00000000E+00  0.00000000E+00  0.00000000E+00
  0.00000000E+00  0.00000000E+00  0.00000000E+00
  0.00000000E+00  0.00000000E+00  0.00000000E+00
  0.00000000E+00  0.00000000E+00  0.00000000E+00
  0.00000000E+00  0.00000000E+00  0.00000000E+00
  0.00000000E+00  0.00000000E+00  0.00000000E+00
  0.00000000E+00  0.00000000E+00  0.00000000E+00
  0.00000000E+00  0.00000000E+00  0.00000000E+00
  0.00000000E+00  0.00000000E+00  0.00000000E+00
  0.00000000E+00  0.00000000E+00  0.00000000E+00
  0.00000000E+00  0.00000000E+00  0.00000000E+00
  0.00000000E+00  0.00000000E+00  0.00000000E+00
  0.00000000E+00  0.00000000E+00  0.00000000E+00
  0.00000000E+00  0.00000000E+00  0.00000000E+00
  0.00000000E+00  0.00000000E+00  0.00000000E+00
  0.00000000E+00  0.00000000E+00  0.00000000E+00
  0.00000000E+00  0.00000000E+00  0.00000000E+00
  0.00000000E+00  0.00000000E+00  0.00000000E+00
  0.00000000E+00  0.00000000E+00  0.00000000E+00
  0.00000000E+00  0.00000000E+00  0.00000000E+00
  0.00000000E+00  0.00000000E+00  0.00000000E+00
  0.00000000E+00  0.00000000E+00  0.00000000E+00
  0.00000000E+00  0.00000000E+00  0.00000000E+00
  0.00000000E+00  0.00000000E+00  0.00000000E+00
  0.00000000E+00  0.00000000E+00  0.00000000E+00
  0.00000000E+00  0.00000000E+00  0.00000000E+00
