 Dy2 Te6                                
   1.00000000000000     
     4.3120203228001532    0.0000000000000000    0.0000000000000000
     0.0000000000000000    4.3119322577132673    0.0000000000000000
     0.0000000000000000    0.0000000000000000   24.1073430299040012
   Dy   Te
     2     6
Direct
  0.4999999430959718  0.9999999815311895  0.5850012316511837
  0.0000001023182108  0.5000000455276705  0.4149987520978300
  0.9999999913890179  0.9999999887678968  0.3108163315921004
  0.4999999920546827  0.4999999870924512  0.6891836535991800
  0.0000000024031053  0.9999999868415088  0.6891654489444647
  0.5000000023579645  0.4999999898547571  0.3108345419649226
  0.5000000114845662  0.0000000107168390  0.4535013841930038
  0.9999999548964809  0.5000000096676942  0.5464986559573219
 
  0.00000000E+00  0.00000000E+00  0.00000000E+00
  0.00000000E+00  0.00000000E+00  0.00000000E+00
  0.00000000E+00  0.00000000E+00  0.00000000E+00
  0.00000000E+00  0.00000000E+00  0.00000000E+00
  0.00000000E+00  0.00000000E+00  0.00000000E+00
  0.00000000E+00  0.00000000E+00  0.00000000E+00
  0.00000000E+00  0.00000000E+00  0.00000000E+00
  0.00000000E+00  0.00000000E+00  0.00000000E+00
