Repeated-UnitCell:     2    1    1      
   1.00000000000000     
     8.5753450394000001    0.0000000000000000    0.0000000000000000
     0.0000000000000000    7.1598229407999998    0.0000000000000000
     0.0000000000000000    0.0000000000000000   19.5570220946999989
   Ag   Au   S 
     4     7     8
Direct
  0.1537536615718528  0.6577608679381104  0.5975838726135126
  0.6566793584966983  0.6575455811684183  0.6064260816391711
  0.3307814481371432  0.1663953366460649  0.5955115732807011
  0.8337830911800636  0.1566448577901899  0.6103769947449813
  0.0052878107000981  0.9666265812012840  0.4899655773047072
  0.5473257210379368  0.0177434664668746  0.4964842379663634
  0.4921782174159618  0.5039573549777689  0.4796326641681383
  0.9580325117820714  0.4463954883643346  0.4999673337614681
  0.7489559508234204  0.7318473864731720  0.4326683131271646
  0.2574726575804152  0.2341073411060897  0.3929187548519836
  0.7576386895893260  0.2307631936901588  0.3786200198222658
  0.4969825205381527  0.0727666304832742  0.3817809693388780
  0.9106076824699759  0.9522441292935675  0.3794606972289635
  0.3990506246609663  0.4982903961494557  0.5906099065272891
  0.8993010695309418  0.4912719773959729  0.6151510752787219
  0.0918088842819094  0.9903204328188442  0.6018022850464068
  0.5892160384227089  0.9895910079661413  0.6132642165765315
  0.0161839272822771  0.3918416560025268  0.3860865153990642
  0.6044850534980900  0.5070359880677632  0.3719254673237103
 
  0.00000000E+00  0.00000000E+00  0.00000000E+00
  0.00000000E+00  0.00000000E+00  0.00000000E+00
  0.00000000E+00  0.00000000E+00  0.00000000E+00
  0.00000000E+00  0.00000000E+00  0.00000000E+00
  0.00000000E+00  0.00000000E+00  0.00000000E+00
  0.00000000E+00  0.00000000E+00  0.00000000E+00
  0.00000000E+00  0.00000000E+00  0.00000000E+00
  0.00000000E+00  0.00000000E+00  0.00000000E+00
  0.00000000E+00  0.00000000E+00  0.00000000E+00
  0.00000000E+00  0.00000000E+00  0.00000000E+00
  0.00000000E+00  0.00000000E+00  0.00000000E+00
  0.00000000E+00  0.00000000E+00  0.00000000E+00
  0.00000000E+00  0.00000000E+00  0.00000000E+00
  0.00000000E+00  0.00000000E+00  0.00000000E+00
  0.00000000E+00  0.00000000E+00  0.00000000E+00
  0.00000000E+00  0.00000000E+00  0.00000000E+00
  0.00000000E+00  0.00000000E+00  0.00000000E+00
  0.00000000E+00  0.00000000E+00  0.00000000E+00
  0.00000000E+00  0.00000000E+00  0.00000000E+00
