CONTCAR\(3)                             
   1.00000000000000     
    15.6891002655000005    0.0000000000000000    0.0000000000000000
     7.8445501328000002   13.5871593924000003    0.0000000000000000
     0.0000000000000000    0.0000000000000000   18.9503002167000005
   Te   Pt   O    H 
    32    32     1     1
Selective dynamics
Direct
  0.1664782006461962  0.1675304226011747  0.6112505822748133   F   F   F
  0.1668346052173888  0.1670863711304662  0.3913988637043815   F   F   F
  0.4167581966417302  0.1666354202926428  0.6121968214581841   F   F   F
  0.4181175217649624  0.1659291532376415  0.3935367727599441   F   F   F
  0.6669894721419212  0.1663979766003152  0.6125672522615204   F   F   F
  0.6671622502488503  0.1661631857665924  0.3932275810394898   F   F   F
  0.9169256464206228  0.1666286393773788  0.6121243997652286   F   F   F
  0.9164829380701391  0.1660624483479793  0.3932584822394531   F   F   F
  0.1664607817133970  0.4160126854966251  0.6112124524443061   F   F   F
  0.1668261071884487  0.4161017136201437  0.3913791844175876   F   F   F
  0.4172971084847603  0.4141848423621823  0.6129236311074635   F   F   F
  0.4172522680292587  0.4155449986946067  0.3932923563490860   F   F   F
  0.6693168093977135  0.4144607892233196  0.6126299687034162   F   F   F
  0.6676978971879279  0.4157077787534575  0.3931694845586193   F   F   F
  0.9179479472300116  0.4160154150888502  0.6110187512798433   F   F   F
  0.9190452130726854  0.4154120870641762  0.3907077092367359   F   F   F
  0.1649201485293119  0.6668106454345661  0.6126879761648709   F   F   F
  0.1662168738243395  0.6668282213163934  0.3934760159633086   F   F   F
  0.4189930363940562  0.6655117625452505  0.5962313109495909   F   F   F
  0.4168266409754651  0.6666127241201139  0.3943623825068343   F   F   F
  0.6693226479207297  0.6661894883176487  0.6125954350902276   F   F   F
  0.6676330013808354  0.6665447443561661  0.3931813859985667   F   F   F
  0.9169617274052300  0.6663885225726816  0.6120627869422890   F   F   F
  0.9164550558318112  0.6674782890392876  0.3932652866218689   F   F   F
  0.1648183803389927  0.9182443321036828  0.6127522940183709   F   F   F
  0.1662186216644699  0.9169582391240994  0.3935249047387401   F   F   F
  0.4172377464531465  0.9185486898931430  0.6129051165683492   F   F   F
  0.4172352513402231  0.9172140017696151  0.3932906653705359   F   F   F
  0.6670203186778281  0.9165918297093683  0.6125742973228228   F   F   F
  0.6671562261966457  0.9166466635881250  0.3932236288695279   F   F   F
  0.9165912317940936  0.9166793700701703  0.6123849352015114   F   F   F
  0.9165198328647222  0.9167613088867412  0.3931490108503368   F   F   F
  0.0828807491309362  0.0841771186829234  0.5431158453787006   F   F   F
  0.9997371128971082  0.9998597013379609  0.4621435385531356   F   F   F
  0.3334011409676734  0.0841513195249135  0.5430666212194311   F   F   F
  0.2494218870159770  0.0017424695019912  0.4608350527615528   F   F   F
  0.5836950247672874  0.0831451690301250  0.5441920357428103   F   F   F
  0.5009418656374081  0.9996544616590626  0.4623589136895916   F   F   F
  0.8334525383921800  0.0832907838706802  0.5440756577566717   F   F   F
  0.7503111533380959  0.9998290388008115  0.4622377108031799   F   F   F
  0.0837365933736791  0.3331263068441856  0.5419754103741639   F   F   F
  0.0005068059800379  0.2495060647641409  0.4603374641306459   F   F   F
  0.3334024653572385  0.3324870235191995  0.5430625613590152   F   F   F
  0.2505502023325548  0.2497412247815305  0.4603574513117579   F   F   F
  0.5836965936884653  0.3334568805559712  0.5443629068434959   F   F   F
  0.5009513500754181  0.2493791482140963  0.4623483881747674   F   F   F
  0.8347989788550620  0.3323102625624088  0.5428645485876586   F   F   F
  0.7502219683783835  0.2494649659016659  0.4620961298730393   F   F   F
  0.0828882538133726  0.5829209338566486  0.5430435329870065   F   F   F
  0.0004673414326675  0.4999649085285256  0.4602753867445557   F   F   F
  0.3308793630446161  0.5799077294240078  0.5431644025472409   F   F   F
  0.2494340678299025  0.4988352926701651  0.4608075207421294   F   F   F
  0.5908263250798171  0.5795678827417845  0.5421554625950264   F   F   F
  0.5008417449232709  0.4988468607051644  0.4610818559064995   F   F   F
  0.8347859534297228  0.5828411139866887  0.5428268818275086   F   F   F
  0.7533218107896715  0.4983111540399605  0.4600760762971134   F   F   F
  0.0834553869958512  0.8332530211771854  0.5440647889445316   F   F   F
  0.9997371035973828  0.7504302340260196  0.4621145288058912   F   F   F
  0.3307823684108797  0.8392579146435182  0.5431878723734513   F   F   F
  0.2495836312659705  0.7501766475138893  0.4616092526793949   F   F   F
  0.5836893295049208  0.8328508962145733  0.5443905323236677   F   F   F
  0.5008012325557516  0.7503434539880587  0.4611377552227083   F   F   F
  0.8334448237668894  0.8332114141918865  0.5440254993919780   F   F   F
  0.7501864942070213  0.7502689855520615  0.4620859251275959   F   F   F
  0.4365248014595906  0.6567411450466878  0.7026817134913586   T   T   T
  0.3714032016572303  0.6896957976369010  0.7239867124666772   T   T   T
 
  0.00000000E+00  0.00000000E+00  0.00000000E+00
  0.00000000E+00  0.00000000E+00  0.00000000E+00
  0.00000000E+00  0.00000000E+00  0.00000000E+00
  0.00000000E+00  0.00000000E+00  0.00000000E+00
  0.00000000E+00  0.00000000E+00  0.00000000E+00
  0.00000000E+00  0.00000000E+00  0.00000000E+00
  0.00000000E+00  0.00000000E+00  0.00000000E+00
  0.00000000E+00  0.00000000E+00  0.00000000E+00
  0.00000000E+00  0.00000000E+00  0.00000000E+00
  0.00000000E+00  0.00000000E+00  0.00000000E+00
  0.00000000E+00  0.00000000E+00  0.00000000E+00
  0.00000000E+00  0.00000000E+00  0.00000000E+00
  0.00000000E+00  0.00000000E+00  0.00000000E+00
  0.00000000E+00  0.00000000E+00  0.00000000E+00
  0.00000000E+00  0.00000000E+00  0.00000000E+00
  0.00000000E+00  0.00000000E+00  0.00000000E+00
  0.00000000E+00  0.00000000E+00  0.00000000E+00
  0.00000000E+00  0.00000000E+00  0.00000000E+00
  0.00000000E+00  0.00000000E+00  0.00000000E+00
  0.00000000E+00  0.00000000E+00  0.00000000E+00
  0.00000000E+00  0.00000000E+00  0.00000000E+00
  0.00000000E+00  0.00000000E+00  0.00000000E+00
  0.00000000E+00  0.00000000E+00  0.00000000E+00
  0.00000000E+00  0.00000000E+00  0.00000000E+00
  0.00000000E+00  0.00000000E+00  0.00000000E+00
  0.00000000E+00  0.00000000E+00  0.00000000E+00
  0.00000000E+00  0.00000000E+00  0.00000000E+00
  0.00000000E+00  0.00000000E+00  0.00000000E+00
  0.00000000E+00  0.00000000E+00  0.00000000E+00
  0.00000000E+00  0.00000000E+00  0.00000000E+00
  0.00000000E+00  0.00000000E+00  0.00000000E+00
  0.00000000E+00  0.00000000E+00  0.00000000E+00
  0.00000000E+00  0.00000000E+00  0.00000000E+00
  0.00000000E+00  0.00000000E+00  0.00000000E+00
  0.00000000E+00  0.00000000E+00  0.00000000E+00
  0.00000000E+00  0.00000000E+00  0.00000000E+00
  0.00000000E+00  0.00000000E+00  0.00000000E+00
  0.00000000E+00  0.00000000E+00  0.00000000E+00
  0.00000000E+00  0.00000000E+00  0.00000000E+00
  0.00000000E+00  0.00000000E+00  0.00000000E+00
  0.00000000E+00  0.00000000E+00  0.00000000E+00
  0.00000000E+00  0.00000000E+00  0.00000000E+00
  0.00000000E+00  0.00000000E+00  0.00000000E+00
  0.00000000E+00  0.00000000E+00  0.00000000E+00
  0.00000000E+00  0.00000000E+00  0.00000000E+00
  0.00000000E+00  0.00000000E+00  0.00000000E+00
  0.00000000E+00  0.00000000E+00  0.00000000E+00
  0.00000000E+00  0.00000000E+00  0.00000000E+00
  0.00000000E+00  0.00000000E+00  0.00000000E+00
  0.00000000E+00  0.00000000E+00  0.00000000E+00
  0.00000000E+00  0.00000000E+00  0.00000000E+00
  0.00000000E+00  0.00000000E+00  0.00000000E+00
  0.00000000E+00  0.00000000E+00  0.00000000E+00
  0.00000000E+00  0.00000000E+00  0.00000000E+00
  0.00000000E+00  0.00000000E+00  0.00000000E+00
  0.00000000E+00  0.00000000E+00  0.00000000E+00
  0.00000000E+00  0.00000000E+00  0.00000000E+00
  0.00000000E+00  0.00000000E+00  0.00000000E+00
  0.00000000E+00  0.00000000E+00  0.00000000E+00
  0.00000000E+00  0.00000000E+00  0.00000000E+00
  0.00000000E+00  0.00000000E+00  0.00000000E+00
  0.00000000E+00  0.00000000E+00  0.00000000E+00
  0.00000000E+00  0.00000000E+00  0.00000000E+00
  0.00000000E+00  0.00000000E+00  0.00000000E+00
  0.00000000E+00  0.00000000E+00  0.00000000E+00
  0.00000000E+00  0.00000000E+00  0.00000000E+00
