 Li1 C12                                
   1.00000000000000     
     4.2882935580407286    0.0000000000000000    0.0000000000000000
    -2.1441472780173831    3.7137704743895328    0.0000000000000000
     0.0000000000000000    0.0000000000000000   18.7834559017439986
   Li   C 
     1    12
Direct
  0.9999999612703476  0.9999999316824741  0.5000000300773308
  0.6667294415774592  0.9999999695226265  0.3993336871314028
  0.9999999773897059  0.6667294625065523  0.3993336966400349
  0.3332705447331108  0.3332705359445924  0.3993336758404595
  0.3332705797925115  0.0000000538309095  0.3993336911557464
  0.0000000395537967  0.3332705244900183  0.3993336970516452
  0.6667294361977412  0.6667294418470320  0.3993336747258809
  0.3332705625921406  0.0000000485114100  0.6006663082398376
  0.0000000453033167  0.3332705669729421  0.6006663013266760
  0.6667294460260891  0.6667294523010767  0.6006663173388702
  0.6667294494240394  0.9999999748725088  0.6006663105801238
  0.9999999559996979  0.6667294544052140  0.6006662941608738
  0.3332705601400434  0.3332705831126361  0.6006663157311252
 
  0.00000000E+00  0.00000000E+00  0.00000000E+00
  0.00000000E+00  0.00000000E+00  0.00000000E+00
  0.00000000E+00  0.00000000E+00  0.00000000E+00
  0.00000000E+00  0.00000000E+00  0.00000000E+00
  0.00000000E+00  0.00000000E+00  0.00000000E+00
  0.00000000E+00  0.00000000E+00  0.00000000E+00
  0.00000000E+00  0.00000000E+00  0.00000000E+00
  0.00000000E+00  0.00000000E+00  0.00000000E+00
  0.00000000E+00  0.00000000E+00  0.00000000E+00
  0.00000000E+00  0.00000000E+00  0.00000000E+00
  0.00000000E+00  0.00000000E+00  0.00000000E+00
  0.00000000E+00  0.00000000E+00  0.00000000E+00
  0.00000000E+00  0.00000000E+00  0.00000000E+00
