CONTCAR\(8)                             
   1.00000000000000     
    11.8208999634000005    0.0000000000000000    0.0000000000000000
     2.9552306013999998    8.5110336759000003    0.0000000000000000
     0.0000000000000000    0.0000000000000000   24.9838008880999993
   Na   Ti   S 
     6    20    40
Direct
  0.1419152446048528  0.9999975784497437  0.4981265954302501
  0.3634111477015765  0.3783790824786593  0.5015909917098824
  0.0526153963154314  0.6216399209866807  0.5016021080418867
  0.6419152036048530  0.9999975784497437  0.4981265954302501
  0.8634111477015765  0.3783790824786593  0.5015909917098824
  0.5526153963154314  0.6216399209866807  0.5016021080418867
  0.4326621632634868  0.8018010180101811  0.6396301443852934
  0.1357558283321225  0.9999889148278811  0.6411979938743713
  0.4672975441767662  0.9999992354021998  0.3601195175114071
  0.3335457298397557  0.1981914291188787  0.6396240629077070
  0.1686946450906746  0.1983825328770195  0.3604327558778948
  0.0316802071645768  0.4008446791575508  0.6397707069921168
  0.3665167106117266  0.4010687750715363  0.3592599071826399
  0.2321185211413592  0.5991113909544694  0.6397752643942241
  0.0670385601043932  0.5989146424810983  0.3592619417335996
  0.2678900917531379  0.8016432501505619  0.3604343140214326
  0.9326621632634868  0.8018010180101811  0.6396301443852934
  0.6357558483321242  0.9999889148278811  0.6411979938743713
  0.9672975441767662  0.9999992354021998  0.3601195175114071
  0.8335458108397518  0.1981914291188787  0.6396240629077070
  0.6686946450906746  0.1983825328770195  0.3604327558778948
  0.5316801931645756  0.4008346501575488  0.6397707069921168
  0.8665166296117235  0.4010687750715363  0.3592599071826399
  0.7321185211413592  0.5991113909544694  0.6397752643942241
  0.5670385601043932  0.5989146424810983  0.3592619417335996
  0.7678900117531384  0.8016432501505619  0.3604343140214326
  0.1005703842164678  0.8018272269982702  0.5814821474898650
  0.4340620656917906  0.7999439575105356  0.3038003482481670
  0.3019141969018122  0.9999981222238219  0.5811341808989852
  0.1342518878215557  0.0000036162526413  0.3040059020408563
  0.0015081493451135  0.1981469280271853  0.5814786172160211
  0.3340694892711866  0.2000092046134938  0.3037998331183047
  0.1973450735509346  0.3991588060157554  0.5806953327788733
  0.4667806258223450  0.0000327226584176  0.6962172368975033
  0.0341218073802168  0.3992408900226465  0.3038164104075847
  0.3038403535790337  0.0000485018885783  0.4189548464094059
  0.3969149039133057  0.6008408701331618  0.5807241988508096
  0.1666366440840434  0.2013760348494245  0.6962781342815134
  0.2337690601284379  0.6007026037840717  0.3038101703666243
  0.0009898502670111  0.2004311919877537  0.4186306950830954
  0.3661931785197368  0.3999343962572084  0.6957709541617021
  0.1989517433244288  0.3999635723204236  0.4190253754295981
  0.0661428190953472  0.6000909500208422  0.6957753245893628
  0.3989418324547813  0.6000774067596666  0.4190207614753874
  0.2672761056471415  0.7986699144141056  0.6962782543915438
  0.1012279578854489  0.7995911892955689  0.4186350428020873
  0.6005703432164680  0.8018272269982702  0.5814821474898650
  0.9340620656917906  0.7999439575105356  0.3038003482481670
  0.8019141759018140  0.9999981222238219  0.5811341808989852
  0.6342518188215536  0.9999936832526402  0.3040059020408563
  0.5015081583451106  0.1981369270271855  0.5814786172160211
  0.8340694892711866  0.2000092046134938  0.3037998331183047
  0.6973451545509377  0.3991588060157554  0.5806953327788733
  0.9667807068223411  0.0000327226584176  0.6962172368975033
  0.5341218073802168  0.3992408900226465  0.3038164104075847
  0.8038403745790319  0.0000485018885783  0.4189548464094059
  0.8969148639133095  0.6008408701331618  0.5807241988508096
  0.6666366640840451  0.2013760348494245  0.6962781342815134
  0.7337691411284410  0.6007026037840717  0.3038101703666243
  0.5009898502670111  0.2004311919877537  0.4186306950830954
  0.8661932185197330  0.3999343962572084  0.6957709541617021
  0.6989518233244283  0.3999635723204236  0.4190253754295981
  0.5661428190953544  0.6000909500208422  0.6957753245893628
  0.8989418384547818  0.6000673777596646  0.4190207614753874
  0.7672761866471376  0.7986699144141056  0.6962782543915438
  0.6012279578854489  0.7995911892955689  0.4186350428020873
 
  0.00000000E+00  0.00000000E+00  0.00000000E+00
  0.00000000E+00  0.00000000E+00  0.00000000E+00
  0.00000000E+00  0.00000000E+00  0.00000000E+00
  0.00000000E+00  0.00000000E+00  0.00000000E+00
  0.00000000E+00  0.00000000E+00  0.00000000E+00
  0.00000000E+00  0.00000000E+00  0.00000000E+00
  0.00000000E+00  0.00000000E+00  0.00000000E+00
  0.00000000E+00  0.00000000E+00  0.00000000E+00
  0.00000000E+00  0.00000000E+00  0.00000000E+00
  0.00000000E+00  0.00000000E+00  0.00000000E+00
  0.00000000E+00  0.00000000E+00  0.00000000E+00
  0.00000000E+00  0.00000000E+00  0.00000000E+00
  0.00000000E+00  0.00000000E+00  0.00000000E+00
  0.00000000E+00  0.00000000E+00  0.00000000E+00
  0.00000000E+00  0.00000000E+00  0.00000000E+00
  0.00000000E+00  0.00000000E+00  0.00000000E+00
  0.00000000E+00  0.00000000E+00  0.00000000E+00
  0.00000000E+00  0.00000000E+00  0.00000000E+00
  0.00000000E+00  0.00000000E+00  0.00000000E+00
  0.00000000E+00  0.00000000E+00  0.00000000E+00
  0.00000000E+00  0.00000000E+00  0.00000000E+00
  0.00000000E+00  0.00000000E+00  0.00000000E+00
  0.00000000E+00  0.00000000E+00  0.00000000E+00
  0.00000000E+00  0.00000000E+00  0.00000000E+00
  0.00000000E+00  0.00000000E+00  0.00000000E+00
  0.00000000E+00  0.00000000E+00  0.00000000E+00
  0.00000000E+00  0.00000000E+00  0.00000000E+00
  0.00000000E+00  0.00000000E+00  0.00000000E+00
  0.00000000E+00  0.00000000E+00  0.00000000E+00
  0.00000000E+00  0.00000000E+00  0.00000000E+00
  0.00000000E+00  0.00000000E+00  0.00000000E+00
  0.00000000E+00  0.00000000E+00  0.00000000E+00
  0.00000000E+00  0.00000000E+00  0.00000000E+00
  0.00000000E+00  0.00000000E+00  0.00000000E+00
  0.00000000E+00  0.00000000E+00  0.00000000E+00
  0.00000000E+00  0.00000000E+00  0.00000000E+00
  0.00000000E+00  0.00000000E+00  0.00000000E+00
  0.00000000E+00  0.00000000E+00  0.00000000E+00
  0.00000000E+00  0.00000000E+00  0.00000000E+00
  0.00000000E+00  0.00000000E+00  0.00000000E+00
  0.00000000E+00  0.00000000E+00  0.00000000E+00
  0.00000000E+00  0.00000000E+00  0.00000000E+00
  0.00000000E+00  0.00000000E+00  0.00000000E+00
  0.00000000E+00  0.00000000E+00  0.00000000E+00
  0.00000000E+00  0.00000000E+00  0.00000000E+00
  0.00000000E+00  0.00000000E+00  0.00000000E+00
  0.00000000E+00  0.00000000E+00  0.00000000E+00
  0.00000000E+00  0.00000000E+00  0.00000000E+00
  0.00000000E+00  0.00000000E+00  0.00000000E+00
  0.00000000E+00  0.00000000E+00  0.00000000E+00
  0.00000000E+00  0.00000000E+00  0.00000000E+00
  0.00000000E+00  0.00000000E+00  0.00000000E+00
  0.00000000E+00  0.00000000E+00  0.00000000E+00
  0.00000000E+00  0.00000000E+00  0.00000000E+00
  0.00000000E+00  0.00000000E+00  0.00000000E+00
  0.00000000E+00  0.00000000E+00  0.00000000E+00
  0.00000000E+00  0.00000000E+00  0.00000000E+00
  0.00000000E+00  0.00000000E+00  0.00000000E+00
  0.00000000E+00  0.00000000E+00  0.00000000E+00
  0.00000000E+00  0.00000000E+00  0.00000000E+00
  0.00000000E+00  0.00000000E+00  0.00000000E+00
  0.00000000E+00  0.00000000E+00  0.00000000E+00
  0.00000000E+00  0.00000000E+00  0.00000000E+00
  0.00000000E+00  0.00000000E+00  0.00000000E+00
  0.00000000E+00  0.00000000E+00  0.00000000E+00
  0.00000000E+00  0.00000000E+00  0.00000000E+00
