CONTCAR\(6)                             
   1.00000000000000     
    11.8264999389999996    0.0000000000000000    0.0000000000000000
    -5.9132499694999998   10.2420493849999996    0.0000000000000000
     0.0000000000000000    0.0000000000000000   18.5140991210999992
   Hf   Te   O    H 
     9    18     1     1
Direct
  0.0020703842540007  0.0012239259902742  0.4922301417208364
  0.3355457382150741  0.0018294600870833  0.4967253407573374
  0.6695350246613707  0.0029970089738934  0.4944118312400348
  0.9973643110944423  0.3324991608176397  0.4943748464339277
  0.3351363006443822  0.3338512659275070  0.4967165588740769
  0.6662402261820619  0.3338951671342319  0.4965332549394950
  0.9978692864497003  0.6659383835658581  0.4948898713527738
  0.3376830779178654  0.6684707624949056  0.5464004426057238
  0.6693721861877150  0.6677531935194747  0.4948190674756483
  0.1139103053388709  0.2253201734552794  0.3980559748019147
  0.2195416614118918  0.1098138121564751  0.5918825609883885
  0.4447452670550330  0.2227461745884978  0.3997732925281268
  0.5583430842539073  0.1133814022327926  0.5929543971246329
  0.7778207359294590  0.2241816293952828  0.3980767378295903
  0.8923252059350840  0.1108991607051207  0.5909089689363023
  0.1368799554490829  0.5689054744817769  0.4166799710985252
  0.1991639828856041  0.4026728145231783  0.5989085212212479
  0.4349554477586000  0.5670261983729330  0.4154538764883402
  0.5579407072495181  0.4459818286382077  0.5930981838225662
  0.7781861866783388  0.5553135456924995  0.3983775113166206
  0.8870762103522513  0.4438208623346448  0.5923734366409469
  0.1141752972207724  0.8891966881721725  0.3981860040725487
  0.2007910894949574  0.7968860854122799  0.5992278954264179
  0.4350089182518541  0.8683052815618366  0.4153868460056876
  0.6054795902163749  0.8036997629776125  0.5984642695710348
  0.7789285133834306  0.8898712666662679  0.3969465890075448
  0.8926106686299461  0.7823553416150812  0.5911310584238180
  0.3503377618028097  0.6735381563210893  0.6536837279156564
  0.2814829080955817  0.6366560151861433  0.6898188513802348
 
  0.00000000E+00  0.00000000E+00  0.00000000E+00
  0.00000000E+00  0.00000000E+00  0.00000000E+00
  0.00000000E+00  0.00000000E+00  0.00000000E+00
  0.00000000E+00  0.00000000E+00  0.00000000E+00
  0.00000000E+00  0.00000000E+00  0.00000000E+00
  0.00000000E+00  0.00000000E+00  0.00000000E+00
  0.00000000E+00  0.00000000E+00  0.00000000E+00
  0.00000000E+00  0.00000000E+00  0.00000000E+00
  0.00000000E+00  0.00000000E+00  0.00000000E+00
  0.00000000E+00  0.00000000E+00  0.00000000E+00
  0.00000000E+00  0.00000000E+00  0.00000000E+00
  0.00000000E+00  0.00000000E+00  0.00000000E+00
  0.00000000E+00  0.00000000E+00  0.00000000E+00
  0.00000000E+00  0.00000000E+00  0.00000000E+00
  0.00000000E+00  0.00000000E+00  0.00000000E+00
  0.00000000E+00  0.00000000E+00  0.00000000E+00
  0.00000000E+00  0.00000000E+00  0.00000000E+00
  0.00000000E+00  0.00000000E+00  0.00000000E+00
  0.00000000E+00  0.00000000E+00  0.00000000E+00
  0.00000000E+00  0.00000000E+00  0.00000000E+00
  0.00000000E+00  0.00000000E+00  0.00000000E+00
  0.00000000E+00  0.00000000E+00  0.00000000E+00
  0.00000000E+00  0.00000000E+00  0.00000000E+00
  0.00000000E+00  0.00000000E+00  0.00000000E+00
  0.00000000E+00  0.00000000E+00  0.00000000E+00
  0.00000000E+00  0.00000000E+00  0.00000000E+00
  0.00000000E+00  0.00000000E+00  0.00000000E+00
  0.00000000E+00  0.00000000E+00  0.00000000E+00
  0.00000000E+00  0.00000000E+00  0.00000000E+00
