CONTCAR                                 
   1.00000000000000     
    12.3274002075000002    0.0000000000000000    0.0000000000000000
     0.0000000000000000   15.7540998459000008    0.0000000000000000
     0.0000000000000000    0.0000000000000000   20.2700004577999984
   Pr   Br   O    H 
    12    30     1     1
Selective dynamics
Direct
  0.2488025448708484  0.6410044422280521  0.5134144446863118   F   F   F
  0.0834516624979358  0.3637592853689071  0.4786632629060392   F   F   F
  0.2491647406927626  0.1370395754046001  0.5254069533922916   F   F   F
  0.0833753342057548  0.8650245930062184  0.4654270115708243   F   F   F
  0.5835077616041460  0.6278134564496796  0.5612879725434254   F   F   F
  0.4146193661522304  0.3628257253874310  0.4832435388910739   F   F   F
  0.5834241097781856  0.1366689005582060  0.5259056858956086   F   F   F
  0.4061719245508115  0.8669897418826480  0.4663096204224431   F   F   F
  0.9182147390935853  0.6408854675521880  0.5136274052653818   F   F   F
  0.7521984743928627  0.3627092955024906  0.4832696559695862   F   F   F
  0.9176384973752434  0.1369805290090298  0.5254807973180675   F   F   F
  0.7606611758152866  0.8669046202937878  0.4663543851623047   F   F   F
  0.2489482762656294  0.8790928058520464  0.3613422420151338   F   F   F
  0.0835086663357103  0.1219724524219856  0.6283334257498794   F   F   F
  0.2516567884647287  0.4837267009499016  0.4191616471775035   F   F   F
  0.0836105514982464  0.5195002863621028  0.5726372559086599   F   F   F
  0.0833443741803634  0.0612993702024625  0.4327834382273679   F   F   F
  0.2454028058667461  0.9442105696740981  0.5580056634924446   F   F   F
  0.0834393455421960  0.7462066431705736  0.5857721042866615   F   F   F
  0.2506995423110752  0.2582743083072003  0.4069881023031527   F   F   F
  0.0833322372618284  0.6840783422972123  0.4107357191553120   F   F   F
  0.2455365152398272  0.3147906146406072  0.5822770534604373   F   F   F
  0.5834239519024393  0.8738644439297047  0.3695580929883633   F   F   F
  0.4168806031109682  0.1196234577779407  0.6273379570410782   F   F   F
  0.5835642538747763  0.4866173588289726  0.4385285957758356   F   F   F
  0.3921102743010039  0.5122441399399307  0.5818061707417286   F   F   F
  0.4164980873854560  0.0606602856777698  0.4339049368679895   F   F   F
  0.5834217420186008  0.9356187167982668  0.5554793569508121   F   F   F
  0.4001607571812329  0.7538406849964829  0.5908097988273724   F   F   F
  0.5833633729036833  0.2599864972880681  0.4087058136218573   F   F   F
  0.4308557649705023  0.6831306742246994  0.4259643621033575   F   F   F
  0.5833908680919251  0.3168724959036382  0.5841951501418663   F   F   F
  0.9178283231894611  0.8788727045411733  0.3613130116158985   F   F   F
  0.7498811047718945  0.1196219761371538  0.6273532549097354   F   F   F
  0.9152395911358440  0.4837075218406213  0.4192715224799031   F   F   F
  0.7748506782788738  0.5121357811896772  0.5820010443017409   F   F   F
  0.7503466352606978  0.0606364700556909  0.4339004257679946   F   F   F
  0.9214066425759881  0.9441788843771448  0.5580876194178828   F   F   F
  0.7667484554005242  0.7538393643294938  0.5908669551510144   F   F   F
  0.9162445805766950  0.2582802844448366  0.4070151922610989   F   F   F
  0.7362050971882681  0.6830464439342236  0.4260824545335353   F   F   F
  0.9214532798121766  0.3147804280089375  0.5822634718866553   F   F   F
  0.5834187788871503  0.6225740200383285  0.6638867749081712   T   T   T
  0.5839480471859133  0.6233492302157870  0.7108603950561291   T   T   T
 
  0.00000000E+00  0.00000000E+00  0.00000000E+00
  0.00000000E+00  0.00000000E+00  0.00000000E+00
  0.00000000E+00  0.00000000E+00  0.00000000E+00
  0.00000000E+00  0.00000000E+00  0.00000000E+00
  0.00000000E+00  0.00000000E+00  0.00000000E+00
  0.00000000E+00  0.00000000E+00  0.00000000E+00
  0.00000000E+00  0.00000000E+00  0.00000000E+00
  0.00000000E+00  0.00000000E+00  0.00000000E+00
  0.00000000E+00  0.00000000E+00  0.00000000E+00
  0.00000000E+00  0.00000000E+00  0.00000000E+00
  0.00000000E+00  0.00000000E+00  0.00000000E+00
  0.00000000E+00  0.00000000E+00  0.00000000E+00
  0.00000000E+00  0.00000000E+00  0.00000000E+00
  0.00000000E+00  0.00000000E+00  0.00000000E+00
  0.00000000E+00  0.00000000E+00  0.00000000E+00
  0.00000000E+00  0.00000000E+00  0.00000000E+00
  0.00000000E+00  0.00000000E+00  0.00000000E+00
  0.00000000E+00  0.00000000E+00  0.00000000E+00
  0.00000000E+00  0.00000000E+00  0.00000000E+00
  0.00000000E+00  0.00000000E+00  0.00000000E+00
  0.00000000E+00  0.00000000E+00  0.00000000E+00
  0.00000000E+00  0.00000000E+00  0.00000000E+00
  0.00000000E+00  0.00000000E+00  0.00000000E+00
  0.00000000E+00  0.00000000E+00  0.00000000E+00
  0.00000000E+00  0.00000000E+00  0.00000000E+00
  0.00000000E+00  0.00000000E+00  0.00000000E+00
  0.00000000E+00  0.00000000E+00  0.00000000E+00
  0.00000000E+00  0.00000000E+00  0.00000000E+00
  0.00000000E+00  0.00000000E+00  0.00000000E+00
  0.00000000E+00  0.00000000E+00  0.00000000E+00
  0.00000000E+00  0.00000000E+00  0.00000000E+00
  0.00000000E+00  0.00000000E+00  0.00000000E+00
  0.00000000E+00  0.00000000E+00  0.00000000E+00
  0.00000000E+00  0.00000000E+00  0.00000000E+00
  0.00000000E+00  0.00000000E+00  0.00000000E+00
  0.00000000E+00  0.00000000E+00  0.00000000E+00
  0.00000000E+00  0.00000000E+00  0.00000000E+00
  0.00000000E+00  0.00000000E+00  0.00000000E+00
  0.00000000E+00  0.00000000E+00  0.00000000E+00
  0.00000000E+00  0.00000000E+00  0.00000000E+00
  0.00000000E+00  0.00000000E+00  0.00000000E+00
  0.00000000E+00  0.00000000E+00  0.00000000E+00
  0.00000000E+00  0.00000000E+00  0.00000000E+00
  0.00000000E+00  0.00000000E+00  0.00000000E+00
