CONTCAR\(17)                            
   1.00000000000000     
    10.6176996231000000    0.0000000000000000    0.0000000000000000
     0.0000000000000000   17.6849002838000011    0.0000000000000000
     0.0000000000000000    0.0000000000000000   18.8054008484000015
   K    Fe   Se   O 
     8    16    24     1
Selective dynamics
Direct
  0.3746053035115011  0.2499194083134029  0.3983256288400199   F   F   F
  0.1228015189536009  0.2492113713611488  0.5957549819160235   F   F   F
  0.8747150246426401  0.2504914466898569  0.3986022842614787   F   F   F
  0.6268700769478883  0.2496579437015640  0.5961783143676769   F   F   F
  0.3752802148092087  0.7477039884009926  0.4374979728217667   F   F   F
  0.1344720866441520  0.7450256880401156  0.5976109374174072   F   F   F
  0.8755107021650801  0.7481050988620552  0.4262478359018260   F   F   F
  0.6162779155382268  0.7444252433125271  0.5980634403308187   F   F   F
  0.2493894619697841  0.0826068320521571  0.4968522059400158   F   F   F
  0.9997816008925824  0.0791559537262145  0.4972575588348960   F   F   F
  0.2502125154685828  0.9395786298466007  0.4993770166297864   F   F   F
  0.9990382485023517  0.9315587320773275  0.5053599533743522   F   F   F
  0.7494616070109856  0.0792346082021282  0.4969588436068548   F   F   F
  0.4999668854352208  0.0826719591998142  0.4967707179912892   F   F   F
  0.7508155793729401  0.9316416241306484  0.5051757271235928   F   F   F
  0.4998591649864110  0.9395776716797144  0.4989011928570832   F   F   F
  0.2500891976864352  0.5619354149378850  0.5053068107216916   F   F   F
  0.9960105514892845  0.5656861566849045  0.5067610593374070   F   F   F
  0.2492092683994613  0.4164833614934054  0.4976889211356834   F   F   F
  0.9992332507217299  0.4186659537068920  0.4960708121529507   F   F   F
  0.7545301514142793  0.5657726285966689  0.5071271711295893   F   F   F
  0.5004103381141292  0.5621172477311731  0.5056484177625009   F   F   F
  0.7508035543671738  0.4186209210730070  0.4965299011553626   F   F   F
  0.5008464718723360  0.4165473762422280  0.4984323353150018   F   F   F
  0.3745811808452473  0.0097247873410069  0.4229244337231108   F   F   F
  0.1253385038709283  0.0125234722347756  0.5753485088228985   F   F   F
  0.3746484627428828  0.1536462204909341  0.5668877700817490   F   F   F
  0.1227298546750433  0.1490264103006353  0.4243680902462899   F   F   F
  0.1288840229772177  0.8587801661785761  0.4346419512182891   F   F   F
  0.3758216599205824  0.8877125532476313  0.5846136524560279   F   F   F
  0.8749731756847794  0.0034280862518870  0.4263811941420528   F   F   F
  0.6241231251348722  0.0125891778838039  0.5750249328619574   F   F   F
  0.8743564399103221  0.1504178926970283  0.5667104892155663   F   F   F
  0.6263751435974072  0.1493618374412407  0.4242846139576386   F   F   F
  0.6214224767672007  0.8586954248322769  0.4344694394980593   F   F   F
  0.8743795346280976  0.8609733120413594  0.5824940590094130   F   F   F
  0.3756345028401995  0.4920434970559313  0.4271220457378107   F   F   F
  0.1240335587861878  0.4838933322920980  0.5764577104799571   F   F   F
  0.3746565082053905  0.6163658721587737  0.5914362784026821   F   F   F
  0.1263309452730965  0.6391934293489143  0.4350148481704252   F   F   F
  0.1247503225925257  0.3524382017971064  0.4218877754242598   F   F   F
  0.3743542241715616  0.3451434032518179  0.5669913303509944   F   F   F
  0.8746084907152110  0.4924927326032460  0.4237358074879936   F   F   F
  0.6264888518021010  0.4841389269684058  0.5770251800021100   F   F   F
  0.8756753420291190  0.6336795840429232  0.5903649918681424   F   F   F
  0.6244095919800401  0.6392532444835268  0.4351878285678410   F   F   F
  0.6251053250671106  0.3523630625075072  0.4226832812588768   F   F   F
  0.8754143855722276  0.3476571073410994  0.5672696363247596   F   F   F
  0.3757437712946512  0.7881228341450922  0.5784961815718753   T   T   T
 
  0.00000000E+00  0.00000000E+00  0.00000000E+00
  0.00000000E+00  0.00000000E+00  0.00000000E+00
  0.00000000E+00  0.00000000E+00  0.00000000E+00
  0.00000000E+00  0.00000000E+00  0.00000000E+00
  0.00000000E+00  0.00000000E+00  0.00000000E+00
  0.00000000E+00  0.00000000E+00  0.00000000E+00
  0.00000000E+00  0.00000000E+00  0.00000000E+00
  0.00000000E+00  0.00000000E+00  0.00000000E+00
  0.00000000E+00  0.00000000E+00  0.00000000E+00
  0.00000000E+00  0.00000000E+00  0.00000000E+00
  0.00000000E+00  0.00000000E+00  0.00000000E+00
  0.00000000E+00  0.00000000E+00  0.00000000E+00
  0.00000000E+00  0.00000000E+00  0.00000000E+00
  0.00000000E+00  0.00000000E+00  0.00000000E+00
  0.00000000E+00  0.00000000E+00  0.00000000E+00
  0.00000000E+00  0.00000000E+00  0.00000000E+00
  0.00000000E+00  0.00000000E+00  0.00000000E+00
  0.00000000E+00  0.00000000E+00  0.00000000E+00
  0.00000000E+00  0.00000000E+00  0.00000000E+00
  0.00000000E+00  0.00000000E+00  0.00000000E+00
  0.00000000E+00  0.00000000E+00  0.00000000E+00
  0.00000000E+00  0.00000000E+00  0.00000000E+00
  0.00000000E+00  0.00000000E+00  0.00000000E+00
  0.00000000E+00  0.00000000E+00  0.00000000E+00
  0.00000000E+00  0.00000000E+00  0.00000000E+00
  0.00000000E+00  0.00000000E+00  0.00000000E+00
  0.00000000E+00  0.00000000E+00  0.00000000E+00
  0.00000000E+00  0.00000000E+00  0.00000000E+00
  0.00000000E+00  0.00000000E+00  0.00000000E+00
  0.00000000E+00  0.00000000E+00  0.00000000E+00
  0.00000000E+00  0.00000000E+00  0.00000000E+00
  0.00000000E+00  0.00000000E+00  0.00000000E+00
  0.00000000E+00  0.00000000E+00  0.00000000E+00
  0.00000000E+00  0.00000000E+00  0.00000000E+00
  0.00000000E+00  0.00000000E+00  0.00000000E+00
  0.00000000E+00  0.00000000E+00  0.00000000E+00
  0.00000000E+00  0.00000000E+00  0.00000000E+00
  0.00000000E+00  0.00000000E+00  0.00000000E+00
  0.00000000E+00  0.00000000E+00  0.00000000E+00
  0.00000000E+00  0.00000000E+00  0.00000000E+00
  0.00000000E+00  0.00000000E+00  0.00000000E+00
  0.00000000E+00  0.00000000E+00  0.00000000E+00
  0.00000000E+00  0.00000000E+00  0.00000000E+00
  0.00000000E+00  0.00000000E+00  0.00000000E+00
  0.00000000E+00  0.00000000E+00  0.00000000E+00
  0.00000000E+00  0.00000000E+00  0.00000000E+00
  0.00000000E+00  0.00000000E+00  0.00000000E+00
  0.00000000E+00  0.00000000E+00  0.00000000E+00
  0.00000000E+00  0.00000000E+00  0.00000000E+00
