CONTCAR\(2)                             
   1.00000000000000     
    11.7923002242999999    0.0000000000000000    0.0000000000000000
     0.0000000000000000   21.3097991942999982    0.0000000000000000
     0.0000000000000000    0.0000000000000000   18.7763004303000010
   V    Ag   P    S    O 
     8     8    16    48     1
Direct
  0.1405084986033289  0.4635747345255931  0.5065303286665863
  0.3841061945111097  0.0384827432107974  0.4918384252117984
  0.6322662968026252  0.4652809411350887  0.5095752413780051
  0.8832520970259996  0.0366563778543577  0.4929457350805401
  0.1150351363917116  0.9624059488568688  0.4853351815547842
  0.3822330466044064  0.5376404188488048  0.5042055011074233
  0.6178894523083054  0.9634036338464722  0.4850018554152696
  0.8638858192161780  0.5402705910030922  0.5209122487997789
  0.3775195579842476  0.2119656417390998  0.5151576408305407
  0.1406994763908565  0.2913999006753356  0.4974527446999629
  0.8730718444181912  0.2258529883747163  0.4702373490544059
  0.6406533213558222  0.2760538993395592  0.5216312926144838
  0.3429026964281576  0.7294732869377274  0.4543305107298583
  0.1208848326075241  0.7745108932279324  0.5206935666516926
  0.8104658575559054  0.7073532308217244  0.5643676218625464
  0.6225231552729951  0.7952720855928881  0.4592404163115162
  0.1240152980597682  0.1220875560242300  0.5561013140536388
  0.3802218428600290  0.3760108666911769  0.5657445690027099
  0.3902949739518949  0.3760597045225625  0.4469104073563489
  0.1343885154377647  0.1286224211191924  0.4373298359070151
  0.6279450550891953  0.1191539269787512  0.5642042763369852
  0.8818133946722317  0.3720999150106418  0.5527851054175550
  0.8873011226675119  0.3844524958551603  0.4348066318736040
  0.6338352974407634  0.1304196979618954  0.4458670029485332
  0.1270183616870131  0.6238941938483993  0.5775357029504051
  0.3691505245849282  0.8705094820553009  0.5300472732448694
  0.3714501257441611  0.8830387500513971  0.4117556118396949
  0.1207857113229650  0.6275851653448957  0.4586331627085865
  0.6066873014377596  0.6034703252795273  0.6436638766518256
  0.8638492466772789  0.8726629966756324  0.5437663145967194
  0.8768905729597372  0.8750238145811418  0.4245200854422032
  0.6018811138736404  0.6271190293122690  0.4548985519353017
  0.4662474822921554  0.4614179934247444  0.5874018679625894
  0.3142978785118224  0.3017970223144789  0.4059538055940320
  0.4590495229756018  0.1067452595062681  0.5849659401564956
  0.3023883570533343  0.1200695113825044  0.4144774359432930
  0.0662124337092519  0.2048962079109432  0.3957714058916951
  0.2115750608912172  0.3850121020698154  0.5881113612510267
  0.0555466925165180  0.3963461911605036  0.4139402260670074
  0.2993915883018353  0.4615917285947173  0.4260171366282730
  0.0412916324670332  0.0448630102873463  0.4111064912213247
  0.2113866705435342  0.0353526259900696  0.5672401062069187
  0.1991065682051144  0.1945791463415149  0.6017216170045244
  0.4516390100593486  0.3013409727089696  0.6087999351995728
  0.9675491171125482  0.4544633210328967  0.5831038475505738
  0.8122231998175398  0.3168462332017176  0.3817492680943175
  0.9578816888283552  0.1116864523107583  0.5795255238038600
  0.8002539834258537  0.1208130618737726  0.4177109694657087
  0.5610937387116093  0.2097524593918658  0.4149568893524354
  0.7144762684376554  0.3774929119793382  0.5799845945953368
  0.5560662310611820  0.3866920649190361  0.4235892180814750
  0.7941041149044794  0.4710191334061665  0.4290400506088750
  0.5456347253697139  0.0487935060395278  0.4124257157088966
  0.7126288341688953  0.0324354490268610  0.5714781903560855
  0.7027489598917476  0.1886855387815093  0.6140017360474433
  0.9537318780486326  0.2912841715254530  0.5806643797449852
  0.4560089382871846  0.9527060624104230  0.5637479682531520
  0.2963993674623698  0.8137894057933729  0.3610966759263814
  0.4978852607379537  0.6290081766345235  0.5510181215407683
  0.2879038840818698  0.6165578140176488  0.4272981014879970
  0.0447943615325688  0.7034983983139684  0.4220950946406131
  0.2039615336144107  0.8797061711122715  0.5614778212294897
  0.0427710910416675  0.8864420084679765  0.4008545200870672
  0.2856772231261966  0.9692364430031150  0.4064542410846045
  0.0338210262056460  0.5446098004345681  0.4387211122372586
  0.2240091887259182  0.5396806700101658  0.5887847548069139
  0.2043259880223614  0.6964828649671796  0.6193573684971452
  0.4445443630460889  0.7908835959970649  0.5586566834961512
  0.9576180128189800  0.9553192327389745  0.5690622796320643
  0.8046891607944909  0.8013540404610678  0.3812318816254883
  0.9629739009586177  0.6075981016892887  0.6084442365385992
  0.7759900794813160  0.6311599045556759  0.4638696635596382
  0.5506821004907575  0.6948083110249278  0.3902988908220580
  0.6950695620215329  0.8806986394738379  0.5639132037151675
  0.5399323789724378  0.8967187901222186  0.3898896616156868
  0.7904444904542439  0.9627810980637733  0.4109428849823161
  0.5472480954603837  0.5371166677138495  0.4226442316448273
  0.7145601995739824  0.5281335610964568  0.6034040602454237
  0.6918773425340613  0.6793586755945547  0.6711149562027205
  0.9331228097662997  0.7996274546652500  0.5940303058414634
  0.5247083345396721  0.5730499181548031  0.6929084035149898
 
  0.00000000E+00  0.00000000E+00  0.00000000E+00
  0.00000000E+00  0.00000000E+00  0.00000000E+00
  0.00000000E+00  0.00000000E+00  0.00000000E+00
  0.00000000E+00  0.00000000E+00  0.00000000E+00
  0.00000000E+00  0.00000000E+00  0.00000000E+00
  0.00000000E+00  0.00000000E+00  0.00000000E+00
  0.00000000E+00  0.00000000E+00  0.00000000E+00
  0.00000000E+00  0.00000000E+00  0.00000000E+00
  0.00000000E+00  0.00000000E+00  0.00000000E+00
  0.00000000E+00  0.00000000E+00  0.00000000E+00
  0.00000000E+00  0.00000000E+00  0.00000000E+00
  0.00000000E+00  0.00000000E+00  0.00000000E+00
  0.00000000E+00  0.00000000E+00  0.00000000E+00
  0.00000000E+00  0.00000000E+00  0.00000000E+00
  0.00000000E+00  0.00000000E+00  0.00000000E+00
  0.00000000E+00  0.00000000E+00  0.00000000E+00
  0.00000000E+00  0.00000000E+00  0.00000000E+00
  0.00000000E+00  0.00000000E+00  0.00000000E+00
  0.00000000E+00  0.00000000E+00  0.00000000E+00
  0.00000000E+00  0.00000000E+00  0.00000000E+00
  0.00000000E+00  0.00000000E+00  0.00000000E+00
  0.00000000E+00  0.00000000E+00  0.00000000E+00
  0.00000000E+00  0.00000000E+00  0.00000000E+00
  0.00000000E+00  0.00000000E+00  0.00000000E+00
  0.00000000E+00  0.00000000E+00  0.00000000E+00
  0.00000000E+00  0.00000000E+00  0.00000000E+00
  0.00000000E+00  0.00000000E+00  0.00000000E+00
  0.00000000E+00  0.00000000E+00  0.00000000E+00
  0.00000000E+00  0.00000000E+00  0.00000000E+00
  0.00000000E+00  0.00000000E+00  0.00000000E+00
  0.00000000E+00  0.00000000E+00  0.00000000E+00
  0.00000000E+00  0.00000000E+00  0.00000000E+00
  0.00000000E+00  0.00000000E+00  0.00000000E+00
  0.00000000E+00  0.00000000E+00  0.00000000E+00
  0.00000000E+00  0.00000000E+00  0.00000000E+00
  0.00000000E+00  0.00000000E+00  0.00000000E+00
  0.00000000E+00  0.00000000E+00  0.00000000E+00
  0.00000000E+00  0.00000000E+00  0.00000000E+00
  0.00000000E+00  0.00000000E+00  0.00000000E+00
  0.00000000E+00  0.00000000E+00  0.00000000E+00
  0.00000000E+00  0.00000000E+00  0.00000000E+00
  0.00000000E+00  0.00000000E+00  0.00000000E+00
  0.00000000E+00  0.00000000E+00  0.00000000E+00
  0.00000000E+00  0.00000000E+00  0.00000000E+00
  0.00000000E+00  0.00000000E+00  0.00000000E+00
  0.00000000E+00  0.00000000E+00  0.00000000E+00
  0.00000000E+00  0.00000000E+00  0.00000000E+00
  0.00000000E+00  0.00000000E+00  0.00000000E+00
  0.00000000E+00  0.00000000E+00  0.00000000E+00
  0.00000000E+00  0.00000000E+00  0.00000000E+00
  0.00000000E+00  0.00000000E+00  0.00000000E+00
  0.00000000E+00  0.00000000E+00  0.00000000E+00
  0.00000000E+00  0.00000000E+00  0.00000000E+00
  0.00000000E+00  0.00000000E+00  0.00000000E+00
  0.00000000E+00  0.00000000E+00  0.00000000E+00
  0.00000000E+00  0.00000000E+00  0.00000000E+00
  0.00000000E+00  0.00000000E+00  0.00000000E+00
  0.00000000E+00  0.00000000E+00  0.00000000E+00
  0.00000000E+00  0.00000000E+00  0.00000000E+00
  0.00000000E+00  0.00000000E+00  0.00000000E+00
  0.00000000E+00  0.00000000E+00  0.00000000E+00
  0.00000000E+00  0.00000000E+00  0.00000000E+00
  0.00000000E+00  0.00000000E+00  0.00000000E+00
  0.00000000E+00  0.00000000E+00  0.00000000E+00
  0.00000000E+00  0.00000000E+00  0.00000000E+00
  0.00000000E+00  0.00000000E+00  0.00000000E+00
  0.00000000E+00  0.00000000E+00  0.00000000E+00
  0.00000000E+00  0.00000000E+00  0.00000000E+00
  0.00000000E+00  0.00000000E+00  0.00000000E+00
  0.00000000E+00  0.00000000E+00  0.00000000E+00
  0.00000000E+00  0.00000000E+00  0.00000000E+00
  0.00000000E+00  0.00000000E+00  0.00000000E+00
  0.00000000E+00  0.00000000E+00  0.00000000E+00
  0.00000000E+00  0.00000000E+00  0.00000000E+00
  0.00000000E+00  0.00000000E+00  0.00000000E+00
  0.00000000E+00  0.00000000E+00  0.00000000E+00
  0.00000000E+00  0.00000000E+00  0.00000000E+00
  0.00000000E+00  0.00000000E+00  0.00000000E+00
  0.00000000E+00  0.00000000E+00  0.00000000E+00
  0.00000000E+00  0.00000000E+00  0.00000000E+00
  0.00000000E+00  0.00000000E+00  0.00000000E+00
