CONTCAR\(13)                            
   1.00000000000000     
    12.6978998183999998    0.0000000000000000    0.0000000000000000
     0.0000000000000000   11.4748001099000003    0.0000000000000000
     0.0000000000000000    0.0000000000000000   18.8323001862000012
   Ta   Si   Te   O 
    12     4    24     1
Direct
  0.3270359937723839  0.5921089239074675  0.5006628067393990
  0.0786439276968594  0.4152046357399826  0.5036501842712013
  0.4821026754273205  0.9380071962163115  0.5000142618948900
  0.2327251592570647  0.0640261439894942  0.5031845797959704
  0.3478398715248616  0.2911533779215816  0.5158364926214105
  0.0944455081124289  0.7163535313259288  0.5007672539429109
  0.8303638040740182  0.5844009291940253  0.5005212554635605
  0.5910359866895547  0.4194723652083141  0.5014632029606503
  0.9801067935343539  0.9388023841301774  0.5005145702349054
  0.7302533816002068  0.0624647412248081  0.5013188774905615
  0.8435988354237267  0.2862108151402651  0.5013531586227700
  0.5939425465740271  0.7152012399734602  0.5022325713753446
  0.2829541105456457  0.8276074930528878  0.4986701799177027
  0.0317974384485353  0.1750489198250307  0.5009069732195073
  0.7851429149934432  0.8245508678751818  0.5010487309686837
  0.5344820169475639  0.1765600766997508  0.5054407081632917
  0.3968022752379596  0.0802594744129124  0.6034187411861751
  0.1448917931052947  0.9088879976658575  0.4007588224876528
  0.1442480515538875  0.9053791647699043  0.6007040718838823
  0.3972231238750297  0.0996344321284965  0.4042104167588221
  0.4208142284441223  0.7576806386618031  0.5994318772959204
  0.1772686680782343  0.2558655443174160  0.4093480345000557
  0.1599008933860091  0.2444532645457045  0.6014127110131611
  0.4253468435908445  0.7478509168319079  0.4027429015477608
  0.4451057477436677  0.4759440876185295  0.6053500398221274
  0.1697847615549719  0.5659879152073444  0.3985431510303172
  0.1714773386112753  0.5691436928659783  0.6047008553237347
  0.4204619494785078  0.4300023477880828  0.4055847546991487
  0.8943091683004312  0.0946586586342306  0.6009308103168891
  0.6471247711701622  0.9046714480366234  0.4006443619146083
  0.6467308521287762  0.9052372559922333  0.6015834187243385
  0.8924917292778929  0.0947160804054192  0.4004428375443183
  0.9246399353014851  0.7473175011443089  0.5980987985670509
  0.6713807995365855  0.2519076456161500  0.4042559208343590
  0.6755388011591990  0.2551221589787218  0.6003186266108358
  0.9239966755043056  0.7473974362542251  0.4032581907551958
  0.9201645231071325  0.4326843169466770  0.6052198441811925
  0.6716387551034444  0.5708457980752897  0.3973398401967643
  0.6801762029731009  0.5740599440308856  0.6071815113536090
  0.9216926180771452  0.4321892969466958  0.3984304037928297
  0.3630684980785333  0.3266592346998962  0.6179334129764769
 
  0.00000000E+00  0.00000000E+00  0.00000000E+00
  0.00000000E+00  0.00000000E+00  0.00000000E+00
  0.00000000E+00  0.00000000E+00  0.00000000E+00
  0.00000000E+00  0.00000000E+00  0.00000000E+00
  0.00000000E+00  0.00000000E+00  0.00000000E+00
  0.00000000E+00  0.00000000E+00  0.00000000E+00
  0.00000000E+00  0.00000000E+00  0.00000000E+00
  0.00000000E+00  0.00000000E+00  0.00000000E+00
  0.00000000E+00  0.00000000E+00  0.00000000E+00
  0.00000000E+00  0.00000000E+00  0.00000000E+00
  0.00000000E+00  0.00000000E+00  0.00000000E+00
  0.00000000E+00  0.00000000E+00  0.00000000E+00
  0.00000000E+00  0.00000000E+00  0.00000000E+00
  0.00000000E+00  0.00000000E+00  0.00000000E+00
  0.00000000E+00  0.00000000E+00  0.00000000E+00
  0.00000000E+00  0.00000000E+00  0.00000000E+00
  0.00000000E+00  0.00000000E+00  0.00000000E+00
  0.00000000E+00  0.00000000E+00  0.00000000E+00
  0.00000000E+00  0.00000000E+00  0.00000000E+00
  0.00000000E+00  0.00000000E+00  0.00000000E+00
  0.00000000E+00  0.00000000E+00  0.00000000E+00
  0.00000000E+00  0.00000000E+00  0.00000000E+00
  0.00000000E+00  0.00000000E+00  0.00000000E+00
  0.00000000E+00  0.00000000E+00  0.00000000E+00
  0.00000000E+00  0.00000000E+00  0.00000000E+00
  0.00000000E+00  0.00000000E+00  0.00000000E+00
  0.00000000E+00  0.00000000E+00  0.00000000E+00
  0.00000000E+00  0.00000000E+00  0.00000000E+00
  0.00000000E+00  0.00000000E+00  0.00000000E+00
  0.00000000E+00  0.00000000E+00  0.00000000E+00
  0.00000000E+00  0.00000000E+00  0.00000000E+00
  0.00000000E+00  0.00000000E+00  0.00000000E+00
  0.00000000E+00  0.00000000E+00  0.00000000E+00
  0.00000000E+00  0.00000000E+00  0.00000000E+00
  0.00000000E+00  0.00000000E+00  0.00000000E+00
  0.00000000E+00  0.00000000E+00  0.00000000E+00
  0.00000000E+00  0.00000000E+00  0.00000000E+00
  0.00000000E+00  0.00000000E+00  0.00000000E+00
  0.00000000E+00  0.00000000E+00  0.00000000E+00
  0.00000000E+00  0.00000000E+00  0.00000000E+00
  0.00000000E+00  0.00000000E+00  0.00000000E+00
