CONTCAR\(4)                             
   1.00000000000000     
    12.8154001235999999    0.0000000000000000    0.0000000000000000
     6.4077083683999998   11.0983416437999995    0.0000000000000000
     0.0000000000000000    0.0000000000000000   33.6823997497999983
   Ge   Bi   Te   O    H 
    27    18    54     2     1
Direct
  0.1114657952931635  0.1134282359826938  0.2643007891262983
  0.2242593564791820  0.2234666840410035  0.7377764913900116
  0.2229967646610739  0.2242354613683467  0.3739291044145970
  0.4448969614868132  0.1133572723068724  0.2642344334834048
  0.5590464208699115  0.2217673267808734  0.7386855539802126
  0.5562039961605045  0.2241455005908165  0.3738331178387051
  0.7783158725391564  0.1131328517156148  0.2642882538982579
  0.8895207395270002  0.2245111684276878  0.7381426266563672
  0.8900054086201610  0.2242002905664354  0.3740657939478745
  0.1112532745106056  0.4465938267662855  0.2643947221522528
  0.2147623400401357  0.5612316704622926  0.7380867440424486
  0.2230045758914730  0.5575855094223301  0.3737501374800208
  0.4449244396318093  0.4465040504228318  0.2644751586868075
  0.5578864248190569  0.5590019164072865  0.7379776445235062
  0.5561859803366903  0.5575915095757326  0.3737781212896335
  0.7786145526081057  0.4463264578719559  0.2645134461604648
  0.8872145338994544  0.5576220104739587  0.7381823210461920
  0.8893643374516204  0.5576173469472445  0.3738077245754475
  0.1108323410514557  0.7804556967675708  0.2642224639145996
  0.2241020716040328  0.8906139305852290  0.7377122847031954
  0.2233436197534350  0.8910516257854044  0.3738845459326913
  0.4448647697609658  0.7802874419615190  0.2643782677865466
  0.5560628786212591  0.8912304553308019  0.7383098119229405
  0.5555571564118217  0.8913006098769780  0.3737705989211971
  0.7779981154070843  0.7801607505411702  0.2642743426400843
  0.8873755283682844  0.8927769724739960  0.7383146076890952
  0.8897163181945950  0.8909980008472639  0.3737488799977191
  0.0018135625430979  0.0010611803358689  0.4937582452365773
  0.1125845021389911  0.1126386856483409  0.6182408644952285
  0.3377952791158589  0.0001342265497906  0.4942918802678385
  0.4468962505433297  0.1118396854158700  0.6183824329648717
  0.6689270260981135  0.0007791868884328  0.4939217708507116
  0.7798059583194633  0.1117546333962764  0.6184451126256719
  0.0021448163571530  0.3336333845002696  0.4935161254202688
  0.1135182186469801  0.4466596726743201  0.6189702354535217
  0.3343962164331655  0.3349516495005020  0.4934369497685893
  0.4466261318984844  0.4454001129284145  0.6182735656014484
  0.6680121189613552  0.3345821974579042  0.4933685088655309
  0.7794507002443348  0.4455443607927133  0.6183028418091369
  0.0007784401899751  0.6684055797190518  0.4937733157013510
  0.1130707228729031  0.7782521949558130  0.6187851775419266
  0.3343807323168947  0.6687331072468707  0.4935083545285293
  0.4471855601202933  0.7788146221235839  0.6182196636429977
  0.6694638304921208  0.6677581690967124  0.4939541991885144
  0.7861697631433942  0.7754492702684899  0.6193187051596964
  0.0007479458274850  0.0022709649180966  0.3316265562654051
  0.1126485132154046  0.1128205160288595  0.7795876731114879
  0.1136617030062271  0.1117891728066079  0.4400438195925571
  0.2239007528517551  0.2239576818498162  0.5560090389768128
  0.2224148380328156  0.2246631912888228  0.2228379607107197
  0.0015443904458778  0.0014245931048136  0.6717908222642422
  0.3334437071801589  0.0026319694635308  0.3313161970475202
  0.4455779961661496  0.1131277004352818  0.7802760319999905
  0.4454586416439193  0.1131627724365654  0.4396834869370299
  0.5565818636677382  0.2241339707016132  0.5555477838152209
  0.5561393849232015  0.2246728769085286  0.2228198116177243
  0.3350496382209027  0.0013309103924372  0.6716547498527962
  0.6667984225220759  0.0021156087339891  0.3315023715677477
  0.7797868542835422  0.1123740276470773  0.7807804389886174
  0.7791788222121582  0.1123113936658342  0.4397142236455584
  0.8900594741198486  0.2239145973274373  0.5556070753812594
  0.8892893125780085  0.2244818502859388  0.2228124352825484
  0.6705532324440473  0.9990986170335604  0.6718220785673334
  0.0005409123295402  0.3355555839686739  0.3316619293369691
  0.1104639279041681  0.4469400429259349  0.7794205337514991
  0.1113722009097240  0.4466440320136869  0.4396828852491022
  0.2232574172302893  0.5575203063201737  0.5555513548461354
  0.2226477152593964  0.5576218729306373  0.2229839190729873
  0.0015562483324477  0.3348542488142052  0.6717013354234650
  0.3340315195370140  0.3354156691124791  0.3315481696039372
  0.4520390666930731  0.4443326666535812  0.7815661346179138
  0.4450357778587936  0.4466522139824832  0.4396197436760456
  0.5564214415893304  0.5571171274925062  0.5556051198749962
  0.5563395818346619  0.5576145835419554  0.2230904306430174
  0.3366768485717213  0.3335537816600401  0.6719578937450144
  0.6675364166220752  0.3350945158203043  0.3316357299084110
  0.7786449730371413  0.4468000056847345  0.7800392688556638
  0.7788999066294877  0.4460797678598536  0.4397540618827507
  0.8905265225449508  0.5566038838227654  0.5554438536966035
  0.8889751257780348  0.5576989148605550  0.2228779790500297
  0.6683416115123512  0.3345277729788011  0.6718319300432132
  0.0005562531277911  0.6685836476183815  0.3315515196176919
  0.1103920346826416  0.7802888217928895  0.7793252616824443
  0.1114864136291138  0.7795961832540375  0.4396665242489596
  0.2237933584999134  0.8902468765320007  0.5557557217524851
  0.2227565212529896  0.8911675751552723  0.2228271277730837
  0.0133237105356913  0.6628153807220430  0.6750224938849405
  0.3339431171866154  0.6689881629017499  0.3315187023681520
  0.4454585541161418  0.7799759053166456  0.7800667481973025
  0.4455424171542076  0.7792672102354116  0.4397573780957179
  0.5599777277055482  0.8887823869404888  0.5559472235034885
  0.5558687035103687  0.8912000311069609  0.2227335828566775
  0.3363314743860599  0.6678982944263532  0.6716432429398710
  0.6668711639385302  0.6690946577897673  0.3315225763342253
  0.7775226002639348  0.7801747028389558  0.7800833513613666
  0.7783775836548483  0.7797669668002030  0.4395463611499166
  0.8897026601542890  0.8911349614851155  0.5551656032334882
  0.8885531408501092  0.8913607595705070  0.2225264912575131
  0.6702127610566859  0.6681552268449044  0.6716704356123281
  0.6043737570206479  0.3494141804686226  0.8239303689174556
  0.5987376808551766  0.4268395139499218  0.8561969463325924
  0.5611995634683318  0.4037352249782113  0.8772212256549982
 
  0.00000000E+00  0.00000000E+00  0.00000000E+00
  0.00000000E+00  0.00000000E+00  0.00000000E+00
  0.00000000E+00  0.00000000E+00  0.00000000E+00
  0.00000000E+00  0.00000000E+00  0.00000000E+00
  0.00000000E+00  0.00000000E+00  0.00000000E+00
  0.00000000E+00  0.00000000E+00  0.00000000E+00
  0.00000000E+00  0.00000000E+00  0.00000000E+00
  0.00000000E+00  0.00000000E+00  0.00000000E+00
  0.00000000E+00  0.00000000E+00  0.00000000E+00
  0.00000000E+00  0.00000000E+00  0.00000000E+00
  0.00000000E+00  0.00000000E+00  0.00000000E+00
  0.00000000E+00  0.00000000E+00  0.00000000E+00
  0.00000000E+00  0.00000000E+00  0.00000000E+00
  0.00000000E+00  0.00000000E+00  0.00000000E+00
  0.00000000E+00  0.00000000E+00  0.00000000E+00
  0.00000000E+00  0.00000000E+00  0.00000000E+00
  0.00000000E+00  0.00000000E+00  0.00000000E+00
  0.00000000E+00  0.00000000E+00  0.00000000E+00
  0.00000000E+00  0.00000000E+00  0.00000000E+00
  0.00000000E+00  0.00000000E+00  0.00000000E+00
  0.00000000E+00  0.00000000E+00  0.00000000E+00
  0.00000000E+00  0.00000000E+00  0.00000000E+00
  0.00000000E+00  0.00000000E+00  0.00000000E+00
  0.00000000E+00  0.00000000E+00  0.00000000E+00
  0.00000000E+00  0.00000000E+00  0.00000000E+00
  0.00000000E+00  0.00000000E+00  0.00000000E+00
  0.00000000E+00  0.00000000E+00  0.00000000E+00
  0.00000000E+00  0.00000000E+00  0.00000000E+00
  0.00000000E+00  0.00000000E+00  0.00000000E+00
  0.00000000E+00  0.00000000E+00  0.00000000E+00
  0.00000000E+00  0.00000000E+00  0.00000000E+00
  0.00000000E+00  0.00000000E+00  0.00000000E+00
  0.00000000E+00  0.00000000E+00  0.00000000E+00
  0.00000000E+00  0.00000000E+00  0.00000000E+00
  0.00000000E+00  0.00000000E+00  0.00000000E+00
  0.00000000E+00  0.00000000E+00  0.00000000E+00
  0.00000000E+00  0.00000000E+00  0.00000000E+00
  0.00000000E+00  0.00000000E+00  0.00000000E+00
  0.00000000E+00  0.00000000E+00  0.00000000E+00
  0.00000000E+00  0.00000000E+00  0.00000000E+00
  0.00000000E+00  0.00000000E+00  0.00000000E+00
  0.00000000E+00  0.00000000E+00  0.00000000E+00
  0.00000000E+00  0.00000000E+00  0.00000000E+00
  0.00000000E+00  0.00000000E+00  0.00000000E+00
  0.00000000E+00  0.00000000E+00  0.00000000E+00
  0.00000000E+00  0.00000000E+00  0.00000000E+00
  0.00000000E+00  0.00000000E+00  0.00000000E+00
  0.00000000E+00  0.00000000E+00  0.00000000E+00
  0.00000000E+00  0.00000000E+00  0.00000000E+00
  0.00000000E+00  0.00000000E+00  0.00000000E+00
  0.00000000E+00  0.00000000E+00  0.00000000E+00
  0.00000000E+00  0.00000000E+00  0.00000000E+00
  0.00000000E+00  0.00000000E+00  0.00000000E+00
  0.00000000E+00  0.00000000E+00  0.00000000E+00
  0.00000000E+00  0.00000000E+00  0.00000000E+00
  0.00000000E+00  0.00000000E+00  0.00000000E+00
  0.00000000E+00  0.00000000E+00  0.00000000E+00
  0.00000000E+00  0.00000000E+00  0.00000000E+00
  0.00000000E+00  0.00000000E+00  0.00000000E+00
  0.00000000E+00  0.00000000E+00  0.00000000E+00
  0.00000000E+00  0.00000000E+00  0.00000000E+00
  0.00000000E+00  0.00000000E+00  0.00000000E+00
  0.00000000E+00  0.00000000E+00  0.00000000E+00
  0.00000000E+00  0.00000000E+00  0.00000000E+00
  0.00000000E+00  0.00000000E+00  0.00000000E+00
  0.00000000E+00  0.00000000E+00  0.00000000E+00
  0.00000000E+00  0.00000000E+00  0.00000000E+00
  0.00000000E+00  0.00000000E+00  0.00000000E+00
  0.00000000E+00  0.00000000E+00  0.00000000E+00
  0.00000000E+00  0.00000000E+00  0.00000000E+00
  0.00000000E+00  0.00000000E+00  0.00000000E+00
  0.00000000E+00  0.00000000E+00  0.00000000E+00
  0.00000000E+00  0.00000000E+00  0.00000000E+00
  0.00000000E+00  0.00000000E+00  0.00000000E+00
  0.00000000E+00  0.00000000E+00  0.00000000E+00
  0.00000000E+00  0.00000000E+00  0.00000000E+00
  0.00000000E+00  0.00000000E+00  0.00000000E+00
  0.00000000E+00  0.00000000E+00  0.00000000E+00
  0.00000000E+00  0.00000000E+00  0.00000000E+00
  0.00000000E+00  0.00000000E+00  0.00000000E+00
  0.00000000E+00  0.00000000E+00  0.00000000E+00
  0.00000000E+00  0.00000000E+00  0.00000000E+00
  0.00000000E+00  0.00000000E+00  0.00000000E+00
  0.00000000E+00  0.00000000E+00  0.00000000E+00
  0.00000000E+00  0.00000000E+00  0.00000000E+00
  0.00000000E+00  0.00000000E+00  0.00000000E+00
  0.00000000E+00  0.00000000E+00  0.00000000E+00
  0.00000000E+00  0.00000000E+00  0.00000000E+00
  0.00000000E+00  0.00000000E+00  0.00000000E+00
  0.00000000E+00  0.00000000E+00  0.00000000E+00
  0.00000000E+00  0.00000000E+00  0.00000000E+00
  0.00000000E+00  0.00000000E+00  0.00000000E+00
  0.00000000E+00  0.00000000E+00  0.00000000E+00
  0.00000000E+00  0.00000000E+00  0.00000000E+00
  0.00000000E+00  0.00000000E+00  0.00000000E+00
  0.00000000E+00  0.00000000E+00  0.00000000E+00
  0.00000000E+00  0.00000000E+00  0.00000000E+00
  0.00000000E+00  0.00000000E+00  0.00000000E+00
  0.00000000E+00  0.00000000E+00  0.00000000E+00
  0.00000000E+00  0.00000000E+00  0.00000000E+00
  0.00000000E+00  0.00000000E+00  0.00000000E+00
  0.00000000E+00  0.00000000E+00  0.00000000E+00
