CONTCAR                                 
   1.00000000000000     
     9.7571001052999993    0.0000000000000000    0.0000000000000000
    -3.0063686365000000   15.8319856181999992    0.0000000000000000
     0.0000000000000000    0.0000000000000000   18.2793006897000012
   V    P    S    O    H 
     4     8    26     2     1
Selective dynamics
Direct
  0.6102817425864089  0.6063174173267640  0.4934176542336246   F   F   F
  0.6107127480878063  0.1059744211349809  0.4979899812185806   F   F   F
  0.3790157334189033  0.3968492425343513  0.4974706673585843   F   F   F
  0.3788452330570706  0.8962514678144586  0.4934330281661801   F   F   F
  0.8236988977210729  0.2624663158510003  0.4907654630614715   F   F   F
  0.6906694243068046  0.4361370426756039  0.5330169796762689   F   F   F
  0.1665796469975760  0.7400729669841084  0.5004427699618290   F   F   F
  0.1669453032299373  0.2401584841537385  0.4900088532491793   F   F   F
  0.2987935757476663  0.0664036290837444  0.5323648545423438   F   F   F
  0.6906489795445054  0.9361335642376645  0.4581853793176904   F   F   F
  0.2983555078536426  0.5668319818764118  0.4579968715430027   F   F   F
  0.8234503299336566  0.7628292350606003  0.5008509029393906   F   F   F
  0.1074301355378253  0.1098778944134509  0.5193834723031685   F   F   F
  0.8825287447972983  0.8930741551120889  0.4709281864956907   F   F   F
  0.9951234130693294  0.7515535658145396  0.5704525678218033   F   F   F
  0.3880501679219037  0.0400053123174473  0.4343071367728726   F   F   F
  0.5374264673258793  0.3550525998847291  0.5843318270331892   F   F   F
  0.2356311014625589  0.4542647013194738  0.4086732415618002   F   F   F
  0.1934072837816743  0.3195862358703607  0.5754217595025253   F   F   F
  0.6564414681938828  0.7348183407943765  0.5671422646825306   F   F   F
  0.4514018459627138  0.6478277128685050  0.4064344024036615   F   F   F
  0.6027459460941031  0.4630127866092835  0.4346087230764013   F   F   F
  0.6567030380838901  0.2343399473840364  0.4245819125555030   F   F   F
  0.8825129984329294  0.3928715542181962  0.5209373869359410   F   F   F
  0.9949054261828962  0.2516220615459730  0.4205115810859752   F   F   F
  0.6021762303203744  0.9621080119135428  0.5565715271998286   F   F   F
  0.7964777400156251  0.6831945948042772  0.4155841274376613   F   F   F
  0.3866747389323564  0.5401232868732251  0.5563143180344738   F   F   F
  0.1930863998927350  0.8195677886813257  0.4151233896358661   F   F   F
  0.7533303974465255  0.5486462401070824  0.5824697793388651   F   F   F
  0.5375996245801602  0.8553069429034608  0.4062335823443632   F   F   F
  0.2349260024304627  0.9541574541887954  0.5815415110499274   F   F   F
  0.3327439063326239  0.7686886966997122  0.5670722540187683   F   F   F
  0.7976059024126840  0.1825272978233485  0.5757850181467106   F   F   F
  0.7538862557525903  0.0485601767117316  0.4087786391486929   F   F   F
  0.4517015703273728  0.1471253857268735  0.5845556497503281   F   F   F
  0.1065217352780792  0.6096804794562658  0.4708105474530910   F   F   F
  0.3337567508509096  0.2685729224598390  0.4237921736073673   F   F   F
  0.4130001823325600  0.8759099725244681  0.7097014253532876   T   T   T
  0.4700191995135725  0.8581968128531585  0.7741266467759544   T   T   T
  0.5706780902494231  0.8626113133869993  0.7627311128853604   T   T   T
 
  0.00000000E+00  0.00000000E+00  0.00000000E+00
  0.00000000E+00  0.00000000E+00  0.00000000E+00
  0.00000000E+00  0.00000000E+00  0.00000000E+00
  0.00000000E+00  0.00000000E+00  0.00000000E+00
  0.00000000E+00  0.00000000E+00  0.00000000E+00
  0.00000000E+00  0.00000000E+00  0.00000000E+00
  0.00000000E+00  0.00000000E+00  0.00000000E+00
  0.00000000E+00  0.00000000E+00  0.00000000E+00
  0.00000000E+00  0.00000000E+00  0.00000000E+00
  0.00000000E+00  0.00000000E+00  0.00000000E+00
  0.00000000E+00  0.00000000E+00  0.00000000E+00
  0.00000000E+00  0.00000000E+00  0.00000000E+00
  0.00000000E+00  0.00000000E+00  0.00000000E+00
  0.00000000E+00  0.00000000E+00  0.00000000E+00
  0.00000000E+00  0.00000000E+00  0.00000000E+00
  0.00000000E+00  0.00000000E+00  0.00000000E+00
  0.00000000E+00  0.00000000E+00  0.00000000E+00
  0.00000000E+00  0.00000000E+00  0.00000000E+00
  0.00000000E+00  0.00000000E+00  0.00000000E+00
  0.00000000E+00  0.00000000E+00  0.00000000E+00
  0.00000000E+00  0.00000000E+00  0.00000000E+00
  0.00000000E+00  0.00000000E+00  0.00000000E+00
  0.00000000E+00  0.00000000E+00  0.00000000E+00
  0.00000000E+00  0.00000000E+00  0.00000000E+00
  0.00000000E+00  0.00000000E+00  0.00000000E+00
  0.00000000E+00  0.00000000E+00  0.00000000E+00
  0.00000000E+00  0.00000000E+00  0.00000000E+00
  0.00000000E+00  0.00000000E+00  0.00000000E+00
  0.00000000E+00  0.00000000E+00  0.00000000E+00
  0.00000000E+00  0.00000000E+00  0.00000000E+00
  0.00000000E+00  0.00000000E+00  0.00000000E+00
  0.00000000E+00  0.00000000E+00  0.00000000E+00
  0.00000000E+00  0.00000000E+00  0.00000000E+00
  0.00000000E+00  0.00000000E+00  0.00000000E+00
  0.00000000E+00  0.00000000E+00  0.00000000E+00
  0.00000000E+00  0.00000000E+00  0.00000000E+00
  0.00000000E+00  0.00000000E+00  0.00000000E+00
  0.00000000E+00  0.00000000E+00  0.00000000E+00
  0.00000000E+00  0.00000000E+00  0.00000000E+00
  0.00000000E+00  0.00000000E+00  0.00000000E+00
  0.00000000E+00  0.00000000E+00  0.00000000E+00
