 Fe2 S2                                 
   1.00000000000000     
     3.5775718400044760    0.0000000000000000    0.0000000000000000
     0.0000000000000000    3.5775717334219430    0.0000000000000000
     0.0000000000000000    0.0000000000000000   17.4471744205999997
   Fe   S 
     2     2
Direct
  0.4999999952675442  0.5000000011729585  0.4999999979487894
  0.0000000028955422 -0.0000000045902870  0.5000000019125995
 -0.0000000010053088  0.4999999999776175  0.4297613209137275
  0.5000000028422226  0.0000000034397108  0.5702386792248835
 
  0.00000000E+00  0.00000000E+00  0.00000000E+00
  0.00000000E+00  0.00000000E+00  0.00000000E+00
  0.00000000E+00  0.00000000E+00  0.00000000E+00
  0.00000000E+00  0.00000000E+00  0.00000000E+00
