CONTCAR                                 
   1.00000000000000     
    13.2069997787000002    0.0000000000000000    0.0000000000000000
     0.0000000000000000   13.2070999146000005    0.0000000000000000
     0.0000000000000000    0.0000000000000000   33.6773986816000033
   Nd   Te
    36    90
Direct
  0.1666699880000024  0.0000000000000000  0.4240281299469117
  0.0000000000000000  0.1666699880000024  0.5759718980530835
  0.1666699880000024  0.0000000000000000  0.7018026439445677
  0.0000000000000000  0.1666699880000024  0.2982073810554269
  0.5000000000000000  0.0000000000000000  0.4240281299469117
  0.3333300119999976  0.1666699880000024  0.5759718980530835
  0.5000000000000000  0.0000000000000000  0.7018026439445677
  0.3333300119999976  0.1666699880000024  0.2982073810554269
  0.8333299760000017  0.0000000000000000  0.4240281299469117
  0.6666699880000024  0.1666699880000024  0.5759718980530835
  0.8333299760000017  0.0000000000000000  0.7018026439445677
  0.6666699880000024  0.1666699880000024  0.2982073810554269
  0.1666699880000024  0.3333300119999976  0.4240281299469117
  0.0000000000000000  0.5000000000000000  0.5759718980530835
  0.1666699880000024  0.3333300119999976  0.7018026439445677
  0.0000000000000000  0.5000000000000000  0.2982073810554269
  0.5000000000000000  0.3333300119999976  0.4240281299469117
  0.3333300119999976  0.5000000000000000  0.5759718980530835
  0.5000000000000000  0.3333300119999976  0.7018026439445677
  0.3333300119999976  0.5000000000000000  0.2982073810554269
  0.8333299760000017  0.3333300119999976  0.4240281299469117
  0.6666699880000024  0.5000000000000000  0.5759718980530835
  0.8333299760000017  0.3333300119999976  0.7018026439445677
  0.6666699880000024  0.5000000000000000  0.2982073810554269
  0.1666699880000024  0.6666699880000024  0.4240281299469117
  0.0000000000000000  0.8333300119999976  0.5759718980530835
  0.1666699880000024  0.6666699880000024  0.7018026439445677
  0.0000000000000000  0.8333300119999976  0.2982073810554269
  0.5000000000000000  0.6666699880000024  0.4240281299469117
  0.3333300119999976  0.8333300119999976  0.5759718980530835
  0.5000000000000000  0.6666699880000024  0.7018026439445677
  0.3333300119999976  0.8333300119999976  0.2982073810554269
  0.8333299760000017  0.6666699880000024  0.4240281299469117
  0.6666699880000024  0.8333300119999976  0.5759718980530835
  0.8333299760000017  0.6666699880000024  0.7018026439445677
  0.6666699880000024  0.8333300119999976  0.2982073810554269
  0.1666699880000024  0.0000000000000000  0.3275527452225759
  0.0000000000000000  0.1666699880000024  0.6724472827774264
  0.1666699880000024  0.0000000000000000  0.6027401387687306
  0.0000000000000000  0.1666699880000024  0.3972598332312671
  0.1666699880000024  0.1666699880000024  0.7769716996101579
  0.0000000000000000  0.0000000000000000  0.2230382973898415
  0.1666699880000024  0.1666699880000024  0.2230382493588792
  0.0000000000000000  0.0000000000000000  0.7769717476411202
  0.1666699880000024  0.1666699880000024  0.4999999524622112
  0.0000000000000000  0.0000000000000000  0.5000000475377888
  0.5000000000000000  0.0000000000000000  0.3275527452225759
  0.3333300119999976  0.1666699880000024  0.6724472827774264
  0.5000000000000000  0.0000000000000000  0.6027401387687306
  0.3333300119999976  0.1666699880000024  0.3972598332312671
  0.5000000000000000  0.1666699880000024  0.7769716996101579
  0.3333300119999976  0.0000000000000000  0.2230382973898415
  0.5000000000000000  0.1666699880000024  0.2230382493588792
  0.3333300119999976  0.0000000000000000  0.7769717476411202
  0.5000000000000000  0.1666699880000024  0.4999999524622112
  0.3333300119999976  0.0000000000000000  0.5000000475377888
  0.8333299760000017  0.0000000000000000  0.3275527452225759
  0.6666699880000024  0.1666699880000024  0.6724472827774264
  0.8333299760000017  0.0000000000000000  0.6027401387687306
  0.6666699880000024  0.1666699880000024  0.3972598332312671
  0.8333299760000017  0.1666699880000024  0.7769716996101579
  0.6666699880000024  0.0000000000000000  0.2230382973898415
  0.8333299760000017  0.1666699880000024  0.2230382493588792
  0.6666699880000024  0.0000000000000000  0.7769717476411202
  0.8333299760000017  0.1666699880000024  0.4999999524622112
  0.6666699880000024  0.0000000000000000  0.5000000475377888
  0.1666699880000024  0.3333300119999976  0.3275527452225759
  0.0000000000000000  0.5000000000000000  0.6724472827774264
  0.1666699880000024  0.3333300119999976  0.6027401387687306
  0.0000000000000000  0.5000000000000000  0.3972598332312671
  0.1666699880000024  0.5000000000000000  0.7769716996101579
  0.0000000000000000  0.3333300119999976  0.2230382973898415
  0.1666699880000024  0.5000000000000000  0.2230382493588792
  0.0000000000000000  0.3333300119999976  0.7769717476411202
  0.1666699880000024  0.5000000000000000  0.4999999524622112
  0.0000000000000000  0.3333300119999976  0.5000000475377888
  0.5000000000000000  0.3333300119999976  0.3275527452225759
  0.3333300119999976  0.5000000000000000  0.6724472827774264
  0.5000000000000000  0.3333300119999976  0.6027401387687306
  0.3333300119999976  0.5000000000000000  0.3972598332312671
  0.5000000000000000  0.5000000000000000  0.7769716996101579
  0.3333300119999976  0.3333300119999976  0.2230382973898415
  0.5000000000000000  0.5000000000000000  0.2230382493588792
  0.3333300119999976  0.3333300119999976  0.7769717476411202
  0.5000000000000000  0.5000000000000000  0.4999999524622112
  0.3333300119999976  0.3333300119999976  0.5000000475377888
  0.8333299760000017  0.3333300119999976  0.3275527452225759
  0.6666699880000024  0.5000000000000000  0.6724472827774264
  0.8333299760000017  0.3333300119999976  0.6027401387687306
  0.6666699880000024  0.5000000000000000  0.3972598332312671
  0.8333299760000017  0.5000000000000000  0.7769716996101579
  0.6666699880000024  0.3333300119999976  0.2230382973898415
  0.8333299760000017  0.5000000000000000  0.2230382493588792
  0.6666699880000024  0.3333300119999976  0.7769717476411202
  0.8333299760000017  0.5000000000000000  0.4999999524622112
  0.6666699880000024  0.3333300119999976  0.5000000475377888
  0.1666699880000024  0.6666699880000024  0.3275527452225759
  0.0000000000000000  0.8333300119999976  0.6724472827774264
  0.1666699880000024  0.6666699880000024  0.6027401387687306
  0.0000000000000000  0.8333300119999976  0.3972598332312671
  0.1666699880000024  0.8333300119999976  0.7769716996101579
  0.0000000000000000  0.6666699880000024  0.2230382973898415
  0.1666699880000024  0.8333300119999976  0.2230382493588792
  0.0000000000000000  0.6666699880000024  0.7769717476411202
  0.1666699880000024  0.8333300119999976  0.4999999524622112
  0.0000000000000000  0.6666699880000024  0.5000000475377888
  0.5000000000000000  0.6666699880000024  0.3275527452225759
  0.3333300119999976  0.8333300119999976  0.6724472827774264
  0.5000000000000000  0.6666699880000024  0.6027401387687306
  0.3333300119999976  0.8333300119999976  0.3972598332312671
  0.5000000000000000  0.8333300119999976  0.7769716996101579
  0.3333300119999976  0.6666699880000024  0.2230382973898415
  0.5000000000000000  0.8333300119999976  0.2230382493588792
  0.3333300119999976  0.6666699880000024  0.7769717476411202
  0.5000000000000000  0.8333300119999976  0.4999999524622112
  0.3333300119999976  0.6666699880000024  0.5000000475377888
  0.8333299760000017  0.6666699880000024  0.3275527452225759
  0.6666699880000024  0.8333300119999976  0.6724472827774264
  0.8333299760000017  0.6666699880000024  0.6027401387687306
  0.6666699880000024  0.8333300119999976  0.3972598332312671
  0.8333299760000017  0.8333300119999976  0.7769716996101579
  0.6666699880000024  0.6666699880000024  0.2230382973898415
  0.8333299760000017  0.8333300119999976  0.2230382493588792
  0.6666699880000024  0.6666699880000024  0.7769717476411202
  0.8333299760000017  0.8333300119999976  0.4999999524622112
  0.6666699880000024  0.6666699880000024  0.5000000475377888
 
  0.00000000E+00  0.00000000E+00  0.00000000E+00
  0.00000000E+00  0.00000000E+00  0.00000000E+00
  0.00000000E+00  0.00000000E+00  0.00000000E+00
  0.00000000E+00  0.00000000E+00  0.00000000E+00
  0.00000000E+00  0.00000000E+00  0.00000000E+00
  0.00000000E+00  0.00000000E+00  0.00000000E+00
  0.00000000E+00  0.00000000E+00  0.00000000E+00
  0.00000000E+00  0.00000000E+00  0.00000000E+00
  0.00000000E+00  0.00000000E+00  0.00000000E+00
  0.00000000E+00  0.00000000E+00  0.00000000E+00
  0.00000000E+00  0.00000000E+00  0.00000000E+00
  0.00000000E+00  0.00000000E+00  0.00000000E+00
  0.00000000E+00  0.00000000E+00  0.00000000E+00
  0.00000000E+00  0.00000000E+00  0.00000000E+00
  0.00000000E+00  0.00000000E+00  0.00000000E+00
  0.00000000E+00  0.00000000E+00  0.00000000E+00
  0.00000000E+00  0.00000000E+00  0.00000000E+00
  0.00000000E+00  0.00000000E+00  0.00000000E+00
  0.00000000E+00  0.00000000E+00  0.00000000E+00
  0.00000000E+00  0.00000000E+00  0.00000000E+00
  0.00000000E+00  0.00000000E+00  0.00000000E+00
  0.00000000E+00  0.00000000E+00  0.00000000E+00
  0.00000000E+00  0.00000000E+00  0.00000000E+00
  0.00000000E+00  0.00000000E+00  0.00000000E+00
  0.00000000E+00  0.00000000E+00  0.00000000E+00
  0.00000000E+00  0.00000000E+00  0.00000000E+00
  0.00000000E+00  0.00000000E+00  0.00000000E+00
  0.00000000E+00  0.00000000E+00  0.00000000E+00
  0.00000000E+00  0.00000000E+00  0.00000000E+00
  0.00000000E+00  0.00000000E+00  0.00000000E+00
  0.00000000E+00  0.00000000E+00  0.00000000E+00
  0.00000000E+00  0.00000000E+00  0.00000000E+00
  0.00000000E+00  0.00000000E+00  0.00000000E+00
  0.00000000E+00  0.00000000E+00  0.00000000E+00
  0.00000000E+00  0.00000000E+00  0.00000000E+00
  0.00000000E+00  0.00000000E+00  0.00000000E+00
  0.00000000E+00  0.00000000E+00  0.00000000E+00
  0.00000000E+00  0.00000000E+00  0.00000000E+00
  0.00000000E+00  0.00000000E+00  0.00000000E+00
  0.00000000E+00  0.00000000E+00  0.00000000E+00
  0.00000000E+00  0.00000000E+00  0.00000000E+00
  0.00000000E+00  0.00000000E+00  0.00000000E+00
  0.00000000E+00  0.00000000E+00  0.00000000E+00
  0.00000000E+00  0.00000000E+00  0.00000000E+00
  0.00000000E+00  0.00000000E+00  0.00000000E+00
  0.00000000E+00  0.00000000E+00  0.00000000E+00
  0.00000000E+00  0.00000000E+00  0.00000000E+00
  0.00000000E+00  0.00000000E+00  0.00000000E+00
  0.00000000E+00  0.00000000E+00  0.00000000E+00
  0.00000000E+00  0.00000000E+00  0.00000000E+00
  0.00000000E+00  0.00000000E+00  0.00000000E+00
  0.00000000E+00  0.00000000E+00  0.00000000E+00
  0.00000000E+00  0.00000000E+00  0.00000000E+00
  0.00000000E+00  0.00000000E+00  0.00000000E+00
  0.00000000E+00  0.00000000E+00  0.00000000E+00
  0.00000000E+00  0.00000000E+00  0.00000000E+00
  0.00000000E+00  0.00000000E+00  0.00000000E+00
  0.00000000E+00  0.00000000E+00  0.00000000E+00
  0.00000000E+00  0.00000000E+00  0.00000000E+00
  0.00000000E+00  0.00000000E+00  0.00000000E+00
  0.00000000E+00  0.00000000E+00  0.00000000E+00
  0.00000000E+00  0.00000000E+00  0.00000000E+00
  0.00000000E+00  0.00000000E+00  0.00000000E+00
  0.00000000E+00  0.00000000E+00  0.00000000E+00
  0.00000000E+00  0.00000000E+00  0.00000000E+00
  0.00000000E+00  0.00000000E+00  0.00000000E+00
  0.00000000E+00  0.00000000E+00  0.00000000E+00
  0.00000000E+00  0.00000000E+00  0.00000000E+00
  0.00000000E+00  0.00000000E+00  0.00000000E+00
  0.00000000E+00  0.00000000E+00  0.00000000E+00
  0.00000000E+00  0.00000000E+00  0.00000000E+00
  0.00000000E+00  0.00000000E+00  0.00000000E+00
  0.00000000E+00  0.00000000E+00  0.00000000E+00
  0.00000000E+00  0.00000000E+00  0.00000000E+00
  0.00000000E+00  0.00000000E+00  0.00000000E+00
  0.00000000E+00  0.00000000E+00  0.00000000E+00
  0.00000000E+00  0.00000000E+00  0.00000000E+00
  0.00000000E+00  0.00000000E+00  0.00000000E+00
  0.00000000E+00  0.00000000E+00  0.00000000E+00
  0.00000000E+00  0.00000000E+00  0.00000000E+00
  0.00000000E+00  0.00000000E+00  0.00000000E+00
  0.00000000E+00  0.00000000E+00  0.00000000E+00
  0.00000000E+00  0.00000000E+00  0.00000000E+00
  0.00000000E+00  0.00000000E+00  0.00000000E+00
  0.00000000E+00  0.00000000E+00  0.00000000E+00
  0.00000000E+00  0.00000000E+00  0.00000000E+00
  0.00000000E+00  0.00000000E+00  0.00000000E+00
  0.00000000E+00  0.00000000E+00  0.00000000E+00
  0.00000000E+00  0.00000000E+00  0.00000000E+00
  0.00000000E+00  0.00000000E+00  0.00000000E+00
  0.00000000E+00  0.00000000E+00  0.00000000E+00
  0.00000000E+00  0.00000000E+00  0.00000000E+00
  0.00000000E+00  0.00000000E+00  0.00000000E+00
  0.00000000E+00  0.00000000E+00  0.00000000E+00
  0.00000000E+00  0.00000000E+00  0.00000000E+00
  0.00000000E+00  0.00000000E+00  0.00000000E+00
  0.00000000E+00  0.00000000E+00  0.00000000E+00
  0.00000000E+00  0.00000000E+00  0.00000000E+00
  0.00000000E+00  0.00000000E+00  0.00000000E+00
  0.00000000E+00  0.00000000E+00  0.00000000E+00
  0.00000000E+00  0.00000000E+00  0.00000000E+00
  0.00000000E+00  0.00000000E+00  0.00000000E+00
  0.00000000E+00  0.00000000E+00  0.00000000E+00
  0.00000000E+00  0.00000000E+00  0.00000000E+00
  0.00000000E+00  0.00000000E+00  0.00000000E+00
  0.00000000E+00  0.00000000E+00  0.00000000E+00
  0.00000000E+00  0.00000000E+00  0.00000000E+00
  0.00000000E+00  0.00000000E+00  0.00000000E+00
  0.00000000E+00  0.00000000E+00  0.00000000E+00
  0.00000000E+00  0.00000000E+00  0.00000000E+00
  0.00000000E+00  0.00000000E+00  0.00000000E+00
  0.00000000E+00  0.00000000E+00  0.00000000E+00
  0.00000000E+00  0.00000000E+00  0.00000000E+00
  0.00000000E+00  0.00000000E+00  0.00000000E+00
  0.00000000E+00  0.00000000E+00  0.00000000E+00
  0.00000000E+00  0.00000000E+00  0.00000000E+00
  0.00000000E+00  0.00000000E+00  0.00000000E+00
  0.00000000E+00  0.00000000E+00  0.00000000E+00
  0.00000000E+00  0.00000000E+00  0.00000000E+00
  0.00000000E+00  0.00000000E+00  0.00000000E+00
  0.00000000E+00  0.00000000E+00  0.00000000E+00
  0.00000000E+00  0.00000000E+00  0.00000000E+00
  0.00000000E+00  0.00000000E+00  0.00000000E+00
  0.00000000E+00  0.00000000E+00  0.00000000E+00
  0.00000000E+00  0.00000000E+00  0.00000000E+00
  0.00000000E+00  0.00000000E+00  0.00000000E+00
