CONTCAR\(7)                             
   1.00000000000000     
    12.8978004455999997    0.0000000000000000    0.0000000000000000
    -6.4489002227999999   11.1698228388000000    0.0000000000000000
     0.0000000000000000    0.0000000000000000   22.5037994384999998
   La   P    I    O    H 
    18     9    18     1     1
Direct
  0.1078276016736505  0.2186789642762933  0.5701360654871316
  0.2232911670437312  0.1130581226124714  0.4274917861565559
  0.4444581089894729  0.2188903806819443  0.5701293600175383
  0.5554954991829457  0.1111219741901452  0.4268214945361093
  0.7778094134713817  0.2223160243608683  0.5701526563346528
  0.8890522533805988  0.1110792108816857  0.4267236314190531
  0.1077731006777589  0.5557277961212400  0.5701437046068916
  0.2237490715705464  0.4451568024957104  0.4306040288813013
  0.4447041557666078  0.5557868108351258  0.5959613462444607
  0.5549142436381269  0.4452613717126096  0.4305509904887110
  0.7813214573892242  0.5556706452513450  0.5701607942926887
  0.8890358502945812  0.4446159200050635  0.4268348540347249
  0.1111561579340546  0.8889504914095232  0.5699268875057623
  0.2232977154840921  0.7768165311540288  0.4276706268449275
  0.4443585615927560  0.8924149770453035  0.5701043305714915
  0.5550260118190642  0.7763962065552140  0.4306078259835877
  0.7815811268405276  0.8924403236849009  0.5701467915759258
  0.8871019634676512  0.7768068105871229  0.4275123412981572
  0.0007545652727082  0.9994261633542900  0.4973753184609808
  0.3321183659492033  0.9995517240228140  0.4975755265824194
  0.6673234066457914  0.0009718146178232  0.4983411409295593
  0.9991718261486421  0.3327899412933615  0.4983576390807239
  0.3348787737268794  0.3361502228733223  0.5030137097946286
  0.6671748705776185  0.3329855146309951  0.4983128943864254
  0.0006283013456085  0.6679613260893182  0.4976217815900758
  0.3349375038143576  0.6651953716917091  0.5030428938148916
  0.6640590336586687  0.6653044050995199  0.5030338444761268
  0.2227872101416912  0.1114775212277587  0.6650304681655747
  0.1131713187341100  0.2251207788616761  0.3332602413436538
  0.5559663138732913  0.1115018090573480  0.6652333224735765
  0.4454510352618706  0.2250783126989200  0.3332885554370787
  0.8887411889005294  0.1116772331023800  0.6652505148306785
  0.7778789565223519  0.2222651551144778  0.3319469002256852
  0.1802567457675104  0.4235347934946463  0.6658222534023930
  0.1130222683219355  0.5545741337793383  0.3334354132477608
  0.5766812693453559  0.4235338064104079  0.6659561233134104
  0.4444273562560533  0.5557101938028932  0.3352720736177995
  0.8886777777939013  0.4440930059655632  0.6652605772605525
  0.7750752026551987  0.5545900152640061  0.3332947598351856
  0.2224689123599053  0.7776636759166879  0.6650156417775511
  0.1114116175269113  0.8886435755047939  0.3337014667441342
  0.5767942274951164  0.8203175226681041  0.6657933324416256
  0.4456066797990484  0.8871061294115443  0.3334564270050509
  0.8886946080640352  0.7773482626271433  0.6650807547432664
  0.7750495370980330  0.8869093564351598  0.3332475582255044
  0.4448739549419028  0.5559905476618364  0.6899058624942925
  0.4459639527849943  0.5565486034615440  0.7329334950196872
 
  0.00000000E+00  0.00000000E+00  0.00000000E+00
  0.00000000E+00  0.00000000E+00  0.00000000E+00
  0.00000000E+00  0.00000000E+00  0.00000000E+00
  0.00000000E+00  0.00000000E+00  0.00000000E+00
  0.00000000E+00  0.00000000E+00  0.00000000E+00
  0.00000000E+00  0.00000000E+00  0.00000000E+00
  0.00000000E+00  0.00000000E+00  0.00000000E+00
  0.00000000E+00  0.00000000E+00  0.00000000E+00
  0.00000000E+00  0.00000000E+00  0.00000000E+00
  0.00000000E+00  0.00000000E+00  0.00000000E+00
  0.00000000E+00  0.00000000E+00  0.00000000E+00
  0.00000000E+00  0.00000000E+00  0.00000000E+00
  0.00000000E+00  0.00000000E+00  0.00000000E+00
  0.00000000E+00  0.00000000E+00  0.00000000E+00
  0.00000000E+00  0.00000000E+00  0.00000000E+00
  0.00000000E+00  0.00000000E+00  0.00000000E+00
  0.00000000E+00  0.00000000E+00  0.00000000E+00
  0.00000000E+00  0.00000000E+00  0.00000000E+00
  0.00000000E+00  0.00000000E+00  0.00000000E+00
  0.00000000E+00  0.00000000E+00  0.00000000E+00
  0.00000000E+00  0.00000000E+00  0.00000000E+00
  0.00000000E+00  0.00000000E+00  0.00000000E+00
  0.00000000E+00  0.00000000E+00  0.00000000E+00
  0.00000000E+00  0.00000000E+00  0.00000000E+00
  0.00000000E+00  0.00000000E+00  0.00000000E+00
  0.00000000E+00  0.00000000E+00  0.00000000E+00
  0.00000000E+00  0.00000000E+00  0.00000000E+00
  0.00000000E+00  0.00000000E+00  0.00000000E+00
  0.00000000E+00  0.00000000E+00  0.00000000E+00
  0.00000000E+00  0.00000000E+00  0.00000000E+00
  0.00000000E+00  0.00000000E+00  0.00000000E+00
  0.00000000E+00  0.00000000E+00  0.00000000E+00
  0.00000000E+00  0.00000000E+00  0.00000000E+00
  0.00000000E+00  0.00000000E+00  0.00000000E+00
  0.00000000E+00  0.00000000E+00  0.00000000E+00
  0.00000000E+00  0.00000000E+00  0.00000000E+00
  0.00000000E+00  0.00000000E+00  0.00000000E+00
  0.00000000E+00  0.00000000E+00  0.00000000E+00
  0.00000000E+00  0.00000000E+00  0.00000000E+00
  0.00000000E+00  0.00000000E+00  0.00000000E+00
  0.00000000E+00  0.00000000E+00  0.00000000E+00
  0.00000000E+00  0.00000000E+00  0.00000000E+00
  0.00000000E+00  0.00000000E+00  0.00000000E+00
  0.00000000E+00  0.00000000E+00  0.00000000E+00
  0.00000000E+00  0.00000000E+00  0.00000000E+00
  0.00000000E+00  0.00000000E+00  0.00000000E+00
  0.00000000E+00  0.00000000E+00  0.00000000E+00
