CONTCAR                                 
   1.00000000000000     
    13.2834997176999998    0.0000000000000000    0.0000000000000000
     0.0000000000000000   13.2517004013000008    0.0000000000000000
     0.0000000000000000    0.0000000000000000   28.4766006470000015
   Bi   I    O    H 
    48    12     2     1
Direct
  0.9999606944527266  0.9384762471318921  0.5986788961346491
 -0.0000024722985160  0.0606601976163931  0.4001648876959348
  0.1648996579599503  0.7954196959399558  0.3612274837230947
  0.1672478344819351  0.3387105393929152  0.4419995269372259
  0.9999809780816169  0.1625724653108226  0.5704411484654561
 -0.0001759531241772  0.6093897293354348  0.4877883908982134
  0.0000450302617659  0.8413844071863560  0.4356124789308370
  0.0000027025693694  0.5228259423893593  0.3128276270803824
  0.1661727917187591  0.1143054235775528  0.4699462997767804
  0.1652556843351852  0.6622084139214131  0.5578006324284180
  0.0000722334438166  0.3838362323036870  0.5125126001105759
  0.1658667650014015  0.8856801047148437  0.5294283089220220
  0.1670185690522523  0.2070663510081047  0.6418213982427704
  0.1664875454770334  0.4303881568718408  0.6158563195616578
  0.1645327962954100  0.5716018787158885  0.3855674887929786
 -0.0000076891551949  0.4805043970227552  0.6873031083095803
  0.3378866192060977  0.9428693019946054  0.6021798276152229
  0.3334534285506852  0.0588159698783287  0.4012983857145363
  0.4999303900136674  0.7958767698406608  0.3600750387218286
  0.5000194438317025  0.3387424786933751  0.4419324116787143
  0.3342637991191947  0.1645307698239155  0.5705321158792948
  0.3341095344744354  0.6126736608154694  0.4887547407450628
  0.3319701604777546  0.8365277629167448  0.4321147864845101
  0.3319070912841409  0.5232290100250823  0.3141947638985996
  0.4999670822345907  0.1143896443287458  0.4704709527624893
  0.4999986903592125  0.6653634104863634  0.5587297467752316
  0.3337307363902077  0.3858712123981765  0.5126961214231135
  0.4999648427817753  0.8897028492596596  0.5296391896497504
  0.5000055265443121  0.2093922665177915  0.6425866950542152
  0.4999453048366224  0.4328851309172678  0.6157534487146762
  0.4999954672959642  0.5720236887586317  0.3852405105064014
  0.3332372937434372  0.4818043085593135  0.6873547287306083
  0.6620734152103034  0.9429088215834323  0.6021489769354327
  0.6664735415816599  0.0589423349144698  0.4012954646066864
  0.8349839365812528  0.7955688871249227  0.3613318099946645
  0.8329389700907062  0.3388374175840744  0.4419711845013071
  0.6657096589725274  0.1646157977615717  0.5705017728164559
  0.6656330382899405  0.6127090853645411  0.4886170662731211
  0.6676736172501020  0.8367258998664701  0.4321314050786893
  0.6680209448678784  0.5232460011199680  0.3141981927508144
  0.8338653916602174  0.1144139508050273  0.4699477222817056
  0.8343239028382347  0.6621392693353266  0.5576739441203291
  0.6663357153144784  0.3859170833629471  0.5126714288948201
  0.8340488910572378  0.8857272578458872  0.5293744857002566
  0.8329582324601263  0.2071623215287095  0.6417975771757298
  0.8334360460305320  0.4304448931925896  0.6158772472662385
  0.8354287811638338  0.5716630495300302  0.3855556974589304
  0.6665715727173693  0.4817867551779442  0.6873808388978292
  0.9999929734191439  0.2691852156005761  0.7333789282423205
 -0.0000156230673385  0.7333813304173609  0.2673365295733249
  0.0000286404216019  0.2953983588275307  0.3430925342531912
 -0.0000257721510718  0.7067347346140729  0.6574595982457471
  0.3350321830798898  0.2708111350788613  0.7332308491900993
  0.3319963738762691  0.7390459042103741  0.2699801158761022
  0.3331652231513984  0.2972706683697571  0.3427560856848685
  0.3334297481254185  0.7097589272580249  0.6588725501519025
  0.6649046244164536  0.2707812133422255  0.7332343795104526
  0.6678479035207123  0.7390388193982124  0.2699926010586263
  0.6668914042143069  0.2972327049231483  0.3427824735522764
  0.6665964467140907  0.7097150881357720  0.6588843723251410
  0.4999936172319738  0.9497185620011357  0.6428098798298941
  0.4998237496416829  0.9740456966300236  0.6929821392778347
  0.4997302886220045  0.9060744314416582  0.7068624071103817
 
  0.00000000E+00  0.00000000E+00  0.00000000E+00
  0.00000000E+00  0.00000000E+00  0.00000000E+00
  0.00000000E+00  0.00000000E+00  0.00000000E+00
  0.00000000E+00  0.00000000E+00  0.00000000E+00
  0.00000000E+00  0.00000000E+00  0.00000000E+00
  0.00000000E+00  0.00000000E+00  0.00000000E+00
  0.00000000E+00  0.00000000E+00  0.00000000E+00
  0.00000000E+00  0.00000000E+00  0.00000000E+00
  0.00000000E+00  0.00000000E+00  0.00000000E+00
  0.00000000E+00  0.00000000E+00  0.00000000E+00
  0.00000000E+00  0.00000000E+00  0.00000000E+00
  0.00000000E+00  0.00000000E+00  0.00000000E+00
  0.00000000E+00  0.00000000E+00  0.00000000E+00
  0.00000000E+00  0.00000000E+00  0.00000000E+00
  0.00000000E+00  0.00000000E+00  0.00000000E+00
  0.00000000E+00  0.00000000E+00  0.00000000E+00
  0.00000000E+00  0.00000000E+00  0.00000000E+00
  0.00000000E+00  0.00000000E+00  0.00000000E+00
  0.00000000E+00  0.00000000E+00  0.00000000E+00
  0.00000000E+00  0.00000000E+00  0.00000000E+00
  0.00000000E+00  0.00000000E+00  0.00000000E+00
  0.00000000E+00  0.00000000E+00  0.00000000E+00
  0.00000000E+00  0.00000000E+00  0.00000000E+00
  0.00000000E+00  0.00000000E+00  0.00000000E+00
  0.00000000E+00  0.00000000E+00  0.00000000E+00
  0.00000000E+00  0.00000000E+00  0.00000000E+00
  0.00000000E+00  0.00000000E+00  0.00000000E+00
  0.00000000E+00  0.00000000E+00  0.00000000E+00
  0.00000000E+00  0.00000000E+00  0.00000000E+00
  0.00000000E+00  0.00000000E+00  0.00000000E+00
  0.00000000E+00  0.00000000E+00  0.00000000E+00
  0.00000000E+00  0.00000000E+00  0.00000000E+00
  0.00000000E+00  0.00000000E+00  0.00000000E+00
  0.00000000E+00  0.00000000E+00  0.00000000E+00
  0.00000000E+00  0.00000000E+00  0.00000000E+00
  0.00000000E+00  0.00000000E+00  0.00000000E+00
  0.00000000E+00  0.00000000E+00  0.00000000E+00
  0.00000000E+00  0.00000000E+00  0.00000000E+00
  0.00000000E+00  0.00000000E+00  0.00000000E+00
  0.00000000E+00  0.00000000E+00  0.00000000E+00
  0.00000000E+00  0.00000000E+00  0.00000000E+00
  0.00000000E+00  0.00000000E+00  0.00000000E+00
  0.00000000E+00  0.00000000E+00  0.00000000E+00
  0.00000000E+00  0.00000000E+00  0.00000000E+00
  0.00000000E+00  0.00000000E+00  0.00000000E+00
  0.00000000E+00  0.00000000E+00  0.00000000E+00
  0.00000000E+00  0.00000000E+00  0.00000000E+00
  0.00000000E+00  0.00000000E+00  0.00000000E+00
  0.00000000E+00  0.00000000E+00  0.00000000E+00
  0.00000000E+00  0.00000000E+00  0.00000000E+00
  0.00000000E+00  0.00000000E+00  0.00000000E+00
  0.00000000E+00  0.00000000E+00  0.00000000E+00
  0.00000000E+00  0.00000000E+00  0.00000000E+00
  0.00000000E+00  0.00000000E+00  0.00000000E+00
  0.00000000E+00  0.00000000E+00  0.00000000E+00
  0.00000000E+00  0.00000000E+00  0.00000000E+00
  0.00000000E+00  0.00000000E+00  0.00000000E+00
  0.00000000E+00  0.00000000E+00  0.00000000E+00
  0.00000000E+00  0.00000000E+00  0.00000000E+00
  0.00000000E+00  0.00000000E+00  0.00000000E+00
  0.00000000E+00  0.00000000E+00  0.00000000E+00
  0.00000000E+00  0.00000000E+00  0.00000000E+00
  0.00000000E+00  0.00000000E+00  0.00000000E+00
