 Bi4 Rh6 S4                             
   1.00000000000000     
     6.8886158780565490    0.0000000000000000    0.0000000000000000
     2.0714501398918546    6.4949113712964390    0.0000000000000000
     0.0000000000000000    0.0000000000000000   18.6211724500379994
   Bi   Rh   S 
     4     6     4
Direct
  0.3873788069826437  0.3905102761091630  0.5866440583416554
  0.8895456921952619  0.8903210093669869  0.5926026205549730
  0.1637124732546510  0.1630417161839345  0.4073759010782946
  0.6657422488369219  0.6628013743034848  0.4133399547290731
  0.0266790947921204  0.5266754626265449  0.5000157695189377
  0.8304956814831308  0.2225076140099213  0.4991825678935968
  0.2228703209941255  0.8308280162452157  0.5008124948140257
  0.5267073633264621  0.0266458408208995  0.5000183639655840
  0.6372076226944102  0.6350231642093231  0.5579489894208759
  0.4160550935855701  0.4181684634390395  0.4420428449612760
  0.9145844568899356  0.3780104918861943  0.6001308872747000
  0.3817082084522739  0.9140238154337501  0.6007681508222106
  0.1387403994762362  0.6752718010451408  0.3998758066684993
  0.6716275370362362  0.1392259543203881  0.3992415899562909
 
  0.00000000E+00  0.00000000E+00  0.00000000E+00
  0.00000000E+00  0.00000000E+00  0.00000000E+00
  0.00000000E+00  0.00000000E+00  0.00000000E+00
  0.00000000E+00  0.00000000E+00  0.00000000E+00
  0.00000000E+00  0.00000000E+00  0.00000000E+00
  0.00000000E+00  0.00000000E+00  0.00000000E+00
  0.00000000E+00  0.00000000E+00  0.00000000E+00
  0.00000000E+00  0.00000000E+00  0.00000000E+00
  0.00000000E+00  0.00000000E+00  0.00000000E+00
  0.00000000E+00  0.00000000E+00  0.00000000E+00
  0.00000000E+00  0.00000000E+00  0.00000000E+00
  0.00000000E+00  0.00000000E+00  0.00000000E+00
  0.00000000E+00  0.00000000E+00  0.00000000E+00
  0.00000000E+00  0.00000000E+00  0.00000000E+00
