 Sc2 H2 Cl2                             
   1.00000000000000     
     3.4676281040179262    0.0000000000000000    0.0000000000000000
     1.7338140520089631    3.0030490097017322    0.0000000000000000
     0.0000000000000000    0.0000000000000000   20.7413426901600033
   Sc   H    Cl
     2     2     2
Direct
  0.3333326488030082  0.3333337240021592  0.4393822424541654
  0.6666672802228604  0.6666666648471633  0.5606260548605064
  0.3333333165566401  0.3333332696321776  0.5357268412888061
  0.6666668023328484  0.6666665066482551  0.4642663902677526
  0.9999998560165722  0.9999997891856651  0.6386673932379594
  0.0000000960680779  0.0000000456845726  0.3613310778908101
 
  0.00000000E+00  0.00000000E+00  0.00000000E+00
  0.00000000E+00  0.00000000E+00  0.00000000E+00
  0.00000000E+00  0.00000000E+00  0.00000000E+00
  0.00000000E+00  0.00000000E+00  0.00000000E+00
  0.00000000E+00  0.00000000E+00  0.00000000E+00
  0.00000000E+00  0.00000000E+00  0.00000000E+00
