 Cu1 Mo1 F6                             
   1.00000000000000     
     4.8149503986389401    0.0000000000000000    0.0000000000000000
     0.0000000000000000    5.1698676172440807    0.0000000000000000
     0.0000000000000000    0.0000000000000000   18.5884379422260011
   Cu   Mo   F 
     1     1     6
Direct
  0.0020635320250548  0.0000041142293199  0.4999741802488913
  0.5021653178899044  0.4999997012248585  0.5000050377372602
  0.6631637962901920  0.1800239626888143  0.5382139240354462
  0.3410638514144892  0.8199604293269758  0.4617930621666559
  0.3373576102191720  0.5590951420156216  0.5894829559080819
  0.6671458128562193  0.4409558201081367  0.4105358854662100
  0.1721918062915009  0.3200629994632536  0.4656964276840156
  0.8321847423772226  0.6798978309430268  0.5342985267534459
 
  0.00000000E+00  0.00000000E+00  0.00000000E+00
  0.00000000E+00  0.00000000E+00  0.00000000E+00
  0.00000000E+00  0.00000000E+00  0.00000000E+00
  0.00000000E+00  0.00000000E+00  0.00000000E+00
  0.00000000E+00  0.00000000E+00  0.00000000E+00
  0.00000000E+00  0.00000000E+00  0.00000000E+00
  0.00000000E+00  0.00000000E+00  0.00000000E+00
  0.00000000E+00  0.00000000E+00  0.00000000E+00
