G   42   39    1    0.005     # Parameters to Generate KPOINTS (Don't Edit This Line)
     820
Reciprocal lattice
    0.000000000000    0.000000000000    0.000000000000       1
    0.023809523810    0.000000000000    0.000000000000       2
    0.047619047619    0.000000000000    0.000000000000       2
    0.071428571429    0.000000000000    0.000000000000       2
    0.095238095238    0.000000000000    0.000000000000       2
    0.119047619048    0.000000000000    0.000000000000       2
    0.142857142857    0.000000000000    0.000000000000       2
    0.166666666667    0.000000000000    0.000000000000       2
    0.190476190476    0.000000000000    0.000000000000       2
    0.214285714286    0.000000000000    0.000000000000       2
    0.238095238095    0.000000000000    0.000000000000       2
    0.261904761905    0.000000000000    0.000000000000       2
    0.285714285714    0.000000000000    0.000000000000       2
    0.309523809524    0.000000000000    0.000000000000       2
    0.333333333333    0.000000000000    0.000000000000       2
    0.357142857143    0.000000000000    0.000000000000       2
    0.380952380952    0.000000000000    0.000000000000       2
    0.404761904762    0.000000000000    0.000000000000       2
    0.428571428571    0.000000000000    0.000000000000       2
    0.452380952381    0.000000000000    0.000000000000       2
    0.476190476190    0.000000000000    0.000000000000       2
    0.500000000000    0.000000000000    0.000000000000       1
    0.000000000000    0.025641025641    0.000000000000       2
    0.023809523810    0.025641025641    0.000000000000       2
    0.047619047619    0.025641025641    0.000000000000       2
    0.071428571429    0.025641025641    0.000000000000       2
    0.095238095238    0.025641025641    0.000000000000       2
    0.119047619048    0.025641025641    0.000000000000       2
    0.142857142857    0.025641025641    0.000000000000       2
    0.166666666667    0.025641025641    0.000000000000       2
    0.190476190476    0.025641025641    0.000000000000       2
    0.214285714286    0.025641025641    0.000000000000       2
    0.238095238095    0.025641025641    0.000000000000       2
    0.261904761905    0.025641025641    0.000000000000       2
    0.285714285714    0.025641025641    0.000000000000       2
    0.309523809524    0.025641025641    0.000000000000       2
    0.333333333333    0.025641025641    0.000000000000       2
    0.357142857143    0.025641025641    0.000000000000       2
    0.380952380952    0.025641025641    0.000000000000       2
    0.404761904762    0.025641025641    0.000000000000       2
    0.428571428571    0.025641025641    0.000000000000       2
    0.452380952381    0.025641025641    0.000000000000       2
    0.476190476190    0.025641025641    0.000000000000       2
    0.500000000000    0.025641025641    0.000000000000       2
   -0.476190476190    0.025641025641    0.000000000000       2
   -0.452380952381    0.025641025641    0.000000000000       2
   -0.428571428571    0.025641025641    0.000000000000       2
   -0.404761904762    0.025641025641    0.000000000000       2
   -0.380952380952    0.025641025641    0.000000000000       2
   -0.357142857143    0.025641025641    0.000000000000       2
   -0.333333333333    0.025641025641    0.000000000000       2
   -0.309523809524    0.025641025641    0.000000000000       2
   -0.285714285714    0.025641025641    0.000000000000       2
   -0.261904761905    0.025641025641    0.000000000000       2
   -0.238095238095    0.025641025641    0.000000000000       2
   -0.214285714286    0.025641025641    0.000000000000       2
   -0.190476190476    0.025641025641    0.000000000000       2
   -0.166666666667    0.025641025641    0.000000000000       2
   -0.142857142857    0.025641025641    0.000000000000       2
   -0.119047619048    0.025641025641    0.000000000000       2
   -0.095238095238    0.025641025641    0.000000000000       2
   -0.071428571429    0.025641025641    0.000000000000       2
   -0.047619047619    0.025641025641    0.000000000000       2
   -0.023809523810    0.025641025641    0.000000000000       2
    0.000000000000    0.051282051282    0.000000000000       2
    0.023809523810    0.051282051282    0.000000000000       2
    0.047619047619    0.051282051282    0.000000000000       2
    0.071428571429    0.051282051282    0.000000000000       2
    0.095238095238    0.051282051282    0.000000000000       2
    0.119047619048    0.051282051282    0.000000000000       2
    0.142857142857    0.051282051282    0.000000000000       2
    0.166666666667    0.051282051282    0.000000000000       2
    0.190476190476    0.051282051282    0.000000000000       2
    0.214285714286    0.051282051282    0.000000000000       2
    0.238095238095    0.051282051282    0.000000000000       2
    0.261904761905    0.051282051282    0.000000000000       2
    0.285714285714    0.051282051282    0.000000000000       2
    0.309523809524    0.051282051282    0.000000000000       2
    0.333333333333    0.051282051282    0.000000000000       2
    0.357142857143    0.051282051282    0.000000000000       2
    0.380952380952    0.051282051282    0.000000000000       2
    0.404761904762    0.051282051282    0.000000000000       2
    0.428571428571    0.051282051282    0.000000000000       2
    0.452380952381    0.051282051282    0.000000000000       2
    0.476190476190    0.051282051282    0.000000000000       2
    0.500000000000    0.051282051282    0.000000000000       2
   -0.476190476190    0.051282051282    0.000000000000       2
   -0.452380952381    0.051282051282    0.000000000000       2
   -0.428571428571    0.051282051282    0.000000000000       2
   -0.404761904762    0.051282051282    0.000000000000       2
   -0.380952380952    0.051282051282    0.000000000000       2
   -0.357142857143    0.051282051282    0.000000000000       2
   -0.333333333333    0.051282051282    0.000000000000       2
   -0.309523809524    0.051282051282    0.000000000000       2
   -0.285714285714    0.051282051282    0.000000000000       2
   -0.261904761905    0.051282051282    0.000000000000       2
   -0.238095238095    0.051282051282    0.000000000000       2
   -0.214285714286    0.051282051282    0.000000000000       2
   -0.190476190476    0.051282051282    0.000000000000       2
   -0.166666666667    0.051282051282    0.000000000000       2
   -0.142857142857    0.051282051282    0.000000000000       2
   -0.119047619048    0.051282051282    0.000000000000       2
   -0.095238095238    0.051282051282    0.000000000000       2
   -0.071428571429    0.051282051282    0.000000000000       2
   -0.047619047619    0.051282051282    0.000000000000       2
   -0.023809523810    0.051282051282    0.000000000000       2
    0.000000000000    0.076923076923    0.000000000000       2
    0.023809523810    0.076923076923    0.000000000000       2
    0.047619047619    0.076923076923    0.000000000000       2
    0.071428571429    0.076923076923    0.000000000000       2
    0.095238095238    0.076923076923    0.000000000000       2
    0.119047619048    0.076923076923    0.000000000000       2
    0.142857142857    0.076923076923    0.000000000000       2
    0.166666666667    0.076923076923    0.000000000000       2
    0.190476190476    0.076923076923    0.000000000000       2
    0.214285714286    0.076923076923    0.000000000000       2
    0.238095238095    0.076923076923    0.000000000000       2
    0.261904761905    0.076923076923    0.000000000000       2
    0.285714285714    0.076923076923    0.000000000000       2
    0.309523809524    0.076923076923    0.000000000000       2
    0.333333333333    0.076923076923    0.000000000000       2
    0.357142857143    0.076923076923    0.000000000000       2
    0.380952380952    0.076923076923    0.000000000000       2
    0.404761904762    0.076923076923    0.000000000000       2
    0.428571428571    0.076923076923    0.000000000000       2
    0.452380952381    0.076923076923    0.000000000000       2
    0.476190476190    0.076923076923    0.000000000000       2
    0.500000000000    0.076923076923    0.000000000000       2
   -0.476190476190    0.076923076923    0.000000000000       2
   -0.452380952381    0.076923076923    0.000000000000       2
   -0.428571428571    0.076923076923    0.000000000000       2
   -0.404761904762    0.076923076923    0.000000000000       2
   -0.380952380952    0.076923076923    0.000000000000       2
   -0.357142857143    0.076923076923    0.000000000000       2
   -0.333333333333    0.076923076923    0.000000000000       2
   -0.309523809524    0.076923076923    0.000000000000       2
   -0.285714285714    0.076923076923    0.000000000000       2
   -0.261904761905    0.076923076923    0.000000000000       2
   -0.238095238095    0.076923076923    0.000000000000       2
   -0.214285714286    0.076923076923    0.000000000000       2
   -0.190476190476    0.076923076923    0.000000000000       2
   -0.166666666667    0.076923076923    0.000000000000       2
   -0.142857142857    0.076923076923    0.000000000000       2
   -0.119047619048    0.076923076923    0.000000000000       2
   -0.095238095238    0.076923076923    0.000000000000       2
   -0.071428571429    0.076923076923    0.000000000000       2
   -0.047619047619    0.076923076923    0.000000000000       2
   -0.023809523810    0.076923076923    0.000000000000       2
    0.000000000000    0.102564102564    0.000000000000       2
    0.023809523810    0.102564102564    0.000000000000       2
    0.047619047619    0.102564102564    0.000000000000       2
    0.071428571429    0.102564102564    0.000000000000       2
    0.095238095238    0.102564102564    0.000000000000       2
    0.119047619048    0.102564102564    0.000000000000       2
    0.142857142857    0.102564102564    0.000000000000       2
    0.166666666667    0.102564102564    0.000000000000       2
    0.190476190476    0.102564102564    0.000000000000       2
    0.214285714286    0.102564102564    0.000000000000       2
    0.238095238095    0.102564102564    0.000000000000       2
    0.261904761905    0.102564102564    0.000000000000       2
    0.285714285714    0.102564102564    0.000000000000       2
    0.309523809524    0.102564102564    0.000000000000       2
    0.333333333333    0.102564102564    0.000000000000       2
    0.357142857143    0.102564102564    0.000000000000       2
    0.380952380952    0.102564102564    0.000000000000       2
    0.404761904762    0.102564102564    0.000000000000       2
    0.428571428571    0.102564102564    0.000000000000       2
    0.452380952381    0.102564102564    0.000000000000       2
    0.476190476190    0.102564102564    0.000000000000       2
    0.500000000000    0.102564102564    0.000000000000       2
   -0.476190476190    0.102564102564    0.000000000000       2
   -0.452380952381    0.102564102564    0.000000000000       2
   -0.428571428571    0.102564102564    0.000000000000       2
   -0.404761904762    0.102564102564    0.000000000000       2
   -0.380952380952    0.102564102564    0.000000000000       2
   -0.357142857143    0.102564102564    0.000000000000       2
   -0.333333333333    0.102564102564    0.000000000000       2
   -0.309523809524    0.102564102564    0.000000000000       2
   -0.285714285714    0.102564102564    0.000000000000       2
   -0.261904761905    0.102564102564    0.000000000000       2
   -0.238095238095    0.102564102564    0.000000000000       2
   -0.214285714286    0.102564102564    0.000000000000       2
   -0.190476190476    0.102564102564    0.000000000000       2
   -0.166666666667    0.102564102564    0.000000000000       2
   -0.142857142857    0.102564102564    0.000000000000       2
   -0.119047619048    0.102564102564    0.000000000000       2
   -0.095238095238    0.102564102564    0.000000000000       2
   -0.071428571429    0.102564102564    0.000000000000       2
   -0.047619047619    0.102564102564    0.000000000000       2
   -0.023809523810    0.102564102564    0.000000000000       2
    0.000000000000    0.128205128205    0.000000000000       2
    0.023809523810    0.128205128205    0.000000000000       2
    0.047619047619    0.128205128205    0.000000000000       2
    0.071428571429    0.128205128205    0.000000000000       2
    0.095238095238    0.128205128205    0.000000000000       2
    0.119047619048    0.128205128205    0.000000000000       2
    0.142857142857    0.128205128205    0.000000000000       2
    0.166666666667    0.128205128205    0.000000000000       2
    0.190476190476    0.128205128205    0.000000000000       2
    0.214285714286    0.128205128205    0.000000000000       2
    0.238095238095    0.128205128205    0.000000000000       2
    0.261904761905    0.128205128205    0.000000000000       2
    0.285714285714    0.128205128205    0.000000000000       2
    0.309523809524    0.128205128205    0.000000000000       2
    0.333333333333    0.128205128205    0.000000000000       2
    0.357142857143    0.128205128205    0.000000000000       2
    0.380952380952    0.128205128205    0.000000000000       2
    0.404761904762    0.128205128205    0.000000000000       2
    0.428571428571    0.128205128205    0.000000000000       2
    0.452380952381    0.128205128205    0.000000000000       2
    0.476190476190    0.128205128205    0.000000000000       2
    0.500000000000    0.128205128205    0.000000000000       2
   -0.476190476190    0.128205128205    0.000000000000       2
   -0.452380952381    0.128205128205    0.000000000000       2
   -0.428571428571    0.128205128205    0.000000000000       2
   -0.404761904762    0.128205128205    0.000000000000       2
   -0.380952380952    0.128205128205    0.000000000000       2
   -0.357142857143    0.128205128205    0.000000000000       2
   -0.333333333333    0.128205128205    0.000000000000       2
   -0.309523809524    0.128205128205    0.000000000000       2
   -0.285714285714    0.128205128205    0.000000000000       2
   -0.261904761905    0.128205128205    0.000000000000       2
   -0.238095238095    0.128205128205    0.000000000000       2
   -0.214285714286    0.128205128205    0.000000000000       2
   -0.190476190476    0.128205128205    0.000000000000       2
   -0.166666666667    0.128205128205    0.000000000000       2
   -0.142857142857    0.128205128205    0.000000000000       2
   -0.119047619048    0.128205128205    0.000000000000       2
   -0.095238095238    0.128205128205    0.000000000000       2
   -0.071428571429    0.128205128205    0.000000000000       2
   -0.047619047619    0.128205128205    0.000000000000       2
   -0.023809523810    0.128205128205    0.000000000000       2
    0.000000000000    0.153846153846    0.000000000000       2
    0.023809523810    0.153846153846    0.000000000000       2
    0.047619047619    0.153846153846    0.000000000000       2
    0.071428571429    0.153846153846    0.000000000000       2
    0.095238095238    0.153846153846    0.000000000000       2
    0.119047619048    0.153846153846    0.000000000000       2
    0.142857142857    0.153846153846    0.000000000000       2
    0.166666666667    0.153846153846    0.000000000000       2
    0.190476190476    0.153846153846    0.000000000000       2
    0.214285714286    0.153846153846    0.000000000000       2
    0.238095238095    0.153846153846    0.000000000000       2
    0.261904761905    0.153846153846    0.000000000000       2
    0.285714285714    0.153846153846    0.000000000000       2
    0.309523809524    0.153846153846    0.000000000000       2
    0.333333333333    0.153846153846    0.000000000000       2
    0.357142857143    0.153846153846    0.000000000000       2
    0.380952380952    0.153846153846    0.000000000000       2
    0.404761904762    0.153846153846    0.000000000000       2
    0.428571428571    0.153846153846    0.000000000000       2
    0.452380952381    0.153846153846    0.000000000000       2
    0.476190476190    0.153846153846    0.000000000000       2
    0.500000000000    0.153846153846    0.000000000000       2
   -0.476190476190    0.153846153846    0.000000000000       2
   -0.452380952381    0.153846153846    0.000000000000       2
   -0.428571428571    0.153846153846    0.000000000000       2
   -0.404761904762    0.153846153846    0.000000000000       2
   -0.380952380952    0.153846153846    0.000000000000       2
   -0.357142857143    0.153846153846    0.000000000000       2
   -0.333333333333    0.153846153846    0.000000000000       2
   -0.309523809524    0.153846153846    0.000000000000       2
   -0.285714285714    0.153846153846    0.000000000000       2
   -0.261904761905    0.153846153846    0.000000000000       2
   -0.238095238095    0.153846153846    0.000000000000       2
   -0.214285714286    0.153846153846    0.000000000000       2
   -0.190476190476    0.153846153846    0.000000000000       2
   -0.166666666667    0.153846153846    0.000000000000       2
   -0.142857142857    0.153846153846    0.000000000000       2
   -0.119047619048    0.153846153846    0.000000000000       2
   -0.095238095238    0.153846153846    0.000000000000       2
   -0.071428571429    0.153846153846    0.000000000000       2
   -0.047619047619    0.153846153846    0.000000000000       2
   -0.023809523810    0.153846153846    0.000000000000       2
    0.000000000000    0.179487179487    0.000000000000       2
    0.023809523810    0.179487179487    0.000000000000       2
    0.047619047619    0.179487179487    0.000000000000       2
    0.071428571429    0.179487179487    0.000000000000       2
    0.095238095238    0.179487179487    0.000000000000       2
    0.119047619048    0.179487179487    0.000000000000       2
    0.142857142857    0.179487179487    0.000000000000       2
    0.166666666667    0.179487179487    0.000000000000       2
    0.190476190476    0.179487179487    0.000000000000       2
    0.214285714286    0.179487179487    0.000000000000       2
    0.238095238095    0.179487179487    0.000000000000       2
    0.261904761905    0.179487179487    0.000000000000       2
    0.285714285714    0.179487179487    0.000000000000       2
    0.309523809524    0.179487179487    0.000000000000       2
    0.333333333333    0.179487179487    0.000000000000       2
    0.357142857143    0.179487179487    0.000000000000       2
    0.380952380952    0.179487179487    0.000000000000       2
    0.404761904762    0.179487179487    0.000000000000       2
    0.428571428571    0.179487179487    0.000000000000       2
    0.452380952381    0.179487179487    0.000000000000       2
    0.476190476190    0.179487179487    0.000000000000       2
    0.500000000000    0.179487179487    0.000000000000       2
   -0.476190476190    0.179487179487    0.000000000000       2
   -0.452380952381    0.179487179487    0.000000000000       2
   -0.428571428571    0.179487179487    0.000000000000       2
   -0.404761904762    0.179487179487    0.000000000000       2
   -0.380952380952    0.179487179487    0.000000000000       2
   -0.357142857143    0.179487179487    0.000000000000       2
   -0.333333333333    0.179487179487    0.000000000000       2
   -0.309523809524    0.179487179487    0.000000000000       2
   -0.285714285714    0.179487179487    0.000000000000       2
   -0.261904761905    0.179487179487    0.000000000000       2
   -0.238095238095    0.179487179487    0.000000000000       2
   -0.214285714286    0.179487179487    0.000000000000       2
   -0.190476190476    0.179487179487    0.000000000000       2
   -0.166666666667    0.179487179487    0.000000000000       2
   -0.142857142857    0.179487179487    0.000000000000       2
   -0.119047619048    0.179487179487    0.000000000000       2
   -0.095238095238    0.179487179487    0.000000000000       2
   -0.071428571429    0.179487179487    0.000000000000       2
   -0.047619047619    0.179487179487    0.000000000000       2
   -0.023809523810    0.179487179487    0.000000000000       2
    0.000000000000    0.205128205128    0.000000000000       2
    0.023809523810    0.205128205128    0.000000000000       2
    0.047619047619    0.205128205128    0.000000000000       2
    0.071428571429    0.205128205128    0.000000000000       2
    0.095238095238    0.205128205128    0.000000000000       2
    0.119047619048    0.205128205128    0.000000000000       2
    0.142857142857    0.205128205128    0.000000000000       2
    0.166666666667    0.205128205128    0.000000000000       2
    0.190476190476    0.205128205128    0.000000000000       2
    0.214285714286    0.205128205128    0.000000000000       2
    0.238095238095    0.205128205128    0.000000000000       2
    0.261904761905    0.205128205128    0.000000000000       2
    0.285714285714    0.205128205128    0.000000000000       2
    0.309523809524    0.205128205128    0.000000000000       2
    0.333333333333    0.205128205128    0.000000000000       2
    0.357142857143    0.205128205128    0.000000000000       2
    0.380952380952    0.205128205128    0.000000000000       2
    0.404761904762    0.205128205128    0.000000000000       2
    0.428571428571    0.205128205128    0.000000000000       2
    0.452380952381    0.205128205128    0.000000000000       2
    0.476190476190    0.205128205128    0.000000000000       2
    0.500000000000    0.205128205128    0.000000000000       2
   -0.476190476190    0.205128205128    0.000000000000       2
   -0.452380952381    0.205128205128    0.000000000000       2
   -0.428571428571    0.205128205128    0.000000000000       2
   -0.404761904762    0.205128205128    0.000000000000       2
   -0.380952380952    0.205128205128    0.000000000000       2
   -0.357142857143    0.205128205128    0.000000000000       2
   -0.333333333333    0.205128205128    0.000000000000       2
   -0.309523809524    0.205128205128    0.000000000000       2
   -0.285714285714    0.205128205128    0.000000000000       2
   -0.261904761905    0.205128205128    0.000000000000       2
   -0.238095238095    0.205128205128    0.000000000000       2
   -0.214285714286    0.205128205128    0.000000000000       2
   -0.190476190476    0.205128205128    0.000000000000       2
   -0.166666666667    0.205128205128    0.000000000000       2
   -0.142857142857    0.205128205128    0.000000000000       2
   -0.119047619048    0.205128205128    0.000000000000       2
   -0.095238095238    0.205128205128    0.000000000000       2
   -0.071428571429    0.205128205128    0.000000000000       2
   -0.047619047619    0.205128205128    0.000000000000       2
   -0.023809523810    0.205128205128    0.000000000000       2
    0.000000000000    0.230769230769    0.000000000000       2
    0.023809523810    0.230769230769    0.000000000000       2
    0.047619047619    0.230769230769    0.000000000000       2
    0.071428571429    0.230769230769    0.000000000000       2
    0.095238095238    0.230769230769    0.000000000000       2
    0.119047619048    0.230769230769    0.000000000000       2
    0.142857142857    0.230769230769    0.000000000000       2
    0.166666666667    0.230769230769    0.000000000000       2
    0.190476190476    0.230769230769    0.000000000000       2
    0.214285714286    0.230769230769    0.000000000000       2
    0.238095238095    0.230769230769    0.000000000000       2
    0.261904761905    0.230769230769    0.000000000000       2
    0.285714285714    0.230769230769    0.000000000000       2
    0.309523809524    0.230769230769    0.000000000000       2
    0.333333333333    0.230769230769    0.000000000000       2
    0.357142857143    0.230769230769    0.000000000000       2
    0.380952380952    0.230769230769    0.000000000000       2
    0.404761904762    0.230769230769    0.000000000000       2
    0.428571428571    0.230769230769    0.000000000000       2
    0.452380952381    0.230769230769    0.000000000000       2
    0.476190476190    0.230769230769    0.000000000000       2
    0.500000000000    0.230769230769    0.000000000000       2
   -0.476190476190    0.230769230769    0.000000000000       2
   -0.452380952381    0.230769230769    0.000000000000       2
   -0.428571428571    0.230769230769    0.000000000000       2
   -0.404761904762    0.230769230769    0.000000000000       2
   -0.380952380952    0.230769230769    0.000000000000       2
   -0.357142857143    0.230769230769    0.000000000000       2
   -0.333333333333    0.230769230769    0.000000000000       2
   -0.309523809524    0.230769230769    0.000000000000       2
   -0.285714285714    0.230769230769    0.000000000000       2
   -0.261904761905    0.230769230769    0.000000000000       2
   -0.238095238095    0.230769230769    0.000000000000       2
   -0.214285714286    0.230769230769    0.000000000000       2
   -0.190476190476    0.230769230769    0.000000000000       2
   -0.166666666667    0.230769230769    0.000000000000       2
   -0.142857142857    0.230769230769    0.000000000000       2
   -0.119047619048    0.230769230769    0.000000000000       2
   -0.095238095238    0.230769230769    0.000000000000       2
   -0.071428571429    0.230769230769    0.000000000000       2
   -0.047619047619    0.230769230769    0.000000000000       2
   -0.023809523810    0.230769230769    0.000000000000       2
    0.000000000000    0.256410256410    0.000000000000       2
    0.023809523810    0.256410256410    0.000000000000       2
    0.047619047619    0.256410256410    0.000000000000       2
    0.071428571429    0.256410256410    0.000000000000       2
    0.095238095238    0.256410256410    0.000000000000       2
    0.119047619048    0.256410256410    0.000000000000       2
    0.142857142857    0.256410256410    0.000000000000       2
    0.166666666667    0.256410256410    0.000000000000       2
    0.190476190476    0.256410256410    0.000000000000       2
    0.214285714286    0.256410256410    0.000000000000       2
    0.238095238095    0.256410256410    0.000000000000       2
    0.261904761905    0.256410256410    0.000000000000       2
    0.285714285714    0.256410256410    0.000000000000       2
    0.309523809524    0.256410256410    0.000000000000       2
    0.333333333333    0.256410256410    0.000000000000       2
    0.357142857143    0.256410256410    0.000000000000       2
    0.380952380952    0.256410256410    0.000000000000       2
    0.404761904762    0.256410256410    0.000000000000       2
    0.428571428571    0.256410256410    0.000000000000       2
    0.452380952381    0.256410256410    0.000000000000       2
    0.476190476190    0.256410256410    0.000000000000       2
    0.500000000000    0.256410256410    0.000000000000       2
   -0.476190476190    0.256410256410    0.000000000000       2
   -0.452380952381    0.256410256410    0.000000000000       2
   -0.428571428571    0.256410256410    0.000000000000       2
   -0.404761904762    0.256410256410    0.000000000000       2
   -0.380952380952    0.256410256410    0.000000000000       2
   -0.357142857143    0.256410256410    0.000000000000       2
   -0.333333333333    0.256410256410    0.000000000000       2
   -0.309523809524    0.256410256410    0.000000000000       2
   -0.285714285714    0.256410256410    0.000000000000       2
   -0.261904761905    0.256410256410    0.000000000000       2
   -0.238095238095    0.256410256410    0.000000000000       2
   -0.214285714286    0.256410256410    0.000000000000       2
   -0.190476190476    0.256410256410    0.000000000000       2
   -0.166666666667    0.256410256410    0.000000000000       2
   -0.142857142857    0.256410256410    0.000000000000       2
   -0.119047619048    0.256410256410    0.000000000000       2
   -0.095238095238    0.256410256410    0.000000000000       2
   -0.071428571429    0.256410256410    0.000000000000       2
   -0.047619047619    0.256410256410    0.000000000000       2
   -0.023809523810    0.256410256410    0.000000000000       2
    0.000000000000    0.282051282051    0.000000000000       2
    0.023809523810    0.282051282051    0.000000000000       2
    0.047619047619    0.282051282051    0.000000000000       2
    0.071428571429    0.282051282051    0.000000000000       2
    0.095238095238    0.282051282051    0.000000000000       2
    0.119047619048    0.282051282051    0.000000000000       2
    0.142857142857    0.282051282051    0.000000000000       2
    0.166666666667    0.282051282051    0.000000000000       2
    0.190476190476    0.282051282051    0.000000000000       2
    0.214285714286    0.282051282051    0.000000000000       2
    0.238095238095    0.282051282051    0.000000000000       2
    0.261904761905    0.282051282051    0.000000000000       2
    0.285714285714    0.282051282051    0.000000000000       2
    0.309523809524    0.282051282051    0.000000000000       2
    0.333333333333    0.282051282051    0.000000000000       2
    0.357142857143    0.282051282051    0.000000000000       2
    0.380952380952    0.282051282051    0.000000000000       2
    0.404761904762    0.282051282051    0.000000000000       2
    0.428571428571    0.282051282051    0.000000000000       2
    0.452380952381    0.282051282051    0.000000000000       2
    0.476190476190    0.282051282051    0.000000000000       2
    0.500000000000    0.282051282051    0.000000000000       2
   -0.476190476190    0.282051282051    0.000000000000       2
   -0.452380952381    0.282051282051    0.000000000000       2
   -0.428571428571    0.282051282051    0.000000000000       2
   -0.404761904762    0.282051282051    0.000000000000       2
   -0.380952380952    0.282051282051    0.000000000000       2
   -0.357142857143    0.282051282051    0.000000000000       2
   -0.333333333333    0.282051282051    0.000000000000       2
   -0.309523809524    0.282051282051    0.000000000000       2
   -0.285714285714    0.282051282051    0.000000000000       2
   -0.261904761905    0.282051282051    0.000000000000       2