 Er1 Re2 O8                             
   1.00000000000000     
     5.6340050942286286    0.0000000000000000    0.0000000000000000
    -2.8160720061236035    4.8812638732800302    0.0000000000000000
     0.0000000000000000    0.0000000000000000   22.2191813876639941
   Er   Re   O 
     1     2     8
Direct
  0.9995962750728355  0.9997933578472649  0.5001254099483339
  0.6675407877356075  0.3323004308752897  0.5886290616455901
  0.3317428176820262  0.6672351058096520  0.4113705200595669
  0.7231323721296621  0.6544060553953924  0.5598976939897592
  0.0639843713480989  0.7222929050231964  0.4395378713855070
  0.6518510965829741  0.9324716535476644  0.4412014943400215
  0.6621218068983604  0.3298221039965994  0.6664763927291021
  0.3365865506836668  0.6689730479538305  0.3335234361900388
  0.3480434440403630  0.0662365214339177  0.5586614799510640
  0.9364480729103984  0.2788146521364895  0.5604598264171413
  0.2748934049160088  0.3449051659806946  0.4401584643978942
 
  0.00000000E+00  0.00000000E+00  0.00000000E+00
  0.00000000E+00  0.00000000E+00  0.00000000E+00
  0.00000000E+00  0.00000000E+00  0.00000000E+00
  0.00000000E+00  0.00000000E+00  0.00000000E+00
  0.00000000E+00  0.00000000E+00  0.00000000E+00
  0.00000000E+00  0.00000000E+00  0.00000000E+00
  0.00000000E+00  0.00000000E+00  0.00000000E+00
  0.00000000E+00  0.00000000E+00  0.00000000E+00
  0.00000000E+00  0.00000000E+00  0.00000000E+00
  0.00000000E+00  0.00000000E+00  0.00000000E+00
  0.00000000E+00  0.00000000E+00  0.00000000E+00
