CONTCAR\(6)                             
   1.00000000000000     
    12.6871004104999994    0.0000000000000000    0.0000000000000000
     6.3137961378999998   11.0849910486999992    0.0000000000000000
     0.0000000000000000    0.0000000000000000   18.1028995514000002
   Ti   Br   O 
     8    24     1
Direct
  0.0866281777019418  0.3320652386038256  0.5008747388617052
  0.2693315889557998  0.4812611509330496  0.4977044355822259
  0.5837807636437898  0.3359256610386670  0.5004196437207346
  0.7601402175028393  0.4881778443196608  0.5022854908401355
  0.0923123518956410  0.8392183751148408  0.4989448106152503
  0.2551262365875895  0.9879455166227854  0.5013113534194902
  0.5907785356698225  0.8340201018301427  0.5025331026042084
  0.7536280891051039  0.9902543189787621  0.5023701785224273
  0.0943366648049263  0.4914500437033046  0.4175694491010929
  0.2524252294848425  0.3344529909238647  0.5850715077319599
  0.2522067977926606  0.1610026819463450  0.4207888165209593
  0.0937487459658555  0.1606744477816770  0.5820088362147143
  0.4222079607021013  0.4909668702183385  0.5855727826821989
  0.4266703667764316  0.3303194070558547  0.4109356400718462
  0.5952954556642163  0.4897723042001996  0.4158653606089958
  0.7508604838708987  0.3328710708374563  0.5860327684461906
  0.7529715583533039  0.1602280535985493  0.4219480376358960
  0.5921424740692088  0.1627157288151350  0.5819463567283333
  0.9249031753050871  0.4874840013651414  0.5873558121293265
  0.9220298681770251  0.3343633388642935  0.4155566357766009
  0.0954579983346618  0.9914797455511111  0.4115279242194479
  0.2512546837943392  0.8318997672649037  0.5877964813136491
  0.2528937287789962  0.6615323538929972  0.4193295801979844
  0.0926455721943365  0.6600346036220390  0.5780475829195399
  0.4226767191271225  0.9896030268924493  0.5849612627314867
  0.4233013182834001  0.8331645138060719  0.4182397149153729
  0.5960564028826426  0.9877544974948894  0.4144459752406712
  0.7504453750762555  0.8346180164550121  0.5898647092537558
  0.7529071166870874  0.6615226775559716  0.4218671313765209
  0.5952025075462767  0.6610620752975661  0.5822275279504489
  0.9256305737134022  0.9861504735979292  0.5851614331112407
  0.9243937749213678  0.8303252646089962  0.4209472708954108
  0.1479391376310445  0.6579545992081739  0.6659476300601411
 
  0.00000000E+00  0.00000000E+00  0.00000000E+00
  0.00000000E+00  0.00000000E+00  0.00000000E+00
  0.00000000E+00  0.00000000E+00  0.00000000E+00
  0.00000000E+00  0.00000000E+00  0.00000000E+00
  0.00000000E+00  0.00000000E+00  0.00000000E+00
  0.00000000E+00  0.00000000E+00  0.00000000E+00
  0.00000000E+00  0.00000000E+00  0.00000000E+00
  0.00000000E+00  0.00000000E+00  0.00000000E+00
  0.00000000E+00  0.00000000E+00  0.00000000E+00
  0.00000000E+00  0.00000000E+00  0.00000000E+00
  0.00000000E+00  0.00000000E+00  0.00000000E+00
  0.00000000E+00  0.00000000E+00  0.00000000E+00
  0.00000000E+00  0.00000000E+00  0.00000000E+00
  0.00000000E+00  0.00000000E+00  0.00000000E+00
  0.00000000E+00  0.00000000E+00  0.00000000E+00
  0.00000000E+00  0.00000000E+00  0.00000000E+00
  0.00000000E+00  0.00000000E+00  0.00000000E+00
  0.00000000E+00  0.00000000E+00  0.00000000E+00
  0.00000000E+00  0.00000000E+00  0.00000000E+00
  0.00000000E+00  0.00000000E+00  0.00000000E+00
  0.00000000E+00  0.00000000E+00  0.00000000E+00
  0.00000000E+00  0.00000000E+00  0.00000000E+00
  0.00000000E+00  0.00000000E+00  0.00000000E+00
  0.00000000E+00  0.00000000E+00  0.00000000E+00
  0.00000000E+00  0.00000000E+00  0.00000000E+00
  0.00000000E+00  0.00000000E+00  0.00000000E+00
  0.00000000E+00  0.00000000E+00  0.00000000E+00
  0.00000000E+00  0.00000000E+00  0.00000000E+00
  0.00000000E+00  0.00000000E+00  0.00000000E+00
  0.00000000E+00  0.00000000E+00  0.00000000E+00
  0.00000000E+00  0.00000000E+00  0.00000000E+00
  0.00000000E+00  0.00000000E+00  0.00000000E+00
  0.00000000E+00  0.00000000E+00  0.00000000E+00
