CONTCAR\(11)                            
   1.00000000000000     
    14.8280000686999998    0.0000000000000000    0.0000000000000000
    -7.4140000342999999   12.8414247467999996    0.0000000000000000
     0.0000000000000000    0.0000000000000000   18.1965999602999986
   Ti   Br   O 
    16    32     1
Direct
  0.9834758907652876  0.9654743934106215  0.4995584811300046
  0.2609775163542856  0.0219550327085640  0.4970254747367629
  0.4819985026453334  0.9654743934106215  0.4995584811300046
  0.7686764038235551  0.0373527756471005  0.4953231872363366
  0.9737792076771609  0.2506159950352282  0.5029567431237881
  0.2624823391524665  0.2176902075231775  0.5116123110092530
  0.4552078763707190  0.2176902075231775  0.5116123110092530
  0.7768367793580667  0.2506159950352282  0.5029567431237881
 -0.0122349848213239  0.4755300303573521  0.5038187236738351
  0.2629977032693463  0.5202121810678816  0.5027310119940264
  0.5098355583752431  0.5196711167504855  0.5152421760720216
  0.7572145097985380  0.5202121810678816  0.5027310119940264
  0.9788422882973855  0.7585813595881757  0.4985161747248442
  0.2797390542908002  0.7585813595881757  0.4985161747248442
  0.4836231327922557  0.7743136446816897  0.4971013662364065
  0.7906905108894376  0.7743136446816897  0.4971013662364065
  0.0840136615089042  0.1618211795905732  0.4300561143961439
  0.1479482751107083  0.0573842977093908  0.5895711396030546
  0.3344346563438313  0.1688792816876598  0.4012099674903584
  0.4094460395986835  0.0573842977093908  0.5895711396030546
  0.5777975330816711  0.1618211795905732  0.4300561143961439
  0.6645594613731858  0.0849117355109373  0.5855433127108876
  0.8401368767564460  0.1802837545128978  0.3959165688857750
  0.9203624041377438  0.0849117355109373  0.5855433127108876
  0.0874524807865324  0.4147563943386892  0.4173380123223225
  0.1672725247124507  0.3368972743252507  0.5810630644942835
  0.3403328430335542  0.4149841512412645  0.4335344110080538
  0.3782628626124226  0.2565157242248462  0.6224022244614507
  0.5746413072077107  0.4149841512412645  0.4335344110080538
  0.6696347826127947  0.3368972743252507  0.5810630644942835
  0.8272938805521550  0.4147563943386892  0.4173380123223225
  0.9156065262866606  0.3312029875733153  0.6057878095080643
  0.0797843175021588  0.6595787010043260  0.4251380750217916
  0.1668878995061566  0.5878722585692389  0.5855313055641340
  0.3374767600884853  0.6699488352752215  0.4007490987609039
  0.4274089941619804  0.6166290386395743  0.5873101322370535
  0.5934597247666620  0.6869295155333188  0.4211198463857221
  0.6892301094775993  0.6166290386395743  0.5873101322370535
  0.8324620091867344  0.6699488352752215  0.4007490987609039
  0.9209943590630855  0.5878722585692389  0.5855313055641340
  0.0855871693999313  0.9157035365550406  0.4087295010998201
  0.1670284431397427  0.8340468852794710  0.5710776354884352
  0.3301063331551171  0.9157035365550406  0.4087295010998201
  0.4135113522031714  0.8331439019336401  0.6033633913995726
  0.5910331494577300  0.9293960120178942  0.4065439505231464
  0.6773433306150896  0.8546765302301836  0.5708319205251513
  0.8383527965601629  0.9293960120178942  0.4065439505231464
  0.9196426147304666  0.8331439019336401  0.6033633913995726
  0.4762226202317430  0.4524252054634944  0.5910569308389730
 
  0.00000000E+00  0.00000000E+00  0.00000000E+00
  0.00000000E+00  0.00000000E+00  0.00000000E+00
  0.00000000E+00  0.00000000E+00  0.00000000E+00
  0.00000000E+00  0.00000000E+00  0.00000000E+00
  0.00000000E+00  0.00000000E+00  0.00000000E+00
  0.00000000E+00  0.00000000E+00  0.00000000E+00
  0.00000000E+00  0.00000000E+00  0.00000000E+00
  0.00000000E+00  0.00000000E+00  0.00000000E+00
  0.00000000E+00  0.00000000E+00  0.00000000E+00
  0.00000000E+00  0.00000000E+00  0.00000000E+00
  0.00000000E+00  0.00000000E+00  0.00000000E+00
  0.00000000E+00  0.00000000E+00  0.00000000E+00
  0.00000000E+00  0.00000000E+00  0.00000000E+00
  0.00000000E+00  0.00000000E+00  0.00000000E+00
  0.00000000E+00  0.00000000E+00  0.00000000E+00
  0.00000000E+00  0.00000000E+00  0.00000000E+00
  0.00000000E+00  0.00000000E+00  0.00000000E+00
  0.00000000E+00  0.00000000E+00  0.00000000E+00
  0.00000000E+00  0.00000000E+00  0.00000000E+00
  0.00000000E+00  0.00000000E+00  0.00000000E+00
  0.00000000E+00  0.00000000E+00  0.00000000E+00
  0.00000000E+00  0.00000000E+00  0.00000000E+00
  0.00000000E+00  0.00000000E+00  0.00000000E+00
  0.00000000E+00  0.00000000E+00  0.00000000E+00
  0.00000000E+00  0.00000000E+00  0.00000000E+00
  0.00000000E+00  0.00000000E+00  0.00000000E+00
  0.00000000E+00  0.00000000E+00  0.00000000E+00
  0.00000000E+00  0.00000000E+00  0.00000000E+00
  0.00000000E+00  0.00000000E+00  0.00000000E+00
  0.00000000E+00  0.00000000E+00  0.00000000E+00
  0.00000000E+00  0.00000000E+00  0.00000000E+00
  0.00000000E+00  0.00000000E+00  0.00000000E+00
  0.00000000E+00  0.00000000E+00  0.00000000E+00
  0.00000000E+00  0.00000000E+00  0.00000000E+00
  0.00000000E+00  0.00000000E+00  0.00000000E+00
  0.00000000E+00  0.00000000E+00  0.00000000E+00
  0.00000000E+00  0.00000000E+00  0.00000000E+00
  0.00000000E+00  0.00000000E+00  0.00000000E+00
  0.00000000E+00  0.00000000E+00  0.00000000E+00
  0.00000000E+00  0.00000000E+00  0.00000000E+00
  0.00000000E+00  0.00000000E+00  0.00000000E+00
  0.00000000E+00  0.00000000E+00  0.00000000E+00
  0.00000000E+00  0.00000000E+00  0.00000000E+00
  0.00000000E+00  0.00000000E+00  0.00000000E+00
  0.00000000E+00  0.00000000E+00  0.00000000E+00
  0.00000000E+00  0.00000000E+00  0.00000000E+00
  0.00000000E+00  0.00000000E+00  0.00000000E+00
  0.00000000E+00  0.00000000E+00  0.00000000E+00
  0.00000000E+00  0.00000000E+00  0.00000000E+00
