CONTCAR\(2)                             
   1.00000000000000     
    10.2920999526999992    0.0000000000000000    0.0000000000000000
     1.7153529658000000    9.6351993213000000    0.0000000000000000
     0.0000000000000000    0.0000000000000000   19.1306991577000005
   Nb   Te   O    H 
     9    18     2     1
Direct
  0.9755280494598868  0.0063482454770762  0.5049073553247542
  0.0981355031019832  0.2876917081871617  0.5006169758668021
  0.1899699447594790  0.7212482139655555  0.5108659157944769
  0.3104226719086853  0.0062272986899930  0.5048500545515806
  0.4279467704990763  0.2921747525288586  0.5000925792183845
  0.5231596165801136  0.7215929036919007  0.5106794723266782
  0.6406841508222105  0.0085767984714706  0.5045265177940698
  0.7581471176204251  0.2891333081734660  0.5001588049033493
  0.8544942087145529  0.7330545394112207  0.5092767958359392
  0.1261627309276354  0.1136901302552110  0.6106402897126753
  0.1613796351126978  0.8943016619692938  0.4001542849176894
  0.2350239432407707  0.4575053087400174  0.5869004204686064
  0.0510925197726692  0.5550961106032100  0.4259506408331087
  0.0104850407780149  0.7996166931825262  0.6153146888452363
  0.2748217740190704  0.2150899238906519  0.3947671132875974
  0.4567518200564366  0.1177350308355889  0.6104497132200438
  0.4942388726772270  0.8944104361438824  0.3996279697133864
  0.5656741441197711  0.4581532810754808  0.5867556725051485
  0.3840695660275940  0.5553225748169208  0.4239490319395011
  0.3441635330220525  0.7963263508402653  0.6155124932936441
  0.6057860453941678  0.2169981789208199  0.3942997423364241
  0.7895897486381572  0.1173372782776305  0.6106078996532557
  0.8263494340213714  0.9013630638324317  0.3978630899603178
  0.8983991454794095  0.4683271691180396  0.5671873941914160
  0.7173071014274620  0.5563617119194297  0.4254424176514252
  0.6759405603868223  0.8007877658640725  0.6152089775186133
  0.9410946111600154  0.2150928828796396  0.3957629828987156
  0.9236163317830783  0.3449776654208402  0.7108649718800828
  0.8944573294916391  0.4793694387568674  0.6766193962270344
  0.0177580399975214  0.3395898620604753  0.7218362843300273
 
  0.00000000E+00  0.00000000E+00  0.00000000E+00
  0.00000000E+00  0.00000000E+00  0.00000000E+00
  0.00000000E+00  0.00000000E+00  0.00000000E+00
  0.00000000E+00  0.00000000E+00  0.00000000E+00
  0.00000000E+00  0.00000000E+00  0.00000000E+00
  0.00000000E+00  0.00000000E+00  0.00000000E+00
  0.00000000E+00  0.00000000E+00  0.00000000E+00
  0.00000000E+00  0.00000000E+00  0.00000000E+00
  0.00000000E+00  0.00000000E+00  0.00000000E+00
  0.00000000E+00  0.00000000E+00  0.00000000E+00
  0.00000000E+00  0.00000000E+00  0.00000000E+00
  0.00000000E+00  0.00000000E+00  0.00000000E+00
  0.00000000E+00  0.00000000E+00  0.00000000E+00
  0.00000000E+00  0.00000000E+00  0.00000000E+00
  0.00000000E+00  0.00000000E+00  0.00000000E+00
  0.00000000E+00  0.00000000E+00  0.00000000E+00
  0.00000000E+00  0.00000000E+00  0.00000000E+00
  0.00000000E+00  0.00000000E+00  0.00000000E+00
  0.00000000E+00  0.00000000E+00  0.00000000E+00
  0.00000000E+00  0.00000000E+00  0.00000000E+00
  0.00000000E+00  0.00000000E+00  0.00000000E+00
  0.00000000E+00  0.00000000E+00  0.00000000E+00
  0.00000000E+00  0.00000000E+00  0.00000000E+00
  0.00000000E+00  0.00000000E+00  0.00000000E+00
  0.00000000E+00  0.00000000E+00  0.00000000E+00
  0.00000000E+00  0.00000000E+00  0.00000000E+00
  0.00000000E+00  0.00000000E+00  0.00000000E+00
  0.00000000E+00  0.00000000E+00  0.00000000E+00
  0.00000000E+00  0.00000000E+00  0.00000000E+00
  0.00000000E+00  0.00000000E+00  0.00000000E+00
