CONTCAR\(5)                             
   1.00000000000000     
    13.4884004592999993    0.0000000000000000    0.0000000000000000
    -6.7442190033999996   11.6815167672999998    0.0000000000000000
     0.0000000000000000    0.0000000000000000   18.4951992035000004
   Nb   Cl   O 
    12    32     1
Direct
  0.0975364166952966  0.1950795897868058  0.4955006689916959
  0.0976875784862622  0.4041323565285008  0.4949889449739086
  0.3064410206295268  0.4041292129881606  0.4949861786748720
  0.5972272432181316  0.1944530393828262  0.4948775909815004
  0.5972248184190679  0.4027700594129599  0.4948775287356805
  0.8055452755785918  0.4027691941785966  0.4948741252678728
  0.0976880046884561  0.6935550625122209  0.4949890122301305
  0.0975382544340911  0.9024596385539275  0.4955027573387825
  0.3064415416172285  0.9023083531561057  0.4949876152842672
  0.5958669472605449  0.6935545384639936  0.4949881392926242
  0.5958665435598226  0.9023096037693551  0.4949893927753244
  0.8049179818503338  0.9024559932228839  0.4955007387288147
  0.1676084019610206  0.3352167718427988  0.5939378690598447
 -0.0000008892548296  0.0000003726712985  0.4221513642158319
  0.4160863185762521  0.0841059786390531  0.5679491428443317
  0.1682991813481735  0.0841488402560754  0.5685216161376825
  0.4160876284988971  0.3319784312087296  0.5679504748131297
  0.2492020060189788  0.2509958119471464  0.4067500238042522
  0.0017977168703028  0.2510051053543818  0.4067508410721661
  0.2492011567349927  0.4983998989189720  0.4058349257102635
  0.6666663740841005  0.3333308694919984  0.5938822394954038
  0.5001794109449370  0.0003605071339924  0.4207775042039779
  0.9158489274108031  0.0841480544747998  0.5685201621679377
  0.6680190350956892  0.0841042811333233  0.5679472224709469
  0.9158936897595689  0.3319797987098427  0.5679478122049383
  0.7490869063356199  0.2509178244864603  0.4060264277920425
  0.5018321434963622  0.2509148445049799  0.4060289716170125
  0.7490866034235055  0.4981665617178373  0.4060251208120663
  0.1676063742009721  0.8323864249222034  0.5939383265577195
  0.9996391064760161  0.4998204164542863  0.4207755372215796
  0.4162151155271214  0.5837831297804958  0.5675070152469103
  0.1675713319026030  0.5837858353469416  0.5675075854123033
  0.4162138051728898  0.8324268133775117  0.5675114444046886
  0.2491992696939289  0.7507964130902043  0.4058363169503587
  0.0017994854465349  0.7507997030693009  0.4067512815331779
  0.2492010693404252  0.9982017694016069  0.4067496115028705
  0.6647817590906906  0.8323867290704589  0.5939393233387420
  0.5001811893050928  0.4998179425641719  0.4207765732767756
  0.9158943869582932  0.5839115509194881  0.5679460042678242
  0.6680210959697638  0.5839113446951339  0.5679501469630697
  0.9158498042149643  0.8316981401600925  0.5685227705019742
  0.7490080227496511  0.7508002720599584  0.4067492391897296
  0.5015992784316553  0.7507992389209387  0.4058373052393250
  0.7490038018268829  0.9981989128937730  0.4067489959121178
  0.3332790609508087  0.6665746898254187  0.6878684107835641
 
  0.00000000E+00  0.00000000E+00  0.00000000E+00
  0.00000000E+00  0.00000000E+00  0.00000000E+00
  0.00000000E+00  0.00000000E+00  0.00000000E+00
  0.00000000E+00  0.00000000E+00  0.00000000E+00
  0.00000000E+00  0.00000000E+00  0.00000000E+00
  0.00000000E+00  0.00000000E+00  0.00000000E+00
  0.00000000E+00  0.00000000E+00  0.00000000E+00
  0.00000000E+00  0.00000000E+00  0.00000000E+00
  0.00000000E+00  0.00000000E+00  0.00000000E+00
  0.00000000E+00  0.00000000E+00  0.00000000E+00
  0.00000000E+00  0.00000000E+00  0.00000000E+00
  0.00000000E+00  0.00000000E+00  0.00000000E+00
  0.00000000E+00  0.00000000E+00  0.00000000E+00
  0.00000000E+00  0.00000000E+00  0.00000000E+00
  0.00000000E+00  0.00000000E+00  0.00000000E+00
  0.00000000E+00  0.00000000E+00  0.00000000E+00
  0.00000000E+00  0.00000000E+00  0.00000000E+00
  0.00000000E+00  0.00000000E+00  0.00000000E+00
  0.00000000E+00  0.00000000E+00  0.00000000E+00
  0.00000000E+00  0.00000000E+00  0.00000000E+00
  0.00000000E+00  0.00000000E+00  0.00000000E+00
  0.00000000E+00  0.00000000E+00  0.00000000E+00
  0.00000000E+00  0.00000000E+00  0.00000000E+00
  0.00000000E+00  0.00000000E+00  0.00000000E+00
  0.00000000E+00  0.00000000E+00  0.00000000E+00
  0.00000000E+00  0.00000000E+00  0.00000000E+00
  0.00000000E+00  0.00000000E+00  0.00000000E+00
  0.00000000E+00  0.00000000E+00  0.00000000E+00
  0.00000000E+00  0.00000000E+00  0.00000000E+00
  0.00000000E+00  0.00000000E+00  0.00000000E+00
  0.00000000E+00  0.00000000E+00  0.00000000E+00
  0.00000000E+00  0.00000000E+00  0.00000000E+00
  0.00000000E+00  0.00000000E+00  0.00000000E+00
  0.00000000E+00  0.00000000E+00  0.00000000E+00
  0.00000000E+00  0.00000000E+00  0.00000000E+00
  0.00000000E+00  0.00000000E+00  0.00000000E+00
  0.00000000E+00  0.00000000E+00  0.00000000E+00
  0.00000000E+00  0.00000000E+00  0.00000000E+00
  0.00000000E+00  0.00000000E+00  0.00000000E+00
  0.00000000E+00  0.00000000E+00  0.00000000E+00
  0.00000000E+00  0.00000000E+00  0.00000000E+00
  0.00000000E+00  0.00000000E+00  0.00000000E+00
  0.00000000E+00  0.00000000E+00  0.00000000E+00
  0.00000000E+00  0.00000000E+00  0.00000000E+00
  0.00000000E+00  0.00000000E+00  0.00000000E+00
