CONTCAR\(4)                             
   1.00000000000000     
    13.4425001143999996    0.0000000000000000    0.0000000000000000
     3.3606099258000000   18.5762653218000011    0.0000000000000000
     0.0000000000000000    0.0000000000000000   18.6296005248999990
   V    Te   O    H 
    24    48     2     1
Direct
 -0.0000679684913040  0.9993221469939159  0.5035297979140856
  0.0887091426292763  0.1443544248095351  0.4996776683418583
  0.1614458627707210  0.3545860537953671  0.5049949545865028
  0.2501354473328150 -0.0006161322983365  0.5038394971305360
  0.3387381524603523  0.1444637886169601  0.4993456573373315
  0.4117316018481001  0.3548189660084901  0.5053906465302709
  0.4993892036029839 -0.0003741803995917  0.5033780669258143
  0.5886086869419964  0.1441141038664676  0.4993904048175855
  0.6612450810822759  0.3545705257370648  0.5053444541471960
  0.7497561120210761  0.9993899731167919  0.5035154694214306
  0.8386491092337029  0.1441710207903232  0.4996773533829542
  0.9112163495625072  0.3544331599468438  0.5048537207824639
  0.0000070717057841  0.4993969731286531  0.5000570571416229
  0.0889542497230854  0.6435543523195473  0.4960724071963786
  0.1608019565715924  0.8550340553884440  0.5069093987515518
  0.2501086632278288  0.4997860389014896  0.4999646086359444
  0.3364948612168975  0.6412516853257352  0.4953567288228570
  0.4097205419696285  0.8598213347660199  0.5070367388283684
  0.5006781860657886  0.4982201274949112  0.4998740873215297
  0.5928408411120155  0.6407556846731310  0.4951661694113754
  0.6609319452403750  0.8550287570122912  0.5068700270280553
  0.7498374353266668  0.4995731101861446  0.4999877304935214
  0.8391670500014952  0.6434082402317687  0.4958242079875855
  0.9109957601519774  0.8547319621776622  0.5060163234670989
  0.1106875376302438  0.0542439730198063  0.6049908271812841
  0.1388550656936706  0.4442399405038236  0.3991097970060873
  0.1937381507535636  0.2244433111560055  0.5832201587517687
  0.0563629374519701  0.2746473501084293  0.4214355042800625
  0.0266348407707326  0.3931696969847649  0.6055805841374977
  0.2228887738459905  0.1063448078022640  0.3987745238449262
  0.3611582205145139  0.0549070631815591  0.6049529152346210
  0.3887267205817100  0.4436548309155854  0.3990177723033929
  0.4437529490880140  0.2244248271434385  0.5831449648803414
  0.3065387389111131  0.2747766942638032  0.4215309150339199
  0.2767085002654295  0.3933964036727082  0.6056671854311141
  0.4732933314966060  0.1063403286198704  0.3985434305613849
  0.6113756423334628  0.0542491968931190  0.6048598213316473
  0.6394534444297091  0.4433426303726525  0.3989623557828604
  0.6936069657386168  0.2240638998264542  0.5832379275571302
  0.5564270126548003  0.2744105196959381  0.4216415313798462
  0.5269093083739758  0.3931422207558466  0.6061541819200758
  0.7233482802783401  0.1059314857066926  0.3986848504744414
  0.8612888281209919  0.0537600803339478  0.6049510070508596
  0.8890406182596202  0.4441055927994077  0.3990791511290668
  0.9436765452714619  0.2242479515424587  0.5832844896828934
  0.8061533527518048  0.2743408535733967  0.4214511927010022
  0.7768542406914506  0.3932152498909294  0.6056479010489260
  0.9731743749492940  0.1060505784735172  0.3988628000041645
  0.1113193353060418  0.5533962497598829  0.6015082425132910
  0.1380632412274210  0.9457583441030991  0.4019393656629874
  0.1922029011483150  0.7228163588437735  0.5810617529143236
  0.0557922557338099  0.7755991265182417  0.4215752573607948
  0.0261616706534089  0.8922230809240171  0.6078042613671283
  0.2221610259232615  0.6052135381057041  0.3938570043698640
  0.3615613042398268  0.5532547874706384  0.6018160253027451
  0.3875792362455869  0.9471812220828296  0.4008453866972348
  0.4428951277196565  0.7259559754022905  0.5612067483423858
  0.3047721676204075  0.7756611729695331  0.4225639327176249
  0.2753775725738970  0.8936790600801473  0.6085019895205094
  0.4740617860044969  0.6032646430370999  0.3948581411072254
  0.6118684565418155  0.5534630157674112  0.6018420233511182
  0.6384355398111252  0.9455974073254392  0.4018014419815772
  0.6960394678289524  0.7227557410241010  0.5805682533985336
  0.5564177889890419  0.7751656840135119  0.4233368718485693
  0.5273739925392071  0.8943011038972971  0.6083213663951683
  0.7250812489902497  0.6048787034753863  0.3936523958634774
  0.8617371344785455  0.5534363960280384  0.6014901346233064
  0.8881132540044918  0.9459276180097533  0.4015760683479158
  0.9437653067838604  0.7228571022163085  0.5806964061053577
  0.8059185681175675  0.7756221561772085  0.4214535255337042
  0.7770999188201685  0.8921106972850726  0.6077619591946345
  0.9735115791002766  0.6056945405626599  0.3947678580390089
  0.4316914778757469  0.7039574296946212  0.6717175346463148
  0.5035935069495537  0.7371353301630983  0.7127814779551107
  0.4585154126085445  0.7785981332367915  0.7338055667268120
 
  0.00000000E+00  0.00000000E+00  0.00000000E+00
  0.00000000E+00  0.00000000E+00  0.00000000E+00
  0.00000000E+00  0.00000000E+00  0.00000000E+00
  0.00000000E+00  0.00000000E+00  0.00000000E+00
  0.00000000E+00  0.00000000E+00  0.00000000E+00
  0.00000000E+00  0.00000000E+00  0.00000000E+00
  0.00000000E+00  0.00000000E+00  0.00000000E+00
  0.00000000E+00  0.00000000E+00  0.00000000E+00
  0.00000000E+00  0.00000000E+00  0.00000000E+00
  0.00000000E+00  0.00000000E+00  0.00000000E+00
  0.00000000E+00  0.00000000E+00  0.00000000E+00
  0.00000000E+00  0.00000000E+00  0.00000000E+00
  0.00000000E+00  0.00000000E+00  0.00000000E+00
  0.00000000E+00  0.00000000E+00  0.00000000E+00
  0.00000000E+00  0.00000000E+00  0.00000000E+00
  0.00000000E+00  0.00000000E+00  0.00000000E+00
  0.00000000E+00  0.00000000E+00  0.00000000E+00
  0.00000000E+00  0.00000000E+00  0.00000000E+00
  0.00000000E+00  0.00000000E+00  0.00000000E+00
  0.00000000E+00  0.00000000E+00  0.00000000E+00
  0.00000000E+00  0.00000000E+00  0.00000000E+00
  0.00000000E+00  0.00000000E+00  0.00000000E+00
  0.00000000E+00  0.00000000E+00  0.00000000E+00
  0.00000000E+00  0.00000000E+00  0.00000000E+00
  0.00000000E+00  0.00000000E+00  0.00000000E+00
  0.00000000E+00  0.00000000E+00  0.00000000E+00
  0.00000000E+00  0.00000000E+00  0.00000000E+00
  0.00000000E+00  0.00000000E+00  0.00000000E+00
  0.00000000E+00  0.00000000E+00  0.00000000E+00
  0.00000000E+00  0.00000000E+00  0.00000000E+00
  0.00000000E+00  0.00000000E+00  0.00000000E+00
  0.00000000E+00  0.00000000E+00  0.00000000E+00
  0.00000000E+00  0.00000000E+00  0.00000000E+00
  0.00000000E+00  0.00000000E+00  0.00000000E+00
  0.00000000E+00  0.00000000E+00  0.00000000E+00
  0.00000000E+00  0.00000000E+00  0.00000000E+00
  0.00000000E+00  0.00000000E+00  0.00000000E+00
  0.00000000E+00  0.00000000E+00  0.00000000E+00
  0.00000000E+00  0.00000000E+00  0.00000000E+00
  0.00000000E+00  0.00000000E+00  0.00000000E+00
  0.00000000E+00  0.00000000E+00  0.00000000E+00
  0.00000000E+00  0.00000000E+00  0.00000000E+00
  0.00000000E+00  0.00000000E+00  0.00000000E+00
  0.00000000E+00  0.00000000E+00  0.00000000E+00
  0.00000000E+00  0.00000000E+00  0.00000000E+00
  0.00000000E+00  0.00000000E+00  0.00000000E+00
  0.00000000E+00  0.00000000E+00  0.00000000E+00
  0.00000000E+00  0.00000000E+00  0.00000000E+00
  0.00000000E+00  0.00000000E+00  0.00000000E+00
  0.00000000E+00  0.00000000E+00  0.00000000E+00
  0.00000000E+00  0.00000000E+00  0.00000000E+00
  0.00000000E+00  0.00000000E+00  0.00000000E+00
  0.00000000E+00  0.00000000E+00  0.00000000E+00
  0.00000000E+00  0.00000000E+00  0.00000000E+00
  0.00000000E+00  0.00000000E+00  0.00000000E+00
  0.00000000E+00  0.00000000E+00  0.00000000E+00
  0.00000000E+00  0.00000000E+00  0.00000000E+00
  0.00000000E+00  0.00000000E+00  0.00000000E+00
  0.00000000E+00  0.00000000E+00  0.00000000E+00
  0.00000000E+00  0.00000000E+00  0.00000000E+00
  0.00000000E+00  0.00000000E+00  0.00000000E+00
  0.00000000E+00  0.00000000E+00  0.00000000E+00
  0.00000000E+00  0.00000000E+00  0.00000000E+00
  0.00000000E+00  0.00000000E+00  0.00000000E+00
  0.00000000E+00  0.00000000E+00  0.00000000E+00
  0.00000000E+00  0.00000000E+00  0.00000000E+00
  0.00000000E+00  0.00000000E+00  0.00000000E+00
  0.00000000E+00  0.00000000E+00  0.00000000E+00
  0.00000000E+00  0.00000000E+00  0.00000000E+00
  0.00000000E+00  0.00000000E+00  0.00000000E+00
  0.00000000E+00  0.00000000E+00  0.00000000E+00
  0.00000000E+00  0.00000000E+00  0.00000000E+00
  0.00000000E+00  0.00000000E+00  0.00000000E+00
  0.00000000E+00  0.00000000E+00  0.00000000E+00
  0.00000000E+00  0.00000000E+00  0.00000000E+00
