CONTCAR\(6)                             
   1.00000000000000     
    12.0179996490000001    0.0000000000000000    0.0000000000000000
     5.5443836140000000   17.3830097696000010    0.0000000000000000
     0.0000000000000000    0.0000000000000000   18.4081001282000010
   Nb   Ir   Se   O    H 
    16     4    40     2     1
Direct
  0.3175750290400054  0.4176948839548431  0.5052830422134981
  0.3635281121806677  0.1916163134053049  0.5044555991531234
  0.0381320168750470  0.9950472296182803  0.5047924351520438
  0.0785981720582205  0.3082645849240599  0.5002574249657437
  0.8122634575004423  0.4181663423526137  0.5020957587696925
  0.8830537755966112  0.1872048366252862  0.5013674075530523
  0.5417373760659383  0.9913202730628263  0.5047496636385994
  0.6022662968167322  0.3245104270797795  0.4995393513411309
  0.3080531910579847  0.9154666047425016  0.5009147187478920
  0.3798419149246011  0.6903945698380289  0.5014689275374058
  0.0419475500299457  0.4999250205312908  0.5032071418925502
  0.0909051687168767  0.8174529010942785  0.4999057178080258
  0.8117947504356726  0.9128258750723330  0.5016035974980211
  0.8690631281817748  0.7040652227454468  0.5061197230393220
  0.5423036767600912  0.4972636548122815  0.5055483559428787
  0.5789390234619993  0.8128421469620473  0.4951072893306780
  0.2106973826250213  0.0894924791378903  0.5027017053227135
  0.7103309137166119  0.0917630629066542  0.5024831245914588
  0.2093595168171676  0.5922548061992672  0.5031200780165279
  0.7135212494121616  0.5927307713208821  0.5029963940273690
  0.1803361253589873  0.0016901080832404  0.6027680096021316
  0.0429083489079361  0.0996547127231048  0.4138189441515635
  0.2688300266204222  0.3020109565774642  0.5868095120978045
  0.1559689988767928  0.3955005770680494  0.4159739139924286
  0.3736525230336413  0.0885974531233644  0.5924699466350444
  0.2161822202021719  0.1946919565144569  0.4105599038209086
  0.4813684084984334  0.4061253443295700  0.6004018136079615
  0.3513781349645739  0.0042691626083060  0.4119331011586675
  0.0714392278984337  0.1927463794335579  0.5794962456832532
  0.4349080444538247  0.2986601434007445  0.4251161425789387
  0.6833039777817594  0.0008536787580735  0.6020070483205866
  0.5367548366637317  0.1009625955293892  0.4180585888696524
  0.7757727675360957  0.3008881130892752  0.5859975136135928
  0.6514336031476572  0.4071892933506138  0.4035868096411965
  0.8724903253735411  0.0916880240637286  0.5929258637113776
  0.7254528048898481  0.1969529772926022  0.4123188292605844
  0.9766115129448408  0.4029930833932618  0.5969633361745527
  0.8507039359747713  0.0036121815275714  0.4135030355373857
  0.5647683743213461  0.2010826255780483  0.5597358120248275
  0.9244356389652042  0.3036927294816932  0.4124606307232021
  0.1831768792075517  0.5041771828277473  0.6032501989244002
  0.0425787515707179  0.6022362188472089  0.4154741119574223
  0.2717622382612492  0.8013390853113257  0.5846670682541351
  0.1479404215462845  0.9013055126209703  0.4053008530022971
  0.3725423095719685  0.5946409583852318  0.5929945592677943
  0.2234082146417377  0.6966258135515117  0.4118581616505004
  0.4719329495796345  0.9016019592159382  0.5964810749486544
  0.3531468534035256  0.5049119982021413  0.4137168716365386
  0.0687048088257010  0.6985803521613169  0.5753054894292861
  0.4233986449206259  0.8031615492694743  0.4102839684265882
  0.6838327799834095  0.5057164162961817  0.6032489262171349
  0.5448883304843168  0.6032374499740936  0.4150958342438312
  0.7614772330997410  0.8034837714436250  0.5905416608908473
  0.6526416093149017  0.8981757601109650  0.4074334428036229
  0.8790075648898878  0.5934259325660688  0.5895993578995249
  0.7229161000548199  0.6981951199835756  0.4117900490111386
  0.9747280112728821  0.9028412045793422  0.5985893244680595
  0.8542896811856362  0.5065080276844725  0.4120428709934920
  0.5703796051812553  0.6967721213950026  0.5763453630113312
  0.9323481628364532  0.7998065414687902  0.4145538920682421
  0.5295031797599243  0.1544345687909604  0.7009047917075528
  0.5803051593749385  0.2059041338858568  0.6628076007379533
  0.4493194703452523  0.1881625971161206  0.7090615457022235
 
  0.00000000E+00  0.00000000E+00  0.00000000E+00
  0.00000000E+00  0.00000000E+00  0.00000000E+00
  0.00000000E+00  0.00000000E+00  0.00000000E+00
  0.00000000E+00  0.00000000E+00  0.00000000E+00
  0.00000000E+00  0.00000000E+00  0.00000000E+00
  0.00000000E+00  0.00000000E+00  0.00000000E+00
  0.00000000E+00  0.00000000E+00  0.00000000E+00
  0.00000000E+00  0.00000000E+00  0.00000000E+00
  0.00000000E+00  0.00000000E+00  0.00000000E+00
  0.00000000E+00  0.00000000E+00  0.00000000E+00
  0.00000000E+00  0.00000000E+00  0.00000000E+00
  0.00000000E+00  0.00000000E+00  0.00000000E+00
  0.00000000E+00  0.00000000E+00  0.00000000E+00
  0.00000000E+00  0.00000000E+00  0.00000000E+00
  0.00000000E+00  0.00000000E+00  0.00000000E+00
  0.00000000E+00  0.00000000E+00  0.00000000E+00
  0.00000000E+00  0.00000000E+00  0.00000000E+00
  0.00000000E+00  0.00000000E+00  0.00000000E+00
  0.00000000E+00  0.00000000E+00  0.00000000E+00
  0.00000000E+00  0.00000000E+00  0.00000000E+00
  0.00000000E+00  0.00000000E+00  0.00000000E+00
  0.00000000E+00  0.00000000E+00  0.00000000E+00
  0.00000000E+00  0.00000000E+00  0.00000000E+00
  0.00000000E+00  0.00000000E+00  0.00000000E+00
  0.00000000E+00  0.00000000E+00  0.00000000E+00
  0.00000000E+00  0.00000000E+00  0.00000000E+00
  0.00000000E+00  0.00000000E+00  0.00000000E+00
  0.00000000E+00  0.00000000E+00  0.00000000E+00
  0.00000000E+00  0.00000000E+00  0.00000000E+00
  0.00000000E+00  0.00000000E+00  0.00000000E+00
  0.00000000E+00  0.00000000E+00  0.00000000E+00
  0.00000000E+00  0.00000000E+00  0.00000000E+00
  0.00000000E+00  0.00000000E+00  0.00000000E+00
  0.00000000E+00  0.00000000E+00  0.00000000E+00
  0.00000000E+00  0.00000000E+00  0.00000000E+00
  0.00000000E+00  0.00000000E+00  0.00000000E+00
  0.00000000E+00  0.00000000E+00  0.00000000E+00
  0.00000000E+00  0.00000000E+00  0.00000000E+00
  0.00000000E+00  0.00000000E+00  0.00000000E+00
  0.00000000E+00  0.00000000E+00  0.00000000E+00
  0.00000000E+00  0.00000000E+00  0.00000000E+00
  0.00000000E+00  0.00000000E+00  0.00000000E+00
  0.00000000E+00  0.00000000E+00  0.00000000E+00
  0.00000000E+00  0.00000000E+00  0.00000000E+00
  0.00000000E+00  0.00000000E+00  0.00000000E+00
  0.00000000E+00  0.00000000E+00  0.00000000E+00
  0.00000000E+00  0.00000000E+00  0.00000000E+00
  0.00000000E+00  0.00000000E+00  0.00000000E+00
  0.00000000E+00  0.00000000E+00  0.00000000E+00
  0.00000000E+00  0.00000000E+00  0.00000000E+00
  0.00000000E+00  0.00000000E+00  0.00000000E+00
  0.00000000E+00  0.00000000E+00  0.00000000E+00
  0.00000000E+00  0.00000000E+00  0.00000000E+00
  0.00000000E+00  0.00000000E+00  0.00000000E+00
  0.00000000E+00  0.00000000E+00  0.00000000E+00
  0.00000000E+00  0.00000000E+00  0.00000000E+00
  0.00000000E+00  0.00000000E+00  0.00000000E+00
  0.00000000E+00  0.00000000E+00  0.00000000E+00
  0.00000000E+00  0.00000000E+00  0.00000000E+00
  0.00000000E+00  0.00000000E+00  0.00000000E+00
  0.00000000E+00  0.00000000E+00  0.00000000E+00
  0.00000000E+00  0.00000000E+00  0.00000000E+00
  0.00000000E+00  0.00000000E+00  0.00000000E+00
