CONTCAR\(2)                             
   1.00000000000000     
    14.3102998734000000    0.0000000000000000    0.0000000000000000
     0.0000000000000000   14.3102998734000000    0.0000000000000000
     0.0000000000000000    0.0000000000000000   17.4472007751000007
   Fe   S    O    H 
    32    32     1     1
Selective dynamics
Direct
  0.1254581416478686  0.1254168942021820  0.5037859721529401   F   F   F
  0.0006607940334291  0.0006143991619965  0.5028608383357707   F   F   F
  0.3756614572508497  0.1256071031967281  0.5033244613416983   F   F   F
  0.2505408726209595  0.0005929805438996  0.5035683999931351   F   F   F
  0.6257657111352586  0.1254844802464348  0.5025380140920177   F   F   F
  0.5006783677629656  0.0005978360327816  0.5027153656384584   F   F   F
  0.8756156409010245  0.1254698419360025  0.5026409030795023   F   F   F
  0.7506898797764521  0.0005926624525756  0.5022064219795155   F   F   F
  0.1251253952168980  0.3752571163149980  0.5039079050032313   F   F   F
  0.0004928823955836  0.2504138586546603  0.5036354351872490   F   F   F
  0.3756295203121383  0.3743924391053000  0.5016460940835969   F   F   F
  0.2502319705916136  0.2501388726485843  0.5038462253709994   F   F   F
  0.6261138952241723  0.3753149173271311  0.5022415992518958   F   F   F
  0.5009215813896262  0.2502457047075026  0.5027330997301718   F   F   F
  0.8756309402449602  0.3754863704840048  0.5034775996316654   F   F   F
  0.7508560690605321  0.2503726547133738  0.5026851083163635   F   F   F
  0.1252410622435889  0.6258812677688468  0.5031366394566632   F   F   F
  0.0006215704262260  0.5006412923383579  0.5035520205872075   F   F   F
  0.3755685103170663  0.6268174571384719  0.5010666497469245   F   F   F
  0.2494306552761074  0.5006155073537144  0.5018348661788039   F   F   F
  0.6261515779491873  0.6259120469511998  0.5018978235378597   F   F   F
  0.5018565833925095  0.5005546265061653  0.5009300330817084   F   F   F
  0.8756069779296212  0.6256353380060276  0.5029144268664467   F   F   F
  0.7506571631627637  0.5006037726063184  0.5024473442304540   F   F   F
  0.1255060425294090  0.8757646854201511  0.5031909061389328   F   F   F
  0.0005740641535894  0.7507691209554608  0.5028669923681690   F   F   F
  0.3756833608058869  0.8755730154628267  0.5026941465207884   F   F   F
  0.2503539541201505  0.7510424283226627  0.5028029125195985   F   F   F
  0.6258243619708352  0.8758221937331143  0.5020315635294068   F   F   F
  0.5009718188797621  0.7510641511151164  0.5020553305627828   F   F   F
  0.8756753985185810  0.8757044492243153  0.5022408359540051   F   F   F
  0.7509200272220724  0.7508243311140177  0.5019846215759429   F   F   F
  0.0009552277837628  0.1257785688246926  0.4329415970732811   F   F   F
  0.1252773962767790  0.0003571722800899  0.5737433255169861   F   F   F
  0.2503655052824811  0.1253694702608996  0.4334252596535606   F   F   F
  0.3759410105131522  0.0003338233206875  0.5732516334118642   F   F   F
  0.5004253374987400  0.1253030608500580  0.4326220424487346   F   F   F
  0.6258277244248447  0.0004606092703483  0.5726967740605673   F   F   F
  0.7507415128213353  0.1256604817500744  0.4321646409599254   F   F   F
  0.8754332758319805  0.0003842098080469  0.5726791017964388   F   F   F
  0.0004126487703289  0.3754934474430343  0.4334507014260254   F   F   F
  0.1251042390872215  0.2501168406200520  0.5742585282353687   F   F   F
  0.2486209809612916  0.3737124557966069  0.4329651954699045   F   F   F
  0.3760836908701677  0.2505553338734288  0.5733477488113934   F   F   F
  0.5019282510727834  0.3738980419492179  0.4319453879076534   F   F   F
  0.6260843402901344  0.2503610374720608  0.5728803307770463   F   F   F
  0.7514667712335452  0.3753201981770715  0.4324408814636200   F   F   F
  0.8753382625321464  0.2501145986737043  0.5734303925565740   F   F   F
  0.0003874543912303  0.6254693711564272  0.4329241114231905   F   F   F
  0.1255812641796297  0.5009006401017047  0.5736201925200746   F   F   F
  0.2488077170672582  0.6270539085396649  0.4322569234171354   F   F   F
  0.3760812171633034  0.5009110803223180  0.5638571054804871   F   F   F
  0.5019979528531167  0.6270867880404367  0.4316274854320739   F   F   F
  0.6256467279836997  0.5007508725059111  0.5723265530033146   F   F   F
  0.7513665957595634  0.6255760999402469  0.4319970030054918   F   F   F
  0.8752133020855695  0.5007780577591134  0.5733244449537693   F   F   F
  0.0009396856278983  0.8757273033382020  0.4325086751273304   F   F   F
  0.1253245872789535  0.7509680349583192  0.5734032246735765   F   F   F
  0.2503852824054889  0.8762043812491740  0.4328002269433568   F   F   F
  0.3760136926702913  0.7505735365460424  0.5726086180516958   F   F   F
  0.5005230084818706  0.8761825995079704  0.4321033121684579   F   F   F
  0.6261511755774691  0.7509876651378136  0.5722461678514250   F   F   F
  0.7508402204864950  0.8758079996101245  0.4317271451806235   F   F   F
  0.8754682317981164  0.7508979066894597  0.5727944399811946   F   F   F
  0.3798421765569771  0.5043795441002814  0.6604908518663279   T   T   T
  0.3323272249206610  0.4604609683817884  0.6783401255399152   T   T   T
 
  0.00000000E+00  0.00000000E+00  0.00000000E+00
  0.00000000E+00  0.00000000E+00  0.00000000E+00
  0.00000000E+00  0.00000000E+00  0.00000000E+00
  0.00000000E+00  0.00000000E+00  0.00000000E+00
  0.00000000E+00  0.00000000E+00  0.00000000E+00
  0.00000000E+00  0.00000000E+00  0.00000000E+00
  0.00000000E+00  0.00000000E+00  0.00000000E+00
  0.00000000E+00  0.00000000E+00  0.00000000E+00
  0.00000000E+00  0.00000000E+00  0.00000000E+00
  0.00000000E+00  0.00000000E+00  0.00000000E+00
  0.00000000E+00  0.00000000E+00  0.00000000E+00
  0.00000000E+00  0.00000000E+00  0.00000000E+00
  0.00000000E+00  0.00000000E+00  0.00000000E+00
  0.00000000E+00  0.00000000E+00  0.00000000E+00
  0.00000000E+00  0.00000000E+00  0.00000000E+00
  0.00000000E+00  0.00000000E+00  0.00000000E+00
  0.00000000E+00  0.00000000E+00  0.00000000E+00
  0.00000000E+00  0.00000000E+00  0.00000000E+00
  0.00000000E+00  0.00000000E+00  0.00000000E+00
  0.00000000E+00  0.00000000E+00  0.00000000E+00
  0.00000000E+00  0.00000000E+00  0.00000000E+00
  0.00000000E+00  0.00000000E+00  0.00000000E+00
  0.00000000E+00  0.00000000E+00  0.00000000E+00
  0.00000000E+00  0.00000000E+00  0.00000000E+00
  0.00000000E+00  0.00000000E+00  0.00000000E+00
  0.00000000E+00  0.00000000E+00  0.00000000E+00
  0.00000000E+00  0.00000000E+00  0.00000000E+00
  0.00000000E+00  0.00000000E+00  0.00000000E+00
  0.00000000E+00  0.00000000E+00  0.00000000E+00
  0.00000000E+00  0.00000000E+00  0.00000000E+00
  0.00000000E+00  0.00000000E+00  0.00000000E+00
  0.00000000E+00  0.00000000E+00  0.00000000E+00
  0.00000000E+00  0.00000000E+00  0.00000000E+00
  0.00000000E+00  0.00000000E+00  0.00000000E+00
  0.00000000E+00  0.00000000E+00  0.00000000E+00
  0.00000000E+00  0.00000000E+00  0.00000000E+00
  0.00000000E+00  0.00000000E+00  0.00000000E+00
  0.00000000E+00  0.00000000E+00  0.00000000E+00
  0.00000000E+00  0.00000000E+00  0.00000000E+00
  0.00000000E+00  0.00000000E+00  0.00000000E+00
  0.00000000E+00  0.00000000E+00  0.00000000E+00
  0.00000000E+00  0.00000000E+00  0.00000000E+00
  0.00000000E+00  0.00000000E+00  0.00000000E+00
  0.00000000E+00  0.00000000E+00  0.00000000E+00
  0.00000000E+00  0.00000000E+00  0.00000000E+00
  0.00000000E+00  0.00000000E+00  0.00000000E+00
  0.00000000E+00  0.00000000E+00  0.00000000E+00
  0.00000000E+00  0.00000000E+00  0.00000000E+00
  0.00000000E+00  0.00000000E+00  0.00000000E+00
  0.00000000E+00  0.00000000E+00  0.00000000E+00
  0.00000000E+00  0.00000000E+00  0.00000000E+00
  0.00000000E+00  0.00000000E+00  0.00000000E+00
  0.00000000E+00  0.00000000E+00  0.00000000E+00
  0.00000000E+00  0.00000000E+00  0.00000000E+00
  0.00000000E+00  0.00000000E+00  0.00000000E+00
  0.00000000E+00  0.00000000E+00  0.00000000E+00
  0.00000000E+00  0.00000000E+00  0.00000000E+00
  0.00000000E+00  0.00000000E+00  0.00000000E+00
  0.00000000E+00  0.00000000E+00  0.00000000E+00
  0.00000000E+00  0.00000000E+00  0.00000000E+00
  0.00000000E+00  0.00000000E+00  0.00000000E+00
  0.00000000E+00  0.00000000E+00  0.00000000E+00
  0.00000000E+00  0.00000000E+00  0.00000000E+00
  0.00000000E+00  0.00000000E+00  0.00000000E+00
  0.00000000E+00  0.00000000E+00  0.00000000E+00
  0.00000000E+00  0.00000000E+00  0.00000000E+00
