CONTCAR\(7)                             
   1.00000000000000     
    12.5420999526999992    0.0000000000000000    0.0000000000000000
     0.0000000000000000   15.8683996200999999    0.0000000000000000
     0.0000000000000000    0.0000000000000000   20.3181991577000005
   La   Br   O 
    12    30     1
Direct
  0.2499659410563807  0.8251353136616206  0.6694654616565133
  0.0844724111692209  0.1110002562875843  0.5137489372616939
  0.2497643179330467  0.3469074310231071  0.4613349730695167
  0.0707185365793966  0.6144629487725498  0.5202922528245556
  0.5783067779815743  0.8461632854277198  0.4705771999786610
  0.4154003721838251  0.1106430094992374  0.5138452591483679
  0.5853129938643401  0.3443523230768347  0.4612532838506841
  0.4293027905433721  0.6145945223205159  0.5200620655855154
  0.9218523338249789  0.8463162383204687  0.4707214214267711
  0.7499276886328368  0.1194285879737263  0.5126947199017068
  0.9149987571728863  0.3442370195631996  0.4613933416326187
  0.7499389348712724  0.6145756241771604  0.5203862531572488
  0.2501692655066673  0.6217565609994390  0.6204866830058690
  0.0836558728563923  0.3580654107407675  0.3604440015685116
  0.2498255176418834  0.0008694209831427  0.5842096323146040
  0.0828791515458741  0.9660985819499509  0.4213687276491154
  0.0833109799124057  0.4215875712953617  0.5536474581496856
  0.2498669843855095  0.5444216117942048  0.4333978200786906
  0.0730009331416862  0.7322436040842181  0.4069831237109379
  0.2501245938995669  0.2274965963062573  0.5812311565958589
  0.0459703692662091  0.7893175888700236  0.5857775867176523
  0.2500867469668307  0.1631537380108333  0.4119062828405805
  0.5889185605433189  0.5910421179961604  0.6239906355142494
  0.4162173021182638  0.3580026562638777  0.3605539575314372
  0.5878257107291138 -0.0020541207377699  0.5733971017249793
  0.4170597162243556  0.9659058427281237  0.4214007624378889
  0.4167504220258729  0.4215327930742571  0.5533948454414940
  0.5882854298624053  0.5366440604610737  0.4272388251885967
  0.4274100944018165  0.7321031990594000  0.4065909145821137
  0.5800116904592931  0.2252196478192122  0.5829572918255245
  0.4537089660284646  0.7895433542489423  0.5855145213093141
  0.5819248641619379  0.1626577582106040  0.4113806549470123
  0.9109138219878360  0.5909700212946719  0.6240697141642748
  0.7501383564269194  0.3537678800424947  0.3586002440328834
  0.9122293317674942 -0.0019734671719673  0.5733960775399369
  0.7500807519753228  0.9665578333624860  0.4157363217790601
  0.7500000178880359  0.4173661136012694  0.5530189444023591
  0.9118460607822296  0.5366565419291148  0.4273665160042592
  0.7501721102753900  0.7385860108498394  0.4010793502199219
  0.9196041308678697  0.2251419832762230  0.5830565386729799
  0.7499820109056725  0.7971523768752238  0.5713988829032522
  0.9177440795090785  0.1626112614483534  0.4113449748192156
  0.2500546881231484  0.8439388242304751  0.7590054758338681
 
  0.00000000E+00  0.00000000E+00  0.00000000E+00
  0.00000000E+00  0.00000000E+00  0.00000000E+00
  0.00000000E+00  0.00000000E+00  0.00000000E+00
  0.00000000E+00  0.00000000E+00  0.00000000E+00
  0.00000000E+00  0.00000000E+00  0.00000000E+00
  0.00000000E+00  0.00000000E+00  0.00000000E+00
  0.00000000E+00  0.00000000E+00  0.00000000E+00
  0.00000000E+00  0.00000000E+00  0.00000000E+00
  0.00000000E+00  0.00000000E+00  0.00000000E+00
  0.00000000E+00  0.00000000E+00  0.00000000E+00
  0.00000000E+00  0.00000000E+00  0.00000000E+00
  0.00000000E+00  0.00000000E+00  0.00000000E+00
  0.00000000E+00  0.00000000E+00  0.00000000E+00
  0.00000000E+00  0.00000000E+00  0.00000000E+00
  0.00000000E+00  0.00000000E+00  0.00000000E+00
  0.00000000E+00  0.00000000E+00  0.00000000E+00
  0.00000000E+00  0.00000000E+00  0.00000000E+00
  0.00000000E+00  0.00000000E+00  0.00000000E+00
  0.00000000E+00  0.00000000E+00  0.00000000E+00
  0.00000000E+00  0.00000000E+00  0.00000000E+00
  0.00000000E+00  0.00000000E+00  0.00000000E+00
  0.00000000E+00  0.00000000E+00  0.00000000E+00
  0.00000000E+00  0.00000000E+00  0.00000000E+00
  0.00000000E+00  0.00000000E+00  0.00000000E+00
  0.00000000E+00  0.00000000E+00  0.00000000E+00
  0.00000000E+00  0.00000000E+00  0.00000000E+00
  0.00000000E+00  0.00000000E+00  0.00000000E+00
  0.00000000E+00  0.00000000E+00  0.00000000E+00
  0.00000000E+00  0.00000000E+00  0.00000000E+00
  0.00000000E+00  0.00000000E+00  0.00000000E+00
  0.00000000E+00  0.00000000E+00  0.00000000E+00
  0.00000000E+00  0.00000000E+00  0.00000000E+00
  0.00000000E+00  0.00000000E+00  0.00000000E+00
  0.00000000E+00  0.00000000E+00  0.00000000E+00
  0.00000000E+00  0.00000000E+00  0.00000000E+00
  0.00000000E+00  0.00000000E+00  0.00000000E+00
  0.00000000E+00  0.00000000E+00  0.00000000E+00
  0.00000000E+00  0.00000000E+00  0.00000000E+00
  0.00000000E+00  0.00000000E+00  0.00000000E+00
  0.00000000E+00  0.00000000E+00  0.00000000E+00
  0.00000000E+00  0.00000000E+00  0.00000000E+00
  0.00000000E+00  0.00000000E+00  0.00000000E+00
  0.00000000E+00  0.00000000E+00  0.00000000E+00
