 Fe1 I2                                 
   1.00000000000000     
     3.9925818760067409    0.0000000000000000    0.0000000000000000
    -1.9962904391667105    3.4576527623153481    0.0000000000000000
     0.0000000000000000    0.0000000000000000   18.2400874252920033
   Fe   I 
     1     2
Direct
  0.9999999989663308  0.9999999992476702  0.5000000006240768
  0.3333337977738964  0.6666662732238606  0.4110906324008283
  0.6666662032597799  0.3333337275284691  0.5889093669750949
 
  0.00000000E+00  0.00000000E+00  0.00000000E+00
  0.00000000E+00  0.00000000E+00  0.00000000E+00
  0.00000000E+00  0.00000000E+00  0.00000000E+00
