CONTCAR\(6)                             
   1.00000000000000     
    11.6387996674000007    0.0000000000000000    0.0000000000000000
     5.8194217944000002   10.1357943405000004    0.0000000000000000
     0.0000000000000000    0.0000000000000000   18.1699008942000013
   Li   Ni   P    S    O 
     4     4     8    24     1
Direct
  0.3466429292228668  0.3204039393580231  0.5100613868409312
  0.8364298527143958  0.3313901309956222  0.5010759654643877
  0.3342268724161954  0.8302490172099439  0.4930410502796931
  0.8315278525036405  0.8359805390077213  0.5054473066137177
  0.1704366176074643  0.1572350995950202  0.5027119390855432
  0.6771096156545013  0.1645670307615887  0.4978579714425280
  0.1662874277177764  0.6630107763266224  0.5050714593963832
  0.6642448748267071  0.6687389891383617  0.4993666973729489
  0.5055333686191759  0.4956448770787247  0.5556687087324903
  0.0004120654703357  0.4972141562277343  0.4518432016127463
  0.9842742109899234  0.5061596809376709  0.5718117664794136
  0.5001254519743625  0.4967871302979248  0.4356186915838194
  0.5030707556770579  0.9910745175195501  0.5590665579495635
  0.0040186012211834  0.9972481774604702  0.4415960730577098
  0.0021366431554100  0.0011217887826689  0.5610769494495358
  0.5052353913439163  0.9949553176030648  0.4390527094414125
  0.0146148047110444  0.3293769337370094  0.6028708738173734
  0.3248653115851852  0.1471838184580179  0.5879535311083757
  0.0196525908483096  0.1610792719599345  0.4173685241873812
  0.1640249532397533  0.3217504817468324  0.4255707378490712
  0.3310340838099322  0.0097002256726313  0.4084101422677051
  0.1682469106695947  0.0105062822039059  0.5868988973184202
  0.5363604532498840  0.3125373496336010  0.5847184170717483
  0.8254600917965078  0.1651495347030121  0.5859211983326986
  0.5213504236433337  0.1563780651220341  0.4138673584336061
  0.6652092490136212  0.3241350688542539  0.4084855491542285
  0.8248152641677535  0.0146051162675604  0.4149649877557948
  0.6589565556456378  0.0095655548810356  0.5919111467629321
  0.0103185794911340  0.8319937094654648  0.5930506534605016
  0.3268070534137024  0.6546948569076250  0.5859437124836617
  0.0166136643743471  0.6589908904347368  0.4251278351341057
  0.1608623477948186  0.8200520533104623  0.4131654166517222
  0.3237330989154543  0.5034065228384108  0.4174166760685196
  0.1479079926912661  0.5459584028536781  0.6027988258366861
  0.5105895046913318  0.8150423829597102  0.5810405602266968
  0.8153404280920995  0.6726562021507831  0.5948483348425526
  0.5100573800823085  0.6590198370803648  0.4066233478486865
  0.6707464363058975  0.8168092810641525  0.4159777551632970
  0.8245653086926410  0.5143456401624960  0.4186809258089212
  0.6634367898467701  0.5177486914130967  0.5833006799626617
  0.2647378811127652  0.4071035708185136  0.6049554746498202
 
  0.00000000E+00  0.00000000E+00  0.00000000E+00
  0.00000000E+00  0.00000000E+00  0.00000000E+00
  0.00000000E+00  0.00000000E+00  0.00000000E+00
  0.00000000E+00  0.00000000E+00  0.00000000E+00
  0.00000000E+00  0.00000000E+00  0.00000000E+00
  0.00000000E+00  0.00000000E+00  0.00000000E+00
  0.00000000E+00  0.00000000E+00  0.00000000E+00
  0.00000000E+00  0.00000000E+00  0.00000000E+00
  0.00000000E+00  0.00000000E+00  0.00000000E+00
  0.00000000E+00  0.00000000E+00  0.00000000E+00
  0.00000000E+00  0.00000000E+00  0.00000000E+00
  0.00000000E+00  0.00000000E+00  0.00000000E+00
  0.00000000E+00  0.00000000E+00  0.00000000E+00
  0.00000000E+00  0.00000000E+00  0.00000000E+00
  0.00000000E+00  0.00000000E+00  0.00000000E+00
  0.00000000E+00  0.00000000E+00  0.00000000E+00
  0.00000000E+00  0.00000000E+00  0.00000000E+00
  0.00000000E+00  0.00000000E+00  0.00000000E+00
  0.00000000E+00  0.00000000E+00  0.00000000E+00
  0.00000000E+00  0.00000000E+00  0.00000000E+00
  0.00000000E+00  0.00000000E+00  0.00000000E+00
  0.00000000E+00  0.00000000E+00  0.00000000E+00
  0.00000000E+00  0.00000000E+00  0.00000000E+00
  0.00000000E+00  0.00000000E+00  0.00000000E+00
  0.00000000E+00  0.00000000E+00  0.00000000E+00
  0.00000000E+00  0.00000000E+00  0.00000000E+00
  0.00000000E+00  0.00000000E+00  0.00000000E+00
  0.00000000E+00  0.00000000E+00  0.00000000E+00
  0.00000000E+00  0.00000000E+00  0.00000000E+00
  0.00000000E+00  0.00000000E+00  0.00000000E+00
  0.00000000E+00  0.00000000E+00  0.00000000E+00
  0.00000000E+00  0.00000000E+00  0.00000000E+00
  0.00000000E+00  0.00000000E+00  0.00000000E+00
  0.00000000E+00  0.00000000E+00  0.00000000E+00
  0.00000000E+00  0.00000000E+00  0.00000000E+00
  0.00000000E+00  0.00000000E+00  0.00000000E+00
  0.00000000E+00  0.00000000E+00  0.00000000E+00
  0.00000000E+00  0.00000000E+00  0.00000000E+00
  0.00000000E+00  0.00000000E+00  0.00000000E+00
  0.00000000E+00  0.00000000E+00  0.00000000E+00
  0.00000000E+00  0.00000000E+00  0.00000000E+00
