CONTCAR\(5)                             
   1.00000000000000     
    13.0608997344999995    0.0000000000000000    0.0000000000000000
    -3.2652307411999999   18.2355734656999999    0.0000000000000000
     0.0000000000000000    0.0000000000000000   18.6539993286000012
   Ta   Pd   S    O    H 
    16     8    48     1     1
Selective dynamics
Direct
  0.0877405023140341  0.3497797873880941  0.5275061144749884   F   F   F
  0.1627353652010939  0.1508835276580598  0.4786562044551772   F   F   F
  0.3378348855867870  0.3493916287674850  0.5274164809773367   F   F   F
  0.4131063802574104  0.1510103208284050  0.4782965165842512   F   F   F
  0.5880385148775389  0.3499279251376706  0.5272448366592855   F   F   F
  0.6629780775805401  0.1512338285520443  0.4785256243762177   F   F   F
  0.8379808842276830  0.3504161721290231  0.5273797001207470   F   F   F
  0.9128347409009692  0.1511834626536483  0.4789811430355257   F   F   F
  0.0888810417446635  0.8509333212139367  0.5263241506365830   F   F   F
  0.1638475647933006  0.6499266812482958  0.4778477842621243   F   F   F
  0.3368174066820728  0.8532642385163101  0.5212656684188630   F   F   F
  0.4129692877906308  0.6457339507766591  0.4763355618198943   F   F   F
  0.5939484704035323  0.8533583868432473  0.5237286381513755   F   F   F
  0.6645061329393869  0.6502386436982448  0.4790690837193665   F   F   F
  0.8402400872042293  0.8509545248142203  0.5269534565424649   F   F   F
  0.9142910557079844  0.6506496465021527  0.4790604175444244   F   F   F
  0.0012729060266281  0.0003386779969929  0.5032760608957716   F   F   F
  0.2510911096717408  0.0008754785174077  0.5012034155665290   F   F   F
  0.5013789533217121  0.0005676630139106  0.5014399058477181   F   F   F
  0.7515347828973020  0.0011957916321208  0.5020947953799961   F   F   F
  0.0018138507550347  0.5009238011522612  0.5025767626787143   F   F   F
  0.2508462628376336  0.4988908708779292  0.5025632688328585   F   F   F
  0.5010096684698766  0.4993735957747063  0.5023859805375821   F   F   F
  0.7513039487646580  0.5010277527892626  0.5029557149734885   F   F   F
  0.1895477345502528  0.2573716384224412  0.5727480543783017   F   F   F
  0.0275612711713435  0.1084617449343810  0.5711587474076012   F   F   F
  0.2229716216037403  0.3911529186707128  0.4349588822020252   F   F   F
  0.0609486418486043  0.2431463154589082  0.4336978811271450   F   F   F
  0.2304908893863455  0.4194089548501196  0.6013284614818488   F   F   F
  0.0199439221498139  0.0808570758947837  0.4051852872930439   F   F   F
  0.4397712893344092  0.2574419761063425  0.5725402087350702   F   F   F
  0.2775817936292597  0.1080985387161419  0.5704046008472901   F   F   F
  0.4729090130703071  0.3913859557295609  0.4348037376023797   F   F   F
  0.3108967002816669  0.2431360516029812  0.4333627115375407   F   F   F
  0.4805185458409227  0.4196648909541167  0.6010841519615866   F   F   F
  0.2705072693087018  0.0819505052856400  0.4037619034281974   F   F   F
  0.6898118903856982  0.2580052113648534  0.5726181263612276   F   F   F
  0.5274580725354951  0.1081576342824491  0.5704399657463668   F   F   F
  0.7234216197916155  0.3927814772543883  0.4349899911947759   F   F   F
  0.5613023742957353  0.2434244060496980  0.4333460216533425   F   F   F
  0.7305175233625860  0.4204175658488367  0.6010221736455250   F   F   F
  0.5209203600363495  0.0817587113718119  0.4039755617922296   F   F   F
  0.9394890686412865  0.2580877771428405  0.5730156316366148   F   F   F
  0.7773280128718625  0.1086367862126778  0.5708961006004785   F   F   F
  0.9733334914050147  0.3925154576014336  0.4350488211465517   F   F   F
  0.8113034000276116  0.2435411531847151  0.4336805969374211   F   F   F
  0.9808716821294539  0.4206688473241584  0.6008480801289338   F   F   F
  0.7707852131515978  0.0820127118967804  0.4042403950099001   F   F   F
  0.1947107851335019  0.7588161902956330  0.5709621817240631   F   F   F
  0.0297955540333064  0.6090231030490187  0.5710065319506157   F   F   F
  0.2227715471400131  0.8933455304612394  0.4313154185435195   F   F   F
  0.0630579978320043  0.7426929933303654  0.4340329354647281   F   F   F
  0.2319479006954879  0.9202489450072093  0.5994030519370952   F   F   F
  0.0211108759463343  0.5813568814392198  0.4040162121424444   F   F   F
  0.4411036193576123  0.7567536302811391  0.5613326276705450   F   F   F
  0.2786377385665872  0.6077287581876121  0.5698470101487274   F   F   F
  0.4763454079785561  0.8933408731684409  0.4319851141336244   F   F   F
  0.3137376851799445  0.7411991543407481  0.4313131178955913   F   F   F
  0.4808564771011774  0.9183489604454209  0.5990393378201944   F   F   F
  0.2692842118645302  0.5782661041188319  0.4032727753497909   F   F   F
  0.6898975170069050  0.7593392944664643  0.5719758950038880   F   F   F
  0.5282344897779510  0.6076276171104809  0.5703514500416063   F   F   F
  0.7275709571235183  0.8934570540438216  0.4327016162296076   F   F   F
  0.5599699677257988  0.7422620075595816  0.4337404823488598   F   F   F
  0.7326984460730301  0.9209183395994671  0.6006165344194585   F   F   F
  0.5234933972627047  0.5791863011027658  0.4033890188604090   F   F   F
  0.9418673369071229  0.7587694099886590  0.5723305516259956   F   F   F
  0.7788400076720592  0.6090654241438713  0.5715444780111341   F   F   F
  0.9750927461264993  0.8926512317319961  0.4342852859859789   F   F   F
  0.8117897560298317  0.7427178419438789  0.4344451182266909   F   F   F
  0.9822533763086128  0.9196868234862023  0.6016011841806517   F   F   F
  0.7722122120314978  0.5815638034940633  0.4045901745437206   F   F   F
  0.4340019267739592  0.7491497417851534  0.6498558335934703   T   T   T
  0.3593848605852940  0.7382491187757907  0.6612185876925296   T   T   T
 
  0.00000000E+00  0.00000000E+00  0.00000000E+00
  0.00000000E+00  0.00000000E+00  0.00000000E+00
  0.00000000E+00  0.00000000E+00  0.00000000E+00
  0.00000000E+00  0.00000000E+00  0.00000000E+00
  0.00000000E+00  0.00000000E+00  0.00000000E+00
  0.00000000E+00  0.00000000E+00  0.00000000E+00
  0.00000000E+00  0.00000000E+00  0.00000000E+00
  0.00000000E+00  0.00000000E+00  0.00000000E+00
  0.00000000E+00  0.00000000E+00  0.00000000E+00
  0.00000000E+00  0.00000000E+00  0.00000000E+00
  0.00000000E+00  0.00000000E+00  0.00000000E+00
  0.00000000E+00  0.00000000E+00  0.00000000E+00
  0.00000000E+00  0.00000000E+00  0.00000000E+00
  0.00000000E+00  0.00000000E+00  0.00000000E+00
  0.00000000E+00  0.00000000E+00  0.00000000E+00
  0.00000000E+00  0.00000000E+00  0.00000000E+00
  0.00000000E+00  0.00000000E+00  0.00000000E+00
  0.00000000E+00  0.00000000E+00  0.00000000E+00
  0.00000000E+00  0.00000000E+00  0.00000000E+00
  0.00000000E+00  0.00000000E+00  0.00000000E+00
  0.00000000E+00  0.00000000E+00  0.00000000E+00
  0.00000000E+00  0.00000000E+00  0.00000000E+00
  0.00000000E+00  0.00000000E+00  0.00000000E+00
  0.00000000E+00  0.00000000E+00  0.00000000E+00
  0.00000000E+00  0.00000000E+00  0.00000000E+00
  0.00000000E+00  0.00000000E+00  0.00000000E+00
  0.00000000E+00  0.00000000E+00  0.00000000E+00
  0.00000000E+00  0.00000000E+00  0.00000000E+00
  0.00000000E+00  0.00000000E+00  0.00000000E+00
  0.00000000E+00  0.00000000E+00  0.00000000E+00
  0.00000000E+00  0.00000000E+00  0.00000000E+00
  0.00000000E+00  0.00000000E+00  0.00000000E+00
  0.00000000E+00  0.00000000E+00  0.00000000E+00
  0.00000000E+00  0.00000000E+00  0.00000000E+00
  0.00000000E+00  0.00000000E+00  0.00000000E+00
  0.00000000E+00  0.00000000E+00  0.00000000E+00
  0.00000000E+00  0.00000000E+00  0.00000000E+00
  0.00000000E+00  0.00000000E+00  0.00000000E+00
  0.00000000E+00  0.00000000E+00  0.00000000E+00
  0.00000000E+00  0.00000000E+00  0.00000000E+00
  0.00000000E+00  0.00000000E+00  0.00000000E+00
  0.00000000E+00  0.00000000E+00  0.00000000E+00
  0.00000000E+00  0.00000000E+00  0.00000000E+00
  0.00000000E+00  0.00000000E+00  0.00000000E+00
  0.00000000E+00  0.00000000E+00  0.00000000E+00
  0.00000000E+00  0.00000000E+00  0.00000000E+00
  0.00000000E+00  0.00000000E+00  0.00000000E+00
  0.00000000E+00  0.00000000E+00  0.00000000E+00
  0.00000000E+00  0.00000000E+00  0.00000000E+00
  0.00000000E+00  0.00000000E+00  0.00000000E+00
  0.00000000E+00  0.00000000E+00  0.00000000E+00
  0.00000000E+00  0.00000000E+00  0.00000000E+00
  0.00000000E+00  0.00000000E+00  0.00000000E+00
  0.00000000E+00  0.00000000E+00  0.00000000E+00
  0.00000000E+00  0.00000000E+00  0.00000000E+00
  0.00000000E+00  0.00000000E+00  0.00000000E+00
  0.00000000E+00  0.00000000E+00  0.00000000E+00
  0.00000000E+00  0.00000000E+00  0.00000000E+00
  0.00000000E+00  0.00000000E+00  0.00000000E+00
  0.00000000E+00  0.00000000E+00  0.00000000E+00
  0.00000000E+00  0.00000000E+00  0.00000000E+00
  0.00000000E+00  0.00000000E+00  0.00000000E+00
  0.00000000E+00  0.00000000E+00  0.00000000E+00
  0.00000000E+00  0.00000000E+00  0.00000000E+00
  0.00000000E+00  0.00000000E+00  0.00000000E+00
  0.00000000E+00  0.00000000E+00  0.00000000E+00
  0.00000000E+00  0.00000000E+00  0.00000000E+00
  0.00000000E+00  0.00000000E+00  0.00000000E+00
  0.00000000E+00  0.00000000E+00  0.00000000E+00
  0.00000000E+00  0.00000000E+00  0.00000000E+00
  0.00000000E+00  0.00000000E+00  0.00000000E+00
  0.00000000E+00  0.00000000E+00  0.00000000E+00
  0.00000000E+00  0.00000000E+00  0.00000000E+00
  0.00000000E+00  0.00000000E+00  0.00000000E+00
