 Cr2 Cu2 O8                             
   1.00000000000000     
     5.3023444155877533    0.0000000000000000    0.0000000000000000
     0.0000000000000000    5.6349678271283219    0.0000000000000000
     0.0000000000000000    0.0000000000000000   19.2775639305200031
   Cr   Cu   O 
     2     2     8
Direct
  0.5000004284691641  0.2499931771772594  0.4271301995270704
  0.4999998566155455  0.7499992642789906  0.5728690815690882
  0.0000001369697529  0.5000050891756729  0.4999993227498152
  0.0000001182679199  0.0000063494522493  0.5000023346976761
  0.2352473632754197  0.7500050652465049  0.5178901871463921
  0.7647504347061016  0.2500035889806327  0.4821095562967983
  0.2352490312947495  0.2500035480182845  0.4821091150848105
  0.7647536486417295  0.7500050706961545  0.5178907003116748
  0.4999993847752435  0.9824663570713099  0.6195651534734168
  0.5000011099260533  0.4824591154354749  0.3804310829884656
  0.4999992938233859  0.5175324048079588  0.6195652746140894
  0.5000011932349366  0.0175229696594883  0.3804379915406884
 
  0.00000000E+00  0.00000000E+00  0.00000000E+00
  0.00000000E+00  0.00000000E+00  0.00000000E+00
  0.00000000E+00  0.00000000E+00  0.00000000E+00
  0.00000000E+00  0.00000000E+00  0.00000000E+00
  0.00000000E+00  0.00000000E+00  0.00000000E+00
  0.00000000E+00  0.00000000E+00  0.00000000E+00
  0.00000000E+00  0.00000000E+00  0.00000000E+00
  0.00000000E+00  0.00000000E+00  0.00000000E+00
  0.00000000E+00  0.00000000E+00  0.00000000E+00
  0.00000000E+00  0.00000000E+00  0.00000000E+00
  0.00000000E+00  0.00000000E+00  0.00000000E+00
  0.00000000E+00  0.00000000E+00  0.00000000E+00
