 Co1 Br2                                
   1.00000000000000     
     3.6792354246284638    0.0000000000000000    0.0000000000000000
    -1.8396182044689422    3.1863122609928163    0.0000000000000000
     0.0000000000000000    0.0000000000000000   17.8580826408080000
   Co   Br
     1     2
Direct
  0.0000000005112540  0.0000000003224029  0.4999999999985701
  0.3333333714569741  0.6666666132455192  0.4187287453030077
  0.6666666280317719  0.3333333864320775  0.5812712546984214
 
  0.00000000E+00  0.00000000E+00  0.00000000E+00
  0.00000000E+00  0.00000000E+00  0.00000000E+00
  0.00000000E+00  0.00000000E+00  0.00000000E+00
