 Bi2 Te5 Pb2                            
   1.00000000000000     
     4.4808300164086212    0.0000000000000000    0.0000000000000000
    -2.2404155039460352    3.8794566324555029    0.0000000000000000
     0.0000000000000000    0.0000000000000000   30.7367510974080034
   Bi   Te   Pb
     2     5     2
Direct
  0.3333090185627989  0.6666181429957406  0.4352438326590999
  0.6666908996381572  0.3333817578745096  0.5647553425093194
  0.6666593765843054  0.3333185852568107  0.7568484046375625
  0.6666772180766379  0.3333544820093379  0.3799604827796095
  0.3333229905093995  0.6666459566057158  0.6200352766754940
  0.0000001675220531  0.0000003398408452  0.4999987639566541
  0.3333406831882477  0.6666814896222079  0.2431548309199519
  0.9999918849649900  0.9999839646276213  0.2955979975674894
  0.0000077609534103  0.0000152811672040  0.7044050682948053
 
  0.00000000E+00  0.00000000E+00  0.00000000E+00
  0.00000000E+00  0.00000000E+00  0.00000000E+00
  0.00000000E+00  0.00000000E+00  0.00000000E+00
  0.00000000E+00  0.00000000E+00  0.00000000E+00
  0.00000000E+00  0.00000000E+00  0.00000000E+00
  0.00000000E+00  0.00000000E+00  0.00000000E+00
  0.00000000E+00  0.00000000E+00  0.00000000E+00
  0.00000000E+00  0.00000000E+00  0.00000000E+00
  0.00000000E+00  0.00000000E+00  0.00000000E+00
