CONTCAR\(12)                            
   1.00000000000000     
    13.2992000580000003    0.0000000000000000    0.0000000000000000
    -6.6496130274000000   11.5161678841999997    0.0000000000000000
     0.0000000000000000    0.0000000000000000   36.9292984009000023
   Bi   Te   O    H 
    54    54     2     1
Direct
  0.1156000265059771  0.2254215960829283  0.6375639909466776
  0.2231183756581963  0.1134427570695368  0.3621887022370469
  0.3347291002531442  0.3349895210579465  0.2527094883873738
  0.3368781283472576  0.3369846440213544  0.7475543391484140
  0.2241481213934034  0.1128512073432873  0.5227448384344733
  0.1129233768458347  0.2238242852911861  0.4774361360717553
  0.4496076911553545  0.2264574462464895  0.6375205718065913
  0.5568110125416703  0.1132414464382864  0.3628481888520835
  0.6677218672515119  0.3345437411424220  0.2528742577807896
  0.6715766837654871  0.3372190897083158  0.7474047426863653
  0.5584863480349491  0.1136490540402698  0.5232140454833982
  0.4470932223745828  0.2244455095653194  0.4775842550289278
  0.7808262973173333  0.2249580041564506  0.6376032310722187
  0.8902484219777265  0.1123435857420935  0.3621845982747324
  0.0003321795521398  0.3349403033363381  0.2526502163651367
  0.0058790878800494  0.3376153258022476  0.7482206241146504
  0.8916723721278741  0.1139131165775308  0.5231387757670407
  0.7803095667680802  0.2247459158557390  0.4776451357288158
  0.1147281254778114  0.5591483306822939  0.6378610975949748
  0.2229443496383481  0.4456088410211352  0.3625521923504812
  0.3342157899401261  0.6685170205549652  0.2529535157090858
  0.3368512692401062  0.6708698882500356  0.7477950237173113
  0.2255087334977139  0.4467660715162056  0.5226306536359039
  0.1140136291518950  0.5579335579479778  0.4775831828855335
  0.4495321421153500  0.5595169206127982  0.6379731817696210
  0.5564022679276095  0.4466137164540709  0.3625646205055785
  0.6665799535334110  0.6667689497331516  0.2527027457765965
  0.6711856374928625  0.6705115632245510  0.7481832662341911
  0.5586745459397464  0.4475149031587571  0.5227016156409917
  0.4479503827801329  0.5588749315311587  0.4773270335062474
  0.7835029641553775  0.5615255060487303  0.6385387544344049
  0.8903837860490229  0.4461525784923460  0.3625047457351376
  0.0005301164444958  0.6669352421203364  0.2527795033153081
  0.0069534964599719  0.6694815636509042  0.7480199262180289
  0.8919014886548824  0.4475732964020107  0.5228741345140719
  0.7802875252163605  0.5578764827174248  0.4771510313717131
  0.1145188577065721  0.8922291478235750  0.6380397933304912
  0.2228887975160906  0.7795580452980686  0.3622706093799192
  0.3345694164838184  0.0011874594970128  0.2527560610540200
  0.3368120904418094  0.0030194436911828  0.7474108620602345
  0.2253435624463576  0.7804428085737931  0.5227069832406513
  0.1136298395549724  0.8911752154342241  0.4772371952108866
  0.4493382692601683  0.8924970843598136  0.6378358819163891
  0.5569360896811212  0.7794697222546443  0.3622238476249943
  0.6664890197665361  0.0010822456811293  0.2527661608063594
  0.6717210147815007  0.0052403860449660  0.7473493023891310
  0.5578189518285969  0.7802297004296910  0.5230226610502239
  0.4477093633771874  0.8921099764803677  0.4773481626618127
  0.7833922011473092  0.8909996750283997  0.6386324531722447
  0.8903708420750361  0.7793903816213336  0.3622418284437601
  0.0006791853368066  0.0018990129179835  0.2526589416263606
  0.0065417472359684  0.0064371227020113  0.7477224605828021
  0.8915104788538681  0.7800004257150152  0.5226696214974093
  0.7801124762858334  0.8915904536262534  0.4776264287466947
  0.1153811671016295  0.2257035484420018  0.7943743264348285
  0.2234951463540172  0.1126443578679611  0.2066167798141388
  0.0011603330238438  0.0016126305018472  0.4090878389213659
  0.0042377349942394  0.0039753688508204  0.5906516205512222
  0.2268571100337717  0.1149125513864505  0.6916894381765328
  0.1121755534303354  0.2239891119155509  0.3078159435540544
  0.4484780799449433  0.2258351249306100  0.7933162422010506
  0.5564286553760124  0.1126983783461798  0.2064332506778724
  0.3341014844205857  0.0019934352480277  0.4092073194039830
  0.3370865716373350  0.0036343341761852  0.5908886771764275
  0.5594361747427695  0.1147472116590313  0.6918763839926700
  0.4459771377112165  0.2240255594630306  0.3079118528854858
  0.7826992939866941  0.2265619400284151  0.7938117197902190
  0.8888952723037328  0.1126011541959685  0.2065601278712151
  0.6685068721769710  0.0016335117284506  0.4092104981464494
  0.6700148333108525  0.0033842253761226  0.5908321394168146
  0.8937801377394866  0.1159085403882331  0.6920671231003932
  0.7786825656947380  0.2238206576822432  0.3079435277379226
  0.1176443520880947  0.5582594558430586  0.7956897418385256
  0.2233926646789754  0.4463977396533251  0.2067185530361590
  0.0009285717919083  0.3344415532210699  0.4092754896774772
  0.0039198697979730  0.3367855870588069  0.5909279463091638
  0.2262414519312600  0.4483599516004152  0.6922288144408757
  0.1123491027590594  0.5570544378445930  0.3080391575983987
  0.4497813263845394  0.5600058569774488  0.7930913242517703
  0.5565906211557208  0.4452710958703220  0.2064049866550921
  0.3344083104242629  0.3350675531039687  0.4094005155189394
  0.3381082112103816  0.3379347226086282  0.5908056094650452
  0.5601701746763322  0.4483094681969302  0.6920844503345034
  0.4453025931994672  0.5570494219063215  0.3080449408756042
  0.7834284865221594  0.5590204277219607  0.7935252023435512
  0.8896701688114186  0.4458212495662976  0.2063938660541937
  0.6681932214874194  0.3356730094442408  0.4093771184366207
  0.6709142236326597  0.3374558574741950  0.5907860571859233
  0.8935039739541176  0.4477165150394452  0.6921016268767830
  0.7786893088047968  0.5567826694487416  0.3079424760899340
  0.1155218817054589  0.8923230600011146  0.7934465424344195
  0.2231090504392186  0.7791309873518123  0.2066182486513236
  0.0014160592516227  0.6686719268515591  0.4092542900005776
  0.0041460113629077  0.6700520627478777  0.5907631596352189
  0.2260826091111018  0.7817283877968004  0.6916838644712667
  0.1120180279186130  0.8907501862382956  0.3077762600695527
  0.4488987165513270  0.8934487709668979  0.7934588829422458
  0.5559243603274792  0.7787644792520130  0.2066856068165508
  0.3343618146787936  0.6683837635872358  0.4091691685334679
  0.3373334080946011  0.6697361338140994  0.5909938008720347
  0.5601070145541829  0.7823158440978558  0.6920227850590389
  0.4457411150180833  0.8911164704169299  0.3081631781884401
  0.7831795609334230  0.8942974313752713  0.7934573667223871
  0.8896809588286703  0.7790959838404088  0.2067769961337893
  0.6685057272135657  0.6691377537946548  0.4091967428506773
  0.6707263503487649  0.6700712150899694  0.5908499185606265
  0.8916864983151312  0.7814475047326340  0.6904624298962435
  0.7789836180655720  0.8903679245203239  0.3078037178954625
  0.1764609929442064  0.4365959458308700  0.8266154364943908
  0.2414530810426810  0.4850524568578785  0.8596946899343824
  0.1792621997554928  0.4559281712925528  0.8778227661005783
 
  0.00000000E+00  0.00000000E+00  0.00000000E+00
  0.00000000E+00  0.00000000E+00  0.00000000E+00
  0.00000000E+00  0.00000000E+00  0.00000000E+00
  0.00000000E+00  0.00000000E+00  0.00000000E+00
  0.00000000E+00  0.00000000E+00  0.00000000E+00
  0.00000000E+00  0.00000000E+00  0.00000000E+00
  0.00000000E+00  0.00000000E+00  0.00000000E+00
  0.00000000E+00  0.00000000E+00  0.00000000E+00
  0.00000000E+00  0.00000000E+00  0.00000000E+00
  0.00000000E+00  0.00000000E+00  0.00000000E+00
  0.00000000E+00  0.00000000E+00  0.00000000E+00
  0.00000000E+00  0.00000000E+00  0.00000000E+00
  0.00000000E+00  0.00000000E+00  0.00000000E+00
  0.00000000E+00  0.00000000E+00  0.00000000E+00
  0.00000000E+00  0.00000000E+00  0.00000000E+00
  0.00000000E+00  0.00000000E+00  0.00000000E+00
  0.00000000E+00  0.00000000E+00  0.00000000E+00
  0.00000000E+00  0.00000000E+00  0.00000000E+00
  0.00000000E+00  0.00000000E+00  0.00000000E+00
  0.00000000E+00  0.00000000E+00  0.00000000E+00
  0.00000000E+00  0.00000000E+00  0.00000000E+00
  0.00000000E+00  0.00000000E+00  0.00000000E+00
  0.00000000E+00  0.00000000E+00  0.00000000E+00
  0.00000000E+00  0.00000000E+00  0.00000000E+00
  0.00000000E+00  0.00000000E+00  0.00000000E+00
  0.00000000E+00  0.00000000E+00  0.00000000E+00
  0.00000000E+00  0.00000000E+00  0.00000000E+00
  0.00000000E+00  0.00000000E+00  0.00000000E+00
  0.00000000E+00  0.00000000E+00  0.00000000E+00
  0.00000000E+00  0.00000000E+00  0.00000000E+00
  0.00000000E+00  0.00000000E+00  0.00000000E+00
  0.00000000E+00  0.00000000E+00  0.00000000E+00
  0.00000000E+00  0.00000000E+00  0.00000000E+00
  0.00000000E+00  0.00000000E+00  0.00000000E+00
  0.00000000E+00  0.00000000E+00  0.00000000E+00
  0.00000000E+00  0.00000000E+00  0.00000000E+00
  0.00000000E+00  0.00000000E+00  0.00000000E+00
  0.00000000E+00  0.00000000E+00  0.00000000E+00
  0.00000000E+00  0.00000000E+00  0.00000000E+00
  0.00000000E+00  0.00000000E+00  0.00000000E+00
  0.00000000E+00  0.00000000E+00  0.00000000E+00
  0.00000000E+00  0.00000000E+00  0.00000000E+00
  0.00000000E+00  0.00000000E+00  0.00000000E+00
  0.00000000E+00  0.00000000E+00  0.00000000E+00
  0.00000000E+00  0.00000000E+00  0.00000000E+00
  0.00000000E+00  0.00000000E+00  0.00000000E+00
  0.00000000E+00  0.00000000E+00  0.00000000E+00
  0.00000000E+00  0.00000000E+00  0.00000000E+00
  0.00000000E+00  0.00000000E+00  0.00000000E+00
  0.00000000E+00  0.00000000E+00  0.00000000E+00
  0.00000000E+00  0.00000000E+00  0.00000000E+00
  0.00000000E+00  0.00000000E+00  0.00000000E+00
  0.00000000E+00  0.00000000E+00  0.00000000E+00
  0.00000000E+00  0.00000000E+00  0.00000000E+00
  0.00000000E+00  0.00000000E+00  0.00000000E+00
  0.00000000E+00  0.00000000E+00  0.00000000E+00
  0.00000000E+00  0.00000000E+00  0.00000000E+00
  0.00000000E+00  0.00000000E+00  0.00000000E+00
  0.00000000E+00  0.00000000E+00  0.00000000E+00
  0.00000000E+00  0.00000000E+00  0.00000000E+00
  0.00000000E+00  0.00000000E+00  0.00000000E+00
  0.00000000E+00  0.00000000E+00  0.00000000E+00
  0.00000000E+00  0.00000000E+00  0.00000000E+00
  0.00000000E+00  0.00000000E+00  0.00000000E+00
  0.00000000E+00  0.00000000E+00  0.00000000E+00
  0.00000000E+00  0.00000000E+00  0.00000000E+00
  0.00000000E+00  0.00000000E+00  0.00000000E+00
  0.00000000E+00  0.00000000E+00  0.00000000E+00
  0.00000000E+00  0.00000000E+00  0.00000000E+00
  0.00000000E+00  0.00000000E+00  0.00000000E+00
  0.00000000E+00  0.00000000E+00  0.00000000E+00
  0.00000000E+00  0.00000000E+00  0.00000000E+00
  0.00000000E+00  0.00000000E+00  0.00000000E+00
  0.00000000E+00  0.00000000E+00  0.00000000E+00
  0.00000000E+00  0.00000000E+00  0.00000000E+00
  0.00000000E+00  0.00000000E+00  0.00000000E+00
  0.00000000E+00  0.00000000E+00  0.00000000E+00
  0.00000000E+00  0.00000000E+00  0.00000000E+00
  0.00000000E+00  0.00000000E+00  0.00000000E+00
  0.00000000E+00  0.00000000E+00  0.00000000E+00
  0.00000000E+00  0.00000000E+00  0.00000000E+00
  0.00000000E+00  0.00000000E+00  0.00000000E+00
  0.00000000E+00  0.00000000E+00  0.00000000E+00
  0.00000000E+00  0.00000000E+00  0.00000000E+00
  0.00000000E+00  0.00000000E+00  0.00000000E+00
  0.00000000E+00  0.00000000E+00  0.00000000E+00
  0.00000000E+00  0.00000000E+00  0.00000000E+00
  0.00000000E+00  0.00000000E+00  0.00000000E+00
  0.00000000E+00  0.00000000E+00  0.00000000E+00
  0.00000000E+00  0.00000000E+00  0.00000000E+00
  0.00000000E+00  0.00000000E+00  0.00000000E+00
  0.00000000E+00  0.00000000E+00  0.00000000E+00
  0.00000000E+00  0.00000000E+00  0.00000000E+00
  0.00000000E+00  0.00000000E+00  0.00000000E+00
  0.00000000E+00  0.00000000E+00  0.00000000E+00
  0.00000000E+00  0.00000000E+00  0.00000000E+00
  0.00000000E+00  0.00000000E+00  0.00000000E+00
  0.00000000E+00  0.00000000E+00  0.00000000E+00
  0.00000000E+00  0.00000000E+00  0.00000000E+00
  0.00000000E+00  0.00000000E+00  0.00000000E+00
  0.00000000E+00  0.00000000E+00  0.00000000E+00
  0.00000000E+00  0.00000000E+00  0.00000000E+00
  0.00000000E+00  0.00000000E+00  0.00000000E+00
  0.00000000E+00  0.00000000E+00  0.00000000E+00
  0.00000000E+00  0.00000000E+00  0.00000000E+00
  0.00000000E+00  0.00000000E+00  0.00000000E+00
  0.00000000E+00  0.00000000E+00  0.00000000E+00
  0.00000000E+00  0.00000000E+00  0.00000000E+00
  0.00000000E+00  0.00000000E+00  0.00000000E+00
  0.00000000E+00  0.00000000E+00  0.00000000E+00
  0.00000000E+00  0.00000000E+00  0.00000000E+00
