CONTCAR\(11)                            
   1.00000000000000     
    14.0314998627000005    0.0000000000000000    0.0000000000000000
     0.0000000000000000   12.8740997313999994    0.0000000000000000
     0.0000000000000000    0.0000000000000000   20.5195999146000005
   Ta   Ni   Te
    16    32    32
Direct
 -0.0000000000000000  0.2033238785447552  0.4787973799150493
 -0.0000000000000000  0.4533238595447571  0.5212026200849508
  0.2500000000000000  0.2033238785447552  0.4787973799150493
  0.2500000000000000  0.4533238595447571  0.5212026200849508
  0.5000000000000000  0.2033238785447552  0.4787973799150493
  0.5000000000000000  0.4533238595447571  0.5212026200849508
  0.7499999659999972  0.2033238785447552  0.4787973799150493
  0.7499999659999972  0.4533238595447571  0.5212026200849508
 -0.0000000000000000  0.7033238965447568  0.4787973799150493
 -0.0000000000000000  0.9533238965447568  0.5212026200849508
  0.2500000000000000  0.7033238965447568  0.4787973799150493
  0.2500000000000000  0.9533238965447568  0.5212026200849508
  0.5000000000000000  0.7033238965447568  0.4787973799150493
  0.5000000000000000  0.9533238965447568  0.5212026200849508
  0.7499999659999972  0.7033238965447568  0.4787973799150493
  0.7499999659999972  0.9533238965447568  0.5212026200849508
  0.1250000000000000  0.1055808766683121  0.5558784295803327
  0.1250000000000000  0.3555708576683109  0.4441315634196663
  0.1250000000000000  0.3011425736596551  0.5558882600313476
  0.1250000000000000  0.0511425736596551  0.4441217319686547
  0.3749999830000021  0.1055808766683121  0.5558784295803327
  0.3749999830000021  0.3555708576683109  0.4441315634196663
  0.3749999830000021  0.3011425736596551  0.5558882600313476
  0.3749999830000021  0.0511425736596551  0.4441217319686547
  0.6250000169999979  0.1055808766683121  0.5558784295803327
  0.6250000169999979  0.3555708576683109  0.4441315634196663
  0.6250000169999979  0.3011425736596551  0.5558882600313476
  0.6250000169999979  0.0511425736596551  0.4441217319686547
  0.8749999830000021  0.1055808766683121  0.5558784295803327
  0.8749999830000021  0.3555708576683109  0.4441315634196663
  0.8749999830000021  0.3011425736596551  0.5558882600313476
  0.8749999830000021  0.0511425736596551  0.4441217319686547
  0.1250000000000000  0.6055808956683100  0.5558784295803327
  0.1250000000000000  0.8555709316683098  0.4441315634196663
  0.1250000000000000  0.8011425736596551  0.5558882600313476
  0.1250000000000000  0.5511426106596546  0.4441217319686547
  0.3749999830000021  0.6055808956683100  0.5558784295803327
  0.3749999830000021  0.8555709316683098  0.4441315634196663
  0.3749999830000021  0.8011425736596551  0.5558882600313476
  0.3749999830000021  0.5511426106596546  0.4441217319686547
  0.6250000169999979  0.6055808956683100  0.5558784295803327
  0.6250000169999979  0.8555709316683098  0.4441315634196663
  0.6250000169999979  0.8011425736596551  0.5558882600313476
  0.6250000169999979  0.5511426106596546  0.4441217319686547
  0.8749999830000021  0.6055808956683100  0.5558784295803327
  0.8749999830000021  0.8555709316683098  0.4441315634196663
  0.8749999830000021  0.8011425736596551  0.5558882600313476
  0.8749999830000021  0.5511426106596546  0.4441217319686547
  0.1250000000000000  0.4533278604179241  0.6335673669153534
  0.1250000000000000  0.2033178604179280  0.3664226170846420
  0.0000000000000000  0.4532647947093617  0.3769457671489158
 -0.0000000000000000  0.2032747957093614  0.6230442178510833
  0.3749999830000021  0.4533278604179241  0.6335673669153534
  0.3749999830000021  0.2033178604179280  0.3664226170846420
  0.2500000000000000  0.4532647947093617  0.3769457671489158
  0.2500000000000000  0.2032747957093614  0.6230442178510833
  0.6250000169999979  0.4533278604179241  0.6335673669153534
  0.6250000169999979  0.2033178604179280  0.3664226170846420
  0.5000000000000000  0.4532647947093617  0.3769457671489158
  0.5000000000000000  0.2032747957093614  0.6230442178510833
  0.8749999830000021  0.4533278604179241  0.6335673669153534
  0.8749999830000021  0.2033178604179280  0.3664226170846420
  0.7499999659999972  0.4532647947093617  0.3769457671489158
  0.7499999659999972  0.2032747957093614  0.6230442178510833
  0.1250000000000000  0.9533278974179237  0.6335673669153534
  0.1250000000000000  0.7033178974179276  0.3664226170846420
  0.0000000000000000  0.9532648317093613  0.3769457671489158
  0.0000000000000000  0.7032748327093610  0.6230442178510833
  0.3749999830000021  0.9533278974179237  0.6335673669153534
  0.3749999830000021  0.7033178974179276  0.3664226170846420
  0.2500000000000000  0.9532648317093613  0.3769457671489158
  0.2500000000000000  0.7032748327093610  0.6230442178510833
  0.6250000169999979  0.9533278974179237  0.6335673669153534
  0.6250000169999979  0.7033178974179276  0.3664226170846420
  0.5000000000000000  0.9532648317093613  0.3769457671489158
  0.5000000000000000  0.7032748327093610  0.6230442178510833
  0.8749999830000021  0.9533278974179237  0.6335673669153534
  0.8749999830000021  0.7033178974179276  0.3664226170846420
  0.7499999659999972  0.9532648317093613  0.3769457671489158
  0.7499999659999972  0.7032748327093610  0.6230442178510833
 
  0.00000000E+00  0.00000000E+00  0.00000000E+00
  0.00000000E+00  0.00000000E+00  0.00000000E+00
  0.00000000E+00  0.00000000E+00  0.00000000E+00
  0.00000000E+00  0.00000000E+00  0.00000000E+00
  0.00000000E+00  0.00000000E+00  0.00000000E+00
  0.00000000E+00  0.00000000E+00  0.00000000E+00
  0.00000000E+00  0.00000000E+00  0.00000000E+00
  0.00000000E+00  0.00000000E+00  0.00000000E+00
  0.00000000E+00  0.00000000E+00  0.00000000E+00
  0.00000000E+00  0.00000000E+00  0.00000000E+00
  0.00000000E+00  0.00000000E+00  0.00000000E+00
  0.00000000E+00  0.00000000E+00  0.00000000E+00
  0.00000000E+00  0.00000000E+00  0.00000000E+00
  0.00000000E+00  0.00000000E+00  0.00000000E+00
  0.00000000E+00  0.00000000E+00  0.00000000E+00
  0.00000000E+00  0.00000000E+00  0.00000000E+00
  0.00000000E+00  0.00000000E+00  0.00000000E+00
  0.00000000E+00  0.00000000E+00  0.00000000E+00
  0.00000000E+00  0.00000000E+00  0.00000000E+00
  0.00000000E+00  0.00000000E+00  0.00000000E+00
  0.00000000E+00  0.00000000E+00  0.00000000E+00
  0.00000000E+00  0.00000000E+00  0.00000000E+00
  0.00000000E+00  0.00000000E+00  0.00000000E+00
  0.00000000E+00  0.00000000E+00  0.00000000E+00
  0.00000000E+00  0.00000000E+00  0.00000000E+00
  0.00000000E+00  0.00000000E+00  0.00000000E+00
  0.00000000E+00  0.00000000E+00  0.00000000E+00
  0.00000000E+00  0.00000000E+00  0.00000000E+00
  0.00000000E+00  0.00000000E+00  0.00000000E+00
  0.00000000E+00  0.00000000E+00  0.00000000E+00
  0.00000000E+00  0.00000000E+00  0.00000000E+00
  0.00000000E+00  0.00000000E+00  0.00000000E+00
  0.00000000E+00  0.00000000E+00  0.00000000E+00
  0.00000000E+00  0.00000000E+00  0.00000000E+00
  0.00000000E+00  0.00000000E+00  0.00000000E+00
  0.00000000E+00  0.00000000E+00  0.00000000E+00
  0.00000000E+00  0.00000000E+00  0.00000000E+00
  0.00000000E+00  0.00000000E+00  0.00000000E+00
  0.00000000E+00  0.00000000E+00  0.00000000E+00
  0.00000000E+00  0.00000000E+00  0.00000000E+00
  0.00000000E+00  0.00000000E+00  0.00000000E+00
  0.00000000E+00  0.00000000E+00  0.00000000E+00
  0.00000000E+00  0.00000000E+00  0.00000000E+00
  0.00000000E+00  0.00000000E+00  0.00000000E+00
  0.00000000E+00  0.00000000E+00  0.00000000E+00
  0.00000000E+00  0.00000000E+00  0.00000000E+00
  0.00000000E+00  0.00000000E+00  0.00000000E+00
  0.00000000E+00  0.00000000E+00  0.00000000E+00
  0.00000000E+00  0.00000000E+00  0.00000000E+00
  0.00000000E+00  0.00000000E+00  0.00000000E+00
  0.00000000E+00  0.00000000E+00  0.00000000E+00
  0.00000000E+00  0.00000000E+00  0.00000000E+00
  0.00000000E+00  0.00000000E+00  0.00000000E+00
  0.00000000E+00  0.00000000E+00  0.00000000E+00
  0.00000000E+00  0.00000000E+00  0.00000000E+00
  0.00000000E+00  0.00000000E+00  0.00000000E+00
  0.00000000E+00  0.00000000E+00  0.00000000E+00
  0.00000000E+00  0.00000000E+00  0.00000000E+00
  0.00000000E+00  0.00000000E+00  0.00000000E+00
  0.00000000E+00  0.00000000E+00  0.00000000E+00
  0.00000000E+00  0.00000000E+00  0.00000000E+00
  0.00000000E+00  0.00000000E+00  0.00000000E+00
  0.00000000E+00  0.00000000E+00  0.00000000E+00
  0.00000000E+00  0.00000000E+00  0.00000000E+00
  0.00000000E+00  0.00000000E+00  0.00000000E+00
  0.00000000E+00  0.00000000E+00  0.00000000E+00
  0.00000000E+00  0.00000000E+00  0.00000000E+00
  0.00000000E+00  0.00000000E+00  0.00000000E+00
  0.00000000E+00  0.00000000E+00  0.00000000E+00
  0.00000000E+00  0.00000000E+00  0.00000000E+00
  0.00000000E+00  0.00000000E+00  0.00000000E+00
  0.00000000E+00  0.00000000E+00  0.00000000E+00
  0.00000000E+00  0.00000000E+00  0.00000000E+00
  0.00000000E+00  0.00000000E+00  0.00000000E+00
  0.00000000E+00  0.00000000E+00  0.00000000E+00
  0.00000000E+00  0.00000000E+00  0.00000000E+00
  0.00000000E+00  0.00000000E+00  0.00000000E+00
  0.00000000E+00  0.00000000E+00  0.00000000E+00
  0.00000000E+00  0.00000000E+00  0.00000000E+00
  0.00000000E+00  0.00000000E+00  0.00000000E+00
