 Cu2 Br2 O4                             
   1.00000000000000     
     3.6263340996858617    0.0000000000000000    0.0000000000000000
     0.0000000000000000    7.0383055742909244    0.0000000000000000
     0.0000000000000000    0.0000000000000000   17.9612698431680009
   Cu   Br   O 
     2     2     4
Direct
  0.4999915592016529  0.7329903820152990  0.5000003270189536
  0.0000042737065616  0.2670088893160472  0.5000004457638800
  0.7500069992098800  0.5000030274694509  0.5855223370648094
  0.2499979993794269  0.4999981212667774  0.4144749687642925
  0.2137189961960360  0.9086164240058101  0.4431753089532032
  0.2862820010374928  0.0913819492277319  0.4431760356038355
  0.7862790651025207  0.9086184024063059  0.5568250984103990
  0.7137191061664289  0.0913828042925788  0.5568254784206286
 
  0.00000000E+00  0.00000000E+00  0.00000000E+00
  0.00000000E+00  0.00000000E+00  0.00000000E+00
  0.00000000E+00  0.00000000E+00  0.00000000E+00
  0.00000000E+00  0.00000000E+00  0.00000000E+00
  0.00000000E+00  0.00000000E+00  0.00000000E+00
  0.00000000E+00  0.00000000E+00  0.00000000E+00
  0.00000000E+00  0.00000000E+00  0.00000000E+00
  0.00000000E+00  0.00000000E+00  0.00000000E+00
