 Sr4 Mn2 Cl2 O6                         
   1.00000000000000     
     3.8261063823297565    0.0000000000000000    0.0000000000000000
     0.0000000000000000    3.8261063696651800    0.0000000000000000
     0.0000000000000000    0.0000000000000000   27.5627029195860018
   Sr   Mn   Cl   O 
     4     2     2     6
Direct
  0.5000000008934088 -0.0000000001147768  0.4506118166832095
 -0.0000000010072985  0.4999999998085522  0.5493884573892479
  0.5000000034658441 -0.0000000006724335  0.3164721524351871
 -0.0000000037936859  0.5000000009161105  0.6835224283858209
 -0.0000000004117897  0.4999999999374571  0.3882480972642782
  0.5000000023516995 -0.0000000007241215  0.6117606338875918
 -0.0000000011248588  0.5000000012341559  0.2692837841170967
  0.4999999979829459  0.0000000013501254  0.7307211903478056
  0.5000000002766161  0.4999999987683127  0.3772338133742226
  0.0000000050082549 -0.0000000001982954  0.3772338131534353
  0.0000000002199334  0.0000000009609479  0.6227684690523683
  0.4999999960819568  0.4999999997975997  0.6227684693956470
  0.0000000043531057  0.4999999980864299  0.4601568339058731
  0.4999999957038680  0.0000000008499365  0.5398300406082156
 
  0.00000000E+00  0.00000000E+00  0.00000000E+00
  0.00000000E+00  0.00000000E+00  0.00000000E+00
  0.00000000E+00  0.00000000E+00  0.00000000E+00
  0.00000000E+00  0.00000000E+00  0.00000000E+00
  0.00000000E+00  0.00000000E+00  0.00000000E+00
  0.00000000E+00  0.00000000E+00  0.00000000E+00
  0.00000000E+00  0.00000000E+00  0.00000000E+00
  0.00000000E+00  0.00000000E+00  0.00000000E+00
  0.00000000E+00  0.00000000E+00  0.00000000E+00
  0.00000000E+00  0.00000000E+00  0.00000000E+00
  0.00000000E+00  0.00000000E+00  0.00000000E+00
  0.00000000E+00  0.00000000E+00  0.00000000E+00
  0.00000000E+00  0.00000000E+00  0.00000000E+00
  0.00000000E+00  0.00000000E+00  0.00000000E+00
