CONTCAR\(4)                             
   1.00000000000000     
    13.4069995879999997    0.0000000000000000    0.0000000000000000
     0.0000000000000000   14.7997999190999998    0.0000000000000000
     0.0000000000000000    0.0000000000000000   22.4342994689999990
   Ta   S    O 
    24    72     1
Direct
  0.1887828903090707  0.0872791076360286  0.4403443807003953
  0.0598829395674656  0.9145211303391747  0.5594632801356170
  0.1866202402408206  0.7542664659707370  0.4238128006864841
  0.0697615563254956  0.2451621784061544  0.5704553051394257
  0.1887401307385446  0.5061844683854275  0.5802650106561202
  0.0616680442774324  0.4945277946731537  0.4172673021460724
  0.4362197954245488  0.0872796496037012  0.4403445518576135
  0.3125018020597139  0.9111717659905452  0.5566975078246870
  0.4383830371478652  0.7542663607390594  0.4238125391877219
  0.3125022477687835  0.2419475487654807  0.6593408564553371
  0.4362643390294210  0.5061854178638683  0.5802635856319966
  0.3125020634786679  0.4956966061699006  0.4180402517214077
  0.6873537369129252  0.0866921590863612  0.4379770294209280
  0.5651217449301527  0.9145215574623933  0.5594645705962975
  0.6878928449475410  0.7547364778049968  0.4248359172636995
  0.5552396317894690  0.2451622485876825  0.5704553768648779
  0.6875443899457423  0.5039058328878596  0.5806619407917921
  0.5633357315688912  0.4945278510228164  0.4172672304393430
  0.9376489999008797  0.0866917586316589  0.4379767576242699
  0.8125005978923170  0.9176217800545317  0.5609671906858651
  0.9371092291063832  0.7547368288847593  0.4248358823237766
  0.8125024071778171  0.2451379344701436  0.5701233171803253
  0.9374587340884659  0.5039059180105596  0.5806618130316465
  0.8125015833669522  0.4949672099933693  0.4170051646727657
  0.1863971863066993  0.9193980262371966  0.4754515093367715
  0.0629503560374616  0.0794369804758119  0.5215393278069271
  0.1875491974141639  0.9721869431990129  0.6319874965571586
  0.0636623994395649  0.0213014886837257  0.3670031807253906
  0.1871688033528685  0.8289093579837967  0.6201910881341988
  0.0637143420058450  0.1676428070667626  0.3755882683950205
  0.1691056137042821  0.1489079885172657  0.6394185103117209
  0.0614076333212950  0.8429830903235924  0.3676428101202873
  0.1795824294327204  0.3507929631604441  0.6296181880229597
  0.0614471604077096  0.6541070142623298  0.3715978061579790
  0.1877498062066323  0.2438297906816302  0.4893017369883310
  0.0616321594608422  0.7566765275439025  0.5086457547663485
  0.1878871298214193  0.4779798416295264  0.3349467161731567
  0.0622819536774415  0.5225537776141849  0.6637485413618336
  0.1866873233969955  0.5841429213619378  0.4758512832860902
  0.0632679517670738  0.4185736798873521  0.5210824017565656
  0.1871112751631685  0.3707329960179351  0.3986770175348724
  0.0611290211055930  0.6285186014532087  0.6022948160596826
  0.4386062263049340  0.9193982942698113  0.4754514754798862
  0.3125009024115926  0.0758386741819024  0.5235965112443068
  0.4374541898178208  0.9721868684345836  0.6319882741903413
  0.3125018243779323  0.0224218468662585  0.3672557084879884
  0.4378357268706026  0.8289086437793998  0.6201914308753516
  0.3125013370634449  0.1690214057841146  0.3767732712505136
  0.4558979213019683  0.1489090806534321  0.6394201090562461
  0.3125012035055690  0.8434553162816343  0.3679489874051214
  0.4454193936989554  0.3507932795492152  0.6296179326694826
  0.3125013443024827  0.6546688775636653  0.3713906724028959
  0.4372517330984635  0.2438300362028087  0.4893019468218611
  0.3125018719106336  0.7547182450621790  0.5076597696852048
  0.4371179435759558  0.4779791822120032  0.3349459426679005
  0.3125049229380679  0.5241600465445160  0.6639514840318341
  0.4383163412902178  0.5841435449395789  0.4758509743410713
  0.3125010954436007  0.4220687729088368  0.5203854823809166
  0.4378919415753089  0.3707333309314649  0.3986758891295707
  0.3125020714299751  0.6301473060100875  0.6021459812508709
  0.6883140654846756  0.9218922333665418  0.4758645629772786
  0.5620517796420330  0.0794373429052300  0.5215397418295993
  0.6875644043403852  0.9938268773151435  0.6282993871349589
  0.5613402564857992  0.0213023496921281  0.3670032420138654
  0.6880955331175684  0.8332551668016777  0.6211536686727896
  0.5612887669613400  0.1676422917134843  0.3755882269142816
  0.6889796703615616  0.1562803392532288  0.6283090068464787
  0.5635947604438272  0.8429824021275607  0.3676428479378018
  0.6870019493207877  0.3417658681416640  0.6243322875572446
  0.5635555061682638  0.6541058914569575  0.3715977802148913
  0.6864303876456148  0.2442761682356007  0.4877928229153170
  0.5633705686782591  0.7566776337680139  0.5086454990181082
  0.6875348426328713  0.4789846693845945  0.3335386046187097
  0.5627220821493282  0.5225537996375493  0.6637483778379334
  0.6878458512465784  0.5820359414764482  0.4768448556269149
  0.5617355295663984  0.4185726007547075  0.5210820551102557
  0.6877388868169660  0.3716165368720823  0.3945264565248650
  0.5638746948501137  0.6285180075007659  0.6022943021497937
  0.9366892164071743  0.9218917260666899  0.4758646040341930
  0.8125018949104756  0.0807724566766908  0.5203297407580152
  0.9374393910449257  0.9938223824108192  0.6282996299633155
  0.8125012122430419  0.0196256137753252  0.3664261827940152
  0.9369091062213357  0.8332565078493488  0.6211557466724287
  0.8125012331323660  0.1679560449768047  0.3746899661681695
  0.9360228761389990  0.1562811434500873  0.6283091969959074
  0.8125014932891474  0.8437384851155940  0.3677081711829189
  0.9380010462701804  0.3417668221367123  0.6243325901531449
  0.8125029555720005  0.6549065813812405  0.3718167310360414
  0.9385711613110459  0.2442765610025290  0.4877917029034649
  0.8125013384187341  0.7575366515856885  0.5093368049575133
  0.9374685065446045  0.4789848841732933  0.3335389126523793
  0.8125014015318470  0.5187617691257245  0.6639830365925903
  0.9371570968699814  0.5820361564923076  0.4768449600196973
  0.8125017142976034  0.4176536496341541  0.5205826086962873
  0.9372644488433011  0.3716169331789416  0.3945275403460755
  0.8125012753014786  0.6266610787219022  0.6036685876856112
  0.3125047568046782  0.2495858351272489  0.7364215405820218
 
  0.00000000E+00  0.00000000E+00  0.00000000E+00
  0.00000000E+00  0.00000000E+00  0.00000000E+00
  0.00000000E+00  0.00000000E+00  0.00000000E+00
  0.00000000E+00  0.00000000E+00  0.00000000E+00
  0.00000000E+00  0.00000000E+00  0.00000000E+00
  0.00000000E+00  0.00000000E+00  0.00000000E+00
  0.00000000E+00  0.00000000E+00  0.00000000E+00
  0.00000000E+00  0.00000000E+00  0.00000000E+00
  0.00000000E+00  0.00000000E+00  0.00000000E+00
  0.00000000E+00  0.00000000E+00  0.00000000E+00
  0.00000000E+00  0.00000000E+00  0.00000000E+00
  0.00000000E+00  0.00000000E+00  0.00000000E+00
  0.00000000E+00  0.00000000E+00  0.00000000E+00
  0.00000000E+00  0.00000000E+00  0.00000000E+00
  0.00000000E+00  0.00000000E+00  0.00000000E+00
  0.00000000E+00  0.00000000E+00  0.00000000E+00
  0.00000000E+00  0.00000000E+00  0.00000000E+00
  0.00000000E+00  0.00000000E+00  0.00000000E+00
  0.00000000E+00  0.00000000E+00  0.00000000E+00
  0.00000000E+00  0.00000000E+00  0.00000000E+00
  0.00000000E+00  0.00000000E+00  0.00000000E+00
  0.00000000E+00  0.00000000E+00  0.00000000E+00
  0.00000000E+00  0.00000000E+00  0.00000000E+00
  0.00000000E+00  0.00000000E+00  0.00000000E+00
  0.00000000E+00  0.00000000E+00  0.00000000E+00
  0.00000000E+00  0.00000000E+00  0.00000000E+00
  0.00000000E+00  0.00000000E+00  0.00000000E+00
  0.00000000E+00  0.00000000E+00  0.00000000E+00
  0.00000000E+00  0.00000000E+00  0.00000000E+00
  0.00000000E+00  0.00000000E+00  0.00000000E+00
  0.00000000E+00  0.00000000E+00  0.00000000E+00
  0.00000000E+00  0.00000000E+00  0.00000000E+00
  0.00000000E+00  0.00000000E+00  0.00000000E+00
  0.00000000E+00  0.00000000E+00  0.00000000E+00
  0.00000000E+00  0.00000000E+00  0.00000000E+00
  0.00000000E+00  0.00000000E+00  0.00000000E+00
  0.00000000E+00  0.00000000E+00  0.00000000E+00
  0.00000000E+00  0.00000000E+00  0.00000000E+00
  0.00000000E+00  0.00000000E+00  0.00000000E+00
  0.00000000E+00  0.00000000E+00  0.00000000E+00
  0.00000000E+00  0.00000000E+00  0.00000000E+00
  0.00000000E+00  0.00000000E+00  0.00000000E+00
  0.00000000E+00  0.00000000E+00  0.00000000E+00
  0.00000000E+00  0.00000000E+00  0.00000000E+00
  0.00000000E+00  0.00000000E+00  0.00000000E+00
  0.00000000E+00  0.00000000E+00  0.00000000E+00
  0.00000000E+00  0.00000000E+00  0.00000000E+00
  0.00000000E+00  0.00000000E+00  0.00000000E+00
  0.00000000E+00  0.00000000E+00  0.00000000E+00
  0.00000000E+00  0.00000000E+00  0.00000000E+00
  0.00000000E+00  0.00000000E+00  0.00000000E+00
  0.00000000E+00  0.00000000E+00  0.00000000E+00
  0.00000000E+00  0.00000000E+00  0.00000000E+00
  0.00000000E+00  0.00000000E+00  0.00000000E+00
  0.00000000E+00  0.00000000E+00  0.00000000E+00
  0.00000000E+00  0.00000000E+00  0.00000000E+00
  0.00000000E+00  0.00000000E+00  0.00000000E+00
  0.00000000E+00  0.00000000E+00  0.00000000E+00
  0.00000000E+00  0.00000000E+00  0.00000000E+00
  0.00000000E+00  0.00000000E+00  0.00000000E+00
  0.00000000E+00  0.00000000E+00  0.00000000E+00
  0.00000000E+00  0.00000000E+00  0.00000000E+00
  0.00000000E+00  0.00000000E+00  0.00000000E+00
  0.00000000E+00  0.00000000E+00  0.00000000E+00
  0.00000000E+00  0.00000000E+00  0.00000000E+00
  0.00000000E+00  0.00000000E+00  0.00000000E+00
  0.00000000E+00  0.00000000E+00  0.00000000E+00
  0.00000000E+00  0.00000000E+00  0.00000000E+00
  0.00000000E+00  0.00000000E+00  0.00000000E+00
  0.00000000E+00  0.00000000E+00  0.00000000E+00
  0.00000000E+00  0.00000000E+00  0.00000000E+00
  0.00000000E+00  0.00000000E+00  0.00000000E+00
  0.00000000E+00  0.00000000E+00  0.00000000E+00
  0.00000000E+00  0.00000000E+00  0.00000000E+00
  0.00000000E+00  0.00000000E+00  0.00000000E+00
  0.00000000E+00  0.00000000E+00  0.00000000E+00
  0.00000000E+00  0.00000000E+00  0.00000000E+00
  0.00000000E+00  0.00000000E+00  0.00000000E+00
  0.00000000E+00  0.00000000E+00  0.00000000E+00
  0.00000000E+00  0.00000000E+00  0.00000000E+00
  0.00000000E+00  0.00000000E+00  0.00000000E+00
  0.00000000E+00  0.00000000E+00  0.00000000E+00
  0.00000000E+00  0.00000000E+00  0.00000000E+00
  0.00000000E+00  0.00000000E+00  0.00000000E+00
  0.00000000E+00  0.00000000E+00  0.00000000E+00
  0.00000000E+00  0.00000000E+00  0.00000000E+00
  0.00000000E+00  0.00000000E+00  0.00000000E+00
  0.00000000E+00  0.00000000E+00  0.00000000E+00
  0.00000000E+00  0.00000000E+00  0.00000000E+00
  0.00000000E+00  0.00000000E+00  0.00000000E+00
  0.00000000E+00  0.00000000E+00  0.00000000E+00
  0.00000000E+00  0.00000000E+00  0.00000000E+00
  0.00000000E+00  0.00000000E+00  0.00000000E+00
  0.00000000E+00  0.00000000E+00  0.00000000E+00
  0.00000000E+00  0.00000000E+00  0.00000000E+00
  0.00000000E+00  0.00000000E+00  0.00000000E+00
  0.00000000E+00  0.00000000E+00  0.00000000E+00
