CONTCAR\(13)                            
   1.00000000000000     
    12.8629999160999997    0.0000000000000000    0.0000000000000000
     0.0000000000000000   14.3196001052999993    0.0000000000000000
     0.0000000000000000    0.0000000000000000   19.5569992064999987
   Ag   Au   S    O 
    12    24    24     1
Direct
  0.0827733974142497  0.3328312008513301  0.5892032016035130
  0.2447325481719273  0.0782103949101765  0.6021678829327137
  0.4156958421912748  0.3326758000229336  0.5952248650311033
  0.5809192157592432  0.0822227614083837  0.6003977776275818
  0.7492841871223049  0.3340031377812138  0.5913098113558937
  0.9104570490352536  0.0799336953847549  0.6002119040879497
  0.0803348391882642  0.8291475910469797  0.5830146043528406
  0.2269580456756025  0.5853441040813591  0.6218724038468779
  0.4164957137104456  0.8322742033970284  0.5883535376114040
  0.5583702787627921  0.5814851207886179  0.6180497651625384
  0.7475471744989275  0.8271364640167835  0.5844098426510552
  0.8943124041215507  0.5801817005667307  0.6125820327580468
  0.0244563220628931  0.4967394462444740  0.5049962584253873
  0.3097495531588859  0.2402088730908405  0.4831905430821764
  0.1803409973672464  0.3627354001998574  0.3992402311899869
  0.1746779415468481  0.1141856059898345  0.4006944546675070
  0.3518800057062664  0.4966552776262491  0.5203901337080584
  0.6397657839415634  0.2475912647360901  0.4735862706577988
  0.5154763490557610  0.3670994753414563  0.3992660321182844
  0.5088298866220237  0.1155656629107090  0.3974753441173006
  0.6873157138138715  0.4976558993918238  0.5113628186174625
  0.9729290560938426  0.2428555850892044  0.4777853101196520
  0.8455521497193473  0.3675909567283348  0.3952141473479976
  0.8357228457931537  0.1169230500929165  0.4000502210135031
  0.0320533408101943  0.9954013321042816  0.4890349065607347
  0.3051134724587279  0.7360707516661076  0.4827078436489229
  0.1734884528824179  0.8648558049173121  0.3979930496701397
  0.1811953926474604  0.6154862988700155  0.3951031633218849
  0.3684932407622425  0.9951674888879237  0.4928112426214483
  0.6363104721536265  0.7338470956101697  0.4767605511926152
  0.5054583845797256  0.8648049119375669  0.3983860058811379
  0.5152231159464902  0.6156828313497927  0.3988018210360038
  0.6980049469431969  0.9922394079418522  0.4905142992339376
  0.9733948427852174  0.7334570889716217  0.4746161790067086
  0.8367183316787352  0.8652488995722581  0.4001190511940688
  0.8419043186411163  0.6140923640031056  0.3960279555014222
  0.2902499267902450  0.4888114915513873  0.4110342682563989
  0.2445063309469901  0.2470021141513566  0.5943300423461254
  0.0653468750566862  0.4992049338888379  0.6209061800809383
  0.0679356728303009  0.2403672755655492  0.3756800719920217
  0.6337693801384531  0.4919913302298286  0.3993961024832567
  0.5790206981956123  0.2495847560332959  0.5864866864715120
  0.3977497481864272  0.4973376397681268  0.6358005708149685
  0.4007648045522675  0.2425234933430104  0.3801804043720798
  0.9605075129818008  0.4918374149200885  0.3946882613589721
  0.9107069408011859  0.2483637352539806  0.5897999866564990
  0.7311025421063687  0.4993932357522317  0.6267779911724104
  0.7335646250431578  0.2452197459137650  0.3713717066485424
  0.2872528077481034  0.9889982761912345  0.3871710632506698
  0.2461110543172282  0.7499159230766506  0.5951181709079200
  0.0800844592362079  0.9974597093590014  0.6043009598285649
  0.0680874646540474  0.7378601956837774  0.3723383128847774
  0.6189316998277568  0.9889380900021875  0.3837792926147485
  0.5783788770651712  0.7457500261676586  0.5899944737260320
  0.4165165185075902  0.0003098216146100  0.6081481792466230
  0.3981592305248368  0.7369592898066428  0.3801887408075439
  0.9478444313011500  0.9910975355381771  0.3842194677242434
  0.9118193026704594  0.7451819124671034  0.5865501948570080
  0.7474213101623328  0.9958536799614064  0.6057021798176380
  0.7312801242156375  0.7381174857179885  0.3744071400549295
  0.3843023153173022  0.4854043425120220  0.3596547006699028
 
  0.00000000E+00  0.00000000E+00  0.00000000E+00
  0.00000000E+00  0.00000000E+00  0.00000000E+00
  0.00000000E+00  0.00000000E+00  0.00000000E+00
  0.00000000E+00  0.00000000E+00  0.00000000E+00
  0.00000000E+00  0.00000000E+00  0.00000000E+00
  0.00000000E+00  0.00000000E+00  0.00000000E+00
  0.00000000E+00  0.00000000E+00  0.00000000E+00
  0.00000000E+00  0.00000000E+00  0.00000000E+00
  0.00000000E+00  0.00000000E+00  0.00000000E+00
  0.00000000E+00  0.00000000E+00  0.00000000E+00
  0.00000000E+00  0.00000000E+00  0.00000000E+00
  0.00000000E+00  0.00000000E+00  0.00000000E+00
  0.00000000E+00  0.00000000E+00  0.00000000E+00
  0.00000000E+00  0.00000000E+00  0.00000000E+00
  0.00000000E+00  0.00000000E+00  0.00000000E+00
  0.00000000E+00  0.00000000E+00  0.00000000E+00
  0.00000000E+00  0.00000000E+00  0.00000000E+00
  0.00000000E+00  0.00000000E+00  0.00000000E+00
  0.00000000E+00  0.00000000E+00  0.00000000E+00
  0.00000000E+00  0.00000000E+00  0.00000000E+00
  0.00000000E+00  0.00000000E+00  0.00000000E+00
  0.00000000E+00  0.00000000E+00  0.00000000E+00
  0.00000000E+00  0.00000000E+00  0.00000000E+00
  0.00000000E+00  0.00000000E+00  0.00000000E+00
  0.00000000E+00  0.00000000E+00  0.00000000E+00
  0.00000000E+00  0.00000000E+00  0.00000000E+00
  0.00000000E+00  0.00000000E+00  0.00000000E+00
  0.00000000E+00  0.00000000E+00  0.00000000E+00
  0.00000000E+00  0.00000000E+00  0.00000000E+00
  0.00000000E+00  0.00000000E+00  0.00000000E+00
  0.00000000E+00  0.00000000E+00  0.00000000E+00
  0.00000000E+00  0.00000000E+00  0.00000000E+00
  0.00000000E+00  0.00000000E+00  0.00000000E+00
  0.00000000E+00  0.00000000E+00  0.00000000E+00
  0.00000000E+00  0.00000000E+00  0.00000000E+00
  0.00000000E+00  0.00000000E+00  0.00000000E+00
  0.00000000E+00  0.00000000E+00  0.00000000E+00
  0.00000000E+00  0.00000000E+00  0.00000000E+00
  0.00000000E+00  0.00000000E+00  0.00000000E+00
  0.00000000E+00  0.00000000E+00  0.00000000E+00
  0.00000000E+00  0.00000000E+00  0.00000000E+00
  0.00000000E+00  0.00000000E+00  0.00000000E+00
  0.00000000E+00  0.00000000E+00  0.00000000E+00
  0.00000000E+00  0.00000000E+00  0.00000000E+00
  0.00000000E+00  0.00000000E+00  0.00000000E+00
  0.00000000E+00  0.00000000E+00  0.00000000E+00
  0.00000000E+00  0.00000000E+00  0.00000000E+00
  0.00000000E+00  0.00000000E+00  0.00000000E+00
  0.00000000E+00  0.00000000E+00  0.00000000E+00
  0.00000000E+00  0.00000000E+00  0.00000000E+00
  0.00000000E+00  0.00000000E+00  0.00000000E+00
  0.00000000E+00  0.00000000E+00  0.00000000E+00
  0.00000000E+00  0.00000000E+00  0.00000000E+00
  0.00000000E+00  0.00000000E+00  0.00000000E+00
  0.00000000E+00  0.00000000E+00  0.00000000E+00
  0.00000000E+00  0.00000000E+00  0.00000000E+00
  0.00000000E+00  0.00000000E+00  0.00000000E+00
  0.00000000E+00  0.00000000E+00  0.00000000E+00
  0.00000000E+00  0.00000000E+00  0.00000000E+00
  0.00000000E+00  0.00000000E+00  0.00000000E+00
  0.00000000E+00  0.00000000E+00  0.00000000E+00
