 Cu2 H4 Se2 O10                         
   1.00000000000000     
     4.8772247165710683    0.0000000000000000    0.0000000000000000
     1.3931374983807638    9.7016778549672900    0.0000000000000000
     0.0000000000000000    0.0000000000000000   19.0859309430720003
   Cu   H    Se   O 
     2     4     2    10
Direct
  0.9999802939336249  0.9999988127996247  0.4999931757445779
  0.5000218749093364  0.5000013922517326  0.5000013343792205
  0.2142430896098304  0.6923559542586872  0.5555633534268765
  0.7857179083864381  0.3076530989292152  0.4444284398320590
  0.0656772156564429  0.5635312760694617  0.5695519026671576
  0.9344739324080820  0.4364295701665952  0.4304956149773744
  0.4104916792353208  0.1921983808898062  0.5232213427806229
  0.5894620821352277  0.8077986899113370  0.4767725325642687
  0.2794106209216096  0.0950203974424895  0.4612762527156065
  0.7205308080693342  0.9049909868009536  0.5387093453326699
  0.7563174104908441  0.1804606541112577  0.5035490527114916
  0.2436347147867792  0.8195352906027864  0.4964413207915044
  0.3373442369198330  0.1578233580914556  0.6036395257667238
  0.6626003124783537  0.8421662455226127  0.3963459512373930
  0.2765001556937676  0.3568169646710899  0.4990293725423811
  0.7235026407974985  0.6431967790439259  0.5009718850597977
  0.7524966791059597  0.4054120782677018  0.4270903840016018
  0.2475943444617243  0.5946100701692600  0.5729192134686798
 
  0.00000000E+00  0.00000000E+00  0.00000000E+00
  0.00000000E+00  0.00000000E+00  0.00000000E+00
  0.00000000E+00  0.00000000E+00  0.00000000E+00
  0.00000000E+00  0.00000000E+00  0.00000000E+00
  0.00000000E+00  0.00000000E+00  0.00000000E+00
  0.00000000E+00  0.00000000E+00  0.00000000E+00
  0.00000000E+00  0.00000000E+00  0.00000000E+00
  0.00000000E+00  0.00000000E+00  0.00000000E+00
  0.00000000E+00  0.00000000E+00  0.00000000E+00
  0.00000000E+00  0.00000000E+00  0.00000000E+00
  0.00000000E+00  0.00000000E+00  0.00000000E+00
  0.00000000E+00  0.00000000E+00  0.00000000E+00
  0.00000000E+00  0.00000000E+00  0.00000000E+00
  0.00000000E+00  0.00000000E+00  0.00000000E+00
  0.00000000E+00  0.00000000E+00  0.00000000E+00
  0.00000000E+00  0.00000000E+00  0.00000000E+00
  0.00000000E+00  0.00000000E+00  0.00000000E+00
  0.00000000E+00  0.00000000E+00  0.00000000E+00
