G   41   21    1    0.005     # Parameters to Generate KPOINTS (Don't Edit This Line)
     431
Reciprocal lattice
    0.000000000000    0.000000000000    0.000000000000       1
    0.024390243902    0.000000000000    0.000000000000       2
    0.048780487805    0.000000000000    0.000000000000       2
    0.073170731707    0.000000000000    0.000000000000       2
    0.097560975610    0.000000000000    0.000000000000       2
    0.121951219512    0.000000000000    0.000000000000       2
    0.146341463415    0.000000000000    0.000000000000       2
    0.170731707317    0.000000000000    0.000000000000       2
    0.195121951220    0.000000000000    0.000000000000       2
    0.219512195122    0.000000000000    0.000000000000       2
    0.243902439024    0.000000000000    0.000000000000       2
    0.268292682927    0.000000000000    0.000000000000       2
    0.292682926829    0.000000000000    0.000000000000       2
    0.317073170732    0.000000000000    0.000000000000       2
    0.341463414634    0.000000000000    0.000000000000       2
    0.365853658537    0.000000000000    0.000000000000       2
    0.390243902439    0.000000000000    0.000000000000       2
    0.414634146341    0.000000000000    0.000000000000       2
    0.439024390244    0.000000000000    0.000000000000       2
    0.463414634146    0.000000000000    0.000000000000       2
    0.487804878049    0.000000000000    0.000000000000       2
    0.000000000000    0.047619047619    0.000000000000       2
    0.024390243902    0.047619047619    0.000000000000       2
    0.048780487805    0.047619047619    0.000000000000       2
    0.073170731707    0.047619047619    0.000000000000       2
    0.097560975610    0.047619047619    0.000000000000       2
    0.121951219512    0.047619047619    0.000000000000       2
    0.146341463415    0.047619047619    0.000000000000       2
    0.170731707317    0.047619047619    0.000000000000       2
    0.195121951220    0.047619047619    0.000000000000       2
    0.219512195122    0.047619047619    0.000000000000       2
    0.243902439024    0.047619047619    0.000000000000       2
    0.268292682927    0.047619047619    0.000000000000       2
    0.292682926829    0.047619047619    0.000000000000       2
    0.317073170732    0.047619047619    0.000000000000       2
    0.341463414634    0.047619047619    0.000000000000       2
    0.365853658537    0.047619047619    0.000000000000       2
    0.390243902439    0.047619047619    0.000000000000       2
    0.414634146341    0.047619047619    0.000000000000       2
    0.439024390244    0.047619047619    0.000000000000       2
    0.463414634146    0.047619047619    0.000000000000       2
    0.487804878049    0.047619047619    0.000000000000       2
   -0.487804878049    0.047619047619    0.000000000000       2
   -0.463414634146    0.047619047619    0.000000000000       2
   -0.439024390244    0.047619047619    0.000000000000       2
   -0.414634146341    0.047619047619    0.000000000000       2
   -0.390243902439    0.047619047619    0.000000000000       2
   -0.365853658537    0.047619047619    0.000000000000       2
   -0.341463414634    0.047619047619    0.000000000000       2
   -0.317073170732    0.047619047619    0.000000000000       2
   -0.292682926829    0.047619047619    0.000000000000       2
   -0.268292682927    0.047619047619    0.000000000000       2
   -0.243902439024    0.047619047619    0.000000000000       2
   -0.219512195122    0.047619047619    0.000000000000       2
   -0.195121951220    0.047619047619    0.000000000000       2
   -0.170731707317    0.047619047619    0.000000000000       2
   -0.146341463415    0.047619047619    0.000000000000       2
   -0.121951219512    0.047619047619    0.000000000000       2
   -0.097560975610    0.047619047619    0.000000000000       2
   -0.073170731707    0.047619047619    0.000000000000       2
   -0.048780487805    0.047619047619    0.000000000000       2
   -0.024390243902    0.047619047619    0.000000000000       2
    0.000000000000    0.095238095238    0.000000000000       2
    0.024390243902    0.095238095238    0.000000000000       2
    0.048780487805    0.095238095238    0.000000000000       2
    0.073170731707    0.095238095238    0.000000000000       2
    0.097560975610    0.095238095238    0.000000000000       2
    0.121951219512    0.095238095238    0.000000000000       2
    0.146341463415    0.095238095238    0.000000000000       2
    0.170731707317    0.095238095238    0.000000000000       2
    0.195121951220    0.095238095238    0.000000000000       2
    0.219512195122    0.095238095238    0.000000000000       2
    0.243902439024    0.095238095238    0.000000000000       2
    0.268292682927    0.095238095238    0.000000000000       2
    0.292682926829    0.095238095238    0.000000000000       2
    0.317073170732    0.095238095238    0.000000000000       2
    0.341463414634    0.095238095238    0.000000000000       2
    0.365853658537    0.095238095238    0.000000000000       2
    0.390243902439    0.095238095238    0.000000000000       2
    0.414634146341    0.095238095238    0.000000000000       2
    0.439024390244    0.095238095238    0.000000000000       2
    0.463414634146    0.095238095238    0.000000000000       2
    0.487804878049    0.095238095238    0.000000000000       2
   -0.487804878049    0.095238095238    0.000000000000       2
   -0.463414634146    0.095238095238    0.000000000000       2
   -0.439024390244    0.095238095238    0.000000000000       2
   -0.414634146341    0.095238095238    0.000000000000       2
   -0.390243902439    0.095238095238    0.000000000000       2
   -0.365853658537    0.095238095238    0.000000000000       2
   -0.341463414634    0.095238095238    0.000000000000       2
   -0.317073170732    0.095238095238    0.000000000000       2
   -0.292682926829    0.095238095238    0.000000000000       2
   -0.268292682927    0.095238095238    0.000000000000       2
   -0.243902439024    0.095238095238    0.000000000000       2
   -0.219512195122    0.095238095238    0.000000000000       2
   -0.195121951220    0.095238095238    0.000000000000       2
   -0.170731707317    0.095238095238    0.000000000000       2
   -0.146341463415    0.095238095238    0.000000000000       2
   -0.121951219512    0.095238095238    0.000000000000       2
   -0.097560975610    0.095238095238    0.000000000000       2
   -0.073170731707    0.095238095238    0.000000000000       2
   -0.048780487805    0.095238095238    0.000000000000       2
   -0.024390243902    0.095238095238    0.000000000000       2
    0.000000000000    0.142857142857    0.000000000000       2
    0.024390243902    0.142857142857    0.000000000000       2
    0.048780487805    0.142857142857    0.000000000000       2
    0.073170731707    0.142857142857    0.000000000000       2
    0.097560975610    0.142857142857    0.000000000000       2
    0.121951219512    0.142857142857    0.000000000000       2
    0.146341463415    0.142857142857    0.000000000000       2
    0.170731707317    0.142857142857    0.000000000000       2
    0.195121951220    0.142857142857    0.000000000000       2
    0.219512195122    0.142857142857    0.000000000000       2
    0.243902439024    0.142857142857    0.000000000000       2
    0.268292682927    0.142857142857    0.000000000000       2
    0.292682926829    0.142857142857    0.000000000000       2
    0.317073170732    0.142857142857    0.000000000000       2
    0.341463414634    0.142857142857    0.000000000000       2
    0.365853658537    0.142857142857    0.000000000000       2
    0.390243902439    0.142857142857    0.000000000000       2
    0.414634146341    0.142857142857    0.000000000000       2
    0.439024390244    0.142857142857    0.000000000000       2
    0.463414634146    0.142857142857    0.000000000000       2
    0.487804878049    0.142857142857    0.000000000000       2
   -0.487804878049    0.142857142857    0.000000000000       2
   -0.463414634146    0.142857142857    0.000000000000       2
   -0.439024390244    0.142857142857    0.000000000000       2
   -0.414634146341    0.142857142857    0.000000000000       2
   -0.390243902439    0.142857142857    0.000000000000       2
   -0.365853658537    0.142857142857    0.000000000000       2
   -0.341463414634    0.142857142857    0.000000000000       2
   -0.317073170732    0.142857142857    0.000000000000       2
   -0.292682926829    0.142857142857    0.000000000000       2
   -0.268292682927    0.142857142857    0.000000000000       2
   -0.243902439024    0.142857142857    0.000000000000       2
   -0.219512195122    0.142857142857    0.000000000000       2
   -0.195121951220    0.142857142857    0.000000000000       2
   -0.170731707317    0.142857142857    0.000000000000       2
   -0.146341463415    0.142857142857    0.000000000000       2
   -0.121951219512    0.142857142857    0.000000000000       2
   -0.097560975610    0.142857142857    0.000000000000       2
   -0.073170731707    0.142857142857    0.000000000000       2
   -0.048780487805    0.142857142857    0.000000000000       2
   -0.024390243902    0.142857142857    0.000000000000       2
    0.000000000000    0.190476190476    0.000000000000       2
    0.024390243902    0.190476190476    0.000000000000       2
    0.048780487805    0.190476190476    0.000000000000       2
    0.073170731707    0.190476190476    0.000000000000       2
    0.097560975610    0.190476190476    0.000000000000       2
    0.121951219512    0.190476190476    0.000000000000       2
    0.146341463415    0.190476190476    0.000000000000       2
    0.170731707317    0.190476190476    0.000000000000       2
    0.195121951220    0.190476190476    0.000000000000       2
    0.219512195122    0.190476190476    0.000000000000       2
    0.243902439024    0.190476190476    0.000000000000       2
    0.268292682927    0.190476190476    0.000000000000       2
    0.292682926829    0.190476190476    0.000000000000       2
    0.317073170732    0.190476190476    0.000000000000       2
    0.341463414634    0.190476190476    0.000000000000       2
    0.365853658537    0.190476190476    0.000000000000       2
    0.390243902439    0.190476190476    0.000000000000       2
    0.414634146341    0.190476190476    0.000000000000       2
    0.439024390244    0.190476190476    0.000000000000       2
    0.463414634146    0.190476190476    0.000000000000       2
    0.487804878049    0.190476190476    0.000000000000       2
   -0.487804878049    0.190476190476    0.000000000000       2
   -0.463414634146    0.190476190476    0.000000000000       2
   -0.439024390244    0.190476190476    0.000000000000       2
   -0.414634146341    0.190476190476    0.000000000000       2
   -0.390243902439    0.190476190476    0.000000000000       2
   -0.365853658537    0.190476190476    0.000000000000       2
   -0.341463414634    0.190476190476    0.000000000000       2
   -0.317073170732    0.190476190476    0.000000000000       2
   -0.292682926829    0.190476190476    0.000000000000       2
   -0.268292682927    0.190476190476    0.000000000000       2
   -0.243902439024    0.190476190476    0.000000000000       2
   -0.219512195122    0.190476190476    0.000000000000       2
   -0.195121951220    0.190476190476    0.000000000000       2
   -0.170731707317    0.190476190476    0.000000000000       2
   -0.146341463415    0.190476190476    0.000000000000       2
   -0.121951219512    0.190476190476    0.000000000000       2
   -0.097560975610    0.190476190476    0.000000000000       2
   -0.073170731707    0.190476190476    0.000000000000       2
   -0.048780487805    0.190476190476    0.000000000000       2
   -0.024390243902    0.190476190476    0.000000000000       2
    0.000000000000    0.238095238095    0.000000000000       2
    0.024390243902    0.238095238095    0.000000000000       2
    0.048780487805    0.238095238095    0.000000000000       2
    0.073170731707    0.238095238095    0.000000000000       2
    0.097560975610    0.238095238095    0.000000000000       2
    0.121951219512    0.238095238095    0.000000000000       2
    0.146341463415    0.238095238095    0.000000000000       2
    0.170731707317    0.238095238095    0.000000000000       2
    0.195121951220    0.238095238095    0.000000000000       2
    0.219512195122    0.238095238095    0.000000000000       2
    0.243902439024    0.238095238095    0.000000000000       2
    0.268292682927    0.238095238095    0.000000000000       2
    0.292682926829    0.238095238095    0.000000000000       2
    0.317073170732    0.238095238095    0.000000000000       2
    0.341463414634    0.238095238095    0.000000000000       2
    0.365853658537    0.238095238095    0.000000000000       2
    0.390243902439    0.238095238095    0.000000000000       2
    0.414634146341    0.238095238095    0.000000000000       2
    0.439024390244    0.238095238095    0.000000000000       2
    0.463414634146    0.238095238095    0.000000000000       2
    0.487804878049    0.238095238095    0.000000000000       2
   -0.487804878049    0.238095238095    0.000000000000       2
   -0.463414634146    0.238095238095    0.000000000000       2
   -0.439024390244    0.238095238095    0.000000000000       2
   -0.414634146341    0.238095238095    0.000000000000       2
   -0.390243902439    0.238095238095    0.000000000000       2
   -0.365853658537    0.238095238095    0.000000000000       2
   -0.341463414634    0.238095238095    0.000000000000       2
   -0.317073170732    0.238095238095    0.000000000000       2
   -0.292682926829    0.238095238095    0.000000000000       2
   -0.268292682927    0.238095238095    0.000000000000       2
   -0.243902439024    0.238095238095    0.000000000000       2
   -0.219512195122    0.238095238095    0.000000000000       2
   -0.195121951220    0.238095238095    0.000000000000       2
   -0.170731707317    0.238095238095    0.000000000000       2
   -0.146341463415    0.238095238095    0.000000000000       2
   -0.121951219512    0.238095238095    0.000000000000       2
   -0.097560975610    0.238095238095    0.000000000000       2
   -0.073170731707    0.238095238095    0.000000000000       2
   -0.048780487805    0.238095238095    0.000000000000       2
   -0.024390243902    0.238095238095    0.000000000000       2
    0.000000000000    0.285714285714    0.000000000000       2
    0.024390243902    0.285714285714    0.000000000000       2
    0.048780487805    0.285714285714    0.000000000000       2
    0.073170731707    0.285714285714    0.000000000000       2
    0.097560975610    0.285714285714    0.000000000000       2
    0.121951219512    0.285714285714    0.000000000000       2
    0.146341463415    0.285714285714    0.000000000000       2
    0.170731707317    0.285714285714    0.000000000000       2
    0.195121951220    0.285714285714    0.000000000000       2
    0.219512195122    0.285714285714    0.000000000000       2
    0.243902439024    0.285714285714    0.000000000000       2
    0.268292682927    0.285714285714    0.000000000000       2
    0.292682926829    0.285714285714    0.000000000000       2
    0.317073170732    0.285714285714    0.000000000000       2
    0.341463414634    0.285714285714    0.000000000000       2
    0.365853658537    0.285714285714    0.000000000000       2
    0.390243902439    0.285714285714    0.000000000000       2
    0.414634146341    0.285714285714    0.000000000000       2
    0.439024390244    0.285714285714    0.000000000000       2
    0.463414634146    0.285714285714    0.000000000000       2
    0.487804878049    0.285714285714    0.000000000000       2
   -0.487804878049    0.285714285714    0.000000000000       2
   -0.463414634146    0.285714285714    0.000000000000       2
   -0.439024390244    0.285714285714    0.000000000000       2
   -0.414634146341    0.285714285714    0.000000000000       2
   -0.390243902439    0.285714285714    0.000000000000       2
   -0.365853658537    0.285714285714    0.000000000000       2
   -0.341463414634    0.285714285714    0.000000000000       2
   -0.317073170732    0.285714285714    0.000000000000       2
   -0.292682926829    0.285714285714    0.000000000000       2
   -0.268292682927    0.285714285714    0.000000000000       2
   -0.243902439024    0.285714285714    0.000000000000       2
   -0.219512195122    0.285714285714    0.000000000000       2
   -0.195121951220    0.285714285714    0.000000000000       2
   -0.170731707317    0.285714285714    0.000000000000       2
   -0.146341463415    0.285714285714    0.000000000000       2
   -0.121951219512    0.285714285714    0.000000000000       2
   -0.097560975610    0.285714285714    0.000000000000       2
   -0.073170731707    0.285714285714    0.000000000000       2
   -0.048780487805    0.285714285714    0.000000000000       2
   -0.024390243902    0.285714285714    0.000000000000       2
    0.000000000000    0.333333333333    0.000000000000       2
    0.024390243902    0.333333333333    0.000000000000       2
    0.048780487805    0.333333333333    0.000000000000       2
    0.073170731707    0.333333333333    0.000000000000       2
    0.097560975610    0.333333333333    0.000000000000       2
    0.121951219512    0.333333333333    0.000000000000       2
    0.146341463415    0.333333333333    0.000000000000       2
    0.170731707317    0.333333333333    0.000000000000       2
    0.195121951220    0.333333333333    0.000000000000       2
    0.219512195122    0.333333333333    0.000000000000       2
    0.243902439024    0.333333333333    0.000000000000       2
    0.268292682927    0.333333333333    0.000000000000       2
    0.292682926829    0.333333333333    0.000000000000       2
    0.317073170732    0.333333333333    0.000000000000       2
    0.341463414634    0.333333333333    0.000000000000       2
    0.365853658537    0.333333333333    0.000000000000       2
    0.390243902439    0.333333333333    0.000000000000       2
    0.414634146341    0.333333333333    0.000000000000       2
    0.439024390244    0.333333333333    0.000000000000       2
    0.463414634146    0.333333333333    0.000000000000       2
    0.487804878049    0.333333333333    0.000000000000       2
   -0.487804878049    0.333333333333    0.000000000000       2
   -0.463414634146    0.333333333333    0.000000000000       2
   -0.439024390244    0.333333333333    0.000000000000       2
   -0.414634146341    0.333333333333    0.000000000000       2
   -0.390243902439    0.333333333333    0.000000000000       2
   -0.365853658537    0.333333333333    0.000000000000       2
   -0.341463414634    0.333333333333    0.000000000000       2
   -0.317073170732    0.333333333333    0.000000000000       2
   -0.292682926829    0.333333333333    0.000000000000       2
   -0.268292682927    0.333333333333    0.000000000000       2
   -0.243902439024    0.333333333333    0.000000000000       2
   -0.219512195122    0.333333333333    0.000000000000       2
   -0.195121951220    0.333333333333    0.000000000000       2
   -0.170731707317    0.333333333333    0.000000000000       2
   -0.146341463415    0.333333333333    0.000000000000       2
   -0.121951219512    0.333333333333    0.000000000000       2
   -0.097560975610    0.333333333333    0.000000000000       2
   -0.073170731707    0.333333333333    0.000000000000       2
   -0.048780487805    0.333333333333    0.000000000000       2
   -0.024390243902    0.333333333333    0.000000000000       2
    0.000000000000    0.380952380952    0.000000000000       2
    0.024390243902    0.380952380952    0.000000000000       2
    0.048780487805    0.380952380952    0.000000000000       2
    0.073170731707    0.380952380952    0.000000000000       2
    0.097560975610    0.380952380952    0.000000000000       2
    0.121951219512    0.380952380952    0.000000000000       2
    0.146341463415    0.380952380952    0.000000000000       2
    0.170731707317    0.380952380952    0.000000000000       2
    0.195121951220    0.380952380952    0.000000000000       2
    0.219512195122    0.380952380952    0.000000000000       2
    0.243902439024    0.380952380952    0.000000000000       2
    0.268292682927    0.380952380952    0.000000000000       2
    0.292682926829    0.380952380952    0.000000000000       2
    0.317073170732    0.380952380952    0.000000000000       2
    0.341463414634    0.380952380952    0.000000000000       2
    0.365853658537    0.380952380952    0.000000000000       2
    0.390243902439    0.380952380952    0.000000000000       2
    0.414634146341    0.380952380952    0.000000000000       2
    0.439024390244    0.380952380952    0.000000000000       2
    0.463414634146    0.380952380952    0.000000000000       2
    0.487804878049    0.380952380952    0.000000000000       2
   -0.487804878049    0.380952380952    0.000000000000       2
   -0.463414634146    0.380952380952    0.000000000000       2
   -0.439024390244    0.380952380952    0.000000000000       2
   -0.414634146341    0.380952380952    0.000000000000       2
   -0.390243902439    0.380952380952    0.000000000000       2
   -0.365853658537    0.380952380952    0.000000000000       2
   -0.341463414634    0.380952380952    0.000000000000       2
   -0.317073170732    0.380952380952    0.000000000000       2
   -0.292682926829    0.380952380952    0.000000000000       2
   -0.268292682927    0.380952380952    0.000000000000       2
   -0.243902439024    0.380952380952    0.000000000000       2
   -0.219512195122    0.380952380952    0.000000000000       2
   -0.195121951220    0.380952380952    0.000000000000       2
   -0.170731707317    0.380952380952    0.000000000000       2
   -0.146341463415    0.380952380952    0.000000000000       2
   -0.121951219512    0.380952380952    0.000000000000       2
   -0.097560975610    0.380952380952    0.000000000000       2
   -0.073170731707    0.380952380952    0.000000000000       2
   -0.048780487805    0.380952380952    0.000000000000       2
   -0.024390243902    0.380952380952    0.000000000000       2
    0.000000000000    0.428571428571    0.000000000000       2
    0.024390243902    0.428571428571    0.000000000000       2
    0.048780487805    0.428571428571    0.000000000000       2
    0.073170731707    0.428571428571    0.000000000000       2
    0.097560975610    0.428571428571    0.000000000000       2
    0.121951219512    0.428571428571    0.000000000000       2
    0.146341463415    0.428571428571    0.000000000000       2
    0.170731707317    0.428571428571    0.000000000000       2
    0.195121951220    0.428571428571    0.000000000000       2
    0.219512195122    0.428571428571    0.000000000000       2
    0.243902439024    0.428571428571    0.000000000000       2
    0.268292682927    0.428571428571    0.000000000000       2
    0.292682926829    0.428571428571    0.000000000000       2
    0.317073170732    0.428571428571    0.000000000000       2
    0.341463414634    0.428571428571    0.000000000000       2
    0.365853658537    0.428571428571    0.000000000000       2
    0.390243902439    0.428571428571    0.000000000000       2
    0.414634146341    0.428571428571    0.000000000000       2
    0.439024390244    0.428571428571    0.000000000000       2
    0.463414634146    0.428571428571    0.000000000000       2
    0.487804878049    0.428571428571    0.000000000000       2
   -0.487804878049    0.428571428571    0.000000000000       2
   -0.463414634146    0.428571428571    0.000000000000       2
   -0.439024390244    0.428571428571    0.000000000000       2
   -0.414634146341    0.428571428571    0.000000000000       2
   -0.390243902439    0.428571428571    0.000000000000       2
   -0.365853658537    0.428571428571    0.000000000000       2
   -0.341463414634    0.428571428571    0.000000000000       2
   -0.317073170732    0.428571428571    0.000000000000       2
   -0.292682926829    0.428571428571    0.000000000000       2
   -0.268292682927    0.428571428571    0.000000000000       2
   -0.243902439024    0.428571428571    0.000000000000       2
   -0.219512195122    0.428571428571    0.000000000000       2
   -0.195121951220    0.428571428571    0.000000000000       2
   -0.170731707317    0.428571428571    0.000000000000       2
   -0.146341463415    0.428571428571    0.000000000000       2
   -0.121951219512    0.428571428571    0.000000000000       2
   -0.097560975610    0.428571428571    0.000000000000       2
   -0.073170731707    0.428571428571    0.000000000000       2
   -0.048780487805    0.428571428571    0.000000000000       2
   -0.024390243902    0.428571428571    0.000000000000       2
    0.000000000000    0.476190476190    0.000000000000       2
    0.024390243902    0.476190476190    0.000000000000       2
    0.048780487805    0.476190476190    0.000000000000       2
    0.073170731707    0.476190476190    0.000000000000       2
    0.097560975610    0.476190476190    0.000000000000       2
    0.121951219512    0.476190476190    0.000000000000       2
    0.146341463415    0.476190476190    0.000000000000       2
    0.170731707317    0.476190476190    0.000000000000       2
    0.195121951220    0.476190476190    0.000000000000       2
    0.219512195122    0.476190476190    0.000000000000       2
    0.243902439024    0.476190476190    0.000000000000       2
    0.268292682927    0.476190476190    0.000000000000       2
    0.292682926829    0.476190476190    0.000000000000       2
    0.317073170732    0.476190476190    0.000000000000       2
    0.341463414634    0.476190476190    0.000000000000       2
    0.365853658537    0.476190476190    0.000000000000       2
    0.390243902439    0.476190476190    0.000000000000       2
    0.414634146341    0.476190476190    0.000000000000       2
    0.439024390244    0.476190476190    0.000000000000       2
    0.463414634146    0.476190476190    0.000000000000       2
    0.487804878049    0.476190476190    0.000000000000       2
   -0.487804878049    0.476190476190    0.000000000000       2
   -0.463414634146    0.476190476190    0.000000000000       2
   -0.439024390244    0.476190476190    0.000000000000       2
   -0.414634146341    0.476190476190    0.000000000000       2
   -0.390243902439    0.476190476190    0.000000000000       2
   -0.365853658537    0.476190476190    0.000000000000       2
   -0.341463414634    0.476190476190    0.000000000000       2
   -0.317073170732    0.476190476190    0.000000000000       2
   -0.292682926829    0.476190476190    0.000000000000       2
   -0.268292682927    0.476190476190    0.000000000000       2
   -0.243902439024    0.476190476190    0.000000000000       2
   -0.219512195122    0.476190476190    0.000000000000       2
   -0.195121951220    0.476190476190    0.000000000000       2
   -0.170731707317    0.476190476190    0.000000000000       2
   -0.146341463415    0.476190476190    0.000000000000       2
   -0.121951219512    0.476190476190    0.000000000000       2
   -0.097560975610    0.476190476190    0.000000000000       2
   -0.073170731707    0.476190476190    0.000000000000       2
   -0.048780487805    0.476190476190    0.000000000000       2
   -0.024390243902    0.476190476190    0.000000000000       2
