CONTCAR\(12)                            
   1.00000000000000     
    14.1683998108000004    0.0000000000000000    0.0000000000000000
     0.0000000000000000   20.5298995972000000    0.0000000000000000
     0.0000000000000000    0.0000000000000000   19.1021003723000007
   Nb   Te   O 
    32    48     1
Direct
  0.0625199950000024  0.1366095350362503  0.5497552516849432
  0.1874164999914238  0.0765748727086447  0.4520884024318165
  0.0625199950000024  0.2947802004351575  0.5002962438040756
  0.1875074048317369  0.4187300792392922  0.5014907543588278
  0.3123161870843372  0.1368450913435840  0.5497692070993696
  0.4370489168434318  0.0767517976445334  0.4518545227006025
  0.3099295491202810  0.2951834755405733  0.5001343567587995
  0.4272966291815300  0.4206050800247456  0.5013052041813434
  0.5625200420000027  0.1368376976936078  0.5493664973225505
  0.6879910991565680  0.0767517976445334  0.4518545227006025
  0.5625200420000027  0.2922818642444664  0.4994039154803989
  0.6977433868184696  0.4206050800247456  0.5013052041813434
  0.8127238629156652  0.1368450913435840  0.5497692070993696
  0.9376234990085781  0.0765748727086447  0.4520884024318165
  0.8151105008797216  0.2951834755405733  0.5001343567587995
  0.9375325941682648  0.4187300792392922  0.5014907543588278
  0.0625199950000024  0.6375242607826417  0.5485012804149609
  0.1874513144762663  0.5772903075381184  0.4507941403908476
  0.0625199950000024  0.7953889065272945  0.4986055423640322
  0.1875700671554060  0.9187086751697997  0.5012163352006317
  0.3110929102862808  0.6377240602734684  0.5479490011336405
  0.4367759196403876  0.5764159507399914  0.4505234426862736
  0.3128376457368376  0.7952026284606954  0.4984275874662052
  0.4379071894662436  0.9186994931111331  0.5008947390255092
  0.5625200420000027  0.6367927042692177  0.5478856757836610
  0.6882640963596121  0.5764159507399914  0.4505234426862736
  0.5625200420000027  0.7949231811369805  0.4984442242852782
  0.6871328265337563  0.9186994931111331  0.5008947390255092
  0.8139471397137223  0.6377240602734684  0.5479490011336405
  0.9375886845237358  0.5772903075381184  0.4507941403908476
  0.8122024042631653  0.7952026284606954  0.4984275874662052
  0.9374699318445957  0.9187086751697997  0.5012163352006317
  0.1865804433454486  0.3289047235270299  0.3932838514437886
  0.0625199950000024  0.1747604503434970  0.4104754447451528
  0.1871464957365898  0.2326269140034429  0.6014580568715642
  0.0625199950000024  0.4805214010723446  0.4008078078364140
  0.0625199950000024  0.3847120452231158  0.6082239707325151
  0.1875543904405684  0.0382906921148443  0.5912184211883913
  0.4363878731409097  0.3293621477169910  0.3944762299950104
  0.3122813572887100  0.1751766270320460  0.4107441333518937
  0.4374030087227219  0.2329400389774153  0.6007041601814102
  0.3108344859492207  0.4809581546341687  0.3983182036817017
  0.3109398574173356  0.3839627430152391  0.6097323335710355
  0.4375094328210660  0.0385491560209539  0.5909805859316506
  0.6886521428590899  0.3293621477169910  0.3944762299950104
  0.5625200420000027  0.1746417147867374  0.4096113323701427
  0.6876370072772778  0.2329400389774153  0.6007041601814102
  0.5625200420000027  0.4807250186811391  0.4012289026763391
  0.5625200420000027  0.3873572991237614  0.5978860962193597
  0.6875305831789339  0.0385491560209539  0.5909805859316506
  0.9384595556545606  0.3289047235270299  0.3932838514437886
  0.8127586927112929  0.1751766270320460  0.4107441333518937
  0.9378935032634121  0.2326269140034429  0.6014580568715642
  0.8142055640507820  0.4809581546341687  0.3983182036817017
  0.8141001925826672  0.3839627430152391  0.6097323335710355
  0.9374856085594335  0.0382906921148443  0.5912184211883913
  0.1875601281942776  0.8295932081568005  0.3923536660930822
  0.0625199950000024  0.6755872431680782  0.4092539463926293
  0.1873963659663131  0.7335326150694310  0.5998005844993088
  0.0625199950000024  0.9809061711396656  0.4003268125706644
  0.0625199950000024  0.8845023350780512  0.6074085460523257
  0.1873350102708523  0.5392757267699914  0.5901357280725571
  0.4376515989629833  0.8295820877573330  0.3921127090234824
  0.3124950074098714  0.6753496406568050  0.4086348698735553
  0.4375711166130706  0.7327674039379338  0.5992412278179948
  0.3124671371073178  0.9808844630155108  0.4004140804399148
  0.3128994224452546  0.8841839254993232  0.6072199577216965
  0.4363714460836848  0.5396680167673498  0.5903091296252022
  0.6873884170370164  0.8295820877573330  0.3921127090234824
  0.5625200420000027  0.6745435266241243  0.4087467013366364
  0.6874688993869293  0.7327674039379338  0.5992412278179948
  0.5625200420000027  0.9812126247597889  0.4000421229412692
  0.5625200420000027  0.8840930501733145  0.6072083883386881
  0.6886685699163154  0.5396680167673498  0.5903091296252022
  0.9374798708057244  0.8295932081568005  0.3923536660930822
  0.8125450425901318  0.6753496406568050  0.4086348698735553
  0.9376436330336888  0.7335326150694310  0.5998005844993088
  0.8125729128926847  0.9808844630155108  0.4004140804399148
  0.8121406275547484  0.8841839254993232  0.6072199577216965
  0.9377049887291493  0.5392757267699914  0.5901357280725571
  0.5625299699999999  0.3887090367663377  0.6950005350136348
 
  0.00000000E+00  0.00000000E+00  0.00000000E+00
  0.00000000E+00  0.00000000E+00  0.00000000E+00
  0.00000000E+00  0.00000000E+00  0.00000000E+00
  0.00000000E+00  0.00000000E+00  0.00000000E+00
  0.00000000E+00  0.00000000E+00  0.00000000E+00
  0.00000000E+00  0.00000000E+00  0.00000000E+00
  0.00000000E+00  0.00000000E+00  0.00000000E+00
  0.00000000E+00  0.00000000E+00  0.00000000E+00
  0.00000000E+00  0.00000000E+00  0.00000000E+00
  0.00000000E+00  0.00000000E+00  0.00000000E+00
  0.00000000E+00  0.00000000E+00  0.00000000E+00
  0.00000000E+00  0.00000000E+00  0.00000000E+00
  0.00000000E+00  0.00000000E+00  0.00000000E+00
  0.00000000E+00  0.00000000E+00  0.00000000E+00
  0.00000000E+00  0.00000000E+00  0.00000000E+00
  0.00000000E+00  0.00000000E+00  0.00000000E+00
  0.00000000E+00  0.00000000E+00  0.00000000E+00
  0.00000000E+00  0.00000000E+00  0.00000000E+00
  0.00000000E+00  0.00000000E+00  0.00000000E+00
  0.00000000E+00  0.00000000E+00  0.00000000E+00
  0.00000000E+00  0.00000000E+00  0.00000000E+00
  0.00000000E+00  0.00000000E+00  0.00000000E+00
  0.00000000E+00  0.00000000E+00  0.00000000E+00
  0.00000000E+00  0.00000000E+00  0.00000000E+00
  0.00000000E+00  0.00000000E+00  0.00000000E+00
  0.00000000E+00  0.00000000E+00  0.00000000E+00
  0.00000000E+00  0.00000000E+00  0.00000000E+00
  0.00000000E+00  0.00000000E+00  0.00000000E+00
  0.00000000E+00  0.00000000E+00  0.00000000E+00
  0.00000000E+00  0.00000000E+00  0.00000000E+00
  0.00000000E+00  0.00000000E+00  0.00000000E+00
  0.00000000E+00  0.00000000E+00  0.00000000E+00
  0.00000000E+00  0.00000000E+00  0.00000000E+00
  0.00000000E+00  0.00000000E+00  0.00000000E+00
  0.00000000E+00  0.00000000E+00  0.00000000E+00
  0.00000000E+00  0.00000000E+00  0.00000000E+00
  0.00000000E+00  0.00000000E+00  0.00000000E+00
  0.00000000E+00  0.00000000E+00  0.00000000E+00
  0.00000000E+00  0.00000000E+00  0.00000000E+00
  0.00000000E+00  0.00000000E+00  0.00000000E+00
  0.00000000E+00  0.00000000E+00  0.00000000E+00
  0.00000000E+00  0.00000000E+00  0.00000000E+00
  0.00000000E+00  0.00000000E+00  0.00000000E+00
  0.00000000E+00  0.00000000E+00  0.00000000E+00
  0.00000000E+00  0.00000000E+00  0.00000000E+00
  0.00000000E+00  0.00000000E+00  0.00000000E+00
  0.00000000E+00  0.00000000E+00  0.00000000E+00
  0.00000000E+00  0.00000000E+00  0.00000000E+00
  0.00000000E+00  0.00000000E+00  0.00000000E+00
  0.00000000E+00  0.00000000E+00  0.00000000E+00
  0.00000000E+00  0.00000000E+00  0.00000000E+00
  0.00000000E+00  0.00000000E+00  0.00000000E+00
  0.00000000E+00  0.00000000E+00  0.00000000E+00
  0.00000000E+00  0.00000000E+00  0.00000000E+00
  0.00000000E+00  0.00000000E+00  0.00000000E+00
  0.00000000E+00  0.00000000E+00  0.00000000E+00
  0.00000000E+00  0.00000000E+00  0.00000000E+00
  0.00000000E+00  0.00000000E+00  0.00000000E+00
  0.00000000E+00  0.00000000E+00  0.00000000E+00
  0.00000000E+00  0.00000000E+00  0.00000000E+00
  0.00000000E+00  0.00000000E+00  0.00000000E+00
  0.00000000E+00  0.00000000E+00  0.00000000E+00
  0.00000000E+00  0.00000000E+00  0.00000000E+00
  0.00000000E+00  0.00000000E+00  0.00000000E+00
  0.00000000E+00  0.00000000E+00  0.00000000E+00
  0.00000000E+00  0.00000000E+00  0.00000000E+00
  0.00000000E+00  0.00000000E+00  0.00000000E+00
  0.00000000E+00  0.00000000E+00  0.00000000E+00
  0.00000000E+00  0.00000000E+00  0.00000000E+00
  0.00000000E+00  0.00000000E+00  0.00000000E+00
  0.00000000E+00  0.00000000E+00  0.00000000E+00
  0.00000000E+00  0.00000000E+00  0.00000000E+00
  0.00000000E+00  0.00000000E+00  0.00000000E+00
  0.00000000E+00  0.00000000E+00  0.00000000E+00
  0.00000000E+00  0.00000000E+00  0.00000000E+00
  0.00000000E+00  0.00000000E+00  0.00000000E+00
  0.00000000E+00  0.00000000E+00  0.00000000E+00
  0.00000000E+00  0.00000000E+00  0.00000000E+00
  0.00000000E+00  0.00000000E+00  0.00000000E+00
  0.00000000E+00  0.00000000E+00  0.00000000E+00
  0.00000000E+00  0.00000000E+00  0.00000000E+00
