CONTCAR\(4)                             
   1.00000000000000     
    11.6593999863000004    0.0000000000000000    0.0000000000000000
    -5.8296999931000002   10.0973365810000004    0.0000000000000000
     0.0000000000000000    0.0000000000000000   24.5373001098999985
   Zn   In   S    O    H 
     9    18    36     2     1
Direct
  0.1102359333051965  0.2195705601388582  0.3249141086298002
  0.4433048242163593  0.2197517630355746  0.3249327274771092
  0.7769424477549126  0.2200463375146886  0.3244386390976153
  0.1103588665210724  0.5529378591106793  0.3245607858381120
  0.4434069678638556  0.5528904134319340  0.3248556247844487
  0.7771590805277216  0.5531605162503086  0.3246228714141221
  0.1102519210289277  0.8864675632944242  0.3244541256866419
  0.4429234306770773  0.8861098293958428  0.3243410018369710
  0.7769212483331032  0.8862524464562177  0.3242105905535405
 -0.0027409077423245 -0.0029940799919280  0.4830554129655796
  0.2220475322614670  0.1109051975980331  0.6489491402782064
  0.3303579907911839 -0.0028145257573156  0.4831329395459374
  0.5535658925434197  0.1091630760730377  0.6443166491598751
  0.6629693499037014 -0.0044763631028638  0.4791747576295188
  0.8883243492045124  0.1082778571878750  0.6443200876213242
 -0.0022080118885305  0.3288612576232475  0.4830645986838077
  0.2216298107526980  0.4411494815562836  0.6484700690842232
  0.3312587153296658  0.3298924418221231  0.4854969232805946
  0.5525823052402029  0.4411716769420166  0.6487615916750473
  0.6640315046615760  0.3289939838565550  0.4832195981219967
  0.8876033785417361  0.4415616898749035  0.6467660795607721
 -0.0020706924204940  0.6626609048550361  0.4832614319439617
  0.2207044517729053  0.7751286015022952  0.6466645485883544
  0.3310463338353861  0.6621727354050482  0.4832022806376133
  0.5535728111728249  0.7742292174152652  0.6446979963202117
  0.6642014248236130  0.6622018194327939  0.4832130594517144
  0.8878585350783046  0.7750834699146057  0.6467507296831760
  0.2213165875551051  0.1086438970648280  0.3075162696009043
  0.2193371117536951  0.1077959331492243  0.5499928695755109
  0.1108613195648068  0.2194239724374968  0.4332872937930752
  0.1051931889038652  0.2181433982036872  0.6935684125478493
  0.5544074142903210  0.1087504323635028  0.3077461812392486
  0.5542237204620188  0.1060412753895390  0.5460899669831278
  0.4413987423918298  0.2196924263702600  0.4333404534198779
  0.4457098655246504  0.2180408642142405  0.6939166272762889
  0.8881860053453189  0.1087960099326942  0.3075377094973096
  0.8834387864997709  0.1061942182061831  0.5461313383174422
  0.7765546111377095  0.2206191651751512  0.4316954415526710
  0.7756263501700543  0.2176339804949844  0.6914523328585971
  0.2213943659423153  0.4418154276081179  0.3076632100428529
  0.2195436957865667  0.4415168859648474  0.5495638329141919
  0.1088577820938503  0.5513211860401523  0.4329757617618494
  0.1094892565152656  0.5534839824689620  0.6936982298421804
  0.5547640379830348  0.4420297085886185  0.3079611130749444
  0.5544646937795293  0.4411955834296929  0.5497753249888798
  0.4417254323937617  0.5504144734968272  0.4333415849409524
  0.4447288934309476  0.5568169271280273  0.6933139190405583
  0.8882819776846805  0.4422871527061105  0.3071644397321326
  0.8871359064376474  0.4407908117082469  0.5482844041915279
  0.7755163095590999  0.5513164219115367  0.4330678885207725
  0.7773455498891574  0.5532045597147993  0.6936931285086652
  0.2207756307760523  0.7749731945638380  0.3070541296971819
  0.2203742564315126  0.7745020839947566  0.5482207708543314
  0.1084624381458411  0.8853358151483349  0.4331185004868957
  0.1096068553976839  0.8858309424518429  0.6937626102069582
  0.5543981358320136  0.7751027176238504  0.3075952566912463
  0.5543831572751204  0.7761127693160831  0.5464011898968706
  0.4385205217954912  0.8835922886152620  0.4317926605006189
  0.4442894043770084  0.8871968389168559  0.6915816547189134
  0.8881089095059366  0.7751785894678827  0.3071848466470205
  0.8869451310410733  0.7744307068005304  0.5482709009663558
  0.7761911743132344  0.8837936788449938  0.4317567824370508
  0.7756660653052067  0.8865630823729540  0.6916280669871320
  0.3236177842948407  0.3144074891413356  0.7667743247874563
  0.3816196686833125  0.4073791533285190  0.8082940936899042
  0.3537503936406177  0.3528871208096670  0.8415979906604608
 
  0.00000000E+00  0.00000000E+00  0.00000000E+00
  0.00000000E+00  0.00000000E+00  0.00000000E+00
  0.00000000E+00  0.00000000E+00  0.00000000E+00
  0.00000000E+00  0.00000000E+00  0.00000000E+00
  0.00000000E+00  0.00000000E+00  0.00000000E+00
  0.00000000E+00  0.00000000E+00  0.00000000E+00
  0.00000000E+00  0.00000000E+00  0.00000000E+00
  0.00000000E+00  0.00000000E+00  0.00000000E+00
  0.00000000E+00  0.00000000E+00  0.00000000E+00
  0.00000000E+00  0.00000000E+00  0.00000000E+00
  0.00000000E+00  0.00000000E+00  0.00000000E+00
  0.00000000E+00  0.00000000E+00  0.00000000E+00
  0.00000000E+00  0.00000000E+00  0.00000000E+00
  0.00000000E+00  0.00000000E+00  0.00000000E+00
  0.00000000E+00  0.00000000E+00  0.00000000E+00
  0.00000000E+00  0.00000000E+00  0.00000000E+00
  0.00000000E+00  0.00000000E+00  0.00000000E+00
  0.00000000E+00  0.00000000E+00  0.00000000E+00
  0.00000000E+00  0.00000000E+00  0.00000000E+00
  0.00000000E+00  0.00000000E+00  0.00000000E+00
  0.00000000E+00  0.00000000E+00  0.00000000E+00
  0.00000000E+00  0.00000000E+00  0.00000000E+00
  0.00000000E+00  0.00000000E+00  0.00000000E+00
  0.00000000E+00  0.00000000E+00  0.00000000E+00
  0.00000000E+00  0.00000000E+00  0.00000000E+00
  0.00000000E+00  0.00000000E+00  0.00000000E+00
  0.00000000E+00  0.00000000E+00  0.00000000E+00
  0.00000000E+00  0.00000000E+00  0.00000000E+00
  0.00000000E+00  0.00000000E+00  0.00000000E+00
  0.00000000E+00  0.00000000E+00  0.00000000E+00
  0.00000000E+00  0.00000000E+00  0.00000000E+00
  0.00000000E+00  0.00000000E+00  0.00000000E+00
  0.00000000E+00  0.00000000E+00  0.00000000E+00
  0.00000000E+00  0.00000000E+00  0.00000000E+00
  0.00000000E+00  0.00000000E+00  0.00000000E+00
  0.00000000E+00  0.00000000E+00  0.00000000E+00
  0.00000000E+00  0.00000000E+00  0.00000000E+00
  0.00000000E+00  0.00000000E+00  0.00000000E+00
  0.00000000E+00  0.00000000E+00  0.00000000E+00
  0.00000000E+00  0.00000000E+00  0.00000000E+00
  0.00000000E+00  0.00000000E+00  0.00000000E+00
  0.00000000E+00  0.00000000E+00  0.00000000E+00
  0.00000000E+00  0.00000000E+00  0.00000000E+00
  0.00000000E+00  0.00000000E+00  0.00000000E+00
  0.00000000E+00  0.00000000E+00  0.00000000E+00
  0.00000000E+00  0.00000000E+00  0.00000000E+00
  0.00000000E+00  0.00000000E+00  0.00000000E+00
  0.00000000E+00  0.00000000E+00  0.00000000E+00
  0.00000000E+00  0.00000000E+00  0.00000000E+00
  0.00000000E+00  0.00000000E+00  0.00000000E+00
  0.00000000E+00  0.00000000E+00  0.00000000E+00
  0.00000000E+00  0.00000000E+00  0.00000000E+00
  0.00000000E+00  0.00000000E+00  0.00000000E+00
  0.00000000E+00  0.00000000E+00  0.00000000E+00
  0.00000000E+00  0.00000000E+00  0.00000000E+00
  0.00000000E+00  0.00000000E+00  0.00000000E+00
  0.00000000E+00  0.00000000E+00  0.00000000E+00
  0.00000000E+00  0.00000000E+00  0.00000000E+00
  0.00000000E+00  0.00000000E+00  0.00000000E+00
  0.00000000E+00  0.00000000E+00  0.00000000E+00
  0.00000000E+00  0.00000000E+00  0.00000000E+00
  0.00000000E+00  0.00000000E+00  0.00000000E+00
  0.00000000E+00  0.00000000E+00  0.00000000E+00
  0.00000000E+00  0.00000000E+00  0.00000000E+00
  0.00000000E+00  0.00000000E+00  0.00000000E+00
  0.00000000E+00  0.00000000E+00  0.00000000E+00
