 Cr1 P2 S7                              
   1.00000000000000     
     6.3242477126945493    0.0000000000000000    0.0000000000000000
    -0.6335421531182733    6.2980651930018059    0.0000000000000000
     0.0000000000000000    0.0000000000000000   18.5199498743640021
   Cr   P    S 
     1     2     7
Direct
  0.5068438079470923  0.4929804679159133  0.5000013894769282
  0.9619374769556046  0.6615305107797127  0.4729949071900137
  0.3385784329435921  0.0380405273277873  0.5270256225603305
  0.8396817760788053  0.4919365076426843  0.5595413565989560
  0.4510014874806032  0.7876351319224497  0.5772487361721872
  0.7085458386854242  0.6568940150359097  0.4048392081706140
  0.0102141161860274  0.9896354813370394  0.4999890825713749
  0.3430826611985509  0.2913502329006761  0.5951483546358602
  0.2124378918010521  0.5490285093755887  0.4227337253379915
  0.5081775107232502  0.1604676157622364  0.4404776172857368
 
  0.00000000E+00  0.00000000E+00  0.00000000E+00
  0.00000000E+00  0.00000000E+00  0.00000000E+00
  0.00000000E+00  0.00000000E+00  0.00000000E+00
  0.00000000E+00  0.00000000E+00  0.00000000E+00
  0.00000000E+00  0.00000000E+00  0.00000000E+00
  0.00000000E+00  0.00000000E+00  0.00000000E+00
  0.00000000E+00  0.00000000E+00  0.00000000E+00
  0.00000000E+00  0.00000000E+00  0.00000000E+00
  0.00000000E+00  0.00000000E+00  0.00000000E+00
  0.00000000E+00  0.00000000E+00  0.00000000E+00
