CONTCAR\(16)                            
   1.00000000000000     
    13.7772998809999994    0.0000000000000000    0.0000000000000000
    -0.9002177756999999   20.5238668944999993    0.0000000000000000
     0.0000000000000000    0.0000000000000000   22.2061004639000004
   Cu   Se   O 
    36    36   108
Direct
  0.1664933749469384  0.0449977510243684  0.5103938715888887
  0.3087495427531337  0.0240502023097733  0.6376857523568304
  0.3176018367616109  0.4179461748221343  0.5000511953362192
  0.1352146008384807  0.2907097914941872  0.4895475228777570
  0.3176357425551757  0.1679904463122313  0.4998007772235411
  0.3264180779206782  0.3119188599810627  0.3623374445534111
  0.4996341272851978  0.0449457229343579  0.5101627770665900
  0.6419341299931389  0.0238979517261271  0.6375365101171511
  0.6509243483914560  0.4179542213477205  0.5001536651097283
  0.4685263168568099  0.2906148694126145  0.4895853653238476
  0.6508146413543514  0.1678696105962274  0.4999403423120938
  0.6597849167338481  0.3120544287265758  0.3624612915514831
  0.8330166362940119  0.0450066661048467  0.5103485712769640
  0.9753373663153724  0.0240412791245177  0.6375594416332646
  0.9839196178336351  0.4179802712386191  0.5003650296559528
  0.8018431184016279  0.2906238972406925  0.4898175264003584
  0.9843601043458747  0.1678882607975893  0.4999461692091245
  0.9929272524452202  0.3118688141927564  0.3624479065190656
  0.1664998307839625  0.5450265645971584  0.5106732135987713
  0.3087227599830200  0.5240038987407587  0.6377254804438834
  0.3175161824918717  0.9178833083509446  0.4999845044858162
  0.1351644391699267  0.7906610723868681  0.4895037601128465
  0.3175288377149741  0.6679397573190755  0.4998731047979419
  0.3265174276201819  0.8118277443707953  0.3623413465654721
  0.4997136947300405  0.5450278934929216  0.5102357564418298
  0.6422496449758768  0.5239016986795946  0.6375186655832010
  0.6508087114514325  0.9178638676855329  0.5000851898289795
  0.4685601699175521  0.7906018019215892  0.4896543646716651
  0.6506967087457340  0.6678494704643256  0.4998149673957855
  0.6597903596651946  0.8120347685238158  0.3624916989251830
  0.8330369150316344  0.5459404231175355  0.5100500173530165
  0.9754102567511040  0.5239589295181943  0.6378794272976052
  0.9842816846746771  0.9179215435435140  0.5001274171528820
  0.8018728541888862  0.7906063486380788  0.4898076381895038
  0.9843637179390470  0.6680491291034016  0.4999551326479903
  0.9929789746371114  0.8118812491348137  0.3623561211915600
  0.1227083047625399  0.4227243589388010  0.6186799528673959
  0.1315575828670887  0.1351240751886067  0.6096921309921726
  0.1793545465143893  0.4131898341473672  0.3816650733688149
  0.3340846978232435  0.0424359809349539  0.4104329260206541
  0.1704276725831022  0.2008145428422452  0.3900808003607708
  0.3006786404931177  0.2933429226931992  0.5893397006207479
  0.4558216239459369  0.4227671678924452  0.6184946968916947
  0.4648255238168701  0.1349768482058096  0.6095150551889930
  0.5125398789769378  0.4131610388400091  0.3817328985857174
  0.6676415937529541  0.0422723733455612  0.4104781761016056
  0.5037227220175282  0.2008370170454086  0.3901082453889089
  0.6337276634804851  0.2932869754183542  0.5895223111600743
  0.7893162749864615  0.4225970334369080  0.6183680267047862
  0.7978461685333755  0.1349415213032472  0.6098365195303259
  0.8460018718872107  0.4132057375509390  0.3818665859788055
  0.0010902844220411  0.0424121889030573  0.4105357200786699
  0.8367172235231592  0.2007529015515388  0.3903914748479380
  0.9673911817105889  0.2931436143540083  0.5895294853884678
  0.1225812452010686  0.9227362568060187  0.6185528654475831
  0.1310694278307452  0.6351269590485984  0.6098280550240318
  0.1794757226581538  0.9131017444113425  0.3815826638909456
  0.3340615648482270  0.5424229750494192  0.4105754415028287
  0.1705205413408635  0.7007690712063024  0.3900578531612098
  0.3004572327773118  0.7933082342804454  0.5893501442459623
  0.4557436117834825  0.9227817593884922  0.6184760554724136
  0.4647539763461666  0.6350263234795364  0.6095356681500377
  0.5125308654192295  0.9130941542665028  0.3817250566138171
  0.6675081426769864  0.5423149465185233  0.4103994892104481
  0.5037323151637310  0.7007672336008639  0.3900721391353841
  0.6337912654524374  0.7932043511274713  0.5894684630426497
  0.7891897729906958  0.9226497003044400  0.6184121084519703
  0.7983638751409856  0.6348761686701678  0.6096969512119159
  0.8459828306623152  0.9131838025730801  0.3818161737702113
  0.0010646624203403  0.5424345104117378  0.4107949349713849
  0.8366520385477614  0.7008068875771372  0.3902788447136913
  0.9673517328318155  0.7932783248682753  0.5895385016196073
  0.2861863030102043  0.0067967423710869  0.4783584878865526
  0.0844373520999611  0.1170914984941547  0.5360340863571551
  0.0833145944602336  0.4784566565853865  0.6699453762723451
  0.1794384852432032  0.2962168919798103  0.5740506935360798
  0.3227086487936006  0.2126555544013087  0.5767400039523523
  0.2122747428084679  0.0709833223099707  0.5933926311130193
  0.1223081307316392  0.0396161762515419  0.4258226724635321
  0.2468893002651882  0.4392169026525892  0.6189753160825475
  0.2178226015910809  0.2189022693872218  0.4636288573900700
  0.0907953345125918  0.4571983851201153  0.5485638787013940
  0.0461483225111934  0.1042619637964322  0.6580081734539220
  0.2556256032444466  0.2317384775727973  0.3416618731205645
  0.0551854821446227  0.3966843352609359  0.3809401047340657
  0.2109345385482015  0.3785075514235530  0.4516939934543345
  0.0895323970413102  0.2648300687197960  0.4065269566153589
  0.0153979351865061  0.3289129511729811  0.5217008759730533
  0.2188266096852658  0.3575053744443082  0.3302769500727720
  0.3119973106367766  0.1231142748796543  0.4229602813388453
  0.6195087409685058  0.0067280315047000  0.4783730854787294
  0.4174834718436102  0.1169842242657211  0.5359402029735350
  0.4170456160435521  0.4787589798886174  0.6697525710317578
  0.5125099388836958  0.2958892655158891  0.5741577956417032
  0.6561207509185536  0.2126369405935478  0.5768694542511454
  0.5455879205420686  0.0708924416611367  0.5931640168500820
  0.4553603900531016  0.0396173154332899  0.4256114877972834
  0.5800339412522177  0.4389199638244961  0.6188107846720072
  0.5508462169568062  0.2186958239631025  0.4637793176643399
  0.4239412238282085  0.4574080806141865  0.5484057765723662
  0.3794462682848021  0.1042479999521788  0.6579490923724052
  0.5892807352621929  0.2317552593018277  0.3418980923429729
  0.3884019188029129  0.3966944202835094  0.3811984152480576
  0.5443711904189996  0.3784883430400328  0.4517064832311348
  0.4227723589696950  0.2647689330636140  0.4065349931557876
  0.3489124694651480  0.3289828704946771  0.5215229741862686
  0.5517219781459275  0.3573603497279692  0.3303686791256126
  0.6454021164715158  0.1229391067551333  0.4230513341941347
  0.9529015265985947  0.0067993973775060  0.4784274253527130
  0.7505776318816970  0.1169276520611788  0.5362098251447520
  0.7500252950820894  0.4784527003468924  0.6696616764812831
  0.8461101288609711  0.2956352580172492  0.5743298933064906
  0.9900758209526046  0.2125364565782277  0.5768872660673807
  0.8787662398217577  0.0709911231301703  0.5933754201521850
  0.7889000784318725  0.0395830582975023  0.4257763244874866
  0.9134721936544636  0.4391133778666401  0.6184252664037686
  0.8840229030049827  0.2185639263888461  0.4640160384054610
  0.7575465059138651  0.4571591669432920  0.5483016913464240
  0.7124927060558406  0.1040876511788227  0.6581940339524195
  0.9220902697193551  0.2316344809790607  0.3420677608187006
  0.7217374074855698  0.3968802137872274  0.3812020190548324
  0.8776622161630883  0.3784823121119132  0.4518469006059576
  0.7560303266757415  0.2648571817292265  0.4068126992756760
  0.6820362951288388  0.3289733554462231  0.5217597282791289
  0.8850591923064357  0.3573246901082783  0.3305105065674283
  0.9787972488444794  0.1230462607055571  0.4230800847713283
  0.2861853907968950  0.5068502265014345  0.4784932774017250
  0.0840197043201840  0.6170946561216368  0.5361520445702013
  0.0830605281868628  0.9785650428100965  0.6697553705261683
  0.1792207502453707  0.7961805467243579  0.5740518503425776
  0.3225490268406404  0.7126330153077589  0.5767786653272253
  0.2121491508849189  0.5712691964581680  0.5935543951810942
  0.1222679965305176  0.5394374361259295  0.4261670241523063
  0.2467628445626318  0.9391694694378572  0.6192741447105305
  0.2178004003859826  0.7188454701373459  0.4636550555959857
  0.0910970074068302  0.9572133949739197  0.5483863536047764
  0.0455195872583900  0.6042528189609158  0.6581288075631235
  0.2558654689532531  0.7316532926895931  0.3417070907633715
  0.0552853520545327  0.8966972472655783  0.3808608835715006
  0.2109423838261648  0.8784183298672303  0.4516561549439686
  0.0896288739438376  0.7647612077609764  0.4064522318164592
  0.0153652510193325  0.8288943383745675  0.5216423191238135
  0.2188360884047782  0.8573608839734845  0.3302365534700868
  0.3120121712587149  0.6231211108154540  0.4230117147718033
  0.6196820751123866  0.5068505717721976  0.4783856319589788
  0.4172740176889178  0.6169178810364215  0.5359562329441800
  0.4168000728530927  0.9787313304977019  0.6697567044191572
  0.5125399556721248  0.7960319104871374  0.5742615060646088
  0.6558726736239038  0.7125472249459150  0.5767023732046397
  0.5456890317678074  0.5711157155118514  0.5931737484271835
  0.4553804949882334  0.5396522853163361  0.4257597418677506
  0.5799479088076538  0.9390739147506721  0.6188233586252281
  0.5506674873128645  0.7185820875154150  0.4638906399841218
  0.4238328194729277  0.9573272084086426  0.5484053678975513
  0.3795947132015129  0.6042562150191415  0.6580568370575861
  0.5893415985505115  0.7317375667720967  0.3419413765068455
  0.3884028353283995  0.8965831404011411  0.3812040991459327
  0.5443298430711678  0.8783787285693734  0.4517104247509423
  0.4229558687189368  0.7648145645213233  0.4066236759469533
  0.3488063096841785  0.8289296410788936  0.5215614545479283
  0.5517844854898897  0.8573078475162603  0.3303681825097371
  0.6452202988838636  0.6230528360054066  0.4230036379293765
  0.9526615296303049  0.5070345578413082  0.4786681315260637
  0.7506474201557936  0.6167780498795068  0.5361855330332546
  0.7498033393212253  0.9784667704000327  0.6696836530995327
  0.8460613297516772  0.7957743556382439  0.5743754460239927
  0.9898961836299804  0.7126664548515436  0.5769322997452448
  0.8790122200085051  0.5704195010339248  0.5928895692948686
  0.7888161143799763  0.5398516875202972  0.4253743795291811
  0.9133443835501609  0.9391289879854909  0.6189531842877685
  0.8839151683503417  0.7185532285115031  0.4639547849681804
  0.7573877698740716  0.9572701636235195  0.5483798487473734
  0.7131350097653524  0.6042474665678483  0.6581296775028207
  0.9220514966870752  0.7316603913909461  0.3419703014601367
  0.7217064135219857  0.8968253292819242  0.3813141886287283
  0.8777809522471927  0.8784412640684138  0.4517792791864466
  0.7560278617734610  0.7649489223040646  0.4068033285444059
  0.6820521628610337  0.8289184837815071  0.5217117597008070
  0.8849853541961323  0.8573479639782988  0.3304472785334340
  0.9790568742910821  0.6231629089921498  0.4231084126727680
 
  0.00000000E+00  0.00000000E+00  0.00000000E+00
  0.00000000E+00  0.00000000E+00  0.00000000E+00
  0.00000000E+00  0.00000000E+00  0.00000000E+00
  0.00000000E+00  0.00000000E+00  0.00000000E+00
  0.00000000E+00  0.00000000E+00  0.00000000E+00
  0.00000000E+00  0.00000000E+00  0.00000000E+00
  0.00000000E+00  0.00000000E+00  0.00000000E+00
  0.00000000E+00  0.00000000E+00  0.00000000E+00
  0.00000000E+00  0.00000000E+00  0.00000000E+00
  0.00000000E+00  0.00000000E+00  0.00000000E+00
  0.00000000E+00  0.00000000E+00  0.00000000E+00
  0.00000000E+00  0.00000000E+00  0.00000000E+00
  0.00000000E+00  0.00000000E+00  0.00000000E+00
  0.00000000E+00  0.00000000E+00  0.00000000E+00
  0.00000000E+00  0.00000000E+00  0.00000000E+00
  0.00000000E+00  0.00000000E+00  0.00000000E+00
  0.00000000E+00  0.00000000E+00  0.00000000E+00
  0.00000000E+00  0.00000000E+00  0.00000000E+00
  0.00000000E+00  0.00000000E+00  0.00000000E+00
  0.00000000E+00  0.00000000E+00  0.00000000E+00
  0.00000000E+00  0.00000000E+00  0.00000000E+00
  0.00000000E+00  0.00000000E+00  0.00000000E+00
  0.00000000E+00  0.00000000E+00  0.00000000E+00
  0.00000000E+00  0.00000000E+00  0.00000000E+00
  0.00000000E+00  0.00000000E+00  0.00000000E+00
  0.00000000E+00  0.00000000E+00  0.00000000E+00
  0.00000000E+00  0.00000000E+00  0.00000000E+00
  0.00000000E+00  0.00000000E+00  0.00000000E+00
  0.00000000E+00  0.00000000E+00  0.00000000E+00
  0.00000000E+00  0.00000000E+00  0.00000000E+00
  0.00000000E+00  0.00000000E+00  0.00000000E+00
  0.00000000E+00  0.00000000E+00  0.00000000E+00
  0.00000000E+00  0.00000000E+00  0.00000000E+00
  0.00000000E+00  0.00000000E+00  0.00000000E+00
  0.00000000E+00  0.00000000E+00  0.00000000E+00
  0.00000000E+00  0.00000000E+00  0.00000000E+00
  0.00000000E+00  0.00000000E+00  0.00000000E+00
  0.00000000E+00  0.00000000E+00  0.00000000E+00
  0.00000000E+00  0.00000000E+00  0.00000000E+00
  0.00000000E+00  0.00000000E+00  0.00000000E+00
  0.00000000E+00  0.00000000E+00  0.00000000E+00
  0.00000000E+00  0.00000000E+00  0.00000000E+00
  0.00000000E+00  0.00000000E+00  0.00000000E+00
  0.00000000E+00  0.00000000E+00  0.00000000E+00
  0.00000000E+00  0.00000000E+00  0.00000000E+00
  0.00000000E+00  0.00000000E+00  0.00000000E+00
  0.00000000E+00  0.00000000E+00  0.00000000E+00
  0.00000000E+00  0.00000000E+00  0.00000000E+00
  0.00000000E+00  0.00000000E+00  0.00000000E+00
  0.00000000E+00  0.00000000E+00  0.00000000E+00
  0.00000000E+00  0.00000000E+00  0.00000000E+00
  0.00000000E+00  0.00000000E+00  0.00000000E+00
  0.00000000E+00  0.00000000E+00  0.00000000E+00
  0.00000000E+00  0.00000000E+00  0.00000000E+00
  0.00000000E+00  0.00000000E+00  0.00000000E+00
  0.00000000E+00  0.00000000E+00  0.00000000E+00
  0.00000000E+00  0.00000000E+00  0.00000000E+00
  0.00000000E+00  0.00000000E+00  0.00000000E+00
  0.00000000E+00  0.00000000E+00  0.00000000E+00
  0.00000000E+00  0.00000000E+00  0.00000000E+00
  0.00000000E+00  0.00000000E+00  0.00000000E+00
  0.00000000E+00  0.00000000E+00  0.00000000E+00
  0.00000000E+00  0.00000000E+00  0.00000000E+00
  0.00000000E+00  0.00000000E+00  0.00000000E+00
  0.00000000E+00  0.00000000E+00  0.00000000E+00
  0.00000000E+00  0.00000000E+00  0.00000000E+00
  0.00000000E+00  0.00000000E+00  0.00000000E+00
  0.00000000E+00  0.00000000E+00  0.00000000E+00
  0.00000000E+00  0.00000000E+00  0.00000000E+00
  0.00000000E+00  0.00000000E+00  0.00000000E+00
  0.00000000E+00  0.00000000E+00  0.00000000E+00
  0.00000000E+00  0.00000000E+00  0.00000000E+00
  0.00000000E+00  0.00000000E+00  0.00000000E+00
  0.00000000E+00  0.00000000E+00  0.00000000E+00
  0.00000000E+00  0.00000000E+00  0.00000000E+00
  0.00000000E+00  0.00000000E+00  0.00000000E+00
  0.00000000E+00  0.00000000E+00  0.00000000E+00
  0.00000000E+00  0.00000000E+00  0.00000000E+00
  0.00000000E+00  0.00000000E+00  0.00000000E+00
  0.00000000E+00  0.00000000E+00  0.00000000E+00
  0.00000000E+00  0.00000000E+00  0.00000000E+00
  0.00000000E+00  0.00000000E+00  0.00000000E+00
  0.00000000E+00  0.00000000E+00  0.00000000E+00
  0.00000000E+00  0.00000000E+00  0.00000000E+00
  0.00000000E+00  0.00000000E+00  0.00000000E+00
  0.00000000E+00  0.00000000E+00  0.00000000E+00
  0.00000000E+00  0.00000000E+00  0.00000000E+00
  0.00000000E+00  0.00000000E+00  0.00000000E+00
  0.00000000E+00  0.00000000E+00  0.00000000E+00
  0.00000000E+00  0.00000000E+00  0.00000000E+00
  0.00000000E+00  0.00000000E+00  0.00000000E+00
  0.00000000E+00  0.00000000E+00  0.00000000E+00
  0.00000000E+00  0.00000000E+00  0.00000000E+00
  0.00000000E+00  0.00000000E+00  0.00000000E+00
  0.00000000E+00  0.00000000E+00  0.00000000E+00
  0.00000000E+00  0.00000000E+00  0.00000000E+00
  0.00000000E+00  0.00000000E+00  0.00000000E+00
  0.00000000E+00  0.00000000E+00  0.00000000E+00
  0.00000000E+00  0.00000000E+00  0.00000000E+00
  0.00000000E+00  0.00000000E+00  0.00000000E+00
  0.00000000E+00  0.00000000E+00  0.00000000E+00
  0.00000000E+00  0.00000000E+00  0.00000000E+00
  0.00000000E+00  0.00000000E+00  0.00000000E+00
  0.00000000E+00  0.00000000E+00  0.00000000E+00
  0.00000000E+00  0.00000000E+00  0.00000000E+00
  0.00000000E+00  0.00000000E+00  0.00000000E+00
  0.00000000E+00  0.00000000E+00  0.00000000E+00
  0.00000000E+00  0.00000000E+00  0.00000000E+00
  0.00000000E+00  0.00000000E+00  0.00000000E+00
  0.00000000E+00  0.00000000E+00  0.00000000E+00
  0.00000000E+00  0.00000000E+00  0.00000000E+00
  0.00000000E+00  0.00000000E+00  0.00000000E+00
  0.00000000E+00  0.00000000E+00  0.00000000E+00
  0.00000000E+00  0.00000000E+00  0.00000000E+00
  0.00000000E+00  0.00000000E+00  0.00000000E+00
  0.00000000E+00  0.00000000E+00  0.00000000E+00
  0.00000000E+00  0.00000000E+00  0.00000000E+00
  0.00000000E+00  0.00000000E+00  0.00000000E+00
  0.00000000E+00  0.00000000E+00  0.00000000E+00
  0.00000000E+00  0.00000000E+00  0.00000000E+00
  0.00000000E+00  0.00000000E+00  0.00000000E+00
  0.00000000E+00  0.00000000E+00  0.00000000E+00
  0.00000000E+00  0.00000000E+00  0.00000000E+00
  0.00000000E+00  0.00000000E+00  0.00000000E+00
  0.00000000E+00  0.00000000E+00  0.00000000E+00
  0.00000000E+00  0.00000000E+00  0.00000000E+00
  0.00000000E+00  0.00000000E+00  0.00000000E+00
  0.00000000E+00  0.00000000E+00  0.00000000E+00
  0.00000000E+00  0.00000000E+00  0.00000000E+00
  0.00000000E+00  0.00000000E+00  0.00000000E+00
  0.00000000E+00  0.00000000E+00  0.00000000E+00
  0.00000000E+00  0.00000000E+00  0.00000000E+00
  0.00000000E+00  0.00000000E+00  0.00000000E+00
  0.00000000E+00  0.00000000E+00  0.00000000E+00
  0.00000000E+00  0.00000000E+00  0.00000000E+00
  0.00000000E+00  0.00000000E+00  0.00000000E+00
  0.00000000E+00  0.00000000E+00  0.00000000E+00
  0.00000000E+00  0.00000000E+00  0.00000000E+00
  0.00000000E+00  0.00000000E+00  0.00000000E+00
  0.00000000E+00  0.00000000E+00  0.00000000E+00
  0.00000000E+00  0.00000000E+00  0.00000000E+00
  0.00000000E+00  0.00000000E+00  0.00000000E+00
  0.00000000E+00  0.00000000E+00  0.00000000E+00
  0.00000000E+00  0.00000000E+00  0.00000000E+00
  0.00000000E+00  0.00000000E+00  0.00000000E+00
  0.00000000E+00  0.00000000E+00  0.00000000E+00
  0.00000000E+00  0.00000000E+00  0.00000000E+00
  0.00000000E+00  0.00000000E+00  0.00000000E+00
  0.00000000E+00  0.00000000E+00  0.00000000E+00
  0.00000000E+00  0.00000000E+00  0.00000000E+00
  0.00000000E+00  0.00000000E+00  0.00000000E+00
  0.00000000E+00  0.00000000E+00  0.00000000E+00
  0.00000000E+00  0.00000000E+00  0.00000000E+00
  0.00000000E+00  0.00000000E+00  0.00000000E+00
  0.00000000E+00  0.00000000E+00  0.00000000E+00
  0.00000000E+00  0.00000000E+00  0.00000000E+00
  0.00000000E+00  0.00000000E+00  0.00000000E+00
  0.00000000E+00  0.00000000E+00  0.00000000E+00
  0.00000000E+00  0.00000000E+00  0.00000000E+00
  0.00000000E+00  0.00000000E+00  0.00000000E+00
  0.00000000E+00  0.00000000E+00  0.00000000E+00
  0.00000000E+00  0.00000000E+00  0.00000000E+00
  0.00000000E+00  0.00000000E+00  0.00000000E+00
  0.00000000E+00  0.00000000E+00  0.00000000E+00
  0.00000000E+00  0.00000000E+00  0.00000000E+00
  0.00000000E+00  0.00000000E+00  0.00000000E+00
  0.00000000E+00  0.00000000E+00  0.00000000E+00
  0.00000000E+00  0.00000000E+00  0.00000000E+00
  0.00000000E+00  0.00000000E+00  0.00000000E+00
  0.00000000E+00  0.00000000E+00  0.00000000E+00
  0.00000000E+00  0.00000000E+00  0.00000000E+00
  0.00000000E+00  0.00000000E+00  0.00000000E+00
  0.00000000E+00  0.00000000E+00  0.00000000E+00
  0.00000000E+00  0.00000000E+00  0.00000000E+00
  0.00000000E+00  0.00000000E+00  0.00000000E+00
  0.00000000E+00  0.00000000E+00  0.00000000E+00
  0.00000000E+00  0.00000000E+00  0.00000000E+00
  0.00000000E+00  0.00000000E+00  0.00000000E+00
  0.00000000E+00  0.00000000E+00  0.00000000E+00
  0.00000000E+00  0.00000000E+00  0.00000000E+00
