 Cu6 Se6 O18                            
   1.00000000000000     
     4.5924309975526194    0.0000000000000000    0.0000000000000000
    -0.4501113861679590   10.2619559027582490    0.0000000000000000
     0.0000000000000000    0.0000000000000000   22.2060600790760034
   Cu   Se   O 
     6     6    18
Direct
  0.4983798610816647  0.0907386911425332  0.5085955134436784
  0.9302207174145352  0.0497572169208699  0.6357689324844554
  0.9525550633294568  0.8357732563656691  0.4999934223858916
  0.4067103189932181  0.5808030260275980  0.4914095421018729
  0.9525773802926862  0.3357868675649104  0.4999994560794990
  0.9748448387327832  0.6218067206232362  0.3642401101791258
  0.3705193207748451  0.8473174389423711  0.6168876444634350
  0.3983590614296925  0.2713325549466300  0.6082313584013663
  0.5346414507199251  0.8242514289902471  0.3830988896197139
  0.9978130633042871  0.0851002035183837  0.4091145092397451
  0.5067522034925074  0.4002237049219115  0.3917819432520688
  0.9073121868162358  0.5864678567277455  0.5908791066607689
  0.8537809761023178  0.0121151428198076  0.4766202912536713
  0.2534588948127354  0.2342323517114233  0.5349507239676171
  0.2531005421161450  0.9587058406189153  0.6682694446296277
  0.5433748379773096  0.5912675589171359  0.5759444486341864
  0.9763255675727588  0.4258444050546611  0.5770175030281904
  0.6419988598944429  0.1438559107284670  0.5913769636461313
  0.3617440847690261  0.0803153152154880  0.4240484632631862
  0.7430210442201383  0.8803775683977203  0.6167749301944477
  0.6517214688398312  0.4373701408958837  0.4650546252869355
  0.2726792242101242  0.9170740489736969  0.5470282923457606
  0.1439001759437002  0.2093594864732142  0.6568691640305663
  0.7611055546601134  0.4622125403266152  0.3431340278442723
  0.1621077275833396  0.7911989580390661  0.3832177783285071
  0.6323941796416157  0.7544928145148876  0.4529679706332405
  0.2630466552688840  0.5277029120613826  0.4086420043911196
  0.0513432404801349  0.6594435068383471  0.5233727209082855
  0.6519872108220782  0.7128326614706819  0.3317243411761803
  0.9287282887034760  0.2457178702504854  0.4229858781264526
 
  0.00000000E+00  0.00000000E+00  0.00000000E+00
  0.00000000E+00  0.00000000E+00  0.00000000E+00
  0.00000000E+00  0.00000000E+00  0.00000000E+00
  0.00000000E+00  0.00000000E+00  0.00000000E+00
  0.00000000E+00  0.00000000E+00  0.00000000E+00
  0.00000000E+00  0.00000000E+00  0.00000000E+00
  0.00000000E+00  0.00000000E+00  0.00000000E+00
  0.00000000E+00  0.00000000E+00  0.00000000E+00
  0.00000000E+00  0.00000000E+00  0.00000000E+00
  0.00000000E+00  0.00000000E+00  0.00000000E+00
  0.00000000E+00  0.00000000E+00  0.00000000E+00
  0.00000000E+00  0.00000000E+00  0.00000000E+00
  0.00000000E+00  0.00000000E+00  0.00000000E+00
  0.00000000E+00  0.00000000E+00  0.00000000E+00
  0.00000000E+00  0.00000000E+00  0.00000000E+00
  0.00000000E+00  0.00000000E+00  0.00000000E+00
  0.00000000E+00  0.00000000E+00  0.00000000E+00
  0.00000000E+00  0.00000000E+00  0.00000000E+00
  0.00000000E+00  0.00000000E+00  0.00000000E+00
  0.00000000E+00  0.00000000E+00  0.00000000E+00
  0.00000000E+00  0.00000000E+00  0.00000000E+00
  0.00000000E+00  0.00000000E+00  0.00000000E+00
  0.00000000E+00  0.00000000E+00  0.00000000E+00
  0.00000000E+00  0.00000000E+00  0.00000000E+00
  0.00000000E+00  0.00000000E+00  0.00000000E+00
  0.00000000E+00  0.00000000E+00  0.00000000E+00
  0.00000000E+00  0.00000000E+00  0.00000000E+00
  0.00000000E+00  0.00000000E+00  0.00000000E+00
  0.00000000E+00  0.00000000E+00  0.00000000E+00
  0.00000000E+00  0.00000000E+00  0.00000000E+00
