CONTCAR\(3)                             
   1.00000000000000     
    14.0806999207000008    0.0000000000000000    0.0000000000000000
     0.0000000000000000   14.0806999207000008    0.0000000000000000
     0.0000000000000000    0.0000000000000000   21.7056999206999990
   Zr   Si   Se
    32    32    32
Direct
  0.1250000000000000  0.0000000000000000  0.5998079624897343
  0.0000000000000000  0.1250000000000000  0.4001920375102657
  0.3750000000000000  0.0000000000000000  0.5998079624897343
  0.2500000000000000  0.1250000000000000  0.4001920375102657
  0.6250000340000028  0.0000000000000000  0.5998079624897343
  0.5000000000000000  0.1250000000000000  0.4001920375102657
  0.8749999659999972  0.0000000000000000  0.5998079624897343
  0.7500000000000000  0.1250000000000000  0.4001920375102657
  0.1250000000000000  0.2500000000000000  0.5998079624897343
  0.0000000000000000  0.3750000000000000  0.4001920375102657
  0.3750000000000000  0.2500000000000000  0.5998079624897343
  0.2500000000000000  0.3750000000000000  0.4001920375102657
  0.6250000340000028  0.2500000000000000  0.5998079624897343
  0.5000000000000000  0.3750000000000000  0.4001920375102657
  0.8749999659999972  0.2500000000000000  0.5998079624897343
  0.7500000000000000  0.3750000000000000  0.4001920375102657
  0.1250000000000000  0.5000000000000000  0.5998079624897343
  0.0000000000000000  0.6250000340000028  0.4001920375102657
  0.3750000000000000  0.5000000000000000  0.5998079624897343
  0.2500000000000000  0.6250000340000028  0.4001920375102657
  0.6250000340000028  0.5000000000000000  0.5998079624897343
  0.5000000000000000  0.6250000340000028  0.4001920375102657
  0.8749999659999972  0.5000000000000000  0.5998079624897343
  0.7500000000000000  0.6250000340000028  0.4001920375102657
  0.1250000000000000  0.7500000000000000  0.5998079624897343
  0.0000000000000000  0.8749999659999972  0.4001920375102657
  0.3750000000000000  0.7500000000000000  0.5998079624897343
  0.2500000000000000  0.8749999659999972  0.4001920375102657
  0.6250000340000028  0.7500000000000000  0.5998079624897343
  0.5000000000000000  0.8749999659999972  0.4001920375102657
  0.8749999659999972  0.7500000000000000  0.5998079624897343
  0.7500000000000000  0.8749999659999972  0.4001920375102657
  0.0000000000000000  0.0000000000000000  0.5000000000000000
  0.1250000000000000  0.1250000000000000  0.5000000000000000
  0.2500000000000000  0.0000000000000000  0.5000000000000000
  0.3750000000000000  0.1250000000000000  0.5000000000000000
  0.5000000000000000  0.0000000000000000  0.5000000000000000
  0.6250000340000028  0.1250000000000000  0.5000000000000000
  0.7500000000000000  0.0000000000000000  0.5000000000000000
  0.8749999659999972  0.1250000000000000  0.5000000000000000
  0.0000000000000000  0.2500000000000000  0.5000000000000000
  0.1250000000000000  0.3750000000000000  0.5000000000000000
  0.2500000000000000  0.2500000000000000  0.5000000000000000
  0.3750000000000000  0.3750000000000000  0.5000000000000000
  0.5000000000000000  0.2500000000000000  0.5000000000000000
  0.6250000340000028  0.3750000000000000  0.5000000000000000
  0.7500000000000000  0.2500000000000000  0.5000000000000000
  0.8749999659999972  0.3750000000000000  0.5000000000000000
  0.0000000000000000  0.5000000000000000  0.5000000000000000
  0.1250000000000000  0.6250000340000028  0.5000000000000000
  0.2500000000000000  0.5000000000000000  0.5000000000000000
  0.3750000000000000  0.6250000340000028  0.5000000000000000
  0.5000000000000000  0.5000000000000000  0.5000000000000000
  0.6250000340000028  0.6250000340000028  0.5000000000000000
  0.7500000000000000  0.5000000000000000  0.5000000000000000
  0.8749999659999972  0.6250000340000028  0.5000000000000000
  0.0000000000000000  0.7500000000000000  0.5000000000000000
  0.1250000000000000  0.8749999659999972  0.5000000000000000
  0.2500000000000000  0.7500000000000000  0.5000000000000000
  0.3750000000000000  0.8749999659999972  0.5000000000000000
  0.5000000000000000  0.7500000000000000  0.5000000000000000
  0.6250000340000028  0.8749999659999972  0.5000000000000000
  0.7500000000000000  0.7500000000000000  0.5000000000000000
  0.8749999659999972  0.8749999659999972  0.5000000000000000
  0.0000000000000000  0.1250000000000000  0.6542383016858935
  0.1250000000000000  0.0000000000000000  0.3457616543141029
  0.2500000000000000  0.1250000000000000  0.6542383016858935
  0.3750000000000000  0.0000000000000000  0.3457616543141029
  0.5000000000000000  0.1250000000000000  0.6542383016858935
  0.6250000340000028  0.0000000000000000  0.3457616543141029
  0.7500000000000000  0.1250000000000000  0.6542383016858935
  0.8749999659999972  0.0000000000000000  0.3457616543141029
  0.0000000000000000  0.3750000000000000  0.6542383016858935
  0.1250000000000000  0.2500000000000000  0.3457616543141029
  0.2500000000000000  0.3750000000000000  0.6542383016858935
  0.3750000000000000  0.2500000000000000  0.3457616543141029
  0.5000000000000000  0.3750000000000000  0.6542383016858935
  0.6250000340000028  0.2500000000000000  0.3457616543141029
  0.7500000000000000  0.3750000000000000  0.6542383016858935
  0.8749999659999972  0.2500000000000000  0.3457616543141029
  0.0000000000000000  0.6250000340000028  0.6542383016858935
  0.1250000000000000  0.5000000000000000  0.3457616543141029
  0.2500000000000000  0.6250000340000028  0.6542383016858935
  0.3750000000000000  0.5000000000000000  0.3457616543141029
  0.5000000000000000  0.6250000340000028  0.6542383016858935
  0.6250000340000028  0.5000000000000000  0.3457616543141029
  0.7500000000000000  0.6250000340000028  0.6542383016858935
  0.8749999659999972  0.5000000000000000  0.3457616543141029
  0.0000000000000000  0.8749999659999972  0.6542383016858935
  0.1250000000000000  0.7500000000000000  0.3457616543141029
  0.2500000000000000  0.8749999659999972  0.6542383016858935
  0.3750000000000000  0.7500000000000000  0.3457616543141029
  0.5000000000000000  0.8749999659999972  0.6542383016858935
  0.6250000340000028  0.7500000000000000  0.3457616543141029
  0.7500000000000000  0.8749999659999972  0.6542383016858935
  0.8749999659999972  0.7500000000000000  0.3457616543141029
 
  0.00000000E+00  0.00000000E+00  0.00000000E+00
  0.00000000E+00  0.00000000E+00  0.00000000E+00
  0.00000000E+00  0.00000000E+00  0.00000000E+00
  0.00000000E+00  0.00000000E+00  0.00000000E+00
  0.00000000E+00  0.00000000E+00  0.00000000E+00
  0.00000000E+00  0.00000000E+00  0.00000000E+00
  0.00000000E+00  0.00000000E+00  0.00000000E+00
  0.00000000E+00  0.00000000E+00  0.00000000E+00
  0.00000000E+00  0.00000000E+00  0.00000000E+00
  0.00000000E+00  0.00000000E+00  0.00000000E+00
  0.00000000E+00  0.00000000E+00  0.00000000E+00
  0.00000000E+00  0.00000000E+00  0.00000000E+00
  0.00000000E+00  0.00000000E+00  0.00000000E+00
  0.00000000E+00  0.00000000E+00  0.00000000E+00
  0.00000000E+00  0.00000000E+00  0.00000000E+00
  0.00000000E+00  0.00000000E+00  0.00000000E+00
  0.00000000E+00  0.00000000E+00  0.00000000E+00
  0.00000000E+00  0.00000000E+00  0.00000000E+00
  0.00000000E+00  0.00000000E+00  0.00000000E+00
  0.00000000E+00  0.00000000E+00  0.00000000E+00
  0.00000000E+00  0.00000000E+00  0.00000000E+00
  0.00000000E+00  0.00000000E+00  0.00000000E+00
  0.00000000E+00  0.00000000E+00  0.00000000E+00
  0.00000000E+00  0.00000000E+00  0.00000000E+00
  0.00000000E+00  0.00000000E+00  0.00000000E+00
  0.00000000E+00  0.00000000E+00  0.00000000E+00
  0.00000000E+00  0.00000000E+00  0.00000000E+00
  0.00000000E+00  0.00000000E+00  0.00000000E+00
  0.00000000E+00  0.00000000E+00  0.00000000E+00
  0.00000000E+00  0.00000000E+00  0.00000000E+00
  0.00000000E+00  0.00000000E+00  0.00000000E+00
  0.00000000E+00  0.00000000E+00  0.00000000E+00
  0.00000000E+00  0.00000000E+00  0.00000000E+00
  0.00000000E+00  0.00000000E+00  0.00000000E+00
  0.00000000E+00  0.00000000E+00  0.00000000E+00
  0.00000000E+00  0.00000000E+00  0.00000000E+00
  0.00000000E+00  0.00000000E+00  0.00000000E+00
  0.00000000E+00  0.00000000E+00  0.00000000E+00
  0.00000000E+00  0.00000000E+00  0.00000000E+00
  0.00000000E+00  0.00000000E+00  0.00000000E+00
  0.00000000E+00  0.00000000E+00  0.00000000E+00
  0.00000000E+00  0.00000000E+00  0.00000000E+00
  0.00000000E+00  0.00000000E+00  0.00000000E+00
  0.00000000E+00  0.00000000E+00  0.00000000E+00
  0.00000000E+00  0.00000000E+00  0.00000000E+00
  0.00000000E+00  0.00000000E+00  0.00000000E+00
  0.00000000E+00  0.00000000E+00  0.00000000E+00
  0.00000000E+00  0.00000000E+00  0.00000000E+00
  0.00000000E+00  0.00000000E+00  0.00000000E+00
  0.00000000E+00  0.00000000E+00  0.00000000E+00
  0.00000000E+00  0.00000000E+00  0.00000000E+00
  0.00000000E+00  0.00000000E+00  0.00000000E+00
  0.00000000E+00  0.00000000E+00  0.00000000E+00
  0.00000000E+00  0.00000000E+00  0.00000000E+00
  0.00000000E+00  0.00000000E+00  0.00000000E+00
  0.00000000E+00  0.00000000E+00  0.00000000E+00
  0.00000000E+00  0.00000000E+00  0.00000000E+00
  0.00000000E+00  0.00000000E+00  0.00000000E+00
  0.00000000E+00  0.00000000E+00  0.00000000E+00
  0.00000000E+00  0.00000000E+00  0.00000000E+00
  0.00000000E+00  0.00000000E+00  0.00000000E+00
  0.00000000E+00  0.00000000E+00  0.00000000E+00
  0.00000000E+00  0.00000000E+00  0.00000000E+00
  0.00000000E+00  0.00000000E+00  0.00000000E+00
  0.00000000E+00  0.00000000E+00  0.00000000E+00
  0.00000000E+00  0.00000000E+00  0.00000000E+00
  0.00000000E+00  0.00000000E+00  0.00000000E+00
  0.00000000E+00  0.00000000E+00  0.00000000E+00
  0.00000000E+00  0.00000000E+00  0.00000000E+00
  0.00000000E+00  0.00000000E+00  0.00000000E+00
  0.00000000E+00  0.00000000E+00  0.00000000E+00
  0.00000000E+00  0.00000000E+00  0.00000000E+00
  0.00000000E+00  0.00000000E+00  0.00000000E+00
  0.00000000E+00  0.00000000E+00  0.00000000E+00
  0.00000000E+00  0.00000000E+00  0.00000000E+00
  0.00000000E+00  0.00000000E+00  0.00000000E+00
  0.00000000E+00  0.00000000E+00  0.00000000E+00
  0.00000000E+00  0.00000000E+00  0.00000000E+00
  0.00000000E+00  0.00000000E+00  0.00000000E+00
  0.00000000E+00  0.00000000E+00  0.00000000E+00
  0.00000000E+00  0.00000000E+00  0.00000000E+00
  0.00000000E+00  0.00000000E+00  0.00000000E+00
  0.00000000E+00  0.00000000E+00  0.00000000E+00
  0.00000000E+00  0.00000000E+00  0.00000000E+00
  0.00000000E+00  0.00000000E+00  0.00000000E+00
  0.00000000E+00  0.00000000E+00  0.00000000E+00
  0.00000000E+00  0.00000000E+00  0.00000000E+00
  0.00000000E+00  0.00000000E+00  0.00000000E+00
  0.00000000E+00  0.00000000E+00  0.00000000E+00
  0.00000000E+00  0.00000000E+00  0.00000000E+00
  0.00000000E+00  0.00000000E+00  0.00000000E+00
  0.00000000E+00  0.00000000E+00  0.00000000E+00
  0.00000000E+00  0.00000000E+00  0.00000000E+00
  0.00000000E+00  0.00000000E+00  0.00000000E+00
  0.00000000E+00  0.00000000E+00  0.00000000E+00
  0.00000000E+00  0.00000000E+00  0.00000000E+00
