CONTCAR\(7)                             
   1.00000000000000     
    12.2055997849000004    0.0000000000000000    0.0000000000000000
    -6.1027998924000002   10.5703594821000006    0.0000000000000000
     0.0000000000000000    0.0000000000000000   18.8425998688000007
   Tm   I    O    H 
     9    18     2     1
Selective dynamics
Direct
  0.9830017924971486  0.0137918760417648  0.5028736150104507   F   F   F
  0.3617962656009581  0.0388595609160944  0.4972629050593440   F   F   F
  0.6842421708620776  0.0404857710750832  0.4970667172781091   F   F   F
  0.9587315403211676  0.3133360801108580  0.4972916615012579   F   F   F
  0.3673783487344124  0.3293800452558031  0.4969747503973849   F   F   F
  0.6634036083335957  0.3337710054064686  0.4955044839918017   F   F   F
  0.9593853113743691  0.6377770764718989  0.4975701271063357   F   F   F
  0.3298850402628872  0.6638750599040151  0.5498887661885803   F   F   F
  0.6693121881660389  0.6302450775718214  0.4970007366895715   F   F   F
  0.2177792185795724  0.1112011739361236  0.5997293594502224   F   F   F
  0.1150561217185171  0.2285152349505211  0.4026340851307708   F   F   F
  0.5557361741790459  0.1133671595281811  0.6113193544601785   F   F   F
  0.4458166901915135  0.2226116244169702  0.3760655284123615   F   F   F
  0.8822691750851348  0.1145072794766264  0.6160588386895256   F   F   F
  0.7737708397673515  0.2251179377268642  0.3760126857078774   F   F   F
  0.1984406768445410  0.3987406957808446  0.5896332898522729   F   F   F
  0.1190906400523417  0.5596285265840351  0.4168474189308142   F   F   F
  0.5553524125062808  0.4426726599581343  0.6157272642321630   F   F   F
  0.4376959920740973  0.5609037800022278  0.4107147757694420   F   F   F
  0.8852431724705241  0.4425547616259280  0.6108988434682061   F   F   F
  0.7753725641252203  0.5512462325521099  0.3763257687514425   F   F   F
  0.1990601475642251  0.8001389110454298  0.5912360549415254   F   F   F
  0.1048075189257816  0.8932176465052279  0.4112723638862192   F   F   F
  0.5967255152038646  0.7989881343983427  0.5887276539387685   F   F   F
  0.4384944474033432  0.8787746314687581  0.4166138502684475   F   F   F
  0.8858114433789410  0.7800733396657975  0.6008977205309591   F   F   F
  0.7686424364566662  0.8823558354212793  0.4028826832644796   F   F   F
  0.3148715918223175  0.6785704640737364  0.6595696640414062   T   T   T
  0.3731654611209763  0.6082097764346415  0.6920518340802673   T   T   T
  0.4388217633770709  0.6760126556944215  0.7202006454811284   T   T   T
 
  0.00000000E+00  0.00000000E+00  0.00000000E+00
  0.00000000E+00  0.00000000E+00  0.00000000E+00
  0.00000000E+00  0.00000000E+00  0.00000000E+00
  0.00000000E+00  0.00000000E+00  0.00000000E+00
  0.00000000E+00  0.00000000E+00  0.00000000E+00
  0.00000000E+00  0.00000000E+00  0.00000000E+00
  0.00000000E+00  0.00000000E+00  0.00000000E+00
  0.00000000E+00  0.00000000E+00  0.00000000E+00
  0.00000000E+00  0.00000000E+00  0.00000000E+00
  0.00000000E+00  0.00000000E+00  0.00000000E+00
  0.00000000E+00  0.00000000E+00  0.00000000E+00
  0.00000000E+00  0.00000000E+00  0.00000000E+00
  0.00000000E+00  0.00000000E+00  0.00000000E+00
  0.00000000E+00  0.00000000E+00  0.00000000E+00
  0.00000000E+00  0.00000000E+00  0.00000000E+00
  0.00000000E+00  0.00000000E+00  0.00000000E+00
  0.00000000E+00  0.00000000E+00  0.00000000E+00
  0.00000000E+00  0.00000000E+00  0.00000000E+00
  0.00000000E+00  0.00000000E+00  0.00000000E+00
  0.00000000E+00  0.00000000E+00  0.00000000E+00
  0.00000000E+00  0.00000000E+00  0.00000000E+00
  0.00000000E+00  0.00000000E+00  0.00000000E+00
  0.00000000E+00  0.00000000E+00  0.00000000E+00
  0.00000000E+00  0.00000000E+00  0.00000000E+00
  0.00000000E+00  0.00000000E+00  0.00000000E+00
  0.00000000E+00  0.00000000E+00  0.00000000E+00
  0.00000000E+00  0.00000000E+00  0.00000000E+00
  0.00000000E+00  0.00000000E+00  0.00000000E+00
  0.00000000E+00  0.00000000E+00  0.00000000E+00
  0.00000000E+00  0.00000000E+00  0.00000000E+00
