CONTCAR\(10)                            
   1.00000000000000     
    12.8632001877000004    0.0000000000000000    0.0000000000000000
     0.0000000000000000   12.8638000487999999    0.0000000000000000
     0.0000000000000000    0.0000000000000000   23.9482994080000005
   Lu   Te   O 
    18    54     1
Direct
  0.1660162232015114  0.0001035742877893  0.5826397639072948
  0.0000000000000000  0.1664011898947917  0.4150731274228789
  0.5000000000000000  0.0009275695773700  0.5830423701719535
  0.3332729379803072  0.1660423267203139  0.4153269029796269
  0.8339837767984888  0.0001035742877893  0.5826397639072948
  0.6667270990196922  0.1660423267203139  0.4153269029796269
  0.1656080625713681  0.3337040568361011  0.5824696845239770
  0.0000000000000000  0.4998699305607405  0.4155375440558728
  0.5000000000000000  0.3284096858068757  0.5820383808549736
  0.3340173688783706  0.5003807193508243  0.4175924698786652
  0.8343919374286319  0.3337040568361011  0.5824696845239770
  0.6659826681216290  0.5003807193508243  0.4175924698786652
  0.1641880696844513  0.6664698043190690  0.5834002978397426
  0.0000000000000000  0.8326115485598147  0.4156176819894176
  0.5000000000000000  0.6660086346547112  0.5900250319430249
  0.3339043259751593  0.8322317821224946  0.4172788364503907
  0.8358119303155490  0.6664698043190690  0.5834002978397426
  0.6660957110248402  0.8322317821224946  0.4172788364503907
  0.0000000000000000 -0.0006065628921098  0.3129096411542721
  0.1604111556017763  0.1693992839523372  0.6844911457492246
  0.0000000000000000  0.0041190037476134  0.6841648042230384
  0.1666986758898089  0.1661732345320182  0.3128541012059368
  0.1669971717310718  0.9987997984162231  0.4537864379912734
  0.0000000000000000  0.1670260604015016  0.5437459512394306
  0.3334826071573379  0.9992339778192217  0.3136587203812111
  0.5000000000000000  0.1641163371931713  0.6853750765021224
  0.3276916655698722  0.0032116668279365  0.6860377155837174
  0.5000000000000000  0.1660688264897059  0.3126313587558742
  0.5000000000000000  0.9994384495302948  0.4542524123877461
  0.3324562879862640  0.1658794544751029  0.5445458568140874
  0.6665174298426616  0.9992339778192217  0.3136587203812111
  0.8395888443982239  0.1693992839523372  0.6844911457492246
  0.6723083714301271  0.0032116668279365  0.6860377155837174
  0.8333013241101910  0.1661732345320182  0.3128541012059368
  0.8330028282689285  0.9987997984162231  0.4537864379912734
  0.6675437490137358  0.1658794544751029  0.5445458568140874
  0.0000000000000000  0.3331682439108408  0.3126817652439363
  0.1722906821451919  0.5059848925296062  0.6857295540016981
  0.0000000000000000  0.3409194016681691  0.6849004275078948
  0.1668382873820343  0.4996848687982166  0.3139807509053316
  0.1671418249984055  0.3336671460819804  0.4537052222526208
  0.0000000000000000  0.5000913575361500  0.5449094360118316
  0.3333953006781937  0.3329759402877505  0.3138542767773100
  0.5000000000000000  0.4921625710146866  0.7029049594640329
  0.3344839282936328  0.3323743390248521  0.6831656669798328
  0.5000000000000000  0.4997949401841612  0.3149040165095374
  0.5000000000000000  0.3324811500203385  0.4538517869108232
  0.3353503600013982  0.5015640444234505  0.5479473197307114
  0.6666047363218062  0.3329759402877505  0.3138542767773100
  0.8277093178548081  0.5059848925296062  0.6857295540016981
  0.6655161087063668  0.3323743390248521  0.6831656669798328
  0.8331617126179659  0.4996848687982166  0.3139807509053316
  0.8328581750015942  0.3336671460819804  0.4537052222526208
  0.6646496769986012  0.5015640444234505  0.5479473197307114
  0.0000000000000000  0.6661298552046589  0.3130230716832070
  0.1694060755213064  0.8283699450162469  0.6841237407955352
  0.0000000000000000  0.6641834189449138  0.6874654054377152
  0.1668256781429837  0.8328461552408325  0.3138390946470691
  0.1666014920247491  0.6662070108866224  0.4545357542228716
  0.0000000000000000  0.8331595080470338  0.5450729848770214
  0.3334813258347953  0.6662729489969751  0.3148244625121304
  0.5000000000000000  0.8494347694857429  0.6874171312212256
  0.3434067186554041  0.6769300801807508  0.7004739412761321
  0.5000000000000000  0.8324839736285723  0.3149909056487220
  0.5000000000000000  0.6664978479240827  0.4574508786802419
  0.3338101474834543  0.8315264254179165  0.5473678002093922
  0.6665187111652040  0.6662729489969751  0.3148244625121304
  0.8305939244786937  0.8283699450162469  0.6841237407955352
  0.6565933183445957  0.6769300801807508  0.7004739412761321
  0.8331743218570161  0.8328461552408325  0.3138390946470691
  0.8333985079752508  0.6662070108866224  0.4545357542228716
  0.6661898895165450  0.8315264254179165  0.5473678002093922
  0.4999899909999996  0.6416353538168806  0.7412544588716296
 
  0.00000000E+00  0.00000000E+00  0.00000000E+00
  0.00000000E+00  0.00000000E+00  0.00000000E+00
  0.00000000E+00  0.00000000E+00  0.00000000E+00
  0.00000000E+00  0.00000000E+00  0.00000000E+00
  0.00000000E+00  0.00000000E+00  0.00000000E+00
  0.00000000E+00  0.00000000E+00  0.00000000E+00
  0.00000000E+00  0.00000000E+00  0.00000000E+00
  0.00000000E+00  0.00000000E+00  0.00000000E+00
  0.00000000E+00  0.00000000E+00  0.00000000E+00
  0.00000000E+00  0.00000000E+00  0.00000000E+00
  0.00000000E+00  0.00000000E+00  0.00000000E+00
  0.00000000E+00  0.00000000E+00  0.00000000E+00
  0.00000000E+00  0.00000000E+00  0.00000000E+00
  0.00000000E+00  0.00000000E+00  0.00000000E+00
  0.00000000E+00  0.00000000E+00  0.00000000E+00
  0.00000000E+00  0.00000000E+00  0.00000000E+00
  0.00000000E+00  0.00000000E+00  0.00000000E+00
  0.00000000E+00  0.00000000E+00  0.00000000E+00
  0.00000000E+00  0.00000000E+00  0.00000000E+00
  0.00000000E+00  0.00000000E+00  0.00000000E+00
  0.00000000E+00  0.00000000E+00  0.00000000E+00
  0.00000000E+00  0.00000000E+00  0.00000000E+00
  0.00000000E+00  0.00000000E+00  0.00000000E+00
  0.00000000E+00  0.00000000E+00  0.00000000E+00
  0.00000000E+00  0.00000000E+00  0.00000000E+00
  0.00000000E+00  0.00000000E+00  0.00000000E+00
  0.00000000E+00  0.00000000E+00  0.00000000E+00
  0.00000000E+00  0.00000000E+00  0.00000000E+00
  0.00000000E+00  0.00000000E+00  0.00000000E+00
  0.00000000E+00  0.00000000E+00  0.00000000E+00
  0.00000000E+00  0.00000000E+00  0.00000000E+00
  0.00000000E+00  0.00000000E+00  0.00000000E+00
  0.00000000E+00  0.00000000E+00  0.00000000E+00
  0.00000000E+00  0.00000000E+00  0.00000000E+00
  0.00000000E+00  0.00000000E+00  0.00000000E+00
  0.00000000E+00  0.00000000E+00  0.00000000E+00
  0.00000000E+00  0.00000000E+00  0.00000000E+00
  0.00000000E+00  0.00000000E+00  0.00000000E+00
  0.00000000E+00  0.00000000E+00  0.00000000E+00
  0.00000000E+00  0.00000000E+00  0.00000000E+00
  0.00000000E+00  0.00000000E+00  0.00000000E+00
  0.00000000E+00  0.00000000E+00  0.00000000E+00
  0.00000000E+00  0.00000000E+00  0.00000000E+00
  0.00000000E+00  0.00000000E+00  0.00000000E+00
  0.00000000E+00  0.00000000E+00  0.00000000E+00
  0.00000000E+00  0.00000000E+00  0.00000000E+00
  0.00000000E+00  0.00000000E+00  0.00000000E+00
  0.00000000E+00  0.00000000E+00  0.00000000E+00
  0.00000000E+00  0.00000000E+00  0.00000000E+00
  0.00000000E+00  0.00000000E+00  0.00000000E+00
  0.00000000E+00  0.00000000E+00  0.00000000E+00
  0.00000000E+00  0.00000000E+00  0.00000000E+00
  0.00000000E+00  0.00000000E+00  0.00000000E+00
  0.00000000E+00  0.00000000E+00  0.00000000E+00
  0.00000000E+00  0.00000000E+00  0.00000000E+00
  0.00000000E+00  0.00000000E+00  0.00000000E+00
  0.00000000E+00  0.00000000E+00  0.00000000E+00
  0.00000000E+00  0.00000000E+00  0.00000000E+00
  0.00000000E+00  0.00000000E+00  0.00000000E+00
  0.00000000E+00  0.00000000E+00  0.00000000E+00
  0.00000000E+00  0.00000000E+00  0.00000000E+00
  0.00000000E+00  0.00000000E+00  0.00000000E+00
  0.00000000E+00  0.00000000E+00  0.00000000E+00
  0.00000000E+00  0.00000000E+00  0.00000000E+00
  0.00000000E+00  0.00000000E+00  0.00000000E+00
  0.00000000E+00  0.00000000E+00  0.00000000E+00
  0.00000000E+00  0.00000000E+00  0.00000000E+00
  0.00000000E+00  0.00000000E+00  0.00000000E+00
  0.00000000E+00  0.00000000E+00  0.00000000E+00
  0.00000000E+00  0.00000000E+00  0.00000000E+00
  0.00000000E+00  0.00000000E+00  0.00000000E+00
  0.00000000E+00  0.00000000E+00  0.00000000E+00
  0.00000000E+00  0.00000000E+00  0.00000000E+00
