CONTCAR\(15)                            
   1.00000000000000     
    10.1940002440999997    0.0000000000000000    0.0000000000000000
     0.0000000000000000   11.6065998077000003    0.0000000000000000
     0.0000000000000000    0.0000000000000000   16.7478008269999989
   Cu   H    C    O 
     8     8     4    21
Direct
  0.7406433506691381  0.2896102377965994  0.5099360921552187
  0.2781395161127686  0.7778284273464486  0.5115086547385310
  0.7715282408250524  0.7137674825336848  0.4924772959440418
  0.2425238271959521  0.2171599839441132  0.5014506910660398
  0.4795249291018933  0.3911584863194280  0.5036521143821949
  0.5316959519005809  0.8812409523383702  0.4987643435702100
  0.0395898672532754  0.6123743447360331  0.4933647129053855
  0.9790501108825094  0.1135006185699111  0.5187774020447449
  0.2569993940474640  0.4072091602914085  0.4509722856921604
  0.7622609044511529  0.9048773021565243  0.5405163592596047
  0.2692660897771721  0.5850727332327843  0.5400592657147893
  0.7526899209376174  0.0952107383196300  0.4682836339186435
  0.6477622737443387  0.4884090368239569  0.5756231453789162
  0.3376961302503723  0.9714568803361679  0.4557823745292243
  0.8389135212598320  0.5256539693878908  0.4462867506778489
  0.1790036120664355  0.0253259170323830  0.5615409139591835
  0.5094571131797564  0.1264228497482307  0.4854589832227224
  0.5348708378163753  0.6307113809572525  0.5233722074512219
  0.0038417751041847  0.8670898604997385  0.5273357496831780
  0.0108890559737871  0.3727704634469829  0.4870301790907505
  0.3852592751089467  0.1103309556929735  0.4888757308948880
  0.6142800926747063  0.6494505797727722  0.4566039263221366
  0.1281154375084819  0.8803972340853753  0.5251426945282025
  0.8894647302868511  0.3921269999752924  0.5009433292242582
  0.5581053195556805  0.2303992485436034  0.4893625143977434
  0.4575144139550543  0.7372276766144666  0.5370394424309247
  0.9523169415950020  0.7634712492676373  0.5213989571717889
  0.0588296797098295  0.2684943240351733  0.4894193604614709
  0.5894906828187816  0.0405767471234794  0.4788995793523273
  0.4382378673419950  0.5492826710203899  0.5042445248945722
  0.9247987248278545  0.9532107895762215  0.5346850622525294
  0.0915480667844850  0.4553637646943223  0.4710589570201495
  0.3245049632359150  0.3460176813698455  0.4531008400546278
  0.6946907290378445  0.8431617616869755  0.5410435497085458
  0.1980460469603379  0.6423212065824292  0.5485769904574563
  0.8214889310549232  0.1554482331051443  0.4692762880561057
  0.6349824500140123  0.4021036644785762  0.5598472479947399
  0.3664101237616339  0.8906908300822118  0.4489521743125860
  0.8744171924407321  0.6038646237384095  0.4389053242882527
  0.1488444954138430  0.1057543407162772  0.5641857006623016
  0.6075675683634193  0.6109045060208753  0.5878248301297917
 
  0.00000000E+00  0.00000000E+00  0.00000000E+00
  0.00000000E+00  0.00000000E+00  0.00000000E+00
  0.00000000E+00  0.00000000E+00  0.00000000E+00
  0.00000000E+00  0.00000000E+00  0.00000000E+00
  0.00000000E+00  0.00000000E+00  0.00000000E+00
  0.00000000E+00  0.00000000E+00  0.00000000E+00
  0.00000000E+00  0.00000000E+00  0.00000000E+00
  0.00000000E+00  0.00000000E+00  0.00000000E+00
  0.00000000E+00  0.00000000E+00  0.00000000E+00
  0.00000000E+00  0.00000000E+00  0.00000000E+00
  0.00000000E+00  0.00000000E+00  0.00000000E+00
  0.00000000E+00  0.00000000E+00  0.00000000E+00
  0.00000000E+00  0.00000000E+00  0.00000000E+00
  0.00000000E+00  0.00000000E+00  0.00000000E+00
  0.00000000E+00  0.00000000E+00  0.00000000E+00
  0.00000000E+00  0.00000000E+00  0.00000000E+00
  0.00000000E+00  0.00000000E+00  0.00000000E+00
  0.00000000E+00  0.00000000E+00  0.00000000E+00
  0.00000000E+00  0.00000000E+00  0.00000000E+00
  0.00000000E+00  0.00000000E+00  0.00000000E+00
  0.00000000E+00  0.00000000E+00  0.00000000E+00
  0.00000000E+00  0.00000000E+00  0.00000000E+00
  0.00000000E+00  0.00000000E+00  0.00000000E+00
  0.00000000E+00  0.00000000E+00  0.00000000E+00
  0.00000000E+00  0.00000000E+00  0.00000000E+00
  0.00000000E+00  0.00000000E+00  0.00000000E+00
  0.00000000E+00  0.00000000E+00  0.00000000E+00
  0.00000000E+00  0.00000000E+00  0.00000000E+00
  0.00000000E+00  0.00000000E+00  0.00000000E+00
  0.00000000E+00  0.00000000E+00  0.00000000E+00
  0.00000000E+00  0.00000000E+00  0.00000000E+00
  0.00000000E+00  0.00000000E+00  0.00000000E+00
  0.00000000E+00  0.00000000E+00  0.00000000E+00
  0.00000000E+00  0.00000000E+00  0.00000000E+00
  0.00000000E+00  0.00000000E+00  0.00000000E+00
  0.00000000E+00  0.00000000E+00  0.00000000E+00
  0.00000000E+00  0.00000000E+00  0.00000000E+00
  0.00000000E+00  0.00000000E+00  0.00000000E+00
  0.00000000E+00  0.00000000E+00  0.00000000E+00
  0.00000000E+00  0.00000000E+00  0.00000000E+00
  0.00000000E+00  0.00000000E+00  0.00000000E+00
