 Fe1 C2 O6                              
   1.00000000000000     
     4.4768125908930170    0.0000000000000000    0.0000000000000000
     2.2384062954465085    3.8770665823247641    0.0000000000000000
     0.0000000000000000    0.0000000000000000   17.3265638038920002
   Fe   C    O 
     1     2     6
Direct
  0.0000000522165706  0.9999999616951243  0.5000001911870058
  0.6666227129014359  0.6666689860438808  0.4364864778071293
  0.3333770883878628  0.3333307252853217  0.5635135704998078
  0.3081602237704999  0.6334300896613456  0.5645227607172103
  0.3665808755156874  0.9415711046686539  0.4354810142392154
  0.9416067640215857  0.6918420643078349  0.4354779616577815
  0.0583920767313799  0.3081578551495738  0.5645219403605921
  0.6334206064056502  0.0584273826970900  0.5645188417372609
  0.6918396000493132  0.3665718304911678  0.4354772417939827
 
  0.00000000E+00  0.00000000E+00  0.00000000E+00
  0.00000000E+00  0.00000000E+00  0.00000000E+00
  0.00000000E+00  0.00000000E+00  0.00000000E+00
  0.00000000E+00  0.00000000E+00  0.00000000E+00
  0.00000000E+00  0.00000000E+00  0.00000000E+00
  0.00000000E+00  0.00000000E+00  0.00000000E+00
  0.00000000E+00  0.00000000E+00  0.00000000E+00
  0.00000000E+00  0.00000000E+00  0.00000000E+00
  0.00000000E+00  0.00000000E+00  0.00000000E+00
