CONTCAR                                 
   1.00000000000000     
    12.9555997849000004    0.0000000000000000    0.0000000000000000
     0.0000000000000000   12.9555997849000004    0.0000000000000000
     0.0000000000000000    0.0000000000000000   24.1623992919999999
   Tb   Te   O    H 
    18    54     1     1
Direct
  0.1638073730448539  0.0002341835642312  0.5837482521928195
  0.0009011009828015  0.1675711049827981  0.4143564446706165
  0.4991884875199162  0.0031477396690605  0.5845147880342481
  0.3344578968813323  0.1681697107415374  0.4144143926108796
  0.8318721987812978  0.9985422397813011  0.5855973887696777
  0.6675970907814772  0.1677157142544061  0.4149509536970726
  0.1670548989792948  0.3337148909793015  0.5843239840778480
  0.0014997067415408  0.5011279008813290  0.4144143926108796
  0.5000667677627675  0.3339211553071735  0.5860298903263583
  0.3346213859311788  0.5012913899311755  0.4156707334912539
  0.8335641425642280  0.3304673650448606  0.5837482521928195
  0.6669913966027892  0.5015746844351696  0.4158358364936561
  0.1672611633071668  0.6667367717627641  0.5860298903263583
  0.0010457102544095  0.8342570457814773  0.4149509536970726
  0.5001331263493114  0.6668031303493080  0.5906258563509965
  0.3349046804351730  0.8336513516027892  0.4158358364936561
  0.8364776986690572  0.6658584915199128  0.5845147880342481
  0.6671492763732729  0.8338092313732730  0.4167109080517690
  0.0014377359417850  0.0012786046529456  0.3117043498976244
  0.1606155986702618  0.1680752987523704  0.6874942282229455
  0.9956564084131045  0.9974271207839607  0.6882028018582034
  0.1681996331457185  0.1681885712983586  0.3111875231155423
  0.1682394822535827  0.0006106865264925  0.4530287795246934
  0.9991996292209606  0.1658696332209573  0.5455760624235921
  0.3353808720808900  0.0016844952636177  0.3120414791760524
  0.5004757615345810  0.1684810830650534  0.6889526313662770
  0.3291658958145689  0.0023081769100202  0.6821878616668613
  0.5018532594146947  0.1684280592049205  0.3116805734526693
  0.5006286859524494  0.0012017406276925  0.4537828948348235
  0.3331089347925555  0.1681779911690100  0.5459263310788316
  0.6683258802715528  0.0012040095132875  0.3126418447108179
  0.8307570797839574  0.1623264124131012  0.6882028018582034
  0.6616448323249244  0.9961136400071240  0.6900573422746774
  0.8346085636529423  0.1681077399417816  0.3117143358976193
  0.8338475218702754  0.0005175628702787  0.4539388891880236
  0.6665375226196915  0.1663714309169890  0.5467271502096693
  0.0015185672983620  0.3348596251457252  0.3111775371155474
  0.1662115413104175  0.4976443684411436  0.6886957803910292
  0.0014052947523737  0.3272755906702685  0.6874942282229455
  0.1686310129280741  0.5015713781988964  0.3118706838190022
  0.1675979143476312  0.3342579063476379  0.4531197216554048
  0.0015079871690133  0.4997789387925522  0.5459263310788316
  0.3349013741988998  0.3352910049280808  0.3118606978190073
  0.4987517434640907  0.4975610068222949  0.6926304742977081
  0.3309743644411469  0.3328715333104242  0.6886957803910292
  0.5015054079165537  0.5017309963169581  0.3126514678044998
  0.5009363654661740  0.3342885891791951  0.4541072787621445
  0.3349297153500288  0.5015997193500255  0.5480560974701660
  0.6682786642349825  0.3353244870208698  0.3123092675987067
  0.8356381359100169  0.4958358998145656  0.6821878616668613
  0.6642915629661843  0.3288149536109373  0.6885078370873856
  0.8350144542636144  0.5020508760808866  0.3120514651760473
  0.8339406455264893  0.3348994742535893  0.4530287795246934
  0.6662656021355247  0.5011429125177926  0.5482958155061723
  0.0017580552049239  0.6685232634146914  0.3116705874526744
  0.1621549616109306  0.8309515179661844  0.6885078370873856
  0.0018110790650567  0.6671457655345776  0.6889526313662770
  0.1686644950208631  0.8349386192349826  0.3123192535987016
  0.1676285971791884  0.6676063694661707  0.4541072787621445
  0.9997014269169924  0.8331974776196915  0.5467271502096693
  0.3350609923169614  0.6681754119165504  0.3126414818045049
  0.4814414288754989  0.8433575848040036  0.7001208146484714
  0.3308910028222982  0.6654217474640873  0.6926304742977081
  0.5017452959386475  0.8346269450562644  0.3130877563778185
  0.5006921805847071  0.6673621845847038  0.4564454634484605
  0.3344729085177960  0.8329255571355247  0.5482958155061723
  0.6679669900562644  0.6684152999386441  0.3130777703778236
  0.8294435990071207  0.8283047873249245  0.6900573422746774
  0.6766976298040035  0.6481114328754956  0.7001208146484714
  0.8345339685132842  0.8349858352715529  0.3126518307108128
  0.8345316996276964  0.6672986899524460  0.4537828948348235
  0.6648182508195717  0.8314782058195718  0.5498251092276334
  0.5628598815157062  0.7295298485157105  0.7592076686897826
  0.6033073732024903  0.7699773402024945  0.7858016364094098
 
  0.00000000E+00  0.00000000E+00  0.00000000E+00
  0.00000000E+00  0.00000000E+00  0.00000000E+00
  0.00000000E+00  0.00000000E+00  0.00000000E+00
  0.00000000E+00  0.00000000E+00  0.00000000E+00
  0.00000000E+00  0.00000000E+00  0.00000000E+00
  0.00000000E+00  0.00000000E+00  0.00000000E+00
  0.00000000E+00  0.00000000E+00  0.00000000E+00
  0.00000000E+00  0.00000000E+00  0.00000000E+00
  0.00000000E+00  0.00000000E+00  0.00000000E+00
  0.00000000E+00  0.00000000E+00  0.00000000E+00
  0.00000000E+00  0.00000000E+00  0.00000000E+00
  0.00000000E+00  0.00000000E+00  0.00000000E+00
  0.00000000E+00  0.00000000E+00  0.00000000E+00
  0.00000000E+00  0.00000000E+00  0.00000000E+00
  0.00000000E+00  0.00000000E+00  0.00000000E+00
  0.00000000E+00  0.00000000E+00  0.00000000E+00
  0.00000000E+00  0.00000000E+00  0.00000000E+00
  0.00000000E+00  0.00000000E+00  0.00000000E+00
  0.00000000E+00  0.00000000E+00  0.00000000E+00
  0.00000000E+00  0.00000000E+00  0.00000000E+00
  0.00000000E+00  0.00000000E+00  0.00000000E+00
  0.00000000E+00  0.00000000E+00  0.00000000E+00
  0.00000000E+00  0.00000000E+00  0.00000000E+00
  0.00000000E+00  0.00000000E+00  0.00000000E+00
  0.00000000E+00  0.00000000E+00  0.00000000E+00
  0.00000000E+00  0.00000000E+00  0.00000000E+00
  0.00000000E+00  0.00000000E+00  0.00000000E+00
  0.00000000E+00  0.00000000E+00  0.00000000E+00
  0.00000000E+00  0.00000000E+00  0.00000000E+00
  0.00000000E+00  0.00000000E+00  0.00000000E+00
  0.00000000E+00  0.00000000E+00  0.00000000E+00
  0.00000000E+00  0.00000000E+00  0.00000000E+00
  0.00000000E+00  0.00000000E+00  0.00000000E+00
  0.00000000E+00  0.00000000E+00  0.00000000E+00
  0.00000000E+00  0.00000000E+00  0.00000000E+00
  0.00000000E+00  0.00000000E+00  0.00000000E+00
  0.00000000E+00  0.00000000E+00  0.00000000E+00
  0.00000000E+00  0.00000000E+00  0.00000000E+00
  0.00000000E+00  0.00000000E+00  0.00000000E+00
  0.00000000E+00  0.00000000E+00  0.00000000E+00
  0.00000000E+00  0.00000000E+00  0.00000000E+00
  0.00000000E+00  0.00000000E+00  0.00000000E+00
  0.00000000E+00  0.00000000E+00  0.00000000E+00
  0.00000000E+00  0.00000000E+00  0.00000000E+00
  0.00000000E+00  0.00000000E+00  0.00000000E+00
  0.00000000E+00  0.00000000E+00  0.00000000E+00
  0.00000000E+00  0.00000000E+00  0.00000000E+00
  0.00000000E+00  0.00000000E+00  0.00000000E+00
  0.00000000E+00  0.00000000E+00  0.00000000E+00
  0.00000000E+00  0.00000000E+00  0.00000000E+00
  0.00000000E+00  0.00000000E+00  0.00000000E+00
  0.00000000E+00  0.00000000E+00  0.00000000E+00
  0.00000000E+00  0.00000000E+00  0.00000000E+00
  0.00000000E+00  0.00000000E+00  0.00000000E+00
  0.00000000E+00  0.00000000E+00  0.00000000E+00
  0.00000000E+00  0.00000000E+00  0.00000000E+00
  0.00000000E+00  0.00000000E+00  0.00000000E+00
  0.00000000E+00  0.00000000E+00  0.00000000E+00
  0.00000000E+00  0.00000000E+00  0.00000000E+00
  0.00000000E+00  0.00000000E+00  0.00000000E+00
  0.00000000E+00  0.00000000E+00  0.00000000E+00
  0.00000000E+00  0.00000000E+00  0.00000000E+00
  0.00000000E+00  0.00000000E+00  0.00000000E+00
  0.00000000E+00  0.00000000E+00  0.00000000E+00
  0.00000000E+00  0.00000000E+00  0.00000000E+00
  0.00000000E+00  0.00000000E+00  0.00000000E+00
  0.00000000E+00  0.00000000E+00  0.00000000E+00
  0.00000000E+00  0.00000000E+00  0.00000000E+00
  0.00000000E+00  0.00000000E+00  0.00000000E+00
  0.00000000E+00  0.00000000E+00  0.00000000E+00
  0.00000000E+00  0.00000000E+00  0.00000000E+00
  0.00000000E+00  0.00000000E+00  0.00000000E+00
  0.00000000E+00  0.00000000E+00  0.00000000E+00
  0.00000000E+00  0.00000000E+00  0.00000000E+00
