Ta8 Ag2 S16                             
   1.00000000000000     
     5.8122470661002277   -0.0097598733358610   -0.0029304935741212
     0.0122170671581017    6.7168939074474645    0.0003693370390321
    -0.9829538798752904   -1.6790957734083172   13.1812170098159527
   Ta   Ag   S 
     8     2    16
Direct
  0.2050054907378097  0.0722476594079635  0.7737777045610614
  0.2050995929129406  0.5646570417155976  0.7738420437378811
  0.7184480608400424  0.3181992757036233  0.7726851573457660
  0.7949004070870592  0.4353429632843992  0.2261580242621174
  0.7202627282698907  0.8183896382561823  0.7739777138966678
  0.7949945912621900  0.9277523635920348  0.2262223634389372
  0.2815519051599619  0.6818007422963782  0.2273148926542311
  0.2797373407301115  0.1816103707438221  0.2260223361033362
  0.6674184782029873  0.2563264957982120  0.5231983051810039
  0.3325814787970127  0.7436735452017879  0.4768016918189922
  0.1396204772159940  0.9677349069168947  0.3479820808913035
  0.1033906493631811  0.9017420340997022  0.1085141995514524
  0.1393958524557492  0.4561376406161237  0.3480041173967598
  0.1032610606911333  0.4025196405299334  0.1084987428328764
  0.8967389543088646  0.5974803204700669  0.8915012891671262
  0.8606042555442527  0.5438624003838761  0.6519959506032386
  0.6392807492706808  0.2105158517090952  0.3418995206142492
  0.6015163959622577  0.1531598734277983  0.1127238827825733
  0.8966093056368187  0.0982579559002971  0.8914858414485475
  0.8603795277840101  0.0322651070831065  0.6520179861086913
  0.6463703915540910  0.7113911364553112  0.3455274014103026
  0.5980044618723607  0.6527574956794648  0.1107655833720759
  0.3984836280377441  0.8468401025721997  0.8872761402174320
  0.3607192407293184  0.7894841002909009  0.6581005463857457
  0.4019955651276451  0.3472425383205310  0.8892344576279240
  0.3536295854459106  0.2886089045446887  0.6544725955896935
 
  0.00000000E+00  0.00000000E+00  0.00000000E+00
  0.00000000E+00  0.00000000E+00  0.00000000E+00
  0.00000000E+00  0.00000000E+00  0.00000000E+00
  0.00000000E+00  0.00000000E+00  0.00000000E+00
  0.00000000E+00  0.00000000E+00  0.00000000E+00
  0.00000000E+00  0.00000000E+00  0.00000000E+00
  0.00000000E+00  0.00000000E+00  0.00000000E+00
  0.00000000E+00  0.00000000E+00  0.00000000E+00
  0.00000000E+00  0.00000000E+00  0.00000000E+00
  0.00000000E+00  0.00000000E+00  0.00000000E+00
  0.00000000E+00  0.00000000E+00  0.00000000E+00
  0.00000000E+00  0.00000000E+00  0.00000000E+00
  0.00000000E+00  0.00000000E+00  0.00000000E+00
  0.00000000E+00  0.00000000E+00  0.00000000E+00
  0.00000000E+00  0.00000000E+00  0.00000000E+00
  0.00000000E+00  0.00000000E+00  0.00000000E+00
  0.00000000E+00  0.00000000E+00  0.00000000E+00
  0.00000000E+00  0.00000000E+00  0.00000000E+00
  0.00000000E+00  0.00000000E+00  0.00000000E+00
  0.00000000E+00  0.00000000E+00  0.00000000E+00
  0.00000000E+00  0.00000000E+00  0.00000000E+00
  0.00000000E+00  0.00000000E+00  0.00000000E+00
  0.00000000E+00  0.00000000E+00  0.00000000E+00
  0.00000000E+00  0.00000000E+00  0.00000000E+00
  0.00000000E+00  0.00000000E+00  0.00000000E+00
  0.00000000E+00  0.00000000E+00  0.00000000E+00
