CONTCAR\(2)                             
   1.00000000000000     
    10.4272003174000005    0.0000000000000000    0.0000000000000000
     0.0000000000000000   15.5413999556999993    0.0000000000000000
     0.0000000000000000    0.0000000000000000   22.9932003021000000
   Nb   Se   O    H 
    18    54     1     1
Direct
  0.0793033174348778  0.4898487916947047  0.4135333469789373
  0.2455038178721836  0.5048346810146995  0.5848851390432657
  0.0786661062365255  0.2449647699841648  0.5712562377390569
  0.2464418322659512  0.7493450424047907  0.4270490725545955
  0.0800368484235605  0.9122398407166514  0.5646888766815792
  0.2469780707792211  0.0806914437054189  0.4342727210995889
  0.4125183068865610  0.4895978288013509  0.4135150602886313
  0.5790342910842625  0.5048191705056340  0.5848667154235514
  0.4104347964285324  0.2454481250373206  0.5712419925854775
  0.5786698370147789  0.7493717785072107  0.4266667892848943
  0.4185041922555399  0.9131692119587669  0.5658655049454282
  0.5783185725616278  0.0814256645932687  0.4334782771042853
  0.7460725440359468  0.4896359467047233  0.4135521723407933
  0.9123448655088779  0.5047088732980072  0.5848800630393356
  0.7455821533912754  0.2450985143253419  0.5710931807726496
  0.9115582231057644  0.7494716404672417  0.4271625449872687
  0.7391824955236643  0.9125395208276146  0.5656624666294832
  0.9099656391875115  0.0804911718801478  0.4345893834360908
  0.0790497352696420  0.6309076707427934  0.6057737735506876
  0.2458214905093854  0.3636100616306024  0.3922308516256479
  0.0790569780558243  0.4153211361845379  0.5220209896664585
  0.2460648010962672  0.5789515323493362  0.4762658301598393
  0.0787322991556394  0.5109749494349813  0.6725957499103714
  0.2459052683941110  0.4836163948209986  0.3257823354165055
  0.2464272151452178  0.9161654141326281  0.4778018903420289
  0.0785535549973417  0.0772947498887078  0.5212790999395551
  0.2449158328458552  0.9859379457248494  0.6365318245859797
  0.0781785047416079  0.0070857383120355  0.3623351354139857
  0.2466300518733817  0.8246540363373924  0.6283500416385266
  0.0780601534820349  0.1688851070492987  0.3715924626095770
  0.2444346819381948  0.1587099974626511  0.6348055167279227
  0.0786893207912627  0.8357454339063182  0.3639931228543176
  0.2448172403708426  0.3432231600817133  0.6303645887107052
  0.0789390885043346  0.6518233437636596  0.3685253042956163
  0.2453563797861307  0.2406169956694058  0.4841684320038908
  0.0791670113860832  0.7531260139379796  0.5140888835860480
  0.4124026561677212  0.6309250837826852  0.6056688362430833
  0.5794416905720539  0.3635060722054391  0.3927232314164542
  0.4122226265185560  0.4154655016645563  0.5221673760895058
  0.5791828418403782  0.5788194833707365  0.4763197076552999
  0.4122101797561797  0.5110508500160833  0.6724896136747418
  0.5793296782697510  0.4834851808466993  0.3259068005101753
  0.5784926376033823  0.9160132304673709  0.4764145175110883
  0.4138128915574910  0.0776370606027825  0.5216581665839399
  0.5762051671924979  0.9940752309029222  0.6350234580798286
  0.4116489420765390  0.0078282626217074  0.3603808452274322
  0.5787299000063015  0.8228603593201811  0.6277764342816923
  0.4116039549607464  0.1695455165846838  0.3702138099554872
  0.5771955963878810  0.1633685907849127  0.6381785282049179
  0.4115401887523262  0.8358346511249621  0.3631730537237274
  0.5786650806835567  0.3418323287827363  0.6303921805334625
  0.4124864492687976  0.6513626010105398  0.3681259478729189
  0.5782887160285313  0.2411282524348834  0.4845224307537279
  0.4131490406962826  0.7533850383608041  0.5140363332682512
  0.7455616755662504  0.6308839307747220  0.6056042929474827
  0.9127927112648919  0.3636369066970033  0.3923256243096986
  0.7457277338207078  0.4153885995219113  0.5221459605902581
  0.9124727692536396  0.5789486199438585  0.4763410199165037
  0.7454633427724602  0.5110497572062727  0.6725170346424179
  0.9126686442076561  0.4835152767830806  0.3257951078535299
  0.9105422547397524  0.9160398739080193  0.4780787784581548
  0.7416543661513444  0.0770963698731961  0.5219987566556838
  0.9122029712161819  0.9866580470921278  0.6358086226656781
  0.7452951925912501  0.0078303241133924  0.3605953130063568
  0.9118033997630732  0.8245295755420443  0.6277804233870796
  0.7454471534257792  0.1696867630950649  0.3705747346691339
  0.9118892538587460  0.1585962031140369  0.6348412584334042
  0.7456885459170479  0.8358517680433835  0.3631556148640200
  0.9119549844646926  0.3427256731753090  0.6302271212703090
  0.7458558520477112  0.6514087533214195  0.3682770772164119
  0.9113803200459998  0.2403530710896788  0.4843643252281140
  0.7442935777272197  0.7533370766237510  0.5140321323497758
  0.5466101360042472  0.9844214617205509  0.7189948529104342
  0.6300309914825348  0.9971267266195767  0.7366853530671875
 
  0.00000000E+00  0.00000000E+00  0.00000000E+00
  0.00000000E+00  0.00000000E+00  0.00000000E+00
  0.00000000E+00  0.00000000E+00  0.00000000E+00
  0.00000000E+00  0.00000000E+00  0.00000000E+00
  0.00000000E+00  0.00000000E+00  0.00000000E+00
  0.00000000E+00  0.00000000E+00  0.00000000E+00
  0.00000000E+00  0.00000000E+00  0.00000000E+00
  0.00000000E+00  0.00000000E+00  0.00000000E+00
  0.00000000E+00  0.00000000E+00  0.00000000E+00
  0.00000000E+00  0.00000000E+00  0.00000000E+00
  0.00000000E+00  0.00000000E+00  0.00000000E+00
  0.00000000E+00  0.00000000E+00  0.00000000E+00
  0.00000000E+00  0.00000000E+00  0.00000000E+00
  0.00000000E+00  0.00000000E+00  0.00000000E+00
  0.00000000E+00  0.00000000E+00  0.00000000E+00
  0.00000000E+00  0.00000000E+00  0.00000000E+00
  0.00000000E+00  0.00000000E+00  0.00000000E+00
  0.00000000E+00  0.00000000E+00  0.00000000E+00
  0.00000000E+00  0.00000000E+00  0.00000000E+00
  0.00000000E+00  0.00000000E+00  0.00000000E+00
  0.00000000E+00  0.00000000E+00  0.00000000E+00
  0.00000000E+00  0.00000000E+00  0.00000000E+00
  0.00000000E+00  0.00000000E+00  0.00000000E+00
  0.00000000E+00  0.00000000E+00  0.00000000E+00
  0.00000000E+00  0.00000000E+00  0.00000000E+00
  0.00000000E+00  0.00000000E+00  0.00000000E+00
  0.00000000E+00  0.00000000E+00  0.00000000E+00
  0.00000000E+00  0.00000000E+00  0.00000000E+00
  0.00000000E+00  0.00000000E+00  0.00000000E+00
  0.00000000E+00  0.00000000E+00  0.00000000E+00
  0.00000000E+00  0.00000000E+00  0.00000000E+00
  0.00000000E+00  0.00000000E+00  0.00000000E+00
  0.00000000E+00  0.00000000E+00  0.00000000E+00
  0.00000000E+00  0.00000000E+00  0.00000000E+00
  0.00000000E+00  0.00000000E+00  0.00000000E+00
  0.00000000E+00  0.00000000E+00  0.00000000E+00
  0.00000000E+00  0.00000000E+00  0.00000000E+00
  0.00000000E+00  0.00000000E+00  0.00000000E+00
  0.00000000E+00  0.00000000E+00  0.00000000E+00
  0.00000000E+00  0.00000000E+00  0.00000000E+00
  0.00000000E+00  0.00000000E+00  0.00000000E+00
  0.00000000E+00  0.00000000E+00  0.00000000E+00
  0.00000000E+00  0.00000000E+00  0.00000000E+00
  0.00000000E+00  0.00000000E+00  0.00000000E+00
  0.00000000E+00  0.00000000E+00  0.00000000E+00
  0.00000000E+00  0.00000000E+00  0.00000000E+00
  0.00000000E+00  0.00000000E+00  0.00000000E+00
  0.00000000E+00  0.00000000E+00  0.00000000E+00
  0.00000000E+00  0.00000000E+00  0.00000000E+00
  0.00000000E+00  0.00000000E+00  0.00000000E+00
  0.00000000E+00  0.00000000E+00  0.00000000E+00
  0.00000000E+00  0.00000000E+00  0.00000000E+00
  0.00000000E+00  0.00000000E+00  0.00000000E+00
  0.00000000E+00  0.00000000E+00  0.00000000E+00
  0.00000000E+00  0.00000000E+00  0.00000000E+00
  0.00000000E+00  0.00000000E+00  0.00000000E+00
  0.00000000E+00  0.00000000E+00  0.00000000E+00
  0.00000000E+00  0.00000000E+00  0.00000000E+00
  0.00000000E+00  0.00000000E+00  0.00000000E+00
  0.00000000E+00  0.00000000E+00  0.00000000E+00
  0.00000000E+00  0.00000000E+00  0.00000000E+00
  0.00000000E+00  0.00000000E+00  0.00000000E+00
  0.00000000E+00  0.00000000E+00  0.00000000E+00
  0.00000000E+00  0.00000000E+00  0.00000000E+00
  0.00000000E+00  0.00000000E+00  0.00000000E+00
  0.00000000E+00  0.00000000E+00  0.00000000E+00
  0.00000000E+00  0.00000000E+00  0.00000000E+00
  0.00000000E+00  0.00000000E+00  0.00000000E+00
  0.00000000E+00  0.00000000E+00  0.00000000E+00
  0.00000000E+00  0.00000000E+00  0.00000000E+00
  0.00000000E+00  0.00000000E+00  0.00000000E+00
  0.00000000E+00  0.00000000E+00  0.00000000E+00
  0.00000000E+00  0.00000000E+00  0.00000000E+00
  0.00000000E+00  0.00000000E+00  0.00000000E+00
