CONTCAR\(10)                            
   1.00000000000000     
    10.8522996902000006    0.0000000000000000    0.0000000000000000
     0.0000000000000000   12.1091003417999996    0.0000000000000000
     0.0000000000000000    0.0000000000000000   21.5909996032999985
   Ag   Ir   F 
     8     8    56
Direct
 -0.0000000000000000  0.3911839377962470  0.5008034788685254
 -0.0000000000000000  0.1411839477962479  0.4991665301314762
  0.5000000000000000  0.3911839377962470  0.5008034788685254
  0.5000000000000000  0.1411839477962479  0.4991665301314762
 -0.0000000000000000  0.8911839377962469  0.5008034788685254
 -0.0000000000000000  0.6411839777962502  0.4991665301314762
  0.5000000000000000  0.8911839377962469  0.5008034788685254
  0.5000000000000000  0.6411839777962502  0.4991665301314762
  0.2500000000000000  0.0791284366912087  0.3740619143286025
  0.2500000000000000  0.3291384396912087  0.6259081386713956
  0.7500000220000018  0.0791284366912087  0.3740619143286025
  0.7500000220000018  0.3291384396912087  0.6259081386713956
  0.2500000000000000  0.5791284566912103  0.3740619143286025
  0.2500000000000000  0.8291384196912068  0.6259081386713956
  0.7500000220000018  0.5791284566912103  0.3740619143286025
  0.7500000220000018  0.8291384196912068  0.6259081386713956
  0.2500000000000000  0.4537427546504713  0.5726093914515809
  0.1270963049418477  0.3907713832053567  0.6760645781631979
  0.3729532210472406  0.2662044926345142  0.5720009810010903
  0.2500000000000000  0.1994816878412317  0.6736792465353058
  0.3728936990581496  0.1407613812053535  0.3239054518368022
 -0.0000000000000000  0.2678915153410973  0.4353093552935403
  0.2500000000000000  0.2037327326504732  0.4273606175484210
  0.2500000000000000  0.4494716858412283  0.3262907184646922
  0.1271063119418479  0.1407613812053535  0.3239054518368022
  0.1270567749527551  0.0161944806345101  0.4279690709989116
 -0.0000000000000000  0.0178814923411028  0.5646606527064651
  0.3729432030472430  0.0161944806345101  0.4279690709989116
  0.3729036730581505  0.3907713832053567  0.6760645781631979
  0.1270467789527593  0.2662044926345142  0.5720009810010903
  0.7500000220000018  0.4537427546504713  0.5726093914515809
  0.6270962829418458  0.3907713832053567  0.6760645781631979
  0.8729532650472442  0.2662044926345142  0.5720009810010903
  0.7500000220000018  0.1994816878412317  0.6736792465353058
  0.8728936990581495  0.1407613812053535  0.3239054518368022
  0.5000000000000000  0.2678915153410973  0.4353093552935403
  0.7500000220000018  0.2037327326504732  0.4273606175484210
  0.7500000220000018  0.4494716858412283  0.3262907184646922
  0.6271063009418505  0.1407613812053535  0.3239054518368022
  0.6270567969527570  0.0161944806345101  0.4279690709989116
  0.5000000000000000  0.0178814923411028  0.5646606527064651
  0.8729432470472396  0.0161944806345101  0.4279690709989116
  0.8729037170581542  0.3907713832053567  0.6760645781631979
  0.6270467789527594  0.2662044926345142  0.5720009810010903
  0.2500000000000000  0.9537427546504711  0.5726093914515809
  0.1270963049418477  0.8907713432053534  0.6760645781631979
  0.3729532210472406  0.7662044926345143  0.5720009810010903
  0.2500000000000000  0.6994817278412279  0.6736792465353058
  0.3728936990581496  0.6407613812053534  0.3239054518368022
 -0.0000000000000000  0.7678914953411026  0.4353093552935403
  0.2500000000000000  0.7037327516504712  0.4273606175484210
  0.2500000000000000  0.9494717248412280  0.3262907184646922
  0.1271063119418479  0.6407613812053534  0.3239054518368022
  0.1270567749527551  0.5161944906345109  0.4279690709989116
 -0.0000000000000000  0.5178815323410989  0.5646606527064651
  0.3729432030472430  0.5161944906345109  0.4279690709989116
  0.3729036730581506  0.8907713432053534  0.6760645781631979
  0.1270467789527593  0.7662044926345143  0.5720009810010903
  0.7500000220000018  0.9537427546504711  0.5726093914515809
  0.6270962829418458  0.8907713432053534  0.6760645781631979
  0.8729532650472442  0.7662044926345143  0.5720009810010903
  0.7500000220000018  0.6994817278412279  0.6736792465353058
  0.8728936990581495  0.6407613812053534  0.3239054518368022
  0.5000000000000000  0.7678914953411026  0.4353093552935403
  0.7500000220000018  0.7037327516504712  0.4273606175484210
  0.7500000220000018  0.9494717248412280  0.3262907184646922
  0.6271063009418505  0.6407613812053534  0.3239054518368022
  0.6270567969527570  0.5161944906345109  0.4279690709989116
  0.5000000000000000  0.5178815323410989  0.5646606527064651
  0.8729432470472396  0.5161944906345109  0.4279690709989116
  0.8729037170581542  0.8907713432053534  0.6760645781631979
  0.6270467789527594  0.7662044926345143  0.5720009810010903
 
  0.00000000E+00  0.00000000E+00  0.00000000E+00
  0.00000000E+00  0.00000000E+00  0.00000000E+00
  0.00000000E+00  0.00000000E+00  0.00000000E+00
  0.00000000E+00  0.00000000E+00  0.00000000E+00
  0.00000000E+00  0.00000000E+00  0.00000000E+00
  0.00000000E+00  0.00000000E+00  0.00000000E+00
  0.00000000E+00  0.00000000E+00  0.00000000E+00
  0.00000000E+00  0.00000000E+00  0.00000000E+00
  0.00000000E+00  0.00000000E+00  0.00000000E+00
  0.00000000E+00  0.00000000E+00  0.00000000E+00
  0.00000000E+00  0.00000000E+00  0.00000000E+00
  0.00000000E+00  0.00000000E+00  0.00000000E+00
  0.00000000E+00  0.00000000E+00  0.00000000E+00
  0.00000000E+00  0.00000000E+00  0.00000000E+00
  0.00000000E+00  0.00000000E+00  0.00000000E+00
  0.00000000E+00  0.00000000E+00  0.00000000E+00
  0.00000000E+00  0.00000000E+00  0.00000000E+00
  0.00000000E+00  0.00000000E+00  0.00000000E+00
  0.00000000E+00  0.00000000E+00  0.00000000E+00
  0.00000000E+00  0.00000000E+00  0.00000000E+00
  0.00000000E+00  0.00000000E+00  0.00000000E+00
  0.00000000E+00  0.00000000E+00  0.00000000E+00
  0.00000000E+00  0.00000000E+00  0.00000000E+00
  0.00000000E+00  0.00000000E+00  0.00000000E+00
  0.00000000E+00  0.00000000E+00  0.00000000E+00
  0.00000000E+00  0.00000000E+00  0.00000000E+00
  0.00000000E+00  0.00000000E+00  0.00000000E+00
  0.00000000E+00  0.00000000E+00  0.00000000E+00
  0.00000000E+00  0.00000000E+00  0.00000000E+00
  0.00000000E+00  0.00000000E+00  0.00000000E+00
  0.00000000E+00  0.00000000E+00  0.00000000E+00
  0.00000000E+00  0.00000000E+00  0.00000000E+00
  0.00000000E+00  0.00000000E+00  0.00000000E+00
  0.00000000E+00  0.00000000E+00  0.00000000E+00
  0.00000000E+00  0.00000000E+00  0.00000000E+00
  0.00000000E+00  0.00000000E+00  0.00000000E+00
  0.00000000E+00  0.00000000E+00  0.00000000E+00
  0.00000000E+00  0.00000000E+00  0.00000000E+00
  0.00000000E+00  0.00000000E+00  0.00000000E+00
  0.00000000E+00  0.00000000E+00  0.00000000E+00
  0.00000000E+00  0.00000000E+00  0.00000000E+00
  0.00000000E+00  0.00000000E+00  0.00000000E+00
  0.00000000E+00  0.00000000E+00  0.00000000E+00
  0.00000000E+00  0.00000000E+00  0.00000000E+00
  0.00000000E+00  0.00000000E+00  0.00000000E+00
  0.00000000E+00  0.00000000E+00  0.00000000E+00
  0.00000000E+00  0.00000000E+00  0.00000000E+00
  0.00000000E+00  0.00000000E+00  0.00000000E+00
  0.00000000E+00  0.00000000E+00  0.00000000E+00
  0.00000000E+00  0.00000000E+00  0.00000000E+00
  0.00000000E+00  0.00000000E+00  0.00000000E+00
  0.00000000E+00  0.00000000E+00  0.00000000E+00
  0.00000000E+00  0.00000000E+00  0.00000000E+00
  0.00000000E+00  0.00000000E+00  0.00000000E+00
  0.00000000E+00  0.00000000E+00  0.00000000E+00
  0.00000000E+00  0.00000000E+00  0.00000000E+00
  0.00000000E+00  0.00000000E+00  0.00000000E+00
  0.00000000E+00  0.00000000E+00  0.00000000E+00
  0.00000000E+00  0.00000000E+00  0.00000000E+00
  0.00000000E+00  0.00000000E+00  0.00000000E+00
  0.00000000E+00  0.00000000E+00  0.00000000E+00
  0.00000000E+00  0.00000000E+00  0.00000000E+00
  0.00000000E+00  0.00000000E+00  0.00000000E+00
  0.00000000E+00  0.00000000E+00  0.00000000E+00
  0.00000000E+00  0.00000000E+00  0.00000000E+00
  0.00000000E+00  0.00000000E+00  0.00000000E+00
  0.00000000E+00  0.00000000E+00  0.00000000E+00
  0.00000000E+00  0.00000000E+00  0.00000000E+00
  0.00000000E+00  0.00000000E+00  0.00000000E+00
  0.00000000E+00  0.00000000E+00  0.00000000E+00
  0.00000000E+00  0.00000000E+00  0.00000000E+00
  0.00000000E+00  0.00000000E+00  0.00000000E+00
