CONTCAR\(2)                             
   1.00000000000000     
    14.5984001160000005    0.0000000000000000    0.0000000000000000
     0.0000000000000000   14.5984001160000005    0.0000000000000000
     0.0000000000000000    0.0000000000000000   22.0592994689999990
   Zr   Si   Te
    32    32    32
Direct
  0.1250000000000000  0.0000000000000000  0.5964883240491048
  0.0000000000000000  0.1250000000000000  0.4035016889508967
  0.3750000000000000  0.0000000000000000  0.5964883240491048
  0.2500000000000000  0.1250000000000000  0.4035016889508967
  0.6250000329999992  0.0000000000000000  0.5964883240491048
  0.5000000000000000  0.1250000000000000  0.4035016889508967
  0.8749999670000008  0.0000000000000000  0.5964883240491048
  0.7500000000000000  0.1250000000000000  0.4035016889508967
  0.1250000000000000  0.2500000000000000  0.5964883240491048
  0.0000000000000000  0.3750000000000000  0.4035016889508967
  0.3750000000000000  0.2500000000000000  0.5964883240491048
  0.2500000000000000  0.3750000000000000  0.4035016889508967
  0.6250000329999992  0.2500000000000000  0.5964883240491048
  0.5000000000000000  0.3750000000000000  0.4035016889508967
  0.8749999670000008  0.2500000000000000  0.5964883240491048
  0.7500000000000000  0.3750000000000000  0.4035016889508967
  0.1250000000000000  0.5000000000000000  0.5964883240491048
  0.0000000000000000  0.6250000329999992  0.4035016889508967
  0.3750000000000000  0.5000000000000000  0.5964883240491048
  0.2500000000000000  0.6250000329999992  0.4035016889508967
  0.6250000329999992  0.5000000000000000  0.5964883240491048
  0.5000000000000000  0.6250000329999992  0.4035016889508967
  0.8749999670000008  0.5000000000000000  0.5964883240491048
  0.7500000000000000  0.6250000329999992  0.4035016889508967
  0.1250000000000000  0.7500000000000000  0.5964883240491048
  0.0000000000000000  0.8749999670000008  0.4035016889508967
  0.3750000000000000  0.7500000000000000  0.5964883240491048
  0.2500000000000000  0.8749999670000008  0.4035016889508967
  0.6250000329999992  0.7500000000000000  0.5964883240491048
  0.5000000000000000  0.8749999670000008  0.4035016889508967
  0.8749999670000008  0.7500000000000000  0.5964883240491048
  0.7500000000000000  0.8749999670000008  0.4035016889508967
  0.1250000000000000  0.1250000000000000  0.5000000000000000
  0.0000000000000000  0.0000000000000000  0.5000000000000000
  0.3750000000000000  0.1250000000000000  0.5000000000000000
  0.2500000000000000  0.0000000000000000  0.5000000000000000
  0.6250000329999992  0.1250000000000000  0.5000000000000000
  0.5000000000000000  0.0000000000000000  0.5000000000000000
  0.8749999670000008  0.1250000000000000  0.5000000000000000
  0.7500000000000000  0.0000000000000000  0.5000000000000000
  0.1250000000000000  0.3750000000000000  0.5000000000000000
  0.0000000000000000  0.2500000000000000  0.5000000000000000
  0.3750000000000000  0.3750000000000000  0.5000000000000000
  0.2500000000000000  0.2500000000000000  0.5000000000000000
  0.6250000329999992  0.3750000000000000  0.5000000000000000
  0.5000000000000000  0.2500000000000000  0.5000000000000000
  0.8749999670000008  0.3750000000000000  0.5000000000000000
  0.7500000000000000  0.2500000000000000  0.5000000000000000
  0.1250000000000000  0.6250000329999992  0.5000000000000000
  0.0000000000000000  0.5000000000000000  0.5000000000000000
  0.3750000000000000  0.6250000329999992  0.5000000000000000
  0.2500000000000000  0.5000000000000000  0.5000000000000000
  0.6250000329999992  0.6250000329999992  0.5000000000000000
  0.5000000000000000  0.5000000000000000  0.5000000000000000
  0.8749999670000008  0.6250000329999992  0.5000000000000000
  0.7500000000000000  0.5000000000000000  0.5000000000000000
  0.1250000000000000  0.8749999670000008  0.5000000000000000
  0.0000000000000000  0.7500000000000000  0.5000000000000000
  0.3750000000000000  0.8749999670000008  0.5000000000000000
  0.2500000000000000  0.7500000000000000  0.5000000000000000
  0.6250000329999992  0.8749999670000008  0.5000000000000000
  0.5000000000000000  0.7500000000000000  0.5000000000000000
  0.8749999670000008  0.8749999670000008  0.5000000000000000
  0.7500000000000000  0.7500000000000000  0.5000000000000000
  0.0000000000000000  0.1250000000000000  0.6600278785815163
  0.1250000000000000  0.0000000000000000  0.3399720784184836
  0.2500000000000000  0.1250000000000000  0.6600278785815163
  0.3750000000000000  0.0000000000000000  0.3399720784184836
  0.5000000000000000  0.1250000000000000  0.6600278785815163
  0.6250000329999992  0.0000000000000000  0.3399720784184836
  0.7500000000000000  0.1250000000000000  0.6600278785815163
  0.8749999670000008  0.0000000000000000  0.3399720784184836
  0.0000000000000000  0.3750000000000000  0.6600278785815163
  0.1250000000000000  0.2500000000000000  0.3399720784184836
  0.2500000000000000  0.3750000000000000  0.6600278785815163
  0.3750000000000000  0.2500000000000000  0.3399720784184836
  0.5000000000000000  0.3750000000000000  0.6600278785815163
  0.6250000329999992  0.2500000000000000  0.3399720784184836
  0.7500000000000000  0.3750000000000000  0.6600278785815163
  0.8749999670000008  0.2500000000000000  0.3399720784184836
  0.0000000000000000  0.6250000329999992  0.6600278785815163
  0.1250000000000000  0.5000000000000000  0.3399720784184836
  0.2500000000000000  0.6250000329999992  0.6600278785815163
  0.3750000000000000  0.5000000000000000  0.3399720784184836
  0.5000000000000000  0.6250000329999992  0.6600278785815163
  0.6250000329999992  0.5000000000000000  0.3399720784184836
  0.7500000000000000  0.6250000329999992  0.6600278785815163
  0.8749999670000008  0.5000000000000000  0.3399720784184836
  0.0000000000000000  0.8749999670000008  0.6600278785815163
  0.1250000000000000  0.7500000000000000  0.3399720784184836
  0.2500000000000000  0.8749999670000008  0.6600278785815163
  0.3750000000000000  0.7500000000000000  0.3399720784184836
  0.5000000000000000  0.8749999670000008  0.6600278785815163
  0.6250000329999992  0.7500000000000000  0.3399720784184836
  0.7500000000000000  0.8749999670000008  0.6600278785815163
  0.8749999670000008  0.7500000000000000  0.3399720784184836
 
  0.00000000E+00  0.00000000E+00  0.00000000E+00
  0.00000000E+00  0.00000000E+00  0.00000000E+00
  0.00000000E+00  0.00000000E+00  0.00000000E+00
  0.00000000E+00  0.00000000E+00  0.00000000E+00
  0.00000000E+00  0.00000000E+00  0.00000000E+00
  0.00000000E+00  0.00000000E+00  0.00000000E+00
  0.00000000E+00  0.00000000E+00  0.00000000E+00
  0.00000000E+00  0.00000000E+00  0.00000000E+00
  0.00000000E+00  0.00000000E+00  0.00000000E+00
  0.00000000E+00  0.00000000E+00  0.00000000E+00
  0.00000000E+00  0.00000000E+00  0.00000000E+00
  0.00000000E+00  0.00000000E+00  0.00000000E+00
  0.00000000E+00  0.00000000E+00  0.00000000E+00
  0.00000000E+00  0.00000000E+00  0.00000000E+00
  0.00000000E+00  0.00000000E+00  0.00000000E+00
  0.00000000E+00  0.00000000E+00  0.00000000E+00
  0.00000000E+00  0.00000000E+00  0.00000000E+00
  0.00000000E+00  0.00000000E+00  0.00000000E+00
  0.00000000E+00  0.00000000E+00  0.00000000E+00
  0.00000000E+00  0.00000000E+00  0.00000000E+00
  0.00000000E+00  0.00000000E+00  0.00000000E+00
  0.00000000E+00  0.00000000E+00  0.00000000E+00
  0.00000000E+00  0.00000000E+00  0.00000000E+00
  0.00000000E+00  0.00000000E+00  0.00000000E+00
  0.00000000E+00  0.00000000E+00  0.00000000E+00
  0.00000000E+00  0.00000000E+00  0.00000000E+00
  0.00000000E+00  0.00000000E+00  0.00000000E+00
  0.00000000E+00  0.00000000E+00  0.00000000E+00
  0.00000000E+00  0.00000000E+00  0.00000000E+00
  0.00000000E+00  0.00000000E+00  0.00000000E+00
  0.00000000E+00  0.00000000E+00  0.00000000E+00
  0.00000000E+00  0.00000000E+00  0.00000000E+00
  0.00000000E+00  0.00000000E+00  0.00000000E+00
  0.00000000E+00  0.00000000E+00  0.00000000E+00
  0.00000000E+00  0.00000000E+00  0.00000000E+00
  0.00000000E+00  0.00000000E+00  0.00000000E+00
  0.00000000E+00  0.00000000E+00  0.00000000E+00
  0.00000000E+00  0.00000000E+00  0.00000000E+00
  0.00000000E+00  0.00000000E+00  0.00000000E+00
  0.00000000E+00  0.00000000E+00  0.00000000E+00
  0.00000000E+00  0.00000000E+00  0.00000000E+00
  0.00000000E+00  0.00000000E+00  0.00000000E+00
  0.00000000E+00  0.00000000E+00  0.00000000E+00
  0.00000000E+00  0.00000000E+00  0.00000000E+00
  0.00000000E+00  0.00000000E+00  0.00000000E+00
  0.00000000E+00  0.00000000E+00  0.00000000E+00
  0.00000000E+00  0.00000000E+00  0.00000000E+00
  0.00000000E+00  0.00000000E+00  0.00000000E+00
  0.00000000E+00  0.00000000E+00  0.00000000E+00
  0.00000000E+00  0.00000000E+00  0.00000000E+00
  0.00000000E+00  0.00000000E+00  0.00000000E+00
  0.00000000E+00  0.00000000E+00  0.00000000E+00
  0.00000000E+00  0.00000000E+00  0.00000000E+00
  0.00000000E+00  0.00000000E+00  0.00000000E+00
  0.00000000E+00  0.00000000E+00  0.00000000E+00
  0.00000000E+00  0.00000000E+00  0.00000000E+00
  0.00000000E+00  0.00000000E+00  0.00000000E+00
  0.00000000E+00  0.00000000E+00  0.00000000E+00
  0.00000000E+00  0.00000000E+00  0.00000000E+00
  0.00000000E+00  0.00000000E+00  0.00000000E+00
  0.00000000E+00  0.00000000E+00  0.00000000E+00
  0.00000000E+00  0.00000000E+00  0.00000000E+00
  0.00000000E+00  0.00000000E+00  0.00000000E+00
  0.00000000E+00  0.00000000E+00  0.00000000E+00
  0.00000000E+00  0.00000000E+00  0.00000000E+00
  0.00000000E+00  0.00000000E+00  0.00000000E+00
  0.00000000E+00  0.00000000E+00  0.00000000E+00
  0.00000000E+00  0.00000000E+00  0.00000000E+00
  0.00000000E+00  0.00000000E+00  0.00000000E+00
  0.00000000E+00  0.00000000E+00  0.00000000E+00
  0.00000000E+00  0.00000000E+00  0.00000000E+00
  0.00000000E+00  0.00000000E+00  0.00000000E+00
  0.00000000E+00  0.00000000E+00  0.00000000E+00
  0.00000000E+00  0.00000000E+00  0.00000000E+00
  0.00000000E+00  0.00000000E+00  0.00000000E+00
  0.00000000E+00  0.00000000E+00  0.00000000E+00
  0.00000000E+00  0.00000000E+00  0.00000000E+00
  0.00000000E+00  0.00000000E+00  0.00000000E+00
  0.00000000E+00  0.00000000E+00  0.00000000E+00
  0.00000000E+00  0.00000000E+00  0.00000000E+00
  0.00000000E+00  0.00000000E+00  0.00000000E+00
  0.00000000E+00  0.00000000E+00  0.00000000E+00
  0.00000000E+00  0.00000000E+00  0.00000000E+00
  0.00000000E+00  0.00000000E+00  0.00000000E+00
  0.00000000E+00  0.00000000E+00  0.00000000E+00
  0.00000000E+00  0.00000000E+00  0.00000000E+00
  0.00000000E+00  0.00000000E+00  0.00000000E+00
  0.00000000E+00  0.00000000E+00  0.00000000E+00
  0.00000000E+00  0.00000000E+00  0.00000000E+00
  0.00000000E+00  0.00000000E+00  0.00000000E+00
  0.00000000E+00  0.00000000E+00  0.00000000E+00
  0.00000000E+00  0.00000000E+00  0.00000000E+00
  0.00000000E+00  0.00000000E+00  0.00000000E+00
  0.00000000E+00  0.00000000E+00  0.00000000E+00
  0.00000000E+00  0.00000000E+00  0.00000000E+00
  0.00000000E+00  0.00000000E+00  0.00000000E+00
