CONTCAR\(2)                             
   1.00000000000000     
    11.7456998825000003    0.0000000000000000    0.0000000000000000
     0.0000000000000000   17.6870002747000008    0.0000000000000000
     0.0000000000000000    0.0000000000000000   19.5771007537999999
   Ti   Ge   Te   O    H 
     6     6    36     2     1
Direct
  0.0860271821660253  0.4792431527699528  0.5095874575419955
  0.2525200178110059  0.9525749728593628  0.4877725921476134
  0.4198501524189179  0.4794752885654717  0.5113039336224281
  0.5862578850035199  0.9526570243081971  0.4877519414298611
  0.7538664599172551  0.4792791684388144  0.5098976358904369
  0.9193463725043152  0.9527235163018466  0.4875230255876905
  0.2511161148941791  0.8020625815460084  0.4792753676414406
  0.0867662475798441  0.6298232468820930  0.5182494414916264
  0.5863843540472335  0.8022792671762796  0.4792343772597513
  0.4188046660680486  0.6298083224310360  0.5269228106761914
  0.9186194635662989  0.8025505581997763  0.4764475595220134
  0.7509372456307196  0.6298624650476501  0.5184217202798191
  0.0864410437820994  0.9244034074386206  0.3813729190382375
  0.2539345368295840  0.2565708774105550  0.5715176918007109
  0.2535651356693673  0.0631669899750977  0.3820170392143551
  0.0850712243380553  0.8966477310916064  0.5841620319892242
  0.2507102935398295  0.5067549346799343  0.6164207845843691
  0.0868011626644520  0.3680667274788373  0.6152715688954739
  0.0867425399906268  0.1753026960974826  0.4269672458425085
  0.2490893452296967  0.7069069888250666  0.5921121711095476
  0.0851922781326847  0.7261931736217518  0.4070662334931124
  0.2539804455805579  0.3814769820237021  0.4538379169855568
  0.0861995503353037  0.0508657947219496  0.5437608781151516
  0.2544074797692061  0.5355103826406782  0.4142538818872813
  0.4195157979669520  0.9239749328524199  0.3816652461614666
  0.5871817683515249  0.2566176220320708  0.5721634973542318
  0.5859151530285999  0.0631794884564434  0.3819865811449866
  0.4190280793838448  0.8961076704137625  0.5844488452720746
  0.5886718314544037  0.5068297347481928  0.6166235575424727
  0.4204881216450927  0.3681042776537568  0.6165075684417139
  0.4197035774900864  0.1751147139563232  0.4271641554997647
  0.5884397193664220  0.7070144950712905  0.5919477978838183
  0.4189629372826108  0.7235312600665321  0.4129112674453885
  0.5866308376247806  0.3815124649805567  0.4541660521604114
  0.4196132348614155  0.0502292887928356  0.5443001816057488
  0.5846803412674916  0.5354718903731739  0.4145219875932998
  0.7526957338636344  0.9244671105647840  0.3813106762608205
  0.9202671147247314  0.2557035572966566  0.5684577492123934
  0.9197432974375985  0.0636090345529845  0.3819811524263924
  0.7528136508804720  0.8967515051962777  0.5842325852902532
  0.9200169328008400  0.5081982573175322  0.6155401995988065
  0.7548548907159373  0.3680248723171229  0.6155323102840238
  0.7526789238437629  0.1752051176378838  0.4269147447248757
  0.9189969070607188  0.7063147193993464  0.5872455883982425
  0.7521147724102185  0.7261236113243967  0.4070564948127434
  0.9201239890452358  0.3810138124577543  0.4535288332228388
  0.7529587954923276  0.0508906189272222  0.5437591693981595
  0.9193472682814904  0.5358211201536086  0.4133979003559735
  0.4189550485684609  0.6619784558197832  0.6721401998347836
  0.4192041134021217  0.6292968749430182  0.7382393588266681
  0.4206062672804020  0.5746270421624511  0.7280383082012643
 
  0.00000000E+00  0.00000000E+00  0.00000000E+00
  0.00000000E+00  0.00000000E+00  0.00000000E+00
  0.00000000E+00  0.00000000E+00  0.00000000E+00
  0.00000000E+00  0.00000000E+00  0.00000000E+00
  0.00000000E+00  0.00000000E+00  0.00000000E+00
  0.00000000E+00  0.00000000E+00  0.00000000E+00
  0.00000000E+00  0.00000000E+00  0.00000000E+00
  0.00000000E+00  0.00000000E+00  0.00000000E+00
  0.00000000E+00  0.00000000E+00  0.00000000E+00
  0.00000000E+00  0.00000000E+00  0.00000000E+00
  0.00000000E+00  0.00000000E+00  0.00000000E+00
  0.00000000E+00  0.00000000E+00  0.00000000E+00
  0.00000000E+00  0.00000000E+00  0.00000000E+00
  0.00000000E+00  0.00000000E+00  0.00000000E+00
  0.00000000E+00  0.00000000E+00  0.00000000E+00
  0.00000000E+00  0.00000000E+00  0.00000000E+00
  0.00000000E+00  0.00000000E+00  0.00000000E+00
  0.00000000E+00  0.00000000E+00  0.00000000E+00
  0.00000000E+00  0.00000000E+00  0.00000000E+00
  0.00000000E+00  0.00000000E+00  0.00000000E+00
  0.00000000E+00  0.00000000E+00  0.00000000E+00
  0.00000000E+00  0.00000000E+00  0.00000000E+00
  0.00000000E+00  0.00000000E+00  0.00000000E+00
  0.00000000E+00  0.00000000E+00  0.00000000E+00
  0.00000000E+00  0.00000000E+00  0.00000000E+00
  0.00000000E+00  0.00000000E+00  0.00000000E+00
  0.00000000E+00  0.00000000E+00  0.00000000E+00
  0.00000000E+00  0.00000000E+00  0.00000000E+00
  0.00000000E+00  0.00000000E+00  0.00000000E+00
  0.00000000E+00  0.00000000E+00  0.00000000E+00
  0.00000000E+00  0.00000000E+00  0.00000000E+00
  0.00000000E+00  0.00000000E+00  0.00000000E+00
  0.00000000E+00  0.00000000E+00  0.00000000E+00
  0.00000000E+00  0.00000000E+00  0.00000000E+00
  0.00000000E+00  0.00000000E+00  0.00000000E+00
  0.00000000E+00  0.00000000E+00  0.00000000E+00
  0.00000000E+00  0.00000000E+00  0.00000000E+00
  0.00000000E+00  0.00000000E+00  0.00000000E+00
  0.00000000E+00  0.00000000E+00  0.00000000E+00
  0.00000000E+00  0.00000000E+00  0.00000000E+00
  0.00000000E+00  0.00000000E+00  0.00000000E+00
  0.00000000E+00  0.00000000E+00  0.00000000E+00
  0.00000000E+00  0.00000000E+00  0.00000000E+00
  0.00000000E+00  0.00000000E+00  0.00000000E+00
  0.00000000E+00  0.00000000E+00  0.00000000E+00
  0.00000000E+00  0.00000000E+00  0.00000000E+00
  0.00000000E+00  0.00000000E+00  0.00000000E+00
  0.00000000E+00  0.00000000E+00  0.00000000E+00
  0.00000000E+00  0.00000000E+00  0.00000000E+00
  0.00000000E+00  0.00000000E+00  0.00000000E+00
  0.00000000E+00  0.00000000E+00  0.00000000E+00
