CONTCAR                                 
   1.00000000000000     
    15.5289001464999998    0.0000000000000000    0.0000000000000000
     0.0000000000000000   11.7992000580000003    0.0000000000000000
     0.0000000000000000    0.0000000000000000   21.8141002654999987
   Hf   Te   O    H 
    16    48     1     1
Direct
  0.1876003709764941  0.3341354508797555  0.4253890688226726
  0.0621453797722035  0.0845748425037291  0.5787373581114370
  0.4377527342164464  0.3341695774129992  0.4248704343011452
  0.3130872661369188  0.0846897843081702  0.5787300495566637
  0.6875747476433645  0.3346859648787839  0.4252115738990447
  0.5643568482237117  0.0870651265161406  0.5804965986141456
  0.9374185672088999  0.3340730196098481  0.4248474906937131
  0.8108730693035926  0.0868772976048682  0.5805164590814678
  0.1876996480126564  0.8341128348248495  0.4254608615655519
  0.0621521541440674  0.5848634399939497  0.5788967089602289
  0.4374037240613247  0.8345822046435687  0.4248153318381889
  0.3128522333936420  0.5851019770941042  0.5788838707209822
  0.6876675916504429  0.8349906816110398  0.4244428801327164
  0.5607349417043054  0.5826228844043494  0.5779971437898839
  0.9379864430283849  0.8345211964202753  0.4247889631987569
  0.8143695288859533  0.5822744187185885  0.5778980879345873
  0.1876560284458236  0.0848337498501751  0.4779345129100519
  0.0622514869724275  0.3344996443469862  0.5262525647163178
  0.1875547743537497  0.4643135441431714  0.6561938789586517
  0.0628736814636995  0.4539594272347557  0.3466802642185250
  0.1875880544973272  0.2045728572651119  0.6573803983536792
  0.0626317847043806  0.2136013240155068  0.3472111095823766
  0.4387397291264248  0.0849163961223048  0.4782194140524323
  0.3128406596545658  0.3346828346493090  0.5262548791973308
  0.4361610084044844  0.4638151593184794  0.6573628318375212
  0.3122697176003104  0.4539305791092265  0.3466328696110728
  0.4374733027696170  0.2046995092038944  0.6580711416700771
  0.3126490348214503  0.2135879666044191  0.3472731666023636
  0.6876589406427941  0.0856155130439197  0.4781307829908829
  0.5623108974504957  0.3348189307961376  0.5258910024301524
  0.6875024969715490  0.4703546966399422  0.6562844178438297
  0.5628750607293497  0.4540843607106395  0.3465729714577085
  0.6875454625674589  0.2149604581142665  0.6556100642841542
  0.5627736419312659  0.2133974808520284  0.3472364838990629
  0.9365492412807709  0.0849171492474000  0.4782437767245056
  0.8128503527988227  0.3346154618702550  0.5259010757126332
  0.9387595337710085  0.4628654678968894  0.6569587386465913
  0.8122366936556928  0.4541134172834098  0.3466389241834452
  0.9376320393954088  0.2036151286454822  0.6587698905728083
  0.8123694336000408  0.2134361780608405  0.3471797556893787
  0.1874994520591068  0.5846501365149102  0.4780415084789244
  0.0623681546315000  0.8344210629623215  0.5262747946754928
  0.1876455075500352  0.9643070956249907  0.6562560228189547
  0.0631263985287952  0.9542041049777211  0.3469605192440305
  0.1874617062681340  0.7047230095707114  0.6579531297174344
  0.0630424763651719  0.7137304038057674  0.3469801273134311
  0.4362186535849141  0.5838540350992997  0.4771824034125933
  0.3128854579200602  0.8345871853322009  0.5263044060662289
  0.4378154179803896  0.9643126976813209  0.6568387070094684
  0.3124314414917206  0.9541884715339695  0.3468487828404012
  0.4398324528901770  0.7042275971726027  0.6580450128920685
  0.3124251267983744  0.7136975221500377  0.3470993595495521
  0.6875336471128740  0.5855748599954452  0.4775475720200536
  0.5620728597557857  0.8370457880866320  0.5252271754881370
  0.6876272459538463  0.9721393666162925  0.6617859288489978
  0.5624794049865873  0.9543211331135013  0.3460613821082214
  0.6876463184318286  0.7234304187977996  0.6403638651345094
  0.5625318704944211  0.7135406962991591  0.3473590028464851
  0.9388999928495788  0.5837432647983242  0.4771117802087966
  0.8132082161322977  0.8368585766469010  0.5251714763546214
  0.9374764039240505  0.9634175672366314  0.6563081692129866
  0.8129103528710528  0.9543926469419572  0.3461100490547374
  0.9349605412674388  0.7031983957312475  0.6585001975495370
  0.8128399097268609  0.7135589247160719  0.3473081393662217
  0.6880024663830236  0.7196950095992163  0.7338158940112975
  0.6829602230706309  0.6399720465453833  0.7461260164100574
 
  0.00000000E+00  0.00000000E+00  0.00000000E+00
  0.00000000E+00  0.00000000E+00  0.00000000E+00
  0.00000000E+00  0.00000000E+00  0.00000000E+00
  0.00000000E+00  0.00000000E+00  0.00000000E+00
  0.00000000E+00  0.00000000E+00  0.00000000E+00
  0.00000000E+00  0.00000000E+00  0.00000000E+00
  0.00000000E+00  0.00000000E+00  0.00000000E+00
  0.00000000E+00  0.00000000E+00  0.00000000E+00
  0.00000000E+00  0.00000000E+00  0.00000000E+00
  0.00000000E+00  0.00000000E+00  0.00000000E+00
  0.00000000E+00  0.00000000E+00  0.00000000E+00
  0.00000000E+00  0.00000000E+00  0.00000000E+00
  0.00000000E+00  0.00000000E+00  0.00000000E+00
  0.00000000E+00  0.00000000E+00  0.00000000E+00
  0.00000000E+00  0.00000000E+00  0.00000000E+00
  0.00000000E+00  0.00000000E+00  0.00000000E+00
  0.00000000E+00  0.00000000E+00  0.00000000E+00
  0.00000000E+00  0.00000000E+00  0.00000000E+00
  0.00000000E+00  0.00000000E+00  0.00000000E+00
  0.00000000E+00  0.00000000E+00  0.00000000E+00
  0.00000000E+00  0.00000000E+00  0.00000000E+00
  0.00000000E+00  0.00000000E+00  0.00000000E+00
  0.00000000E+00  0.00000000E+00  0.00000000E+00
  0.00000000E+00  0.00000000E+00  0.00000000E+00
  0.00000000E+00  0.00000000E+00  0.00000000E+00
  0.00000000E+00  0.00000000E+00  0.00000000E+00
  0.00000000E+00  0.00000000E+00  0.00000000E+00
  0.00000000E+00  0.00000000E+00  0.00000000E+00
  0.00000000E+00  0.00000000E+00  0.00000000E+00
  0.00000000E+00  0.00000000E+00  0.00000000E+00
  0.00000000E+00  0.00000000E+00  0.00000000E+00
  0.00000000E+00  0.00000000E+00  0.00000000E+00
  0.00000000E+00  0.00000000E+00  0.00000000E+00
  0.00000000E+00  0.00000000E+00  0.00000000E+00
  0.00000000E+00  0.00000000E+00  0.00000000E+00
  0.00000000E+00  0.00000000E+00  0.00000000E+00
  0.00000000E+00  0.00000000E+00  0.00000000E+00
  0.00000000E+00  0.00000000E+00  0.00000000E+00
  0.00000000E+00  0.00000000E+00  0.00000000E+00
  0.00000000E+00  0.00000000E+00  0.00000000E+00
  0.00000000E+00  0.00000000E+00  0.00000000E+00
  0.00000000E+00  0.00000000E+00  0.00000000E+00
  0.00000000E+00  0.00000000E+00  0.00000000E+00
  0.00000000E+00  0.00000000E+00  0.00000000E+00
  0.00000000E+00  0.00000000E+00  0.00000000E+00
  0.00000000E+00  0.00000000E+00  0.00000000E+00
  0.00000000E+00  0.00000000E+00  0.00000000E+00
  0.00000000E+00  0.00000000E+00  0.00000000E+00
  0.00000000E+00  0.00000000E+00  0.00000000E+00
  0.00000000E+00  0.00000000E+00  0.00000000E+00
  0.00000000E+00  0.00000000E+00  0.00000000E+00
  0.00000000E+00  0.00000000E+00  0.00000000E+00
  0.00000000E+00  0.00000000E+00  0.00000000E+00
  0.00000000E+00  0.00000000E+00  0.00000000E+00
  0.00000000E+00  0.00000000E+00  0.00000000E+00
  0.00000000E+00  0.00000000E+00  0.00000000E+00
  0.00000000E+00  0.00000000E+00  0.00000000E+00
  0.00000000E+00  0.00000000E+00  0.00000000E+00
  0.00000000E+00  0.00000000E+00  0.00000000E+00
  0.00000000E+00  0.00000000E+00  0.00000000E+00
  0.00000000E+00  0.00000000E+00  0.00000000E+00
  0.00000000E+00  0.00000000E+00  0.00000000E+00
  0.00000000E+00  0.00000000E+00  0.00000000E+00
  0.00000000E+00  0.00000000E+00  0.00000000E+00
  0.00000000E+00  0.00000000E+00  0.00000000E+00
  0.00000000E+00  0.00000000E+00  0.00000000E+00
