CONTCAR\(3)                             
   1.00000000000000     
     3.9223001003000002    0.0000000000000000    0.0000000000000000
     1.9611500502000001    3.3968115281000002    0.0000000000000000
     0.0000000000000000    0.0000000000000000   18.9503002167000005
   Te   Pt   O    H 
     2     2     4     2
Selective dynamics
Direct
  0.6756141532053377  0.5159712920167721  0.6055805436371031   F   F   F
  0.6698504778277581  0.5103830539369696  0.3884859671933683   F   F   F
  0.3360589182410862  0.1662623077055656  0.5383451285471779   F   F   F
  0.0033786683843076  0.8300224500405875  0.4537275706241530   F   F   F
  0.7646332094582178  0.7620318219363185  0.7021644400204394   T   T   T
  0.9220651670591664  0.4855412806153652  0.7592414776072403   T   T   T
  0.5950677086356393  0.7200076771393924  0.2788516239535284   T   T   T
  0.6718042022428534  0.0372044162894980  0.2681929324821866   T   T   T
  0.2065422083670967  0.3274477909821414  0.7482376897143865   T   T   T
  0.9576453325785294  0.9028778263373809  0.2565010060322890   T   T   T
 
  0.00000000E+00  0.00000000E+00  0.00000000E+00
  0.00000000E+00  0.00000000E+00  0.00000000E+00
  0.00000000E+00  0.00000000E+00  0.00000000E+00
  0.00000000E+00  0.00000000E+00  0.00000000E+00
  0.00000000E+00  0.00000000E+00  0.00000000E+00
  0.00000000E+00  0.00000000E+00  0.00000000E+00
  0.00000000E+00  0.00000000E+00  0.00000000E+00
  0.00000000E+00  0.00000000E+00  0.00000000E+00
  0.00000000E+00  0.00000000E+00  0.00000000E+00
  0.00000000E+00  0.00000000E+00  0.00000000E+00
