CONTCAR\(4)                             
   1.00000000000000     
    12.9047002792000001    0.0000000000000000    0.0000000000000000
     0.0000000000000000   17.0116996765000010    0.0000000000000000
     0.0000000000000000    0.0000000000000000   20.7707004546999983
   Pr   I 
    12    30
Direct
  0.2500000000000000  0.1373360596647687  0.5177925082441602
  0.0833299949999997  0.8626639823352347  0.4822074917558398
  0.2500000000000000  0.6371039328247121  0.5286652587976348
  0.0833299949999997  0.3628860331752818  0.4713346952023684
  0.5833299769999982  0.1373360596647687  0.5177925082441602
  0.4166699860000023  0.8626639823352347  0.4822074917558398
  0.5833299769999982  0.6371039328247121  0.5286652587976348
  0.4166699860000023  0.3628860331752818  0.4713346952023684
  0.9166700600000013  0.1373360596647687  0.5177925082441602
  0.7499999819999985  0.8626639823352347  0.4822074917558398
  0.9166700600000013  0.6371039328247121  0.5286652587976348
  0.7499999819999985  0.3628860331752818  0.4713346952023684
  0.2500000000000000  0.3779322794200202  0.3607777706661325
  0.0833299949999997  0.6220677485799823  0.6392222523338660
  0.2500000000000000  0.9830598737236720  0.4171110741430680
  0.0833299949999997  0.0169401402763221  0.5828889718569357
  0.0833299949999997  0.5588989562341283  0.4327691206592784
  0.2500000000000000  0.4411010157658765  0.5672308333407248
  0.0833299949999997  0.2436239636798146  0.5961092381382430
  0.2500000000000000  0.7563760363201852  0.4038908078617536
  0.0833299949999997  0.1857583788470298  0.4105338946236162
  0.2500000000000000  0.8142416351529713  0.5894660593763801
  0.5833299769999982  0.3779322794200202  0.3607777706661325
  0.4166699860000023  0.6220677485799823  0.6392222523338660
  0.5833299769999982  0.9830598737236720  0.4171110741430680
  0.4166699860000023  0.0169401402763221  0.5828889718569357
  0.4166699860000023  0.5588989562341283  0.4327691206592784
  0.5833299769999982  0.4411010157658765  0.5672308333407248
  0.4166699860000023  0.2436239636798146  0.5961092381382430
  0.5833299769999982  0.7563760363201852  0.4038908078617536
  0.4166699860000023  0.1857583788470298  0.4105338946236162
  0.5833299769999982  0.8142416351529713  0.5894660593763801
  0.9166700600000013  0.3779322794200202  0.3607777706661325
  0.7499999819999985  0.6220677485799823  0.6392222523338660
  0.9166700600000013  0.9830598737236720  0.4171110741430680
  0.7499999819999985  0.0169401402763221  0.5828889718569357
  0.7499999819999985  0.5588989562341283  0.4327691206592784
  0.9166700600000013  0.4411010157658765  0.5672308333407248
  0.7499999819999985  0.2436239636798146  0.5961092381382430
  0.9166700600000013  0.7563760363201852  0.4038908078617536
  0.7499999819999985  0.1857583788470298  0.4105338946236162
  0.9166700600000013  0.8142416351529713  0.5894660593763801
 
  0.00000000E+00  0.00000000E+00  0.00000000E+00
  0.00000000E+00  0.00000000E+00  0.00000000E+00
  0.00000000E+00  0.00000000E+00  0.00000000E+00
  0.00000000E+00  0.00000000E+00  0.00000000E+00
  0.00000000E+00  0.00000000E+00  0.00000000E+00
  0.00000000E+00  0.00000000E+00  0.00000000E+00
  0.00000000E+00  0.00000000E+00  0.00000000E+00
  0.00000000E+00  0.00000000E+00  0.00000000E+00
  0.00000000E+00  0.00000000E+00  0.00000000E+00
  0.00000000E+00  0.00000000E+00  0.00000000E+00
  0.00000000E+00  0.00000000E+00  0.00000000E+00
  0.00000000E+00  0.00000000E+00  0.00000000E+00
  0.00000000E+00  0.00000000E+00  0.00000000E+00
  0.00000000E+00  0.00000000E+00  0.00000000E+00
  0.00000000E+00  0.00000000E+00  0.00000000E+00
  0.00000000E+00  0.00000000E+00  0.00000000E+00
  0.00000000E+00  0.00000000E+00  0.00000000E+00
  0.00000000E+00  0.00000000E+00  0.00000000E+00
  0.00000000E+00  0.00000000E+00  0.00000000E+00
  0.00000000E+00  0.00000000E+00  0.00000000E+00
  0.00000000E+00  0.00000000E+00  0.00000000E+00
  0.00000000E+00  0.00000000E+00  0.00000000E+00
  0.00000000E+00  0.00000000E+00  0.00000000E+00
  0.00000000E+00  0.00000000E+00  0.00000000E+00
  0.00000000E+00  0.00000000E+00  0.00000000E+00
  0.00000000E+00  0.00000000E+00  0.00000000E+00
  0.00000000E+00  0.00000000E+00  0.00000000E+00
  0.00000000E+00  0.00000000E+00  0.00000000E+00
  0.00000000E+00  0.00000000E+00  0.00000000E+00
  0.00000000E+00  0.00000000E+00  0.00000000E+00
  0.00000000E+00  0.00000000E+00  0.00000000E+00
  0.00000000E+00  0.00000000E+00  0.00000000E+00
  0.00000000E+00  0.00000000E+00  0.00000000E+00
  0.00000000E+00  0.00000000E+00  0.00000000E+00
  0.00000000E+00  0.00000000E+00  0.00000000E+00
  0.00000000E+00  0.00000000E+00  0.00000000E+00
  0.00000000E+00  0.00000000E+00  0.00000000E+00
  0.00000000E+00  0.00000000E+00  0.00000000E+00
  0.00000000E+00  0.00000000E+00  0.00000000E+00
  0.00000000E+00  0.00000000E+00  0.00000000E+00
  0.00000000E+00  0.00000000E+00  0.00000000E+00
  0.00000000E+00  0.00000000E+00  0.00000000E+00
