 Cu1 Br2                                
   1.00000000000000     
     3.4846502416318641    0.0000000000000000    0.0000000000000000
    -1.7423251208159320    3.6306534882181793    0.0000000000000000
     0.0000000000000000    0.0000000000000000   17.9979696339759982
   Cu   Br
     1     2
Direct
  0.0000000541646585  0.0000000818286097  0.4999999898958194
  0.4004953262054109  0.8010279092792082  0.4150399882296070
  0.5995046196299306  0.1989720088921892  0.5849600218745735
 
  0.00000000E+00  0.00000000E+00  0.00000000E+00
  0.00000000E+00  0.00000000E+00  0.00000000E+00
  0.00000000E+00  0.00000000E+00  0.00000000E+00
