CONTCAR\(2)                             
   1.00000000000000     
     3.4474999904999999    0.0000000000000000    0.0000000000000000
     1.7237499951999999    2.9856225713000000    0.0000000000000000
     0.0000000000000000    0.0000000000000000   18.3700008391999994
   Nb   Se   O    H 
     1     2     2     2
Direct
  0.3073522407659791  0.3362815251503555  0.4992145552349443
  0.6461766636817102  0.6666322156660250  0.5862148423584531
  0.6382302351401667  0.6703701599645753  0.4122692524980825
  0.7274242693493207  0.6236212543430844  0.6898636309089820
  0.5885951366567544  0.6904315228265844  0.3081244001866570
  0.4204883228849443  0.7776283426842687  0.7095021107711211
  0.9007330335211220  0.5379051783651112  0.2908012580417567
 
  0.00000000E+00  0.00000000E+00  0.00000000E+00
  0.00000000E+00  0.00000000E+00  0.00000000E+00
  0.00000000E+00  0.00000000E+00  0.00000000E+00
  0.00000000E+00  0.00000000E+00  0.00000000E+00
  0.00000000E+00  0.00000000E+00  0.00000000E+00
  0.00000000E+00  0.00000000E+00  0.00000000E+00
  0.00000000E+00  0.00000000E+00  0.00000000E+00
