CONTCAR\(3)                             
   1.00000000000000     
    11.5825996398999997    0.0000000000000000    0.0000000000000000
     0.0000000000000000   12.9533996582000004    0.0000000000000000
     0.0000000000000000    0.0000000000000000   20.9237995147999989
   K    As   Pd   O    H 
    16    16     8     1     1
Direct
  0.1249657922660951  0.9983084581662094  0.4441243233053839
  0.3732963876462819  0.9867567194180993  0.5506594654392147
  0.1249916208059637  0.2496268004240552  0.3541027700553629
  0.3761863677745800  0.2497170506221801  0.6395802392979546
  0.6248783097060266  0.0022343347326490  0.4401701120577996
  0.8763441821478055  0.9868792039906269  0.5506409137758507
  0.6251143690663129  0.2520325735323458  0.3535962054285516
  0.8740666545160100  0.2495898205185033  0.6395720748644869
  0.1249222352223700  0.5002223196177523  0.4448132705859031
  0.3731649536968691  0.5146644567904508  0.5524827210171080
  0.1248412059813544  0.7486925489625732  0.3491725710984216
  0.4556543149814267  0.7577659288095453  0.6853289094023496
  0.6248116950424067  0.4988595526446173  0.4425897438090064
  0.8763534053764285  0.5141294231550091  0.5520795040049638
  0.6248223616396751  0.7482525757546998  0.3487407339614618
  0.7974942875471402  0.7576528095748458  0.6844021548384166
  0.3743208095112768  0.3449466924024741  0.4163877817358546
  0.1251716169890705  0.1550631735903853  0.5785536510223146
  0.1251208562191946  0.3439315040598120  0.5786457263390261
  0.3747760739707803  0.1553946083131653  0.4160232920492087
  0.8757441258041206  0.3448901728126094  0.4163868792208051
  0.6249920536105618  0.1553087747463276  0.5776084089665772
  0.6249633112549869  0.3446872170527026  0.5777459206486637
  0.8752972260024107  0.1553225212416006  0.4161561248461373
  0.3713620990867125  0.8442936539257387  0.4099160123326226
  0.1247714014657214  0.6580193473914688  0.5766628609497345
  0.1248493048531550  0.8426931285404531  0.5768202140327404
  0.3704386780281624  0.6541817383016875  0.4104263695886086
  0.8781895343078751  0.8441567942632775  0.4098502311431784
  0.6248016882971591  0.6570766992246974  0.5694103310176706
  0.6249240752855505  0.8457210560956543  0.5668360978046556
  0.8793439465980458  0.6540704661972966  0.4103928822316911
  0.0001445222280861  0.2495383765004526  0.4974326505501355
  0.2500375714570476  0.2496056448066158  0.4973903866468961
  0.5001511904712386  0.2500930804353245  0.4966919059055447
  0.7499540602641910  0.2501120018457858  0.4967469333722424
  0.0003347030736711  0.7502388370356411  0.4943891677843806
  0.2492904571473408  0.7501924819113373  0.4944127425629420
  0.4981865283162130  0.7492666319998921  0.4895516748449933
  0.7514385116733027  0.7490501357078819  0.4894770958522984
  0.6271323128768628  0.7688078993289510  0.7566873365585407
  0.6276354567905068  0.7794028395546095  0.8026419550502959
 
  0.00000000E+00  0.00000000E+00  0.00000000E+00
  0.00000000E+00  0.00000000E+00  0.00000000E+00
  0.00000000E+00  0.00000000E+00  0.00000000E+00
  0.00000000E+00  0.00000000E+00  0.00000000E+00
  0.00000000E+00  0.00000000E+00  0.00000000E+00
  0.00000000E+00  0.00000000E+00  0.00000000E+00
  0.00000000E+00  0.00000000E+00  0.00000000E+00
  0.00000000E+00  0.00000000E+00  0.00000000E+00
  0.00000000E+00  0.00000000E+00  0.00000000E+00
  0.00000000E+00  0.00000000E+00  0.00000000E+00
  0.00000000E+00  0.00000000E+00  0.00000000E+00
  0.00000000E+00  0.00000000E+00  0.00000000E+00
  0.00000000E+00  0.00000000E+00  0.00000000E+00
  0.00000000E+00  0.00000000E+00  0.00000000E+00
  0.00000000E+00  0.00000000E+00  0.00000000E+00
  0.00000000E+00  0.00000000E+00  0.00000000E+00
  0.00000000E+00  0.00000000E+00  0.00000000E+00
  0.00000000E+00  0.00000000E+00  0.00000000E+00
  0.00000000E+00  0.00000000E+00  0.00000000E+00
  0.00000000E+00  0.00000000E+00  0.00000000E+00
  0.00000000E+00  0.00000000E+00  0.00000000E+00
  0.00000000E+00  0.00000000E+00  0.00000000E+00
  0.00000000E+00  0.00000000E+00  0.00000000E+00
  0.00000000E+00  0.00000000E+00  0.00000000E+00
  0.00000000E+00  0.00000000E+00  0.00000000E+00
  0.00000000E+00  0.00000000E+00  0.00000000E+00
  0.00000000E+00  0.00000000E+00  0.00000000E+00
  0.00000000E+00  0.00000000E+00  0.00000000E+00
  0.00000000E+00  0.00000000E+00  0.00000000E+00
  0.00000000E+00  0.00000000E+00  0.00000000E+00
  0.00000000E+00  0.00000000E+00  0.00000000E+00
  0.00000000E+00  0.00000000E+00  0.00000000E+00
  0.00000000E+00  0.00000000E+00  0.00000000E+00
  0.00000000E+00  0.00000000E+00  0.00000000E+00
  0.00000000E+00  0.00000000E+00  0.00000000E+00
  0.00000000E+00  0.00000000E+00  0.00000000E+00
  0.00000000E+00  0.00000000E+00  0.00000000E+00
  0.00000000E+00  0.00000000E+00  0.00000000E+00
  0.00000000E+00  0.00000000E+00  0.00000000E+00
  0.00000000E+00  0.00000000E+00  0.00000000E+00
  0.00000000E+00  0.00000000E+00  0.00000000E+00
  0.00000000E+00  0.00000000E+00  0.00000000E+00
