CONTCAR\(5)                             
   1.00000000000000     
    11.7456998825000003    0.0000000000000000    0.0000000000000000
     0.0000000000000000   17.6870002747000008    0.0000000000000000
     0.0000000000000000    0.0000000000000000   19.5771007537999999
   Ti   Ge   Te   O    H 
     6     6    36     2     1
Direct
  0.0755373832974513  0.4753395058623511  0.5099019552153834
  0.2495382896080400  0.9512535685217287  0.4853892261329165
  0.4101427778915721  0.4786139206677760  0.5102657657453449
  0.5825050235303166  0.9518402733215154  0.4861967225063211
  0.7401732044371485  0.4769765314411885  0.5168034941679593
  0.9167303116591654  0.9515959197288453  0.4879493622372522
  0.2471259537562815  0.8010014196550443  0.4772696352493639
  0.0781115554337575  0.6261504606493773  0.5188957431069099
  0.5797485417045465  0.8020584453975914  0.4760868359860737
  0.4122468662091379  0.6284200386538501  0.5173124909957920
  0.9138919167844932  0.8010601579453791  0.4777096477766491
  0.7437845806885335  0.6275000994796329  0.5187028486041001
  0.0827573601490812  0.9222646352220281  0.3812072666769950
  0.2563501368727756  0.2559878669431370  0.5726985541532983
  0.2458231778047733  0.0617671746677715  0.3775755072059255
  0.0827462607217413  0.8932836973978979  0.5830282485396197
  0.2402207762353967  0.5043436920089306  0.6156576009858625
  0.0738275825677448  0.3579251205910694  0.6117599889499559
  0.0882966453476115  0.1743841808867330  0.4333402142026586
  0.2458852171521784  0.7049046804416434  0.5878413767946569
  0.0802622453490613  0.7236986852750036  0.4085454263954915
  0.2450512421935187  0.3782041696313385  0.4543151541978929
  0.0856970255071445  0.0485034433576175  0.5443542181269052
  0.2416104131902372  0.5318343044102107  0.4124486602609849
  0.4192751679780073  0.9217014727213808  0.3803691903567952
  0.5753247185419710  0.2559554688009982  0.5794034666862160
  0.5822580762203060  0.0610197294562127  0.3790995159702604
  0.4155512095337457  0.8971120064124207  0.5830237254481148
  0.5678796370286534  0.5173720360465026  0.6140863689899376
  0.4120899809517837  0.3749074332048181  0.6218703089735982
  0.4156163853148129  0.1728407275451573  0.4214715434737073
  0.5764178077364690  0.7069056270992036  0.5872934109063905
  0.4140587792409463  0.7256042889160952  0.4061987528345057
  0.5764738705102275  0.3764575847034521  0.4610811453640480
  0.4156929506371299  0.0507399928629084  0.5403171128606630
  0.5788642161456039  0.5289191352259266  0.4137307279338174
  0.7524287472061317  0.9239498564281803  0.3812846024070282
  0.9175997137226375  0.2470487857000592  0.5503094036230607
  0.9169231889948861  0.0645790532817543  0.3835179034114660
  0.7484170284659797  0.8955435596433716  0.5835834684530568
  0.9120841694449240  0.5047158822496343  0.6167319960570268
  0.7514597326795922  0.3590446905765248  0.6256965671091450
  0.7477624801379719  0.1748572513695166  0.4268590455348402
  0.9115782269262809  0.7036269690101449  0.5879756246416861
  0.7463230028015104  0.7245521487128173  0.4079419132306796
  0.9042794113176811  0.3814793986898266  0.4526181711627189
  0.7484516060442914  0.0495544338087228  0.5438316363287115
  0.9080616834098691  0.5379882850764446  0.4173823878575149
  0.6528564774912837  0.4065575042382861  0.7071298141962501
  0.6758595791551585  0.3636445692255847  0.7702272117663256
  0.7276880442704936  0.3984699598363477  0.7937394232081445
 
  0.00000000E+00  0.00000000E+00  0.00000000E+00
  0.00000000E+00  0.00000000E+00  0.00000000E+00
  0.00000000E+00  0.00000000E+00  0.00000000E+00
  0.00000000E+00  0.00000000E+00  0.00000000E+00
  0.00000000E+00  0.00000000E+00  0.00000000E+00
  0.00000000E+00  0.00000000E+00  0.00000000E+00
  0.00000000E+00  0.00000000E+00  0.00000000E+00
  0.00000000E+00  0.00000000E+00  0.00000000E+00
  0.00000000E+00  0.00000000E+00  0.00000000E+00
  0.00000000E+00  0.00000000E+00  0.00000000E+00
  0.00000000E+00  0.00000000E+00  0.00000000E+00
  0.00000000E+00  0.00000000E+00  0.00000000E+00
  0.00000000E+00  0.00000000E+00  0.00000000E+00
  0.00000000E+00  0.00000000E+00  0.00000000E+00
  0.00000000E+00  0.00000000E+00  0.00000000E+00
  0.00000000E+00  0.00000000E+00  0.00000000E+00
  0.00000000E+00  0.00000000E+00  0.00000000E+00
  0.00000000E+00  0.00000000E+00  0.00000000E+00
  0.00000000E+00  0.00000000E+00  0.00000000E+00
  0.00000000E+00  0.00000000E+00  0.00000000E+00
  0.00000000E+00  0.00000000E+00  0.00000000E+00
  0.00000000E+00  0.00000000E+00  0.00000000E+00
  0.00000000E+00  0.00000000E+00  0.00000000E+00
  0.00000000E+00  0.00000000E+00  0.00000000E+00
  0.00000000E+00  0.00000000E+00  0.00000000E+00
  0.00000000E+00  0.00000000E+00  0.00000000E+00
  0.00000000E+00  0.00000000E+00  0.00000000E+00
  0.00000000E+00  0.00000000E+00  0.00000000E+00
  0.00000000E+00  0.00000000E+00  0.00000000E+00
  0.00000000E+00  0.00000000E+00  0.00000000E+00
  0.00000000E+00  0.00000000E+00  0.00000000E+00
  0.00000000E+00  0.00000000E+00  0.00000000E+00
  0.00000000E+00  0.00000000E+00  0.00000000E+00
  0.00000000E+00  0.00000000E+00  0.00000000E+00
  0.00000000E+00  0.00000000E+00  0.00000000E+00
  0.00000000E+00  0.00000000E+00  0.00000000E+00
  0.00000000E+00  0.00000000E+00  0.00000000E+00
  0.00000000E+00  0.00000000E+00  0.00000000E+00
  0.00000000E+00  0.00000000E+00  0.00000000E+00
  0.00000000E+00  0.00000000E+00  0.00000000E+00
  0.00000000E+00  0.00000000E+00  0.00000000E+00
  0.00000000E+00  0.00000000E+00  0.00000000E+00
  0.00000000E+00  0.00000000E+00  0.00000000E+00
  0.00000000E+00  0.00000000E+00  0.00000000E+00
  0.00000000E+00  0.00000000E+00  0.00000000E+00
  0.00000000E+00  0.00000000E+00  0.00000000E+00
  0.00000000E+00  0.00000000E+00  0.00000000E+00
  0.00000000E+00  0.00000000E+00  0.00000000E+00
  0.00000000E+00  0.00000000E+00  0.00000000E+00
  0.00000000E+00  0.00000000E+00  0.00000000E+00
  0.00000000E+00  0.00000000E+00  0.00000000E+00
