CONTCAR                                 
   1.00000000000000     
    14.2618999480999999    0.0000000000000000    0.0000000000000000
     0.0000000000000000   14.2618999480999999    0.0000000000000000
     0.0000000000000000    0.0000000000000000   18.1191997528000002
   Mn   Se   O    H 
    32    32     2     1
Selective dynamics
Direct
  0.1243412022482104  0.1244841036123674  0.5015740104755011   F   F   F
  0.9996989456937513  0.9996512023909077  0.5011269259032787   F   F   F
  0.3740564976866310  0.1243048386296834  0.5022196928880049   F   F   F
  0.2493274405301236  0.9995248391178748  0.5019597741792623   F   F   F
  0.6244660540090905  0.1245948377979076  0.5016276238619426   F   F   F
  0.4990603030470737  0.0000619140585698  0.5028649427201373   F   F   F
  0.8749234972132243  0.1242988062275998  0.5014833821631299   F   F   F
  0.7499232446326332  0.9999964981683931  0.5020906401846190   F   F   F
  0.1243044895473702  0.3739838175373222  0.5012306496113013   F   F   F
  0.9995910823237182  0.2493942283328110  0.5011464259565415   F   F   F
  0.3741280956653412  0.3741269626772095  0.5019194561509153   F   F   F
  0.2492718721594045  0.2493933916976658  0.5017026960200042   F   F   F
  0.6244236587019003  0.3734227293888068  0.5015630956371666   F   F   F
  0.4991854086669107  0.2492641539129750  0.5019987608250176   F   F   F
  0.8747329759873921  0.3742093538293574  0.5013867321080099   F   F   F
  0.7497648464927522  0.2492141116112805  0.5017717294279933   F   F   F
  0.1242185071557458  0.6239405899421442  0.5012860428461181   F   F   F
  0.9996886318101090  0.4990331062870581  0.5010111892514644   F   F   F
  0.3734122472226389  0.6237924183554995  0.5025753284958512   F   F   F
  0.2493520526400701  0.4991013447474160  0.5016094994933624   F   F   F
  0.6244282790668194  0.6223608577495838  0.5028995624707804   F   F   F
  0.4989371629854986  0.4986347173520684  0.5026195481275195   F   F   F
  0.8753920496111860  0.6238518158667148  0.5013337913909695   F   F   F
  0.7499375857022841  0.4986016900301991  0.5020598235364488   F   F   F
  0.1241704387747120  0.8746835773562367  0.5013423220148283   F   F   F
  0.9999642087214795  0.7493841869408016  0.5001554545907538   F   F   F
  0.3733720027721432  0.8749353772067821  0.5026609113562301   F   F   F
  0.2485010980906210  0.7494159205259905  0.5012236115759237   F   F   F
  0.6245224467312269  0.8763326372380504  0.5027362092020766   F   F   F
  0.4973459434316823  0.7494530613653225  0.5032205849495739   F   F   F
  0.8754403896354361  0.8747175664911779  0.5013208831241371   F   F   F
  0.7516270555293261  0.7493738772363372  0.5019067995412598   F   F   F
  0.1239138355252294  0.9994936000033618  0.5884567183974596   F   F   F
  0.9996198898167350  0.1242792929881276  0.4143452936898058   F   F   F
  0.3744315510810594  0.9994320418264024  0.5895325986413624   F   F   F
  0.2495668463708185  0.1245478037441785  0.4150067929139780   F   F   F
  0.6243024987379400  0.0013257709384362  0.5892890577659955   F   F   F
  0.4992624750514381  0.1237744566291994  0.4153206472588309   F   F   F
  0.8754027154326707  0.9993259315597172  0.5885093625998010   F   F   F
  0.7495062480444616  0.1244532036525499  0.4148423355081192   F   F   F
  0.1242681416694538  0.2494625384429767  0.5883667006045883   F   F   F
  0.9994118263401859  0.3742862397503259  0.4141961079463741   F   F   F
  0.3736523556901332  0.2492586802605388  0.5888284819663738   F   F   F
  0.2493861232157286  0.3739180019988453  0.4146920385945236   F   F   F
  0.6247454919368565  0.2490171503545184  0.5886115393862710   F   F   F
  0.4996655904230209  0.3748953929023671  0.4151592256195755   F   F   F
  0.8750070530732827  0.2493649161235680  0.5883054867623443   F   F   F
  0.7491258358202373  0.3740550823007283  0.4148056744500082   F   F   F
  0.1240284898629795  0.4987062740515427  0.5881692896705886   F   F   F
  0.9996805669403699  0.6238104520987235  0.4139781064865531   F   F   F
  0.3744269926864447  0.4992401215307467  0.5892128649832102   F   F   F
  0.2498496204654472  0.6247595745843100  0.4147498927961877   F   F   F
  0.6240732715930051  0.4959097367451690  0.5891243318376667   F   F   F
  0.4978407112318379  0.6226485171561578  0.4159638125347627   F   F   F
  0.8753872519750416  0.4992971997804858  0.5884842223162323   F   F   F
  0.7500754948210826  0.6241901105961318  0.4153491001754475   F   F   F
  0.1236853881965061  0.7493726585226312  0.5878828268564860   F   F   F
  0.9998232870138324  0.8750150239396959  0.4138931138450559   F   F   F
  0.3700259477985099  0.7490713045056125  0.5893199394261970   F   F   F
  0.2496612152118374  0.8742529390299651  0.4148249174187697   F   F   F
  0.6293010125007044  0.7511031612680981  0.5858101498510635   F   F   F
  0.4985564927106694  0.8763425592542546  0.4161514805416857   F   F   F
  0.8766736492668059  0.7490407775875667  0.5880618167875724   F   F   F
  0.7493907981174956  0.8744250362665582  0.4153681559600244   F   F   F
  0.6802174658498856  0.7743315333071692  0.6974045875994719   T   T   T
  0.6101204243809448  0.7570281703138946  0.7516183101944520   T   T   T
  0.6238132326608579  0.6921457883032929  0.7654690304025451   T   T   T
 
  0.00000000E+00  0.00000000E+00  0.00000000E+00
  0.00000000E+00  0.00000000E+00  0.00000000E+00
  0.00000000E+00  0.00000000E+00  0.00000000E+00
  0.00000000E+00  0.00000000E+00  0.00000000E+00
  0.00000000E+00  0.00000000E+00  0.00000000E+00
  0.00000000E+00  0.00000000E+00  0.00000000E+00
  0.00000000E+00  0.00000000E+00  0.00000000E+00
  0.00000000E+00  0.00000000E+00  0.00000000E+00
  0.00000000E+00  0.00000000E+00  0.00000000E+00
  0.00000000E+00  0.00000000E+00  0.00000000E+00
  0.00000000E+00  0.00000000E+00  0.00000000E+00
  0.00000000E+00  0.00000000E+00  0.00000000E+00
  0.00000000E+00  0.00000000E+00  0.00000000E+00
  0.00000000E+00  0.00000000E+00  0.00000000E+00
  0.00000000E+00  0.00000000E+00  0.00000000E+00
  0.00000000E+00  0.00000000E+00  0.00000000E+00
  0.00000000E+00  0.00000000E+00  0.00000000E+00
  0.00000000E+00  0.00000000E+00  0.00000000E+00
  0.00000000E+00  0.00000000E+00  0.00000000E+00
  0.00000000E+00  0.00000000E+00  0.00000000E+00
  0.00000000E+00  0.00000000E+00  0.00000000E+00
  0.00000000E+00  0.00000000E+00  0.00000000E+00
  0.00000000E+00  0.00000000E+00  0.00000000E+00
  0.00000000E+00  0.00000000E+00  0.00000000E+00
  0.00000000E+00  0.00000000E+00  0.00000000E+00
  0.00000000E+00  0.00000000E+00  0.00000000E+00
  0.00000000E+00  0.00000000E+00  0.00000000E+00
  0.00000000E+00  0.00000000E+00  0.00000000E+00
  0.00000000E+00  0.00000000E+00  0.00000000E+00
  0.00000000E+00  0.00000000E+00  0.00000000E+00
  0.00000000E+00  0.00000000E+00  0.00000000E+00
  0.00000000E+00  0.00000000E+00  0.00000000E+00
  0.00000000E+00  0.00000000E+00  0.00000000E+00
  0.00000000E+00  0.00000000E+00  0.00000000E+00
  0.00000000E+00  0.00000000E+00  0.00000000E+00
  0.00000000E+00  0.00000000E+00  0.00000000E+00
  0.00000000E+00  0.00000000E+00  0.00000000E+00
  0.00000000E+00  0.00000000E+00  0.00000000E+00
  0.00000000E+00  0.00000000E+00  0.00000000E+00
  0.00000000E+00  0.00000000E+00  0.00000000E+00
  0.00000000E+00  0.00000000E+00  0.00000000E+00
  0.00000000E+00  0.00000000E+00  0.00000000E+00
  0.00000000E+00  0.00000000E+00  0.00000000E+00
  0.00000000E+00  0.00000000E+00  0.00000000E+00
  0.00000000E+00  0.00000000E+00  0.00000000E+00
  0.00000000E+00  0.00000000E+00  0.00000000E+00
  0.00000000E+00  0.00000000E+00  0.00000000E+00
  0.00000000E+00  0.00000000E+00  0.00000000E+00
  0.00000000E+00  0.00000000E+00  0.00000000E+00
  0.00000000E+00  0.00000000E+00  0.00000000E+00
  0.00000000E+00  0.00000000E+00  0.00000000E+00
  0.00000000E+00  0.00000000E+00  0.00000000E+00
  0.00000000E+00  0.00000000E+00  0.00000000E+00
  0.00000000E+00  0.00000000E+00  0.00000000E+00
  0.00000000E+00  0.00000000E+00  0.00000000E+00
  0.00000000E+00  0.00000000E+00  0.00000000E+00
  0.00000000E+00  0.00000000E+00  0.00000000E+00
  0.00000000E+00  0.00000000E+00  0.00000000E+00
  0.00000000E+00  0.00000000E+00  0.00000000E+00
  0.00000000E+00  0.00000000E+00  0.00000000E+00
  0.00000000E+00  0.00000000E+00  0.00000000E+00
  0.00000000E+00  0.00000000E+00  0.00000000E+00
  0.00000000E+00  0.00000000E+00  0.00000000E+00
  0.00000000E+00  0.00000000E+00  0.00000000E+00
  0.00000000E+00  0.00000000E+00  0.00000000E+00
  0.00000000E+00  0.00000000E+00  0.00000000E+00
  0.00000000E+00  0.00000000E+00  0.00000000E+00
