CONTCAR\(4)                             
   1.00000000000000     
    12.3274002075000002    0.0000000000000000    0.0000000000000000
     0.0000000000000000   15.7540998459000008    0.0000000000000000
     0.0000000000000000    0.0000000000000000   20.2700004577999984
   Pr   Br   O    H 
    12    30     2     1
Selective dynamics
Direct
  0.2547261108934435  0.6276102876580865  0.5076019198746096   F   F   F
  0.0883010808195763  0.3488215275942324  0.4730241752038253   F   F   F
  0.2452786497488688  0.1253902685594710  0.5348132422066598   F   F   F
  0.0885453664861018  0.8540574755434562  0.4690543022849667   F   F   F
  0.5885507377642014  0.6341135883531237  0.5111568283206154   F   F   F
  0.4256071662883727  0.3593499013863592  0.4589945765205030   F   F   F
  0.5877565470502475  0.1140982480875437  0.6007304450529105   F   F   F
  0.4237223966022583  0.8617897895381290  0.4806930081052201   F   F   F
  0.9225746055392108  0.6276339975000838  0.5072569880559357   F   F   F
  0.7506360896225246  0.3593872482054437  0.4588793681077945   F   F   F
  0.9297333203397926  0.1253868858320217  0.5351684802909062   F   F   F
  0.7535729304358583  0.8625249398458763  0.4803229866440049   F   F   F
  0.2650606280458589  0.8863462374344167  0.3748320337954283   F   F   F
  0.0882608111441101  0.1241791908069771  0.6398935788957587   F   F   F
  0.2508691737073008  0.4742675059482195  0.4078935678163873   F   F   F
  0.0886958182920807  0.5030137305200242  0.5654211589928622   F   F   F
  0.0877879361451477  0.0510925883274638  0.4415072768469201   F   F   F
  0.2455153739326548  0.9291397789351876  0.5660984713771242   F   F   F
  0.0886068481949920  0.7271664978303320  0.5841154155567807   F   F   F
  0.2577584715190611  0.2388120268046237  0.4040293127121899   F   F   F
  0.0891931430363186  0.6795924300501071  0.4061383605621813   F   F   F
  0.2710715710166340  0.3091001811349088  0.5711386432583652   F   F   F
  0.5879032799034860  0.8915562380503346  0.3801943127417786   F   F   F
  0.3719023387987903  0.0952707277462750  0.6565628429150792   F   F   F
  0.5881521846509159  0.4890372895801534  0.4073116682571865   F   F   F
  0.4242852443736425  0.5053696327142276  0.5614958889599890   F   F   F
  0.4471918887954303  0.0723825566183081  0.4727900470244535   F   F   F
  0.5886503484776853  0.9175420067699918  0.5854763811688812   F   F   F
  0.4157985367277561  0.7277078433621824  0.5895355961756081   F   F   F
  0.5881460394621101  0.2662018647925350  0.3785597112349777   F   F   F
  0.4225525094274616  0.6876506947489389  0.4117597836195230   F   F   F
  0.5881150338150150  0.3035751208521305  0.5584089672489583   F   F   F
  0.9126849250703444  0.8850553837209603  0.3743339666149481   F   F   F
  0.8031602339081303  0.0975962651412914  0.6551614271145922   F   F   F
  0.9254438991743328  0.4744663594969722  0.4077237647742535   F   F   F
  0.7525021675900589  0.5056858666784336  0.5614395909192353   F   F   F
  0.7326246384188764  0.0689632206541120  0.4699138626490438   F   F   F
  0.9319136200474389  0.9286721704430576  0.5660670158454124   F   F   F
  0.7617533288499558  0.7280405008662214  0.5890693976453463   F   F   F
  0.9186385566404311  0.2393174105522462  0.4038100700152114   F   F   F
  0.7539919862749684  0.6876237246190371  0.4117033129816647   F   F   F
  0.9058376579279752  0.3098077783803532  0.5707307013405725   F   F   F
  0.5878574596446313  0.1946746929735781  0.6873860515230277   T   T   T
  0.5113756551420181  0.2570141413545599  0.7114959246426125   T   T   T
  0.4431838922539626  0.2240637989879915  0.7103553622555825   T   T   T
 
  0.00000000E+00  0.00000000E+00  0.00000000E+00
  0.00000000E+00  0.00000000E+00  0.00000000E+00
  0.00000000E+00  0.00000000E+00  0.00000000E+00
  0.00000000E+00  0.00000000E+00  0.00000000E+00
  0.00000000E+00  0.00000000E+00  0.00000000E+00
  0.00000000E+00  0.00000000E+00  0.00000000E+00
  0.00000000E+00  0.00000000E+00  0.00000000E+00
  0.00000000E+00  0.00000000E+00  0.00000000E+00
  0.00000000E+00  0.00000000E+00  0.00000000E+00
  0.00000000E+00  0.00000000E+00  0.00000000E+00
  0.00000000E+00  0.00000000E+00  0.00000000E+00
  0.00000000E+00  0.00000000E+00  0.00000000E+00
  0.00000000E+00  0.00000000E+00  0.00000000E+00
  0.00000000E+00  0.00000000E+00  0.00000000E+00
  0.00000000E+00  0.00000000E+00  0.00000000E+00
  0.00000000E+00  0.00000000E+00  0.00000000E+00
  0.00000000E+00  0.00000000E+00  0.00000000E+00
  0.00000000E+00  0.00000000E+00  0.00000000E+00
  0.00000000E+00  0.00000000E+00  0.00000000E+00
  0.00000000E+00  0.00000000E+00  0.00000000E+00
  0.00000000E+00  0.00000000E+00  0.00000000E+00
  0.00000000E+00  0.00000000E+00  0.00000000E+00
  0.00000000E+00  0.00000000E+00  0.00000000E+00
  0.00000000E+00  0.00000000E+00  0.00000000E+00
  0.00000000E+00  0.00000000E+00  0.00000000E+00
  0.00000000E+00  0.00000000E+00  0.00000000E+00
  0.00000000E+00  0.00000000E+00  0.00000000E+00
  0.00000000E+00  0.00000000E+00  0.00000000E+00
  0.00000000E+00  0.00000000E+00  0.00000000E+00
  0.00000000E+00  0.00000000E+00  0.00000000E+00
  0.00000000E+00  0.00000000E+00  0.00000000E+00
  0.00000000E+00  0.00000000E+00  0.00000000E+00
  0.00000000E+00  0.00000000E+00  0.00000000E+00
  0.00000000E+00  0.00000000E+00  0.00000000E+00
  0.00000000E+00  0.00000000E+00  0.00000000E+00
  0.00000000E+00  0.00000000E+00  0.00000000E+00
  0.00000000E+00  0.00000000E+00  0.00000000E+00
  0.00000000E+00  0.00000000E+00  0.00000000E+00
  0.00000000E+00  0.00000000E+00  0.00000000E+00
  0.00000000E+00  0.00000000E+00  0.00000000E+00
  0.00000000E+00  0.00000000E+00  0.00000000E+00
  0.00000000E+00  0.00000000E+00  0.00000000E+00
  0.00000000E+00  0.00000000E+00  0.00000000E+00
  0.00000000E+00  0.00000000E+00  0.00000000E+00
  0.00000000E+00  0.00000000E+00  0.00000000E+00
