CONTCAR\(4)                             
   1.00000000000000     
    15.6891002655000005    0.0000000000000000    0.0000000000000000
     7.8445501328000002   13.5871593924000003    0.0000000000000000
     0.0000000000000000    0.0000000000000000   18.9503002167000005
   Te   Pt   O 
    32    32     1
Direct
  0.1649299318358844  0.1667730538214537  0.6088955001757834
  0.1645047477865045  0.1664377833903216  0.3895543154562541
  0.4142082613525188  0.1665802710388693  0.6091827340932486
  0.4165663489136138  0.1646695524843933  0.3915066751513108
  0.6650356733513235  0.1655609046383685  0.6111078967596933
  0.6662656074677585  0.1645986339679800  0.3923114289795321
  0.9157932333150842  0.1657931673150858  0.6099586470168191
  0.9149711117153968  0.1649710457153984  0.3919049642010793
  0.1652290536813791  0.4152290826813781  0.6084650725774671
  0.1646557308467379  0.4146557598467367  0.3889021995990418
  0.4146272733247879  0.4151148297838370  0.6088244795354777
  0.4163625256101390  0.4136076772259539  0.3904559143897437
  0.6663963569541540  0.4146509348747178  0.6095824968932767
  0.6674302143767150  0.4130276735887332  0.3911031792114661
  0.9167730678214547  0.4149299398358851  0.6088955001757834
  0.9164377973903226  0.4145047557865050  0.3895543154562541
  0.1651147917838338  0.6646273823247864  0.6088244795354777
  0.1636076392259508  0.6663626346101373  0.3904559143897437
  0.4150114251103202  0.6650115431103225  0.6001832081474380
  0.4154314493798219  0.6654315673798176  0.3941773181032208
  0.6666494461552616  0.6647849743380341  0.6094694492845035
  0.6666891857373696  0.6655508944188012  0.3914565380379134
  0.9165802760388660  0.6642083183525199  0.6091827340932486
  0.9146695574843901  0.6665664059136150  0.3915066751513108
  0.1646509228747168  0.9163964129541515  0.6095824968932767
  0.1630276615887321  0.9174302703767125  0.3911031792114661
  0.4147848823380335  0.9166495111552634  0.6094694492845035
  0.4155508024188008  0.9166892507373714  0.3914565380379134
  0.6655403970516302  0.9155404360516298  0.6106328407740093
  0.6658470101376150  0.9158470491376147  0.3923284032051642
  0.9155609356383674  0.9150356773513239  0.6111078967596933
  0.9145986649679790  0.9162656114677589  0.3923114289795321
  0.0819576022748800  0.0829321482783316  0.5412348588595760
  0.9977432197934489  0.9993527990437545  0.4610155747054683
  0.3314342083226606  0.0829994730114160  0.5407220120821845
  0.2474386007311893  0.0008845918730101  0.4580784245915712
  0.5818632496726380  0.0823250177410293  0.5427196305247064
  0.4992334108438751  0.9989488300804780  0.4605647787503740
  0.8319948559897258  0.0819948569897294  0.5434271482799199
  0.7487694237648919  0.9987694537648872  0.4615013700915916
  0.0822973287153538  0.3322973207153532  0.5398880024594443
  0.9986256906827259  0.2486256846827253  0.4588075780493230
  0.3313048314719480  0.3322534075530203  0.5398416858134812
  0.2488596443945228  0.2485117551986660  0.4579485900036637
  0.5822453795406678  0.3316205934747290  0.5422285661587353
  0.4992556350191780  0.2480696253623439  0.4601057008253316
  0.8329321602783326  0.3319576072748839  0.5412348588595760
  0.7493527860437570  0.2477432157934487  0.4610155747054683
  0.0822533985530232  0.5813047664719464  0.5398416858134812
  0.9985117631986667  0.4988596483945231  0.4579485900036637
  0.3300818289680006  0.5800817809679968  0.5385910066887574
  0.2477231508813989  0.4977231378814014  0.4563861161467337
  0.5858592368075123  0.5800642694627716  0.5397981882917759
  0.5002917059370914  0.4962799330838594  0.4583884323282044
  0.8329994070114176  0.5814341263226607  0.5407220120821845
  0.7508845958730105  0.4974385917311993  0.4580784245915712
  0.0816205924747253  0.8322453575406660  0.5422285661587353
  0.9980696123623466  0.7492556230191770  0.4601057008253316
  0.3300643254627691  0.8358592328075120  0.5397981882917759
  0.2462798940838597  0.7502917369370833  0.4583884323282044
  0.5822568708546939  0.8322568578546893  0.5424822134511865
  0.4997409581141935  0.7497409801141882  0.4589612576105790
  0.8323250817410276  0.8318632406726337  0.5427196305247064
  0.7489488430804755  0.7492334158438720  0.4605647787503740
  0.4135180213804902  0.6634779923804929  0.6982777477915786
 
  0.00000000E+00  0.00000000E+00  0.00000000E+00
  0.00000000E+00  0.00000000E+00  0.00000000E+00
  0.00000000E+00  0.00000000E+00  0.00000000E+00
  0.00000000E+00  0.00000000E+00  0.00000000E+00
  0.00000000E+00  0.00000000E+00  0.00000000E+00
  0.00000000E+00  0.00000000E+00  0.00000000E+00
  0.00000000E+00  0.00000000E+00  0.00000000E+00
  0.00000000E+00  0.00000000E+00  0.00000000E+00
  0.00000000E+00  0.00000000E+00  0.00000000E+00
  0.00000000E+00  0.00000000E+00  0.00000000E+00
  0.00000000E+00  0.00000000E+00  0.00000000E+00
  0.00000000E+00  0.00000000E+00  0.00000000E+00
  0.00000000E+00  0.00000000E+00  0.00000000E+00
  0.00000000E+00  0.00000000E+00  0.00000000E+00
  0.00000000E+00  0.00000000E+00  0.00000000E+00
  0.00000000E+00  0.00000000E+00  0.00000000E+00
  0.00000000E+00  0.00000000E+00  0.00000000E+00
  0.00000000E+00  0.00000000E+00  0.00000000E+00
  0.00000000E+00  0.00000000E+00  0.00000000E+00
  0.00000000E+00  0.00000000E+00  0.00000000E+00
  0.00000000E+00  0.00000000E+00  0.00000000E+00
  0.00000000E+00  0.00000000E+00  0.00000000E+00
  0.00000000E+00  0.00000000E+00  0.00000000E+00
  0.00000000E+00  0.00000000E+00  0.00000000E+00
  0.00000000E+00  0.00000000E+00  0.00000000E+00
  0.00000000E+00  0.00000000E+00  0.00000000E+00
  0.00000000E+00  0.00000000E+00  0.00000000E+00
  0.00000000E+00  0.00000000E+00  0.00000000E+00
  0.00000000E+00  0.00000000E+00  0.00000000E+00
  0.00000000E+00  0.00000000E+00  0.00000000E+00
  0.00000000E+00  0.00000000E+00  0.00000000E+00
  0.00000000E+00  0.00000000E+00  0.00000000E+00
  0.00000000E+00  0.00000000E+00  0.00000000E+00
  0.00000000E+00  0.00000000E+00  0.00000000E+00
  0.00000000E+00  0.00000000E+00  0.00000000E+00
  0.00000000E+00  0.00000000E+00  0.00000000E+00
  0.00000000E+00  0.00000000E+00  0.00000000E+00
  0.00000000E+00  0.00000000E+00  0.00000000E+00
  0.00000000E+00  0.00000000E+00  0.00000000E+00
  0.00000000E+00  0.00000000E+00  0.00000000E+00
  0.00000000E+00  0.00000000E+00  0.00000000E+00
  0.00000000E+00  0.00000000E+00  0.00000000E+00
  0.00000000E+00  0.00000000E+00  0.00000000E+00
  0.00000000E+00  0.00000000E+00  0.00000000E+00
  0.00000000E+00  0.00000000E+00  0.00000000E+00
  0.00000000E+00  0.00000000E+00  0.00000000E+00
  0.00000000E+00  0.00000000E+00  0.00000000E+00
  0.00000000E+00  0.00000000E+00  0.00000000E+00
  0.00000000E+00  0.00000000E+00  0.00000000E+00
  0.00000000E+00  0.00000000E+00  0.00000000E+00
  0.00000000E+00  0.00000000E+00  0.00000000E+00
  0.00000000E+00  0.00000000E+00  0.00000000E+00
  0.00000000E+00  0.00000000E+00  0.00000000E+00
  0.00000000E+00  0.00000000E+00  0.00000000E+00
  0.00000000E+00  0.00000000E+00  0.00000000E+00
  0.00000000E+00  0.00000000E+00  0.00000000E+00
  0.00000000E+00  0.00000000E+00  0.00000000E+00
  0.00000000E+00  0.00000000E+00  0.00000000E+00
  0.00000000E+00  0.00000000E+00  0.00000000E+00
  0.00000000E+00  0.00000000E+00  0.00000000E+00
  0.00000000E+00  0.00000000E+00  0.00000000E+00
  0.00000000E+00  0.00000000E+00  0.00000000E+00
  0.00000000E+00  0.00000000E+00  0.00000000E+00
  0.00000000E+00  0.00000000E+00  0.00000000E+00
  0.00000000E+00  0.00000000E+00  0.00000000E+00
