CONTCAR\(3)                             
   1.00000000000000     
    15.9702997207999999    0.0000000000000000    0.0000000000000000
    -7.9851476755000004   13.8305708986999996    0.0000000000000000
     0.0000000000000000    0.0000000000000000   18.2401008605999984
   Fe   I 
    16    32
Direct
  0.0000000000000000  0.0000000000000000  0.5000000000000000
  0.2500000000000000  0.0000000000000000  0.5000000000000000
  0.5000000000000000  0.0000000000000000  0.5000000000000000
  0.7500000149999977  0.0000000000000000  0.5000000000000000
  0.0000000060000005  0.2500000049999969  0.5000000000000000
  0.2500000060000005  0.2500000049999969  0.5000000000000000
  0.5000000060000005  0.2500000049999969  0.5000000000000000
  0.7499999910000028  0.2500000049999969  0.5000000000000000
  0.0000000109999974  0.5000000100000008  0.5000000000000000
  0.2500000109999974  0.5000000100000008  0.5000000000000000
  0.5000000109999974  0.5000000100000008  0.5000000000000000
  0.7500000260000022  0.5000000100000008  0.5000000000000000
  0.0000000249999985  0.7500000320000026  0.5000000000000000
  0.2500000249999985  0.7500000320000026  0.5000000000000000
  0.5000000249999985  0.7500000320000026  0.5000000000000000
  0.7500000400000033  0.7500000320000026  0.5000000000000000
  0.0833300039999969  0.1666699969999996  0.4110370463079178
  0.1666700039999967  0.0833299990000000  0.5889629276920800
  0.3333300039999969  0.1666699969999996  0.4110370463079178
  0.4166699820000019  0.0833299990000000  0.5889629276920800
  0.5833299600000004  0.1666699969999996  0.4110370463079178
  0.6666700270000021  0.0833299990000000  0.5889629276920800
  0.8333300339999994  0.1666699969999996  0.4110370463079178
  0.9166700119999973  0.0833299990000000  0.5889629276920800
  0.0833300099999974  0.4166700019999965  0.4110370463079178
  0.1666699980000033  0.3333299960000033  0.5889629276920800
  0.3333300099999974  0.4166700019999965  0.4110370463079178
  0.4166699829999985  0.3333299960000033  0.5889629276920800
  0.5833299649999972  0.4166700019999965  0.4110370463079178
  0.6666700279999986  0.3333299960000033  0.5889629276920800
  0.8333300099999974  0.4166700019999965  0.4110370463079178
  0.9166700430000034  0.3333299960000033  0.5889629276920800
  0.0833300119999976  0.6666700589999977  0.4110370463079178
  0.1666700419999998  0.5833300179999981  0.5889629276920800
  0.3333300119999976  0.6666700589999977  0.4110370463079178
  0.4166700270000021  0.5833300179999981  0.5889629276920800
  0.5833299669999974  0.6666700589999977  0.4110370463079178
  0.6666700720000023  0.5833300179999981  0.5889629276920800
  0.8333300119999976  0.6666700589999977  0.4110370463079178
  0.9166700870000000  0.5833300179999981  0.5889629276920800
  0.0833300239999986  0.9166700460000001  0.4110370463079178
  0.1666700390000031  0.8333300059999971  0.5889629276920800
  0.3333300090000009  0.9166700460000001  0.4110370463079178
  0.4166700239999983  0.8333300059999971  0.5889629276920800
  0.5833299640000007  0.9166700460000001  0.4110370463079178
  0.6666700689999985  0.8333300059999971  0.5889629276920800
  0.8333300090000009  0.9166700460000001  0.4110370463079178
  0.9166700540000008  0.8333300059999971  0.5889629276920800
 
  0.00000000E+00  0.00000000E+00  0.00000000E+00
  0.00000000E+00  0.00000000E+00  0.00000000E+00
  0.00000000E+00  0.00000000E+00  0.00000000E+00
  0.00000000E+00  0.00000000E+00  0.00000000E+00
  0.00000000E+00  0.00000000E+00  0.00000000E+00
  0.00000000E+00  0.00000000E+00  0.00000000E+00
  0.00000000E+00  0.00000000E+00  0.00000000E+00
  0.00000000E+00  0.00000000E+00  0.00000000E+00
  0.00000000E+00  0.00000000E+00  0.00000000E+00
  0.00000000E+00  0.00000000E+00  0.00000000E+00
  0.00000000E+00  0.00000000E+00  0.00000000E+00
  0.00000000E+00  0.00000000E+00  0.00000000E+00
  0.00000000E+00  0.00000000E+00  0.00000000E+00
  0.00000000E+00  0.00000000E+00  0.00000000E+00
  0.00000000E+00  0.00000000E+00  0.00000000E+00
  0.00000000E+00  0.00000000E+00  0.00000000E+00
  0.00000000E+00  0.00000000E+00  0.00000000E+00
  0.00000000E+00  0.00000000E+00  0.00000000E+00
  0.00000000E+00  0.00000000E+00  0.00000000E+00
  0.00000000E+00  0.00000000E+00  0.00000000E+00
  0.00000000E+00  0.00000000E+00  0.00000000E+00
  0.00000000E+00  0.00000000E+00  0.00000000E+00
  0.00000000E+00  0.00000000E+00  0.00000000E+00
  0.00000000E+00  0.00000000E+00  0.00000000E+00
  0.00000000E+00  0.00000000E+00  0.00000000E+00
  0.00000000E+00  0.00000000E+00  0.00000000E+00
  0.00000000E+00  0.00000000E+00  0.00000000E+00
  0.00000000E+00  0.00000000E+00  0.00000000E+00
  0.00000000E+00  0.00000000E+00  0.00000000E+00
  0.00000000E+00  0.00000000E+00  0.00000000E+00
  0.00000000E+00  0.00000000E+00  0.00000000E+00
  0.00000000E+00  0.00000000E+00  0.00000000E+00
  0.00000000E+00  0.00000000E+00  0.00000000E+00
  0.00000000E+00  0.00000000E+00  0.00000000E+00
  0.00000000E+00  0.00000000E+00  0.00000000E+00
  0.00000000E+00  0.00000000E+00  0.00000000E+00
  0.00000000E+00  0.00000000E+00  0.00000000E+00
  0.00000000E+00  0.00000000E+00  0.00000000E+00
  0.00000000E+00  0.00000000E+00  0.00000000E+00
  0.00000000E+00  0.00000000E+00  0.00000000E+00
  0.00000000E+00  0.00000000E+00  0.00000000E+00
  0.00000000E+00  0.00000000E+00  0.00000000E+00
  0.00000000E+00  0.00000000E+00  0.00000000E+00
  0.00000000E+00  0.00000000E+00  0.00000000E+00
  0.00000000E+00  0.00000000E+00  0.00000000E+00
  0.00000000E+00  0.00000000E+00  0.00000000E+00
  0.00000000E+00  0.00000000E+00  0.00000000E+00
  0.00000000E+00  0.00000000E+00  0.00000000E+00
