CONTCAR                                 
   1.00000000000000     
    13.0951995849999996    0.0000000000000000    0.0000000000000000
     0.0000000000000000   17.1203994751000010    0.0000000000000000
     0.0000000000000000    0.0000000000000000   20.8015995025999985
   La   I    O 
    12    30     1
Direct
  0.2499862395679608  0.1095595253557761  0.6269923713190990
  0.0845878664921567  0.8434296774394610  0.4795203699814081
  0.2500075703682922  0.6097995269111162  0.5267303874415119
  0.0749192453468918  0.3409603277169482  0.4642878588102004
  0.5801829302523555  0.1145757190851034  0.5136922763054110
  0.4154999146065996  0.8434298958835899  0.4796103433199199
  0.5860716851395849  0.6124548983155053  0.5239587856554869
  0.4249202246517939  0.3410684853872369  0.4643441061408031
  0.9197206072036046  0.1146295527924098  0.5135335093286401
  0.7500360935016045  0.8405130309720962  0.4759835168532739
  0.9140788507039859  0.6124504709259314  0.5239163274362566
  0.7500179961310319  0.3425675065807708  0.4617070352727234
  0.2499543469958227  0.3540342516153139  0.3585397142918866
  0.0816403957643800  0.5959300529345042  0.6347317756845873
  0.2500800960599440  0.9610016224043968  0.4231678466963765
  0.0615513546828016  0.9868631230730622  0.5871396263474479
  0.0832824731453801  0.5362600920667498  0.4276794772299458
  0.2498605477849035  0.4124184887135332  0.5604306009792994
  0.0564564168423766  0.2329278344100890  0.5981909209222417
  0.2500675992090806  0.7316377876305685  0.4036952832239335
  0.0847119940798510  0.1641274159843423  0.4126952112917065
  0.2499805023203303  0.7899747654554991  0.5877077446374028
  0.5841141716364114  0.3572834300760337  0.3512561647743300
  0.4184494587323317  0.5958093141353513  0.6346786897808491
  0.5820380401638429  0.9608703233549929  0.4115796227246674
  0.4384575393665800  0.9867141890519213  0.5873976636686900
  0.4167418969067248  0.5363000744241228  0.4276880206192171
  0.5884262713544346  0.4217108089506556  0.5601968128337182
  0.4434866316374461  0.2329350418739863  0.5984109181713639
  0.5802653947831460  0.7343950521738339  0.3995392813348864
  0.4152691111236992  0.1641868754263726  0.4128673007457137
  0.5866559265274215  0.7887845636943458  0.5849069927051322
  0.9158030659929579  0.3573296942542236  0.3511759092055409
  0.7501367316128289  0.5980812052868301  0.6359218074746743
  0.9180411712795964  0.9608858457582481  0.4114845339842251
  0.7500826063189974  0.9935248958392401  0.5757847417038608
  0.7500470759616509  0.5385406460158808  0.4236709449412803
  0.9115734779822361  0.4216952982420814  0.5601999239356353
  0.7498750297543846  0.2225374405129056  0.5878811194959711
  0.9197888189158013  0.7343864727805639  0.3995087670028347
  0.7499761834590336  0.1612753357537760  0.4054211688586197
  0.9134944892799728  0.7888186348760513  0.5848386038476634
  0.2500018383597317  0.1020705118645795  0.7155961390215746
 
  0.00000000E+00  0.00000000E+00  0.00000000E+00
  0.00000000E+00  0.00000000E+00  0.00000000E+00
  0.00000000E+00  0.00000000E+00  0.00000000E+00
  0.00000000E+00  0.00000000E+00  0.00000000E+00
  0.00000000E+00  0.00000000E+00  0.00000000E+00
  0.00000000E+00  0.00000000E+00  0.00000000E+00
  0.00000000E+00  0.00000000E+00  0.00000000E+00
  0.00000000E+00  0.00000000E+00  0.00000000E+00
  0.00000000E+00  0.00000000E+00  0.00000000E+00
  0.00000000E+00  0.00000000E+00  0.00000000E+00
  0.00000000E+00  0.00000000E+00  0.00000000E+00
  0.00000000E+00  0.00000000E+00  0.00000000E+00
  0.00000000E+00  0.00000000E+00  0.00000000E+00
  0.00000000E+00  0.00000000E+00  0.00000000E+00
  0.00000000E+00  0.00000000E+00  0.00000000E+00
  0.00000000E+00  0.00000000E+00  0.00000000E+00
  0.00000000E+00  0.00000000E+00  0.00000000E+00
  0.00000000E+00  0.00000000E+00  0.00000000E+00
  0.00000000E+00  0.00000000E+00  0.00000000E+00
  0.00000000E+00  0.00000000E+00  0.00000000E+00
  0.00000000E+00  0.00000000E+00  0.00000000E+00
  0.00000000E+00  0.00000000E+00  0.00000000E+00
  0.00000000E+00  0.00000000E+00  0.00000000E+00
  0.00000000E+00  0.00000000E+00  0.00000000E+00
  0.00000000E+00  0.00000000E+00  0.00000000E+00
  0.00000000E+00  0.00000000E+00  0.00000000E+00
  0.00000000E+00  0.00000000E+00  0.00000000E+00
  0.00000000E+00  0.00000000E+00  0.00000000E+00
  0.00000000E+00  0.00000000E+00  0.00000000E+00
  0.00000000E+00  0.00000000E+00  0.00000000E+00
  0.00000000E+00  0.00000000E+00  0.00000000E+00
  0.00000000E+00  0.00000000E+00  0.00000000E+00
  0.00000000E+00  0.00000000E+00  0.00000000E+00
  0.00000000E+00  0.00000000E+00  0.00000000E+00
  0.00000000E+00  0.00000000E+00  0.00000000E+00
  0.00000000E+00  0.00000000E+00  0.00000000E+00
  0.00000000E+00  0.00000000E+00  0.00000000E+00
  0.00000000E+00  0.00000000E+00  0.00000000E+00
  0.00000000E+00  0.00000000E+00  0.00000000E+00
  0.00000000E+00  0.00000000E+00  0.00000000E+00
  0.00000000E+00  0.00000000E+00  0.00000000E+00
  0.00000000E+00  0.00000000E+00  0.00000000E+00
  0.00000000E+00  0.00000000E+00  0.00000000E+00
