CONTCAR\(5)                             
   1.00000000000000     
    11.2875003814999992    0.0000000000000000    0.0000000000000000
    -5.6437736758000003   10.4440391513000002    0.0000000000000000
     0.0000000000000000    0.0000000000000000   21.6142997741999991
   Y    C    Br   O    H 
    18    18    18     1     1
Direct
  0.2015013979034592  0.0682015263711834  0.5680193713986873
  0.1170290005966235  0.2338749015100236  0.4326511374213102
  0.5334192351887479  0.0682331823101228  0.5679790053171969
  0.4508301781375669  0.2351105777057808  0.4331594054207174
  0.8671498506398539  0.0676676542517387  0.5676524590081086
  0.7835802708133751  0.2338435348247705  0.4326352827869540
  0.2016044312840879  0.4023138183393897  0.5677752361774235
  0.1171016888535584  0.5674343369259846  0.4322130044597575
  0.5341832854549181  0.4017491558458582  0.5704134474242332
  0.4503739241629211  0.5677337747554758  0.4324483230505558
  0.8673246253222211  0.4023189522469908  0.5677412264987045
  0.7840374833116592  0.5677683613342174  0.4324519459346782
  0.2006006438819816  0.7345504506667797  0.5674222374255794
  0.1173061999050013  0.9013790786185029  0.4324507089947124
  0.5334167425444516  0.7335365814019944  0.5678049617857720
  0.4506904895122844  0.9013387102605516  0.4324455166375262
  0.8667013282883372  0.7334965421526989  0.5677663991232319
  0.7834307739183816  0.9001136086906013  0.4326291155649007
  0.2995543579775662  0.2654084714242986  0.5176552348927134
  0.0184887518475732  0.0368100837809715  0.4826350205241163
  0.6324968181761770  0.2653764911638077  0.5175612663054290
  0.3518593271341062  0.0371367458052162  0.4824933747116020
  0.9655944087913366  0.2644798443551664  0.5171476908568061
  0.6850071751876686  0.0367847243781994  0.4826227769230191
  0.2986639461781397  0.5983646675754425  0.5168834112208031
  0.0184487761112181  0.3701777495195015  0.4825648001969736
  0.6321041178736776  0.5976537162745251  0.5178264570786476
  0.3523185805826411  0.3709161801917465  0.4829812342025798
  0.9663723679739119  0.5983827274373162  0.5168401894517097
  0.6852495024493722  0.3709431770416856  0.4829392033039074
  0.2988862601014148  0.9311819739032809  0.5169124548352769
  0.0188610333900494  0.7039525626138904  0.4821955625267904
  0.6324175027442585  0.9312274172451538  0.5173871543989512
  0.3517546566211008  0.7039206256014999  0.4822192480903945
  0.9654992178529497  0.9312591430626448  0.5174041339529912
  0.6845416462131425  0.7024302319585188  0.4825062257543002
  0.0865418886749588  0.1732981879659008  0.6541800348645322
  0.2315060120819011  0.1293316295929232  0.3456325194229328
  0.4184564717622531  0.1701243219777979  0.6532306422325461
  0.5644256997727686  0.1294864291334573  0.3456938121640776
  0.7536312988513316  0.1737651911147119  0.6541439660408889
  0.8978485438695826  0.1286060638259377  0.3457787772983826
  0.0865858485988963  0.5067642173745897  0.6541688135352690
  0.2308687061672403  0.4617323792562438  0.3454499372782509
  0.4189553429872223  0.5095288824404639  0.6531283157672126
  0.5644388043894493  0.4621048926699154  0.3456466041860292
  0.7571979061949089  0.5096326594283132  0.6530939695661688
  0.8976918429332709  0.4618340894348210  0.3455074021876668
  0.0864941010953591  0.8395335012831232  0.6541697354501502
  0.2310529035130618  0.7956575915677485  0.3454270947070112
  0.4197365420641084  0.8399710492318558  0.6542097613781492
  0.5645164728731461  0.7956561108009830  0.3454939204242112
  0.7535400298802305  0.8402287743274126  0.6542350580584616
  0.8980072432158041  0.7956428630141408  0.3454916361984190
  0.5272942942651755  0.3878966519081118  0.7423758905758617
  0.5272107008836174  0.3869936991060456  0.7876076120066411
 
  0.00000000E+00  0.00000000E+00  0.00000000E+00
  0.00000000E+00  0.00000000E+00  0.00000000E+00
  0.00000000E+00  0.00000000E+00  0.00000000E+00
  0.00000000E+00  0.00000000E+00  0.00000000E+00
  0.00000000E+00  0.00000000E+00  0.00000000E+00
  0.00000000E+00  0.00000000E+00  0.00000000E+00
  0.00000000E+00  0.00000000E+00  0.00000000E+00
  0.00000000E+00  0.00000000E+00  0.00000000E+00
  0.00000000E+00  0.00000000E+00  0.00000000E+00
  0.00000000E+00  0.00000000E+00  0.00000000E+00
  0.00000000E+00  0.00000000E+00  0.00000000E+00
  0.00000000E+00  0.00000000E+00  0.00000000E+00
  0.00000000E+00  0.00000000E+00  0.00000000E+00
  0.00000000E+00  0.00000000E+00  0.00000000E+00
  0.00000000E+00  0.00000000E+00  0.00000000E+00
  0.00000000E+00  0.00000000E+00  0.00000000E+00
  0.00000000E+00  0.00000000E+00  0.00000000E+00
  0.00000000E+00  0.00000000E+00  0.00000000E+00
  0.00000000E+00  0.00000000E+00  0.00000000E+00
  0.00000000E+00  0.00000000E+00  0.00000000E+00
  0.00000000E+00  0.00000000E+00  0.00000000E+00
  0.00000000E+00  0.00000000E+00  0.00000000E+00
  0.00000000E+00  0.00000000E+00  0.00000000E+00
  0.00000000E+00  0.00000000E+00  0.00000000E+00
  0.00000000E+00  0.00000000E+00  0.00000000E+00
  0.00000000E+00  0.00000000E+00  0.00000000E+00
  0.00000000E+00  0.00000000E+00  0.00000000E+00
  0.00000000E+00  0.00000000E+00  0.00000000E+00
  0.00000000E+00  0.00000000E+00  0.00000000E+00
  0.00000000E+00  0.00000000E+00  0.00000000E+00
  0.00000000E+00  0.00000000E+00  0.00000000E+00
  0.00000000E+00  0.00000000E+00  0.00000000E+00
  0.00000000E+00  0.00000000E+00  0.00000000E+00
  0.00000000E+00  0.00000000E+00  0.00000000E+00
  0.00000000E+00  0.00000000E+00  0.00000000E+00
  0.00000000E+00  0.00000000E+00  0.00000000E+00
  0.00000000E+00  0.00000000E+00  0.00000000E+00
  0.00000000E+00  0.00000000E+00  0.00000000E+00
  0.00000000E+00  0.00000000E+00  0.00000000E+00
  0.00000000E+00  0.00000000E+00  0.00000000E+00
  0.00000000E+00  0.00000000E+00  0.00000000E+00
  0.00000000E+00  0.00000000E+00  0.00000000E+00
  0.00000000E+00  0.00000000E+00  0.00000000E+00
  0.00000000E+00  0.00000000E+00  0.00000000E+00
  0.00000000E+00  0.00000000E+00  0.00000000E+00
  0.00000000E+00  0.00000000E+00  0.00000000E+00
  0.00000000E+00  0.00000000E+00  0.00000000E+00
  0.00000000E+00  0.00000000E+00  0.00000000E+00
  0.00000000E+00  0.00000000E+00  0.00000000E+00
  0.00000000E+00  0.00000000E+00  0.00000000E+00
  0.00000000E+00  0.00000000E+00  0.00000000E+00
  0.00000000E+00  0.00000000E+00  0.00000000E+00
  0.00000000E+00  0.00000000E+00  0.00000000E+00
  0.00000000E+00  0.00000000E+00  0.00000000E+00
  0.00000000E+00  0.00000000E+00  0.00000000E+00
  0.00000000E+00  0.00000000E+00  0.00000000E+00
