 Nd4 Te10                               
   1.00000000000000     
     4.4023201548521564    0.0000000000000000    0.0000000000000000
     0.0000000000000000    4.4023625876800887    0.0000000000000000
     0.0000000000000000    0.0000000000000000   33.6773948773439997
   Nd   Te
     4    10
Direct
  0.5000000000899689  0.0000000338911903  0.4241794187579444
  0.0000000330503909  0.4999999623189808  0.5758165321759776
  0.5000000092227168  0.0000000157736366  0.7018167845399432
  0.9999999742931465  0.5000000161295191  0.2981860757470969
  0.4999999826043720  0.9999999975906064  0.3274916695942807
  0.0000000018131843  0.5000000034712571  0.6725082648863179
  0.5000000264039883  0.9999999729886042  0.6027970981765023
  0.9999999880065573  0.5000000060636367  0.3972031126884374
  0.4999999944566298  0.5000000049834625  0.7770547493630602
  0.9999999908216068  0.9999999966532940  0.2229463417031710
  0.5000000012417019  0.5000000027560176  0.2229455243323315
  0.9999999835938382  0.9999999992364721  0.7770555727852795
  0.5000000110742064  0.5000000002068106  0.4999984292220461
  0.0000000033276919  0.9999999879365049  0.5000004260276114
 
  0.00000000E+00  0.00000000E+00  0.00000000E+00
  0.00000000E+00  0.00000000E+00  0.00000000E+00
  0.00000000E+00  0.00000000E+00  0.00000000E+00
  0.00000000E+00  0.00000000E+00  0.00000000E+00
  0.00000000E+00  0.00000000E+00  0.00000000E+00
  0.00000000E+00  0.00000000E+00  0.00000000E+00
  0.00000000E+00  0.00000000E+00  0.00000000E+00
  0.00000000E+00  0.00000000E+00  0.00000000E+00
  0.00000000E+00  0.00000000E+00  0.00000000E+00
  0.00000000E+00  0.00000000E+00  0.00000000E+00
  0.00000000E+00  0.00000000E+00  0.00000000E+00
  0.00000000E+00  0.00000000E+00  0.00000000E+00
  0.00000000E+00  0.00000000E+00  0.00000000E+00
  0.00000000E+00  0.00000000E+00  0.00000000E+00
