CONTCAR\(3)                             
   1.00000000000000     
    13.4954004288000000    0.0000000000000000    0.0000000000000000
    -3.3738461598999998   19.0216094057000014    0.0000000000000000
     0.0000000000000000    0.0000000000000000   18.9101009369000010
   Ta   Pd   Se   O    H 
    16     8    48     1     1
Direct
  0.0934697293454518  0.3478452015739052  0.5284213035107056
  0.1665311066399836  0.1462103195375279  0.4761645654861902
  0.3416405374673017  0.3482478112613354  0.5279213905499811
  0.4179237282862163  0.1478392297116909  0.4771898897738671
  0.5937172596524629  0.3523936962980005  0.5255775647605327
  0.6671318847906030  0.1489392045165061  0.4768717368828844
  0.8433235426391182  0.3521493627109264  0.5256865865350996
  0.9165462073228244  0.1476190018112063  0.4776165902575221
  0.0915633999122830  0.8523690701459077  0.5238511251856046
  0.1573708232343761  0.6499849605326358  0.4773813113201439
  0.3414962080215659  0.8519613118523720  0.5229707349198350
  0.4247655196587910  0.6503860395691730  0.4781187837971554
  0.5919833783189246  0.8528678909652793  0.5238671537087977
  0.6669559299304191  0.6492376288849963  0.4754587295947054
  0.8417512781606939  0.8530664180287693  0.5232994486330999
  0.9136885173899281  0.6489186118162016  0.4758264647793653
  0.0045990156046648  0.0005014706624714  0.4996033443387272
  0.2547077252480476  0.9982594836724104  0.5001053423225672
  0.5052232645488965  0.0015201077560035  0.4986855339982277
  0.7525759796254380 -0.0004521435060929  0.5010609183092471
  0.0078406280621868  0.5039936148850113  0.5000602398207863
  0.2496035874656154  0.4842418465340629  0.5124995865225791
  0.5034365379286952  0.5050693553475583  0.4991245409487419
  0.7538063014617281  0.4986409253779429  0.5019997005892300
  0.2321212767045576  0.4057251205284083  0.6167785203281616
  0.0233355475094709  0.0797365941795565  0.3957618575506378
  0.0654033727192382  0.2421375532345659  0.4291499786820206
  0.2264811570668933  0.3852130710768049  0.4302551535893348
  0.0321565184201263  0.1064198729596309  0.5745554618700133
  0.1933959267370460  0.2506757990558186  0.5742963670217717
  0.4856289186870522  0.4254634512098023  0.6017314832980613
  0.2757066844567169  0.0778631929223430  0.3970140848894310
  0.3162474284289279  0.2419541224113432  0.4286748183563456
  0.4769166855954293  0.3953205578245323  0.4294400053080094
  0.2820812940541297  0.1047555817590796  0.5740449690791852
  0.4459278045219452  0.2565621505337726  0.5759033360051758
  0.7352931641443213  0.4194423489968789  0.6067178052639262
  0.5257713998179203  0.0816357280718634  0.3953802378249389
  0.5657021051647371  0.2440382672663635  0.4287262390677340
  0.7281573936400199  0.3917431165757409  0.4277255032377595
  0.5328128087372886  0.1070978490396613  0.5744186961974325
  0.6945426475634974  0.2570248461019163  0.5740042886625943
  0.9876598360122968  0.4242810540613870  0.6027714123513354
  0.7741239778650200  0.0788694322317416  0.3977827446239381
  0.8169690769621832  0.2433469531566054  0.4285923700475128
  0.9812006241819343  0.3947055390814624  0.4297850677924378
  0.7813576631871220  0.1062172642248484  0.5749111991737517
  0.9425302700225179  0.2562705428509768  0.5760714102459846
  0.2343397648654281  0.9196507504320520  0.6042423022147124
  0.0232809474616413  0.5822527038025084  0.3940971751254825
  0.0620282664699131  0.7447137692551846  0.4262478764479903
  0.2263122850678198  0.8916918428903761  0.4255345472567095
  0.0280537387583483  0.6101852112255515  0.5756768780325622
  0.1923647988594699  0.7575833399545779  0.5732212143442541
  0.4835842313980699  0.9226584337991558  0.6021374025804596
  0.2710768094918216  0.5695731952565348  0.4136617732529376
  0.3133935745330910  0.7392032960853847  0.4279647932430979
  0.4768735477333250  0.8940062101962322  0.4255362383254187
  0.2776963123104913  0.5995529108390311  0.5658085965643712
  0.4436092960513775  0.7585753748978441  0.5737048449525872
  0.7338052779289342  0.9202106091801653  0.6048917405588522
  0.5240889780514504  0.5835992399280138  0.3932692854613770
  0.5667505601353431  0.7453175170167343  0.4264424215570928
  0.7264880452150678  0.8935607549965104  0.4257596759274533
  0.5343351925140764  0.6108029316354183  0.5757363595133610
  0.6940894386237874  0.7581873730693255  0.5721194687660790
  0.9843441130555931  0.9218157927024460  0.6033783959249595
  0.7722367949926888  0.5767718264465012  0.3978539754510355
  0.8144677760617930  0.7432082348817908  0.4258841147106199
  0.9771943689246807  0.8940486523056022  0.4256009071581421
  0.7796586222860434  0.6068440403011535  0.5739348613882562
  0.9416056451247048  0.7581996250875767  0.5723403096719861
  0.2833524067069738  0.6206981146930781  0.6610408361966820
  0.2171339014614364  0.6321996118203727  0.6726787483604665
 
  0.00000000E+00  0.00000000E+00  0.00000000E+00
  0.00000000E+00  0.00000000E+00  0.00000000E+00
  0.00000000E+00  0.00000000E+00  0.00000000E+00
  0.00000000E+00  0.00000000E+00  0.00000000E+00
  0.00000000E+00  0.00000000E+00  0.00000000E+00
  0.00000000E+00  0.00000000E+00  0.00000000E+00
  0.00000000E+00  0.00000000E+00  0.00000000E+00
  0.00000000E+00  0.00000000E+00  0.00000000E+00
  0.00000000E+00  0.00000000E+00  0.00000000E+00
  0.00000000E+00  0.00000000E+00  0.00000000E+00
  0.00000000E+00  0.00000000E+00  0.00000000E+00
  0.00000000E+00  0.00000000E+00  0.00000000E+00
  0.00000000E+00  0.00000000E+00  0.00000000E+00
  0.00000000E+00  0.00000000E+00  0.00000000E+00
  0.00000000E+00  0.00000000E+00  0.00000000E+00
  0.00000000E+00  0.00000000E+00  0.00000000E+00
  0.00000000E+00  0.00000000E+00  0.00000000E+00
  0.00000000E+00  0.00000000E+00  0.00000000E+00
  0.00000000E+00  0.00000000E+00  0.00000000E+00
  0.00000000E+00  0.00000000E+00  0.00000000E+00
  0.00000000E+00  0.00000000E+00  0.00000000E+00
  0.00000000E+00  0.00000000E+00  0.00000000E+00
  0.00000000E+00  0.00000000E+00  0.00000000E+00
  0.00000000E+00  0.00000000E+00  0.00000000E+00
  0.00000000E+00  0.00000000E+00  0.00000000E+00
  0.00000000E+00  0.00000000E+00  0.00000000E+00
  0.00000000E+00  0.00000000E+00  0.00000000E+00
  0.00000000E+00  0.00000000E+00  0.00000000E+00
  0.00000000E+00  0.00000000E+00  0.00000000E+00
  0.00000000E+00  0.00000000E+00  0.00000000E+00
  0.00000000E+00  0.00000000E+00  0.00000000E+00
  0.00000000E+00  0.00000000E+00  0.00000000E+00
  0.00000000E+00  0.00000000E+00  0.00000000E+00
  0.00000000E+00  0.00000000E+00  0.00000000E+00
  0.00000000E+00  0.00000000E+00  0.00000000E+00
  0.00000000E+00  0.00000000E+00  0.00000000E+00
  0.00000000E+00  0.00000000E+00  0.00000000E+00
  0.00000000E+00  0.00000000E+00  0.00000000E+00
  0.00000000E+00  0.00000000E+00  0.00000000E+00
  0.00000000E+00  0.00000000E+00  0.00000000E+00
  0.00000000E+00  0.00000000E+00  0.00000000E+00
  0.00000000E+00  0.00000000E+00  0.00000000E+00
  0.00000000E+00  0.00000000E+00  0.00000000E+00
  0.00000000E+00  0.00000000E+00  0.00000000E+00
  0.00000000E+00  0.00000000E+00  0.00000000E+00
  0.00000000E+00  0.00000000E+00  0.00000000E+00
  0.00000000E+00  0.00000000E+00  0.00000000E+00
  0.00000000E+00  0.00000000E+00  0.00000000E+00
  0.00000000E+00  0.00000000E+00  0.00000000E+00
  0.00000000E+00  0.00000000E+00  0.00000000E+00
  0.00000000E+00  0.00000000E+00  0.00000000E+00
  0.00000000E+00  0.00000000E+00  0.00000000E+00
  0.00000000E+00  0.00000000E+00  0.00000000E+00
  0.00000000E+00  0.00000000E+00  0.00000000E+00
  0.00000000E+00  0.00000000E+00  0.00000000E+00
  0.00000000E+00  0.00000000E+00  0.00000000E+00
  0.00000000E+00  0.00000000E+00  0.00000000E+00
  0.00000000E+00  0.00000000E+00  0.00000000E+00
  0.00000000E+00  0.00000000E+00  0.00000000E+00
  0.00000000E+00  0.00000000E+00  0.00000000E+00
  0.00000000E+00  0.00000000E+00  0.00000000E+00
  0.00000000E+00  0.00000000E+00  0.00000000E+00
  0.00000000E+00  0.00000000E+00  0.00000000E+00
  0.00000000E+00  0.00000000E+00  0.00000000E+00
  0.00000000E+00  0.00000000E+00  0.00000000E+00
  0.00000000E+00  0.00000000E+00  0.00000000E+00
  0.00000000E+00  0.00000000E+00  0.00000000E+00
  0.00000000E+00  0.00000000E+00  0.00000000E+00
  0.00000000E+00  0.00000000E+00  0.00000000E+00
  0.00000000E+00  0.00000000E+00  0.00000000E+00
  0.00000000E+00  0.00000000E+00  0.00000000E+00
  0.00000000E+00  0.00000000E+00  0.00000000E+00
  0.00000000E+00  0.00000000E+00  0.00000000E+00
  0.00000000E+00  0.00000000E+00  0.00000000E+00
