CONTCAR\(6)                             
   1.00000000000000     
    13.0347003936999997    0.0000000000000000    0.0000000000000000
     0.0000000000000000   13.0347003936999997    0.0000000000000000
     0.0000000000000000    0.0000000000000000   24.3213005066000001
   Sm   Te   O 
    18    54     1
Direct
 -0.0001415440390219  0.1666724930253064  0.4132066995721378
  0.1657363280428291  0.0018960172387614  0.5857526411551131
  0.3330204278588343  0.1663966850820984  0.4138926793550566
  0.4993509897606314  0.0000019140394812  0.5872391044903200
  0.6662726923778254  0.1662102653373271  0.4134389185777076
  0.8332429526581616  0.9998092391375907  0.5857401067509868
  0.9995514714260559  0.4997427626058334  0.4138493792946608
  0.1677869981092129  0.3342530130221784  0.5874193507738937
  0.3332265822785164  0.4999687175013078  0.4151552615120904
  0.4999009098648313  0.3309770156406446  0.5863891212858466
  0.6660977504447151  0.4999340277144900  0.4146067907463801
  0.8352964144343269  0.3322341026964093  0.5857973881182885
  0.9996223292112861  0.8331217075564665  0.4134498661607556
  0.1643372800011526  0.6663832079835504  0.5864973545615743
  0.3331997717357789  0.8327936571434454  0.4146682360837919
  0.5010673930853770  0.6677501952655185  0.5894713611696993
  0.6663927178171821  0.8329859417593182  0.4142513379730071
  0.8335218700629724  0.6660944121039537  0.5872864133202940
  0.0008896719548205  0.1675607983533645  0.5464855441588431
  0.1665684149039496  0.9996064007957028  0.4526903672463742
  0.1692604264255918  0.1674608868503899  0.6906661468116826
 -0.0001648190503633  0.9997902109960969  0.3092179241148375
  0.9989249930471636  0.0060175762315042  0.6896715884719190
  0.1667132023822070  0.1665641250109029  0.3098136505267448
  0.3333432550133874  0.1663920708121764  0.5474732459529277
  0.4996717067031657  0.9996001216713710  0.4534941147041107
  0.5001209456652832  0.1653904615027817  0.6913505537354789
  0.3332802408024816  0.9997000785658799  0.3103262930014883
  0.3330170281108398  0.0018238877594058  0.6908587260058249
  0.4994989396804258  0.1665651169488200  0.3098673009491010
  0.6663527351125927  0.1654838628591295  0.5468270074114675
  0.8331957994186039  0.9999400639930219  0.4526083205784073
  0.8389662994269097  0.1651215608448649  0.6894422094525462
  0.6663989428347554  0.9994465895623273  0.3100174409730122
  0.6671967878554685  0.0006604219323592  0.6901993290834145
  0.8328594497792847  0.1664752374900344  0.3094883361612180
  0.9998237266354172  0.4997874529165512  0.5477318749046323
  0.1662980311374243  0.3335755372399277  0.4536453777583904
  0.1669987499122705  0.5034519510267961  0.6914006947852247
 -0.0002824058427480  0.3333361168862185  0.3097113505591128
  0.0006646291936733  0.3359348200403131  0.6907290266579623
  0.1666472548741224  0.4997902001532208  0.3106345074736340
  0.3346632934438609  0.5014570944648368  0.5497523565544343
  0.4997459787966599  0.3327089197465868  0.4534837086612024
  0.5142525818831654  0.4945285591025938  0.6984063773212118
  0.3328935243537144  0.3335040360521393  0.3107127520494321
  0.3373014047726978  0.3334879615380780  0.6913325189948210
  0.4994222228513407  0.4999478386504960  0.3108450994560388
  0.6657169819824323  0.4999071903747678  0.5491203507798961
  0.8327047322099472  0.3331460600448614  0.4527882092824566
  0.8349736704286923  0.4999588612919270  0.6908841503923083
  0.6660508220428157  0.3334559921342391  0.3102828427830340
  0.6709788133790472  0.3276068009659601  0.6876157594480183
  0.8329019734539580  0.5000198724559828  0.3102552355942519
  0.9992598263084078  0.8333095923555576  0.5469235398167681
  0.1657067312155013  0.6662237613106999  0.4535218402827624
  0.1615151236241066  0.8373037764246771  0.6875035058926052
  0.9995673800449866  0.6663932649660781  0.3098525831262074
  0.9986091635480612  0.6670807752715903  0.6912998035605077
  0.1666247295449132  0.8329113310528561  0.3102052313600818
  0.3331314439930900  0.8320952619135236  0.5491191220456025
  0.4999299180586314  0.6666943693141471  0.4550164204804525
  0.5001226474224212  0.8360481827832336  0.6932104153534991
  0.3331945960956001  0.6662614018173744  0.3110919608330096
  0.3274990941527737  0.6802971769680448  0.6989552989463244
  0.4997758866379923  0.8329957559467260  0.3107107908884541
  0.6659386031002170  0.8325100738381576  0.5480737567621363
  0.8332148861850204  0.6662201220880559  0.4535990160782642
  0.8346223697544755  0.8341500674402784  0.6901037921025843
  0.6662195266457166  0.6664345827610848  0.3107890090501200
  0.6695607672656519  0.6670828479751000  0.6932287913579297
  0.8327843891031984  0.8330927444078480  0.3100739664473852
  0.4070895605935047  0.5728247922456586  0.7415792149182937
 
  0.00000000E+00  0.00000000E+00  0.00000000E+00
  0.00000000E+00  0.00000000E+00  0.00000000E+00
  0.00000000E+00  0.00000000E+00  0.00000000E+00
  0.00000000E+00  0.00000000E+00  0.00000000E+00
  0.00000000E+00  0.00000000E+00  0.00000000E+00
  0.00000000E+00  0.00000000E+00  0.00000000E+00
  0.00000000E+00  0.00000000E+00  0.00000000E+00
  0.00000000E+00  0.00000000E+00  0.00000000E+00
  0.00000000E+00  0.00000000E+00  0.00000000E+00
  0.00000000E+00  0.00000000E+00  0.00000000E+00
  0.00000000E+00  0.00000000E+00  0.00000000E+00
  0.00000000E+00  0.00000000E+00  0.00000000E+00
  0.00000000E+00  0.00000000E+00  0.00000000E+00
  0.00000000E+00  0.00000000E+00  0.00000000E+00
  0.00000000E+00  0.00000000E+00  0.00000000E+00
  0.00000000E+00  0.00000000E+00  0.00000000E+00
  0.00000000E+00  0.00000000E+00  0.00000000E+00
  0.00000000E+00  0.00000000E+00  0.00000000E+00
  0.00000000E+00  0.00000000E+00  0.00000000E+00
  0.00000000E+00  0.00000000E+00  0.00000000E+00
  0.00000000E+00  0.00000000E+00  0.00000000E+00
  0.00000000E+00  0.00000000E+00  0.00000000E+00
  0.00000000E+00  0.00000000E+00  0.00000000E+00
  0.00000000E+00  0.00000000E+00  0.00000000E+00
  0.00000000E+00  0.00000000E+00  0.00000000E+00
  0.00000000E+00  0.00000000E+00  0.00000000E+00
  0.00000000E+00  0.00000000E+00  0.00000000E+00
  0.00000000E+00  0.00000000E+00  0.00000000E+00
  0.00000000E+00  0.00000000E+00  0.00000000E+00
  0.00000000E+00  0.00000000E+00  0.00000000E+00
  0.00000000E+00  0.00000000E+00  0.00000000E+00
  0.00000000E+00  0.00000000E+00  0.00000000E+00
  0.00000000E+00  0.00000000E+00  0.00000000E+00
  0.00000000E+00  0.00000000E+00  0.00000000E+00
  0.00000000E+00  0.00000000E+00  0.00000000E+00
  0.00000000E+00  0.00000000E+00  0.00000000E+00
  0.00000000E+00  0.00000000E+00  0.00000000E+00
  0.00000000E+00  0.00000000E+00  0.00000000E+00
  0.00000000E+00  0.00000000E+00  0.00000000E+00
  0.00000000E+00  0.00000000E+00  0.00000000E+00
  0.00000000E+00  0.00000000E+00  0.00000000E+00
  0.00000000E+00  0.00000000E+00  0.00000000E+00
  0.00000000E+00  0.00000000E+00  0.00000000E+00
  0.00000000E+00  0.00000000E+00  0.00000000E+00
  0.00000000E+00  0.00000000E+00  0.00000000E+00
  0.00000000E+00  0.00000000E+00  0.00000000E+00
  0.00000000E+00  0.00000000E+00  0.00000000E+00
  0.00000000E+00  0.00000000E+00  0.00000000E+00
  0.00000000E+00  0.00000000E+00  0.00000000E+00
  0.00000000E+00  0.00000000E+00  0.00000000E+00
  0.00000000E+00  0.00000000E+00  0.00000000E+00
  0.00000000E+00  0.00000000E+00  0.00000000E+00
  0.00000000E+00  0.00000000E+00  0.00000000E+00
  0.00000000E+00  0.00000000E+00  0.00000000E+00
  0.00000000E+00  0.00000000E+00  0.00000000E+00
  0.00000000E+00  0.00000000E+00  0.00000000E+00
  0.00000000E+00  0.00000000E+00  0.00000000E+00
  0.00000000E+00  0.00000000E+00  0.00000000E+00
  0.00000000E+00  0.00000000E+00  0.00000000E+00
  0.00000000E+00  0.00000000E+00  0.00000000E+00
  0.00000000E+00  0.00000000E+00  0.00000000E+00
  0.00000000E+00  0.00000000E+00  0.00000000E+00
  0.00000000E+00  0.00000000E+00  0.00000000E+00
  0.00000000E+00  0.00000000E+00  0.00000000E+00
  0.00000000E+00  0.00000000E+00  0.00000000E+00
  0.00000000E+00  0.00000000E+00  0.00000000E+00
  0.00000000E+00  0.00000000E+00  0.00000000E+00
  0.00000000E+00  0.00000000E+00  0.00000000E+00
  0.00000000E+00  0.00000000E+00  0.00000000E+00
  0.00000000E+00  0.00000000E+00  0.00000000E+00
  0.00000000E+00  0.00000000E+00  0.00000000E+00
  0.00000000E+00  0.00000000E+00  0.00000000E+00
  0.00000000E+00  0.00000000E+00  0.00000000E+00
