CONTCAR                                 
   1.00000000000000     
    12.6485004424999996    0.0000000000000000    0.0000000000000000
    -1.2670761195000000   12.5961316350000008    0.0000000000000000
     0.0000000000000000    0.0000000000000000   18.5200004577999984
   Cr   P    S    O    H 
     4     8    28     2     1
Direct
  0.2520835959403132  0.2409430867659614  0.4989808525009795
  0.7649646927086646  0.2430334450085896  0.5030467815858087
  0.2569335055115296  0.7440066458918997  0.4993135500007782
  0.7589539171791473  0.7480463750662792  0.5029942921542199
  0.4820583735419826  0.3170643863645908  0.4819945682325752
  0.1692787090112876  0.0138478920165304  0.5186930663466420
  0.9886651015370317  0.3263364650925079  0.4672613752805937
  0.6747370870553159  0.0190620868921276  0.5301727111740986
  0.4838936844759863  0.8307412340471279  0.4767368164473354
  0.1735793901862893  0.5166352958347585  0.5252118721835962
  0.9863960546260490  0.8220516644130508  0.4645004289672316
  0.6980266490524266  0.5202351048310891  0.5430352349627890
  0.4185318341938616  0.2317620650294218  0.5648091755081407
  0.2154956515803922  0.3854897869894464  0.5781006386014234
  0.3647029506445676  0.3332633870258478  0.4106552757406630
  0.0130822443882425  0.4913389121963279  0.4890467228348219
  0.1625382613779232  0.1375481870858134  0.5887649664370225
  0.1126310984912357  0.2670315500675287  0.4169485635339030
  0.2656408813144534  0.0765482761261093  0.4383488698706334
  0.9335220610993537  0.2425142458430968  0.5563786257755720
  0.7534058949566209  0.3937651273471333  0.5878402176052446
  0.8593487681720269  0.3225378351002314  0.4022897033079931
  0.5162697763347801  0.4876070961479947  0.5303709258895574
  0.6807025151836019  0.1449986625469411  0.5987783827831415
  0.6162057202634196  0.2892030656740939  0.4308736908807883
  0.7565195896751075  0.0795526039393209  0.4420765822588173
  0.4210487347236666  0.7469766472126641  0.5625909648784719
  0.2149296049042499  0.8877501340327321  0.5738690727185574
  0.3594745214600107  0.8286799482061363  0.4065512761214367
  0.0106889377976924  0.9890434621855900  0.4785468339424596
  0.1722293359175301  0.6409443403865782  0.5942755292444809
  0.1101773356532594  0.7595165888220458  0.4169427419547894
  0.2681183924443654  0.5753557672658295  0.4430118854990867
  0.9301722601460549  0.7466374598652321  0.5557630769457845
  0.7349404014441883  0.8943999416969249  0.5791039702278210
  0.8536483759058084  0.8171227843728117  0.4012208425060729
  0.5101728818751852  0.9943614426330637  0.5054933899586034
  0.6951709394977329  0.6483312447524685  0.6074570272162202
  0.6091454273921649  0.7729859187717391  0.4276142382581420
  0.7500166815926793  0.5739021732839119  0.4464738886268980
  0.4935791897661180  0.4614564233698180  0.6176146523625833
  0.4133750030780797  0.5255456977291828  0.6469192359660290
  0.3466842638996052  0.4799753430694436  0.6336071547081751
 
  0.00000000E+00  0.00000000E+00  0.00000000E+00
  0.00000000E+00  0.00000000E+00  0.00000000E+00
  0.00000000E+00  0.00000000E+00  0.00000000E+00
  0.00000000E+00  0.00000000E+00  0.00000000E+00
  0.00000000E+00  0.00000000E+00  0.00000000E+00
  0.00000000E+00  0.00000000E+00  0.00000000E+00
  0.00000000E+00  0.00000000E+00  0.00000000E+00
  0.00000000E+00  0.00000000E+00  0.00000000E+00
  0.00000000E+00  0.00000000E+00  0.00000000E+00
  0.00000000E+00  0.00000000E+00  0.00000000E+00
  0.00000000E+00  0.00000000E+00  0.00000000E+00
  0.00000000E+00  0.00000000E+00  0.00000000E+00
  0.00000000E+00  0.00000000E+00  0.00000000E+00
  0.00000000E+00  0.00000000E+00  0.00000000E+00
  0.00000000E+00  0.00000000E+00  0.00000000E+00
  0.00000000E+00  0.00000000E+00  0.00000000E+00
  0.00000000E+00  0.00000000E+00  0.00000000E+00
  0.00000000E+00  0.00000000E+00  0.00000000E+00
  0.00000000E+00  0.00000000E+00  0.00000000E+00
  0.00000000E+00  0.00000000E+00  0.00000000E+00
  0.00000000E+00  0.00000000E+00  0.00000000E+00
  0.00000000E+00  0.00000000E+00  0.00000000E+00
  0.00000000E+00  0.00000000E+00  0.00000000E+00
  0.00000000E+00  0.00000000E+00  0.00000000E+00
  0.00000000E+00  0.00000000E+00  0.00000000E+00
  0.00000000E+00  0.00000000E+00  0.00000000E+00
  0.00000000E+00  0.00000000E+00  0.00000000E+00
  0.00000000E+00  0.00000000E+00  0.00000000E+00
  0.00000000E+00  0.00000000E+00  0.00000000E+00
  0.00000000E+00  0.00000000E+00  0.00000000E+00
  0.00000000E+00  0.00000000E+00  0.00000000E+00
  0.00000000E+00  0.00000000E+00  0.00000000E+00
  0.00000000E+00  0.00000000E+00  0.00000000E+00
  0.00000000E+00  0.00000000E+00  0.00000000E+00
  0.00000000E+00  0.00000000E+00  0.00000000E+00
  0.00000000E+00  0.00000000E+00  0.00000000E+00
  0.00000000E+00  0.00000000E+00  0.00000000E+00
  0.00000000E+00  0.00000000E+00  0.00000000E+00
  0.00000000E+00  0.00000000E+00  0.00000000E+00
  0.00000000E+00  0.00000000E+00  0.00000000E+00
  0.00000000E+00  0.00000000E+00  0.00000000E+00
  0.00000000E+00  0.00000000E+00  0.00000000E+00
  0.00000000E+00  0.00000000E+00  0.00000000E+00
