Repeated-UnitCell:     2    2    1      
   1.00000000000000     
    14.4229742000098611    0.0000000000000000    0.0000000000000000
     0.0000000000000000   16.5290449779605026    0.0000000000000000
     0.0000000000000000    0.0000000000000000   17.8573025189379990
   Cu   Te   O 
    16    16    48
Direct
  0.3402108389608974  0.2661025860497085  0.5304061614968564
  0.8402108389608973  0.2661025860497085  0.5304061614968564
  0.3402108389608974  0.7661025860497085  0.5304061614968564
  0.8402108389608973  0.7661025860497085  0.5304061614968564
  0.0902071529777662  0.4838962407998685  0.5303978761747959
  0.5902071529777662  0.4838962407998685  0.5303978761747959
  0.0902071529777662  0.9838962407998685  0.5303978761747959
  0.5902071529777662  0.9838962407998685  0.5303978761747959
  0.1597916086044246  0.2339017102720325  0.4696042283918229
  0.6597916086044247  0.2339017102720325  0.4696042283918229
  0.1597916086044246  0.7339017102720325  0.4696042283918229
  0.6597916086044247  0.7339017102720325  0.4696042283918229
  0.4097901758452617  0.0161031305604632  0.4695898468327397
  0.9097901758452618  0.0161031305604632  0.4695898468327397
  0.4097901758452617  0.5161031305604632  0.4695898468327397
  0.9097901758452618  0.5161031305604632  0.4695898468327397
  0.2805832509167494  0.1028391707807588  0.5912054290400305
  0.7805832509167495  0.1028391707807588  0.5912054290400305
  0.2805832509167494  0.6028391707807591  0.5912054290400305
  0.7805832509167495  0.6028391707807591  0.5912054290400305
  0.2194169606414669  0.3971524646611995  0.4087919796869314
  0.7194169606414668  0.3971524646611995  0.4087919796869314
  0.2194169606414669  0.8971524646611991  0.4087919796869314
  0.7194169606414668  0.8971524646611991  0.4087919796869314
  0.4694148104477087  0.3528433804377658  0.4087947368999493
  0.9694148104477086  0.3528433804377658  0.4087947368999493
  0.4694148104477087  0.8528433804377661  0.4087947368999493
  0.9694148104477086  0.8528433804377661  0.4087947368999493
  0.0305814913789184  0.1471518754814793  0.5912120658373680
  0.5305814913789185  0.1471518754814793  0.5912120658373680
  0.0305814913789184  0.6471518754814790  0.5912120658373680
  0.5305814913789185  0.6471518754814790  0.5912120658373680
  0.3026812765272783  0.0781271707320829  0.4900395371252425
  0.8026812765272782  0.0781271707320829  0.4900395371252425
  0.3026812765272783  0.5781271707320829  0.4900395371252425
  0.8026812765272782  0.5781271707320829  0.4900395371252425
  0.2719382256367188  0.2914235712539064  0.4347269345448214
  0.7719382256367190  0.2914235712539064  0.4347269345448214
  0.2719382256367188  0.7914235712539066  0.4347269345448214
  0.7719382256367190  0.7914235712539066  0.4347269345448214
  0.3987506002349871  0.1880746362295121  0.5969201898179430
  0.8987506002349871  0.1880746362295121  0.5969201898179430
  0.3987506002349871  0.6880746362295120  0.5969201898179430
  0.8987506002349871  0.6880746362295120  0.5969201898179430
  0.4780532147868594  0.0414256691093424  0.5652685953271600
  0.9780532147868591  0.0414256691093424  0.5652685953271600
  0.4780532147868594  0.5414256691093426  0.5652685953271600
  0.9780532147868591  0.5414256691093426  0.5652685953271600
  0.3512542750668036  0.4380785996141691  0.4030811251887774
  0.8512542750668036  0.4380785996141691  0.4030811251887774
  0.3512542750668036  0.9380785996141690  0.4030811251887774
  0.8512542750668036  0.9380785996141690  0.4030811251887774
  0.1487514254486765  0.0619202087900382  0.5969133564467053
  0.6487514254486765  0.0619202087900382  0.5969133564467053
  0.1487514254486765  0.5619202087900383  0.5969133564467053
  0.6487514254486765  0.5619202087900383  0.5969133564467053
  0.4473203240069335  0.3281380309903684  0.5099575349616279
  0.9473203240069337  0.3281380309903684  0.5099575349616279
  0.4473203240069335  0.8281380309903684  0.5099575349616279
  0.9473203240069337  0.8281380309903684  0.5099575349616279
  0.1973302866628143  0.4218730695343834  0.5099487541536254
  0.6973302866628144  0.4218730695343834  0.5099487541536254
  0.1973302866628143  0.9218730695343905  0.5099487541536254
  0.6973302866628144  0.9218730695343905  0.5099487541536254
  0.0219360464396719  0.4585755638003324  0.4347182091585199
  0.5219360464396722  0.4585755638003324  0.4347182091585199
  0.0219360464396719  0.9585755638003322  0.4347182091585199
  0.5219360464396722  0.9585755638003322  0.4347182091585199
  0.2280583778774581  0.2085694733157216  0.5652741160380742
  0.7280583778774578  0.2085694733157216  0.5652741160380742
  0.2280583778774581  0.7085694733157213  0.5652741160380742
  0.7280583778774578  0.7085694733157213  0.5652741160380742
  0.0526758024660526  0.1718833592325721  0.4900556399552382
  0.5526758024660525  0.1718833592325721  0.4900556399552382
  0.0526758024660526  0.6718833592325720  0.4900556399552382
  0.5526758024660525  0.6718833592325720  0.4900556399552382
  0.1012538550725669  0.3119200883542809  0.4030936829217855
  0.6012538550725669  0.3119200883542809  0.4030936829217855
  0.1012538550725669  0.8119200883542810  0.4030936829217855
  0.6012538550725669  0.8119200883542810  0.4030936829217855
 
  0.00000000E+00  0.00000000E+00  0.00000000E+00
  0.00000000E+00  0.00000000E+00  0.00000000E+00
  0.00000000E+00  0.00000000E+00  0.00000000E+00
  0.00000000E+00  0.00000000E+00  0.00000000E+00
  0.00000000E+00  0.00000000E+00  0.00000000E+00
  0.00000000E+00  0.00000000E+00  0.00000000E+00
  0.00000000E+00  0.00000000E+00  0.00000000E+00
  0.00000000E+00  0.00000000E+00  0.00000000E+00
  0.00000000E+00  0.00000000E+00  0.00000000E+00
  0.00000000E+00  0.00000000E+00  0.00000000E+00
  0.00000000E+00  0.00000000E+00  0.00000000E+00
  0.00000000E+00  0.00000000E+00  0.00000000E+00
  0.00000000E+00  0.00000000E+00  0.00000000E+00
  0.00000000E+00  0.00000000E+00  0.00000000E+00
  0.00000000E+00  0.00000000E+00  0.00000000E+00
  0.00000000E+00  0.00000000E+00  0.00000000E+00
  0.00000000E+00  0.00000000E+00  0.00000000E+00
  0.00000000E+00  0.00000000E+00  0.00000000E+00
  0.00000000E+00  0.00000000E+00  0.00000000E+00
  0.00000000E+00  0.00000000E+00  0.00000000E+00
  0.00000000E+00  0.00000000E+00  0.00000000E+00
  0.00000000E+00  0.00000000E+00  0.00000000E+00
  0.00000000E+00  0.00000000E+00  0.00000000E+00
  0.00000000E+00  0.00000000E+00  0.00000000E+00
  0.00000000E+00  0.00000000E+00  0.00000000E+00
  0.00000000E+00  0.00000000E+00  0.00000000E+00
  0.00000000E+00  0.00000000E+00  0.00000000E+00
  0.00000000E+00  0.00000000E+00  0.00000000E+00
  0.00000000E+00  0.00000000E+00  0.00000000E+00
  0.00000000E+00  0.00000000E+00  0.00000000E+00
  0.00000000E+00  0.00000000E+00  0.00000000E+00
  0.00000000E+00  0.00000000E+00  0.00000000E+00
  0.00000000E+00  0.00000000E+00  0.00000000E+00
  0.00000000E+00  0.00000000E+00  0.00000000E+00
  0.00000000E+00  0.00000000E+00  0.00000000E+00
  0.00000000E+00  0.00000000E+00  0.00000000E+00
  0.00000000E+00  0.00000000E+00  0.00000000E+00
  0.00000000E+00  0.00000000E+00  0.00000000E+00
  0.00000000E+00  0.00000000E+00  0.00000000E+00
  0.00000000E+00  0.00000000E+00  0.00000000E+00
  0.00000000E+00  0.00000000E+00  0.00000000E+00
  0.00000000E+00  0.00000000E+00  0.00000000E+00
  0.00000000E+00  0.00000000E+00  0.00000000E+00
  0.00000000E+00  0.00000000E+00  0.00000000E+00
  0.00000000E+00  0.00000000E+00  0.00000000E+00
  0.00000000E+00  0.00000000E+00  0.00000000E+00
  0.00000000E+00  0.00000000E+00  0.00000000E+00
  0.00000000E+00  0.00000000E+00  0.00000000E+00
  0.00000000E+00  0.00000000E+00  0.00000000E+00
  0.00000000E+00  0.00000000E+00  0.00000000E+00
  0.00000000E+00  0.00000000E+00  0.00000000E+00
  0.00000000E+00  0.00000000E+00  0.00000000E+00
  0.00000000E+00  0.00000000E+00  0.00000000E+00
  0.00000000E+00  0.00000000E+00  0.00000000E+00
  0.00000000E+00  0.00000000E+00  0.00000000E+00
  0.00000000E+00  0.00000000E+00  0.00000000E+00
  0.00000000E+00  0.00000000E+00  0.00000000E+00
  0.00000000E+00  0.00000000E+00  0.00000000E+00
  0.00000000E+00  0.00000000E+00  0.00000000E+00
  0.00000000E+00  0.00000000E+00  0.00000000E+00
  0.00000000E+00  0.00000000E+00  0.00000000E+00
  0.00000000E+00  0.00000000E+00  0.00000000E+00
  0.00000000E+00  0.00000000E+00  0.00000000E+00
  0.00000000E+00  0.00000000E+00  0.00000000E+00
  0.00000000E+00  0.00000000E+00  0.00000000E+00
  0.00000000E+00  0.00000000E+00  0.00000000E+00
  0.00000000E+00  0.00000000E+00  0.00000000E+00
  0.00000000E+00  0.00000000E+00  0.00000000E+00
  0.00000000E+00  0.00000000E+00  0.00000000E+00
  0.00000000E+00  0.00000000E+00  0.00000000E+00
  0.00000000E+00  0.00000000E+00  0.00000000E+00
  0.00000000E+00  0.00000000E+00  0.00000000E+00
  0.00000000E+00  0.00000000E+00  0.00000000E+00
  0.00000000E+00  0.00000000E+00  0.00000000E+00
  0.00000000E+00  0.00000000E+00  0.00000000E+00
  0.00000000E+00  0.00000000E+00  0.00000000E+00
  0.00000000E+00  0.00000000E+00  0.00000000E+00
  0.00000000E+00  0.00000000E+00  0.00000000E+00
  0.00000000E+00  0.00000000E+00  0.00000000E+00
  0.00000000E+00  0.00000000E+00  0.00000000E+00
