Layer                                   
   1.00000000000000     
     3.5271000861999999    0.0000000000000000    0.0000000000000000
     1.7537552164000001    9.5587496525999995    0.0000000000000000
     0.0000000000000000    0.0000000000000000   15.5000000000000000
   H    O    Ta   Te
    16    10     3     6
Direct
  0.1439001467195453  0.0609058230407248  0.5600443103641941
  0.9348552091338073  0.7276427158569957  0.5147211716996424
  0.6076060214873726  0.5672574735231829  0.4466192368249096
  0.7753481392342116  0.4132214102682579  0.4453679347124560
  0.9957128913526359  0.8367874320723134  0.2813110689718190
  0.7498013159752478  0.7144997864016970  0.2807542469926768
  0.0956641578495193  0.0944944211655126  0.2513404379287694
  0.4296109270628429  0.9653344797528329  0.2713353784932493
  0.2193413677595579  0.4997373611088143  0.6568949510477492
  0.3718915482191459  0.4245246466650958  0.5758438171671492
  0.8328188569630226  0.7770885097288158  0.4181010952931968
  0.5147829844357465  0.9653097434536629  0.5670562657605763
  0.2713647811326170  0.6160486093247622  0.2318388451455793
  0.6486068660095587  0.5380656592899944  0.1773683048666252
  0.5525087010067509  0.2906815273614494  0.2092739627262550
  0.2623965425383373  0.3123679475367436  0.2934354596277255
  0.3373660474023200  0.0333608493021210  0.6023196766275150
  0.5396382287753808  0.4771031052782898  0.4622110546306900
  0.9052874846595588  0.7653820447780467  0.3171722731812728
  0.2026879344186552  0.9993437079041381  0.2362571034141552
  0.2345763693721727  0.4081837740772413  0.6281408208238771
  0.7238255584879097  0.7753747814769829  0.4764228825821633
  0.5297484996089565  0.6229907658059943  0.2128751276101470
  0.4596546217272714  0.2465465541330169  0.2597411710657596
  0.8805996368786626  0.4204053167322206  0.1156429315952231
  0.2438403683773880  0.6460748600985022  0.7182445114806074
  0.7507281722071735  0.7189818683225829  0.9315724752133221
  0.4398148750871114  0.2622381449160578  0.8951794017482757
  0.1011082809921910  0.9920326556665299  0.9126068637758106
  0.6682706411124989  0.8643176145037856  0.7796729563180240
  0.5185750083178983  0.1136577848301601  0.0440149943311396
  0.3115104937085486  0.5527654791841229  0.8218740498054568
  0.1754082762639098  0.7906076027097561  0.0569607122773484
  0.9376704687453354  0.1894950182421199  0.7687891286131480
  0.8436869522696949  0.4409817297585036  0.9920309382660423
 
  0.13811511E-01  0.91898067E-02 -0.45777602E-02
  0.25959556E-01 -0.17869016E-01  0.25363832E-01
  0.22021378E-01 -0.22549848E-02 -0.10418729E-01
 -0.13898303E-02 -0.61421292E-02 -0.11059345E-01
 -0.40519925E-03  0.64990253E-02 -0.43916927E-02
  0.18418420E-02 -0.16106389E-01 -0.11830221E-02
  0.24425907E-01 -0.15828672E-01 -0.47509639E-02
  0.14606995E-01  0.19552770E-01  0.52049874E-02
 -0.10134979E-01 -0.18540644E-01  0.84164473E-02
 -0.13538717E-01  0.24053388E-01  0.11275379E-01
 -0.52313480E-02  0.33462811E-02 -0.15156313E-01
  0.15025829E-01 -0.90810799E-02  0.15538109E-01
  0.95624882E-02  0.26086742E-01 -0.24450866E-01
 -0.88497448E-02  0.12555237E-01  0.11145062E-01
  0.15163684E-02  0.13376550E-01  0.20023740E-02
  0.10042723E-01 -0.10608555E-01  0.19794185E-01
 -0.20606219E-02 -0.16511882E-02 -0.19838760E-03
 -0.26805889E-02 -0.11882727E-02  0.89751779E-03
  0.22257980E-04  0.79717878E-03  0.37253905E-02
 -0.16179465E-02  0.10070306E-02 -0.79463868E-03
 -0.13661719E-02  0.27420391E-02  0.10333344E-02
  0.18368884E-02  0.54925556E-02  0.26045023E-02
 -0.93373179E-03  0.82688287E-03 -0.46449414E-04
 -0.69572091E-02  0.22301724E-02 -0.43460876E-02
 -0.17197280E-03 -0.41886602E-02 -0.80049971E-02
  0.48947334E-02 -0.96350646E-03  0.63140123E-02
 -0.37634145E-04 -0.28312719E-04  0.93692632E-03
  0.37974964E-03  0.31831666E-03 -0.46447119E-03
 -0.21465839E-02  0.78783011E-03 -0.49605399E-03
 -0.19381675E-03  0.11129615E-02 -0.12836715E-02
 -0.29698152E-03 -0.18691308E-02 -0.44997558E-03
  0.52066620E-03  0.86577479E-04 -0.35270777E-03
  0.16981570E-02 -0.17221733E-02  0.64482504E-03
 -0.18192376E-02  0.88394740E-03  0.12795585E-02
  0.30050057E-02 -0.80352988E-03 -0.13135678E-03
 
           1
   1.00000000000000     
  0.25053561E+01 -0.60163016E-02  0.28081426E-17  0.00000000E+00
  0.14733794E+00  0.61867226E-01  0.55974897E+00
  0.94314474E+00  0.72577333E+00  0.51635755E+00
  0.61396680E+00  0.56702157E+00  0.44594706E+00
  0.77527359E+00  0.41257884E+00  0.44465443E+00
  0.99525995E+00  0.83746734E+00  0.28102773E+00
  0.75116133E+00  0.71281480E+00  0.28067792E+00
  0.10341274E+00  0.92838486E-01  0.25103392E+00
  0.43273520E+00  0.96738002E+00  0.27167118E+00
  0.21743235E+00  0.49779771E+00  0.65743795E+00
  0.36680187E+00  0.42704102E+00  0.57657126E+00
  0.83116160E+00  0.77743858E+00  0.41712327E+00
  0.51951547E+00  0.96435972E+00  0.56805872E+00
  0.27271896E+00  0.61877770E+00  0.23026137E+00
  0.64544470E+00  0.53937914E+00  0.17808734E+00
  0.55224280E+00  0.29208093E+00  0.20940315E+00
  0.26579568E+00  0.31125812E+00  0.29471250E+00
  0.33686771E+00  0.33188108E-01  0.60230688E+00
  0.53894004E+00  0.47697879E+00  0.46226896E+00
  0.90525233E+00  0.76546544E+00  0.31741262E+00
  0.20217683E+00  0.99944906E+00  0.23620584E+00
  0.23404640E+00  0.40847064E+00  0.62820749E+00
  0.72406064E+00  0.77594939E+00  0.47659091E+00
  0.52944076E+00  0.62307727E+00  0.21287213E+00
  0.45756611E+00  0.24677987E+00  0.25946078E+00
  0.88076876E+00  0.41996712E+00  0.11512648E+00
  0.24527824E+00  0.64597406E+00  0.71865187E+00
  0.75071897E+00  0.71897891E+00  0.93163292E+00
  0.43990598E+00  0.26227145E+00  0.89514944E+00
  0.10045870E+00  0.99211508E+00  0.91257486E+00
  0.66815780E+00  0.86443405E+00  0.77959014E+00
  0.51858804E+00  0.11346224E+00  0.43985964E-01
  0.31165361E+00  0.55277454E+00  0.82185129E+00
  0.17597932E+00  0.79042744E+00  0.57002314E-01
  0.93710870E+00  0.18958749E+00  0.76887168E+00
  0.84458073E+00  0.44089767E+00  0.99202246E+00
  0.51420222E-02  0.59187553E-03 -0.10192248E-03
  0.93026841E-02 -0.21637465E-02  0.18649564E-02
  0.67322075E-02 -0.42248832E-03 -0.77657193E-03
  0.26936413E-03 -0.59564476E-03 -0.77779676E-03
 -0.39915109E-03  0.62994756E-03 -0.33042500E-03
  0.19814572E-02 -0.15174762E-02  0.48206250E-04
  0.74337580E-02 -0.19192079E-02 -0.44226111E-03
  0.32550875E-02  0.17471198E-02  0.30398838E-03
 -0.17328796E-02 -0.19736239E-02  0.58271693E-03
 -0.55175249E-02  0.25705981E-02  0.91447977E-03
 -0.19005132E-02  0.34245647E-03 -0.83340972E-03
  0.46616131E-02 -0.93897490E-03  0.87110388E-03
  0.12244209E-02  0.28549107E-02 -0.16298453E-02
 -0.29583627E-02  0.12903632E-02  0.74082425E-03
  0.37673303E-03  0.11189813E-02  0.46408935E-04
  0.19341467E-02 -0.89192555E-03  0.15973741E-02
 -0.60904310E-03 -0.14204628E-03 -0.13766279E-04
 -0.73729664E-03 -0.11753697E-03  0.66432920E-04
 -0.74716198E-04  0.68153988E-04  0.24338972E-03
 -0.49544260E-03  0.15334544E-03 -0.41381418E-04
 -0.51617261E-03  0.28764172E-03  0.57002739E-04
  0.20285184E-03  0.59122839E-03  0.13526171E-03
 -0.33579098E-03  0.88077700E-04  0.13218695E-05
 -0.20480314E-02  0.22542888E-03 -0.29398728E-03
  0.18010923E-03 -0.43288900E-03 -0.49578526E-03
  0.14415098E-02 -0.11050378E-03  0.43239880E-03
 -0.17000195E-05 -0.27612223E-05  0.62649679E-04
  0.95376001E-04  0.32656933E-04 -0.30874951E-04
 -0.64655525E-03  0.82145050E-04 -0.32097875E-04
 -0.11207018E-03  0.11533666E-03 -0.84922562E-04
  0.11400096E-04 -0.19444583E-03 -0.27712969E-04
  0.14302073E-03  0.95609633E-05 -0.27624221E-04
  0.56294063E-03 -0.18144929E-03  0.40663762E-04
 -0.57087704E-03  0.92981056E-04  0.83860702E-04
  0.89121034E-03 -0.83136522E-04 -0.11486920E-04
  0.00000000E+00  0.00000000E+00  0.00000000E+00
  0.00000000E+00  0.00000000E+00  0.00000000E+00
  0.00000000E+00  0.00000000E+00  0.00000000E+00
  0.00000000E+00  0.00000000E+00  0.00000000E+00
  0.00000000E+00  0.00000000E+00  0.00000000E+00
  0.00000000E+00  0.00000000E+00  0.00000000E+00
  0.00000000E+00  0.00000000E+00  0.00000000E+00
  0.00000000E+00  0.00000000E+00  0.00000000E+00
  0.00000000E+00  0.00000000E+00  0.00000000E+00
  0.00000000E+00  0.00000000E+00  0.00000000E+00
  0.00000000E+00  0.00000000E+00  0.00000000E+00
  0.00000000E+00  0.00000000E+00  0.00000000E+00
  0.00000000E+00  0.00000000E+00  0.00000000E+00
  0.00000000E+00  0.00000000E+00  0.00000000E+00
  0.00000000E+00  0.00000000E+00  0.00000000E+00
  0.00000000E+00  0.00000000E+00  0.00000000E+00
  0.00000000E+00  0.00000000E+00  0.00000000E+00
  0.00000000E+00  0.00000000E+00  0.00000000E+00
  0.00000000E+00  0.00000000E+00  0.00000000E+00
  0.00000000E+00  0.00000000E+00  0.00000000E+00
  0.00000000E+00  0.00000000E+00  0.00000000E+00
  0.00000000E+00  0.00000000E+00  0.00000000E+00
  0.00000000E+00  0.00000000E+00  0.00000000E+00
  0.00000000E+00  0.00000000E+00  0.00000000E+00
  0.00000000E+00  0.00000000E+00  0.00000000E+00
  0.00000000E+00  0.00000000E+00  0.00000000E+00
  0.00000000E+00  0.00000000E+00  0.00000000E+00
  0.00000000E+00  0.00000000E+00  0.00000000E+00
  0.00000000E+00  0.00000000E+00  0.00000000E+00
  0.00000000E+00  0.00000000E+00  0.00000000E+00
  0.00000000E+00  0.00000000E+00  0.00000000E+00
  0.00000000E+00  0.00000000E+00  0.00000000E+00
  0.00000000E+00  0.00000000E+00  0.00000000E+00
  0.00000000E+00  0.00000000E+00  0.00000000E+00
  0.00000000E+00  0.00000000E+00  0.00000000E+00
