CONTCAR\(2)                             
   1.00000000000000     
    12.8318004608000003    0.0000000000000000    0.0000000000000000
     0.0000000000000000   12.8378000259000000    0.0000000000000000
     0.0000000000000000    0.0000000000000000   24.0013999939000016
   Nd   Te   Se   O 
    18    36    18     1
Direct
  0.1674844060284278  0.1673120727093636  0.5775526173918064
 -0.0000020814292799  0.0000295095735785  0.4228448419040853
  0.4997775304852842  0.1633598879994718  0.5759219809675200
  0.3330465745137554  0.9994309207507279  0.4229908895386826
  0.8351861914777743  0.1658363061509487  0.5766505045591014
  0.6664811688000404  0.9993745446777539  0.4228282474114423
  0.1633718065990137  0.4997197865324296  0.5759882794973781
  0.9993125714854254  0.3330979882277302  0.4229983190428417
  0.5008393864588175  0.5008658326078520  0.5778767871819820
  0.3328616359418010  0.3331050956046533  0.4238943215438303
  0.8327611386192632  0.4996705358504024  0.5778288846352543
  0.6663020226644316  0.3331424051347710  0.4237815130128887
  0.1659767573579434  0.8350383384998485  0.5766530151510796
  0.9993018820250551  0.6666358856560697  0.4227851195844069
  0.4997775029183433  0.8326640056956263  0.5778322748071585
  0.3330667309825805  0.6663992124458985  0.4237518008332726
  0.8331294705826707  0.8329895985812180  0.5763919576982641
  0.6664406710415401  0.6664677349626263  0.4234269619470234
  0.1665822500473252 -0.0001672955566143  0.3139273671256574
  0.0009930283592404  0.1670152144037156  0.6874036233300178
  0.9997698689640779  0.1666433820168892  0.3139570352558985
  0.1671354951721549  0.0007444135526980  0.6874322331840470
  0.4997173103971075  0.9999310795214800  0.3137913584490660
  0.3368441961689895  0.1687341272916588  0.6876811322818507
  0.3330888838509183  0.1665458190687747  0.3142007215044990
  0.4995873031205458  0.9986492351735188  0.6877585217540926
  0.8329305094169096 -0.0001556397520373  0.3136782574666358
  0.6722345173707188  0.1613893743808806  0.6866408708595343
  0.6664530480938704  0.1667226431294891  0.3140309664843114
  0.8367612465546931  0.9990367866473168  0.6859800991102225
  0.1663721307643675  0.3331218025612966  0.3142330742254483
  0.9986868391709613  0.4995364415683018  0.6877545590340186
  0.9997303010171257  0.4999210135767170  0.3138286128829075
  0.1688826815838542  0.3366606432981727  0.6877266860727661
  0.4996138639745643  0.3332518474747344  0.3149319126265448
  0.3268767840544386  0.5128953809614587  0.6923635836845562
  0.3329650591007787  0.4998540566302877  0.3149173127530513
  0.5130324469177512  0.3266651484151502  0.6922734254886961
  0.8329922032444641  0.3333436954753112  0.3140794312447062
  0.6675221516065509  0.5002872171910673  0.6891314953513226
  0.6662712189053718  0.4998379725290619  0.3145842680258342
  0.8353084615658658  0.3335936643479248  0.6877856426003335
  0.1665894641598944  0.6666323143763553  0.3139942961627546
  0.9992421407589207  0.8366469823554070  0.6860565382870252
  0.9996411500808220  0.8333372459998888  0.3135920637832239
  0.1616407660395413  0.6718766007108150  0.6866363411593105
  0.4996814958337755  0.6663905379415134  0.3145697800603572
  0.3336268099995044  0.8352320634377103  0.6877811488362006
  0.3332194012405323  0.8331038339810170  0.3140391886715971
  0.5006050529851829  0.6674549021367105  0.6890670848728562
  0.8330325348952682  0.6665021148518706  0.3139243830042101
  0.6682501135460687  0.8346594681375199  0.6873608357187918
  0.6663183632108962  0.8329671916125232  0.3139473616435653
  0.8349015346220696  0.6681117878674188  0.6873728423371297
  0.1666761875300386  0.1667338676249714  0.4529234598889680
  0.0007977594209990  0.0006842430486620  0.5479699059062447
  0.4996798050723231  0.1657072246729007  0.4524170549909613
  0.3333498306528863  0.9996412762117141  0.5486148116782301
  0.8327280538294923  0.1665409171974307  0.4524277806330310
  0.6662796937659490  0.9991950929076341  0.5481265624655681
  0.1656494128922424  0.4998075386038208  0.4524243463306850
  0.9996184329074818  0.3332431228305182  0.5486188570891188
  0.4999741408640744  0.5001981313980819  0.4535145827808442
  0.3345570278533198  0.3345713968007183  0.5497381783042224
  0.8326043794639276  0.4994427165259350  0.4531969066108911
  0.6648029995342848  0.3325244973556905  0.5499126360909508
  0.1665038994439991  0.8327554257870132  0.4524248459400794
  0.9992275756250700  0.6662040112300579  0.5481436512354473
  0.4993920604576692  0.8326166911027225  0.4531659107806978
  0.3325668603128270  0.6648238359863777  0.5498964647673182
  0.8331291002116468  0.8331661332353703  0.4522368373673940
  0.6661894159218325  0.6661447829775687  0.5491079813808412
  0.4128473808919650  0.4125868135258330  0.7385371487174471
 
  0.00000000E+00  0.00000000E+00  0.00000000E+00
  0.00000000E+00  0.00000000E+00  0.00000000E+00
  0.00000000E+00  0.00000000E+00  0.00000000E+00
  0.00000000E+00  0.00000000E+00  0.00000000E+00
  0.00000000E+00  0.00000000E+00  0.00000000E+00
  0.00000000E+00  0.00000000E+00  0.00000000E+00
  0.00000000E+00  0.00000000E+00  0.00000000E+00
  0.00000000E+00  0.00000000E+00  0.00000000E+00
  0.00000000E+00  0.00000000E+00  0.00000000E+00
  0.00000000E+00  0.00000000E+00  0.00000000E+00
  0.00000000E+00  0.00000000E+00  0.00000000E+00
  0.00000000E+00  0.00000000E+00  0.00000000E+00
  0.00000000E+00  0.00000000E+00  0.00000000E+00
  0.00000000E+00  0.00000000E+00  0.00000000E+00
  0.00000000E+00  0.00000000E+00  0.00000000E+00
  0.00000000E+00  0.00000000E+00  0.00000000E+00
  0.00000000E+00  0.00000000E+00  0.00000000E+00
  0.00000000E+00  0.00000000E+00  0.00000000E+00
  0.00000000E+00  0.00000000E+00  0.00000000E+00
  0.00000000E+00  0.00000000E+00  0.00000000E+00
  0.00000000E+00  0.00000000E+00  0.00000000E+00
  0.00000000E+00  0.00000000E+00  0.00000000E+00
  0.00000000E+00  0.00000000E+00  0.00000000E+00
  0.00000000E+00  0.00000000E+00  0.00000000E+00
  0.00000000E+00  0.00000000E+00  0.00000000E+00
  0.00000000E+00  0.00000000E+00  0.00000000E+00
  0.00000000E+00  0.00000000E+00  0.00000000E+00
  0.00000000E+00  0.00000000E+00  0.00000000E+00
  0.00000000E+00  0.00000000E+00  0.00000000E+00
  0.00000000E+00  0.00000000E+00  0.00000000E+00
  0.00000000E+00  0.00000000E+00  0.00000000E+00
  0.00000000E+00  0.00000000E+00  0.00000000E+00
  0.00000000E+00  0.00000000E+00  0.00000000E+00
  0.00000000E+00  0.00000000E+00  0.00000000E+00
  0.00000000E+00  0.00000000E+00  0.00000000E+00
  0.00000000E+00  0.00000000E+00  0.00000000E+00
  0.00000000E+00  0.00000000E+00  0.00000000E+00
  0.00000000E+00  0.00000000E+00  0.00000000E+00
  0.00000000E+00  0.00000000E+00  0.00000000E+00
  0.00000000E+00  0.00000000E+00  0.00000000E+00
  0.00000000E+00  0.00000000E+00  0.00000000E+00
  0.00000000E+00  0.00000000E+00  0.00000000E+00
  0.00000000E+00  0.00000000E+00  0.00000000E+00
  0.00000000E+00  0.00000000E+00  0.00000000E+00
  0.00000000E+00  0.00000000E+00  0.00000000E+00
  0.00000000E+00  0.00000000E+00  0.00000000E+00
  0.00000000E+00  0.00000000E+00  0.00000000E+00
  0.00000000E+00  0.00000000E+00  0.00000000E+00
  0.00000000E+00  0.00000000E+00  0.00000000E+00
  0.00000000E+00  0.00000000E+00  0.00000000E+00
  0.00000000E+00  0.00000000E+00  0.00000000E+00
  0.00000000E+00  0.00000000E+00  0.00000000E+00
  0.00000000E+00  0.00000000E+00  0.00000000E+00
  0.00000000E+00  0.00000000E+00  0.00000000E+00
  0.00000000E+00  0.00000000E+00  0.00000000E+00
  0.00000000E+00  0.00000000E+00  0.00000000E+00
  0.00000000E+00  0.00000000E+00  0.00000000E+00
  0.00000000E+00  0.00000000E+00  0.00000000E+00
  0.00000000E+00  0.00000000E+00  0.00000000E+00
  0.00000000E+00  0.00000000E+00  0.00000000E+00
  0.00000000E+00  0.00000000E+00  0.00000000E+00
  0.00000000E+00  0.00000000E+00  0.00000000E+00
  0.00000000E+00  0.00000000E+00  0.00000000E+00
  0.00000000E+00  0.00000000E+00  0.00000000E+00
  0.00000000E+00  0.00000000E+00  0.00000000E+00
  0.00000000E+00  0.00000000E+00  0.00000000E+00
  0.00000000E+00  0.00000000E+00  0.00000000E+00
  0.00000000E+00  0.00000000E+00  0.00000000E+00
  0.00000000E+00  0.00000000E+00  0.00000000E+00
  0.00000000E+00  0.00000000E+00  0.00000000E+00
  0.00000000E+00  0.00000000E+00  0.00000000E+00
  0.00000000E+00  0.00000000E+00  0.00000000E+00
  0.00000000E+00  0.00000000E+00  0.00000000E+00
