 Ta1 Se2                                
   1.00000000000000     
     3.4606651118214464    0.0000000000000000    0.0000000000000000
    -1.7303320577191117    2.9970234450915996    0.0000000000000000
     0.0000000000000000    0.0000000000000000   18.3542601784720034
   Ta   Se
     1     2
Direct
  0.9999997570663339  0.0000002219098931  0.4999999999731486
  0.3333331214804716  0.6666668892027729  0.4085321899183398
  0.3333331214532009  0.6666668888873275  0.5914678101085187
 
  0.00000000E+00  0.00000000E+00  0.00000000E+00
  0.00000000E+00  0.00000000E+00  0.00000000E+00
  0.00000000E+00  0.00000000E+00  0.00000000E+00
