CONTCAR\(9)                             
   1.00000000000000     
    11.2263002396000005    0.0000000000000000    0.0000000000000000
     0.0000000000000000   21.7961997986000000    0.0000000000000000
     0.0000000000000000    0.0000000000000000   19.3752994536999985
   Ta   Te   Pd   O    H 
     9    42     9     2     1
Direct
  0.1677188046427621  0.4763923708339320  0.5015423634009983
  0.1657015821470582  0.1225620470794689  0.4989726069653362
  0.1618909364958819  0.7753049357934290  0.5156115791963753
  0.5034893037912584  0.4741645475557989  0.5026991127018368
  0.4979105951497931  0.1228775778246598  0.4990805947002844
  0.4956002943265855  0.7762393744215097  0.5174005910656682
  0.8350405740743191  0.4747821656356803  0.5000190446350966
  0.8317539607873655  0.1228087276354999  0.4987340401241620
  0.8267188984938937  0.7747097804408748  0.5175808440219095
  0.0037151726096315  0.4083043540570009  0.4196061746021971
  0.1684310872378620  0.2381052800395802  0.4224615176542145
  0.1620741024400393  0.8900018143074968  0.5881538046337690
  0.9942088330047191  0.8411655487742122  0.4353879720844605
  0.0009516944545944  0.5506901358680485  0.4275377291192263
  0.0000357753383232  0.4794177305585069  0.6131297945281885
  0.1640767468985637  0.0024988383472710  0.4322741063718379
  0.9981728786620203  0.0554174402774130  0.5803100390799443
  0.1622237536578918  0.5933558004865115  0.5740424007018414
  0.9992535780196811  0.1967290438215802  0.5724742620663777
  0.1540126873302308  0.7008878311240893  0.4048171436017348
  0.9988573213007980  0.1189480250901241  0.3866692194272395
  0.9957995386171846  0.7396168992221362  0.6141271345161607
  0.1665911388014125  0.3586760105643653  0.5749633907823468
  0.3350636667587412  0.4073829334593105  0.4230377644001662
  0.4992003627760422  0.2392997049346967  0.4244088235715328
  0.4971186206611991  0.8910834905353220  0.5899932337184657
  0.3289239753449006  0.8416530750184343  0.4345806633154711
  0.3380975256067287  0.5502290472044978  0.4287827833536650
  0.3314646964970445  0.4790254615092219  0.6146306763461624
  0.4965954412646192  0.0028196354415734  0.4325387902692239
  0.3315381639096489  0.0542933298245994  0.5797786398793592
  0.4907796246954560  0.5938479992394647  0.5658613158851955
  0.3317249498035925  0.1963653290618990  0.5741462378630720
  0.4954008448980787  0.6996448156649390  0.4089896153770992
  0.3317595802079460  0.1199866719552423  0.3864599358516678
  0.3283013961558707  0.7422683498888522  0.6150699473707069
  0.5005630736165252  0.3569180526147033  0.5752598554959714
  0.6681394696640799  0.4079701163262697  0.4190673793273649
  0.8336253856351103  0.2395123573835658  0.4245186242388518
  0.8294553422521127  0.8904408643727513  0.5881559180316963
  0.6623388482022420  0.8411749415169191  0.4350358595019093
  0.6673213639599738  0.5482927401962706  0.4272618327962335
  0.6718994596175034  0.4739868814900474  0.6134373567820871
  0.8300421981590079  0.0027584477258368  0.4317842443220402
  0.6647759328391045  0.0553436233035498  0.5803629347022884
  0.8279408959316495  0.5901635735744347  0.5749138539836007
  0.6652677991955371  0.1959406950897325  0.5735582103851928
  0.8276649209970013  0.6978742914882117  0.4089313551403687
  0.6642836030815044  0.1206956195545090  0.3865465003851664
  0.6614947402877848  0.7412972948797174  0.6162816392817416
  0.8361035784774021  0.3571943728889403  0.5723631219502412
  0.9960817841124675  0.9459859454381645  0.5094455222065005
  0.0030780109591782  0.3003939942014012  0.4956843397562796
  0.9938735442209087  0.6597725572787065  0.5045210572784206
  0.3300259973582135  0.9455709330684340  0.5100828320695554
  0.3317799100401439  0.3001063572030053  0.4974981812205869
  0.3205101185538338  0.6650482181438629  0.5013935252486379
  0.6632785870130855  0.9459286529016095  0.5096744982338766
  0.6668974693229682  0.3004242031815850  0.4970362703395383
  0.6625218703607777  0.6611742626331628  0.5057511422809924
  0.5037362146830086  0.5636755489627514  0.7215576361002064
  0.5519656350795904  0.6064864221149018  0.6715433154125913
  0.4314358495175614  0.5852029659696973  0.7367095153450373
 
  0.00000000E+00  0.00000000E+00  0.00000000E+00
  0.00000000E+00  0.00000000E+00  0.00000000E+00
  0.00000000E+00  0.00000000E+00  0.00000000E+00
  0.00000000E+00  0.00000000E+00  0.00000000E+00
  0.00000000E+00  0.00000000E+00  0.00000000E+00
  0.00000000E+00  0.00000000E+00  0.00000000E+00
  0.00000000E+00  0.00000000E+00  0.00000000E+00
  0.00000000E+00  0.00000000E+00  0.00000000E+00
  0.00000000E+00  0.00000000E+00  0.00000000E+00
  0.00000000E+00  0.00000000E+00  0.00000000E+00
  0.00000000E+00  0.00000000E+00  0.00000000E+00
  0.00000000E+00  0.00000000E+00  0.00000000E+00
  0.00000000E+00  0.00000000E+00  0.00000000E+00
  0.00000000E+00  0.00000000E+00  0.00000000E+00
  0.00000000E+00  0.00000000E+00  0.00000000E+00
  0.00000000E+00  0.00000000E+00  0.00000000E+00
  0.00000000E+00  0.00000000E+00  0.00000000E+00
  0.00000000E+00  0.00000000E+00  0.00000000E+00
  0.00000000E+00  0.00000000E+00  0.00000000E+00
  0.00000000E+00  0.00000000E+00  0.00000000E+00
  0.00000000E+00  0.00000000E+00  0.00000000E+00
  0.00000000E+00  0.00000000E+00  0.00000000E+00
  0.00000000E+00  0.00000000E+00  0.00000000E+00
  0.00000000E+00  0.00000000E+00  0.00000000E+00
  0.00000000E+00  0.00000000E+00  0.00000000E+00
  0.00000000E+00  0.00000000E+00  0.00000000E+00
  0.00000000E+00  0.00000000E+00  0.00000000E+00
  0.00000000E+00  0.00000000E+00  0.00000000E+00
  0.00000000E+00  0.00000000E+00  0.00000000E+00
  0.00000000E+00  0.00000000E+00  0.00000000E+00
  0.00000000E+00  0.00000000E+00  0.00000000E+00
  0.00000000E+00  0.00000000E+00  0.00000000E+00
  0.00000000E+00  0.00000000E+00  0.00000000E+00
  0.00000000E+00  0.00000000E+00  0.00000000E+00
  0.00000000E+00  0.00000000E+00  0.00000000E+00
  0.00000000E+00  0.00000000E+00  0.00000000E+00
  0.00000000E+00  0.00000000E+00  0.00000000E+00
  0.00000000E+00  0.00000000E+00  0.00000000E+00
  0.00000000E+00  0.00000000E+00  0.00000000E+00
  0.00000000E+00  0.00000000E+00  0.00000000E+00
  0.00000000E+00  0.00000000E+00  0.00000000E+00
  0.00000000E+00  0.00000000E+00  0.00000000E+00
  0.00000000E+00  0.00000000E+00  0.00000000E+00
  0.00000000E+00  0.00000000E+00  0.00000000E+00
  0.00000000E+00  0.00000000E+00  0.00000000E+00
  0.00000000E+00  0.00000000E+00  0.00000000E+00
  0.00000000E+00  0.00000000E+00  0.00000000E+00
  0.00000000E+00  0.00000000E+00  0.00000000E+00
  0.00000000E+00  0.00000000E+00  0.00000000E+00
  0.00000000E+00  0.00000000E+00  0.00000000E+00
  0.00000000E+00  0.00000000E+00  0.00000000E+00
  0.00000000E+00  0.00000000E+00  0.00000000E+00
  0.00000000E+00  0.00000000E+00  0.00000000E+00
  0.00000000E+00  0.00000000E+00  0.00000000E+00
  0.00000000E+00  0.00000000E+00  0.00000000E+00
  0.00000000E+00  0.00000000E+00  0.00000000E+00
  0.00000000E+00  0.00000000E+00  0.00000000E+00
  0.00000000E+00  0.00000000E+00  0.00000000E+00
  0.00000000E+00  0.00000000E+00  0.00000000E+00
  0.00000000E+00  0.00000000E+00  0.00000000E+00
  0.00000000E+00  0.00000000E+00  0.00000000E+00
  0.00000000E+00  0.00000000E+00  0.00000000E+00
  0.00000000E+00  0.00000000E+00  0.00000000E+00
