 K4 Ru2 Br12                            
   1.00000000000000     
     7.2597555756609093    0.0000000000000000    0.0000000000000000
     0.0000000000000000   10.2968633766378215    0.0000000000000000
     0.0000000000000000    0.0000000000000000   22.7085044217999936
   K    Ru   Br
     4     2    12
Direct
  0.8161641663561454  0.7334066239694863  0.5706269093686558
  0.3161614891048998  0.2332843835118723  0.4293311908507960
  0.3161608668041751  0.7667079647935964  0.4293313493068425
  0.8161612643420142  0.2665854926433511  0.5706276872433023
  0.3126664985148366  0.4999947501518633  0.5827028795070603
  0.8126592052633725  0.0000009025918146  0.4173182742452965
  0.0545413262867100  0.5000019669430955  0.6544674551306429
  0.8126223747295995  0.2440709999221866  0.4160098614856125
  0.0579624635658149  0.9999838343494787  0.4971728151704866
  0.3125442522991335  0.2558492826298462  0.5840157318638859
  0.0849297964116928  0.5000319351645146  0.4974086799891069
  0.8125998038313611  0.7559270512320921  0.4160132813694020
  0.5546368506125887  0.9999978776884006  0.3455382586812448
  0.5579454012868723  0.4999698885430206  0.5028042006700559
  0.5849800663782290  0.0000640763869413  0.5025761547511891
  0.3125368109129170  0.7441466701954553  0.5840139057836495
  0.0504524942845705  0.9999937450740859  0.3397256510396502
  0.5504948690150826  0.4999825542088914  0.6603157135430919
 
  0.00000000E+00  0.00000000E+00  0.00000000E+00
  0.00000000E+00  0.00000000E+00  0.00000000E+00
  0.00000000E+00  0.00000000E+00  0.00000000E+00
  0.00000000E+00  0.00000000E+00  0.00000000E+00
  0.00000000E+00  0.00000000E+00  0.00000000E+00
  0.00000000E+00  0.00000000E+00  0.00000000E+00
  0.00000000E+00  0.00000000E+00  0.00000000E+00
  0.00000000E+00  0.00000000E+00  0.00000000E+00
  0.00000000E+00  0.00000000E+00  0.00000000E+00
  0.00000000E+00  0.00000000E+00  0.00000000E+00
  0.00000000E+00  0.00000000E+00  0.00000000E+00
  0.00000000E+00  0.00000000E+00  0.00000000E+00
  0.00000000E+00  0.00000000E+00  0.00000000E+00
  0.00000000E+00  0.00000000E+00  0.00000000E+00
  0.00000000E+00  0.00000000E+00  0.00000000E+00
  0.00000000E+00  0.00000000E+00  0.00000000E+00
  0.00000000E+00  0.00000000E+00  0.00000000E+00
  0.00000000E+00  0.00000000E+00  0.00000000E+00
