CONTCAR\(2)                             
   1.00000000000000     
    11.8599996566999994    0.0000000000000000    0.0000000000000000
     0.0000000000000000   16.8432006835999992    0.0000000000000000
     0.0000000000000000    0.0000000000000000   21.2530994415000016
   Y    C    I    O 
    24     6    30     1
Direct
  0.1660879374115797  0.0000174087722377  0.3858256944186857
  0.9992240156417405  0.0964197483772240  0.4975806441356477
  0.1924300110890727  0.5000686003077577  0.6298131011157875
  0.0031767623703653  0.4036404805982125  0.5052980730854244
  0.5005612775225731  0.0000048272921565  0.3858284504246518
  0.3333402487113236  0.0964546374551073  0.4976005332203289
  0.4742026770029380  0.5000607455741140  0.6298087571772489
  0.3333217765314337  0.4026762902809318  0.5007175138854284
  0.8333327808789207 -0.0000190372971096  0.3862401191526167
  0.6674421266663800  0.0964140545155999  0.4975837732947819
  0.8333427132022203  0.4999899053097260  0.6201195946032441
  0.6634932858137433  0.4036312349667528  0.5053007230408154
  0.1642130039244062  0.4999986715458895  0.3934866101466902
  0.0031908804806630  0.5963579682415823  0.5052828449919847
  0.1633194252643524  0.0000104386822760  0.6090060805826761
  0.9992874983219877  0.9035802311861558  0.4976876686018225
  0.5024647137773532  0.4999936832843681  0.3934843538673334
  0.3333380557567479  0.5973771839656963  0.5007553343671345
  0.5033677117994798  0.0000075630298861  0.6090061188298567
  0.3333358494112400  0.9035181959921963  0.4976529803315013
  0.8333309631965278  0.4999608028815068  0.3960142783024805
  0.6634717744962096  0.5963474531703095  0.5052831680899419
  0.8333496291528621 -0.0000102968555853  0.6092818538541093
  0.6673884261174493  0.9035774259366873  0.4976926437672244
  0.1668007536391354 -0.0000066074530887  0.4973704430554461
  0.4998646440259877 -0.0000118945348900  0.4973684104363658
  0.8333359695256691 -0.0000207478521054  0.4976698296844651
  0.1687908727495409  0.5000151114036463  0.5060507134790931
  0.4978661133704306  0.4999988494929846  0.5060593373366640
  0.8333430087183753  0.4999460301102231  0.5095500190444331
  0.9989544144487663  0.1300775044493507  0.3507563847864021
  0.9984555209344065  0.3705390560303516  0.3579287721349389
  0.9994752643576570  0.1309219072765037  0.6443680299008330
  0.1636500568627685  0.2472424808442211  0.4931340522000983
  0.0046258059817494  0.3727297890040131  0.6514121356246864
  0.3333356419981312  0.1295322951778928  0.3504908721583541
  0.3333376083882993  0.3725836104300814  0.3537907202042962
  0.3333336333224464  0.1245432007161810  0.6455106016444304
  0.5030203041507236  0.2472438771839799  0.4931337304474526
  0.3333275464719302  0.3375485880188975  0.6303890688671493
  0.6677080844962591  0.1300610925755772  0.3507676875628156
  0.6682203624321703  0.3705340634286287  0.3579213187099420
  0.6672569774152057  0.1308887728386127  0.6443718750284995
  0.8333327737588641  0.2511854076513518  0.5030685320713859
  0.6620623307549760  0.3727402460122953  0.6514213669589255
  0.9983932888271868  0.6294207950647109  0.3579006155500616
  0.9990964113312437  0.8699094489778023  0.3509729773621357
  0.0046169609358041  0.6272948612566009  0.6513718890080599
  0.1637504033345984  0.7527147388834128  0.4932413801488173
  0.9995007006362889  0.8690752162324442  0.6443882597779572
  0.3333365477245215  0.6274045997449220  0.3537814218318335
  0.3333274890668518  0.8704070915603930  0.3504323570635597
  0.3333371542318861  0.6626390021084670  0.6304667139891243
  0.5029304046995977  0.7527084845909687  0.4932712215431405
  0.3333416969084246  0.8755285785284732  0.6455474394995641
  0.6682805251126146  0.6294346934896949  0.3579188909704664
  0.6675602370719128  0.8699089385553889  0.3509797865592181
  0.6620353920632965  0.6273012052836869  0.6513825351199917
  0.8333553882713504  0.7487241446060587  0.5030686759563198
  0.6671774388424696  0.8690682683594450  0.6443855980821903
  0.3333688935968630  0.4999989537391333  0.6853053319134305
 
  0.00000000E+00  0.00000000E+00  0.00000000E+00
  0.00000000E+00  0.00000000E+00  0.00000000E+00
  0.00000000E+00  0.00000000E+00  0.00000000E+00
  0.00000000E+00  0.00000000E+00  0.00000000E+00
  0.00000000E+00  0.00000000E+00  0.00000000E+00
  0.00000000E+00  0.00000000E+00  0.00000000E+00
  0.00000000E+00  0.00000000E+00  0.00000000E+00
  0.00000000E+00  0.00000000E+00  0.00000000E+00
  0.00000000E+00  0.00000000E+00  0.00000000E+00
  0.00000000E+00  0.00000000E+00  0.00000000E+00
  0.00000000E+00  0.00000000E+00  0.00000000E+00
  0.00000000E+00  0.00000000E+00  0.00000000E+00
  0.00000000E+00  0.00000000E+00  0.00000000E+00
  0.00000000E+00  0.00000000E+00  0.00000000E+00
  0.00000000E+00  0.00000000E+00  0.00000000E+00
  0.00000000E+00  0.00000000E+00  0.00000000E+00
  0.00000000E+00  0.00000000E+00  0.00000000E+00
  0.00000000E+00  0.00000000E+00  0.00000000E+00
  0.00000000E+00  0.00000000E+00  0.00000000E+00
  0.00000000E+00  0.00000000E+00  0.00000000E+00
  0.00000000E+00  0.00000000E+00  0.00000000E+00
  0.00000000E+00  0.00000000E+00  0.00000000E+00
  0.00000000E+00  0.00000000E+00  0.00000000E+00
  0.00000000E+00  0.00000000E+00  0.00000000E+00
  0.00000000E+00  0.00000000E+00  0.00000000E+00
  0.00000000E+00  0.00000000E+00  0.00000000E+00
  0.00000000E+00  0.00000000E+00  0.00000000E+00
  0.00000000E+00  0.00000000E+00  0.00000000E+00
  0.00000000E+00  0.00000000E+00  0.00000000E+00
  0.00000000E+00  0.00000000E+00  0.00000000E+00
  0.00000000E+00  0.00000000E+00  0.00000000E+00
  0.00000000E+00  0.00000000E+00  0.00000000E+00
  0.00000000E+00  0.00000000E+00  0.00000000E+00
  0.00000000E+00  0.00000000E+00  0.00000000E+00
  0.00000000E+00  0.00000000E+00  0.00000000E+00
  0.00000000E+00  0.00000000E+00  0.00000000E+00
  0.00000000E+00  0.00000000E+00  0.00000000E+00
  0.00000000E+00  0.00000000E+00  0.00000000E+00
  0.00000000E+00  0.00000000E+00  0.00000000E+00
  0.00000000E+00  0.00000000E+00  0.00000000E+00
  0.00000000E+00  0.00000000E+00  0.00000000E+00
  0.00000000E+00  0.00000000E+00  0.00000000E+00
  0.00000000E+00  0.00000000E+00  0.00000000E+00
  0.00000000E+00  0.00000000E+00  0.00000000E+00
  0.00000000E+00  0.00000000E+00  0.00000000E+00
  0.00000000E+00  0.00000000E+00  0.00000000E+00
  0.00000000E+00  0.00000000E+00  0.00000000E+00
  0.00000000E+00  0.00000000E+00  0.00000000E+00
  0.00000000E+00  0.00000000E+00  0.00000000E+00
  0.00000000E+00  0.00000000E+00  0.00000000E+00
  0.00000000E+00  0.00000000E+00  0.00000000E+00
  0.00000000E+00  0.00000000E+00  0.00000000E+00
  0.00000000E+00  0.00000000E+00  0.00000000E+00
  0.00000000E+00  0.00000000E+00  0.00000000E+00
  0.00000000E+00  0.00000000E+00  0.00000000E+00
  0.00000000E+00  0.00000000E+00  0.00000000E+00
  0.00000000E+00  0.00000000E+00  0.00000000E+00
  0.00000000E+00  0.00000000E+00  0.00000000E+00
  0.00000000E+00  0.00000000E+00  0.00000000E+00
  0.00000000E+00  0.00000000E+00  0.00000000E+00
  0.00000000E+00  0.00000000E+00  0.00000000E+00
