 Nb1 Te2                                
   1.00000000000000     
     3.6189535917504156    0.0000000000000000    0.0000000000000000
     1.8071285860204769    3.1347029126176427    0.0000000000000000
     0.0000000000000000    0.0000000000000000   18.6822019409279960
   Nb   Te
     1     2
Direct
  0.0000000056997818 -0.0000000016382316  0.5000000002903838
  0.3335592194869842  0.3334991931072223  0.3998041618284455
  0.6664407748132272  0.6665008085310165  0.6001958378811709
 
  0.00000000E+00  0.00000000E+00  0.00000000E+00
  0.00000000E+00  0.00000000E+00  0.00000000E+00
  0.00000000E+00  0.00000000E+00  0.00000000E+00
