CONTCAR\(6)                             
   1.00000000000000     
    13.8635997771999993    0.0000000000000000    0.0000000000000000
     6.9317998885999996   12.0062295950000006    0.0000000000000000
     0.0000000000000000    0.0000000000000000   20.7936000824000011
   Sc   Cl   O    H 
    32    32     2     1
Selective dynamics
Direct
  0.0000497168171094  0.0001621577325892  0.5591575379230136   F   F   F
  0.0833358431941846  0.0834316754918305  0.4382750387593575   F   F   F
  0.2499585055903140  0.0003345606591338  0.5591898018853385   F   F   F
  0.3333454310263377  0.0834231325173036  0.4383359918784251   F   F   F
  0.4998315377055533  0.0002583465563362  0.5591775598204904   F   F   F
  0.5833216923411300  0.0835388663108247  0.4383552809734610   F   F   F
  0.7498920526481143  0.0001585792067758  0.5592552170799365   F   F   F
  0.8332846331725392  0.0835259551584997  0.4383260960766151   F   F   F
  0.0001352955696490  0.2501201123776440  0.5592537393163468   F   F   F
  0.0833324830134288  0.3334292137176433  0.4383955477619565   F   F   F
  0.2499079637120047  0.2500554973324896  0.5592288189395873   F   F   F
  0.3333524320273611  0.3334467159215393  0.4383520116416264   F   F   F
  0.4998879270206018  0.2502125601536136  0.5593147811912829   F   F   F
  0.5833121110024564  0.3335585662862286  0.4385430482548998   F   F   F
  0.7500715867976169  0.2502498712452095  0.5593795797442951   F   F   F
  0.8333446500824593  0.3334105087601387  0.4382996694002657   F   F   F
  0.0001519501968019  0.4999778759552456  0.5592464843858167   F   F   F
  0.0834719626661098  0.5833914421444035  0.4383906055133338   F   F   F
  0.2500958972029892  0.4999982496073656  0.5593661913484382   F   F   F
  0.3334603160130740  0.5834142752921565  0.4385075205845510   F   F   F
  0.5001918790841415  0.5002691626447131  0.5603984849462478   F   F   F
  0.5833027801175916  0.5834416591649116  0.4384531842040218   F   F   F
  0.7500477128407823  0.5000369100559539  0.5594951884297075   F   F   F
  0.8333338785283786  0.5833945680151018  0.4383885720967626   F   F   F
  0.0000772912211673  0.7499973675248697  0.5592504451212150   F   F   F
  0.0834550493375659  0.8333648173014865  0.4382361390942364   F   F   F
  0.2500215761941647  0.7502058000923100  0.5592116383403294   F   F   F
  0.3333022459399118  0.8334724943215477  0.4381309217136291   F   F   F
  0.4999728727461203  0.7502297723597522  0.5593315542759498   F   F   F
  0.5833089234064559  0.8334415483340578  0.4382867357625599   F   F   F
  0.7499059159859911  0.7500563597149110  0.5593309520778007   F   F   F
  0.8333660504684559  0.8334376800886645  0.4383805545873258   F   F   F
  0.1666823140135136  0.1668225686643936  0.3595048314847773   F   F   F
  0.1666974810291322  0.1667718264025382  0.6381157240565614   F   F   F
  0.4166730787248838  0.1668212775240363  0.3594938529823324   F   F   F
  0.4166210419550112  0.1667470508451387  0.6380962379680781   F   F   F
  0.6666005654181433  0.1669328394627030  0.3596255001016502   F   F   F
  0.6666528813007631  0.1667271355740993  0.6380916596326713   F   F   F
  0.9166137890592481  0.1668391956228632  0.3594136366602356   F   F   F
  0.9169400580201170  0.1665179966465971  0.6379710764878794   F   F   F
  0.1666762306561935  0.4167506524650761  0.3595303486930348   F   F   F
  0.1666224532779239  0.4167448387005095  0.6381336192314748   F   F   F
  0.4167454435204121  0.4167950846807003  0.3596417474199001   F   F   F
  0.4163710370856819  0.4163502964936470  0.6378873225241293   F   F   F
  0.6665853203544074  0.4168020568677875  0.3595814396563668   F   F   F
  0.6679797205864517  0.4160764516805600  0.6370859303293130   F   F   F
  0.9166772511314960  0.4167624138670192  0.3595194938693851   F   F   F
  0.9169870986387494  0.4167465215093173  0.6379980103524403   F   F   F
  0.1668385317272651  0.6666200680195686  0.3595796508119733   F   F   F
  0.1666711493617683  0.6667848709556594  0.6379872735288927   F   F   F
  0.4167589753183663  0.6666153344679913  0.3595222068038169   F   F   F
  0.4157993134414752  0.6682300072216663  0.6368080992382801   F   F   F
  0.6667324988432952  0.6667048106373556  0.3596002264696807   F   F   F
  0.6666838943138416  0.6668830946213546  0.6378536606770737   F   F   F
  0.9167233901371432  0.6667128891648630  0.3595734025660207   F   F   F
  0.9167143010934495  0.6667396940744723  0.6380227475683711   F   F   F
  0.1666517964990533  0.9167829367472820  0.3593360147289033   F   F   F
  0.1664683662635724  0.9170047533634360  0.6378840696369892   F   F   F
  0.4167454025704700  0.9167991073019408  0.3593832157452681   F   F   F
  0.4166041975239523  0.9170966244670424  0.6379249268701983   F   F   F
  0.6667708716046334  0.9167662831346703  0.3595166194681596   F   F   F
  0.6665402266460845  0.9168841699726258  0.6380215051878082   F   F   F
  0.9166504401196320  0.9167642256942088  0.3594956528961575   F   F   F
  0.9166651961802472  0.9167904979152297  0.6379686332383727   F   F   F
  0.5132948422884240  0.4708992845174009  0.8104973254084982   T   T   T
  0.5137156928012843  0.5194647077409300  0.7525663785570060   T   T   T
  0.4756747068233764  0.4282116479299561  0.7997113852144255   T   T   T
 
  0.00000000E+00  0.00000000E+00  0.00000000E+00
  0.00000000E+00  0.00000000E+00  0.00000000E+00
  0.00000000E+00  0.00000000E+00  0.00000000E+00
  0.00000000E+00  0.00000000E+00  0.00000000E+00
  0.00000000E+00  0.00000000E+00  0.00000000E+00
  0.00000000E+00  0.00000000E+00  0.00000000E+00
  0.00000000E+00  0.00000000E+00  0.00000000E+00
  0.00000000E+00  0.00000000E+00  0.00000000E+00
  0.00000000E+00  0.00000000E+00  0.00000000E+00
  0.00000000E+00  0.00000000E+00  0.00000000E+00
  0.00000000E+00  0.00000000E+00  0.00000000E+00
  0.00000000E+00  0.00000000E+00  0.00000000E+00
  0.00000000E+00  0.00000000E+00  0.00000000E+00
  0.00000000E+00  0.00000000E+00  0.00000000E+00
  0.00000000E+00  0.00000000E+00  0.00000000E+00
  0.00000000E+00  0.00000000E+00  0.00000000E+00
  0.00000000E+00  0.00000000E+00  0.00000000E+00
  0.00000000E+00  0.00000000E+00  0.00000000E+00
  0.00000000E+00  0.00000000E+00  0.00000000E+00
  0.00000000E+00  0.00000000E+00  0.00000000E+00
  0.00000000E+00  0.00000000E+00  0.00000000E+00
  0.00000000E+00  0.00000000E+00  0.00000000E+00
  0.00000000E+00  0.00000000E+00  0.00000000E+00
  0.00000000E+00  0.00000000E+00  0.00000000E+00
  0.00000000E+00  0.00000000E+00  0.00000000E+00
  0.00000000E+00  0.00000000E+00  0.00000000E+00
  0.00000000E+00  0.00000000E+00  0.00000000E+00
  0.00000000E+00  0.00000000E+00  0.00000000E+00
  0.00000000E+00  0.00000000E+00  0.00000000E+00
  0.00000000E+00  0.00000000E+00  0.00000000E+00
  0.00000000E+00  0.00000000E+00  0.00000000E+00
  0.00000000E+00  0.00000000E+00  0.00000000E+00
  0.00000000E+00  0.00000000E+00  0.00000000E+00
  0.00000000E+00  0.00000000E+00  0.00000000E+00
  0.00000000E+00  0.00000000E+00  0.00000000E+00
  0.00000000E+00  0.00000000E+00  0.00000000E+00
  0.00000000E+00  0.00000000E+00  0.00000000E+00
  0.00000000E+00  0.00000000E+00  0.00000000E+00
  0.00000000E+00  0.00000000E+00  0.00000000E+00
  0.00000000E+00  0.00000000E+00  0.00000000E+00
  0.00000000E+00  0.00000000E+00  0.00000000E+00
  0.00000000E+00  0.00000000E+00  0.00000000E+00
  0.00000000E+00  0.00000000E+00  0.00000000E+00
  0.00000000E+00  0.00000000E+00  0.00000000E+00
  0.00000000E+00  0.00000000E+00  0.00000000E+00
  0.00000000E+00  0.00000000E+00  0.00000000E+00
  0.00000000E+00  0.00000000E+00  0.00000000E+00
  0.00000000E+00  0.00000000E+00  0.00000000E+00
  0.00000000E+00  0.00000000E+00  0.00000000E+00
  0.00000000E+00  0.00000000E+00  0.00000000E+00
  0.00000000E+00  0.00000000E+00  0.00000000E+00
  0.00000000E+00  0.00000000E+00  0.00000000E+00
  0.00000000E+00  0.00000000E+00  0.00000000E+00
  0.00000000E+00  0.00000000E+00  0.00000000E+00
  0.00000000E+00  0.00000000E+00  0.00000000E+00
  0.00000000E+00  0.00000000E+00  0.00000000E+00
  0.00000000E+00  0.00000000E+00  0.00000000E+00
  0.00000000E+00  0.00000000E+00  0.00000000E+00
  0.00000000E+00  0.00000000E+00  0.00000000E+00
  0.00000000E+00  0.00000000E+00  0.00000000E+00
  0.00000000E+00  0.00000000E+00  0.00000000E+00
  0.00000000E+00  0.00000000E+00  0.00000000E+00
  0.00000000E+00  0.00000000E+00  0.00000000E+00
  0.00000000E+00  0.00000000E+00  0.00000000E+00
  0.00000000E+00  0.00000000E+00  0.00000000E+00
  0.00000000E+00  0.00000000E+00  0.00000000E+00
  0.00000000E+00  0.00000000E+00  0.00000000E+00
