CONTCAR\(6)                             
   1.00000000000000     
    12.7578001021999992    0.0000000000000000    0.0000000000000000
    -6.3789000510999996   11.0485789849000007    0.0000000000000000
     0.0000000000000000    0.0000000000000000   17.9787006377999994
   Cr   Se   O 
    16    32     1
Direct
  0.9883465627826770  0.0082159492908835  0.4981209653192387
  0.2698693865082067  0.0082159492908835  0.4981209653192387
  0.5050287343417943  0.0150778227340026  0.5000425953257229
  0.7600490693922101  0.0150778227340026  0.5000425953257229
  0.9820139298527280  0.2339056557018830  0.5012916886245269
  0.2447722461895610  0.2395444913791253  0.5017099229126426
  0.5018917168491572  0.2339056557018830  0.5012916886245269
  0.7524287735320855  0.2548576020641717  0.5012863972300531
  0.9850357352634663  0.5085739922178353  0.5001443784798448
  0.2691609480036741  0.5116105631542722  0.5074636894141225
  0.4924496151505909  0.5116105631542722  0.5074636894141225
  0.7735382199543622  0.5085739922178353  0.5001443784798448
  0.9894018914974148  0.7288037649948209  0.4972183194983826
  0.2257433901354174  0.7439009054842475  0.4921500457106449
  0.4887699437261652  0.7275398694523288  0.5062246437728276
  0.7681575153488299  0.7439009054842475  0.4921500457106449
  0.1647033918403239  0.0793967846806554  0.4116021712724364
  0.0776933721251576  0.1617904204868917  0.5919577701594189
  0.4232730360091444  0.0860051457898130  0.4025883230292808
  0.3340870593617283  0.1617904204868917  0.5919577701594189
  0.6683359326656388  0.0866617543312833  0.4098814894459962
  0.5862070682917021  0.1679604786981617  0.5954805582721218
  0.9127421457806677  0.0860051457898130  0.4025883230292808
  0.8317433364064570  0.1679604786981617  0.5954805582721218
  0.1639845042672381  0.3353127497953738  0.4200114014804324
  0.0811646233418130  0.4172778148737672  0.5808391714636448
  0.4213382255281442  0.3353127497953738  0.4200114014804324
  0.3276652316728966  0.4053404233457928  0.5937962891375184
  0.6679540093985528  0.3378267747826015  0.4129530255264289
  0.5861031745319532  0.4172778148737672  0.5808391714636448
  0.9198828013840409  0.3378267747826015  0.4129530255264289
  0.8345654373230731  0.4191408726461421  0.5942117105538774
  0.1646393064267692  0.5753153341360159  0.4147052603518817
  0.0837747902050696  0.6674803323470118  0.5915671900984728
  0.4153829972976295  0.5807559585952671  0.4080987370669533
  0.3387982425463706  0.6636659676592811  0.6087762669146857
  0.6606861197092433  0.5753153341360159  0.4147052603518817
  0.5748576521129052  0.6636659676592811  0.6087762669146857
  0.9145808707644627  0.5791517055289339  0.3999671436690582
  0.8336954691419367  0.6674803323470118  0.5915671900984728
  0.1614232832886400  0.8353289436271607  0.4075231968426051
  0.0827398597154596  0.9154897174309224  0.5746759194269433
  0.4154926004730313  0.8297966232456219  0.4217333908045104
  0.3325027300025548  0.9074970320996906  0.5857246536046333
  0.6643140957725886  0.8297966232456219  0.4217333908045104
  0.5828571712929708  0.9157244145859291  0.5836449788563102
  0.9239156773385142  0.8353289436271607  0.4075231968426051
  0.8249843040971323  0.9074970320996906  0.5857246536046333
  0.4440139143577863  0.6380177937155701  0.6708055403125514
 
  0.00000000E+00  0.00000000E+00  0.00000000E+00
  0.00000000E+00  0.00000000E+00  0.00000000E+00
  0.00000000E+00  0.00000000E+00  0.00000000E+00
  0.00000000E+00  0.00000000E+00  0.00000000E+00
  0.00000000E+00  0.00000000E+00  0.00000000E+00
  0.00000000E+00  0.00000000E+00  0.00000000E+00
  0.00000000E+00  0.00000000E+00  0.00000000E+00
  0.00000000E+00  0.00000000E+00  0.00000000E+00
  0.00000000E+00  0.00000000E+00  0.00000000E+00
  0.00000000E+00  0.00000000E+00  0.00000000E+00
  0.00000000E+00  0.00000000E+00  0.00000000E+00
  0.00000000E+00  0.00000000E+00  0.00000000E+00
  0.00000000E+00  0.00000000E+00  0.00000000E+00
  0.00000000E+00  0.00000000E+00  0.00000000E+00
  0.00000000E+00  0.00000000E+00  0.00000000E+00
  0.00000000E+00  0.00000000E+00  0.00000000E+00
  0.00000000E+00  0.00000000E+00  0.00000000E+00
  0.00000000E+00  0.00000000E+00  0.00000000E+00
  0.00000000E+00  0.00000000E+00  0.00000000E+00
  0.00000000E+00  0.00000000E+00  0.00000000E+00
  0.00000000E+00  0.00000000E+00  0.00000000E+00
  0.00000000E+00  0.00000000E+00  0.00000000E+00
  0.00000000E+00  0.00000000E+00  0.00000000E+00
  0.00000000E+00  0.00000000E+00  0.00000000E+00
  0.00000000E+00  0.00000000E+00  0.00000000E+00
  0.00000000E+00  0.00000000E+00  0.00000000E+00
  0.00000000E+00  0.00000000E+00  0.00000000E+00
  0.00000000E+00  0.00000000E+00  0.00000000E+00
  0.00000000E+00  0.00000000E+00  0.00000000E+00
  0.00000000E+00  0.00000000E+00  0.00000000E+00
  0.00000000E+00  0.00000000E+00  0.00000000E+00
  0.00000000E+00  0.00000000E+00  0.00000000E+00
  0.00000000E+00  0.00000000E+00  0.00000000E+00
  0.00000000E+00  0.00000000E+00  0.00000000E+00
  0.00000000E+00  0.00000000E+00  0.00000000E+00
  0.00000000E+00  0.00000000E+00  0.00000000E+00
  0.00000000E+00  0.00000000E+00  0.00000000E+00
  0.00000000E+00  0.00000000E+00  0.00000000E+00
  0.00000000E+00  0.00000000E+00  0.00000000E+00
  0.00000000E+00  0.00000000E+00  0.00000000E+00
  0.00000000E+00  0.00000000E+00  0.00000000E+00
  0.00000000E+00  0.00000000E+00  0.00000000E+00
  0.00000000E+00  0.00000000E+00  0.00000000E+00
  0.00000000E+00  0.00000000E+00  0.00000000E+00
  0.00000000E+00  0.00000000E+00  0.00000000E+00
  0.00000000E+00  0.00000000E+00  0.00000000E+00
  0.00000000E+00  0.00000000E+00  0.00000000E+00
  0.00000000E+00  0.00000000E+00  0.00000000E+00
  0.00000000E+00  0.00000000E+00  0.00000000E+00
