 Rb2 Mn2 As2                            
   1.00000000000000     
     4.2049550000000000    0.0000000000000000    0.0000000000000000
     0.0000000000000000    4.2049550000000000    0.0000000000000000
     0.0000000000000000    0.0000000000000000   21.5164802047279977
   Rb   Mn   As
     2     2     2
Direct
  0.5000000000000000  0.0000000000000000  0.3485700230073832
  0.0000000000000000  0.5000000000000000  0.6514299769926168
  0.0000000000000000  0.0000000000000000  0.5000000000000000
  0.5000000000000000  0.5000000000000000  0.5000000000000000
  0.0000000000000000  0.5000000000000000  0.4393594888513732
  0.5000000000000000  0.0000000000000000  0.5606405111486268
 
  0.00000000E+00  0.00000000E+00  0.00000000E+00
  0.00000000E+00  0.00000000E+00  0.00000000E+00
  0.00000000E+00  0.00000000E+00  0.00000000E+00
  0.00000000E+00  0.00000000E+00  0.00000000E+00
  0.00000000E+00  0.00000000E+00  0.00000000E+00
  0.00000000E+00  0.00000000E+00  0.00000000E+00
