CONTCAR\(12)                            
   1.00000000000000     
    10.9576997757000001    0.0000000000000000    0.0000000000000000
     0.0000000000000000   18.6480007171999986    0.0000000000000000
     0.0000000000000000    0.0000000000000000   19.2721004485999998
   Ta   Te   Pd   O 
    12    30    18     1
Direct
  0.9986681732108610  0.9170271078256129  0.4929221002802533
  0.1671405565150473  0.4171290404945583  0.5029005445108112
  0.0014975747437535  0.1689699466145132  0.4972954550849050
  0.1645644738950772  0.6695233615379395  0.5025242237527626
  0.3332657899490967  0.9175235594388474  0.4965525373050249
  0.4995027017754536  0.4172274188964099  0.5028435522360124
  0.3332606121993676  0.1691680870021330  0.4982335315025787
  0.5021662094797367  0.6695538715263346  0.5024283433600152
  0.6682518506260219  0.9170771380037789  0.4932670455342945
  0.8333016032259303  0.4167124606730498  0.5020396474921831
  0.6650695102779596  0.1690145655428042  0.4972782986816429
  0.8334393089224950  0.6687580647398703  0.5027579647096143
  0.9992330429793381  0.7198251809020767  0.6061283012640174
  0.1667109737972715  0.8625149875997121  0.3928263155149120
  0.1675313193761005  0.2202859846273146  0.3940697000635532
  0.9998715971239125  0.3646884199583747  0.6058849299430236
 -0.0001954841228055  0.6451690136249688  0.3902203236170792
  0.1664169950845314  0.1459654538761424  0.6097759162575944
  0.1668089857632827  0.5435907255156446  0.5850672867634141
  0.0046030936861548  0.0443420001452018  0.4136623882359228
  0.0002853717823791  0.4390561583488463  0.3902474340104681
  0.1834627732868404  0.9401548459521137  0.6153468291706599
  0.3332951112794491  0.7228814640432190  0.6037972944182544
  0.5001210596156646  0.8625108432289761  0.3931093225365887
  0.4989487248791266  0.2203530300152312  0.3940681013981508
  0.3333220741782727  0.3659806431670357  0.6065767170630904
  0.3333667159295194  0.6471202545540848  0.3908075113326916
  0.4999822679279058  0.1460680711600839  0.6097798897219933
  0.5000580545357634  0.5437338770526289  0.5850155490570617
  0.3335692365801511  0.0432959576390635  0.4163262195870705
  0.3332345677766446  0.4398564162026969  0.3907138088440963
  0.4824287330804488  0.9400764262475936  0.6153605924023359
  0.6676461134644668  0.7203106610077604  0.6059577389697413
  0.8333501498858185  0.8678989303154826  0.3913841521559949
  0.8333045800237456  0.2220698970988705  0.3947697531327753
  0.6667762788967475  0.3648028276175838  0.6057970038221125
  0.6670282113987825  0.6454283129947103  0.3901135253523700
  0.8332207154986508  0.1455269326057606  0.6079422295272571
  0.8333583667873902  0.5419968469256630  0.5851531053907670
  0.6619403700508083  0.0442947170978316  0.4137924622048749
  0.6662252998829449  0.4391852815387187  0.3902461856176020
  0.8337713661577421  0.9403225281647070  0.6068621887310190
  0.0021292996236079  0.3116349418814873  0.4521430726905072
 -0.0022621598757564  0.7735856973691185  0.4509473451536589
  0.1674927251990562  0.2743123438872377  0.5486599178978891
  0.1615114220474995  0.8148398317257677  0.5492353768873587
  0.0000478868060645  0.5422187752249696  0.4840775806240013
  0.1643778741253946  0.0393968236170808  0.5183689554852070
  0.3331267499960819  0.3117547691191235  0.4522882490640632
  0.3331884326861376  0.7741845136689631  0.4551241166531844
  0.4990374975421434  0.2744166134168776  0.5485554283549535
  0.5048398105975223  0.8147780994378137  0.5491973090955433
  0.3333166899683439  0.5438565892397169  0.4840458368668824
  0.5022954108507067  0.0394230235466755  0.5185238952419355
  0.6645572764556276  0.3116087910216788  0.4520931679138450
  0.6693594056431742  0.7736557843743331  0.4511990859520691
  0.8333490972773342  0.2741865713270012  0.5473019245981513
  0.8339431664879954  0.8124313798444204  0.5468811339755278
  0.6667216790478782  0.5424807089337845  0.4839452821642415
  0.8334140621833497  0.0431652201340938  0.5127483513455605
  0.3327292029299106  0.9560085457059191  0.6783878264788457
 
  0.00000000E+00  0.00000000E+00  0.00000000E+00
  0.00000000E+00  0.00000000E+00  0.00000000E+00
  0.00000000E+00  0.00000000E+00  0.00000000E+00
  0.00000000E+00  0.00000000E+00  0.00000000E+00
  0.00000000E+00  0.00000000E+00  0.00000000E+00
  0.00000000E+00  0.00000000E+00  0.00000000E+00
  0.00000000E+00  0.00000000E+00  0.00000000E+00
  0.00000000E+00  0.00000000E+00  0.00000000E+00
  0.00000000E+00  0.00000000E+00  0.00000000E+00
  0.00000000E+00  0.00000000E+00  0.00000000E+00
  0.00000000E+00  0.00000000E+00  0.00000000E+00
  0.00000000E+00  0.00000000E+00  0.00000000E+00
  0.00000000E+00  0.00000000E+00  0.00000000E+00
  0.00000000E+00  0.00000000E+00  0.00000000E+00
  0.00000000E+00  0.00000000E+00  0.00000000E+00
  0.00000000E+00  0.00000000E+00  0.00000000E+00
  0.00000000E+00  0.00000000E+00  0.00000000E+00
  0.00000000E+00  0.00000000E+00  0.00000000E+00
  0.00000000E+00  0.00000000E+00  0.00000000E+00
  0.00000000E+00  0.00000000E+00  0.00000000E+00
  0.00000000E+00  0.00000000E+00  0.00000000E+00
  0.00000000E+00  0.00000000E+00  0.00000000E+00
  0.00000000E+00  0.00000000E+00  0.00000000E+00
  0.00000000E+00  0.00000000E+00  0.00000000E+00
  0.00000000E+00  0.00000000E+00  0.00000000E+00
  0.00000000E+00  0.00000000E+00  0.00000000E+00
  0.00000000E+00  0.00000000E+00  0.00000000E+00
  0.00000000E+00  0.00000000E+00  0.00000000E+00
  0.00000000E+00  0.00000000E+00  0.00000000E+00
  0.00000000E+00  0.00000000E+00  0.00000000E+00
  0.00000000E+00  0.00000000E+00  0.00000000E+00
  0.00000000E+00  0.00000000E+00  0.00000000E+00
  0.00000000E+00  0.00000000E+00  0.00000000E+00
  0.00000000E+00  0.00000000E+00  0.00000000E+00
  0.00000000E+00  0.00000000E+00  0.00000000E+00
  0.00000000E+00  0.00000000E+00  0.00000000E+00
  0.00000000E+00  0.00000000E+00  0.00000000E+00
  0.00000000E+00  0.00000000E+00  0.00000000E+00
  0.00000000E+00  0.00000000E+00  0.00000000E+00
  0.00000000E+00  0.00000000E+00  0.00000000E+00
  0.00000000E+00  0.00000000E+00  0.00000000E+00
  0.00000000E+00  0.00000000E+00  0.00000000E+00
  0.00000000E+00  0.00000000E+00  0.00000000E+00
  0.00000000E+00  0.00000000E+00  0.00000000E+00
  0.00000000E+00  0.00000000E+00  0.00000000E+00
  0.00000000E+00  0.00000000E+00  0.00000000E+00
  0.00000000E+00  0.00000000E+00  0.00000000E+00
  0.00000000E+00  0.00000000E+00  0.00000000E+00
  0.00000000E+00  0.00000000E+00  0.00000000E+00
  0.00000000E+00  0.00000000E+00  0.00000000E+00
  0.00000000E+00  0.00000000E+00  0.00000000E+00
  0.00000000E+00  0.00000000E+00  0.00000000E+00
  0.00000000E+00  0.00000000E+00  0.00000000E+00
  0.00000000E+00  0.00000000E+00  0.00000000E+00
  0.00000000E+00  0.00000000E+00  0.00000000E+00
  0.00000000E+00  0.00000000E+00  0.00000000E+00
  0.00000000E+00  0.00000000E+00  0.00000000E+00
  0.00000000E+00  0.00000000E+00  0.00000000E+00
  0.00000000E+00  0.00000000E+00  0.00000000E+00
  0.00000000E+00  0.00000000E+00  0.00000000E+00
  0.00000000E+00  0.00000000E+00  0.00000000E+00
