CONTCAR\(5)                             
   1.00000000000000     
    10.9293003082000002    0.0000000000000000    0.0000000000000000
     0.0000000000000000   10.9293003082000002    0.0000000000000000
     0.0000000000000000    0.0000000000000000   18.0813007355000011
   Cu   Se   O 
    18    18     1
Direct
  0.0011624209743388  0.9996051947666018  0.4992501051391329
  0.1685827073146555  0.1670909908957157  0.4989219352861838
  0.3358915336656878  0.0019850446797776  0.5009058895100509
  0.5061168978406556  0.1649624359338091  0.5001385880402651
  0.6733193451941162  0.9972469976130611  0.5076001651091318
  0.8365963606101445  0.1646414363376181  0.5057951532796778
  0.0026149016463322  0.3306994751391770  0.5060005104426537
  0.1708899663995425  0.4917015025490699  0.5060090695907107
  0.3372151428189341  0.3290612979820935  0.4767038675994186
  0.5043184170014712  0.4924247393916659  0.5021261739873282
  0.6713134381771084  0.3297044811376111  0.5035804241802708
  0.8374683179536575  0.4952641499872925  0.5051503921660867
  0.0035480018071894  0.6596693666871545  0.5013580056844305
  0.1649426513059922  0.8306448415535570  0.4993024260786498
  0.3348738731454546  0.6582295291128801  0.5079635554528181
  0.5087439781340208  0.8311824883949015  0.5112539287311009
  0.6729766536008341  0.6603097392054522  0.5043821401447488
  0.8374931215238348  0.8293573371137413  0.4870872892703062
  0.0069703115568274  0.1610548182707348  0.5927640453264047
  0.1688440266761049  0.9998003309801504  0.4108422756449173
  0.3367233308959072  0.1921340738894770  0.5869719805639235
  0.5047211182671774  0.9857288362855670  0.4188042157637710
  0.6687388932229297  0.1668049460452181  0.5944448982194146
  0.8332918902239186  0.0077967906541758  0.4098185830852117
  0.0022907391892133  0.4974349166717857  0.5948975301281578
  0.1526164793966629  0.3331772694860504  0.4067296146267836
  0.3399336490068237  0.4564062457417393  0.5900041827212661
  0.5201946823634671  0.3309087796513737  0.4056039044663535
  0.6699104866797114  0.4943670469557304  0.5938708761508167
  0.8385139318053376  0.3295118880947214  0.4142029997491505
  0.9892802955791709  0.8306589481281179  0.5880791277263526
  0.1792192680467934  0.6608722164397349  0.4171646602720642
  0.2847043590543095  0.8800688825310985  0.6075927016873237
  0.5029356852768458  0.6652988361734273  0.4188412074346815
  0.6983599032872760  0.8270640597499366  0.5926038832384464
  0.8356189576120627  0.6514775298979956  0.4094412361015785
  0.3989942377454838  0.7622225488717760  0.5933724824004258
 
  0.00000000E+00  0.00000000E+00  0.00000000E+00
  0.00000000E+00  0.00000000E+00  0.00000000E+00
  0.00000000E+00  0.00000000E+00  0.00000000E+00
  0.00000000E+00  0.00000000E+00  0.00000000E+00
  0.00000000E+00  0.00000000E+00  0.00000000E+00
  0.00000000E+00  0.00000000E+00  0.00000000E+00
  0.00000000E+00  0.00000000E+00  0.00000000E+00
  0.00000000E+00  0.00000000E+00  0.00000000E+00
  0.00000000E+00  0.00000000E+00  0.00000000E+00
  0.00000000E+00  0.00000000E+00  0.00000000E+00
  0.00000000E+00  0.00000000E+00  0.00000000E+00
  0.00000000E+00  0.00000000E+00  0.00000000E+00
  0.00000000E+00  0.00000000E+00  0.00000000E+00
  0.00000000E+00  0.00000000E+00  0.00000000E+00
  0.00000000E+00  0.00000000E+00  0.00000000E+00
  0.00000000E+00  0.00000000E+00  0.00000000E+00
  0.00000000E+00  0.00000000E+00  0.00000000E+00
  0.00000000E+00  0.00000000E+00  0.00000000E+00
  0.00000000E+00  0.00000000E+00  0.00000000E+00
  0.00000000E+00  0.00000000E+00  0.00000000E+00
  0.00000000E+00  0.00000000E+00  0.00000000E+00
  0.00000000E+00  0.00000000E+00  0.00000000E+00
  0.00000000E+00  0.00000000E+00  0.00000000E+00
  0.00000000E+00  0.00000000E+00  0.00000000E+00
  0.00000000E+00  0.00000000E+00  0.00000000E+00
  0.00000000E+00  0.00000000E+00  0.00000000E+00
  0.00000000E+00  0.00000000E+00  0.00000000E+00
  0.00000000E+00  0.00000000E+00  0.00000000E+00
  0.00000000E+00  0.00000000E+00  0.00000000E+00
  0.00000000E+00  0.00000000E+00  0.00000000E+00
  0.00000000E+00  0.00000000E+00  0.00000000E+00
  0.00000000E+00  0.00000000E+00  0.00000000E+00
  0.00000000E+00  0.00000000E+00  0.00000000E+00
  0.00000000E+00  0.00000000E+00  0.00000000E+00
  0.00000000E+00  0.00000000E+00  0.00000000E+00
  0.00000000E+00  0.00000000E+00  0.00000000E+00
  0.00000000E+00  0.00000000E+00  0.00000000E+00
