 Ce4 C2 Br5                             
   1.00000000000000     
     3.8649058415328907    0.0000000000000000    0.0000000000000000
     0.0000000000000000    8.1209785599748621    0.0000000000000000
     0.0000000000000000    0.0000000000000000   21.0251946705720023
   Ce   C    Br
     4     2     5
Direct
  0.4999467318425495  0.5000079414258854  0.6390205005238198
  0.4998626495955321  0.4999647083783923  0.3609621436432067
  0.9999066440411272  0.2972320820988879  0.4999949825635310
  0.9999076885592969  0.7027565745378780  0.4999904806482949
  0.4999094356492592  0.5000084369993744  0.4665405227316590
  0.4999214725893680  0.5000121319691956  0.5334432924358078
  0.9999912720104728  0.7758523485313572  0.6454129201872821
  0.4997887136809888  1.0000155675418281  0.5000092850663700
  0.9999357286792510  0.2241943745627638  0.6454421846416103
  0.9998572741873935  0.7758042586556245  0.3545765152109717
  0.9998739657223923  0.2241233335632499  0.3546071723474471
 
  0.00000000E+00  0.00000000E+00  0.00000000E+00
  0.00000000E+00  0.00000000E+00  0.00000000E+00
  0.00000000E+00  0.00000000E+00  0.00000000E+00
  0.00000000E+00  0.00000000E+00  0.00000000E+00
  0.00000000E+00  0.00000000E+00  0.00000000E+00
  0.00000000E+00  0.00000000E+00  0.00000000E+00
  0.00000000E+00  0.00000000E+00  0.00000000E+00
  0.00000000E+00  0.00000000E+00  0.00000000E+00
  0.00000000E+00  0.00000000E+00  0.00000000E+00
  0.00000000E+00  0.00000000E+00  0.00000000E+00
  0.00000000E+00  0.00000000E+00  0.00000000E+00
