CONTCAR\(5)                             
   1.00000000000000     
    11.7135000228999999    0.0000000000000000    0.0000000000000000
     0.0000000000000000   10.5269002914000005    0.0000000000000000
     0.0000000000000000    0.0000000000000000   20.5844001769999991
   Mn   Sb   Se   I 
     6     6    12     6
Direct
  0.3327319260767093 -0.0000099653359296  0.5000013694904856
  0.0001888588057333  0.5000073791522929  0.5000019075958914
  0.6660637956060234  0.0000143771433451  0.5000090792652145
  0.3335128862034843  0.5000166859724620  0.5000030642641510
  0.9993830097521970  0.0000022759844061  0.5000036709154286
  0.6668357334002820  0.5000112813347943  0.5000042562299942
  0.1667784438313452  0.2976748836158303  0.6163760031496749
  0.1668873741855788  0.7024233944171071  0.3836289364671377
  0.5001071016510369  0.2976989751460588  0.6163730410580649
  0.5002541547700939  0.7022264457555115  0.3836114731796595
  0.8334432886702342  0.2976798662509721  0.6163759691913089
  0.8335938543700312  0.7022257089088039  0.3836156606627809
  0.0001122658007510  0.2465079974904199  0.5301982291679245
  0.1668994034469276  0.4659206474457788  0.4102022274714893
  0.0002752453548699  0.7535234172194314  0.4697986431340261
  0.1668029136941036  0.5341306286520064  0.5898047251403701
  0.3334512687041212  0.2465061368760423  0.5302029735425899
  0.5002384200367443  0.4658244045627195  0.4101635580706577
  0.3336447934930727  0.7535264663285260  0.4697856565339673
  0.5001260606103634  0.5341264338012015  0.5898068898542550
  0.6667596079529063  0.2465074560849497  0.5302085142704737
  0.8335744565395667  0.4658179146369949  0.4101653587815526
  0.6669671266518666  0.7535101026076981  0.4697828159991344
  0.8334734563465342  0.5341369496526898  0.5898019173938550
  0.1663949637831064  0.9385787877207497  0.5958186269849290
  0.1662362193271998  0.0614151990053596  0.4042032269163709
  0.4997340687847143  0.9385808460748205  0.5958216503284998
  0.4995722407819024  0.0614100335794732  0.4042035124577629
  0.8330564716787623  0.9385826751252107  0.5958221568020726
  0.8329005326897579  0.0614225767902719  0.4042046096802756
 
  0.00000000E+00  0.00000000E+00  0.00000000E+00
  0.00000000E+00  0.00000000E+00  0.00000000E+00
  0.00000000E+00  0.00000000E+00  0.00000000E+00
  0.00000000E+00  0.00000000E+00  0.00000000E+00
  0.00000000E+00  0.00000000E+00  0.00000000E+00
  0.00000000E+00  0.00000000E+00  0.00000000E+00
  0.00000000E+00  0.00000000E+00  0.00000000E+00
  0.00000000E+00  0.00000000E+00  0.00000000E+00
  0.00000000E+00  0.00000000E+00  0.00000000E+00
  0.00000000E+00  0.00000000E+00  0.00000000E+00
  0.00000000E+00  0.00000000E+00  0.00000000E+00
  0.00000000E+00  0.00000000E+00  0.00000000E+00
  0.00000000E+00  0.00000000E+00  0.00000000E+00
  0.00000000E+00  0.00000000E+00  0.00000000E+00
  0.00000000E+00  0.00000000E+00  0.00000000E+00
  0.00000000E+00  0.00000000E+00  0.00000000E+00
  0.00000000E+00  0.00000000E+00  0.00000000E+00
  0.00000000E+00  0.00000000E+00  0.00000000E+00
  0.00000000E+00  0.00000000E+00  0.00000000E+00
  0.00000000E+00  0.00000000E+00  0.00000000E+00
  0.00000000E+00  0.00000000E+00  0.00000000E+00
  0.00000000E+00  0.00000000E+00  0.00000000E+00
  0.00000000E+00  0.00000000E+00  0.00000000E+00
  0.00000000E+00  0.00000000E+00  0.00000000E+00
  0.00000000E+00  0.00000000E+00  0.00000000E+00
  0.00000000E+00  0.00000000E+00  0.00000000E+00
  0.00000000E+00  0.00000000E+00  0.00000000E+00
  0.00000000E+00  0.00000000E+00  0.00000000E+00
  0.00000000E+00  0.00000000E+00  0.00000000E+00
  0.00000000E+00  0.00000000E+00  0.00000000E+00
