CONTCAR                                 
   1.00000000000000     
    13.9573001861999995    0.0000000000000000    0.0000000000000000
     0.0000000000000000   20.3449993133999989    0.0000000000000000
     0.0000000000000000    0.0000000000000000   22.8059997559000003
   Nb   Cr   Se   O    H 
    16    16    80     1     1
Direct
  0.1873394291157808  0.2286750960996855  0.5833367960790454
  0.0632731957833954  0.2695578201140449  0.4129478149505417
  0.4376590419255777  0.2287967631757581  0.5833234892104571
  0.3135868079050965  0.2701342240624101  0.4127975945775688
  0.6874391803099797  0.2283661535893273  0.5835768867147166
  0.5640135400957504  0.2697283529184915  0.4128569799055697
  0.9370899324140680  0.2282762190739689  0.5837397197618159
  0.8136679913975158  0.2694267660428338  0.4129241214683219
  0.1908093314942292  0.7234943353116492  0.5891300181113195
  0.0641694801021089  0.7703891093225295  0.4167948092594358
  0.4344685314240593  0.7242423513809086  0.5886149581767626
  0.3134928506315049  0.7705281062993663  0.4171810616597824
  0.6866937455549547  0.7255795132253979  0.5859284744373170
  0.5625700769257094  0.7711721765726267  0.4165661729018453
  0.9362254751143482  0.7251245797966064  0.5857471671735581
  0.8129920259160599  0.7712788271540845  0.4165708496167611
  0.0589540014031726  0.0639838336435616  0.5251149167622557
  0.1907944898953033  0.4335891774440057  0.4719082216840533
  0.3095126246699067  0.0652403401170147  0.5226581258495315
  0.4409453667421275  0.4335775676729483  0.4716556629004458
  0.5604236649090097  0.0641221388650806  0.5245910857123164
  0.6913720667442007  0.4334091627817074  0.4718477672352535
  0.8094162059509884  0.0639312007341388  0.5252964813591490
  0.9414153859426690  0.4330828265703488  0.4719498911404258
  0.0561089528892253  0.5627523719720102  0.5221978004790770
  0.1912572027827935  0.9331139276954090  0.4777541944651986
  0.3118813454373566  0.5617754252136749  0.5220784351713661
  0.4381242691773721  0.9340859404223067  0.4777486416890113
  0.5614721885557756  0.5633470287732578  0.5224627178344221
  0.6905681122439731  0.9343393637416852  0.4773226912401611
  0.8080590852785647  0.5633234008084003  0.5230483718314929
  0.9423705487671157  0.9336794812839386  0.4777380508416726
  0.1883823884730518  0.3134858508547964  0.4908967452180377
  0.0650288991336296  0.4459034608880046  0.5505338395709956
  0.0622439108478119  0.1844280497261082  0.5054864505142760
  0.1887715421410334  0.1802037504410023  0.3718062446831212
  0.0622213281907946  0.3178557988621549  0.6250235529169643
  0.0626224878200148  0.2109087670703644  0.6688435678127505
  0.0651534152417383  0.4033853209550955  0.3955793453720631
  0.1881534490636056  0.2867649368367466  0.3274419678149059
  0.1862425146755982  0.0951698354611210  0.6001990017490968
  0.1836512776290320  0.0498556606042371  0.4458527203667018
  0.4388918193046010  0.3135307178455236  0.4908363252598562
  0.3154322610745055  0.4453285218722129  0.5505665556404722
  0.3125846789901701  0.1857661353813569  0.5049922108896325
  0.4387892305138550  0.1804612020609966  0.3714440169307878
  0.3123653479916371  0.3180975335580172  0.6250525841793717
  0.3124510613795195  0.2110231581928161  0.6685782957894943
  0.3148912083158848  0.4038149918019300  0.3955970441100334
  0.4387465866592422  0.2873732591497458  0.3275672761187636
  0.4356983827377050  0.0953711153306998  0.5999865224075762
  0.4363436706420032  0.0504319966170357  0.4454374978145736
  0.6888432424344657  0.3132449924140985  0.4910250255498738
  0.5656944222340385  0.4460470742868594  0.5501999532728234
  0.5625605233713316  0.1846425381310013  0.5052580025430444
  0.6887561075685085  0.1801081888688287  0.3713589112011846
  0.5626568865550610  0.3180705740638317  0.6249284913318434
  0.5624596936421185  0.2111626117599386  0.6688508527627732
  0.5653567694423103  0.4034039555340456  0.3956758027501905
  0.6886323979216158  0.2866872602945278  0.3273315914157777
  0.6853430898178985  0.0947659430555561  0.6012123802149816
  0.6858651816929537  0.0503176273914647  0.4462269872283997
  0.9385638350292567  0.3130090039965268  0.4911320668956591
  0.8153247630754805  0.4460165074438436  0.5504955335910822
  0.8124566393940711  0.1843035099283767  0.5055574690545441
  0.9388454012373941  0.1798234764512046  0.3716029967955237
  0.8121778908558497  0.3179057588792631  0.6250940064735673
  0.8122148536318647  0.2110489111780893  0.6691420764461284
  0.8152768435822679  0.4031666213364602  0.3956635687679437
  0.9383326701167576  0.2862673604409309  0.3273230439900203
  0.9354708832108258  0.0947089797678231  0.6015616357081512
  0.9350504833651385  0.0498551518351533  0.4468353819261353
  0.1889095362493194  0.8121000404396526  0.4963932928846617
  0.0662660768698018  0.9478513999351748  0.5564799690071993
  0.0630366967607472  0.6838388946358975  0.5079238658223986
  0.1886580419271553  0.6815124748245864  0.3739263647527409
  0.0635978662576235  0.8118805858406688  0.6297634326892236
  0.0606157338784641  0.7043107907223813  0.6711543315820450
  0.0657082281965131  0.9041042599639511  0.4012566635999590
  0.1887211753606977  0.7892010224320174  0.3316776914304569
  0.1840006821104083  0.5892614262556819  0.5971200937095347
  0.1845735770616770  0.5506600018456069  0.4444268928846640
  0.4380133430884143  0.8128661878764092  0.4960788971365133
  0.3155481317733262  0.9525980995604257  0.5559168949393865
  0.3125792425973302  0.6825349563172267  0.5076120676916389
  0.4382898042334986  0.6823721103949651  0.3732741889619930
  0.3125517992677587  0.8125460288753246  0.6217396399712243
  0.3107369077083959  0.6974582828600973  0.6781393696793216
  0.3143682057967823  0.9040612313971934  0.4009537187915484
  0.4377499367733364  0.7902693709742792  0.3316583807849938
  0.4378223501594363  0.5900435037483760  0.5985487637767406
  0.4365057517190394  0.5504516405417590  0.4433696775268032
  0.6878534499642015  0.8135295296031941  0.4952988885292271
  0.5645718301747067  0.9480384007326137  0.5556014638932751
  0.5609080952171297  0.6844054517577263  0.5075481750192239
  0.6878671534420633  0.6829435978086380  0.3732379789501650
  0.5607723727160803  0.8131048728586592  0.6294403285899719
  0.5622955199272326  0.7058671609030327  0.6718086512389760
  0.5640124694423321  0.9048217705271213  0.4014681143160956
  0.6880903299023018  0.7910761105427824  0.3317323267358105
  0.6853135896358609  0.5914588060118220  0.6003693828838337
  0.6856422753051845  0.5506548467739236  0.4432366260082787
  0.9389418685267898  0.8129876498745645  0.4954354929609792
  0.8154477348980507  0.9474808398994270  0.5557635123062283
  0.8113757325978881  0.6841295973733708  0.5067906773892759
  0.9382849835246603  0.6823591078475104  0.3739785318973787
  0.8120256493621980  0.8142066205526390  0.6286787615523934
  0.8116327878605816  0.7066694599992047  0.6709710941514615
  0.8154158217551881  0.9049382284288683  0.4012566961398250
  0.9386363063226426  0.7901465762909083  0.3318477437958478
  0.9340051767917217  0.5909631491268783  0.5999302217571909
  0.9331855658810966  0.5505131551293161  0.4435367334909088
  0.3095123324031306  0.6126281185986500  0.7115678262011755
  0.2764612680547955  0.5824950654705248  0.6842685142895348
 
  0.00000000E+00  0.00000000E+00  0.00000000E+00
  0.00000000E+00  0.00000000E+00  0.00000000E+00
  0.00000000E+00  0.00000000E+00  0.00000000E+00
  0.00000000E+00  0.00000000E+00  0.00000000E+00
  0.00000000E+00  0.00000000E+00  0.00000000E+00
  0.00000000E+00  0.00000000E+00  0.00000000E+00
  0.00000000E+00  0.00000000E+00  0.00000000E+00
  0.00000000E+00  0.00000000E+00  0.00000000E+00
  0.00000000E+00  0.00000000E+00  0.00000000E+00
  0.00000000E+00  0.00000000E+00  0.00000000E+00
  0.00000000E+00  0.00000000E+00  0.00000000E+00
  0.00000000E+00  0.00000000E+00  0.00000000E+00
  0.00000000E+00  0.00000000E+00  0.00000000E+00
  0.00000000E+00  0.00000000E+00  0.00000000E+00
  0.00000000E+00  0.00000000E+00  0.00000000E+00
  0.00000000E+00  0.00000000E+00  0.00000000E+00
  0.00000000E+00  0.00000000E+00  0.00000000E+00
  0.00000000E+00  0.00000000E+00  0.00000000E+00
  0.00000000E+00  0.00000000E+00  0.00000000E+00
  0.00000000E+00  0.00000000E+00  0.00000000E+00
  0.00000000E+00  0.00000000E+00  0.00000000E+00
  0.00000000E+00  0.00000000E+00  0.00000000E+00
  0.00000000E+00  0.00000000E+00  0.00000000E+00
  0.00000000E+00  0.00000000E+00  0.00000000E+00
  0.00000000E+00  0.00000000E+00  0.00000000E+00
  0.00000000E+00  0.00000000E+00  0.00000000E+00
  0.00000000E+00  0.00000000E+00  0.00000000E+00
  0.00000000E+00  0.00000000E+00  0.00000000E+00
  0.00000000E+00  0.00000000E+00  0.00000000E+00
  0.00000000E+00  0.00000000E+00  0.00000000E+00
  0.00000000E+00  0.00000000E+00  0.00000000E+00
  0.00000000E+00  0.00000000E+00  0.00000000E+00
  0.00000000E+00  0.00000000E+00  0.00000000E+00
  0.00000000E+00  0.00000000E+00  0.00000000E+00
  0.00000000E+00  0.00000000E+00  0.00000000E+00
  0.00000000E+00  0.00000000E+00  0.00000000E+00
  0.00000000E+00  0.00000000E+00  0.00000000E+00
  0.00000000E+00  0.00000000E+00  0.00000000E+00
  0.00000000E+00  0.00000000E+00  0.00000000E+00
  0.00000000E+00  0.00000000E+00  0.00000000E+00
  0.00000000E+00  0.00000000E+00  0.00000000E+00
  0.00000000E+00  0.00000000E+00  0.00000000E+00
  0.00000000E+00  0.00000000E+00  0.00000000E+00
  0.00000000E+00  0.00000000E+00  0.00000000E+00
  0.00000000E+00  0.00000000E+00  0.00000000E+00
  0.00000000E+00  0.00000000E+00  0.00000000E+00
  0.00000000E+00  0.00000000E+00  0.00000000E+00
  0.00000000E+00  0.00000000E+00  0.00000000E+00
  0.00000000E+00  0.00000000E+00  0.00000000E+00
  0.00000000E+00  0.00000000E+00  0.00000000E+00
  0.00000000E+00  0.00000000E+00  0.00000000E+00
  0.00000000E+00  0.00000000E+00  0.00000000E+00
  0.00000000E+00  0.00000000E+00  0.00000000E+00
  0.00000000E+00  0.00000000E+00  0.00000000E+00
  0.00000000E+00  0.00000000E+00  0.00000000E+00
  0.00000000E+00  0.00000000E+00  0.00000000E+00
  0.00000000E+00  0.00000000E+00  0.00000000E+00
  0.00000000E+00  0.00000000E+00  0.00000000E+00
  0.00000000E+00  0.00000000E+00  0.00000000E+00
  0.00000000E+00  0.00000000E+00  0.00000000E+00
  0.00000000E+00  0.00000000E+00  0.00000000E+00
  0.00000000E+00  0.00000000E+00  0.00000000E+00
  0.00000000E+00  0.00000000E+00  0.00000000E+00
  0.00000000E+00  0.00000000E+00  0.00000000E+00
  0.00000000E+00  0.00000000E+00  0.00000000E+00
  0.00000000E+00  0.00000000E+00  0.00000000E+00
  0.00000000E+00  0.00000000E+00  0.00000000E+00
  0.00000000E+00  0.00000000E+00  0.00000000E+00
  0.00000000E+00  0.00000000E+00  0.00000000E+00
  0.00000000E+00  0.00000000E+00  0.00000000E+00
  0.00000000E+00  0.00000000E+00  0.00000000E+00
  0.00000000E+00  0.00000000E+00  0.00000000E+00
  0.00000000E+00  0.00000000E+00  0.00000000E+00
  0.00000000E+00  0.00000000E+00  0.00000000E+00
  0.00000000E+00  0.00000000E+00  0.00000000E+00
  0.00000000E+00  0.00000000E+00  0.00000000E+00
  0.00000000E+00  0.00000000E+00  0.00000000E+00
  0.00000000E+00  0.00000000E+00  0.00000000E+00
  0.00000000E+00  0.00000000E+00  0.00000000E+00
  0.00000000E+00  0.00000000E+00  0.00000000E+00
  0.00000000E+00  0.00000000E+00  0.00000000E+00
  0.00000000E+00  0.00000000E+00  0.00000000E+00
  0.00000000E+00  0.00000000E+00  0.00000000E+00
  0.00000000E+00  0.00000000E+00  0.00000000E+00
  0.00000000E+00  0.00000000E+00  0.00000000E+00
  0.00000000E+00  0.00000000E+00  0.00000000E+00
  0.00000000E+00  0.00000000E+00  0.00000000E+00
  0.00000000E+00  0.00000000E+00  0.00000000E+00
  0.00000000E+00  0.00000000E+00  0.00000000E+00
  0.00000000E+00  0.00000000E+00  0.00000000E+00
  0.00000000E+00  0.00000000E+00  0.00000000E+00
  0.00000000E+00  0.00000000E+00  0.00000000E+00
  0.00000000E+00  0.00000000E+00  0.00000000E+00
  0.00000000E+00  0.00000000E+00  0.00000000E+00
  0.00000000E+00  0.00000000E+00  0.00000000E+00
  0.00000000E+00  0.00000000E+00  0.00000000E+00
  0.00000000E+00  0.00000000E+00  0.00000000E+00
  0.00000000E+00  0.00000000E+00  0.00000000E+00
  0.00000000E+00  0.00000000E+00  0.00000000E+00
  0.00000000E+00  0.00000000E+00  0.00000000E+00
  0.00000000E+00  0.00000000E+00  0.00000000E+00
  0.00000000E+00  0.00000000E+00  0.00000000E+00
  0.00000000E+00  0.00000000E+00  0.00000000E+00
  0.00000000E+00  0.00000000E+00  0.00000000E+00
  0.00000000E+00  0.00000000E+00  0.00000000E+00
  0.00000000E+00  0.00000000E+00  0.00000000E+00
  0.00000000E+00  0.00000000E+00  0.00000000E+00
  0.00000000E+00  0.00000000E+00  0.00000000E+00
  0.00000000E+00  0.00000000E+00  0.00000000E+00
  0.00000000E+00  0.00000000E+00  0.00000000E+00
  0.00000000E+00  0.00000000E+00  0.00000000E+00
  0.00000000E+00  0.00000000E+00  0.00000000E+00
  0.00000000E+00  0.00000000E+00  0.00000000E+00
  0.00000000E+00  0.00000000E+00  0.00000000E+00
