CONTCAR\(8)                             
   1.00000000000000     
    11.8208999634000005    0.0000000000000000    0.0000000000000000
     2.9552306013999998    8.5110336759000003    0.0000000000000000
     0.0000000000000000    0.0000000000000000   24.9838008880999993
   Na   Ti   S 
     6    20    40
Direct
  0.1419152446048521 -0.0000024215502559  0.4981265954302484
  0.3634111477015773  0.3783790824786585  0.5015909917098805
  0.0526153963154300  0.6216399209866833  0.5016021080418864
  0.6419152036048522 -0.0000024215502559  0.4981265954302484
  0.8634111477015773  0.3783790824786585  0.5015909917098805
  0.5526153963154300  0.6216399209866833  0.5016021080418864
  0.4326621632634869  0.8018010180101790  0.6396301443852951
  0.1357558283321199 -0.0000110851721223  0.6411979938743739
  0.4672975441767671 -0.0000007645978027  0.3601195175114096
  0.3335457298397548  0.1981914291188776  0.6396240629077063
  0.1686946450906763  0.1983825328770172  0.3604327558778944
  0.0316802071645777  0.4008446791575517  0.6397707069921157
  0.3665167106117261  0.4010687750715350  0.3592599071826388
  0.2321185211413617  0.5991113909544692  0.6397752643942242
  0.0670385601043938  0.5989146424810998  0.3592619417336009
  0.2678900917531365  0.8016432501505645  0.3604343140214292
  0.9326621632634869  0.8018010180101790  0.6396301443852951
  0.6357558483321215 -0.0000110851721223  0.6411979938743739
  0.9672975441767672 -0.0000007645978027  0.3601195175114096
  0.8335458108397509  0.1981914291188776  0.6396240629077063
  0.6686946450906762  0.1983825328770172  0.3604327558778944
  0.5316801931645765  0.4008346501575497  0.6397707069921157
  0.8665166296117230  0.4010687750715350  0.3592599071826388
  0.7321185211413618  0.5991113909544692  0.6397752643942242
  0.5670385601043938  0.5989146424810998  0.3592619417336009
  0.7678900117531370  0.8016432501505645  0.3604343140214292
  0.1005703842164704  0.8018272269982717  0.5814821474898676
  0.4340620656917916  0.7999439575105355  0.3038003482481675
  0.3019141969018110 -0.0000018777761810  0.5811341808989874
  0.1342518878215541  0.0000036162526437  0.3040059020408555
  0.0015081493451104  0.1981469280271825  0.5814786172160178
  0.3340694892711866  0.2000092046134918  0.3037998331183051
  0.1973450735509375  0.3991588060157532  0.5806953327788723
  0.4667806258223482  0.0000327226584164  0.6962172368975004
  0.0341218073802151  0.3992408900226494  0.3038164104075858
  0.3038403535790319  0.0000485018885815  0.4189548464094079
  0.3969149039133039  0.6008408701331613  0.5807241988508131
  0.1666366440840440  0.2013760348494237  0.6962781342815128
  0.2337690601284356  0.6007026037840751  0.3038101703666208
  0.0009898502670115  0.2004311919877559  0.4186306950830986
  0.3661931785197380  0.3999343962572088  0.6957709541617031
  0.1989517433244260  0.3999635723204240  0.4190253754295992
  0.0661428190953498  0.6000909500208427  0.6957753245893626
  0.3989418324547807  0.6000774067596654  0.4190207614753851
  0.2672761056471415  0.7986699144141055  0.6962782543915469
  0.1012279578854515  0.7995911892955716  0.4186350428020902
  0.6005703432164706  0.8018272269982717  0.5814821474898676
  0.9340620656917916  0.7999439575105355  0.3038003482481675
  0.8019141759018128 -0.0000018777761810  0.5811341808989874
  0.6342518188215520  0.9999936832526425  0.3040059020408555
  0.5015081583451076  0.1981369270271828  0.5814786172160178
  0.8340694892711866  0.2000092046134918  0.3037998331183051
  0.6973451545509407  0.3991588060157532  0.5806953327788723
  0.9667807068223443  0.0000327226584164  0.6962172368975004
  0.5341218073802151  0.3992408900226494  0.3038164104075858
  0.8038403745790301  0.0000485018885815  0.4189548464094079
  0.8969148639133077  0.6008408701331613  0.5807241988508131
  0.6666366640840456  0.2013760348494237  0.6962781342815128
  0.7337691411284387  0.6007026037840751  0.3038101703666208
  0.5009898502670115  0.2004311919877559  0.4186306950830986
  0.8661932185197342  0.3999343962572088  0.6957709541617031
  0.6989518233244255  0.3999635723204240  0.4190253754295992
  0.5661428190953569  0.6000909500208427  0.6957753245893626
  0.8989418384547812  0.6000673777596633  0.4190207614753851
  0.7672761866471375  0.7986699144141055  0.6962782543915469
  0.6012279578854515  0.7995911892955716  0.4186350428020902
 
  0.00000000E+00  0.00000000E+00  0.00000000E+00
  0.00000000E+00  0.00000000E+00  0.00000000E+00
  0.00000000E+00  0.00000000E+00  0.00000000E+00
  0.00000000E+00  0.00000000E+00  0.00000000E+00
  0.00000000E+00  0.00000000E+00  0.00000000E+00
  0.00000000E+00  0.00000000E+00  0.00000000E+00
  0.00000000E+00  0.00000000E+00  0.00000000E+00
  0.00000000E+00  0.00000000E+00  0.00000000E+00
  0.00000000E+00  0.00000000E+00  0.00000000E+00
  0.00000000E+00  0.00000000E+00  0.00000000E+00
  0.00000000E+00  0.00000000E+00  0.00000000E+00
  0.00000000E+00  0.00000000E+00  0.00000000E+00
  0.00000000E+00  0.00000000E+00  0.00000000E+00
  0.00000000E+00  0.00000000E+00  0.00000000E+00
  0.00000000E+00  0.00000000E+00  0.00000000E+00
  0.00000000E+00  0.00000000E+00  0.00000000E+00
  0.00000000E+00  0.00000000E+00  0.00000000E+00
  0.00000000E+00  0.00000000E+00  0.00000000E+00
  0.00000000E+00  0.00000000E+00  0.00000000E+00
  0.00000000E+00  0.00000000E+00  0.00000000E+00
  0.00000000E+00  0.00000000E+00  0.00000000E+00
  0.00000000E+00  0.00000000E+00  0.00000000E+00
  0.00000000E+00  0.00000000E+00  0.00000000E+00
  0.00000000E+00  0.00000000E+00  0.00000000E+00
  0.00000000E+00  0.00000000E+00  0.00000000E+00
  0.00000000E+00  0.00000000E+00  0.00000000E+00
  0.00000000E+00  0.00000000E+00  0.00000000E+00
  0.00000000E+00  0.00000000E+00  0.00000000E+00
  0.00000000E+00  0.00000000E+00  0.00000000E+00
  0.00000000E+00  0.00000000E+00  0.00000000E+00
  0.00000000E+00  0.00000000E+00  0.00000000E+00
  0.00000000E+00  0.00000000E+00  0.00000000E+00
  0.00000000E+00  0.00000000E+00  0.00000000E+00
  0.00000000E+00  0.00000000E+00  0.00000000E+00
  0.00000000E+00  0.00000000E+00  0.00000000E+00
  0.00000000E+00  0.00000000E+00  0.00000000E+00
  0.00000000E+00  0.00000000E+00  0.00000000E+00
  0.00000000E+00  0.00000000E+00  0.00000000E+00
  0.00000000E+00  0.00000000E+00  0.00000000E+00
  0.00000000E+00  0.00000000E+00  0.00000000E+00
  0.00000000E+00  0.00000000E+00  0.00000000E+00
  0.00000000E+00  0.00000000E+00  0.00000000E+00
  0.00000000E+00  0.00000000E+00  0.00000000E+00
  0.00000000E+00  0.00000000E+00  0.00000000E+00
  0.00000000E+00  0.00000000E+00  0.00000000E+00
  0.00000000E+00  0.00000000E+00  0.00000000E+00
  0.00000000E+00  0.00000000E+00  0.00000000E+00
  0.00000000E+00  0.00000000E+00  0.00000000E+00
  0.00000000E+00  0.00000000E+00  0.00000000E+00
  0.00000000E+00  0.00000000E+00  0.00000000E+00
  0.00000000E+00  0.00000000E+00  0.00000000E+00
  0.00000000E+00  0.00000000E+00  0.00000000E+00
  0.00000000E+00  0.00000000E+00  0.00000000E+00
  0.00000000E+00  0.00000000E+00  0.00000000E+00
  0.00000000E+00  0.00000000E+00  0.00000000E+00
  0.00000000E+00  0.00000000E+00  0.00000000E+00
  0.00000000E+00  0.00000000E+00  0.00000000E+00
  0.00000000E+00  0.00000000E+00  0.00000000E+00
  0.00000000E+00  0.00000000E+00  0.00000000E+00
  0.00000000E+00  0.00000000E+00  0.00000000E+00
  0.00000000E+00  0.00000000E+00  0.00000000E+00
  0.00000000E+00  0.00000000E+00  0.00000000E+00
  0.00000000E+00  0.00000000E+00  0.00000000E+00
  0.00000000E+00  0.00000000E+00  0.00000000E+00
  0.00000000E+00  0.00000000E+00  0.00000000E+00
  0.00000000E+00  0.00000000E+00  0.00000000E+00
