CONTCAR\(10)                            
   1.00000000000000     
    14.1827001571999993    0.0000000000000000    0.0000000000000000
     0.0000000000000000   18.7943000793000010    0.0000000000000000
     0.0000000000000000    0.0000000000000000   21.0296001433999997
   Ta   Pt   Se   O 
    16     8    56     1
Direct
  0.1876296975251372  0.4227327081990034  0.5640857814950987
  0.0628240384077941  0.5784887411407255  0.4374611971117139
  0.0620185241851504  0.9048960263921546  0.4887122395321554
  0.1873358385960345  0.0972400828367058  0.5103834343211093
  0.4374999959999997  0.4205465951860897  0.5666199302122052
  0.3092729955504322  0.5797007943256306  0.4366606328223947
  0.3123087659653466  0.9049772852143939  0.4896860443459823
  0.4374999959999997  0.0969636252787394  0.5109507494225694
  0.6873703114748599  0.4227327081990034  0.5640857814950987
  0.5657269954495706  0.5797007943256306  0.4366606328223947
  0.5626912250346564  0.9049772852143939  0.4896860443459823
  0.6876641704039628  0.0972400828367058  0.5103834343211093
  0.9375000289999988  0.4228342739584219  0.5636931128156587
  0.8121759825922040  0.5784887411407255  0.4374611971117139
  0.8129814968148480  0.9048960263921546  0.4887122395321554
  0.9375000289999988  0.0974071452884524  0.5101785602375828
  0.0623779686800159  0.2265450973567746  0.5356158744757562
  0.1870227544283659  0.7747094450326230  0.4639457548560976
  0.3124578265022493  0.2259882536338946  0.5365015807290417
  0.4374999959999997  0.7757984791717502  0.4656412750808819
  0.5625421644977535  0.2259882536338946  0.5365015807290417
  0.6879772545716312  0.7747094450326230  0.4639457548560976
  0.8126220523199823  0.2265450973567746  0.5356158744757562
  0.9375000289999988  0.7749715116545673  0.4643106985657282
  0.0621556711547989  0.6975712463056952  0.5142475440743668
  0.1878193056196384  0.3040973490966264  0.4868413424067313
  0.0629034814016400  0.4353124316182204  0.4693939698641291
  0.1879487376132971  0.5657709548928715  0.5327475857120738
  0.1866514187051221  0.5241591082539974  0.3586509871023072
  0.0623495614187972  0.4753995406830700  0.6432296270931114
  0.1876078033178314  0.9846908167516557  0.4297100295894786
  0.0621956825805022  0.0174006825228659  0.5696626067133375
  0.0621775611711552  0.3365165878135040  0.6154841118872607
  0.1861881128742821  0.6665923943267786  0.3858774491581083
  0.1867201824705542  0.1724809254297547  0.6087661099528034
  0.0615743319410407  0.8290859373200234  0.3908759594086421
  0.0626127269868676  0.1471512213347489  0.4331724925629044
  0.1869620678109456  0.8546103838300793  0.5658643874886005
  0.3119989653065144  0.6990626686435620  0.5158806165570857
  0.4374999959999997  0.3039840205506524  0.4877661295652596
  0.3129874309599802  0.4354879136006450  0.4698417725202266
  0.4374999959999997  0.5567640353319737  0.5291081818081852
  0.4374999959999997  0.5262916506090565  0.3598960914611335
  0.3122059377952383  0.4750248807775508  0.6443019231750811
  0.4374999959999997  0.9846203486546156  0.4301809228360120
  0.3121185711845646  0.0175375967073239  0.5704074991896236
  0.3110403594054057  0.3354806189241830  0.6166930848175892
  0.4374999959999997  0.6658593348263835  0.3873198899666953
  0.4374999959999997  0.1723642155873726  0.6092761751130321
  0.3128938049186996  0.8287405599745368  0.3919784944611714
  0.3126910568953744  0.1471519759095743  0.4337930348906568
  0.4374999959999997  0.8559838342515695  0.5671477907355157
  0.5630010256934883  0.6990626686435620  0.5158806165570857
  0.6871807033803586  0.3040973490966264  0.4868413424067313
  0.5620125600400225  0.4354879136006450  0.4698417725202266
  0.6870512713867001  0.5657709548928715  0.5327475857120738
  0.6883485902948752  0.5241591082539974  0.3586509871023072
  0.5627940532047645  0.4750248807775508  0.6443019231750811
  0.6873922056821660  0.9846908167516557  0.4297100295894786
  0.5628814198154382  0.0175375967073239  0.5704074991896236
  0.5639596315945971  0.3354806189241830  0.6166930848175892
  0.6888118961257153  0.6665923943267786  0.3858774491581083
  0.6882798265294431  0.1724809254297547  0.6087661099528034
  0.5621061860813032  0.8287405599745368  0.3919784944611714
  0.5623089341046285  0.1471519759095743  0.4337930348906568
  0.6880379411890517  0.8546103838300793  0.5658643874886005
  0.8128443498451993  0.6975712463056952  0.5142475440743668
  0.9375000289999988  0.3044407948939438  0.4862801745117251
  0.8120965395983581  0.4353124316182204  0.4693939698641291
  0.9375000289999988  0.5654592671835216  0.5318229586787734
  0.9375000289999988  0.5253665949727445  0.3585204473664509
  0.8126504595812011  0.4753995406830700  0.6432296270931114
  0.9375000289999988  0.9851058496580706  0.4292073516689147
  0.8128043384194958  0.0174006825228659  0.5696626067133375
  0.8128224598288430  0.3365165878135040  0.6154841118872607
  0.9375000289999988  0.6642883382638597  0.3854140180844299
  0.9375000289999988  0.1730262255338169  0.6084770955188894
  0.8134256890589575  0.8290859373200234  0.3908759594086421
  0.8123872940131307  0.1471512213347489  0.4331724925629044
  0.9375000289999988  0.8553978770601700  0.5661714745168195
  0.4374999959999997  0.6249277263858701  0.5845403872042476
 
  0.00000000E+00  0.00000000E+00  0.00000000E+00
  0.00000000E+00  0.00000000E+00  0.00000000E+00
  0.00000000E+00  0.00000000E+00  0.00000000E+00
  0.00000000E+00  0.00000000E+00  0.00000000E+00
  0.00000000E+00  0.00000000E+00  0.00000000E+00
  0.00000000E+00  0.00000000E+00  0.00000000E+00
  0.00000000E+00  0.00000000E+00  0.00000000E+00
  0.00000000E+00  0.00000000E+00  0.00000000E+00
  0.00000000E+00  0.00000000E+00  0.00000000E+00
  0.00000000E+00  0.00000000E+00  0.00000000E+00
  0.00000000E+00  0.00000000E+00  0.00000000E+00
  0.00000000E+00  0.00000000E+00  0.00000000E+00
  0.00000000E+00  0.00000000E+00  0.00000000E+00
  0.00000000E+00  0.00000000E+00  0.00000000E+00
  0.00000000E+00  0.00000000E+00  0.00000000E+00
  0.00000000E+00  0.00000000E+00  0.00000000E+00
  0.00000000E+00  0.00000000E+00  0.00000000E+00
  0.00000000E+00  0.00000000E+00  0.00000000E+00
  0.00000000E+00  0.00000000E+00  0.00000000E+00
  0.00000000E+00  0.00000000E+00  0.00000000E+00
  0.00000000E+00  0.00000000E+00  0.00000000E+00
  0.00000000E+00  0.00000000E+00  0.00000000E+00
  0.00000000E+00  0.00000000E+00  0.00000000E+00
  0.00000000E+00  0.00000000E+00  0.00000000E+00
  0.00000000E+00  0.00000000E+00  0.00000000E+00
  0.00000000E+00  0.00000000E+00  0.00000000E+00
  0.00000000E+00  0.00000000E+00  0.00000000E+00
  0.00000000E+00  0.00000000E+00  0.00000000E+00
  0.00000000E+00  0.00000000E+00  0.00000000E+00
  0.00000000E+00  0.00000000E+00  0.00000000E+00
  0.00000000E+00  0.00000000E+00  0.00000000E+00
  0.00000000E+00  0.00000000E+00  0.00000000E+00
  0.00000000E+00  0.00000000E+00  0.00000000E+00
  0.00000000E+00  0.00000000E+00  0.00000000E+00
  0.00000000E+00  0.00000000E+00  0.00000000E+00
  0.00000000E+00  0.00000000E+00  0.00000000E+00
  0.00000000E+00  0.00000000E+00  0.00000000E+00
  0.00000000E+00  0.00000000E+00  0.00000000E+00
  0.00000000E+00  0.00000000E+00  0.00000000E+00
  0.00000000E+00  0.00000000E+00  0.00000000E+00
  0.00000000E+00  0.00000000E+00  0.00000000E+00
  0.00000000E+00  0.00000000E+00  0.00000000E+00
  0.00000000E+00  0.00000000E+00  0.00000000E+00
  0.00000000E+00  0.00000000E+00  0.00000000E+00
  0.00000000E+00  0.00000000E+00  0.00000000E+00
  0.00000000E+00  0.00000000E+00  0.00000000E+00
  0.00000000E+00  0.00000000E+00  0.00000000E+00
  0.00000000E+00  0.00000000E+00  0.00000000E+00
  0.00000000E+00  0.00000000E+00  0.00000000E+00
  0.00000000E+00  0.00000000E+00  0.00000000E+00
  0.00000000E+00  0.00000000E+00  0.00000000E+00
  0.00000000E+00  0.00000000E+00  0.00000000E+00
  0.00000000E+00  0.00000000E+00  0.00000000E+00
  0.00000000E+00  0.00000000E+00  0.00000000E+00
  0.00000000E+00  0.00000000E+00  0.00000000E+00
  0.00000000E+00  0.00000000E+00  0.00000000E+00
  0.00000000E+00  0.00000000E+00  0.00000000E+00
  0.00000000E+00  0.00000000E+00  0.00000000E+00
  0.00000000E+00  0.00000000E+00  0.00000000E+00
  0.00000000E+00  0.00000000E+00  0.00000000E+00
  0.00000000E+00  0.00000000E+00  0.00000000E+00
  0.00000000E+00  0.00000000E+00  0.00000000E+00
  0.00000000E+00  0.00000000E+00  0.00000000E+00
  0.00000000E+00  0.00000000E+00  0.00000000E+00
  0.00000000E+00  0.00000000E+00  0.00000000E+00
  0.00000000E+00  0.00000000E+00  0.00000000E+00
  0.00000000E+00  0.00000000E+00  0.00000000E+00
  0.00000000E+00  0.00000000E+00  0.00000000E+00
  0.00000000E+00  0.00000000E+00  0.00000000E+00
  0.00000000E+00  0.00000000E+00  0.00000000E+00
  0.00000000E+00  0.00000000E+00  0.00000000E+00
  0.00000000E+00  0.00000000E+00  0.00000000E+00
  0.00000000E+00  0.00000000E+00  0.00000000E+00
  0.00000000E+00  0.00000000E+00  0.00000000E+00
  0.00000000E+00  0.00000000E+00  0.00000000E+00
  0.00000000E+00  0.00000000E+00  0.00000000E+00
  0.00000000E+00  0.00000000E+00  0.00000000E+00
  0.00000000E+00  0.00000000E+00  0.00000000E+00
  0.00000000E+00  0.00000000E+00  0.00000000E+00
  0.00000000E+00  0.00000000E+00  0.00000000E+00
  0.00000000E+00  0.00000000E+00  0.00000000E+00
