CONTCAR\(3)                             
   1.00000000000000     
    12.4035997391000006    0.0000000000000000    0.0000000000000000
     6.2017683962000003   10.7417350166999999    0.0000000000000000
     0.0000000000000000    0.0000000000000000   17.7593994140999989
   Fe   Br   O    H 
     8    24     2     1
Direct
 -0.0001897337346519  0.0001417718047817  0.4967762708045466
  0.1665458190605062  0.1666625774641222  0.4963140767579768
  0.4999151624498378 -0.0002927552532806  0.4966120299742045
  0.6676214562323574  0.1657003794962996  0.4973207026325229
 -0.0001839022745551  0.5001315836521163  0.4960514877086693
  0.1665210935478326  0.6670813272089633  0.4962706081732247
  0.4996844348901170  0.5013157965743275  0.4965727966023310
  0.6665563887453902  0.6664004006893816  0.4960980125153487
  0.0135810665655102  0.1529351312038937  0.4189091356236605
  0.1528266457525943  0.3331229098959108  0.4186479160517184
  0.3332102627490525  0.0139282815225107  0.4188058027530064
  0.1528494048017998  0.0140141851172752  0.5742619204469294
  0.0136519179759834  0.3334508281730746  0.5738259301465529
  0.3331086278112918  0.1524721219128884  0.5742646124642539
  0.5141952115780989  0.1527473105201839  0.4194181144492225
  0.6524695246789433  0.3329268031419173  0.4197956009867227
  0.8329342729305265  0.0142559932043306  0.4194951798117317
  0.6531972086972410  0.0129063787074720  0.5745952141128940
  0.5098709941294436  0.3341459583356621  0.5746197986416843
  0.8330223231379612  0.1529077774485597  0.5750057520584179
  0.0138295747178788  0.6529101877412511  0.4184256275526536
  0.1523847731559808  0.8337702898268997  0.4187622501710037
  0.3330297076375258  0.5141905856150990  0.4187093552241388
  0.1522750041137590  0.5144148230607845  0.5740185491426812
  0.0139797634780640  0.8332605338314800  0.5742511362320895
  0.3325645458711108  0.6535125932347814  0.5738926805419964
  0.5138935746854415  0.6526081885305697  0.4185540839542961
  0.6526643286288424  0.8332855258730825  0.4185587640244623
  0.8331908082609208  0.5139351112814818  0.4183422492835809
  0.6525077740294156  0.5143580813635770  0.5738028962322164
  0.5137966995797300  0.8328911083162139  0.5739537881672307
  0.8331131776110057  0.6527938550863054  0.5737773650320721
  0.4914530228203010  0.5491199883122166  0.7409504328324149
  0.5155121671921157  0.4322446119594860  0.7525751737882742
  0.5228068044926399  0.3960902021463836  0.7009747241052803
 
  0.00000000E+00  0.00000000E+00  0.00000000E+00
  0.00000000E+00  0.00000000E+00  0.00000000E+00
  0.00000000E+00  0.00000000E+00  0.00000000E+00
  0.00000000E+00  0.00000000E+00  0.00000000E+00
  0.00000000E+00  0.00000000E+00  0.00000000E+00
  0.00000000E+00  0.00000000E+00  0.00000000E+00
  0.00000000E+00  0.00000000E+00  0.00000000E+00
  0.00000000E+00  0.00000000E+00  0.00000000E+00
  0.00000000E+00  0.00000000E+00  0.00000000E+00
  0.00000000E+00  0.00000000E+00  0.00000000E+00
  0.00000000E+00  0.00000000E+00  0.00000000E+00
  0.00000000E+00  0.00000000E+00  0.00000000E+00
  0.00000000E+00  0.00000000E+00  0.00000000E+00
  0.00000000E+00  0.00000000E+00  0.00000000E+00
  0.00000000E+00  0.00000000E+00  0.00000000E+00
  0.00000000E+00  0.00000000E+00  0.00000000E+00
  0.00000000E+00  0.00000000E+00  0.00000000E+00
  0.00000000E+00  0.00000000E+00  0.00000000E+00
  0.00000000E+00  0.00000000E+00  0.00000000E+00
  0.00000000E+00  0.00000000E+00  0.00000000E+00
  0.00000000E+00  0.00000000E+00  0.00000000E+00
  0.00000000E+00  0.00000000E+00  0.00000000E+00
  0.00000000E+00  0.00000000E+00  0.00000000E+00
  0.00000000E+00  0.00000000E+00  0.00000000E+00
  0.00000000E+00  0.00000000E+00  0.00000000E+00
  0.00000000E+00  0.00000000E+00  0.00000000E+00
  0.00000000E+00  0.00000000E+00  0.00000000E+00
  0.00000000E+00  0.00000000E+00  0.00000000E+00
  0.00000000E+00  0.00000000E+00  0.00000000E+00
  0.00000000E+00  0.00000000E+00  0.00000000E+00
  0.00000000E+00  0.00000000E+00  0.00000000E+00
  0.00000000E+00  0.00000000E+00  0.00000000E+00
  0.00000000E+00  0.00000000E+00  0.00000000E+00
  0.00000000E+00  0.00000000E+00  0.00000000E+00
  0.00000000E+00  0.00000000E+00  0.00000000E+00
