CONTCAR\(6)                             
   1.00000000000000     
    11.2666997910000006    0.0000000000000000    0.0000000000000000
     0.0000000000000000   10.8214998245000000    0.0000000000000000
     0.0000000000000000    0.0000000000000000   21.2649002074999984
   Zr   Se   O    H 
    12    36     1     1
Direct
  0.0921051897329234  0.3619092865076850  0.4341485734755544
  0.2600168021569168  0.1049484975760906  0.5741624162558578
  0.4231307067181893  0.3600604990113936  0.4321294058178852
  0.5899217297852392  0.1058964995699666  0.5735131487273502
  0.7574173401327918  0.3615132991517366  0.4320647459637042
  0.9249632576139524  0.1112673054926605  0.5726545834977399
  0.0925344526189062  0.8602626277051413  0.4315678506434229
  0.2725721197989376  0.6119083319677475  0.5828494460141801
  0.4245098585988091  0.8606220252438964  0.4310006683131995
  0.5849536778480896  0.6153517316216454  0.5703545204950298
  0.7591224918759321  0.8626692288048123  0.4286076777554614
  0.9229705160241355  0.6152197728736615  0.5696526515816376
  0.2560650712669234  0.2540798349408081  0.3535806908468066
  0.0931002278607294  0.2187258447468081  0.6502071840718326
  0.2566182285184602  0.4743517813956851  0.3585394979746416
  0.0897939039016383 -0.0016337373545604  0.6498230120330075
  0.2597210730157634  0.3600238334083417  0.5289060488631391
  0.0928413988176345  0.1112928849100224  0.4791887961449657
  0.5908846184229709  0.2468898196358629  0.3579102075476179
  0.4258235032480799  0.1986339432323731  0.6569362238708006
  0.5896953559033256  0.4670907390466310  0.3532025677604087
  0.4251723536970970 -0.0217060890554227  0.6429424151137145
  0.5896687765464407  0.3601560383347502  0.5268183812430041
  0.4242231034362282  0.1100756235924251  0.4785224971968354
  0.9249876789521336  0.2501519209250305  0.3576946357166351
  0.7567113176291570  0.2208195652959831  0.6489313407415072
  0.9261531711231569  0.4705356608360434  0.3557075619336316
  0.7602409320614547  0.0005854257949119  0.6504757944516295
  0.9232550853520652  0.3626097000219313  0.5270625284860776
  0.7580545469577866  0.1118145523588732  0.4783349622154931
  0.2584669287059495  0.7545774342373710  0.3513673239219513
  0.0851794969635039  0.7218219299657337  0.6516893670015840
  0.2584245198488428  0.9748204375570355  0.3569066353126169
  0.0790951966970474  0.5017002416701346  0.6491871989367708
  0.2568282432623189  0.8574329878990833  0.5253057949536022
  0.0978444485814271  0.6111758190847272  0.4819050586606999
  0.5911714133293473  0.7479661164172792  0.3551162198603995
  0.3268525322668284  0.5678213844566803  0.7115597600973189
  0.5900657077150078  0.9682105322908696  0.3502990976303064
  0.4516351096476872  0.4580065972415074  0.6452253371072864
  0.5961934232380639  0.8632957766324368  0.5219438017560395
  0.4205560149476026  0.6086052124753543  0.4768237439896693
  0.9271597309577941  0.7492027908005787  0.3546342180602109
  0.7461897592884160  0.7245526041436741  0.6487927205279459
  0.9280480740146786  0.9702753141289266  0.3521873891840783
  0.7585588729350871  0.5054788755391096  0.6472011093713270
  0.9239643991818997  0.8630303828268056  0.5245682845143237
  0.7544116228554613  0.6124516268631993  0.4765427901908743
  0.4360369102995807  0.7183699859149979  0.6090605017682045
  0.4339085156475536  0.7199572002615170  0.6554336244019946
 
  0.00000000E+00  0.00000000E+00  0.00000000E+00
  0.00000000E+00  0.00000000E+00  0.00000000E+00
  0.00000000E+00  0.00000000E+00  0.00000000E+00
  0.00000000E+00  0.00000000E+00  0.00000000E+00
  0.00000000E+00  0.00000000E+00  0.00000000E+00
  0.00000000E+00  0.00000000E+00  0.00000000E+00
  0.00000000E+00  0.00000000E+00  0.00000000E+00
  0.00000000E+00  0.00000000E+00  0.00000000E+00
  0.00000000E+00  0.00000000E+00  0.00000000E+00
  0.00000000E+00  0.00000000E+00  0.00000000E+00
  0.00000000E+00  0.00000000E+00  0.00000000E+00
  0.00000000E+00  0.00000000E+00  0.00000000E+00
  0.00000000E+00  0.00000000E+00  0.00000000E+00
  0.00000000E+00  0.00000000E+00  0.00000000E+00
  0.00000000E+00  0.00000000E+00  0.00000000E+00
  0.00000000E+00  0.00000000E+00  0.00000000E+00
  0.00000000E+00  0.00000000E+00  0.00000000E+00
  0.00000000E+00  0.00000000E+00  0.00000000E+00
  0.00000000E+00  0.00000000E+00  0.00000000E+00
  0.00000000E+00  0.00000000E+00  0.00000000E+00
  0.00000000E+00  0.00000000E+00  0.00000000E+00
  0.00000000E+00  0.00000000E+00  0.00000000E+00
  0.00000000E+00  0.00000000E+00  0.00000000E+00
  0.00000000E+00  0.00000000E+00  0.00000000E+00
  0.00000000E+00  0.00000000E+00  0.00000000E+00
  0.00000000E+00  0.00000000E+00  0.00000000E+00
  0.00000000E+00  0.00000000E+00  0.00000000E+00
  0.00000000E+00  0.00000000E+00  0.00000000E+00
  0.00000000E+00  0.00000000E+00  0.00000000E+00
  0.00000000E+00  0.00000000E+00  0.00000000E+00
  0.00000000E+00  0.00000000E+00  0.00000000E+00
  0.00000000E+00  0.00000000E+00  0.00000000E+00
  0.00000000E+00  0.00000000E+00  0.00000000E+00
  0.00000000E+00  0.00000000E+00  0.00000000E+00
  0.00000000E+00  0.00000000E+00  0.00000000E+00
  0.00000000E+00  0.00000000E+00  0.00000000E+00
  0.00000000E+00  0.00000000E+00  0.00000000E+00
  0.00000000E+00  0.00000000E+00  0.00000000E+00
  0.00000000E+00  0.00000000E+00  0.00000000E+00
  0.00000000E+00  0.00000000E+00  0.00000000E+00
  0.00000000E+00  0.00000000E+00  0.00000000E+00
  0.00000000E+00  0.00000000E+00  0.00000000E+00
  0.00000000E+00  0.00000000E+00  0.00000000E+00
  0.00000000E+00  0.00000000E+00  0.00000000E+00
  0.00000000E+00  0.00000000E+00  0.00000000E+00
  0.00000000E+00  0.00000000E+00  0.00000000E+00
  0.00000000E+00  0.00000000E+00  0.00000000E+00
  0.00000000E+00  0.00000000E+00  0.00000000E+00
  0.00000000E+00  0.00000000E+00  0.00000000E+00
  0.00000000E+00  0.00000000E+00  0.00000000E+00
