CONTCAR\(7)                             
   1.00000000000000     
    12.5420999526999992    0.0000000000000000    0.0000000000000000
     0.0000000000000000   15.8683996200999999    0.0000000000000000
     0.0000000000000000    0.0000000000000000   20.3181991577000005
   La   Br   O 
    12    30     1
Direct
  0.2499230440080417  0.8421837513199797  0.4600655870240404
  0.0878148684217732  0.1276955670177767  0.4837098022793352
  0.2499988205209209  0.3920852237871562  0.6529795849846817
  0.0824641377869518  0.6181778299405725  0.5291602681334125
  0.5816714858051155  0.8409770513249104  0.4676533105413590
  0.4122495496266455  0.1277294257056921  0.4834274753721128
  0.5932135791971588  0.3561048313646571  0.4722925562935784
  0.4175678947501293  0.6181671076202618  0.5290158749738429
  0.9182493525568240  0.8409316072881554  0.4679019605571884
  0.7499569281123654  0.1168528767219905  0.5090567197577559
  0.9066540614625245  0.3560100610028103  0.4723863346816481
  0.7500242242859577  0.6251002738074749  0.5281549187854397
  0.2501215913325790  0.6039490363636417  0.6361276907276751
  0.1121565633562331  0.3060557948630691  0.4298205664700733
  0.2500886248799208  0.0011970990900808  0.5448182004387822
  0.0735806167367909  0.9546542659570445  0.3988671599523350
  0.0400827719865341  0.4370500801642924  0.5807663600719329
  0.2499575977444017  0.5298626755057465  0.4528179888648372
  0.0836548349979645  0.7266549542624329  0.4002182969479794
  0.2503683771295451  0.2115230414538322  0.5751323989177008
  0.0906697883915557  0.8051455500819859  0.5690556005785444
  0.2497246287925412  0.1242123215070865  0.3793334387735830
  0.5877014794587129  0.6308492382626401  0.6311779969440803
  0.3879967964077466  0.3060355238708982  0.4295682806567562
  0.5682778050924094  0.0028786717333634  0.5553207059739687
  0.4260305136281029  0.9546698202971953  0.3985966497460549
  0.4596967665860612  0.4369266134579309  0.5805054434177815
  0.5822362914684759  0.5424126641739101  0.4352347757681352
  0.4162901541856477  0.7266209021972407  0.4001584024330208
  0.5764597143775138  0.2209156799569302  0.5776907872833204
  0.4093570780175470  0.8050443562550661  0.5689219244882473
  0.6035434649276513  0.1656105588892875  0.4007187086149022
  0.9122283841474195  0.6310439725858746  0.6312887785106071
  0.7500936418511058  0.3715985363788417  0.3651111300002015
  0.9315074129095463  0.0029718899242763  0.5556332689613840
  0.7500306907271306  0.9606455785940791  0.4106228157037082
  0.7500056593840458  0.4318127426895809  0.5681657445845195
  0.9178877054743521  0.5423331331400132  0.4353808818591661
  0.7501430097104054  0.7322046949527276  0.4001637923036901
  0.9235187480257919  0.2209353931254072  0.5778929346788042
  0.7498299632384011  0.8126367111114885  0.5712352651962791
  0.8966658702613964  0.1655560481282292  0.4008262736961996
  0.2500658932380707  0.3599865991243738  0.7404335590513113
 
  0.00000000E+00  0.00000000E+00  0.00000000E+00
  0.00000000E+00  0.00000000E+00  0.00000000E+00
  0.00000000E+00  0.00000000E+00  0.00000000E+00
  0.00000000E+00  0.00000000E+00  0.00000000E+00
  0.00000000E+00  0.00000000E+00  0.00000000E+00
  0.00000000E+00  0.00000000E+00  0.00000000E+00
  0.00000000E+00  0.00000000E+00  0.00000000E+00
  0.00000000E+00  0.00000000E+00  0.00000000E+00
  0.00000000E+00  0.00000000E+00  0.00000000E+00
  0.00000000E+00  0.00000000E+00  0.00000000E+00
  0.00000000E+00  0.00000000E+00  0.00000000E+00
  0.00000000E+00  0.00000000E+00  0.00000000E+00
  0.00000000E+00  0.00000000E+00  0.00000000E+00
  0.00000000E+00  0.00000000E+00  0.00000000E+00
  0.00000000E+00  0.00000000E+00  0.00000000E+00
  0.00000000E+00  0.00000000E+00  0.00000000E+00
  0.00000000E+00  0.00000000E+00  0.00000000E+00
  0.00000000E+00  0.00000000E+00  0.00000000E+00
  0.00000000E+00  0.00000000E+00  0.00000000E+00
  0.00000000E+00  0.00000000E+00  0.00000000E+00
  0.00000000E+00  0.00000000E+00  0.00000000E+00
  0.00000000E+00  0.00000000E+00  0.00000000E+00
  0.00000000E+00  0.00000000E+00  0.00000000E+00
  0.00000000E+00  0.00000000E+00  0.00000000E+00
  0.00000000E+00  0.00000000E+00  0.00000000E+00
  0.00000000E+00  0.00000000E+00  0.00000000E+00
  0.00000000E+00  0.00000000E+00  0.00000000E+00
  0.00000000E+00  0.00000000E+00  0.00000000E+00
  0.00000000E+00  0.00000000E+00  0.00000000E+00
  0.00000000E+00  0.00000000E+00  0.00000000E+00
  0.00000000E+00  0.00000000E+00  0.00000000E+00
  0.00000000E+00  0.00000000E+00  0.00000000E+00
  0.00000000E+00  0.00000000E+00  0.00000000E+00
  0.00000000E+00  0.00000000E+00  0.00000000E+00
  0.00000000E+00  0.00000000E+00  0.00000000E+00
  0.00000000E+00  0.00000000E+00  0.00000000E+00
  0.00000000E+00  0.00000000E+00  0.00000000E+00
  0.00000000E+00  0.00000000E+00  0.00000000E+00
  0.00000000E+00  0.00000000E+00  0.00000000E+00
  0.00000000E+00  0.00000000E+00  0.00000000E+00
  0.00000000E+00  0.00000000E+00  0.00000000E+00
  0.00000000E+00  0.00000000E+00  0.00000000E+00
  0.00000000E+00  0.00000000E+00  0.00000000E+00
