CONTCAR\(2)                             
   1.00000000000000     
    14.4230003356999994    0.0000000000000000    0.0000000000000000
     0.0000000000000000   16.5291004181000005    0.0000000000000000
     0.0000000000000000    0.0000000000000000   17.8572998046999984
   Cu   Te   O 
    16    16    49
Selective dynamics
Direct
  0.3417764261540412  0.2666539413433711  0.5307766012816515   F   F   F
  0.8399910998843652  0.2656340921485949  0.5303025375502912   F   F   F
  0.3374595680296792  0.7681611026347994  0.5300906159987804   F   F   F
  0.8392947436623288  0.7666606740823880  0.5305736240627965   F   F   F
  0.0940365531271183  0.4844918815427803  0.5311265874609532   F   F   F
  0.5915813010650410  0.4819836865025167  0.5292963479367501   F   F   F
  0.0908837726003782  0.9836742964546445  0.5305078958263323   F   F   F
  0.5901934403496512  0.9839258931279957  0.5305390545897311   F   F   F
  0.1591928111387730  0.2335588814383769  0.4690432546620755   F   F   F
  0.6605678495800902  0.2334123956450682  0.4696507285788911   F   F   F
  0.1582919513055288  0.7367510338814753  0.4688275608104462   F   F   F
  0.6586874776264153  0.7343744800021597  0.4722002846406781   F   F   F
  0.4100625082644811  0.0156233501166909  0.4699995803736456   F   F   F
  0.9074014107471484  0.0163323016989096  0.4692852950941528   F   F   F
  0.4103105370527871  0.5120535242816118  0.4714413982066006   F   F   F
  0.9093492696942391  0.5163522349995802  0.4707642209952567   F   F   F
  0.2814249689841688  0.1035405773113354  0.5912973560014834   F   F   F
  0.7806046403065494  0.1029207818128270  0.5918687749341771   F   F   F
  0.2796089845093803  0.6072652744516915  0.5920796435842419   F   F   F
  0.7807656498206725  0.6037453205739283  0.5925270790213872   F   F   F
  0.2198184763275108  0.3962605237674452  0.4085410527580606   F   F   F
  0.7201638556610277  0.3962287972642784  0.4082979752821956   F   F   F
  0.2190078521841343  0.8988372058765037  0.4077510184576880   F   F   F
  0.7180608750058539  0.8964654124693752  0.4087134200199785   F   F   F
  0.4701329052935321  0.3515288161480683  0.4076858637724925   F   F   F
  0.9695118419945885  0.3534926817610824  0.4094597438790544   F   F   F
  0.4684824666029286  0.8524103311807139  0.4093829886720002   F   F   F
  0.9680929750712934  0.8535940191293747  0.4083865620794995   F   F   F
  0.0310117620865995  0.1469280159196558  0.5910800882795186   F   F   F
  0.5313203002740323  0.1469372316195532  0.5914822694749731   F   F   F
  0.0308836317160655  0.6489361937231806  0.5909843077332511   F   F   F
  0.5292102961293139  0.6420748239891623  0.5929212360154565   F   F   F
  0.3032823741223538  0.0775489176963404  0.4903876928729360   F   F   F
  0.8009187953132297  0.0779937660102661  0.4905373815902863   F   F   F
  0.3023452235784774  0.5717060896040493  0.4939470220885624   F   F   F
  0.8023828800851120  0.5780868385022018  0.4916383319395479   F   F   F
  0.2716238453545259  0.2907078450848104  0.4355902055078360   F   F   F
  0.7726537608508792  0.2906150262672185  0.4340884429344740   F   F   F
  0.2708255344374493  0.7926519126928326  0.4329724088300537   F   F   F
  0.7708509017254457  0.7910317012288957  0.4351851701471716   F   F   F
  0.3987167579498490  0.1875675290717069  0.5970687690856167   F   F   F
  0.8987132660145178  0.1873138002613715  0.5961377115847597   F   F   F
  0.3934469038948691  0.6834829039049950  0.5911044291712599   F   F   F
  0.8985006882606896  0.6881097584112155  0.5963881245569667   F   F   F
  0.4782910978658350  0.0413160975183402  0.5655113659921156   F   F   F
  0.9789359266386981  0.0414137128399048  0.5637834815935889   F   F   F
  0.4800159387368694  0.5372716811729390  0.5636823687912695   F   F   F
  0.9817199021877414  0.5425487984827129  0.5643358077075291   F   F   F
  0.3522116604061409  0.4368095621780483  0.4027988131513212   F   F   F
  0.8520862628879087  0.4383188134285234  0.4034871941930120   F   F   F
  0.3509930414595885  0.9386198464598081  0.4024117404746264   F   F   F
  0.8495213988380428  0.9383766082859495  0.4021095014278728   F   F   F
  0.1487318704752454  0.0626099504237629  0.5959041839923884   F   F   F
  0.6485234362604970  0.0618416912186959  0.5975349390197380   F   F   F
  0.1514045282005583  0.5655875713474572  0.5958416515976452   F   F   F
  0.6479523014453150  0.5622858973182829  0.5961295912112305   F   F   F
  0.4489951791618978  0.3273837716737447  0.5090908263738427   F   F   F
  0.9470241409260751  0.3276836612019522  0.5103009501711213   F   F   F
  0.4454112098010867  0.8289059941747752  0.5107329799180889   F   F   F
  0.9463013687720334  0.8281972339643815  0.5095261080582247   F   F   F
  0.1981845381633889  0.4207175901550499  0.5097482760154648   F   F   F
  0.6989466659601931  0.4209053082532748  0.5095707856207525   F   F   F
  0.1974738840439869  0.9218283887920578  0.5094250374437337   F   F   F
  0.6969703063621111  0.9216873463970998  0.5099116247871223   F   F   F
  0.0217891498925624  0.4587022254863697  0.4375827272228534   F   F   F
  0.5230600474816356  0.4571412914587398  0.4332275834361994   F   F   F
  0.0198781261107683  0.9589480889192785  0.4361812715046298   F   F   F
  0.5218280220965923  0.9579370551473971  0.4350110844516308   F   F   F
  0.2292806118215154  0.2087010883889562  0.5636350231290947   F   F   F
  0.7280330512999953  0.2086796322785602  0.5658418789693016   F   F   F
  0.2253239247069345  0.7129363386732024  0.5658355471856069   F   F   F
  0.7280105280027556  0.7091593294263774  0.5670315099591932   F   F   F
  0.0522013383153421  0.1725116534403597  0.4899634608483865   F   F   F
  0.5533709146945753  0.1714776028810903  0.4902472635134387   F   F   F
  0.0519373568524699  0.6742906243994966  0.4898584571401656   F   F   F
  0.5516917171961353  0.6725465656827581  0.4933853346329187   F   F   F
  0.1013107094622967  0.3120531296256672  0.4030172478485454   F   F   F
  0.6021109276383143  0.3110147589440473  0.4027234828777964   F   F   F
  0.1001313286417513  0.8136649696264229  0.4014433166334825   F   F   F
  0.5998628245472162  0.8108957554585174  0.4045187847457754   F   F   F
  0.3151416658088237  0.5638542562409583  0.6798582693990693   T   T   T
 
  0.00000000E+00  0.00000000E+00  0.00000000E+00
  0.00000000E+00  0.00000000E+00  0.00000000E+00
  0.00000000E+00  0.00000000E+00  0.00000000E+00
  0.00000000E+00  0.00000000E+00  0.00000000E+00
  0.00000000E+00  0.00000000E+00  0.00000000E+00
  0.00000000E+00  0.00000000E+00  0.00000000E+00
  0.00000000E+00  0.00000000E+00  0.00000000E+00
  0.00000000E+00  0.00000000E+00  0.00000000E+00
  0.00000000E+00  0.00000000E+00  0.00000000E+00
  0.00000000E+00  0.00000000E+00  0.00000000E+00
  0.00000000E+00  0.00000000E+00  0.00000000E+00
  0.00000000E+00  0.00000000E+00  0.00000000E+00
  0.00000000E+00  0.00000000E+00  0.00000000E+00
  0.00000000E+00  0.00000000E+00  0.00000000E+00
  0.00000000E+00  0.00000000E+00  0.00000000E+00
  0.00000000E+00  0.00000000E+00  0.00000000E+00
  0.00000000E+00  0.00000000E+00  0.00000000E+00
  0.00000000E+00  0.00000000E+00  0.00000000E+00
  0.00000000E+00  0.00000000E+00  0.00000000E+00
  0.00000000E+00  0.00000000E+00  0.00000000E+00
  0.00000000E+00  0.00000000E+00  0.00000000E+00
  0.00000000E+00  0.00000000E+00  0.00000000E+00
  0.00000000E+00  0.00000000E+00  0.00000000E+00
  0.00000000E+00  0.00000000E+00  0.00000000E+00
  0.00000000E+00  0.00000000E+00  0.00000000E+00
  0.00000000E+00  0.00000000E+00  0.00000000E+00
  0.00000000E+00  0.00000000E+00  0.00000000E+00
  0.00000000E+00  0.00000000E+00  0.00000000E+00
  0.00000000E+00  0.00000000E+00  0.00000000E+00
  0.00000000E+00  0.00000000E+00  0.00000000E+00
  0.00000000E+00  0.00000000E+00  0.00000000E+00
  0.00000000E+00  0.00000000E+00  0.00000000E+00
  0.00000000E+00  0.00000000E+00  0.00000000E+00
  0.00000000E+00  0.00000000E+00  0.00000000E+00
  0.00000000E+00  0.00000000E+00  0.00000000E+00
  0.00000000E+00  0.00000000E+00  0.00000000E+00
  0.00000000E+00  0.00000000E+00  0.00000000E+00
  0.00000000E+00  0.00000000E+00  0.00000000E+00
  0.00000000E+00  0.00000000E+00  0.00000000E+00
  0.00000000E+00  0.00000000E+00  0.00000000E+00
  0.00000000E+00  0.00000000E+00  0.00000000E+00
  0.00000000E+00  0.00000000E+00  0.00000000E+00
  0.00000000E+00  0.00000000E+00  0.00000000E+00
  0.00000000E+00  0.00000000E+00  0.00000000E+00
  0.00000000E+00  0.00000000E+00  0.00000000E+00
  0.00000000E+00  0.00000000E+00  0.00000000E+00
  0.00000000E+00  0.00000000E+00  0.00000000E+00
  0.00000000E+00  0.00000000E+00  0.00000000E+00
  0.00000000E+00  0.00000000E+00  0.00000000E+00
  0.00000000E+00  0.00000000E+00  0.00000000E+00
  0.00000000E+00  0.00000000E+00  0.00000000E+00
  0.00000000E+00  0.00000000E+00  0.00000000E+00
  0.00000000E+00  0.00000000E+00  0.00000000E+00
  0.00000000E+00  0.00000000E+00  0.00000000E+00
  0.00000000E+00  0.00000000E+00  0.00000000E+00
  0.00000000E+00  0.00000000E+00  0.00000000E+00
  0.00000000E+00  0.00000000E+00  0.00000000E+00
  0.00000000E+00  0.00000000E+00  0.00000000E+00
  0.00000000E+00  0.00000000E+00  0.00000000E+00
  0.00000000E+00  0.00000000E+00  0.00000000E+00
  0.00000000E+00  0.00000000E+00  0.00000000E+00
  0.00000000E+00  0.00000000E+00  0.00000000E+00
  0.00000000E+00  0.00000000E+00  0.00000000E+00
  0.00000000E+00  0.00000000E+00  0.00000000E+00
  0.00000000E+00  0.00000000E+00  0.00000000E+00
  0.00000000E+00  0.00000000E+00  0.00000000E+00
  0.00000000E+00  0.00000000E+00  0.00000000E+00
  0.00000000E+00  0.00000000E+00  0.00000000E+00
  0.00000000E+00  0.00000000E+00  0.00000000E+00
  0.00000000E+00  0.00000000E+00  0.00000000E+00
  0.00000000E+00  0.00000000E+00  0.00000000E+00
  0.00000000E+00  0.00000000E+00  0.00000000E+00
  0.00000000E+00  0.00000000E+00  0.00000000E+00
  0.00000000E+00  0.00000000E+00  0.00000000E+00
  0.00000000E+00  0.00000000E+00  0.00000000E+00
  0.00000000E+00  0.00000000E+00  0.00000000E+00
  0.00000000E+00  0.00000000E+00  0.00000000E+00
  0.00000000E+00  0.00000000E+00  0.00000000E+00
  0.00000000E+00  0.00000000E+00  0.00000000E+00
  0.00000000E+00  0.00000000E+00  0.00000000E+00
  0.00000000E+00  0.00000000E+00  0.00000000E+00
