CONTCAR\(13)                            
   1.00000000000000     
    10.2920999526999992    0.0000000000000000    0.0000000000000000
     1.7153529658000000    9.6351993213000000    0.0000000000000000
     0.0000000000000000    0.0000000000000000   19.1306991577000005
   Nb   Te   O 
     9    18     1
Direct
  0.0014163185599330  0.9947505672652781  0.5014662214251473
  0.1205240982139557  0.2798477592888418  0.4959585798097947
  0.2160107267924829  0.7084835795568623  0.5075455554370976
  0.3342964011828968  0.9954974433575217  0.5013916920272834
  0.4503440238796799  0.2763496493823112  0.4940695393940757
  0.5477701174437399  0.7163190650997109  0.5074836890915080
  0.6673984374361055  0.9944641628522888  0.5015157340780974
  0.7914736255577495  0.2752425233681421  0.4941604860419275
  0.8811919853725954  0.7079869956388620  0.5075255594102046
  0.1488022125124076  0.1060267531869243  0.6067577268659647
  0.1864558361744173  0.8820991978291275  0.3967138296111798
  0.2613540332344542  0.4424420783619141  0.5823895571260991
  0.0762602049885572  0.5443193189345195  0.4209182179256459
  0.0356137201619049  0.7851023670427324  0.6119518074049637
  0.2975641361285639  0.2015612585025863  0.3896584339356934
  0.4822137520850731  0.1094239287610677  0.6068887140312000
  0.5191795749604466  0.8854581938507238  0.3956400023670170
  0.5923387303462704  0.4477413483012640  0.5727493269624233
  0.4110746273559229  0.5442924411217334  0.4216101009716837
  0.3687823910793924  0.7882428963581987  0.6125091381032206
  0.6334292066918081  0.2008513599334023  0.3902092875921923
  0.8157698289091542  0.1076723855630064  0.6069321997983153
  0.8534174726244714  0.8818719979802836  0.3968576025434913
  0.9248591098376835  0.4418700993698366  0.5824337998739395
  0.7416320637571516  0.5432489922709536  0.4216617840352654
  0.7025918113662968  0.7882075328388254  0.6126861119495288
  0.9688362523219851  0.2009272848807200  0.3897658927210514
  0.5985593530249247  0.4089690411023241  0.6680194034659905
 
  0.00000000E+00  0.00000000E+00  0.00000000E+00
  0.00000000E+00  0.00000000E+00  0.00000000E+00
  0.00000000E+00  0.00000000E+00  0.00000000E+00
  0.00000000E+00  0.00000000E+00  0.00000000E+00
  0.00000000E+00  0.00000000E+00  0.00000000E+00
  0.00000000E+00  0.00000000E+00  0.00000000E+00
  0.00000000E+00  0.00000000E+00  0.00000000E+00
  0.00000000E+00  0.00000000E+00  0.00000000E+00
  0.00000000E+00  0.00000000E+00  0.00000000E+00
  0.00000000E+00  0.00000000E+00  0.00000000E+00
  0.00000000E+00  0.00000000E+00  0.00000000E+00
  0.00000000E+00  0.00000000E+00  0.00000000E+00
  0.00000000E+00  0.00000000E+00  0.00000000E+00
  0.00000000E+00  0.00000000E+00  0.00000000E+00
  0.00000000E+00  0.00000000E+00  0.00000000E+00
  0.00000000E+00  0.00000000E+00  0.00000000E+00
  0.00000000E+00  0.00000000E+00  0.00000000E+00
  0.00000000E+00  0.00000000E+00  0.00000000E+00
  0.00000000E+00  0.00000000E+00  0.00000000E+00
  0.00000000E+00  0.00000000E+00  0.00000000E+00
  0.00000000E+00  0.00000000E+00  0.00000000E+00
  0.00000000E+00  0.00000000E+00  0.00000000E+00
  0.00000000E+00  0.00000000E+00  0.00000000E+00
  0.00000000E+00  0.00000000E+00  0.00000000E+00
  0.00000000E+00  0.00000000E+00  0.00000000E+00
  0.00000000E+00  0.00000000E+00  0.00000000E+00
  0.00000000E+00  0.00000000E+00  0.00000000E+00
  0.00000000E+00  0.00000000E+00  0.00000000E+00
