CONTCAR\(2)                             
   1.00000000000000     
    11.2371997832999995    0.0000000000000000    0.0000000000000000
     0.0000000000000000   14.7250003814999992    0.0000000000000000
     0.0000000000000000    0.0000000000000000   22.6672992706000009
   Li   Cu   F    O    H 
    32    32    80     2     1
Direct
  0.1876244623006826  0.0670311336705605  0.5216417043934061
  0.1961818897340833  0.4277948260392042  0.6139670052796131
  0.0612511284566542  0.0753615016333119  0.3932816902074618
  0.0624469860195706  0.4305908010516870  0.4802959693176696
  0.4369170179692516  0.0674000834983951  0.5216357347457162
  0.4321778014353246  0.4291745675260502  0.6061697638445485
  0.3120665986128729  0.0740458390935182  0.3945606271227525
  0.3129397510946784  0.4318130605781711  0.4784575522222123
  0.6868201092706624  0.0697744296356203  0.5208503466568558
  0.6846653458464939  0.4260082282209997  0.6086492389775893
  0.5633908584481657  0.0755051405443652  0.3932502384593411
  0.5608119880699400  0.4329723120425471  0.4793828006040849
  0.9377479738917360  0.0698061492420261  0.5213256314063546
  0.9381711264384019  0.4227193434809235  0.6064008355791622
  0.8125249878211939  0.0766170079203472  0.3923800034499709
  0.8119947904587798  0.4300275938957773  0.4794931577534637
  0.1878496705410831  0.5662546143599638  0.5205236422643205
  0.1883093589189188  0.9207621811494497  0.6098958235012545
  0.0628102407272360  0.5755729075259760  0.3920426252028384
  0.0619092013410485  0.9298107446802792  0.4808505971519612
  0.4350614639637608  0.5736990367459659  0.5258797363432731
  0.4359260031949715  0.9184125525930020  0.6090631679540657
  0.3129074931718958  0.5768881016638124  0.3924307758262350
  0.3124762623667809  0.9272705204778322  0.4823744920614894
  0.6873931934884190  0.5687376285956903  0.5181224732473563
  0.6878102673243990  0.9228697253859951  0.6084979596035689
  0.5607693617200600  0.5775916559131399  0.3922496141021550
  0.5620370437028748  0.9300924537179276  0.4807804766492091
  0.9371460821229665  0.5687609762430984  0.5200404321784169
  0.9388780827381548  0.9224591355025582  0.6081881335243301
  0.8120282913433455  0.5756124221240585  0.3915760170657194
  0.8122135192939404  0.9315931128416828  0.4803739696858544
  0.0710882303123492  0.2509209250326678  0.5676947585603573
  0.0617931661614549  0.0829276722326210  0.6604185415271827
  0.1872963131401078  0.4166526570795439  0.3399912163131616
  0.1872243491520614  0.2492399723052668  0.4324982004587817
  0.3124825803747598  0.2502745237607024  0.5671332034130828
  0.3126624507925859  0.0822366884673140  0.6615749556326325
  0.4375593108755200  0.4170805887672964  0.3397688135163598
  0.4365570514240139  0.2495609870254828  0.4325830719207966
  0.5553340843317857  0.2510617557640759  0.5667976052633348
  0.5627781716287668  0.0822739283572556  0.6598601194464231
  0.6871414825309706  0.4172369871880088  0.3396662674947398
  0.6862899186526902  0.2502478522885168  0.4324358130102125
  0.8109197522726238  0.2504255572260729  0.5673725687615804
  0.8124783549587886  0.0829283256144424  0.6583298632766077
  0.9368451314761493  0.4163588295091706  0.3398237179796387
  0.9390804408606597  0.2496135558860965  0.4333893722131166
  0.0620528312804607  0.7486371666657455  0.5676891524514912
  0.0672907364776830  0.5771627117671607  0.6581836567681287
  0.1874938717784281  0.9164847330150758  0.3428720150989579
  0.1864112994379278  0.7483419258133386  0.4344528173947380
  0.3004496242111613  0.7398522639090139  0.5724271434156593
  0.3037874750836603  0.6013176674796268  0.7013501339585906
  0.4372875216512425  0.9164397491076632  0.3429389452093372
  0.4351586365084146  0.7484476710645237  0.4350239554947021
  0.5718685777209866  0.7502250495542196  0.5629903067688761
  0.5510261768759581  0.5899497950187054  0.6564809606602553
  0.6870236838713231  0.9165719487887972  0.3404159426300134
  0.6897626205297283  0.7495815291286928  0.4315047119767544
  0.8134828865486590  0.7497063117029874  0.5671054822487556
  0.8103158493588827  0.5827725614517436  0.6576824582172981
  0.9373856432137297  0.9163206909668653  0.3403678133375811
  0.9369411860732298  0.7492279079317178  0.4330883300331408
  0.0643282015324477  0.1587768326602405  0.5096112871742222
  0.0608118116693922  0.4946570638522513  0.5560101066971042
  0.0664201322518128  0.3452207657096973  0.6206333538153725
  0.1874454387730122  0.1638850378100004  0.6330912827797341
  0.1871021482379665 -0.0027907714190541  0.6810222323720747
  0.0620718912045290  0.5011502844654047  0.3194600588157392
  0.0621010758169896  0.3355996243934921  0.3697110672970811
  0.1874943374970883  0.1545842819210890  0.3800739574200185
  0.1876228411189159  0.0043185533393040  0.4454588485721292
  0.1871444981959165  0.3403274709357279  0.4904413849256651
  0.3120771747339084  0.1576499547525289  0.5096564461888896
  0.3108667893350244  0.4904549282138804  0.5533065858601004
  0.3142403290080200  0.3415170307299035  0.6218370443659936
  0.4375865043412810  0.1631629316942884  0.6318240056513248
  0.4376569949781274  0.9961943409380081  0.6799637732572522
  0.3121940743257598  0.5016910098039699  0.3200034281250007
  0.3125427047745866  0.3361157568329460  0.3703984095593474
  0.4368685865201651  0.1543612293872492  0.3805115508565120
  0.4366337148779338  0.0034380118180483  0.4455067688803868
  0.4376006031091489  0.3413169466140955  0.4901969453749761
  0.5606293415372435  0.1592835875656953  0.5084580559544559
  0.5635333611181036  0.4962082641191257  0.5540425923861445
  0.5591726917765838  0.3458511138417744  0.6191549444740569
  0.6871808873598994  0.1626418809207037  0.6268572414855187
  0.6878817094633183 -0.0016383738875045  0.6803222810270531
  0.5621024639671029  0.5025195951543490  0.3195905967299387
  0.5623322715087745  0.3350744804888700  0.3678964808153909
  0.6871702481424459  0.1568201230785110  0.3787173740942398
  0.6870123563397670  0.0065062748651270  0.4444811873612394
  0.6866376319927788  0.3399829357055785  0.4918239649458529
  0.8121796876999271  0.1600438668668933  0.5077558383564874
  0.8115989421489985  0.4939027523498780  0.5553081799129244
  0.8111492219712004  0.3440628247629089  0.6211675782474425
  0.9374863757565054  0.1624825478360976  0.6263247670820573
  0.9370796165400526  0.9982058731363956  0.6800031346178090
  0.8124768949436064  0.5015520439733305  0.3192122709789832
  0.8118569016112019  0.3368769765502466  0.3715273634665435
  0.9377442769981067  0.1570857296040839  0.3789588525505534
  0.9374918336404670  0.0067703611343440  0.4447021572406042
  0.9372787039115283  0.3392488403779405  0.4930986476611490
  0.0620579171201591  0.6597948612181624  0.5076417138697747
  0.0619486439037795  0.9920804692053390  0.5573439247744035
  0.0624175906636748  0.8402123077709284  0.6226433598928646
  0.2013597779470968  0.6505941618116852  0.6326923590995565
  0.1853967571152225  0.4964208542931101  0.6874455896045181
  0.0627825166551336  0.0008700499135947  0.3208048381245112
  0.0619230621426739  0.8368716104489436  0.3737243150626954
  0.1868474985175505  0.6574781147972347  0.3788525104386204
  0.1858977127615903  0.5056185777774282  0.4422471414927892
  0.1864396745273343  0.8385880701987074  0.4940340692154851
  0.3065554654004879  0.6603536708170776  0.5051576584186347
  0.3121916701293499  0.9909219947134841  0.5580743348674861
  0.3107752997465748  0.8377933335857078  0.6235707926030967
  0.4447259450332523  0.6605527745972780  0.6052846107171824
  0.4260176698129353  0.5058845897019156  0.6719789093234735
  0.3123286686144357  0.0004051036097197  0.3214243738966133
  0.3123815973303800  0.8372804441541839  0.3757820665166036
  0.4363909311320146  0.6593396213026764  0.3780027962838876
  0.4371135520206621  0.5075810057342468  0.4422461983181416
  0.4382736938003460  0.8370436644236529  0.4959695755604438
  0.5672831906247655  0.6621984571293483  0.5000823278968628
  0.5629054124839753  0.9933569484825027  0.5568479981445646
  0.5646275289497374  0.8406280233268856  0.6197069823768036
  0.6866886675674045  0.6640511175210694  0.6279581143319326
  0.6791444719845723  0.5045631834137919  0.6798585609511340
  0.5617026468754069  0.0009639512454748  0.3207442620507204
  0.5628010152976344  0.8371545267091238  0.3743557406029578
  0.6878755140175691  0.6566973382087977  0.3771870442108397
  0.6881247658799198  0.5052822695038873  0.4422203766235498
  0.6872612543334408  0.8399518656925593  0.4914213173197055
  0.8131656154605407  0.6600593027004590  0.5073612893523218
  0.8122749873984553  0.9937087840607725  0.5567182554564024
  0.8135428385823769  0.8421848206075415  0.6214653680716270
  0.9426931404113271  0.6578508041932918  0.6262542293382831
  0.9348084075218764  0.4984424456725461  0.6783275053884672
  0.8123603804933716  0.0013799099348633  0.3200147247431259
  0.8120781100344090  0.8359699500833326  0.3708182631063123
  0.9374257864453559  0.6565555283151665  0.3788006980350971
  0.9371059527356407  0.5053068036066146  0.4435938149119866
  0.9361548324010481  0.8403165971517433  0.4919437881887299
  0.3845606453243389  0.6399881521465894  0.7665379147166338
  0.5066117480433959  0.6548846902283354  0.7508657173146914
  0.5480553586340149  0.6288661156283518  0.7851887945744931
 
  0.00000000E+00  0.00000000E+00  0.00000000E+00
  0.00000000E+00  0.00000000E+00  0.00000000E+00
  0.00000000E+00  0.00000000E+00  0.00000000E+00
  0.00000000E+00  0.00000000E+00  0.00000000E+00
  0.00000000E+00  0.00000000E+00  0.00000000E+00
  0.00000000E+00  0.00000000E+00  0.00000000E+00
  0.00000000E+00  0.00000000E+00  0.00000000E+00
  0.00000000E+00  0.00000000E+00  0.00000000E+00
  0.00000000E+00  0.00000000E+00  0.00000000E+00
  0.00000000E+00  0.00000000E+00  0.00000000E+00
  0.00000000E+00  0.00000000E+00  0.00000000E+00
  0.00000000E+00  0.00000000E+00  0.00000000E+00
  0.00000000E+00  0.00000000E+00  0.00000000E+00
  0.00000000E+00  0.00000000E+00  0.00000000E+00
  0.00000000E+00  0.00000000E+00  0.00000000E+00
  0.00000000E+00  0.00000000E+00  0.00000000E+00
  0.00000000E+00  0.00000000E+00  0.00000000E+00
  0.00000000E+00  0.00000000E+00  0.00000000E+00
  0.00000000E+00  0.00000000E+00  0.00000000E+00
  0.00000000E+00  0.00000000E+00  0.00000000E+00
  0.00000000E+00  0.00000000E+00  0.00000000E+00
  0.00000000E+00  0.00000000E+00  0.00000000E+00
  0.00000000E+00  0.00000000E+00  0.00000000E+00
  0.00000000E+00  0.00000000E+00  0.00000000E+00
  0.00000000E+00  0.00000000E+00  0.00000000E+00
  0.00000000E+00  0.00000000E+00  0.00000000E+00
  0.00000000E+00  0.00000000E+00  0.00000000E+00
  0.00000000E+00  0.00000000E+00  0.00000000E+00
  0.00000000E+00  0.00000000E+00  0.00000000E+00
  0.00000000E+00  0.00000000E+00  0.00000000E+00
  0.00000000E+00  0.00000000E+00  0.00000000E+00
  0.00000000E+00  0.00000000E+00  0.00000000E+00
  0.00000000E+00  0.00000000E+00  0.00000000E+00
  0.00000000E+00  0.00000000E+00  0.00000000E+00
  0.00000000E+00  0.00000000E+00  0.00000000E+00
  0.00000000E+00  0.00000000E+00  0.00000000E+00
  0.00000000E+00  0.00000000E+00  0.00000000E+00
  0.00000000E+00  0.00000000E+00  0.00000000E+00
  0.00000000E+00  0.00000000E+00  0.00000000E+00
  0.00000000E+00  0.00000000E+00  0.00000000E+00
  0.00000000E+00  0.00000000E+00  0.00000000E+00
  0.00000000E+00  0.00000000E+00  0.00000000E+00
  0.00000000E+00  0.00000000E+00  0.00000000E+00
  0.00000000E+00  0.00000000E+00  0.00000000E+00
  0.00000000E+00  0.00000000E+00  0.00000000E+00
  0.00000000E+00  0.00000000E+00  0.00000000E+00
  0.00000000E+00  0.00000000E+00  0.00000000E+00
  0.00000000E+00  0.00000000E+00  0.00000000E+00
  0.00000000E+00  0.00000000E+00  0.00000000E+00
  0.00000000E+00  0.00000000E+00  0.00000000E+00
  0.00000000E+00  0.00000000E+00  0.00000000E+00
  0.00000000E+00  0.00000000E+00  0.00000000E+00
  0.00000000E+00  0.00000000E+00  0.00000000E+00
  0.00000000E+00  0.00000000E+00  0.00000000E+00
  0.00000000E+00  0.00000000E+00  0.00000000E+00
  0.00000000E+00  0.00000000E+00  0.00000000E+00
  0.00000000E+00  0.00000000E+00  0.00000000E+00
  0.00000000E+00  0.00000000E+00  0.00000000E+00
  0.00000000E+00  0.00000000E+00  0.00000000E+00
  0.00000000E+00  0.00000000E+00  0.00000000E+00
  0.00000000E+00  0.00000000E+00  0.00000000E+00
  0.00000000E+00  0.00000000E+00  0.00000000E+00
  0.00000000E+00  0.00000000E+00  0.00000000E+00
  0.00000000E+00  0.00000000E+00  0.00000000E+00
  0.00000000E+00  0.00000000E+00  0.00000000E+00
  0.00000000E+00  0.00000000E+00  0.00000000E+00
  0.00000000E+00  0.00000000E+00  0.00000000E+00
  0.00000000E+00  0.00000000E+00  0.00000000E+00
  0.00000000E+00  0.00000000E+00  0.00000000E+00
  0.00000000E+00  0.00000000E+00  0.00000000E+00
  0.00000000E+00  0.00000000E+00  0.00000000E+00
  0.00000000E+00  0.00000000E+00  0.00000000E+00
  0.00000000E+00  0.00000000E+00  0.00000000E+00
  0.00000000E+00  0.00000000E+00  0.00000000E+00
  0.00000000E+00  0.00000000E+00  0.00000000E+00
  0.00000000E+00  0.00000000E+00  0.00000000E+00
  0.00000000E+00  0.00000000E+00  0.00000000E+00
  0.00000000E+00  0.00000000E+00  0.00000000E+00
  0.00000000E+00  0.00000000E+00  0.00000000E+00
  0.00000000E+00  0.00000000E+00  0.00000000E+00
  0.00000000E+00  0.00000000E+00  0.00000000E+00
  0.00000000E+00  0.00000000E+00  0.00000000E+00
  0.00000000E+00  0.00000000E+00  0.00000000E+00
  0.00000000E+00  0.00000000E+00  0.00000000E+00
  0.00000000E+00  0.00000000E+00  0.00000000E+00
  0.00000000E+00  0.00000000E+00  0.00000000E+00
  0.00000000E+00  0.00000000E+00  0.00000000E+00
  0.00000000E+00  0.00000000E+00  0.00000000E+00
  0.00000000E+00  0.00000000E+00  0.00000000E+00
  0.00000000E+00  0.00000000E+00  0.00000000E+00
  0.00000000E+00  0.00000000E+00  0.00000000E+00
  0.00000000E+00  0.00000000E+00  0.00000000E+00
  0.00000000E+00  0.00000000E+00  0.00000000E+00
  0.00000000E+00  0.00000000E+00  0.00000000E+00
  0.00000000E+00  0.00000000E+00  0.00000000E+00
  0.00000000E+00  0.00000000E+00  0.00000000E+00
  0.00000000E+00  0.00000000E+00  0.00000000E+00
  0.00000000E+00  0.00000000E+00  0.00000000E+00
  0.00000000E+00  0.00000000E+00  0.00000000E+00
  0.00000000E+00  0.00000000E+00  0.00000000E+00
  0.00000000E+00  0.00000000E+00  0.00000000E+00
  0.00000000E+00  0.00000000E+00  0.00000000E+00
  0.00000000E+00  0.00000000E+00  0.00000000E+00
  0.00000000E+00  0.00000000E+00  0.00000000E+00
  0.00000000E+00  0.00000000E+00  0.00000000E+00
  0.00000000E+00  0.00000000E+00  0.00000000E+00
  0.00000000E+00  0.00000000E+00  0.00000000E+00
  0.00000000E+00  0.00000000E+00  0.00000000E+00
  0.00000000E+00  0.00000000E+00  0.00000000E+00
  0.00000000E+00  0.00000000E+00  0.00000000E+00
  0.00000000E+00  0.00000000E+00  0.00000000E+00
  0.00000000E+00  0.00000000E+00  0.00000000E+00
  0.00000000E+00  0.00000000E+00  0.00000000E+00
  0.00000000E+00  0.00000000E+00  0.00000000E+00
  0.00000000E+00  0.00000000E+00  0.00000000E+00
  0.00000000E+00  0.00000000E+00  0.00000000E+00
  0.00000000E+00  0.00000000E+00  0.00000000E+00
  0.00000000E+00  0.00000000E+00  0.00000000E+00
  0.00000000E+00  0.00000000E+00  0.00000000E+00
  0.00000000E+00  0.00000000E+00  0.00000000E+00
  0.00000000E+00  0.00000000E+00  0.00000000E+00
  0.00000000E+00  0.00000000E+00  0.00000000E+00
  0.00000000E+00  0.00000000E+00  0.00000000E+00
  0.00000000E+00  0.00000000E+00  0.00000000E+00
  0.00000000E+00  0.00000000E+00  0.00000000E+00
  0.00000000E+00  0.00000000E+00  0.00000000E+00
  0.00000000E+00  0.00000000E+00  0.00000000E+00
  0.00000000E+00  0.00000000E+00  0.00000000E+00
  0.00000000E+00  0.00000000E+00  0.00000000E+00
  0.00000000E+00  0.00000000E+00  0.00000000E+00
  0.00000000E+00  0.00000000E+00  0.00000000E+00
  0.00000000E+00  0.00000000E+00  0.00000000E+00
  0.00000000E+00  0.00000000E+00  0.00000000E+00
  0.00000000E+00  0.00000000E+00  0.00000000E+00
  0.00000000E+00  0.00000000E+00  0.00000000E+00
  0.00000000E+00  0.00000000E+00  0.00000000E+00
  0.00000000E+00  0.00000000E+00  0.00000000E+00
  0.00000000E+00  0.00000000E+00  0.00000000E+00
  0.00000000E+00  0.00000000E+00  0.00000000E+00
  0.00000000E+00  0.00000000E+00  0.00000000E+00
  0.00000000E+00  0.00000000E+00  0.00000000E+00
  0.00000000E+00  0.00000000E+00  0.00000000E+00
  0.00000000E+00  0.00000000E+00  0.00000000E+00
  0.00000000E+00  0.00000000E+00  0.00000000E+00
  0.00000000E+00  0.00000000E+00  0.00000000E+00
  0.00000000E+00  0.00000000E+00  0.00000000E+00
  0.00000000E+00  0.00000000E+00  0.00000000E+00
