CONTCAR\(3)                             
   1.00000000000000     
    12.6408004761000008    0.0000000000000000    0.0000000000000000
    -6.3204002380000004   10.9472543365000003    0.0000000000000000
     0.0000000000000000    0.0000000000000000   17.9799003601000003
   V    S    H 
    16    32     1
Direct
  0.0806108215459832  0.1677929042873287  0.4996742323604580
  0.3315792974199813  0.1683306560365169  0.4993458610377826
  0.5821154435420807  0.1677967337297588  0.5002575783300851
  0.8315853953938476  0.1683011679465619  0.5000893261437080
  0.0808296603823350  0.4177583015235085  0.4995025890286655
  0.3225904854569614  0.4135373066133727  0.4995180589421417
  0.5861337238159698  0.4136298295894135  0.5001160549953114
  0.8322732570824198  0.4179326887096734  0.5001697376558729
  0.0816698576890481  0.6680830852724672  0.4996353414277915
  0.3318591267301561  0.6680624762466895  0.4995222587847367
  0.5861192142671464  0.6770525563053834  0.5004586363334826
  0.8314818172420695  0.6682178518588825  0.5000372087478853
  0.0813585244053778  0.9184544619226328  0.4996485947625215
  0.3319931494882635  0.9184672335677404  0.4996901779199792
  0.5820477453965256  0.9190226014332835  0.5003979787521270
  0.8318978754941645  0.9190988359177423  0.5003085852808473
 -0.0023709838445136  0.0013824003148920  0.4168946161790067
 -0.0015630428448896  0.0019524406034667  0.5827919888285591
  0.2481256122841628  0.0014804092751882  0.4167181238626176
  0.2482700713597780  0.0017407264211336  0.5822950174150051
  0.4987837833186454  0.0018424323802593  0.4171946297104397
  0.4980159978059797  0.0014978617050440  0.5830820161109201
  0.7483589277299190  0.0019991825763812  0.4174276452359681
  0.7484617578222043  0.0022569314232378  0.5831968453217081
 -0.0026300398860745  0.2511159350105570  0.4167814111507516
 -0.0020369423905297  0.2515532057113405  0.5826121505436677
  0.2463896298557685  0.2499418533208756  0.4163356005168490
  0.2463895290756519  0.2497582766081835  0.5829387058933803
  0.4989025212975738  0.2503774783864410  0.4167918700352196
  0.4979529551705554  0.2496297406356982  0.5833056012064539
  0.7484762983860503  0.2514532670420146  0.4172846046063950
  0.7486363757760591  0.2514502683276059  0.5830375247494528
 -0.0019506090778352  0.5016113011437727  0.4167954411402270
 -0.0011105629746661  0.5017909409317903  0.5826672264320220
  0.2468778186456535  0.5013534689060967  0.4163529249369423
  0.2464676888858945  0.5011468632577081  0.5829387277230186
  0.4988320130789615  0.5018126066447839  0.4237037615782593
  0.4976389360235331  0.5007284523335498  0.5754664649231642
  0.7496857370728687  0.5013679329963181  0.4170536557228728
  0.7500381255761754  0.5014672299302865  0.5835667868619083
  0.9979799144132859  0.7515417773816390  0.4169985111646967
  0.9985364402296784  0.7517513929782679  0.5825295875431703
  0.2485129824699086  0.7517092859059094  0.4168117449166067
  0.2484856208744079  0.7515539129157678  0.5823742119040343
  0.4991469483460944  0.7532821638103486  0.4169927012272086
  0.4981049311318770  0.7530141894047634  0.5835949555055691
  0.7495963040668639  0.7531706669414526  0.4171493035335551
  0.7500405343767071  0.7533819020913494  0.5837298498344643
  0.4964587575919482  0.4990747317229550  0.6512931471824582
 
  0.00000000E+00  0.00000000E+00  0.00000000E+00
  0.00000000E+00  0.00000000E+00  0.00000000E+00
  0.00000000E+00  0.00000000E+00  0.00000000E+00
  0.00000000E+00  0.00000000E+00  0.00000000E+00
  0.00000000E+00  0.00000000E+00  0.00000000E+00
  0.00000000E+00  0.00000000E+00  0.00000000E+00
  0.00000000E+00  0.00000000E+00  0.00000000E+00
  0.00000000E+00  0.00000000E+00  0.00000000E+00
  0.00000000E+00  0.00000000E+00  0.00000000E+00
  0.00000000E+00  0.00000000E+00  0.00000000E+00
  0.00000000E+00  0.00000000E+00  0.00000000E+00
  0.00000000E+00  0.00000000E+00  0.00000000E+00
  0.00000000E+00  0.00000000E+00  0.00000000E+00
  0.00000000E+00  0.00000000E+00  0.00000000E+00
  0.00000000E+00  0.00000000E+00  0.00000000E+00
  0.00000000E+00  0.00000000E+00  0.00000000E+00
  0.00000000E+00  0.00000000E+00  0.00000000E+00
  0.00000000E+00  0.00000000E+00  0.00000000E+00
  0.00000000E+00  0.00000000E+00  0.00000000E+00
  0.00000000E+00  0.00000000E+00  0.00000000E+00
  0.00000000E+00  0.00000000E+00  0.00000000E+00
  0.00000000E+00  0.00000000E+00  0.00000000E+00
  0.00000000E+00  0.00000000E+00  0.00000000E+00
  0.00000000E+00  0.00000000E+00  0.00000000E+00
  0.00000000E+00  0.00000000E+00  0.00000000E+00
  0.00000000E+00  0.00000000E+00  0.00000000E+00
  0.00000000E+00  0.00000000E+00  0.00000000E+00
  0.00000000E+00  0.00000000E+00  0.00000000E+00
  0.00000000E+00  0.00000000E+00  0.00000000E+00
  0.00000000E+00  0.00000000E+00  0.00000000E+00
  0.00000000E+00  0.00000000E+00  0.00000000E+00
  0.00000000E+00  0.00000000E+00  0.00000000E+00
  0.00000000E+00  0.00000000E+00  0.00000000E+00
  0.00000000E+00  0.00000000E+00  0.00000000E+00
  0.00000000E+00  0.00000000E+00  0.00000000E+00
  0.00000000E+00  0.00000000E+00  0.00000000E+00
  0.00000000E+00  0.00000000E+00  0.00000000E+00
  0.00000000E+00  0.00000000E+00  0.00000000E+00
  0.00000000E+00  0.00000000E+00  0.00000000E+00
  0.00000000E+00  0.00000000E+00  0.00000000E+00
  0.00000000E+00  0.00000000E+00  0.00000000E+00
  0.00000000E+00  0.00000000E+00  0.00000000E+00
  0.00000000E+00  0.00000000E+00  0.00000000E+00
  0.00000000E+00  0.00000000E+00  0.00000000E+00
  0.00000000E+00  0.00000000E+00  0.00000000E+00
  0.00000000E+00  0.00000000E+00  0.00000000E+00
  0.00000000E+00  0.00000000E+00  0.00000000E+00
  0.00000000E+00  0.00000000E+00  0.00000000E+00
  0.00000000E+00  0.00000000E+00  0.00000000E+00
