CONTCAR\(2)                             
   1.00000000000000     
    10.9488000870000004    0.0000000000000000    0.0000000000000000
     0.0000000000000000   10.9488000870000004    0.0000000000000000
     0.0000000000000000    0.0000000000000000   22.0405998230000009
   Zr   Si   Te   O 
    18    18    18     1
Direct
  0.1655499683879129  0.0010856913438756  0.5963602455939266
  0.9999899506228872  0.1666596003509669  0.4032477860113368
  0.4999916541447491  0.9971828382751626  0.5982316629940869
  0.3340598530722555  0.1666901219618140  0.4036247452376090
  0.8344107090843571  0.0010723938106247  0.5963630066872881
  0.6659122510348124  0.1666812181123929  0.4036192252482945
  0.1655308875345699  0.3321900824246471  0.5963361021910241
  0.9999949400395209  0.5007954495843886  0.4036685927072083
  0.4999881886552835  0.3361991267694329  0.5982287938632015
  0.3337242846132916  0.5004441817434069  0.4038925777185245
  0.8344517224347261  0.3321939041429844  0.5963338598527149
  0.6662666597914997  0.5004432109226420  0.4038913205051664
  0.1694446830936692  0.6666012891315048  0.5982452709072034
  0.9999939684581810  0.8326295885130124  0.4036476308664463
  0.4999942053536535  0.6666669390227496  0.6030439700584129
  0.3336989618953614  0.8329701736342414  0.4038740394632751
  0.8305485058313936  0.6666033988612817  0.5982423961743548
  0.6662810349155857  0.8329808125453246  0.4038698990912579
  0.1671190295105613  0.1666773132289601  0.5000763146984301
  0.9999838641687799  0.9995307606951651  0.5000838235689939
  0.4999921649700531  0.1667008123355297  0.5006980330020645
  0.3342395732276611  0.9999228765969872  0.5005439500218629
  0.8328384414000901  0.1666874756417279  0.5000718999739835
  0.6657350884328915  0.9999121188639790  0.5005410836864604
  0.1667739700321252  0.5009594619724580  0.5005421553151694
  0.9999948366602418  0.3338315091513153  0.5000698262507340
  0.4999942101049368  0.4996450044105303  0.5007690315781237
  0.3342315728184347  0.3334955877938685  0.5005508894023279
  0.8332116543911159  0.5009527489547529  0.5005408428838171
  0.6657521027651986  0.3334936044169197  0.5005465393918132
  0.1668089878467157  0.8324153983807854  0.5005529926314100
 -0.0000045891817685  0.6667075588515187  0.5007186036023840
  0.4999953728831308  0.8338627729757916  0.5007633221143447
  0.3328828840135251  0.6667048923091677  0.5007687452776696
  0.8331774322717964  0.8324122874670352  0.5005511569387275
  0.6671132555297805  0.6667072396838649  0.5007669312612179
  0.9999765929118968  0.1666234441125990  0.6608647453947136
  0.1669586025749362  0.9997224572662232  0.3405605386962793
  0.3331685954542446  0.1666893223356864  0.6602109812398617
  0.4999478607603285 -0.0000660285784498  0.3397428515644575
  0.6668086969650907  0.1666870900244139  0.6601986334371732
  0.8330204259602381  0.9997284941637159  0.3405576304456957
  0.0000006435844121  0.4996448476290524  0.6603952111824208
  0.1669057273937830  0.3337176431426538  0.3406271681258612
  0.3287891634230372  0.4954863547564264  0.6630423168205316
  0.4999956789729639  0.3334239315991387  0.3399218045664504
  0.6712272232048935  0.4954609731952950  0.6630180237477291
  0.8330868385730951  0.3337161128207589  0.3406262104340931
 -0.0000066031109969  0.8334619582851769  0.6602448400999186
  0.1666979860539508  0.6666672364026941  0.3399027427669489
  0.3287727876250799  0.8378652831747101  0.6629801275792597
  0.4999978892364920  0.6667417325993478  0.3404602715485484
  0.6711956934288377  0.8378408303016091  0.6629890100049647
  0.8332972219954999  0.6666694454757270  0.3399031240755182
  0.4999066751832458  0.6659394174124221  0.6915562594987628
 
  0.00000000E+00  0.00000000E+00  0.00000000E+00
  0.00000000E+00  0.00000000E+00  0.00000000E+00
  0.00000000E+00  0.00000000E+00  0.00000000E+00
  0.00000000E+00  0.00000000E+00  0.00000000E+00
  0.00000000E+00  0.00000000E+00  0.00000000E+00
  0.00000000E+00  0.00000000E+00  0.00000000E+00
  0.00000000E+00  0.00000000E+00  0.00000000E+00
  0.00000000E+00  0.00000000E+00  0.00000000E+00
  0.00000000E+00  0.00000000E+00  0.00000000E+00
  0.00000000E+00  0.00000000E+00  0.00000000E+00
  0.00000000E+00  0.00000000E+00  0.00000000E+00
  0.00000000E+00  0.00000000E+00  0.00000000E+00
  0.00000000E+00  0.00000000E+00  0.00000000E+00
  0.00000000E+00  0.00000000E+00  0.00000000E+00
  0.00000000E+00  0.00000000E+00  0.00000000E+00
  0.00000000E+00  0.00000000E+00  0.00000000E+00
  0.00000000E+00  0.00000000E+00  0.00000000E+00
  0.00000000E+00  0.00000000E+00  0.00000000E+00
  0.00000000E+00  0.00000000E+00  0.00000000E+00
  0.00000000E+00  0.00000000E+00  0.00000000E+00
  0.00000000E+00  0.00000000E+00  0.00000000E+00
  0.00000000E+00  0.00000000E+00  0.00000000E+00
  0.00000000E+00  0.00000000E+00  0.00000000E+00
  0.00000000E+00  0.00000000E+00  0.00000000E+00
  0.00000000E+00  0.00000000E+00  0.00000000E+00
  0.00000000E+00  0.00000000E+00  0.00000000E+00
  0.00000000E+00  0.00000000E+00  0.00000000E+00
  0.00000000E+00  0.00000000E+00  0.00000000E+00
  0.00000000E+00  0.00000000E+00  0.00000000E+00
  0.00000000E+00  0.00000000E+00  0.00000000E+00
  0.00000000E+00  0.00000000E+00  0.00000000E+00
  0.00000000E+00  0.00000000E+00  0.00000000E+00
  0.00000000E+00  0.00000000E+00  0.00000000E+00
  0.00000000E+00  0.00000000E+00  0.00000000E+00
  0.00000000E+00  0.00000000E+00  0.00000000E+00
  0.00000000E+00  0.00000000E+00  0.00000000E+00
  0.00000000E+00  0.00000000E+00  0.00000000E+00
  0.00000000E+00  0.00000000E+00  0.00000000E+00
  0.00000000E+00  0.00000000E+00  0.00000000E+00
  0.00000000E+00  0.00000000E+00  0.00000000E+00
  0.00000000E+00  0.00000000E+00  0.00000000E+00
  0.00000000E+00  0.00000000E+00  0.00000000E+00
  0.00000000E+00  0.00000000E+00  0.00000000E+00
  0.00000000E+00  0.00000000E+00  0.00000000E+00
  0.00000000E+00  0.00000000E+00  0.00000000E+00
  0.00000000E+00  0.00000000E+00  0.00000000E+00
  0.00000000E+00  0.00000000E+00  0.00000000E+00
  0.00000000E+00  0.00000000E+00  0.00000000E+00
  0.00000000E+00  0.00000000E+00  0.00000000E+00
  0.00000000E+00  0.00000000E+00  0.00000000E+00
  0.00000000E+00  0.00000000E+00  0.00000000E+00
  0.00000000E+00  0.00000000E+00  0.00000000E+00
  0.00000000E+00  0.00000000E+00  0.00000000E+00
  0.00000000E+00  0.00000000E+00  0.00000000E+00
  0.00000000E+00  0.00000000E+00  0.00000000E+00
