CONTCAR\(16)                            
   1.00000000000000     
    12.5135002136000004    0.0000000000000000    0.0000000000000000
     0.0000000000000000   15.7480001450000007    0.0000000000000000
     0.0000000000000000    0.0000000000000000   19.7180004119999985
   Nb   Fe   Te   O 
    16    16    32     1
Direct
  0.2350067290384407  0.1539767062358599  0.4893069776524405
  0.0091977982621283  0.4039787896545491  0.4904751965082403
  0.9858183995703360  0.0962588543206572  0.5038866134014154
  0.2542566245441263  0.3422499889646081  0.5006134798466300
  0.7353542065186496  0.1549517653253581  0.4899701119156346
  0.5091110736690880  0.4047983567361656  0.4947555424914770
  0.4870185070629319  0.0975626625823628  0.5050312547722985
  0.7590701381704511  0.3483828362364255  0.5070603759783026
  0.2429774931387269  0.6567485936315529  0.4986356367174755
  0.0103343796577623  0.9052679179205290  0.4913038180728986
  0.9914442705131374  0.5959696981192439  0.5106631827497632
  0.2602191351472675  0.8511539889447662  0.5063288658237881
  0.7401746200745349  0.6554160495905581  0.4933179744421980
  0.5116340932879149  0.9046616885025166  0.4950920499074672
  0.4815502696608617  0.5932248887846776  0.5371490089106642
  0.7632147178165436  0.8486056173458308  0.5086599736572522
  0.0666847474625359  0.2450421753378873  0.5345321956527126
  0.3216008772841314  0.0045984277315501  0.4594289163021055
  0.4250634496247535  0.2548824595864730  0.4593838323107713
  0.1781968649714044  0.9987666259865617  0.5363486988160754
  0.5674847657600760  0.2482372395067876  0.5379096862372750
  0.8200022115381926  0.0041717640296332  0.4595910905342200
  0.9218427838280646  0.2545384189640150  0.4584420024996102
  0.6782710916776202  0.9985034714205304  0.5376396478832373
  0.0746445447478426  0.7469618149518904  0.5394903965597397
  0.3297056762366706  0.5043245749332913  0.4729560561456798
  0.4316012609853112  0.7529465910074361  0.4682139901620607
  0.1792047760414415  0.4961504391294482  0.5441219318476425
  0.5757531330151111  0.7471994928153983  0.5441616945078892
  0.8217213943801916  0.5041568135815697  0.4635921908529619
  0.9302513099407534  0.7546428555915417  0.4614789051546925
  0.6754675836946964  0.4988278024912946  0.5437719136954157
  0.3687115665765905  0.3843058535301701  0.3829099010589130
  0.1254256822757264  0.0202398369560044  0.4086163308751780
  0.3727207191077755  0.9840894673184609  0.5882741717040562
  0.1130082639661507  0.3664202608473153  0.6150268545449763
  0.3719449298150835  0.2261140507283117  0.5858755684371446
  0.1151638702970866  0.2691614423450850  0.4066949332039433
  0.1259582666425815  0.1217453081877653  0.6148244737042580
  0.3786930576618115  0.1302951444259954  0.3798550273798799
  0.8662076693414862  0.3824210655303684  0.3811670868215322
  0.6247608130537355  0.0204591856228067  0.4102192620058815
  0.8733947576336476  0.9814240071032633  0.5879264588499621
  0.6207419470203169  0.3708717580975984  0.6187894959833037
  0.8732255452116015  0.2285795135700209  0.5864972655328909
  0.6200776564815212  0.2741622782671433  0.4107918063103113
  0.6283948829900530  0.1229087710553162  0.6158528461123898
  0.8758064721245614  0.1291290093615134  0.3793799658738966
  0.3738291764526085  0.8763966210190859  0.3836834130120025
  0.1333042956117188  0.5214640598225143  0.4165382660536391
  0.3587057937639282  0.4464759100982992  0.5968020584319166
  0.1176186019407154  0.8749745751756288  0.6165471789432909
  0.3722377414908928  0.7476577181589338  0.5932443669595832
  0.1260421866700813  0.7703560441533657  0.4124891813972235
  0.1339150191691953  0.6217697811254412  0.6215206613750588
  0.3877150866815096  0.6274883140202075  0.3928017127914425
  0.8689836600267574  0.8784622747014457  0.3818692464097804
  0.6271550324981828  0.5260472752885992  0.4189123822846574
  0.8754244127918811  0.4779963001765960  0.5898233481377921
  0.6228662142094903  0.8761060726060264  0.6197977021172465
  0.8819497171156883  0.7330830432191503  0.5888991006387463
  0.6233814725196158  0.7711685988734148  0.4145858355845160
  0.6619494667701188  0.6304320380134978  0.6226968124678162
  0.8862757127413491  0.6267606977593088  0.3847671071804775
  0.4411711230248341  0.5792638988804057  0.6244569948062723
 
  0.00000000E+00  0.00000000E+00  0.00000000E+00
  0.00000000E+00  0.00000000E+00  0.00000000E+00
  0.00000000E+00  0.00000000E+00  0.00000000E+00
  0.00000000E+00  0.00000000E+00  0.00000000E+00
  0.00000000E+00  0.00000000E+00  0.00000000E+00
  0.00000000E+00  0.00000000E+00  0.00000000E+00
  0.00000000E+00  0.00000000E+00  0.00000000E+00
  0.00000000E+00  0.00000000E+00  0.00000000E+00
  0.00000000E+00  0.00000000E+00  0.00000000E+00
  0.00000000E+00  0.00000000E+00  0.00000000E+00
  0.00000000E+00  0.00000000E+00  0.00000000E+00
  0.00000000E+00  0.00000000E+00  0.00000000E+00
  0.00000000E+00  0.00000000E+00  0.00000000E+00
  0.00000000E+00  0.00000000E+00  0.00000000E+00
  0.00000000E+00  0.00000000E+00  0.00000000E+00
  0.00000000E+00  0.00000000E+00  0.00000000E+00
  0.00000000E+00  0.00000000E+00  0.00000000E+00
  0.00000000E+00  0.00000000E+00  0.00000000E+00
  0.00000000E+00  0.00000000E+00  0.00000000E+00
  0.00000000E+00  0.00000000E+00  0.00000000E+00
  0.00000000E+00  0.00000000E+00  0.00000000E+00
  0.00000000E+00  0.00000000E+00  0.00000000E+00
  0.00000000E+00  0.00000000E+00  0.00000000E+00
  0.00000000E+00  0.00000000E+00  0.00000000E+00
  0.00000000E+00  0.00000000E+00  0.00000000E+00
  0.00000000E+00  0.00000000E+00  0.00000000E+00
  0.00000000E+00  0.00000000E+00  0.00000000E+00
  0.00000000E+00  0.00000000E+00  0.00000000E+00
  0.00000000E+00  0.00000000E+00  0.00000000E+00
  0.00000000E+00  0.00000000E+00  0.00000000E+00
  0.00000000E+00  0.00000000E+00  0.00000000E+00
  0.00000000E+00  0.00000000E+00  0.00000000E+00
  0.00000000E+00  0.00000000E+00  0.00000000E+00
  0.00000000E+00  0.00000000E+00  0.00000000E+00
  0.00000000E+00  0.00000000E+00  0.00000000E+00
  0.00000000E+00  0.00000000E+00  0.00000000E+00
  0.00000000E+00  0.00000000E+00  0.00000000E+00
  0.00000000E+00  0.00000000E+00  0.00000000E+00
  0.00000000E+00  0.00000000E+00  0.00000000E+00
  0.00000000E+00  0.00000000E+00  0.00000000E+00
  0.00000000E+00  0.00000000E+00  0.00000000E+00
  0.00000000E+00  0.00000000E+00  0.00000000E+00
  0.00000000E+00  0.00000000E+00  0.00000000E+00
  0.00000000E+00  0.00000000E+00  0.00000000E+00
  0.00000000E+00  0.00000000E+00  0.00000000E+00
  0.00000000E+00  0.00000000E+00  0.00000000E+00
  0.00000000E+00  0.00000000E+00  0.00000000E+00
  0.00000000E+00  0.00000000E+00  0.00000000E+00
  0.00000000E+00  0.00000000E+00  0.00000000E+00
  0.00000000E+00  0.00000000E+00  0.00000000E+00
  0.00000000E+00  0.00000000E+00  0.00000000E+00
  0.00000000E+00  0.00000000E+00  0.00000000E+00
  0.00000000E+00  0.00000000E+00  0.00000000E+00
  0.00000000E+00  0.00000000E+00  0.00000000E+00
  0.00000000E+00  0.00000000E+00  0.00000000E+00
  0.00000000E+00  0.00000000E+00  0.00000000E+00
  0.00000000E+00  0.00000000E+00  0.00000000E+00
  0.00000000E+00  0.00000000E+00  0.00000000E+00
  0.00000000E+00  0.00000000E+00  0.00000000E+00
  0.00000000E+00  0.00000000E+00  0.00000000E+00
  0.00000000E+00  0.00000000E+00  0.00000000E+00
  0.00000000E+00  0.00000000E+00  0.00000000E+00
  0.00000000E+00  0.00000000E+00  0.00000000E+00
  0.00000000E+00  0.00000000E+00  0.00000000E+00
  0.00000000E+00  0.00000000E+00  0.00000000E+00
