CONTCAR                                 
   1.00000000000000     
    10.9576997757000001    0.0000000000000000    0.0000000000000000
     0.0000000000000000   18.6480007171999986    0.0000000000000000
     0.0000000000000000    0.0000000000000000   19.2721004485999998
   Ta   Te   Pd   O    H 
    12    30    18     2     1
Direct
  0.0018076377688401  0.9145102269765298  0.4957779444798552
  0.1687999337061464  0.4145940678538283  0.4987496258463010
  0.0020764565519647  0.1666041226312195  0.4958925153697814
  0.1688989031911954  0.6668335793958455  0.4986040668554882
  0.3366315364215772  0.9143553473670737  0.4958126052337146
  0.5021951265299172  0.4144126194805424  0.4988365910019290
  0.3355333431291385  0.1664362791261033  0.4957053968568040
  0.5025303874631194  0.6667783783414738  0.4986461348917985
  0.6682379677858734  0.9145365947320893  0.4957833382534880
  0.8353464923253340  0.4145091722358433  0.4986780111301214
  0.6684641678203884  0.1663933655760177  0.4955762339382510
  0.8345359874913819  0.6667887444747460  0.4985308116208296
  0.0017732176738959  0.7180079375296641  0.6020871392685275
  0.1691942964119858  0.8636567308552585  0.3921831917169510
  0.1686338307395301  0.2177193661251221  0.3920171604237156
  0.0021231782841335  0.3634637424347367  0.6024190605794481
  0.0023806830346964  0.6445538293209493  0.3864632236865807
  0.1683895523617085  0.1445594996964558  0.6080596234239459
  0.1684989736887725  0.5407103683859114  0.5807584548154647
  0.0023626146508381  0.0406769482398232  0.4137560017145193
  0.0022463442265498  0.4365425852607955  0.3865794648604663
  0.1699963125705522  0.9365136024629869  0.6078834934064556
  0.3359094551869758  0.7180493597070520  0.6023037485566524
  0.5022696140757957  0.8635559899951476  0.3913530554495342
  0.5017776258904265  0.2177420407584662  0.3918077694417780
  0.3354775073730321  0.3634611738462795  0.6024950099246668
  0.3355285288730794  0.6442301151439476  0.3864403645378063
  0.5017672311670338  0.1439278844288291  0.6076865759636403
  0.5022566992283288  0.5406096242301401  0.5808383942817775
  0.3352296408618960  0.0405783730319823  0.4134370267369692
  0.3356441648660157  0.4364141061684745  0.3866269629208365
  0.5051837754726387  0.9358775167800618  0.6085544916726381
  0.6685914874030644  0.7174857234886608  0.6021933363234566
  0.8357998787052153  0.8636689824771364  0.3917117678073517
  0.8353234213359461  0.2177459203989765  0.3919710146026994
  0.6688843443052421  0.3632527548100831  0.6025246675198150
  0.6686840159732144  0.6441585579541449  0.3862130992622750
  0.8347642845219774  0.1444950079221385  0.6078933828876948
  0.8348833748387734  0.5406103581253426  0.5807229817033537
  0.6692435654405068  0.0407373954665120  0.4132845193759794
  0.6687947477487839  0.4360356277275981  0.3863950206121567
  0.8362147331150777  0.9365787822498137  0.6079333115774304
  0.0021275922414314  0.3089552243943985  0.4490953792599518
  0.0019115991370034  0.7720880059896658  0.4491512222538524
  0.1688809271226426  0.2720698112554763  0.5454034335810999
  0.1691689382236901  0.8091352535110723  0.5450183395204629
  0.0018147313306612  0.5406385181104270  0.4796472657102419
  0.1692759471795421  0.0406002727542378  0.5149025074715050
  0.3354819801350112  0.3089303276249358  0.4492044766813912
  0.3355912839068942  0.7718948478121758  0.4486661441013671
  0.5020794524020150  0.2718360333974201  0.5455461844774464
  0.5022735571500138  0.8091065865046113  0.5444607425745714
  0.3355114128403446  0.5404287469369509  0.4797179357775682
  0.5021196411313056  0.0400893493830042  0.5142311846588002
  0.6685246154510620  0.3087636255585694  0.4492217482828201
  0.6690141688383042  0.7721268506373875  0.4483947709766480
  0.8356607636049530  0.2720257232405202  0.5453539253902717
  0.8345619724581105  0.8091510294577304  0.5451522276298301
  0.6685760775020892  0.5400272678243937  0.4793553393755041
  0.8353626030860787  0.0405304573371910  0.5147734040159628
  0.5672164949596762  0.8463736237014539  0.7214080296586535
  0.6899033050305788  0.8451644578622866  0.7406526177093149
  0.6912585340579183  0.8725619004923030  0.7843464483597556
 
  0.00000000E+00  0.00000000E+00  0.00000000E+00
  0.00000000E+00  0.00000000E+00  0.00000000E+00
  0.00000000E+00  0.00000000E+00  0.00000000E+00
  0.00000000E+00  0.00000000E+00  0.00000000E+00
  0.00000000E+00  0.00000000E+00  0.00000000E+00
  0.00000000E+00  0.00000000E+00  0.00000000E+00
  0.00000000E+00  0.00000000E+00  0.00000000E+00
  0.00000000E+00  0.00000000E+00  0.00000000E+00
  0.00000000E+00  0.00000000E+00  0.00000000E+00
  0.00000000E+00  0.00000000E+00  0.00000000E+00
  0.00000000E+00  0.00000000E+00  0.00000000E+00
  0.00000000E+00  0.00000000E+00  0.00000000E+00
  0.00000000E+00  0.00000000E+00  0.00000000E+00
  0.00000000E+00  0.00000000E+00  0.00000000E+00
  0.00000000E+00  0.00000000E+00  0.00000000E+00
  0.00000000E+00  0.00000000E+00  0.00000000E+00
  0.00000000E+00  0.00000000E+00  0.00000000E+00
  0.00000000E+00  0.00000000E+00  0.00000000E+00
  0.00000000E+00  0.00000000E+00  0.00000000E+00
  0.00000000E+00  0.00000000E+00  0.00000000E+00
  0.00000000E+00  0.00000000E+00  0.00000000E+00
  0.00000000E+00  0.00000000E+00  0.00000000E+00
  0.00000000E+00  0.00000000E+00  0.00000000E+00
  0.00000000E+00  0.00000000E+00  0.00000000E+00
  0.00000000E+00  0.00000000E+00  0.00000000E+00
  0.00000000E+00  0.00000000E+00  0.00000000E+00
  0.00000000E+00  0.00000000E+00  0.00000000E+00
  0.00000000E+00  0.00000000E+00  0.00000000E+00
  0.00000000E+00  0.00000000E+00  0.00000000E+00
  0.00000000E+00  0.00000000E+00  0.00000000E+00
  0.00000000E+00  0.00000000E+00  0.00000000E+00
  0.00000000E+00  0.00000000E+00  0.00000000E+00
  0.00000000E+00  0.00000000E+00  0.00000000E+00
  0.00000000E+00  0.00000000E+00  0.00000000E+00
  0.00000000E+00  0.00000000E+00  0.00000000E+00
  0.00000000E+00  0.00000000E+00  0.00000000E+00
  0.00000000E+00  0.00000000E+00  0.00000000E+00
  0.00000000E+00  0.00000000E+00  0.00000000E+00
  0.00000000E+00  0.00000000E+00  0.00000000E+00
  0.00000000E+00  0.00000000E+00  0.00000000E+00
  0.00000000E+00  0.00000000E+00  0.00000000E+00
  0.00000000E+00  0.00000000E+00  0.00000000E+00
  0.00000000E+00  0.00000000E+00  0.00000000E+00
  0.00000000E+00  0.00000000E+00  0.00000000E+00
  0.00000000E+00  0.00000000E+00  0.00000000E+00
  0.00000000E+00  0.00000000E+00  0.00000000E+00
  0.00000000E+00  0.00000000E+00  0.00000000E+00
  0.00000000E+00  0.00000000E+00  0.00000000E+00
  0.00000000E+00  0.00000000E+00  0.00000000E+00
  0.00000000E+00  0.00000000E+00  0.00000000E+00
  0.00000000E+00  0.00000000E+00  0.00000000E+00
  0.00000000E+00  0.00000000E+00  0.00000000E+00
  0.00000000E+00  0.00000000E+00  0.00000000E+00
  0.00000000E+00  0.00000000E+00  0.00000000E+00
  0.00000000E+00  0.00000000E+00  0.00000000E+00
  0.00000000E+00  0.00000000E+00  0.00000000E+00
  0.00000000E+00  0.00000000E+00  0.00000000E+00
  0.00000000E+00  0.00000000E+00  0.00000000E+00
  0.00000000E+00  0.00000000E+00  0.00000000E+00
  0.00000000E+00  0.00000000E+00  0.00000000E+00
  0.00000000E+00  0.00000000E+00  0.00000000E+00
  0.00000000E+00  0.00000000E+00  0.00000000E+00
  0.00000000E+00  0.00000000E+00  0.00000000E+00
