 Pr4 C2 Cl5                             
   1.00000000000000     
     3.8958208726516568    0.0000000000000000    0.0000000000000000
     0.0000000000000000    7.8301871924386468    0.0000000000000000
     0.0000000000000000    0.0000000000000000   20.9486705366139994
   Pr   C    Cl
     4     2     5
Direct
  0.4999999771584100  0.4996141508225378  0.3604433442346533
  0.5000000301591996  0.4994141155650027  0.6395546099915563
  0.0000000062599597  0.7141628525905475  0.5000201982598824
  0.0000000040779256  0.2848365653171001  0.4999805487716245
  0.4999999897905028  0.4995400848044582  0.4665303557005629
  0.5000000124206849  0.4994907385999596  0.5334728245487312
  0.0000000055801763  0.2343576316304166  0.6436133325735653
  0.9999999883383879  0.2345516325404020  0.3563414541964534
  0.9999999152234409  0.7646663528337072  0.3563835320001374
  0.0000000704105361  0.7644698041812461  0.6436608121395864
  0.5000000005807763  0.9995100711146208  0.4999989875832540
 
  0.00000000E+00  0.00000000E+00  0.00000000E+00
  0.00000000E+00  0.00000000E+00  0.00000000E+00
  0.00000000E+00  0.00000000E+00  0.00000000E+00
  0.00000000E+00  0.00000000E+00  0.00000000E+00
  0.00000000E+00  0.00000000E+00  0.00000000E+00
  0.00000000E+00  0.00000000E+00  0.00000000E+00
  0.00000000E+00  0.00000000E+00  0.00000000E+00
  0.00000000E+00  0.00000000E+00  0.00000000E+00
  0.00000000E+00  0.00000000E+00  0.00000000E+00
  0.00000000E+00  0.00000000E+00  0.00000000E+00
  0.00000000E+00  0.00000000E+00  0.00000000E+00
