G   51   26    1    0.005     # Parameters to Generate KPOINTS (Don't Edit This Line)
     364
Reciprocal lattice
    0.000000000000    0.000000000000    0.000000000000       1
    0.019607843137    0.000000000000    0.000000000000       2
    0.039215686275    0.000000000000    0.000000000000       2
    0.058823529412    0.000000000000    0.000000000000       2
    0.078431372549    0.000000000000    0.000000000000       2
    0.098039215686    0.000000000000    0.000000000000       2
    0.117647058824    0.000000000000    0.000000000000       2
    0.137254901961    0.000000000000    0.000000000000       2
    0.156862745098    0.000000000000    0.000000000000       2
    0.176470588235    0.000000000000    0.000000000000       2
    0.196078431373    0.000000000000    0.000000000000       2
    0.215686274510    0.000000000000    0.000000000000       2
    0.235294117647    0.000000000000    0.000000000000       2
    0.254901960784    0.000000000000    0.000000000000       2
    0.274509803922    0.000000000000    0.000000000000       2
    0.294117647059    0.000000000000    0.000000000000       2
    0.313725490196    0.000000000000    0.000000000000       2
    0.333333333333    0.000000000000    0.000000000000       2
    0.352941176471    0.000000000000    0.000000000000       2
    0.372549019608    0.000000000000    0.000000000000       2
    0.392156862745    0.000000000000    0.000000000000       2
    0.411764705882    0.000000000000    0.000000000000       2
    0.431372549020    0.000000000000    0.000000000000       2
    0.450980392157    0.000000000000    0.000000000000       2
    0.470588235294    0.000000000000    0.000000000000       2
    0.490196078431    0.000000000000    0.000000000000       2
    0.000000000000    0.038461538462    0.000000000000       2
    0.019607843137    0.038461538462    0.000000000000       4
    0.039215686275    0.038461538462    0.000000000000       4
    0.058823529412    0.038461538462    0.000000000000       4
    0.078431372549    0.038461538462    0.000000000000       4
    0.098039215686    0.038461538462    0.000000000000       4
    0.117647058824    0.038461538462    0.000000000000       4
    0.137254901961    0.038461538462    0.000000000000       4
    0.156862745098    0.038461538462    0.000000000000       4
    0.176470588235    0.038461538462    0.000000000000       4
    0.196078431373    0.038461538462    0.000000000000       4
    0.215686274510    0.038461538462    0.000000000000       4
    0.235294117647    0.038461538462    0.000000000000       4
    0.254901960784    0.038461538462    0.000000000000       4
    0.274509803922    0.038461538462    0.000000000000       4
    0.294117647059    0.038461538462    0.000000000000       4
    0.313725490196    0.038461538462    0.000000000000       4
    0.333333333333    0.038461538462    0.000000000000       4
    0.352941176471    0.038461538462    0.000000000000       4
    0.372549019608    0.038461538462    0.000000000000       4
    0.392156862745    0.038461538462    0.000000000000       4
    0.411764705882    0.038461538462    0.000000000000       4
    0.431372549020    0.038461538462    0.000000000000       4
    0.450980392157    0.038461538462    0.000000000000       4
    0.470588235294    0.038461538462    0.000000000000       4
    0.490196078431    0.038461538462    0.000000000000       4
    0.000000000000    0.076923076923    0.000000000000       2
    0.019607843137    0.076923076923    0.000000000000       4
    0.039215686275    0.076923076923    0.000000000000       4
    0.058823529412    0.076923076923    0.000000000000       4
    0.078431372549    0.076923076923    0.000000000000       4
    0.098039215686    0.076923076923    0.000000000000       4
    0.117647058824    0.076923076923    0.000000000000       4
    0.137254901961    0.076923076923    0.000000000000       4
    0.156862745098    0.076923076923    0.000000000000       4
    0.176470588235    0.076923076923    0.000000000000       4
    0.196078431373    0.076923076923    0.000000000000       4
    0.215686274510    0.076923076923    0.000000000000       4
    0.235294117647    0.076923076923    0.000000000000       4
    0.254901960784    0.076923076923    0.000000000000       4
    0.274509803922    0.076923076923    0.000000000000       4
    0.294117647059    0.076923076923    0.000000000000       4
    0.313725490196    0.076923076923    0.000000000000       4
    0.333333333333    0.076923076923    0.000000000000       4
    0.352941176471    0.076923076923    0.000000000000       4
    0.372549019608    0.076923076923    0.000000000000       4
    0.392156862745    0.076923076923    0.000000000000       4
    0.411764705882    0.076923076923    0.000000000000       4
    0.431372549020    0.076923076923    0.000000000000       4
    0.450980392157    0.076923076923    0.000000000000       4
    0.470588235294    0.076923076923    0.000000000000       4
    0.490196078431    0.076923076923    0.000000000000       4
    0.000000000000    0.115384615385    0.000000000000       2
    0.019607843137    0.115384615385    0.000000000000       4
    0.039215686275    0.115384615385    0.000000000000       4
    0.058823529412    0.115384615385    0.000000000000       4
    0.078431372549    0.115384615385    0.000000000000       4
    0.098039215686    0.115384615385    0.000000000000       4
    0.117647058824    0.115384615385    0.000000000000       4
    0.137254901961    0.115384615385    0.000000000000       4
    0.156862745098    0.115384615385    0.000000000000       4
    0.176470588235    0.115384615385    0.000000000000       4
    0.196078431373    0.115384615385    0.000000000000       4
    0.215686274510    0.115384615385    0.000000000000       4
    0.235294117647    0.115384615385    0.000000000000       4
    0.254901960784    0.115384615385    0.000000000000       4
    0.274509803922    0.115384615385    0.000000000000       4
    0.294117647059    0.115384615385    0.000000000000       4
    0.313725490196    0.115384615385    0.000000000000       4
    0.333333333333    0.115384615385    0.000000000000       4
    0.352941176471    0.115384615385    0.000000000000       4
    0.372549019608    0.115384615385    0.000000000000       4
    0.392156862745    0.115384615385    0.000000000000       4
    0.411764705882    0.115384615385    0.000000000000       4
    0.431372549020    0.115384615385    0.000000000000       4
    0.450980392157    0.115384615385    0.000000000000       4
    0.470588235294    0.115384615385    0.000000000000       4
    0.490196078431    0.115384615385    0.000000000000       4
    0.000000000000    0.153846153846    0.000000000000       2
    0.019607843137    0.153846153846    0.000000000000       4
    0.039215686275    0.153846153846    0.000000000000       4
    0.058823529412    0.153846153846    0.000000000000       4
    0.078431372549    0.153846153846    0.000000000000       4
    0.098039215686    0.153846153846    0.000000000000       4
    0.117647058824    0.153846153846    0.000000000000       4
    0.137254901961    0.153846153846    0.000000000000       4
    0.156862745098    0.153846153846    0.000000000000       4
    0.176470588235    0.153846153846    0.000000000000       4
    0.196078431373    0.153846153846    0.000000000000       4
    0.215686274510    0.153846153846    0.000000000000       4
    0.235294117647    0.153846153846    0.000000000000       4
    0.254901960784    0.153846153846    0.000000000000       4
    0.274509803922    0.153846153846    0.000000000000       4
    0.294117647059    0.153846153846    0.000000000000       4
    0.313725490196    0.153846153846    0.000000000000       4
    0.333333333333    0.153846153846    0.000000000000       4
    0.352941176471    0.153846153846    0.000000000000       4
    0.372549019608    0.153846153846    0.000000000000       4
    0.392156862745    0.153846153846    0.000000000000       4
    0.411764705882    0.153846153846    0.000000000000       4
    0.431372549020    0.153846153846    0.000000000000       4
    0.450980392157    0.153846153846    0.000000000000       4
    0.470588235294    0.153846153846    0.000000000000       4
    0.490196078431    0.153846153846    0.000000000000       4
    0.000000000000    0.192307692308    0.000000000000       2
    0.019607843137    0.192307692308    0.000000000000       4
    0.039215686275    0.192307692308    0.000000000000       4
    0.058823529412    0.192307692308    0.000000000000       4
    0.078431372549    0.192307692308    0.000000000000       4
    0.098039215686    0.192307692308    0.000000000000       4
    0.117647058824    0.192307692308    0.000000000000       4
    0.137254901961    0.192307692308    0.000000000000       4
    0.156862745098    0.192307692308    0.000000000000       4
    0.176470588235    0.192307692308    0.000000000000       4
    0.196078431373    0.192307692308    0.000000000000       4
    0.215686274510    0.192307692308    0.000000000000       4
    0.235294117647    0.192307692308    0.000000000000       4
    0.254901960784    0.192307692308    0.000000000000       4
    0.274509803922    0.192307692308    0.000000000000       4
    0.294117647059    0.192307692308    0.000000000000       4
    0.313725490196    0.192307692308    0.000000000000       4
    0.333333333333    0.192307692308    0.000000000000       4
    0.352941176471    0.192307692308    0.000000000000       4
    0.372549019608    0.192307692308    0.000000000000       4
    0.392156862745    0.192307692308    0.000000000000       4
    0.411764705882    0.192307692308    0.000000000000       4
    0.431372549020    0.192307692308    0.000000000000       4
    0.450980392157    0.192307692308    0.000000000000       4
    0.470588235294    0.192307692308    0.000000000000       4
    0.490196078431    0.192307692308    0.000000000000       4
    0.000000000000    0.230769230769    0.000000000000       2
    0.019607843137    0.230769230769    0.000000000000       4
    0.039215686275    0.230769230769    0.000000000000       4
    0.058823529412    0.230769230769    0.000000000000       4
    0.078431372549    0.230769230769    0.000000000000       4
    0.098039215686    0.230769230769    0.000000000000       4
    0.117647058824    0.230769230769    0.000000000000       4
    0.137254901961    0.230769230769    0.000000000000       4
    0.156862745098    0.230769230769    0.000000000000       4
    0.176470588235    0.230769230769    0.000000000000       4
    0.196078431373    0.230769230769    0.000000000000       4
    0.215686274510    0.230769230769    0.000000000000       4
    0.235294117647    0.230769230769    0.000000000000       4
    0.254901960784    0.230769230769    0.000000000000       4
    0.274509803922    0.230769230769    0.000000000000       4
    0.294117647059    0.230769230769    0.000000000000       4
    0.313725490196    0.230769230769    0.000000000000       4
    0.333333333333    0.230769230769    0.000000000000       4
    0.352941176471    0.230769230769    0.000000000000       4
    0.372549019608    0.230769230769    0.000000000000       4
    0.392156862745    0.230769230769    0.000000000000       4
    0.411764705882    0.230769230769    0.000000000000       4
    0.431372549020    0.230769230769    0.000000000000       4
    0.450980392157    0.230769230769    0.000000000000       4
    0.470588235294    0.230769230769    0.000000000000       4
    0.490196078431    0.230769230769    0.000000000000       4
    0.000000000000    0.269230769231    0.000000000000       2
    0.019607843137    0.269230769231    0.000000000000       4
    0.039215686275    0.269230769231    0.000000000000       4
    0.058823529412    0.269230769231    0.000000000000       4
    0.078431372549    0.269230769231    0.000000000000       4
    0.098039215686    0.269230769231    0.000000000000       4
    0.117647058824    0.269230769231    0.000000000000       4
    0.137254901961    0.269230769231    0.000000000000       4
    0.156862745098    0.269230769231    0.000000000000       4
    0.176470588235    0.269230769231    0.000000000000       4
    0.196078431373    0.269230769231    0.000000000000       4
    0.215686274510    0.269230769231    0.000000000000       4
    0.235294117647    0.269230769231    0.000000000000       4
    0.254901960784    0.269230769231    0.000000000000       4
    0.274509803922    0.269230769231    0.000000000000       4
    0.294117647059    0.269230769231    0.000000000000       4
    0.313725490196    0.269230769231    0.000000000000       4
    0.333333333333    0.269230769231    0.000000000000       4
    0.352941176471    0.269230769231    0.000000000000       4
    0.372549019608    0.269230769231    0.000000000000       4
    0.392156862745    0.269230769231    0.000000000000       4
    0.411764705882    0.269230769231    0.000000000000       4
    0.431372549020    0.269230769231    0.000000000000       4
    0.450980392157    0.269230769231    0.000000000000       4
    0.470588235294    0.269230769231    0.000000000000       4
    0.490196078431    0.269230769231    0.000000000000       4
    0.000000000000    0.307692307692    0.000000000000       2
    0.019607843137    0.307692307692    0.000000000000       4
    0.039215686275    0.307692307692    0.000000000000       4
    0.058823529412    0.307692307692    0.000000000000       4
    0.078431372549    0.307692307692    0.000000000000       4
    0.098039215686    0.307692307692    0.000000000000       4
    0.117647058824    0.307692307692    0.000000000000       4
    0.137254901961    0.307692307692    0.000000000000       4
    0.156862745098    0.307692307692    0.000000000000       4
    0.176470588235    0.307692307692    0.000000000000       4
    0.196078431373    0.307692307692    0.000000000000       4
    0.215686274510    0.307692307692    0.000000000000       4
    0.235294117647    0.307692307692    0.000000000000       4
    0.254901960784    0.307692307692    0.000000000000       4
    0.274509803922    0.307692307692    0.000000000000       4
    0.294117647059    0.307692307692    0.000000000000       4
    0.313725490196    0.307692307692    0.000000000000       4
    0.333333333333    0.307692307692    0.000000000000       4
    0.352941176471    0.307692307692    0.000000000000       4
    0.372549019608    0.307692307692    0.000000000000       4
    0.392156862745    0.307692307692    0.000000000000       4
    0.411764705882    0.307692307692    0.000000000000       4
    0.431372549020    0.307692307692    0.000000000000       4
    0.450980392157    0.307692307692    0.000000000000       4
    0.470588235294    0.307692307692    0.000000000000       4
    0.490196078431    0.307692307692    0.000000000000       4
    0.000000000000    0.346153846154    0.000000000000       2
    0.019607843137    0.346153846154    0.000000000000       4
    0.039215686275    0.346153846154    0.000000000000       4
    0.058823529412    0.346153846154    0.000000000000       4
    0.078431372549    0.346153846154    0.000000000000       4
    0.098039215686    0.346153846154    0.000000000000       4
    0.117647058824    0.346153846154    0.000000000000       4
    0.137254901961    0.346153846154    0.000000000000       4
    0.156862745098    0.346153846154    0.000000000000       4
    0.176470588235    0.346153846154    0.000000000000       4
    0.196078431373    0.346153846154    0.000000000000       4
    0.215686274510    0.346153846154    0.000000000000       4
    0.235294117647    0.346153846154    0.000000000000       4
    0.254901960784    0.346153846154    0.000000000000       4
    0.274509803922    0.346153846154    0.000000000000       4
    0.294117647059    0.346153846154    0.000000000000       4
    0.313725490196    0.346153846154    0.000000000000       4
    0.333333333333    0.346153846154    0.000000000000       4
    0.352941176471    0.346153846154    0.000000000000       4
    0.372549019608    0.346153846154    0.000000000000       4
    0.392156862745    0.346153846154    0.000000000000       4
    0.411764705882    0.346153846154    0.000000000000       4
    0.431372549020    0.346153846154    0.000000000000       4
    0.450980392157    0.346153846154    0.000000000000       4
    0.470588235294    0.346153846154    0.000000000000       4
    0.490196078431    0.346153846154    0.000000000000       4
    0.000000000000    0.384615384615    0.000000000000       2
    0.019607843137    0.384615384615    0.000000000000       4
    0.039215686275    0.384615384615    0.000000000000       4
    0.058823529412    0.384615384615    0.000000000000       4
    0.078431372549    0.384615384615    0.000000000000       4
    0.098039215686    0.384615384615    0.000000000000       4
    0.117647058824    0.384615384615    0.000000000000       4
    0.137254901961    0.384615384615    0.000000000000       4
    0.156862745098    0.384615384615    0.000000000000       4
    0.176470588235    0.384615384615    0.000000000000       4
    0.196078431373    0.384615384615    0.000000000000       4
    0.215686274510    0.384615384615    0.000000000000       4
    0.235294117647    0.384615384615    0.000000000000       4
    0.254901960784    0.384615384615    0.000000000000       4
    0.274509803922    0.384615384615    0.000000000000       4
    0.294117647059    0.384615384615    0.000000000000       4
    0.313725490196    0.384615384615    0.000000000000       4
    0.333333333333    0.384615384615    0.000000000000       4
    0.352941176471    0.384615384615    0.000000000000       4
    0.372549019608    0.384615384615    0.000000000000       4
    0.392156862745    0.384615384615    0.000000000000       4
    0.411764705882    0.384615384615    0.000000000000       4
    0.431372549020    0.384615384615    0.000000000000       4
    0.450980392157    0.384615384615    0.000000000000       4
    0.470588235294    0.384615384615    0.000000000000       4
    0.490196078431    0.384615384615    0.000000000000       4
    0.000000000000    0.423076923077    0.000000000000       2
    0.019607843137    0.423076923077    0.000000000000       4
    0.039215686275    0.423076923077    0.000000000000       4
    0.058823529412    0.423076923077    0.000000000000       4
    0.078431372549    0.423076923077    0.000000000000       4
    0.098039215686    0.423076923077    0.000000000000       4
    0.117647058824    0.423076923077    0.000000000000       4
    0.137254901961    0.423076923077    0.000000000000       4
    0.156862745098    0.423076923077    0.000000000000       4
    0.176470588235    0.423076923077    0.000000000000       4
    0.196078431373    0.423076923077    0.000000000000       4
    0.215686274510    0.423076923077    0.000000000000       4
    0.235294117647    0.423076923077    0.000000000000       4
    0.254901960784    0.423076923077    0.000000000000       4
    0.274509803922    0.423076923077    0.000000000000       4
    0.294117647059    0.423076923077    0.000000000000       4
    0.313725490196    0.423076923077    0.000000000000       4
    0.333333333333    0.423076923077    0.000000000000       4
    0.352941176471    0.423076923077    0.000000000000       4
    0.372549019608    0.423076923077    0.000000000000       4
    0.392156862745    0.423076923077    0.000000000000       4
    0.411764705882    0.423076923077    0.000000000000       4
    0.431372549020    0.423076923077    0.000000000000       4
    0.450980392157    0.423076923077    0.000000000000       4
    0.470588235294    0.423076923077    0.000000000000       4
    0.490196078431    0.423076923077    0.000000000000       4
    0.000000000000    0.461538461538    0.000000000000       2
    0.019607843137    0.461538461538    0.000000000000       4
    0.039215686275    0.461538461538    0.000000000000       4
    0.058823529412    0.461538461538    0.000000000000       4
    0.078431372549    0.461538461538    0.000000000000       4
    0.098039215686    0.461538461538    0.000000000000       4
    0.117647058824    0.461538461538    0.000000000000       4
    0.137254901961    0.461538461538    0.000000000000       4
    0.156862745098    0.461538461538    0.000000000000       4
    0.176470588235    0.461538461538    0.000000000000       4
    0.196078431373    0.461538461538    0.000000000000       4
    0.215686274510    0.461538461538    0.000000000000       4
    0.235294117647    0.461538461538    0.000000000000       4
    0.254901960784    0.461538461538    0.000000000000       4
    0.274509803922    0.461538461538    0.000000000000       4
    0.294117647059    0.461538461538    0.000000000000       4
    0.313725490196    0.461538461538    0.000000000000       4
    0.333333333333    0.461538461538    0.000000000000       4
    0.352941176471    0.461538461538    0.000000000000       4
    0.372549019608    0.461538461538    0.000000000000       4
    0.392156862745    0.461538461538    0.000000000000       4
    0.411764705882    0.461538461538    0.000000000000       4
    0.431372549020    0.461538461538    0.000000000000       4
    0.450980392157    0.461538461538    0.000000000000       4
    0.470588235294    0.461538461538    0.000000000000       4
    0.490196078431    0.461538461538    0.000000000000       4
    0.000000000000    0.500000000000    0.000000000000       1
    0.019607843137    0.500000000000    0.000000000000       2
    0.039215686275    0.500000000000    0.000000000000       2
    0.058823529412    0.500000000000    0.000000000000       2
    0.078431372549    0.500000000000    0.000000000000       2
    0.098039215686    0.500000000000    0.000000000000       2
    0.117647058824    0.500000000000    0.000000000000       2
    0.137254901961    0.500000000000    0.000000000000       2
    0.156862745098    0.500000000000    0.000000000000       2
    0.176470588235    0.500000000000    0.000000000000       2
    0.196078431373    0.500000000000    0.000000000000       2
    0.215686274510    0.500000000000    0.000000000000       2
    0.235294117647    0.500000000000    0.000000000000       2
    0.254901960784    0.500000000000    0.000000000000       2
    0.274509803922    0.500000000000    0.000000000000       2
    0.294117647059    0.500000000000    0.000000000000       2
    0.313725490196    0.500000000000    0.000000000000       2
    0.333333333333    0.500000000000    0.000000000000       2
    0.352941176471    0.500000000000    0.000000000000       2
    0.372549019608    0.500000000000    0.000000000000       2
    0.392156862745    0.500000000000    0.000000000000       2
    0.411764705882    0.500000000000    0.000000000000       2
    0.431372549020    0.500000000000    0.000000000000       2
    0.450980392157    0.500000000000    0.000000000000       2
    0.470588235294    0.500000000000    0.000000000000       2
    0.490196078431    0.500000000000    0.000000000000       2
