CONTCAR\(9)                             
   1.00000000000000     
    13.6161003113000003    0.0000000000000000    0.0000000000000000
    -6.8080501556000002   11.7918887699999999    0.0000000000000000
     0.0000000000000000    0.0000000000000000   24.7478008269999989
   Ca   Ti   S    O    H 
     4    32    64     1     1
Direct
  0.0004825794073300  0.0006125895014856  0.5011724317940137
  0.5004285010187379  0.0016093473181791  0.5011995316678168
  0.9991331559988225  0.5005638395817207  0.5011070435685213
  0.5006471000521096  0.5004716479707382  0.5011909883000343
  0.4987423888534419  0.2504271561641608  0.6390950973030576
  0.0021459708964624  0.2514932130882416  0.3634911239590972
  0.2520063470417904  0.0031424171886987  0.6389518484561338
  0.2488760633088336  0.4981934487448964  0.3635359974120969
  0.2516692704492281  0.2496534355489299  0.6383214820687581
  0.2489226969530944  0.2515590979300723  0.3633682795396868
  0.0004117601480615  0.0012663817673292  0.6415229862164861
  0.9999239786885737  0.0004582894924012  0.3609762834545408
  0.9982339894602458  0.2501303644994595  0.6390613230055621
  0.5021451198686411  0.2515366676061384  0.3632946523692016
  0.7507049708989659  0.0023920907924306  0.6391275714781913
  0.7487450740659480  0.4981242174826329  0.3632653809068958
  0.7516869595781887  0.2499370280327372  0.6391881056604376
  0.7489017172325265  0.2514357097310859  0.3633165240685173
  0.5008037551355980  0.9996207163015933  0.6418626184203489
  0.4999392502973086  0.0005153484219468  0.3609560914907785
  0.4999725665267408  0.7514028236129522  0.6383300204993047
  0.0021904450476175  0.7515837393194560  0.3633361094551815
  0.2495728318068918  0.5016610117057719  0.6376444334214472
  0.2488283250080211  0.9981245779073622  0.3633620921466914
  0.2522599698823423  0.7494269521594108  0.6383549025666294
  0.2489004543747114  0.7513826681079531  0.3635344841894187
  0.0015625829313745  0.5009698748697585  0.6417102053657029
 -0.0001186999890098  0.5004286250574104  0.3609497365195982
  0.9987844877024163  0.7499143807987324  0.6388970836736273
  0.5021152365190530  0.7514738498865756  0.3636119239637314
  0.7511953671833723  0.5034351934177580  0.6389595659749308
  0.7487652386050427  0.9981013992291614  0.3634752910534267
  0.7519865480838579  0.7500856450952387  0.6383613573559362
  0.7488294436183305  0.7514384368152963  0.3634167176464644
  0.5025270006851108  0.5001296462633573  0.6397368629090702
  0.4999261884858227  0.5005299404720630  0.3610600793172720
  0.4161700666929693  0.3328536988736943  0.4221567387075414
  0.4167622510685991  0.3345842570608953  0.6964397888444108
  0.1675662498584576  0.0842169468196156  0.4221026019953081
  0.1680725376082260  0.0851165768897577  0.6965197186601305
  0.1666212640087302  0.3336111434532513  0.4225968869922532
  0.1681548513322968  0.3351309797628386  0.6947207722800091
  0.4161851736810619  0.0842432898882681  0.4220940264144653
  0.4171578659390301  0.0848153445163755  0.6965491715132631
  0.0828229139815779  0.4163419144402750  0.5795367496424637
  0.0835792192610913  0.4168310582371432  0.3057394822468676
  0.3343196285336578  0.1673780424439076  0.5796824781882818
  0.3332834222181336  0.1670449725919730  0.3074817533394182
  0.3326680724342420  0.4163143437398112  0.5797454198661905
  0.3328771204733822  0.4169794522581389  0.3057040091310889
  0.0837408948102887  0.1681165309320060  0.5802201816474997
  0.0834759154503976  0.1675558739621428  0.3056257794500861
  0.9161159043545133  0.3328785610616548  0.4221686897275820
  0.9172464180341791  0.3338129952268027  0.6970207845256930
  0.6674830700537905  0.0842206323872784  0.4221404070738995
  0.6678854087299274  0.0843755091131592  0.6970597411773206
  0.6665647916778346  0.3336789887880259  0.4224397810652117
  0.6673425113203733  0.3345312385676566  0.6950264129129524
  0.9161731406607889  0.0840666718126985  0.4222265943321761
  0.9170256594653335  0.0846777685038480  0.6966776490047527
  0.5854273103306233  0.4163899820263736  0.5792721720663917
  0.5833919243422954  0.4168740797798212  0.3055588286323888
  0.8337801600932513  0.1676754435772702  0.5800510342338853
  0.8333497728882421  0.1669540697548127  0.3075460015466005
  0.8331470867216079  0.4170325688354274  0.5806158278608398
  0.8328463205379568  0.4168551380980927  0.3055614003252336
  0.5844511430732190  0.1682130118257557  0.5807165909626685
  0.5835466406546524  0.1674800767624178  0.3055585916699123
  0.4162242726467644  0.8331142883203302  0.4223020954023983
  0.4166346590789886  0.8328031855383103  0.6966863084528688
  0.1672886171233514  0.5840618052452263  0.4222717875049334
  0.1687375951683925  0.5846236014694247  0.6965087841762607
  0.1666146277216809  0.8337809087821633  0.4225455561698139
  0.1674517369041383  0.8343792675938221  0.6946152645150180
  0.4161909860268767  0.5841249928932633  0.4223675018682408
  0.4180165558035582  0.5848075917079480  0.6935900758802377
  0.0844273341438018  0.9173665627998745  0.5802931502160315
  0.0835145435650205  0.9168715541031276  0.3056257133088195
  0.3336284122576942  0.6684416501754671  0.5796909702394680
  0.3333530219539758  0.6670473072358366  0.3076598204962360
  0.3336582435807758  0.9178155835755983  0.5802871323616756
  0.3328066937552750  0.9167354446665561  0.3056554470150595
  0.0837798986032111  0.6678063011885822  0.5802237900402208
  0.0836024417279127  0.6674889875668616  0.3056725584713135
  0.9162790690419084  0.8329168969303796  0.4221567614945563
  0.9168348245968939  0.8336710556141932  0.6965139117706565
  0.6676176740043723  0.5841398646811072  0.4221429786599146
  0.6675061474984353  0.5850945893609730  0.6963527488738117
  0.6666963704946449  0.8337045136535504  0.4226316582505302
  0.6669844206414205  0.8336261342450501  0.6947803497045911
  0.9160630221462857  0.5842129655263678  0.4220640078039724
  0.9170925771247954  0.5846941087423951  0.6964847482833643
  0.5850689086248537  0.9183795606247098  0.5796637897246688
  0.5834040992094893  0.9167208548321361  0.3057470454381557
  0.8344229872193839  0.6674654947122822  0.5795645321190247
  0.8332959036858424  0.6670976882146795  0.3074687579041994
  0.8334854343495920  0.9179422452206963  0.5801542874068024
  0.8328129557017157  0.9168317068090897  0.3056908791714420
  0.5855912600902713  0.6694169380279659  0.5796440119569300
  0.5834401944509918  0.6675583840579390  0.3057213539055650
  0.4190378910237378  0.5910236548137114  0.7612268581011147
  0.3869140139175956  0.5127627061960552  0.7743526590766532
 
  0.00000000E+00  0.00000000E+00  0.00000000E+00
  0.00000000E+00  0.00000000E+00  0.00000000E+00
  0.00000000E+00  0.00000000E+00  0.00000000E+00
  0.00000000E+00  0.00000000E+00  0.00000000E+00
  0.00000000E+00  0.00000000E+00  0.00000000E+00
  0.00000000E+00  0.00000000E+00  0.00000000E+00
  0.00000000E+00  0.00000000E+00  0.00000000E+00
  0.00000000E+00  0.00000000E+00  0.00000000E+00
  0.00000000E+00  0.00000000E+00  0.00000000E+00
  0.00000000E+00  0.00000000E+00  0.00000000E+00
  0.00000000E+00  0.00000000E+00  0.00000000E+00
  0.00000000E+00  0.00000000E+00  0.00000000E+00
  0.00000000E+00  0.00000000E+00  0.00000000E+00
  0.00000000E+00  0.00000000E+00  0.00000000E+00
  0.00000000E+00  0.00000000E+00  0.00000000E+00
  0.00000000E+00  0.00000000E+00  0.00000000E+00
  0.00000000E+00  0.00000000E+00  0.00000000E+00
  0.00000000E+00  0.00000000E+00  0.00000000E+00
  0.00000000E+00  0.00000000E+00  0.00000000E+00
  0.00000000E+00  0.00000000E+00  0.00000000E+00
  0.00000000E+00  0.00000000E+00  0.00000000E+00
  0.00000000E+00  0.00000000E+00  0.00000000E+00
  0.00000000E+00  0.00000000E+00  0.00000000E+00
  0.00000000E+00  0.00000000E+00  0.00000000E+00
  0.00000000E+00  0.00000000E+00  0.00000000E+00
  0.00000000E+00  0.00000000E+00  0.00000000E+00
  0.00000000E+00  0.00000000E+00  0.00000000E+00
  0.00000000E+00  0.00000000E+00  0.00000000E+00
  0.00000000E+00  0.00000000E+00  0.00000000E+00
  0.00000000E+00  0.00000000E+00  0.00000000E+00
  0.00000000E+00  0.00000000E+00  0.00000000E+00
  0.00000000E+00  0.00000000E+00  0.00000000E+00
  0.00000000E+00  0.00000000E+00  0.00000000E+00
  0.00000000E+00  0.00000000E+00  0.00000000E+00
  0.00000000E+00  0.00000000E+00  0.00000000E+00
  0.00000000E+00  0.00000000E+00  0.00000000E+00
  0.00000000E+00  0.00000000E+00  0.00000000E+00
  0.00000000E+00  0.00000000E+00  0.00000000E+00
  0.00000000E+00  0.00000000E+00  0.00000000E+00
  0.00000000E+00  0.00000000E+00  0.00000000E+00
  0.00000000E+00  0.00000000E+00  0.00000000E+00
  0.00000000E+00  0.00000000E+00  0.00000000E+00
  0.00000000E+00  0.00000000E+00  0.00000000E+00
  0.00000000E+00  0.00000000E+00  0.00000000E+00
  0.00000000E+00  0.00000000E+00  0.00000000E+00
  0.00000000E+00  0.00000000E+00  0.00000000E+00
  0.00000000E+00  0.00000000E+00  0.00000000E+00
  0.00000000E+00  0.00000000E+00  0.00000000E+00
  0.00000000E+00  0.00000000E+00  0.00000000E+00
  0.00000000E+00  0.00000000E+00  0.00000000E+00
  0.00000000E+00  0.00000000E+00  0.00000000E+00
  0.00000000E+00  0.00000000E+00  0.00000000E+00
  0.00000000E+00  0.00000000E+00  0.00000000E+00
  0.00000000E+00  0.00000000E+00  0.00000000E+00
  0.00000000E+00  0.00000000E+00  0.00000000E+00
  0.00000000E+00  0.00000000E+00  0.00000000E+00
  0.00000000E+00  0.00000000E+00  0.00000000E+00
  0.00000000E+00  0.00000000E+00  0.00000000E+00
  0.00000000E+00  0.00000000E+00  0.00000000E+00
  0.00000000E+00  0.00000000E+00  0.00000000E+00
  0.00000000E+00  0.00000000E+00  0.00000000E+00
  0.00000000E+00  0.00000000E+00  0.00000000E+00
  0.00000000E+00  0.00000000E+00  0.00000000E+00
  0.00000000E+00  0.00000000E+00  0.00000000E+00
  0.00000000E+00  0.00000000E+00  0.00000000E+00
  0.00000000E+00  0.00000000E+00  0.00000000E+00
  0.00000000E+00  0.00000000E+00  0.00000000E+00
  0.00000000E+00  0.00000000E+00  0.00000000E+00
  0.00000000E+00  0.00000000E+00  0.00000000E+00
  0.00000000E+00  0.00000000E+00  0.00000000E+00
  0.00000000E+00  0.00000000E+00  0.00000000E+00
  0.00000000E+00  0.00000000E+00  0.00000000E+00
  0.00000000E+00  0.00000000E+00  0.00000000E+00
  0.00000000E+00  0.00000000E+00  0.00000000E+00
  0.00000000E+00  0.00000000E+00  0.00000000E+00
  0.00000000E+00  0.00000000E+00  0.00000000E+00
  0.00000000E+00  0.00000000E+00  0.00000000E+00
  0.00000000E+00  0.00000000E+00  0.00000000E+00
  0.00000000E+00  0.00000000E+00  0.00000000E+00
  0.00000000E+00  0.00000000E+00  0.00000000E+00
  0.00000000E+00  0.00000000E+00  0.00000000E+00
  0.00000000E+00  0.00000000E+00  0.00000000E+00
  0.00000000E+00  0.00000000E+00  0.00000000E+00
  0.00000000E+00  0.00000000E+00  0.00000000E+00
  0.00000000E+00  0.00000000E+00  0.00000000E+00
  0.00000000E+00  0.00000000E+00  0.00000000E+00
  0.00000000E+00  0.00000000E+00  0.00000000E+00
  0.00000000E+00  0.00000000E+00  0.00000000E+00
  0.00000000E+00  0.00000000E+00  0.00000000E+00
  0.00000000E+00  0.00000000E+00  0.00000000E+00
  0.00000000E+00  0.00000000E+00  0.00000000E+00
  0.00000000E+00  0.00000000E+00  0.00000000E+00
  0.00000000E+00  0.00000000E+00  0.00000000E+00
  0.00000000E+00  0.00000000E+00  0.00000000E+00
  0.00000000E+00  0.00000000E+00  0.00000000E+00
  0.00000000E+00  0.00000000E+00  0.00000000E+00
  0.00000000E+00  0.00000000E+00  0.00000000E+00
  0.00000000E+00  0.00000000E+00  0.00000000E+00
  0.00000000E+00  0.00000000E+00  0.00000000E+00
  0.00000000E+00  0.00000000E+00  0.00000000E+00
  0.00000000E+00  0.00000000E+00  0.00000000E+00
  0.00000000E+00  0.00000000E+00  0.00000000E+00
