 Fe1 Cl2                                
   1.00000000000000     
     3.5017689864674657    0.0000000000000000    0.0000000000000000
     1.7508849952845038    3.0326216189635904    0.0000000000000000
     0.0000000000000000    0.0000000000000000   17.8287123599019992
   Fe   Cl
     1     2
Direct
  0.0000000001631633 -0.0000000277785136  0.5000000009968606
  0.6666667222318909  0.6666667639305474  0.4209638310781101
  0.3333332776049456  0.3333332638479663  0.5790361679250294
 
  0.00000000E+00  0.00000000E+00  0.00000000E+00
  0.00000000E+00  0.00000000E+00  0.00000000E+00
  0.00000000E+00  0.00000000E+00  0.00000000E+00
