CONTCAR                                 
   1.00000000000000     
     9.4547004700000006    0.0000000000000000    0.0000000000000000
    -2.1212102605999998   15.2124219391000004    0.0000000000000000
     0.0000000000000000    0.0000000000000000   27.1490001678000006
   Li   Fe   P    O 
    16     8    32   105
Direct
  0.4381458650817522  0.1653827497222119  0.4831550871778718
  0.3248714143696891  0.2143157454052945  0.2813483748724121
  0.1763207321408393  0.2856319789561932  0.7192788936122940
  0.0632323193814708  0.3342096126359884  0.5173592121470215
  0.9377535012116943  0.1655848403789831  0.4831418042886160
  0.8248992134823122  0.2143257383161853  0.2813427325990714
  0.6764507301171867  0.2856059729634460  0.7192306841934509
  0.5633132306605411  0.3340915037911511  0.5173634101256009
  0.4379752997343932  0.6658491744766489  0.4831367219395469
  0.3249076258988676  0.7145616810550450  0.2813859301840386
  0.1707799422255787  0.7850805596954303  0.7202940362639184
  0.0637324595998038  0.8344399410833083  0.5174067792859189
  0.9377002691689932  0.6659603620458047  0.4831095322352214
  0.8249058550820013  0.7145232578179961  0.2813804345160026
  0.6800988913466748  0.7817846917062854  0.7247684590211892
  0.5638521366512833  0.8344904613033276  0.5175373244331823
  0.2992315149565325  0.0624241466063560  0.3819993680974781
  0.2023836708896463  0.4377223987145575  0.6184166736539263
  0.7992054054885972  0.0624086355720086  0.3819995459894701
  0.7022817177665073  0.4377407519822613  0.6184783822105218
  0.2991130417170130  0.5623524341897246  0.3819246146566410
  0.2024500869467514  0.9377291771845426  0.6185069890928929
  0.7990632426212535  0.5623744160828834  0.3819313174035723
  0.7018518510323454  0.9371385894727663  0.6190086159666095
  0.0366274843861736  0.4704610261674582  0.4327912296917630
  0.4348512840040182  0.3487949782110327  0.6723662712088361
  0.3691241205352087  0.3767139896496768  0.3587208016496290
  0.3075842583855056  0.2601849781129105  0.5822515764581374
  0.1937701805010134  0.2397400573303323  0.4182252474278335
  0.1321125011892477  0.1232466963883511  0.6418583941459842
  0.0666357817504460  0.1512131305989189  0.3280491223569174
  0.4650037807483956  0.0295579608466601  0.5677204593871258
  0.5366324094111192  0.4703903626686954  0.4328040594293812
  0.9349926113916068  0.3487672836709740  0.6723365261400381
  0.8691406163764284  0.3767422394863420  0.3587155121547352
  0.8075503871380134  0.2601710648963000  0.5822498455303009
  0.6937290936516582  0.2397617740600357  0.4182073238154091
  0.6323236258172408  0.1231411978633792  0.6418677653358876
  0.5666578935787239  0.1512144707393311  0.3280267078008515
  0.9642591941925193  0.0294449679294802  0.5679185636861518
  0.0368183301582501  0.9705883698665089  0.4329103958704089
  0.4351106128192019  0.8487814527515697  0.6723160903985688
  0.3694408088037736  0.8767950556502021  0.3588295118827446
  0.3078189129332144  0.7602612117452984  0.5822675589263264
  0.1938630897188648  0.7397281262540674  0.4182536451854250
  0.1319738406477833  0.6232477399160291  0.6416174518338639
  0.0665979749707432  0.6513350685153312  0.3280357106321188
  0.4648715279250838  0.5297242998647129  0.5676092672085100
  0.5368025124787357  0.9705439216511774  0.4329343224248483
  0.9355302381774653  0.8479393137472202  0.6723762867460839
  0.8694090587505628  0.8767884892824590  0.3588332407625932
  0.8076535728324795  0.7602311591752300  0.5821064742038466
  0.6937608295460174  0.7397587792739904  0.4182445034186336
  0.6327147636669240  0.6236837708188246  0.6415475429820083
  0.5666094864462129  0.6513391518606535  0.3280211787756338
  0.9646234378863968  0.5294994339663022  0.5675087031097837
  0.4601609463879731  0.0516247163126212  0.4206163915051920
  0.4022615527469239  0.1260412455026611  0.3281368434096797
  0.0187627743621488  0.4068451688563904  0.3841038716345555
  0.4890165508719695  0.4172978240600689  0.4767405222467750
  0.3792123672653593  0.3160740279718071  0.3171739785331125
  0.4094607857593640  0.2764859419730172  0.6285578943147395
  0.3026876775613415  0.9966679952687786  0.5670491772234817
  0.3822435625742568  0.3085612888438532  0.7202780019077707
  0.2985819419240187  0.1714905138424622  0.4190524941564286
  0.3896941282687226  0.2510411797380648  0.5362724758407632
  0.2816677149534849  0.3328206446513740  0.4056925451453861
  0.3639697045438212  0.4284823231671686  0.6560093042867520
  0.3029584597956194  0.4592808876335887  0.3452904353208833
  0.1986871796523940  0.0407730256603672  0.6551437041114647
  0.1375482652972072  0.0715391687578840  0.3443496178178929
  0.2192160039572020  0.1672969863026720  0.5948476833664215
  0.1114845648976864  0.2485879565825546  0.4641904958375958
  0.2031363208989315  0.3286574812623616  0.5813368666677921
  0.1191026259921405  0.1914946808033995  0.2801253797343010
  0.1989141708608345  0.5035535257271073  0.4333406234369821
  0.0921371616034431  0.2235370709044849  0.3718407937204544
  0.1221966425756482  0.1838441791039951  0.6834186074434486
  0.0114797032960981  0.0825451336263120  0.5239458542797975
  0.4827760971849784  0.0931436455677590  0.6164269542418813
  0.0993630668010885  0.3740026983803788  0.6722540452509860
  0.0415076106434498  0.4484916431318543  0.5798151679274547
  0.9601517784923068  0.0516518338058975  0.4205817539013529
  0.9022650097368766  0.1260392151824671  0.3281395801512694
  0.5187854653963244  0.4068096111877117  0.3840844791231097
  0.9889949648347380  0.4174383275589358  0.4767486055758540
  0.8792584967309911  0.3161135613768462  0.3171700270224620
  0.9097123068270512  0.2765653900857944  0.6284857301832582
  0.8021229632098187  0.9960650176478572  0.5675402661132201
  0.8824744586281812  0.3084587768796429  0.7202316426733864
  0.7985461483323502  0.1714794138615132  0.4190535490453832
  0.8895254765214040  0.2512743548284040  0.5362128201874466
  0.7816815496012230  0.3328242656257255  0.4056796836368400
  0.8639821662502162  0.4284449530581901  0.6560343648263289
  0.8029702598858477  0.4592997609830086  0.3452939795022820
  0.6983802184714171  0.0405545161993471  0.6553692816911173
  0.6375295460911771  0.0715281656785368  0.3443508987206848
  0.7199536611349339  0.1670810318405591  0.5949146296518059
  0.6114204252942523  0.2486209201646870  0.4641658195500811
  0.7027914407472573  0.3284444399584807  0.5814598890305288
  0.6191125990225416  0.1914732259340339  0.2801079795868286
  0.6989545796386173  0.5035204302687029  0.4333460226540795
  0.5921568993544919  0.2235540261907764  0.3718127017481683
  0.6223234062856050  0.1838905019275658  0.6833558647247279
  0.5132571142962283  0.0825468421005431  0.5238025828314244
  0.9823550167539904  0.0929513565333208  0.6166366100740526
  0.5992199446706045  0.3740546616059221  0.6723166148692447
  0.5414455073833294  0.4485859858891856  0.5799453631114052
  0.4600016003602000  0.5514516864459718  0.4204721123396147
  0.4022308965735778  0.6261725489453213  0.3281159072999666
  0.0189743503365900  0.9069400730408285  0.3842476585495923
  0.4891738372300920  0.9175260813307945  0.4768983908195827
  0.3796895615115098  0.8162313997052426  0.3172659644562761
  0.4090543675569955  0.7761024223164079  0.6288100669440496
  0.3025758558026767  0.4965435139291781  0.5670101558751364
  0.3770476078199249  0.8088408689363594  0.7200193520871023
  0.2985079190864741  0.6713761165467257  0.4190701625969213
  0.3905782011519230  0.7512754161042550  0.5364173391694463
  0.2819262405857842  0.8327751134102915  0.4057586787492986
  0.3642791079603865  0.9284914107519320  0.6559728661449581
  0.3031248056827613  0.9592937741115611  0.3454317798781066
  0.1984406513837222  0.5407478489408524  0.6549533418887395
  0.1374904326002114  0.5716087585434652  0.3442896901503863
  0.2192586602244646  0.6673337834820534  0.5946310993636522
  0.1116461092293950  0.7486798588532921  0.4642295815699633
  0.2036324643853700  0.8288382553310722  0.5812292066108437
  0.1191430184978303  0.6917148153272019  0.2801431728168476
  0.1991153619635551  0.0037032462494308  0.4334516261821945
  0.0921378511701204  0.7235716066506677  0.3718839605095502
  0.1219611057384535  0.6837482862020491  0.6831917405063842
  0.0121423474947897  0.5825631124290125  0.5235489512860442
  0.4828607829540448  0.5933968788690236  0.6162002994483269
  0.0999645467265158  0.8740540572244782  0.6717226942436121
  0.0412797802943171  0.9485058416872896  0.5801126850941848
  0.9600155451902330  0.5515246749338241  0.4204706716500964
  0.9022093033111085  0.6261727031261765  0.3281279391119196
  0.5189659205098917  0.9069425054947228  0.3842553238393153
  0.9892444101256026  0.9176475757895024  0.4768957262232645
  0.8796310110923928  0.8161961870945323  0.3172754760091854
  0.9098194717878377  0.7762054170661985  0.6283147035026891
  0.8024036877648397  0.4962392408134062  0.5669341370952711
  0.8878380909612639  0.8067455543260029  0.7204818699714672
  0.7983833054066238  0.6713938259914042  0.4190897814900842
  0.8896362696298353  0.7518281605481292  0.5360036454498959
  0.7819410821707788  0.8327889353150133  0.4057809003375438
  0.8631674431145633  0.9274184656077303  0.6566920645293589
  0.8031118586762795  0.9593026395669108  0.3454230456710735
  0.6984442292471389  0.5408084881290766  0.6549393247854012
  0.6374498710815671  0.5716117687838529  0.3442984502329030
  0.7200509932251991  0.6669496791101387  0.5943147439945982
  0.6114389519613160  0.7487310287328589  0.4641871147890393
  0.7026822687845483  0.8284163683247974  0.5816021816380399
  0.6191414145263358  0.6916566816885011  0.2801168098521348
  0.6991099823876957  0.0036690546081166  0.4334640586999819
  0.5921872800397335  0.7236228469952101  0.3718355533127358
  0.6238487316261700  0.6848083434066401  0.6828442557346964
  0.5124128020681482  0.5824135187927317  0.5235230642431838
  0.9824303909144965  0.5930197636969402  0.6162001026488703
  0.5988489182207636  0.8736639127141451  0.6727286310591934
  0.5414504172010343  0.9484100430921140  0.5801457266583772
  0.5484559799943010  0.7970064417620942  0.7816394937936648
 
  0.00000000E+00  0.00000000E+00  0.00000000E+00
  0.00000000E+00  0.00000000E+00  0.00000000E+00
  0.00000000E+00  0.00000000E+00  0.00000000E+00
  0.00000000E+00  0.00000000E+00  0.00000000E+00
  0.00000000E+00  0.00000000E+00  0.00000000E+00
  0.00000000E+00  0.00000000E+00  0.00000000E+00
  0.00000000E+00  0.00000000E+00  0.00000000E+00
  0.00000000E+00  0.00000000E+00  0.00000000E+00
  0.00000000E+00  0.00000000E+00  0.00000000E+00
  0.00000000E+00  0.00000000E+00  0.00000000E+00
  0.00000000E+00  0.00000000E+00  0.00000000E+00
  0.00000000E+00  0.00000000E+00  0.00000000E+00
  0.00000000E+00  0.00000000E+00  0.00000000E+00
  0.00000000E+00  0.00000000E+00  0.00000000E+00
  0.00000000E+00  0.00000000E+00  0.00000000E+00
  0.00000000E+00  0.00000000E+00  0.00000000E+00
  0.00000000E+00  0.00000000E+00  0.00000000E+00
  0.00000000E+00  0.00000000E+00  0.00000000E+00
  0.00000000E+00  0.00000000E+00  0.00000000E+00
  0.00000000E+00  0.00000000E+00  0.00000000E+00
  0.00000000E+00  0.00000000E+00  0.00000000E+00
  0.00000000E+00  0.00000000E+00  0.00000000E+00
  0.00000000E+00  0.00000000E+00  0.00000000E+00
  0.00000000E+00  0.00000000E+00  0.00000000E+00
  0.00000000E+00  0.00000000E+00  0.00000000E+00
  0.00000000E+00  0.00000000E+00  0.00000000E+00
  0.00000000E+00  0.00000000E+00  0.00000000E+00
  0.00000000E+00  0.00000000E+00  0.00000000E+00
  0.00000000E+00  0.00000000E+00  0.00000000E+00
  0.00000000E+00  0.00000000E+00  0.00000000E+00
  0.00000000E+00  0.00000000E+00  0.00000000E+00
  0.00000000E+00  0.00000000E+00  0.00000000E+00
  0.00000000E+00  0.00000000E+00  0.00000000E+00
  0.00000000E+00  0.00000000E+00  0.00000000E+00
  0.00000000E+00  0.00000000E+00  0.00000000E+00
  0.00000000E+00  0.00000000E+00  0.00000000E+00
  0.00000000E+00  0.00000000E+00  0.00000000E+00
  0.00000000E+00  0.00000000E+00  0.00000000E+00
  0.00000000E+00  0.00000000E+00  0.00000000E+00
  0.00000000E+00  0.00000000E+00  0.00000000E+00
  0.00000000E+00  0.00000000E+00  0.00000000E+00
  0.00000000E+00  0.00000000E+00  0.00000000E+00
  0.00000000E+00  0.00000000E+00  0.00000000E+00
  0.00000000E+00  0.00000000E+00  0.00000000E+00
  0.00000000E+00  0.00000000E+00  0.00000000E+00
  0.00000000E+00  0.00000000E+00  0.00000000E+00
  0.00000000E+00  0.00000000E+00  0.00000000E+00
  0.00000000E+00  0.00000000E+00  0.00000000E+00
  0.00000000E+00  0.00000000E+00  0.00000000E+00
  0.00000000E+00  0.00000000E+00  0.00000000E+00
  0.00000000E+00  0.00000000E+00  0.00000000E+00
  0.00000000E+00  0.00000000E+00  0.00000000E+00
  0.00000000E+00  0.00000000E+00  0.00000000E+00
  0.00000000E+00  0.00000000E+00  0.00000000E+00
  0.00000000E+00  0.00000000E+00  0.00000000E+00
  0.00000000E+00  0.00000000E+00  0.00000000E+00
  0.00000000E+00  0.00000000E+00  0.00000000E+00
  0.00000000E+00  0.00000000E+00  0.00000000E+00
  0.00000000E+00  0.00000000E+00  0.00000000E+00
  0.00000000E+00  0.00000000E+00  0.00000000E+00
  0.00000000E+00  0.00000000E+00  0.00000000E+00
  0.00000000E+00  0.00000000E+00  0.00000000E+00
  0.00000000E+00  0.00000000E+00  0.00000000E+00
  0.00000000E+00  0.00000000E+00  0.00000000E+00
  0.00000000E+00  0.00000000E+00  0.00000000E+00
  0.00000000E+00  0.00000000E+00  0.00000000E+00
  0.00000000E+00  0.00000000E+00  0.00000000E+00
  0.00000000E+00  0.00000000E+00  0.00000000E+00
  0.00000000E+00  0.00000000E+00  0.00000000E+00
  0.00000000E+00  0.00000000E+00  0.00000000E+00
  0.00000000E+00  0.00000000E+00  0.00000000E+00
  0.00000000E+00  0.00000000E+00  0.00000000E+00
  0.00000000E+00  0.00000000E+00  0.00000000E+00
  0.00000000E+00  0.00000000E+00  0.00000000E+00
  0.00000000E+00  0.00000000E+00  0.00000000E+00
  0.00000000E+00  0.00000000E+00  0.00000000E+00
  0.00000000E+00  0.00000000E+00  0.00000000E+00
  0.00000000E+00  0.00000000E+00  0.00000000E+00
  0.00000000E+00  0.00000000E+00  0.00000000E+00
  0.00000000E+00  0.00000000E+00  0.00000000E+00
  0.00000000E+00  0.00000000E+00  0.00000000E+00
  0.00000000E+00  0.00000000E+00  0.00000000E+00
  0.00000000E+00  0.00000000E+00  0.00000000E+00
  0.00000000E+00  0.00000000E+00  0.00000000E+00
  0.00000000E+00  0.00000000E+00  0.00000000E+00
  0.00000000E+00  0.00000000E+00  0.00000000E+00
  0.00000000E+00  0.00000000E+00  0.00000000E+00
  0.00000000E+00  0.00000000E+00  0.00000000E+00
  0.00000000E+00  0.00000000E+00  0.00000000E+00
  0.00000000E+00  0.00000000E+00  0.00000000E+00
  0.00000000E+00  0.00000000E+00  0.00000000E+00
  0.00000000E+00  0.00000000E+00  0.00000000E+00
  0.00000000E+00  0.00000000E+00  0.00000000E+00
  0.00000000E+00  0.00000000E+00  0.00000000E+00
  0.00000000E+00  0.00000000E+00  0.00000000E+00
  0.00000000E+00  0.00000000E+00  0.00000000E+00
  0.00000000E+00  0.00000000E+00  0.00000000E+00
  0.00000000E+00  0.00000000E+00  0.00000000E+00
  0.00000000E+00  0.00000000E+00  0.00000000E+00
  0.00000000E+00  0.00000000E+00  0.00000000E+00
  0.00000000E+00  0.00000000E+00  0.00000000E+00
  0.00000000E+00  0.00000000E+00  0.00000000E+00
  0.00000000E+00  0.00000000E+00  0.00000000E+00
  0.00000000E+00  0.00000000E+00  0.00000000E+00
  0.00000000E+00  0.00000000E+00  0.00000000E+00
  0.00000000E+00  0.00000000E+00  0.00000000E+00
  0.00000000E+00  0.00000000E+00  0.00000000E+00
  0.00000000E+00  0.00000000E+00  0.00000000E+00
  0.00000000E+00  0.00000000E+00  0.00000000E+00
  0.00000000E+00  0.00000000E+00  0.00000000E+00
  0.00000000E+00  0.00000000E+00  0.00000000E+00
  0.00000000E+00  0.00000000E+00  0.00000000E+00
  0.00000000E+00  0.00000000E+00  0.00000000E+00
  0.00000000E+00  0.00000000E+00  0.00000000E+00
  0.00000000E+00  0.00000000E+00  0.00000000E+00
  0.00000000E+00  0.00000000E+00  0.00000000E+00
  0.00000000E+00  0.00000000E+00  0.00000000E+00
  0.00000000E+00  0.00000000E+00  0.00000000E+00
  0.00000000E+00  0.00000000E+00  0.00000000E+00
  0.00000000E+00  0.00000000E+00  0.00000000E+00
  0.00000000E+00  0.00000000E+00  0.00000000E+00
  0.00000000E+00  0.00000000E+00  0.00000000E+00
  0.00000000E+00  0.00000000E+00  0.00000000E+00
  0.00000000E+00  0.00000000E+00  0.00000000E+00
  0.00000000E+00  0.00000000E+00  0.00000000E+00
  0.00000000E+00  0.00000000E+00  0.00000000E+00
  0.00000000E+00  0.00000000E+00  0.00000000E+00
  0.00000000E+00  0.00000000E+00  0.00000000E+00
  0.00000000E+00  0.00000000E+00  0.00000000E+00
  0.00000000E+00  0.00000000E+00  0.00000000E+00
  0.00000000E+00  0.00000000E+00  0.00000000E+00
  0.00000000E+00  0.00000000E+00  0.00000000E+00
  0.00000000E+00  0.00000000E+00  0.00000000E+00
  0.00000000E+00  0.00000000E+00  0.00000000E+00
  0.00000000E+00  0.00000000E+00  0.00000000E+00
  0.00000000E+00  0.00000000E+00  0.00000000E+00
  0.00000000E+00  0.00000000E+00  0.00000000E+00
  0.00000000E+00  0.00000000E+00  0.00000000E+00
  0.00000000E+00  0.00000000E+00  0.00000000E+00
  0.00000000E+00  0.00000000E+00  0.00000000E+00
  0.00000000E+00  0.00000000E+00  0.00000000E+00
  0.00000000E+00  0.00000000E+00  0.00000000E+00
  0.00000000E+00  0.00000000E+00  0.00000000E+00
  0.00000000E+00  0.00000000E+00  0.00000000E+00
  0.00000000E+00  0.00000000E+00  0.00000000E+00
  0.00000000E+00  0.00000000E+00  0.00000000E+00
  0.00000000E+00  0.00000000E+00  0.00000000E+00
  0.00000000E+00  0.00000000E+00  0.00000000E+00
  0.00000000E+00  0.00000000E+00  0.00000000E+00
  0.00000000E+00  0.00000000E+00  0.00000000E+00
  0.00000000E+00  0.00000000E+00  0.00000000E+00
  0.00000000E+00  0.00000000E+00  0.00000000E+00
  0.00000000E+00  0.00000000E+00  0.00000000E+00
  0.00000000E+00  0.00000000E+00  0.00000000E+00
  0.00000000E+00  0.00000000E+00  0.00000000E+00
  0.00000000E+00  0.00000000E+00  0.00000000E+00
  0.00000000E+00  0.00000000E+00  0.00000000E+00
  0.00000000E+00  0.00000000E+00  0.00000000E+00
  0.00000000E+00  0.00000000E+00  0.00000000E+00
  0.00000000E+00  0.00000000E+00  0.00000000E+00
  0.00000000E+00  0.00000000E+00  0.00000000E+00
