CONTCAR\(4)                             
   1.00000000000000     
    12.5853996276999993    0.0000000000000000    0.0000000000000000
     0.0000000000000000   10.3535003662000005    0.0000000000000000
     0.0000000000000000    0.0000000000000000   22.0041007995999998
   Cu   O    F 
    36    13    60
Direct
  0.0059275105112893  0.2188115378518093  0.3619397995775553
  0.1721571117319885  0.4765628950205322  0.3623555728719672
  0.0003083072165042  0.0223606687423535  0.6389354408998310
  0.1647104026615273  0.2780892601360448  0.6402316795725044
  0.1454779345411394  0.1302659420532216  0.4843225458567298
  0.3121156028118155  0.3688747753621037  0.5205111679817555
  0.3352950235559605  0.2180436735580472  0.3618075014628917
  0.5015486020596738  0.4772528459771666  0.3630859282497952
  0.3410898453380064  0.0242179469500229  0.6400034390774627
  0.5120575999774275  0.2809997246904973  0.6372896488133949
  0.4787092378126636  0.1296542549119303  0.4844114354717614
  0.6478880999893966  0.3701419388333099  0.5139266530716435
  0.6685520911084569  0.2189506839222647  0.3611652036884361
  0.8378308808106835  0.4773996104120635  0.3611984058350820
  0.6732638655613244  0.0241281038663863  0.6383408143963695
  0.8344000305080438  0.2827451504329154  0.6384130547410829
  0.8144480087187690  0.1291014152060277  0.4819585684854906
  0.9791542016340470  0.3698534075912734  0.5152437063313514
  0.0060442401159877  0.7181810818012843  0.3626027894810119
  0.1724030530307591  0.9762220104794744  0.3614803127499919
 -0.0007374437290433  0.5239827475973329  0.6371446332140057
  0.1688639704289032  0.7822925446019771  0.6390570231274048
  0.1477453451479236  0.6303262508311059  0.4858544673056326
  0.3115018217076724  0.8721014969043216  0.5186455131835174
  0.3365975170560969  0.7177756611570530  0.3634351644554979
  0.5023751603715734  0.9772241044023042  0.3617635556550792
  0.3351222327355055  0.5224084254367600  0.6434269785700087
  0.5110357224576169  0.7837924459151432  0.6368680794712293
  0.4758223959097480  0.6267530859140804  0.4883153343956107
  0.6487151123351875  0.8708736522043686  0.5134942229321579
  0.6683593293600629  0.7187686733031232  0.3622571560046843
  0.8381212325404082  0.9769846998104755  0.3606635828737920
  0.6727996687784443  0.5238423655630767  0.6385873794591935
  0.8345368697489469  0.7826859008918270  0.6383888202251873
  0.8151830676855024  0.6293529446357948  0.4829154621660587
  0.9789297490055582  0.8713682270423413  0.5156442187810782
  0.2709913878267741  0.3735100615408589  0.6060731803317021
  0.1118715559279711  0.1212775330789573  0.3964255395139697
  0.6176002891114488  0.3768938718237494  0.6021051571066441
  0.4407534584797326  0.1214159385542932  0.3970968626578176
  0.9375859045226115  0.3803358328230185  0.6016581661106833
  0.7755879768955796  0.1219911325400532  0.3947678856907446
  0.2762995907710404  0.8801446299222839  0.6062027139152666
  0.1120522201504425  0.6212017599755643  0.3978794368741314
  0.6165747462668179  0.8789382624272367  0.6019664551492533
  0.4404059573670874  0.6204715611299366  0.3998889788984930
  0.9395567874817974  0.8792709969378978  0.6027789705347156
  0.7753449296646450  0.6219403001281208  0.3958616519832359
  0.2732721812290318  0.5065733661946482  0.7190046204619887
  0.2803141440160194  0.0729503156512046  0.3214647869954270
  0.0576731668063409  0.1734909713888400  0.6767657268185555
  0.2286640397762143  0.3240819547894996  0.3247568967626651
  0.1020151761682358  0.4224428421757619  0.6773520372857219
  0.2266769623992606  0.1259085546639597  0.6111158892793798
  0.0542437813092855  0.0317998176777147  0.5359144146819336
  0.1067507643342143  0.2754425427351000  0.5367002272853447
  0.2272378649795453  0.4723792379659879  0.4680615606861794
  0.2744497084253317  0.2255088268917220  0.4664051209191932
  0.0646986023156318  0.3710890781210847  0.3956674062300203
  0.6102912537010210  0.0745477217514485  0.3218961291845878
  0.4041819733992254  0.1773266144412297  0.6740148209462276
  0.5607416964829729  0.3257940325113962  0.3257708147399170
  0.4630837468974556  0.4275552358227406  0.6754587159228574
  0.5660733141100929  0.1280283290675360  0.6031286483175784
  0.3885790101113270  0.0322489853460754  0.5370289328454609
  0.4426464248413714  0.2754402299842901  0.5365948584277465
  0.5483389975096737  0.4668167027479234  0.4672774914529471
  0.6072105756421454  0.2236668446647674  0.4631751363190797
  0.3922561828756189  0.3712532287937756  0.3940303347281035
  0.9482429485364261  0.0743782258288722  0.3222252478715094
  0.7279054523693985  0.1770887319563884  0.6759016765225000
  0.8991706492073602  0.3253958312545566  0.3256412409118926
  0.7804229421733363  0.4276940300568554  0.6793158419395364
  0.8917384558880387  0.1292162681737180  0.6064646491159987
  0.7239437019421421  0.0308539780278961  0.5333277737692955
  0.7767624130752434  0.2767806962123577  0.5318510502394769
  0.8901511755848668  0.4689927883469818  0.4628618288896083
  0.9438793952617516  0.2224579574824564  0.4632687498671437
  0.7274058986275603  0.3723483971215719  0.3926814057487641
  0.2811705632184499  0.5728852065503915  0.3231805806454383
  0.0604517319425242  0.6746678550583485  0.6735004845118600
  0.2309880210396235  0.8233422114459867  0.3253499577654498
  0.1090801799665376  0.9247236135804244  0.6783882037303427
  0.2275106645404442  0.6337314568047393  0.6050151204744386
  0.0543268118741487  0.5311762112888886  0.5352911201443907
  0.1074470807962897  0.7786155341881398  0.5357955448563421
  0.2228453616053569  0.9702865927984280  0.4659105914851105
  0.2761626756677076  0.7245856729861533  0.4670693203225036
  0.0642917367184944  0.8713563354901583  0.3946148422612774
  0.6094455989227064  0.5743980249202177  0.3235794716623552
  0.4068065223475231  0.6821310622615355  0.6730537916925259
  0.5614795808510346  0.8248229646209411  0.3255696044756535
  0.4550929006521162  0.9292649885273154  0.6761417512950144
  0.5686421473049186  0.6316414656780110  0.6030740840826654
  0.3908726698152096  0.5274651032513999  0.5475480648299318
  0.4403979359497279  0.7771598357082172  0.5369472144651819
  0.5544044361562255  0.9690936289788460  0.4642193605254889
  0.6061085895891077  0.7224019957465785  0.4656563963803768
  0.3941454205492371  0.8715684243566734  0.3947169704590276
  0.9485389495015161  0.5738382245578481  0.3230700098881464
  0.7292147515433922  0.6763344036958957  0.6762091218488986
  0.8992305797301251  0.8243148973337886  0.3256471458397678
  0.7802947562875686  0.9277923906659306  0.6792788721337281
  0.8912729911830142  0.6300658494064323  0.6048225190858625
  0.7232851633334605  0.5306300809915128  0.5328586127917248
  0.7773138572381476  0.7773682380567259  0.5327567254720558
  0.8900988384383497  0.9692345007380381  0.4626491852904520
  0.9437024774122439  0.7236007360104096  0.4638894640486222
  0.7280060011271265  0.8718975845618980  0.3930720671658453
 
  0.00000000E+00  0.00000000E+00  0.00000000E+00
  0.00000000E+00  0.00000000E+00  0.00000000E+00
  0.00000000E+00  0.00000000E+00  0.00000000E+00
  0.00000000E+00  0.00000000E+00  0.00000000E+00
  0.00000000E+00  0.00000000E+00  0.00000000E+00
  0.00000000E+00  0.00000000E+00  0.00000000E+00
  0.00000000E+00  0.00000000E+00  0.00000000E+00
  0.00000000E+00  0.00000000E+00  0.00000000E+00
  0.00000000E+00  0.00000000E+00  0.00000000E+00
  0.00000000E+00  0.00000000E+00  0.00000000E+00
  0.00000000E+00  0.00000000E+00  0.00000000E+00
  0.00000000E+00  0.00000000E+00  0.00000000E+00
  0.00000000E+00  0.00000000E+00  0.00000000E+00
  0.00000000E+00  0.00000000E+00  0.00000000E+00
  0.00000000E+00  0.00000000E+00  0.00000000E+00
  0.00000000E+00  0.00000000E+00  0.00000000E+00
  0.00000000E+00  0.00000000E+00  0.00000000E+00
  0.00000000E+00  0.00000000E+00  0.00000000E+00
  0.00000000E+00  0.00000000E+00  0.00000000E+00
  0.00000000E+00  0.00000000E+00  0.00000000E+00
  0.00000000E+00  0.00000000E+00  0.00000000E+00
  0.00000000E+00  0.00000000E+00  0.00000000E+00
  0.00000000E+00  0.00000000E+00  0.00000000E+00
  0.00000000E+00  0.00000000E+00  0.00000000E+00
  0.00000000E+00  0.00000000E+00  0.00000000E+00
  0.00000000E+00  0.00000000E+00  0.00000000E+00
  0.00000000E+00  0.00000000E+00  0.00000000E+00
  0.00000000E+00  0.00000000E+00  0.00000000E+00
  0.00000000E+00  0.00000000E+00  0.00000000E+00
  0.00000000E+00  0.00000000E+00  0.00000000E+00
  0.00000000E+00  0.00000000E+00  0.00000000E+00
  0.00000000E+00  0.00000000E+00  0.00000000E+00
  0.00000000E+00  0.00000000E+00  0.00000000E+00
  0.00000000E+00  0.00000000E+00  0.00000000E+00
  0.00000000E+00  0.00000000E+00  0.00000000E+00
  0.00000000E+00  0.00000000E+00  0.00000000E+00
  0.00000000E+00  0.00000000E+00  0.00000000E+00
  0.00000000E+00  0.00000000E+00  0.00000000E+00
  0.00000000E+00  0.00000000E+00  0.00000000E+00
  0.00000000E+00  0.00000000E+00  0.00000000E+00
  0.00000000E+00  0.00000000E+00  0.00000000E+00
  0.00000000E+00  0.00000000E+00  0.00000000E+00
  0.00000000E+00  0.00000000E+00  0.00000000E+00
  0.00000000E+00  0.00000000E+00  0.00000000E+00
  0.00000000E+00  0.00000000E+00  0.00000000E+00
  0.00000000E+00  0.00000000E+00  0.00000000E+00
  0.00000000E+00  0.00000000E+00  0.00000000E+00
  0.00000000E+00  0.00000000E+00  0.00000000E+00
  0.00000000E+00  0.00000000E+00  0.00000000E+00
  0.00000000E+00  0.00000000E+00  0.00000000E+00
  0.00000000E+00  0.00000000E+00  0.00000000E+00
  0.00000000E+00  0.00000000E+00  0.00000000E+00
  0.00000000E+00  0.00000000E+00  0.00000000E+00
  0.00000000E+00  0.00000000E+00  0.00000000E+00
  0.00000000E+00  0.00000000E+00  0.00000000E+00
  0.00000000E+00  0.00000000E+00  0.00000000E+00
  0.00000000E+00  0.00000000E+00  0.00000000E+00
  0.00000000E+00  0.00000000E+00  0.00000000E+00
  0.00000000E+00  0.00000000E+00  0.00000000E+00
  0.00000000E+00  0.00000000E+00  0.00000000E+00
  0.00000000E+00  0.00000000E+00  0.00000000E+00
  0.00000000E+00  0.00000000E+00  0.00000000E+00
  0.00000000E+00  0.00000000E+00  0.00000000E+00
  0.00000000E+00  0.00000000E+00  0.00000000E+00
  0.00000000E+00  0.00000000E+00  0.00000000E+00
  0.00000000E+00  0.00000000E+00  0.00000000E+00
  0.00000000E+00  0.00000000E+00  0.00000000E+00
  0.00000000E+00  0.00000000E+00  0.00000000E+00
  0.00000000E+00  0.00000000E+00  0.00000000E+00
  0.00000000E+00  0.00000000E+00  0.00000000E+00
  0.00000000E+00  0.00000000E+00  0.00000000E+00
  0.00000000E+00  0.00000000E+00  0.00000000E+00
  0.00000000E+00  0.00000000E+00  0.00000000E+00
  0.00000000E+00  0.00000000E+00  0.00000000E+00
  0.00000000E+00  0.00000000E+00  0.00000000E+00
  0.00000000E+00  0.00000000E+00  0.00000000E+00
  0.00000000E+00  0.00000000E+00  0.00000000E+00
  0.00000000E+00  0.00000000E+00  0.00000000E+00
  0.00000000E+00  0.00000000E+00  0.00000000E+00
  0.00000000E+00  0.00000000E+00  0.00000000E+00
  0.00000000E+00  0.00000000E+00  0.00000000E+00
  0.00000000E+00  0.00000000E+00  0.00000000E+00
  0.00000000E+00  0.00000000E+00  0.00000000E+00
  0.00000000E+00  0.00000000E+00  0.00000000E+00
  0.00000000E+00  0.00000000E+00  0.00000000E+00
  0.00000000E+00  0.00000000E+00  0.00000000E+00
  0.00000000E+00  0.00000000E+00  0.00000000E+00
  0.00000000E+00  0.00000000E+00  0.00000000E+00
  0.00000000E+00  0.00000000E+00  0.00000000E+00
  0.00000000E+00  0.00000000E+00  0.00000000E+00
  0.00000000E+00  0.00000000E+00  0.00000000E+00
  0.00000000E+00  0.00000000E+00  0.00000000E+00
  0.00000000E+00  0.00000000E+00  0.00000000E+00
  0.00000000E+00  0.00000000E+00  0.00000000E+00
  0.00000000E+00  0.00000000E+00  0.00000000E+00
  0.00000000E+00  0.00000000E+00  0.00000000E+00
  0.00000000E+00  0.00000000E+00  0.00000000E+00
  0.00000000E+00  0.00000000E+00  0.00000000E+00
  0.00000000E+00  0.00000000E+00  0.00000000E+00
  0.00000000E+00  0.00000000E+00  0.00000000E+00
  0.00000000E+00  0.00000000E+00  0.00000000E+00
  0.00000000E+00  0.00000000E+00  0.00000000E+00
  0.00000000E+00  0.00000000E+00  0.00000000E+00
  0.00000000E+00  0.00000000E+00  0.00000000E+00
  0.00000000E+00  0.00000000E+00  0.00000000E+00
  0.00000000E+00  0.00000000E+00  0.00000000E+00
  0.00000000E+00  0.00000000E+00  0.00000000E+00
  0.00000000E+00  0.00000000E+00  0.00000000E+00
  0.00000000E+00  0.00000000E+00  0.00000000E+00
