CONTCAR\(8)                             
   1.00000000000000     
    13.7044000625999995    0.0000000000000000    0.0000000000000000
     6.8522000312999998   11.8683585978000004    0.0000000000000000
     0.0000000000000000    0.0000000000000000   18.4445991515999985
   Cr   Ge   Te
     8     8    24
Direct
  0.1666699969999996  0.1666699920000028  0.4998245256684015
  0.3333299900000029  0.3333299990000000  0.5001754743315985
  0.6666700319999990  0.1666699920000028  0.4998245256684015
  0.8333299199999971  0.3333299990000000  0.5001754743315985
  0.1666699539999996  0.6666700419999998  0.4998245256684015
  0.3333299580000002  0.8333299589999967  0.5001754743315985
  0.6666699889999990  0.6666700419999998  0.4998245256684015
  0.8333299230000009  0.8333299589999967  0.5001754743315985
  0.0000000000000000  0.0000000000000000  0.4345400957587628
  0.0000000000000000  0.0000000000000000  0.5654699342412357
  0.5000000000000000  0.0000000000000000  0.4345400957587628
  0.5000000000000000  0.0000000000000000  0.5654699342412357
  0.0000000000000000  0.5000000009999965  0.4345400957587628
  0.0000000000000000  0.5000000009999965  0.5654699342412357
  0.5000000169999979  0.5000000009999965  0.4345400957587628
  0.5000000169999979  0.5000000009999965  0.5654699342412357
  0.3128426211407742  0.0002080368514612  0.5942841432377648
  0.0002080338514574  0.1869493340077710  0.5942841432377648
  0.1869493240077702  0.3128426351407754  0.5942841432377648
  0.1871673718592248  0.4997719411485377  0.4057158567622352
  0.4997719841485377  0.3130606699922325  0.4057158567622352
  0.3130606529922346  0.1871673698592247  0.4057158567622352
  0.8128427261407722  0.0002080368514612  0.5942841432377648
  0.5002080338514574  0.1869493340077710  0.5942841432377648
  0.6869492890077709  0.3128426351407754  0.5942841432377648
  0.6871673718592248  0.4997719411485377  0.4057158567622352
  0.9997720191485442  0.3130606699922325  0.4057158567622352
  0.8130606869922303  0.1871673698592247  0.4057158567622352
  0.3128426311407750  0.5002080518514589  0.5942841432377648
  0.0002079958514614  0.6869493750077709  0.5942841432377648
  0.1869493460077720  0.8128426961407698  0.5942841432377648
  0.1871673688592281  0.9997719821485376  0.4057158567622352
  0.4997719671485399  0.8130606709922290  0.4057158567622352
  0.3130606449922340  0.6871673498592301  0.4057158567622352
  0.8128427011407737  0.5002080518514589  0.5942841432377648
  0.5002079958514614  0.6869493750077709  0.5942841432377648
  0.6869493110077656  0.8128426961407698  0.5942841432377648
  0.6871673348592253  0.9997719821485376  0.4057158567622352
  0.9997720711485414  0.8130606709922290  0.4057158567622352
  0.8130606799922333  0.6871673498592301  0.4057158567622352
 
  0.00000000E+00  0.00000000E+00  0.00000000E+00
  0.00000000E+00  0.00000000E+00  0.00000000E+00
  0.00000000E+00  0.00000000E+00  0.00000000E+00
  0.00000000E+00  0.00000000E+00  0.00000000E+00
  0.00000000E+00  0.00000000E+00  0.00000000E+00
  0.00000000E+00  0.00000000E+00  0.00000000E+00
  0.00000000E+00  0.00000000E+00  0.00000000E+00
  0.00000000E+00  0.00000000E+00  0.00000000E+00
  0.00000000E+00  0.00000000E+00  0.00000000E+00
  0.00000000E+00  0.00000000E+00  0.00000000E+00
  0.00000000E+00  0.00000000E+00  0.00000000E+00
  0.00000000E+00  0.00000000E+00  0.00000000E+00
  0.00000000E+00  0.00000000E+00  0.00000000E+00
  0.00000000E+00  0.00000000E+00  0.00000000E+00
  0.00000000E+00  0.00000000E+00  0.00000000E+00
  0.00000000E+00  0.00000000E+00  0.00000000E+00
  0.00000000E+00  0.00000000E+00  0.00000000E+00
  0.00000000E+00  0.00000000E+00  0.00000000E+00
  0.00000000E+00  0.00000000E+00  0.00000000E+00
  0.00000000E+00  0.00000000E+00  0.00000000E+00
  0.00000000E+00  0.00000000E+00  0.00000000E+00
  0.00000000E+00  0.00000000E+00  0.00000000E+00
  0.00000000E+00  0.00000000E+00  0.00000000E+00
  0.00000000E+00  0.00000000E+00  0.00000000E+00
  0.00000000E+00  0.00000000E+00  0.00000000E+00
  0.00000000E+00  0.00000000E+00  0.00000000E+00
  0.00000000E+00  0.00000000E+00  0.00000000E+00
  0.00000000E+00  0.00000000E+00  0.00000000E+00
  0.00000000E+00  0.00000000E+00  0.00000000E+00
  0.00000000E+00  0.00000000E+00  0.00000000E+00
  0.00000000E+00  0.00000000E+00  0.00000000E+00
  0.00000000E+00  0.00000000E+00  0.00000000E+00
  0.00000000E+00  0.00000000E+00  0.00000000E+00
  0.00000000E+00  0.00000000E+00  0.00000000E+00
  0.00000000E+00  0.00000000E+00  0.00000000E+00
  0.00000000E+00  0.00000000E+00  0.00000000E+00
  0.00000000E+00  0.00000000E+00  0.00000000E+00
  0.00000000E+00  0.00000000E+00  0.00000000E+00
  0.00000000E+00  0.00000000E+00  0.00000000E+00
  0.00000000E+00  0.00000000E+00  0.00000000E+00
