CONTCAR\(2)                             
   1.00000000000000     
    12.0352001190000006    0.0000000000000000    0.0000000000000000
     0.0000000000000000   12.2138004302999992    0.0000000000000000
     0.0000000000000000    0.0000000000000000   16.9626007080000001
   Cu   Se   O    H 
     8     8    26     1
Direct
  0.0846073872413895  0.9088326503498071  0.4875123846280629
  0.3356095951219514  0.5910264930348443  0.5117310732661040
  0.4165495995210113  0.0919576814513847  0.5125222054996098
  0.1662368240445484  0.4090744546068483  0.4859749326465505
  0.5845636744928312  0.9087564882671467  0.4868430730757678
  0.8339693767054306  0.5918424255271286  0.5113318420609212
  0.9163171210996317  0.0918321463279175  0.5131882100077977
  0.6666229571960673  0.4086836716692115  0.4829021795376565
  0.1919455540297122  0.1507198615373557  0.4790939257180495
  0.4428449441044451  0.3496924325987273  0.5168340133986747
  0.3093639457744330  0.8498621568243332  0.5216915099660862
  0.0590402251921534  0.6509828592003426  0.4796152095503892
  0.6922961038857939  0.1501173217589483  0.4780823071383341
  0.9412886398605091  0.3504947521136885  0.5202585344385944
  0.8089143089336737  0.8498464498344964  0.5206941872774488
  0.5598518968298005  0.6508475079110962  0.4755069843240982
  0.4858289886194999  0.5875625683971678  0.5499112323525863
  0.2342426845845374  0.9110513944587203  0.4468251762201418
  0.0170129573281400  0.4111082917791874  0.4454394917084833
  0.2676697204913984  0.0910793544120245  0.5543612524566028
  0.1815317691818042  0.5681116410791335  0.4841434008849055
  0.4322486790290890  0.9327599440724448  0.5187520476525548
  0.3203336903935188  0.4324737314949984  0.5120678260926745
  0.0692489103920949  0.0677795565060469  0.4836096596700776
  0.1412907462902592  0.2642860580007507  0.5274332092607001
  0.3912446497628518  0.2358094604423515  0.4689218978273408
  0.3597477606484917  0.7370914996180756  0.4722743630316160
  0.1095153869018868  0.7637930797355150  0.5290289075278729
  0.9826357488146465  0.5896201323503427  0.5537622346052196
  0.7338242453174083  0.9114789128129529  0.4458150816460341
  0.5179326715932929  0.4092190870722539  0.4410085836522197
  0.7669618531455893  0.0903340364681769  0.5539399012107870
  0.6824630907567344  0.5681654691386790  0.4774894649377119
  0.9312901987883904  0.9329241634134324  0.5174988838449717
  0.8186402071698193  0.4327866733164250  0.5151114172569020
  0.5695223030314307  0.0675107812267386  0.4821836879953436
  0.6410947654830742  0.2640634444213548  0.5256683949072609
  0.8914930866226939  0.2367110847846834  0.4715940775358622
  0.8604526110508292  0.7375213315314931  0.4713422675875091
  0.6102416678278177  0.7628097012053712  0.5261537293155483
  0.4054538701166426  0.3666916800281593  0.6922559317377047
  0.4573707689562505  0.3343264381375038  0.7586722660179454
  0.4329149576684141  0.2576710610827103  0.7670032805292597
 
  0.00000000E+00  0.00000000E+00  0.00000000E+00
  0.00000000E+00  0.00000000E+00  0.00000000E+00
  0.00000000E+00  0.00000000E+00  0.00000000E+00
  0.00000000E+00  0.00000000E+00  0.00000000E+00
  0.00000000E+00  0.00000000E+00  0.00000000E+00
  0.00000000E+00  0.00000000E+00  0.00000000E+00
  0.00000000E+00  0.00000000E+00  0.00000000E+00
  0.00000000E+00  0.00000000E+00  0.00000000E+00
  0.00000000E+00  0.00000000E+00  0.00000000E+00
  0.00000000E+00  0.00000000E+00  0.00000000E+00
  0.00000000E+00  0.00000000E+00  0.00000000E+00
  0.00000000E+00  0.00000000E+00  0.00000000E+00
  0.00000000E+00  0.00000000E+00  0.00000000E+00
  0.00000000E+00  0.00000000E+00  0.00000000E+00
  0.00000000E+00  0.00000000E+00  0.00000000E+00
  0.00000000E+00  0.00000000E+00  0.00000000E+00
  0.00000000E+00  0.00000000E+00  0.00000000E+00
  0.00000000E+00  0.00000000E+00  0.00000000E+00
  0.00000000E+00  0.00000000E+00  0.00000000E+00
  0.00000000E+00  0.00000000E+00  0.00000000E+00
  0.00000000E+00  0.00000000E+00  0.00000000E+00
  0.00000000E+00  0.00000000E+00  0.00000000E+00
  0.00000000E+00  0.00000000E+00  0.00000000E+00
  0.00000000E+00  0.00000000E+00  0.00000000E+00
  0.00000000E+00  0.00000000E+00  0.00000000E+00
  0.00000000E+00  0.00000000E+00  0.00000000E+00
  0.00000000E+00  0.00000000E+00  0.00000000E+00
  0.00000000E+00  0.00000000E+00  0.00000000E+00
  0.00000000E+00  0.00000000E+00  0.00000000E+00
  0.00000000E+00  0.00000000E+00  0.00000000E+00
  0.00000000E+00  0.00000000E+00  0.00000000E+00
  0.00000000E+00  0.00000000E+00  0.00000000E+00
  0.00000000E+00  0.00000000E+00  0.00000000E+00
  0.00000000E+00  0.00000000E+00  0.00000000E+00
  0.00000000E+00  0.00000000E+00  0.00000000E+00
  0.00000000E+00  0.00000000E+00  0.00000000E+00
  0.00000000E+00  0.00000000E+00  0.00000000E+00
  0.00000000E+00  0.00000000E+00  0.00000000E+00
  0.00000000E+00  0.00000000E+00  0.00000000E+00
  0.00000000E+00  0.00000000E+00  0.00000000E+00
  0.00000000E+00  0.00000000E+00  0.00000000E+00
  0.00000000E+00  0.00000000E+00  0.00000000E+00
  0.00000000E+00  0.00000000E+00  0.00000000E+00
