CONTCAR\(9)                             
   1.00000000000000     
    10.2299003601000003    0.0000000000000000    0.0000000000000000
     0.0000000000000000    9.6009998321999994    0.0000000000000000
     0.0000000000000000    0.0000000000000000   20.0983009338000009
   Ti   S    Cl   O 
    12    12    12     1
Direct
  0.2499213876937603  0.3727348004993565  0.4607805537690258
  0.0839130102458145  0.1223620799894529  0.5420687293205489
  0.5823726742051935  0.3734877114799963  0.4609719396025661
  0.4158911574739232  0.1224012798625817  0.5420843201251216
  0.9174552532362651  0.3734678092062046  0.4609766368362934
  0.7499510352215424  0.1219924154548119  0.5418685361777523
  0.2498962641791422  0.8718219191108648  0.4614537946249512
  0.0785137670388051  0.6229320874439862  0.5370725476475919
  0.5822679200888985  0.8703423763739359  0.4614816067986877
  0.4213292134484607  0.6229594693027719  0.5370561460895424
  0.9176064447330858  0.8703701370501328  0.4614767716167120
  0.7499211104297174  0.6219760638851911  0.5396647398696302
  0.0844866824177424  0.3739573457681202  0.5482585602672776
  0.2499170395256343  0.1223066665543518  0.4547108511169387
  0.4153227410804567  0.3739751688368229  0.5482622672897213
  0.5827201244720494  0.1220011509633078  0.4551833240936616
  0.7499188703314985  0.3723654706707880  0.5477885345000842
  0.9170906030947114  0.1219810753373675  0.4551689908013628
  0.0838130891298916  0.8712222251576266  0.5493753024596844
  0.2499345308469145  0.6223009216510487  0.4517022145221049
  0.4160516182714872  0.8712303118912134  0.5493744358420516
  0.5858311861723686  0.6221979560621120  0.4507202373829574
  0.7499273043564187  0.8719188049303960  0.5485376150408190
  0.9140321608895781  0.6221963772015995  0.4507363196577333
  0.0832478140266940  0.3693286612637455  0.3730940432075245
  0.2499038486660936  0.1240040603178789  0.6292343443251479
  0.4165906954137500  0.3693475080260971  0.3731035032461436
  0.5833030656017222  0.1234163746031476  0.6292743924460221
  0.7499159842785730  0.3676017907894478  0.3734622454290002
  0.9165210815360929  0.1234118568844898  0.6292707858910457
  0.0835815999618276  0.8750496599279147  0.3737531974371153
  0.2499147420567169  0.6177205555559324  0.6288900188918018
  0.4162578429645023  0.8750742337697277  0.3737551958049154
  0.5825693327554916  0.6207051539686420  0.6270286196689127
  0.7499345671549591  0.8769154391022798  0.3739682540399660
  0.9172510038012532  0.6206930721502447  0.6270205959027563
  0.2499331481989842  0.4784503249563823  0.6699499102567922
 
  0.00000000E+00  0.00000000E+00  0.00000000E+00
  0.00000000E+00  0.00000000E+00  0.00000000E+00
  0.00000000E+00  0.00000000E+00  0.00000000E+00
  0.00000000E+00  0.00000000E+00  0.00000000E+00
  0.00000000E+00  0.00000000E+00  0.00000000E+00
  0.00000000E+00  0.00000000E+00  0.00000000E+00
  0.00000000E+00  0.00000000E+00  0.00000000E+00
  0.00000000E+00  0.00000000E+00  0.00000000E+00
  0.00000000E+00  0.00000000E+00  0.00000000E+00
  0.00000000E+00  0.00000000E+00  0.00000000E+00
  0.00000000E+00  0.00000000E+00  0.00000000E+00
  0.00000000E+00  0.00000000E+00  0.00000000E+00
  0.00000000E+00  0.00000000E+00  0.00000000E+00
  0.00000000E+00  0.00000000E+00  0.00000000E+00
  0.00000000E+00  0.00000000E+00  0.00000000E+00
  0.00000000E+00  0.00000000E+00  0.00000000E+00
  0.00000000E+00  0.00000000E+00  0.00000000E+00
  0.00000000E+00  0.00000000E+00  0.00000000E+00
  0.00000000E+00  0.00000000E+00  0.00000000E+00
  0.00000000E+00  0.00000000E+00  0.00000000E+00
  0.00000000E+00  0.00000000E+00  0.00000000E+00
  0.00000000E+00  0.00000000E+00  0.00000000E+00
  0.00000000E+00  0.00000000E+00  0.00000000E+00
  0.00000000E+00  0.00000000E+00  0.00000000E+00
  0.00000000E+00  0.00000000E+00  0.00000000E+00
  0.00000000E+00  0.00000000E+00  0.00000000E+00
  0.00000000E+00  0.00000000E+00  0.00000000E+00
  0.00000000E+00  0.00000000E+00  0.00000000E+00
  0.00000000E+00  0.00000000E+00  0.00000000E+00
  0.00000000E+00  0.00000000E+00  0.00000000E+00
  0.00000000E+00  0.00000000E+00  0.00000000E+00
  0.00000000E+00  0.00000000E+00  0.00000000E+00
  0.00000000E+00  0.00000000E+00  0.00000000E+00
  0.00000000E+00  0.00000000E+00  0.00000000E+00
  0.00000000E+00  0.00000000E+00  0.00000000E+00
  0.00000000E+00  0.00000000E+00  0.00000000E+00
  0.00000000E+00  0.00000000E+00  0.00000000E+00
