CONTCAR\(24)                            
   1.00000000000000     
    14.4153003693000006    0.0000000000000000    0.0000000000000000
     0.0000000000000000   14.4153003693000006    0.0000000000000000
     0.0000000000000000    0.0000000000000000   17.7828998566000003
   Co   Se
    32    32
Direct
  0.0000000000000000  0.0000000000000000  0.5000000000000000
  0.1250000000000000  0.1250000000000000  0.5000000000000000
  0.2500000000000000  0.0000000000000000  0.5000000000000000
  0.3750000169999979  0.1250000000000000  0.5000000000000000
  0.5000000000000000  0.0000000000000000  0.5000000000000000
  0.6249999830000021  0.1250000000000000  0.5000000000000000
  0.7500000329999992  0.0000000000000000  0.5000000000000000
  0.8750000169999979  0.1250000000000000  0.5000000000000000
  0.0000000000000000  0.2500000000000000  0.5000000000000000
  0.1250000000000000  0.3750000169999979  0.5000000000000000
  0.2500000000000000  0.2500000000000000  0.5000000000000000
  0.3750000169999979  0.3750000169999979  0.5000000000000000
  0.5000000000000000  0.2500000000000000  0.5000000000000000
  0.6249999830000021  0.3750000169999979  0.5000000000000000
  0.7500000329999992  0.2500000000000000  0.5000000000000000
  0.8750000169999979  0.3750000169999979  0.5000000000000000
  0.0000000000000000  0.5000000000000000  0.5000000000000000
  0.1250000000000000  0.6249999830000021  0.5000000000000000
  0.2500000000000000  0.5000000000000000  0.5000000000000000
  0.3750000169999979  0.6249999830000021  0.5000000000000000
  0.5000000000000000  0.5000000000000000  0.5000000000000000
  0.6249999830000021  0.6249999830000021  0.5000000000000000
  0.7500000329999992  0.5000000000000000  0.5000000000000000
  0.8750000169999979  0.6249999830000021  0.5000000000000000
  0.0000000000000000  0.7500000329999992  0.5000000000000000
  0.1250000000000000  0.8750000169999979  0.5000000000000000
  0.2500000000000000  0.7500000329999992  0.5000000000000000
  0.3750000169999979  0.8750000169999979  0.5000000000000000
  0.5000000000000000  0.7500000329999992  0.5000000000000000
  0.6249999830000021  0.8750000169999979  0.5000000000000000
  0.7500000329999992  0.7500000329999992  0.5000000000000000
  0.8750000169999979  0.8750000169999979  0.5000000000000000
  0.0000000000000000  0.1250000000000000  0.5813000269999975
  0.1250000000000000  0.0000000000000000  0.4187000000000012
  0.2500000000000000  0.1250000000000000  0.5813000269999975
  0.3750000169999979  0.0000000000000000  0.4187000000000012
  0.5000000000000000  0.1250000000000000  0.5813000269999975
  0.6249999830000021  0.0000000000000000  0.4187000000000012
  0.7500000329999992  0.1250000000000000  0.5813000269999975
  0.8750000169999979  0.0000000000000000  0.4187000000000012
  0.0000000000000000  0.3750000169999979  0.5813000269999975
  0.1250000000000000  0.2500000000000000  0.4187000000000012
  0.2500000000000000  0.3750000169999979  0.5813000269999975
  0.3750000169999979  0.2500000000000000  0.4187000000000012
  0.5000000000000000  0.3750000169999979  0.5813000269999975
  0.6249999830000021  0.2500000000000000  0.4187000000000012
  0.7500000329999992  0.3750000169999979  0.5813000269999975
  0.8750000169999979  0.2500000000000000  0.4187000000000012
  0.0000000000000000  0.6249999830000021  0.5813000269999975
  0.1250000000000000  0.5000000000000000  0.4187000000000012
  0.2500000000000000  0.6249999830000021  0.5813000269999975
  0.3750000169999979  0.5000000000000000  0.4187000000000012
  0.5000000000000000  0.6249999830000021  0.5813000269999975
  0.6249999830000021  0.5000000000000000  0.4187000000000012
  0.7500000329999992  0.6249999830000021  0.5813000269999975
  0.8750000169999979  0.5000000000000000  0.4187000000000012
  0.0000000000000000  0.8750000169999979  0.5813000269999975
  0.1250000000000000  0.7500000329999992  0.4187000000000012
  0.2500000000000000  0.8750000169999979  0.5813000269999975
  0.3750000169999979  0.7500000329999992  0.4187000000000012
  0.5000000000000000  0.8750000169999979  0.5813000269999975
  0.6249999830000021  0.7500000329999992  0.4187000000000012
  0.7500000329999992  0.8750000169999979  0.5813000269999975
  0.8750000169999979  0.7500000329999992  0.4187000000000012
 
  0.00000000E+00  0.00000000E+00  0.00000000E+00
  0.00000000E+00  0.00000000E+00  0.00000000E+00
  0.00000000E+00  0.00000000E+00  0.00000000E+00
  0.00000000E+00  0.00000000E+00  0.00000000E+00
  0.00000000E+00  0.00000000E+00  0.00000000E+00
  0.00000000E+00  0.00000000E+00  0.00000000E+00
  0.00000000E+00  0.00000000E+00  0.00000000E+00
  0.00000000E+00  0.00000000E+00  0.00000000E+00
  0.00000000E+00  0.00000000E+00  0.00000000E+00
  0.00000000E+00  0.00000000E+00  0.00000000E+00
  0.00000000E+00  0.00000000E+00  0.00000000E+00
  0.00000000E+00  0.00000000E+00  0.00000000E+00
  0.00000000E+00  0.00000000E+00  0.00000000E+00
  0.00000000E+00  0.00000000E+00  0.00000000E+00
  0.00000000E+00  0.00000000E+00  0.00000000E+00
  0.00000000E+00  0.00000000E+00  0.00000000E+00
  0.00000000E+00  0.00000000E+00  0.00000000E+00
  0.00000000E+00  0.00000000E+00  0.00000000E+00
  0.00000000E+00  0.00000000E+00  0.00000000E+00
  0.00000000E+00  0.00000000E+00  0.00000000E+00
  0.00000000E+00  0.00000000E+00  0.00000000E+00
  0.00000000E+00  0.00000000E+00  0.00000000E+00
  0.00000000E+00  0.00000000E+00  0.00000000E+00
  0.00000000E+00  0.00000000E+00  0.00000000E+00
  0.00000000E+00  0.00000000E+00  0.00000000E+00
  0.00000000E+00  0.00000000E+00  0.00000000E+00
  0.00000000E+00  0.00000000E+00  0.00000000E+00
  0.00000000E+00  0.00000000E+00  0.00000000E+00
  0.00000000E+00  0.00000000E+00  0.00000000E+00
  0.00000000E+00  0.00000000E+00  0.00000000E+00
  0.00000000E+00  0.00000000E+00  0.00000000E+00
  0.00000000E+00  0.00000000E+00  0.00000000E+00
  0.00000000E+00  0.00000000E+00  0.00000000E+00
  0.00000000E+00  0.00000000E+00  0.00000000E+00
  0.00000000E+00  0.00000000E+00  0.00000000E+00
  0.00000000E+00  0.00000000E+00  0.00000000E+00
  0.00000000E+00  0.00000000E+00  0.00000000E+00
  0.00000000E+00  0.00000000E+00  0.00000000E+00
  0.00000000E+00  0.00000000E+00  0.00000000E+00
  0.00000000E+00  0.00000000E+00  0.00000000E+00
  0.00000000E+00  0.00000000E+00  0.00000000E+00
  0.00000000E+00  0.00000000E+00  0.00000000E+00
  0.00000000E+00  0.00000000E+00  0.00000000E+00
  0.00000000E+00  0.00000000E+00  0.00000000E+00
  0.00000000E+00  0.00000000E+00  0.00000000E+00
  0.00000000E+00  0.00000000E+00  0.00000000E+00
  0.00000000E+00  0.00000000E+00  0.00000000E+00
  0.00000000E+00  0.00000000E+00  0.00000000E+00
  0.00000000E+00  0.00000000E+00  0.00000000E+00
  0.00000000E+00  0.00000000E+00  0.00000000E+00
  0.00000000E+00  0.00000000E+00  0.00000000E+00
  0.00000000E+00  0.00000000E+00  0.00000000E+00
  0.00000000E+00  0.00000000E+00  0.00000000E+00
  0.00000000E+00  0.00000000E+00  0.00000000E+00
  0.00000000E+00  0.00000000E+00  0.00000000E+00
  0.00000000E+00  0.00000000E+00  0.00000000E+00
  0.00000000E+00  0.00000000E+00  0.00000000E+00
  0.00000000E+00  0.00000000E+00  0.00000000E+00
  0.00000000E+00  0.00000000E+00  0.00000000E+00
  0.00000000E+00  0.00000000E+00  0.00000000E+00
  0.00000000E+00  0.00000000E+00  0.00000000E+00
  0.00000000E+00  0.00000000E+00  0.00000000E+00
  0.00000000E+00  0.00000000E+00  0.00000000E+00
  0.00000000E+00  0.00000000E+00  0.00000000E+00
