CONTCAR\(13)                            
   1.00000000000000     
    12.5135002136000004    0.0000000000000000    0.0000000000000000
     0.0000000000000000   15.7480001450000007    0.0000000000000000
     0.0000000000000000    0.0000000000000000   19.7180004119999985
   Nb   Fe   Te   O    H 
    16    16    32     2     1
Direct
  0.2354109793469364  0.1527990387707062  0.4928687783317626
  0.0101281565852028  0.4027629051954358  0.4925149799666160
  0.9852153170190455  0.0940492824566612  0.5086475187512601
  0.2603507530563380  0.3442408609120912  0.5076960292735995
  0.7353992508239610  0.1528113127633859  0.4928062515232928
  0.5099988613191441  0.4022123983968297  0.4925951206428740
  0.4852178077736485  0.0941460399180080  0.5085229964216739
  0.7594020040055128  0.3449531427380576  0.5085470416038601
  0.2362538062536906  0.6525136541707819  0.4916722872949769
  0.0091220689766551  0.9025808912277838  0.4923549635374914
  0.9854969401237799  0.5941029441626967  0.5071168111025959
  0.2591802599847025  0.8442702911544794  0.5079647725995701
  0.7361351220902503  0.6524507533047971  0.4873829471733271
  0.5094589097815561  0.9030540385891839  0.4928202759437996
  0.4874899098343430  0.5950187065973935  0.5079976390126388
  0.7589606706461643  0.8436501807367724  0.5080933658761326
  0.0693775043612724  0.2447999459122803  0.5389767081161202
  0.3190220370835357  0.0022820615331125  0.4624147610556161
  0.4263318962254579  0.2520351827425895  0.4617812741435177
  0.1750641483354858  0.9944698840570074  0.5391204008595538
  0.5698798059723817  0.2448331560593153  0.5387053721431334
  0.8192783791352966  0.0023608139656412  0.4620664063891368
  0.9255295295667857  0.2524174233730896  0.4623554195265864
  0.6755087111038350  0.9946643674599499  0.5386685197762985
  0.0688846030903767  0.7441140863005772  0.5378600761905084
  0.3196284333663196  0.5024269510379928  0.4610570213696860
  0.4254531210409918  0.7528337287027025  0.4620045329710459
  0.1759168225930386  0.4947584435975987  0.5379204998594003
  0.5695269292624360  0.7440299300781437  0.5390789071725003
  0.8189340457295513  0.5024681617561390  0.4625256730145969
  0.9255503710234450  0.7522573665073599  0.4611714113190653
  0.6749915390337287  0.4979127734890821  0.5419511114331048
  0.3678071579107995  0.3772722477612593  0.3825485471874279
  0.1239189624805044  0.0206269283392807  0.4118006624570473
  0.3703352016014226  0.9762099286754882  0.5894846352534747
  0.1183877511971458  0.3696562999301320  0.6175783938295382
  0.3746221140148800  0.2270351068561207  0.5891805339641418
  0.1208519289231506  0.2704185591796094  0.4115874555582354
  0.1278674417364193  0.1193566034132472  0.6181348135549170
  0.3776797733102487  0.1274161252495555  0.3831571458298861
  0.8671818331584779  0.3777864485057303  0.3833217369478116
  0.6238824764448171  0.0209563482967639  0.4116454955664414
  0.8704286869020107  0.9756781073420975  0.5892324613935729
  0.6173524237883208  0.3692712842546146  0.6182550655966942
  0.8739820169593632  0.2267734603901424  0.5894630798492632
  0.6215680695032757  0.2705758498707849  0.4115272342709725
  0.6276772944201505  0.1191626145926505  0.6179767037604500
  0.8780646846092736  0.1278339675777005  0.3831892924400936
  0.3669696391905705  0.8783025222027556  0.3829964214074548
  0.1245261268471471  0.5200606642692134  0.4105744627456558
  0.3712374506832121  0.4779541650092391  0.5876821410619180
  0.1161550652083377  0.8682537925011103  0.6175478308377380
  0.3743383524778280  0.7261249606705380  0.5889967562761406
  0.1209276057960667  0.7703228670116361  0.4109469953813525
  0.1283553700293821  0.6194445760278675  0.6167909355957545
  0.3804712735006026  0.6276309604569719  0.3827701048437423
  0.8667409567623326  0.8780036811902423  0.3827760190430866
  0.6253728943593126  0.5187360990579633  0.4117566255526524
  0.8714539599698609  0.4769153264463427  0.5890473349073277
  0.6169932448271876  0.8694292005641608  0.6178781017060107
  0.8716574787683220  0.7235285766017291  0.5875727535910773
  0.6196517561227286  0.7720011162370546  0.4107723934268426
  0.6293946221345830  0.6227594812619851  0.6196558822642952
  0.8786670633888085  0.6266472191597422  0.3812840751890350
  0.5196007994870777  0.6247835240073063  0.7125600404785822
  0.4454938961812673  0.5568739882623246  0.7258824400740984
  0.4877956617602419  0.5197962381590040  0.7555855627619253
 
  0.00000000E+00  0.00000000E+00  0.00000000E+00
  0.00000000E+00  0.00000000E+00  0.00000000E+00
  0.00000000E+00  0.00000000E+00  0.00000000E+00
  0.00000000E+00  0.00000000E+00  0.00000000E+00
  0.00000000E+00  0.00000000E+00  0.00000000E+00
  0.00000000E+00  0.00000000E+00  0.00000000E+00
  0.00000000E+00  0.00000000E+00  0.00000000E+00
  0.00000000E+00  0.00000000E+00  0.00000000E+00
  0.00000000E+00  0.00000000E+00  0.00000000E+00
  0.00000000E+00  0.00000000E+00  0.00000000E+00
  0.00000000E+00  0.00000000E+00  0.00000000E+00
  0.00000000E+00  0.00000000E+00  0.00000000E+00
  0.00000000E+00  0.00000000E+00  0.00000000E+00
  0.00000000E+00  0.00000000E+00  0.00000000E+00
  0.00000000E+00  0.00000000E+00  0.00000000E+00
  0.00000000E+00  0.00000000E+00  0.00000000E+00
  0.00000000E+00  0.00000000E+00  0.00000000E+00
  0.00000000E+00  0.00000000E+00  0.00000000E+00
  0.00000000E+00  0.00000000E+00  0.00000000E+00
  0.00000000E+00  0.00000000E+00  0.00000000E+00
  0.00000000E+00  0.00000000E+00  0.00000000E+00
  0.00000000E+00  0.00000000E+00  0.00000000E+00
  0.00000000E+00  0.00000000E+00  0.00000000E+00
  0.00000000E+00  0.00000000E+00  0.00000000E+00
  0.00000000E+00  0.00000000E+00  0.00000000E+00
  0.00000000E+00  0.00000000E+00  0.00000000E+00
  0.00000000E+00  0.00000000E+00  0.00000000E+00
  0.00000000E+00  0.00000000E+00  0.00000000E+00
  0.00000000E+00  0.00000000E+00  0.00000000E+00
  0.00000000E+00  0.00000000E+00  0.00000000E+00
  0.00000000E+00  0.00000000E+00  0.00000000E+00
  0.00000000E+00  0.00000000E+00  0.00000000E+00
  0.00000000E+00  0.00000000E+00  0.00000000E+00
  0.00000000E+00  0.00000000E+00  0.00000000E+00
  0.00000000E+00  0.00000000E+00  0.00000000E+00
  0.00000000E+00  0.00000000E+00  0.00000000E+00
  0.00000000E+00  0.00000000E+00  0.00000000E+00
  0.00000000E+00  0.00000000E+00  0.00000000E+00
  0.00000000E+00  0.00000000E+00  0.00000000E+00
  0.00000000E+00  0.00000000E+00  0.00000000E+00
  0.00000000E+00  0.00000000E+00  0.00000000E+00
  0.00000000E+00  0.00000000E+00  0.00000000E+00
  0.00000000E+00  0.00000000E+00  0.00000000E+00
  0.00000000E+00  0.00000000E+00  0.00000000E+00
  0.00000000E+00  0.00000000E+00  0.00000000E+00
  0.00000000E+00  0.00000000E+00  0.00000000E+00
  0.00000000E+00  0.00000000E+00  0.00000000E+00
  0.00000000E+00  0.00000000E+00  0.00000000E+00
  0.00000000E+00  0.00000000E+00  0.00000000E+00
  0.00000000E+00  0.00000000E+00  0.00000000E+00
  0.00000000E+00  0.00000000E+00  0.00000000E+00
  0.00000000E+00  0.00000000E+00  0.00000000E+00
  0.00000000E+00  0.00000000E+00  0.00000000E+00
  0.00000000E+00  0.00000000E+00  0.00000000E+00
  0.00000000E+00  0.00000000E+00  0.00000000E+00
  0.00000000E+00  0.00000000E+00  0.00000000E+00
  0.00000000E+00  0.00000000E+00  0.00000000E+00
  0.00000000E+00  0.00000000E+00  0.00000000E+00
  0.00000000E+00  0.00000000E+00  0.00000000E+00
  0.00000000E+00  0.00000000E+00  0.00000000E+00
  0.00000000E+00  0.00000000E+00  0.00000000E+00
  0.00000000E+00  0.00000000E+00  0.00000000E+00
  0.00000000E+00  0.00000000E+00  0.00000000E+00
  0.00000000E+00  0.00000000E+00  0.00000000E+00
  0.00000000E+00  0.00000000E+00  0.00000000E+00
  0.00000000E+00  0.00000000E+00  0.00000000E+00
  0.00000000E+00  0.00000000E+00  0.00000000E+00
