CONTCAR\(10)                            
   1.00000000000000     
    15.1086997986000000    0.0000000000000000    0.0000000000000000
     3.7771669926999998   12.0335217063000002    0.0000000000000000
     0.0000000000000000    0.0000000000000000   20.2071990966999984
   Au   Se   O    H 
    32    32     2     1
Direct
  0.2494215502280108 -0.0011139183208324  0.6213910959003295
  0.9990425721473982  0.9987975879711549  0.3787202647336851
  0.0873432163973223  0.1480628525532257  0.5007418481747731
  0.1611274610727902  0.8503425627061022  0.5013357208450676
  0.4992197593697004 -0.0013907577175417  0.6212267667374136
  0.2489598445056179  0.9984669212053795  0.3780864248765728
  0.3373872665969755  0.1476880314182034  0.4990166608837811
  0.4114026248909324  0.8492480682772868  0.4975449611860765
  0.7489410575057941 -0.0006170086581588  0.6217025342268702
  0.4990717514504905  0.9986060921663312  0.3778263892238194
  0.5871876332654492  0.1480971601426983  0.5005751886217340
  0.6613105803951189  0.8502114513686769  0.5002783591136768
  0.9988382464693553 -0.0001862453825269  0.6220925809825782
  0.7490141725083573  0.9987727454345661  0.3784671566470125
  0.8371408723552829  0.1483497518845629  0.4997507048709228
  0.9113979447682701  0.8505935435742731  0.4999817977352352
  0.2489007046179235  0.5001198973426491  0.6202290016204496
  0.9991418020741678  0.4984164625490480  0.3780543237101304
  0.0870772055065639  0.6481439227260657  0.4990130251077500
  0.1616481497183364  0.3504773127206383  0.4998592568160728
  0.4986427330654430  0.5001328777978952  0.6204809431797393
  0.2491447869148231  0.4985915821129673  0.3769369960581784
  0.3366846041168926  0.6487997376824435  0.4970497920657803
  0.4111055887259689  0.3505807605261638  0.4982370659948017
  0.7485602076253726  0.5000297682327876  0.6212977596062840
  0.4991983149957678  0.4985176653489368  0.3770925574176754
  0.5873329378385115  0.6479350877679192  0.4992142665438916
  0.6611718710029275  0.3505500396151665  0.4999008763287803
  0.9988523013819065  0.4997116460512439  0.6212627065075735
  0.7491818387623645  0.4983680189019439  0.3780253189747850
  0.8372220025139665  0.6482194179121556  0.4993874951546421
  0.9112280150644014  0.3504811437349471  0.5001120531510848
  0.0898312358434012  0.1383957615123326  0.6217634835989136
  0.1583201176172720  0.8606411345315611  0.6225754847239933
  0.0896380339474401  0.1376545625491313  0.3799033169076390
  0.1582699584517562  0.8597143393437663  0.3804466532222537
  0.3398278520283836  0.1376696825316636  0.6199228615528787
  0.4087456799139645  0.8599826063839620  0.6183945415344960
  0.3394972120319958  0.1374234142913313  0.3779626426727716
  0.4085002999294087  0.8597168062677273  0.3762646047223110
  0.5893050417022238  0.1380459869447704  0.6215886216730998
  0.6587051969648565  0.8600534253000521  0.6213141884095783
  0.5894839268318446  0.1376415910910755  0.3797119519477912
  0.6585152357972675  0.8597126322209439  0.3792987251456542
  0.8393075202074994  0.1386341500295717  0.6207291914562534
  0.9084045506862064  0.8607477027359465  0.6209976668471147
  0.8395916823398856  0.1377872375140599  0.3787196576334700
  0.9084733116220588  0.8599246871078572  0.3789232812667181
  0.0892696884387335  0.6387439709185996  0.6200059178421430
  0.1584591415218661  0.3609376708826674  0.6209287919151845
  0.0895917910666966  0.6374007526762862  0.3780290410213530
  0.1586785672319245  0.3596953631132228  0.3788585849347064
  0.3394813095007195  0.6390195620070425  0.6178917091203020
  0.4082093805051945  0.3610180806485750  0.6191255706135510
  0.3397079286460996  0.6375234879829105  0.3760257121265165
  0.4086139544155026  0.3595564599184328  0.3771664126228629
  0.5890582117332812  0.6391372168321302  0.6202341078752514
  0.6579193742616150  0.3612565138295293  0.6209425644028927
  0.5897691693240662  0.6373751885411139  0.3781449796802597
  0.6585190097179752  0.3595122407998912  0.3788884626796591
  0.8392466116754586  0.6387116411629130  0.6203926923591272
  0.9081327394854383  0.3609497825883405  0.6211318710289361
  0.8396490564526168  0.6374350970618357  0.3784060032058588
  0.9086331089623095  0.3594946043538627  0.3790768877699723
  0.3982453207943020  0.7085536821212680  0.7695457609614628
  0.4304654349509817  0.7964790461661218  0.7573553468713733
  0.3300841285476033  0.7412894763930724  0.7728109176564911
 
  0.00000000E+00  0.00000000E+00  0.00000000E+00
  0.00000000E+00  0.00000000E+00  0.00000000E+00
  0.00000000E+00  0.00000000E+00  0.00000000E+00
  0.00000000E+00  0.00000000E+00  0.00000000E+00
  0.00000000E+00  0.00000000E+00  0.00000000E+00
  0.00000000E+00  0.00000000E+00  0.00000000E+00
  0.00000000E+00  0.00000000E+00  0.00000000E+00
  0.00000000E+00  0.00000000E+00  0.00000000E+00
  0.00000000E+00  0.00000000E+00  0.00000000E+00
  0.00000000E+00  0.00000000E+00  0.00000000E+00
  0.00000000E+00  0.00000000E+00  0.00000000E+00
  0.00000000E+00  0.00000000E+00  0.00000000E+00
  0.00000000E+00  0.00000000E+00  0.00000000E+00
  0.00000000E+00  0.00000000E+00  0.00000000E+00
  0.00000000E+00  0.00000000E+00  0.00000000E+00
  0.00000000E+00  0.00000000E+00  0.00000000E+00
  0.00000000E+00  0.00000000E+00  0.00000000E+00
  0.00000000E+00  0.00000000E+00  0.00000000E+00
  0.00000000E+00  0.00000000E+00  0.00000000E+00
  0.00000000E+00  0.00000000E+00  0.00000000E+00
  0.00000000E+00  0.00000000E+00  0.00000000E+00
  0.00000000E+00  0.00000000E+00  0.00000000E+00
  0.00000000E+00  0.00000000E+00  0.00000000E+00
  0.00000000E+00  0.00000000E+00  0.00000000E+00
  0.00000000E+00  0.00000000E+00  0.00000000E+00
  0.00000000E+00  0.00000000E+00  0.00000000E+00
  0.00000000E+00  0.00000000E+00  0.00000000E+00
  0.00000000E+00  0.00000000E+00  0.00000000E+00
  0.00000000E+00  0.00000000E+00  0.00000000E+00
  0.00000000E+00  0.00000000E+00  0.00000000E+00
  0.00000000E+00  0.00000000E+00  0.00000000E+00
  0.00000000E+00  0.00000000E+00  0.00000000E+00
  0.00000000E+00  0.00000000E+00  0.00000000E+00
  0.00000000E+00  0.00000000E+00  0.00000000E+00
  0.00000000E+00  0.00000000E+00  0.00000000E+00
  0.00000000E+00  0.00000000E+00  0.00000000E+00
  0.00000000E+00  0.00000000E+00  0.00000000E+00
  0.00000000E+00  0.00000000E+00  0.00000000E+00
  0.00000000E+00  0.00000000E+00  0.00000000E+00
  0.00000000E+00  0.00000000E+00  0.00000000E+00
  0.00000000E+00  0.00000000E+00  0.00000000E+00
  0.00000000E+00  0.00000000E+00  0.00000000E+00
  0.00000000E+00  0.00000000E+00  0.00000000E+00
  0.00000000E+00  0.00000000E+00  0.00000000E+00
  0.00000000E+00  0.00000000E+00  0.00000000E+00
  0.00000000E+00  0.00000000E+00  0.00000000E+00
  0.00000000E+00  0.00000000E+00  0.00000000E+00
  0.00000000E+00  0.00000000E+00  0.00000000E+00
  0.00000000E+00  0.00000000E+00  0.00000000E+00
  0.00000000E+00  0.00000000E+00  0.00000000E+00
  0.00000000E+00  0.00000000E+00  0.00000000E+00
  0.00000000E+00  0.00000000E+00  0.00000000E+00
  0.00000000E+00  0.00000000E+00  0.00000000E+00
  0.00000000E+00  0.00000000E+00  0.00000000E+00
  0.00000000E+00  0.00000000E+00  0.00000000E+00
  0.00000000E+00  0.00000000E+00  0.00000000E+00
  0.00000000E+00  0.00000000E+00  0.00000000E+00
  0.00000000E+00  0.00000000E+00  0.00000000E+00
  0.00000000E+00  0.00000000E+00  0.00000000E+00
  0.00000000E+00  0.00000000E+00  0.00000000E+00
  0.00000000E+00  0.00000000E+00  0.00000000E+00
  0.00000000E+00  0.00000000E+00  0.00000000E+00
  0.00000000E+00  0.00000000E+00  0.00000000E+00
  0.00000000E+00  0.00000000E+00  0.00000000E+00
  0.00000000E+00  0.00000000E+00  0.00000000E+00
  0.00000000E+00  0.00000000E+00  0.00000000E+00
  0.00000000E+00  0.00000000E+00  0.00000000E+00
