CONTCAR\(3)                             
   1.00000000000000     
    13.7100000381000005    0.0000000000000000    0.0000000000000000
    -6.8218533300999997   11.9299668931999996    0.0000000000000000
     0.0000000000000000    0.0000000000000000   18.6952991486000002
   Nb   Ir   Se   O    H 
    12     4    32     1     1
Selective dynamics
Direct
  0.5007331327747124  0.2285208932508809  0.5047349988963319   F   F   F
  0.4784640155331488  0.9930410752311118  0.5054632463310398   F   F   F
  0.2714131940989333  0.2433637525063403  0.5036871294241578   F   F   F
  0.9763629509793503  0.2518179693392497  0.5029887001523150   F   F   F
  0.9917062255262650  0.0224049931641659  0.4984604504557595   F   F   F
  0.7428230438345835  0.2311047983724990  0.5016824567166296   F   F   F
  0.4778082590520469  0.7514953583796284  0.5029552828148880   F   F   F
  0.4932191870695917  0.5223800153164717  0.5011565204306478   F   F   F
  0.2412274357483710  0.7296096945391994  0.4991975770539838   F   F   F
  0.0024490291315473  0.7325667997066247  0.4981423396805553   F   F   F
  0.9758098194441231  0.4941486108613518  0.5037913560166203   F   F   F
  0.7713229609713323  0.7436074283992724  0.5004032789275570   F   F   F
  0.2770287095510042  0.0268859272869122  0.5031285283586371   F   F   F
  0.7755549876025896  0.0277220209356628  0.4990531336435495   F   F   F
  0.2746647467808643  0.5275423575548430  0.4999883412700541   F   F   F
  0.7847386679620527  0.5350142542005045  0.4995906740573233   F   F   F
  0.4174801804770212  0.0856813427779670  0.6037639480633601   F   F   F
  0.4204382245774667  0.3334655437763487  0.5917678340057364   F   F   F
  0.1639198390656347  0.0782188093726077  0.5873338851443606   F   F   F
  0.1751786969392199  0.3462657452366216  0.5725600049678761   F   F   F
  0.3470710620648703  0.1744477600569496  0.4051952794209441   F   F   F
  0.3290043789142274  0.4167243532328442  0.4159495169322796   F   F   F
  0.0831660555181841  0.1750718031630285  0.4132052237572879   F   F   F
  0.0953283195808936  0.4276907301704753  0.4246767741532906   F   F   F
  0.9215605085384055  0.0954275804088596  0.5983037813219880   F   F   F
  0.9069456070784980  0.3348237867239092  0.5981856126011635   F   F   F
  0.6667026187850666  0.0741188719241848  0.5898582643576376   F   F   F
  0.6684557950981045  0.3331867478269217  0.5943727707422255   F   F   F
  0.8365294492661448  0.1743914893826570  0.4016114875883972   F   F   F
  0.8215011215499501  0.4145490787494879  0.4143805695967515   F   F   F
  0.5806292040319505  0.1563056434395733  0.4089240448738849   F   F   F
  0.5971794785917979  0.4255035099757265  0.4352086984724934   F   F   F
  0.4215343274956140  0.5957879433122244  0.5995419698152560   F   F   F
  0.4043723677617166  0.8311212211361578  0.5978146289567974   F   F   F
  0.1643537882497554  0.5756833265898820  0.5892028982044408   F   F   F
  0.1759999073129137  0.8479038310467359  0.5787827457953725   F   F   F
  0.3377347194154083  0.6735178854755617  0.4012837120079311   F   F   F
  0.3252029941543384  0.9168586035710078  0.4143683375052518   F   F   F
  0.0806254679503624  0.6548178609777864  0.4047064452729217   F   F   F
  0.0961010719747364  0.9289899000744768  0.4285910239810349   F   F   F
  0.9220631494607616  0.5920396211541714  0.6007714550300207   F   F   F
  0.9218707062467004  0.8348396576938981  0.5878279353054552   F   F   F
  0.6691410765600452  0.5767652987916136  0.5856443565735958   F   F   F
  0.6761210695761477  0.8458830680108917  0.5717067403359906   F   F   F
  0.8488534826396830  0.6803136713920566  0.3993242584176002   F   F   F
  0.8279418404948871  0.9166361920760053  0.4133037392506154   F   F   F
  0.5819662250704667  0.6722087386126674  0.4131692323650853   F   F   F
  0.5955500353729732  0.9276180816304560  0.4241945998857091   F   F   F
  0.6164703862005894  0.2306299886898486  0.6764667368536621   T   T   T
  0.6511708709249574  0.2794864745016454  0.7169853034817498   T   T   T
 
  0.00000000E+00  0.00000000E+00  0.00000000E+00
  0.00000000E+00  0.00000000E+00  0.00000000E+00
  0.00000000E+00  0.00000000E+00  0.00000000E+00
  0.00000000E+00  0.00000000E+00  0.00000000E+00
  0.00000000E+00  0.00000000E+00  0.00000000E+00
  0.00000000E+00  0.00000000E+00  0.00000000E+00
  0.00000000E+00  0.00000000E+00  0.00000000E+00
  0.00000000E+00  0.00000000E+00  0.00000000E+00
  0.00000000E+00  0.00000000E+00  0.00000000E+00
  0.00000000E+00  0.00000000E+00  0.00000000E+00
  0.00000000E+00  0.00000000E+00  0.00000000E+00
  0.00000000E+00  0.00000000E+00  0.00000000E+00
  0.00000000E+00  0.00000000E+00  0.00000000E+00
  0.00000000E+00  0.00000000E+00  0.00000000E+00
  0.00000000E+00  0.00000000E+00  0.00000000E+00
  0.00000000E+00  0.00000000E+00  0.00000000E+00
  0.00000000E+00  0.00000000E+00  0.00000000E+00
  0.00000000E+00  0.00000000E+00  0.00000000E+00
  0.00000000E+00  0.00000000E+00  0.00000000E+00
  0.00000000E+00  0.00000000E+00  0.00000000E+00
  0.00000000E+00  0.00000000E+00  0.00000000E+00
  0.00000000E+00  0.00000000E+00  0.00000000E+00
  0.00000000E+00  0.00000000E+00  0.00000000E+00
  0.00000000E+00  0.00000000E+00  0.00000000E+00
  0.00000000E+00  0.00000000E+00  0.00000000E+00
  0.00000000E+00  0.00000000E+00  0.00000000E+00
  0.00000000E+00  0.00000000E+00  0.00000000E+00
  0.00000000E+00  0.00000000E+00  0.00000000E+00
  0.00000000E+00  0.00000000E+00  0.00000000E+00
  0.00000000E+00  0.00000000E+00  0.00000000E+00
  0.00000000E+00  0.00000000E+00  0.00000000E+00
  0.00000000E+00  0.00000000E+00  0.00000000E+00
  0.00000000E+00  0.00000000E+00  0.00000000E+00
  0.00000000E+00  0.00000000E+00  0.00000000E+00
  0.00000000E+00  0.00000000E+00  0.00000000E+00
  0.00000000E+00  0.00000000E+00  0.00000000E+00
  0.00000000E+00  0.00000000E+00  0.00000000E+00
  0.00000000E+00  0.00000000E+00  0.00000000E+00
  0.00000000E+00  0.00000000E+00  0.00000000E+00
  0.00000000E+00  0.00000000E+00  0.00000000E+00
  0.00000000E+00  0.00000000E+00  0.00000000E+00
  0.00000000E+00  0.00000000E+00  0.00000000E+00
  0.00000000E+00  0.00000000E+00  0.00000000E+00
  0.00000000E+00  0.00000000E+00  0.00000000E+00
  0.00000000E+00  0.00000000E+00  0.00000000E+00
  0.00000000E+00  0.00000000E+00  0.00000000E+00
  0.00000000E+00  0.00000000E+00  0.00000000E+00
  0.00000000E+00  0.00000000E+00  0.00000000E+00
  0.00000000E+00  0.00000000E+00  0.00000000E+00
  0.00000000E+00  0.00000000E+00  0.00000000E+00
