CONTCAR\(7)                             
   1.00000000000000     
    10.6485004424999996    0.0000000000000000    0.0000000000000000
     0.0000000000000000   10.3634004592999993    0.0000000000000000
     0.0000000000000000    0.0000000000000000   16.5244998932000016
   Cu   F 
    12    24
Direct
  0.1666699949999995  0.2500000000000000  0.5000000000000000
  0.0000000000000000  0.0000000000000000  0.5000000000000000
  0.5000000000000000  0.2500000000000000  0.5000000000000000
  0.3333300050000005  0.0000000000000000  0.5000000000000000
  0.8333299600000004  0.2500000000000000  0.5000000000000000
  0.6666700399999996  0.0000000000000000  0.5000000000000000
  0.1666699949999995  0.7500000229999984  0.5000000000000000
  0.0000000000000000  0.5000000000000000  0.5000000000000000
  0.5000000000000000  0.7500000229999984  0.5000000000000000
  0.3333300050000005  0.5000000000000000  0.5000000000000000
  0.8333299600000004  0.7500000229999984  0.5000000000000000
  0.6666700399999996  0.5000000000000000  0.5000000000000000
  0.0384422653904438  0.1560991960824791  0.4422715709698659
  0.2051122633904399  0.0939008039175209  0.5577284290301341
  0.1282177306095562  0.4060992190824845  0.4422715709698659
  0.2948877366095601  0.3439007809175155  0.5577284290301341
  0.3717822803904412  0.1560991960824791  0.4422715709698659
  0.5384423123904442  0.0939008039175209  0.5577284290301341
  0.4615577326095561  0.4060992190824845  0.4422715709698659
  0.6282176966095604  0.3439007809175155  0.5577284290301341
  0.7051122633904400  0.1560991960824791  0.4422715709698659
  0.8717823033904396  0.0939008039175209  0.5577284290301341
  0.7948877366095600  0.4060992190824845  0.4422715709698659
  0.9615477466095611  0.3439007809175155  0.5577284290301341
  0.0384422653904438  0.6560991960824790  0.4422715709698659
  0.2051122633904399  0.5939007809175155  0.5577284290301341
  0.1282177306095562  0.9060991730824807  0.4422715709698659
  0.2948877366095601  0.8439007579175172  0.5577284290301341
  0.3717822803904412  0.6560991960824790  0.4422715709698659
  0.5384423123904442  0.5939007809175155  0.5577284290301341
  0.4615577326095561  0.9060991730824807  0.4422715709698659
  0.6282176966095604  0.8439007579175172  0.5577284290301341
  0.7051122633904400  0.6560991960824790  0.4422715709698659
  0.8717823033904396  0.5939007809175155  0.5577284290301341
  0.7948877366095600  0.9060991730824807  0.4422715709698659
  0.9615477466095611  0.8439007579175172  0.5577284290301341
 
  0.00000000E+00  0.00000000E+00  0.00000000E+00
  0.00000000E+00  0.00000000E+00  0.00000000E+00
  0.00000000E+00  0.00000000E+00  0.00000000E+00
  0.00000000E+00  0.00000000E+00  0.00000000E+00
  0.00000000E+00  0.00000000E+00  0.00000000E+00
  0.00000000E+00  0.00000000E+00  0.00000000E+00
  0.00000000E+00  0.00000000E+00  0.00000000E+00
  0.00000000E+00  0.00000000E+00  0.00000000E+00
  0.00000000E+00  0.00000000E+00  0.00000000E+00
  0.00000000E+00  0.00000000E+00  0.00000000E+00
  0.00000000E+00  0.00000000E+00  0.00000000E+00
  0.00000000E+00  0.00000000E+00  0.00000000E+00
  0.00000000E+00  0.00000000E+00  0.00000000E+00
  0.00000000E+00  0.00000000E+00  0.00000000E+00
  0.00000000E+00  0.00000000E+00  0.00000000E+00
  0.00000000E+00  0.00000000E+00  0.00000000E+00
  0.00000000E+00  0.00000000E+00  0.00000000E+00
  0.00000000E+00  0.00000000E+00  0.00000000E+00
  0.00000000E+00  0.00000000E+00  0.00000000E+00
  0.00000000E+00  0.00000000E+00  0.00000000E+00
  0.00000000E+00  0.00000000E+00  0.00000000E+00
  0.00000000E+00  0.00000000E+00  0.00000000E+00
  0.00000000E+00  0.00000000E+00  0.00000000E+00
  0.00000000E+00  0.00000000E+00  0.00000000E+00
  0.00000000E+00  0.00000000E+00  0.00000000E+00
  0.00000000E+00  0.00000000E+00  0.00000000E+00
  0.00000000E+00  0.00000000E+00  0.00000000E+00
  0.00000000E+00  0.00000000E+00  0.00000000E+00
  0.00000000E+00  0.00000000E+00  0.00000000E+00
  0.00000000E+00  0.00000000E+00  0.00000000E+00
  0.00000000E+00  0.00000000E+00  0.00000000E+00
  0.00000000E+00  0.00000000E+00  0.00000000E+00
  0.00000000E+00  0.00000000E+00  0.00000000E+00
  0.00000000E+00  0.00000000E+00  0.00000000E+00
  0.00000000E+00  0.00000000E+00  0.00000000E+00
  0.00000000E+00  0.00000000E+00  0.00000000E+00
