 Zr2 Si2 Te2                            
   1.00000000000000     
     3.6496033084269692    0.0000000000000000    0.0000000000000000
     0.0000000000000000    3.6496033026530621    0.0000000000000000
     0.0000000000000000    0.0000000000000000   22.0405987447400058
   Zr   Si   Te
     2     2     2
Direct
  0.4999999473514407  0.0000000164222627  0.5965263954431705
  0.0000000433929515  0.4999999776447979  0.4034716005900307
  0.5000000152755391  0.5000000053935736  0.5000001291359055
  0.0000000094827755  0.0000000103641327  0.5000001399114922
  0.9999999510035735  0.5000000112137428  0.6601436014097644
  0.5000000334937269  0.9999999789614904  0.3398581335096367
 
  0.00000000E+00  0.00000000E+00  0.00000000E+00
  0.00000000E+00  0.00000000E+00  0.00000000E+00
  0.00000000E+00  0.00000000E+00  0.00000000E+00
  0.00000000E+00  0.00000000E+00  0.00000000E+00
  0.00000000E+00  0.00000000E+00  0.00000000E+00
  0.00000000E+00  0.00000000E+00  0.00000000E+00
