CONTCAR\(17)                            
   1.00000000000000     
    13.6164999007999992    0.0000000000000000    0.0000000000000000
     0.0000000000000000   12.7049999237000009    0.0000000000000000
     0.0000000000000000    0.0000000000000000   19.1487998961999999
   Te   Mo
    31    16
Direct
  0.1875406477707847  0.2154924747032083  0.4218656748522297
  0.0630030533837386  0.2831765183720463  0.5784163743183143
  0.0629556013272395  0.4603634526515337  0.3924985375075216
  0.1870287828216949  0.0337585522203157  0.6074220250252761
  0.4374593442292146  0.2154924747032083  0.4218656748522297
  0.3124999870000025  0.2810666243683160  0.5778921966401014
  0.3124999870000025  0.4597971665650861  0.3924393081562444
  0.4379712091783046  0.0337585522203157  0.6074220250252761
  0.6886805543986666  0.2169174914823425  0.4208791431390150
  0.5619969506162620  0.2831765183720463  0.5784163743183143
  0.5620444026727608  0.4603634526515337  0.3924985375075216
  0.6879001002382547  0.0385340994352223  0.6085417663808620
  0.9363194196013312  0.2169174914823425  0.4208791431390150
  0.8124999870000025  0.2834952852664940  0.5783798331558901
  0.8124999870000025  0.4623941302282132  0.3929192533398853
  0.9370998737617432  0.0385340994352223  0.6085417663808620
  0.1871329452292599  0.7169152159464042  0.4209867684546337
  0.0723872399462459  0.7863824008907847  0.5790487409488583
  0.0582037429372045  0.9644525785044141  0.3905323281053263
  0.1910107850277003  0.5440621818163983  0.6080163928112016
  0.4378670467707394  0.7169152159464042  0.4209867684546337
  0.3124999870000025  0.9575989001748475  0.3907819642072826
  0.4339892069722990  0.5440621818163983  0.6080163928112016
  0.6879190513130173  0.7153847276706196  0.4229085804122032
  0.5526127640537541  0.7863824008907847  0.5790487409488583
  0.5667962610627957  0.9644525785044141  0.3905323281053263
  0.6859451088458756  0.5388570101967486  0.6091831657925997
  0.9370809226869805  0.7153847276706196  0.4229085804122032
  0.8124999870000025  0.7854061218475092  0.5810486216429113
  0.8124999870000025  0.9613330138625179  0.3913997835635460
  0.9390548651541223  0.5388570101967486  0.6091831657925997
  0.1883490039578748  0.4087042957218050  0.4963911504179039
  0.0613981462394385  0.0907997573592227  0.5043894674285042
  0.4366509880421245  0.4087042957218050  0.4963911504179039
  0.3124999870000025  0.0848489347934709  0.5042323917830367
  0.6870967454832885  0.4089588403629385  0.4960421741513486
  0.5636018577605618  0.0907997573592227  0.5043894674285042
  0.9379032285167094  0.4089588403629385  0.4960421741513486
  0.8124999870000025  0.0904925414592251  0.5045463513622243
  0.1804266452841297  0.9111462182998609  0.4918165769401713
  0.0641216595722933  0.5906009233700442  0.5051530644679935
  0.4445733467158696  0.9111462182998609  0.4918165769401713
  0.3124999870000025  0.5936732387537336  0.5011702417915633
  0.6903218392660407  0.9079796315074327  0.4960960417059629
  0.5608783444277068  0.5906009233700442  0.5051530644679935
  0.9346781347339571  0.9079796315074327  0.4960960417059629
  0.8124999870000025  0.5908712556579041  0.5063746836374213
 
  0.00000000E+00  0.00000000E+00  0.00000000E+00
  0.00000000E+00  0.00000000E+00  0.00000000E+00
  0.00000000E+00  0.00000000E+00  0.00000000E+00
  0.00000000E+00  0.00000000E+00  0.00000000E+00
  0.00000000E+00  0.00000000E+00  0.00000000E+00
  0.00000000E+00  0.00000000E+00  0.00000000E+00
  0.00000000E+00  0.00000000E+00  0.00000000E+00
  0.00000000E+00  0.00000000E+00  0.00000000E+00
  0.00000000E+00  0.00000000E+00  0.00000000E+00
  0.00000000E+00  0.00000000E+00  0.00000000E+00
  0.00000000E+00  0.00000000E+00  0.00000000E+00
  0.00000000E+00  0.00000000E+00  0.00000000E+00
  0.00000000E+00  0.00000000E+00  0.00000000E+00
  0.00000000E+00  0.00000000E+00  0.00000000E+00
  0.00000000E+00  0.00000000E+00  0.00000000E+00
  0.00000000E+00  0.00000000E+00  0.00000000E+00
  0.00000000E+00  0.00000000E+00  0.00000000E+00
  0.00000000E+00  0.00000000E+00  0.00000000E+00
  0.00000000E+00  0.00000000E+00  0.00000000E+00
  0.00000000E+00  0.00000000E+00  0.00000000E+00
  0.00000000E+00  0.00000000E+00  0.00000000E+00
  0.00000000E+00  0.00000000E+00  0.00000000E+00
  0.00000000E+00  0.00000000E+00  0.00000000E+00
  0.00000000E+00  0.00000000E+00  0.00000000E+00
  0.00000000E+00  0.00000000E+00  0.00000000E+00
  0.00000000E+00  0.00000000E+00  0.00000000E+00
  0.00000000E+00  0.00000000E+00  0.00000000E+00
  0.00000000E+00  0.00000000E+00  0.00000000E+00
  0.00000000E+00  0.00000000E+00  0.00000000E+00
  0.00000000E+00  0.00000000E+00  0.00000000E+00
  0.00000000E+00  0.00000000E+00  0.00000000E+00
  0.00000000E+00  0.00000000E+00  0.00000000E+00
  0.00000000E+00  0.00000000E+00  0.00000000E+00
  0.00000000E+00  0.00000000E+00  0.00000000E+00
  0.00000000E+00  0.00000000E+00  0.00000000E+00
  0.00000000E+00  0.00000000E+00  0.00000000E+00
  0.00000000E+00  0.00000000E+00  0.00000000E+00
  0.00000000E+00  0.00000000E+00  0.00000000E+00
  0.00000000E+00  0.00000000E+00  0.00000000E+00
  0.00000000E+00  0.00000000E+00  0.00000000E+00
  0.00000000E+00  0.00000000E+00  0.00000000E+00
  0.00000000E+00  0.00000000E+00  0.00000000E+00
  0.00000000E+00  0.00000000E+00  0.00000000E+00
  0.00000000E+00  0.00000000E+00  0.00000000E+00
  0.00000000E+00  0.00000000E+00  0.00000000E+00
  0.00000000E+00  0.00000000E+00  0.00000000E+00
  0.00000000E+00  0.00000000E+00  0.00000000E+00
