CONTCAR\(3)                             
   1.00000000000000     
    12.0392999648999997    0.0000000000000000    0.0000000000000000
     1.3648429331000000   13.3109105337999996    0.0000000000000000
     0.0000000000000000    0.0000000000000000   21.3703002929999997
   Li   Cu   P    O 
     8     8    24    73
Direct
  0.4098152715281491  0.5095593504531736  0.3864761344397520
  0.0819039960010658  0.9892741361895008  0.6161808848630650
  0.9115103929448857  0.4721660373756417  0.3835862004790809
  0.5765764823986700  0.0207616646117623  0.6241084161921389
  0.4503392518438626  0.0012305176087087  0.4032464280359490
  0.0527952843830600  0.4899648885388000  0.6059706975918768
  0.9551194410563892  0.9809967824339183  0.3954738359442661
  0.5307916836113588  0.5137384234235803  0.6033237037343657
  0.4180930995366187  0.2654159586857201  0.3880494209706077
  0.1190589765346065  0.2053695598731998  0.6011537058223522
  0.9263066193539554  0.2250938500672516  0.3864530861820573
  0.5798485790487563  0.2729525319281356  0.6128798782826941
  0.3669017827853839  0.7699154248305282  0.3825085080137590
  0.1341550871750135  0.7312879932165945  0.6171497755454365
  0.8722856117718875  0.7290195655940143  0.3794935279107345
  0.6274091843675539  0.7451753935913458  0.6165304929322110
  0.4254821016367961  0.1567872443082745  0.5255856850685116
  0.3269637576147268  0.3152743243526378  0.6083085796491416
  0.3269008077809873  0.0276601545210657  0.6158369590915876
  0.1592978519375214  0.4854993225732165  0.3856481244554259
  0.1799435085914080  0.1921478097744339  0.3896266804107059
  0.0806659885083484  0.3412737017637189  0.4761660894226570
  0.9215371915573316  0.1271335234652108  0.5235575679451123
  0.8376779082309003  0.2841509364946386  0.6077462519127672
  0.8401786026769098  0.9913285169576429  0.6192594745807627
  0.6520646139555104  0.5091570922171453  0.3782032325667353
  0.6690299423372823  0.2183341168726783  0.4009761755499140
  0.5716544505995732  0.3807332552385057  0.4777585022651444
  0.4067151784654858  0.6465806908528708  0.5104645716459135
  0.3669469485903195  0.8005399786340446  0.6057557199488998
  0.2911977375789995  0.5378696745994845  0.6053781513346576
  0.2084993540895723  0.9672758668063018  0.3957741983435644
  0.1302045367411263  0.7071436463329090  0.3993807169376242
  0.0961449083822475  0.8671323328520921  0.4938025308953793
  0.9037579742443032  0.6108092163439002  0.5064533037773044
  0.8781820502426677  0.7688230341591978  0.5983237968455539
  0.8073965795841253  0.5081078293349052  0.6068243753463226
  0.6985961427677503  0.9963973718382130  0.3967339321006874
  0.6235777670108731  0.7350078163423552  0.3942864315549761
  0.6017736293140578  0.8835569638536832  0.4954473716277491
  0.4602850997802282  0.3861275747676364  0.4438690614505391
  0.4336199077089067  0.1507673063674553  0.4554664540028994
  0.4340678169121864  0.3162871302583858  0.6449515410663620
  0.4242317252888493  0.0363666772429871  0.6571684857519535
  0.3537756475273938  0.2637475551969755  0.5410029482944866
  0.3415697493445536  0.0790077138776624  0.5475866521572985
  0.2767477848126625  0.4235857288721415  0.5845415953038704
  0.2738405406917500  0.4724298781952196  0.3593738001058150
  0.2702200415848569  0.2474987687985429  0.3608229415516623
  0.2350104664270918  0.2678345909872336  0.6416975504076367
  0.2077156546599644  0.0627383632503826  0.6347140275329580
  0.2341619798094516  0.0820386143534074  0.4073271969600541
  0.1606200168026901  0.4200741703022863  0.4515801368088476
  0.1511636286918839  0.2341473540217055  0.4587536896834233
  0.0572649047322110  0.4732139793563420  0.3486047221110816
  0.0728159219152788  0.1921772587983750  0.3528335563665435
  0.0789251686531693  0.3387307458877094  0.5470429835860404
  0.0345005564258225  0.1124825820875366  0.5564576790738691
  0.9704369023230034  0.3511909629445846  0.4413205100419998
  0.9265724349901866  0.1165285935270796  0.4533352416127390
  0.9406188879781374  0.2746234525758727  0.6461536186822527
  0.9428143887456708  0.0022175514557384  0.6561015176276984
  0.8601123653086354  0.2367311141275770  0.5383374964574814
  0.8394155899741010  0.0554468970556491  0.5530730883418173
  0.7992452182645675  0.3980449140437476  0.5825625574244699
  0.7656545371169270  0.4874986156352011  0.3516919568543678
  0.7732217176852380  0.2543110526455479  0.3726313935704263
  0.7318821524339066  0.2466221442578115  0.6332979177570027
  0.7265967543712117  0.0073702618019528  0.6462502408717596
  0.6918563561943957  0.1092035258178671  0.4278664466459780
  0.6518841039238059  0.4541057137509236  0.4480652795846148
  0.6412156133025135  0.2727643966933661  0.4673029357320621
  0.5481847130595860  0.4954994209280196  0.3432427896786581
  0.5688062645439216  0.2364093225233503  0.3582431655830419
  0.5667904845690449  0.3926828393212385  0.5482546090554018
  0.5311672778023004  0.1464101242646471  0.5646484905738367
  0.4894912424529108  0.9341773656582054  0.4800943884493233
  0.3925419676586163  0.6481313777950007  0.4399105938939006
  0.4779647647430837  0.7842281777036512  0.6383054047158097
  0.3910365303802681  0.5416344815622374  0.6452185784915667
  0.3706457903101810  0.7605613965012176  0.5344623450298673
  0.3071884927131702  0.5856700556131789  0.5361503605653153
  0.3259524259322064  0.9136466699431299  0.5916183128135628
  0.3230980297494628  0.9188159890864339  0.3753048024314213
  0.2253118534050857  0.7358065938174125  0.3595884826718363
  0.2785741642498485  0.7533142953329723  0.6423022146013512
  0.1740324206626416  0.5792757727322168  0.6260469852447345
  0.1426461171814560  0.5951904707701664  0.4210450936689519
  0.1933127962277483  0.9314826712969586  0.4683026517479817
  0.1352774222339246  0.7548997176340994  0.4685224703122567
  0.1054905754235946  0.9605241651114298  0.3590217603232847
  0.0209583067969975  0.7386650193269116  0.3667800717061624
  0.1119415906421719  0.8600661855351784  0.5645056844053422
  0.0089245016308439  0.5556127566252489  0.5289053665667007
  0.9845721000651061  0.9044377955069083  0.4695415835660099
  0.8793035285695779  0.6116039115168337  0.4369381557803091
  0.9819063930257360  0.7347998779850391  0.6349256384738500
  0.9037973073549294  0.5208498562877230  0.6472180924565135
  0.8886873636090495  0.7271996417383927  0.5272069226854188
  0.7976311378750923  0.5681722351573408  0.5418307889212642
  0.8579545440838998  0.8822952317245533  0.5832118038248626
  0.8098190128783695  0.9732653580276019  0.3670004577165834
  0.7253111622722944  0.7662002631677139  0.3605865383022538
  0.7801279219399002  0.7283698582368163  0.6304083799918955
  0.6804197436752204  0.5298436321752361  0.6337864037879618
  0.6383255028561156  0.6208908638181656  0.4093640133182214
  0.7015478000861134  0.9368637733662486  0.4647935726906911
  0.6212846391303513  0.7718157033267746  0.4659164821052870
  0.5917858756677568  0.9870551034256237  0.3633937873527673
  0.5177527231680626  0.7726873610587369  0.3606093467509066
  0.6266030840241362  0.8678935094777940  0.5649283889820378
  0.5169274250680040  0.6094233400092531  0.5374704830258598
  0.6351113291199350  0.6215545850444030  0.6646866370996019
 
  0.00000000E+00  0.00000000E+00  0.00000000E+00
  0.00000000E+00  0.00000000E+00  0.00000000E+00
  0.00000000E+00  0.00000000E+00  0.00000000E+00
  0.00000000E+00  0.00000000E+00  0.00000000E+00
  0.00000000E+00  0.00000000E+00  0.00000000E+00
  0.00000000E+00  0.00000000E+00  0.00000000E+00
  0.00000000E+00  0.00000000E+00  0.00000000E+00
  0.00000000E+00  0.00000000E+00  0.00000000E+00
  0.00000000E+00  0.00000000E+00  0.00000000E+00
  0.00000000E+00  0.00000000E+00  0.00000000E+00
  0.00000000E+00  0.00000000E+00  0.00000000E+00
  0.00000000E+00  0.00000000E+00  0.00000000E+00
  0.00000000E+00  0.00000000E+00  0.00000000E+00
  0.00000000E+00  0.00000000E+00  0.00000000E+00
  0.00000000E+00  0.00000000E+00  0.00000000E+00
  0.00000000E+00  0.00000000E+00  0.00000000E+00
  0.00000000E+00  0.00000000E+00  0.00000000E+00
  0.00000000E+00  0.00000000E+00  0.00000000E+00
  0.00000000E+00  0.00000000E+00  0.00000000E+00
  0.00000000E+00  0.00000000E+00  0.00000000E+00
  0.00000000E+00  0.00000000E+00  0.00000000E+00
  0.00000000E+00  0.00000000E+00  0.00000000E+00
  0.00000000E+00  0.00000000E+00  0.00000000E+00
  0.00000000E+00  0.00000000E+00  0.00000000E+00
  0.00000000E+00  0.00000000E+00  0.00000000E+00
  0.00000000E+00  0.00000000E+00  0.00000000E+00
  0.00000000E+00  0.00000000E+00  0.00000000E+00
  0.00000000E+00  0.00000000E+00  0.00000000E+00
  0.00000000E+00  0.00000000E+00  0.00000000E+00
  0.00000000E+00  0.00000000E+00  0.00000000E+00
  0.00000000E+00  0.00000000E+00  0.00000000E+00
  0.00000000E+00  0.00000000E+00  0.00000000E+00
  0.00000000E+00  0.00000000E+00  0.00000000E+00
  0.00000000E+00  0.00000000E+00  0.00000000E+00
  0.00000000E+00  0.00000000E+00  0.00000000E+00
  0.00000000E+00  0.00000000E+00  0.00000000E+00
  0.00000000E+00  0.00000000E+00  0.00000000E+00
  0.00000000E+00  0.00000000E+00  0.00000000E+00
  0.00000000E+00  0.00000000E+00  0.00000000E+00
  0.00000000E+00  0.00000000E+00  0.00000000E+00
  0.00000000E+00  0.00000000E+00  0.00000000E+00
  0.00000000E+00  0.00000000E+00  0.00000000E+00
  0.00000000E+00  0.00000000E+00  0.00000000E+00
  0.00000000E+00  0.00000000E+00  0.00000000E+00
  0.00000000E+00  0.00000000E+00  0.00000000E+00
  0.00000000E+00  0.00000000E+00  0.00000000E+00
  0.00000000E+00  0.00000000E+00  0.00000000E+00
  0.00000000E+00  0.00000000E+00  0.00000000E+00
  0.00000000E+00  0.00000000E+00  0.00000000E+00
  0.00000000E+00  0.00000000E+00  0.00000000E+00
  0.00000000E+00  0.00000000E+00  0.00000000E+00
  0.00000000E+00  0.00000000E+00  0.00000000E+00
  0.00000000E+00  0.00000000E+00  0.00000000E+00
  0.00000000E+00  0.00000000E+00  0.00000000E+00
  0.00000000E+00  0.00000000E+00  0.00000000E+00
  0.00000000E+00  0.00000000E+00  0.00000000E+00
  0.00000000E+00  0.00000000E+00  0.00000000E+00
  0.00000000E+00  0.00000000E+00  0.00000000E+00
  0.00000000E+00  0.00000000E+00  0.00000000E+00
  0.00000000E+00  0.00000000E+00  0.00000000E+00
  0.00000000E+00  0.00000000E+00  0.00000000E+00
  0.00000000E+00  0.00000000E+00  0.00000000E+00
  0.00000000E+00  0.00000000E+00  0.00000000E+00
  0.00000000E+00  0.00000000E+00  0.00000000E+00
  0.00000000E+00  0.00000000E+00  0.00000000E+00
  0.00000000E+00  0.00000000E+00  0.00000000E+00
  0.00000000E+00  0.00000000E+00  0.00000000E+00
  0.00000000E+00  0.00000000E+00  0.00000000E+00
  0.00000000E+00  0.00000000E+00  0.00000000E+00
  0.00000000E+00  0.00000000E+00  0.00000000E+00
  0.00000000E+00  0.00000000E+00  0.00000000E+00
  0.00000000E+00  0.00000000E+00  0.00000000E+00
  0.00000000E+00  0.00000000E+00  0.00000000E+00
  0.00000000E+00  0.00000000E+00  0.00000000E+00
  0.00000000E+00  0.00000000E+00  0.00000000E+00
  0.00000000E+00  0.00000000E+00  0.00000000E+00
  0.00000000E+00  0.00000000E+00  0.00000000E+00
  0.00000000E+00  0.00000000E+00  0.00000000E+00
  0.00000000E+00  0.00000000E+00  0.00000000E+00
  0.00000000E+00  0.00000000E+00  0.00000000E+00
  0.00000000E+00  0.00000000E+00  0.00000000E+00
  0.00000000E+00  0.00000000E+00  0.00000000E+00
  0.00000000E+00  0.00000000E+00  0.00000000E+00
  0.00000000E+00  0.00000000E+00  0.00000000E+00
  0.00000000E+00  0.00000000E+00  0.00000000E+00
  0.00000000E+00  0.00000000E+00  0.00000000E+00
  0.00000000E+00  0.00000000E+00  0.00000000E+00
  0.00000000E+00  0.00000000E+00  0.00000000E+00
  0.00000000E+00  0.00000000E+00  0.00000000E+00
  0.00000000E+00  0.00000000E+00  0.00000000E+00
  0.00000000E+00  0.00000000E+00  0.00000000E+00
  0.00000000E+00  0.00000000E+00  0.00000000E+00
  0.00000000E+00  0.00000000E+00  0.00000000E+00
  0.00000000E+00  0.00000000E+00  0.00000000E+00
  0.00000000E+00  0.00000000E+00  0.00000000E+00
  0.00000000E+00  0.00000000E+00  0.00000000E+00
  0.00000000E+00  0.00000000E+00  0.00000000E+00
  0.00000000E+00  0.00000000E+00  0.00000000E+00
  0.00000000E+00  0.00000000E+00  0.00000000E+00
  0.00000000E+00  0.00000000E+00  0.00000000E+00
  0.00000000E+00  0.00000000E+00  0.00000000E+00
  0.00000000E+00  0.00000000E+00  0.00000000E+00
  0.00000000E+00  0.00000000E+00  0.00000000E+00
  0.00000000E+00  0.00000000E+00  0.00000000E+00
  0.00000000E+00  0.00000000E+00  0.00000000E+00
  0.00000000E+00  0.00000000E+00  0.00000000E+00
  0.00000000E+00  0.00000000E+00  0.00000000E+00
  0.00000000E+00  0.00000000E+00  0.00000000E+00
  0.00000000E+00  0.00000000E+00  0.00000000E+00
  0.00000000E+00  0.00000000E+00  0.00000000E+00
  0.00000000E+00  0.00000000E+00  0.00000000E+00
  0.00000000E+00  0.00000000E+00  0.00000000E+00
  0.00000000E+00  0.00000000E+00  0.00000000E+00
