CONTCAR\(12)                            
   1.00000000000000     
    11.6387996674000007    0.0000000000000000    0.0000000000000000
     5.8194217944000002   10.1357943405000004    0.0000000000000000
     0.0000000000000000    0.0000000000000000   18.1699008942000013
   Li   Ni   P    S 
     4     4     7    24
Direct
  0.3339999308634473  0.3344996852844668  0.4977074299534074
  0.8315905070581682  0.3342834092191193  0.4984843621264416
  0.3346575646491041  0.8310439766129932  0.4981684979573797
  0.8333663772933958  0.8332875199907706  0.4987122474946132
  0.1671359768569937  0.1657675132062874  0.4986543749176150
  0.6665348862209466  0.1671904227632906  0.4986623918158599
  0.1669437729570933  0.6663815288621301  0.4987314247276901
  0.6665170658964145  0.6667235790341025  0.4985184241865012
 -0.0023429773556209  0.5023787582868540  0.4385898466216395
 -0.0001896242451693  0.5021849154486996  0.5582736444537740
  0.5000836325047140  0.4999170771831653  0.4982074481322374
  0.5019351663283698 -0.0021712162784497  0.5579116748679469
  0.0006827005658568 -0.0027628348796294  0.4392965782324144
 -0.0019095430732386 -0.0005430827855193  0.5588419682378913
  0.5024679992660344 -0.0002291910411771  0.4383561831124011
  0.0169823102279659  0.3246009133398339  0.5856676514631395
  0.3232803457996971  0.1590819544218557  0.5844228506604876
  0.0184647194103220  0.1580126081413245  0.4122908876800085
  0.1575347625376512  0.3248775746297217  0.4108594826088157
  0.3239988894164084  0.0174834172892935  0.4109417902471171
  0.1594676292349410  0.0165918028666555  0.5858773831330403
  0.5186141520466804  0.3385099166955531  0.5689235044779353
  0.8186436779733304  0.1652451020964269  0.5831681721216962
  0.5165765557088027  0.1652384131214119  0.4139022749094770
  0.6433015575612336  0.3381933334674624  0.4277253628793234
  0.8235865200101629  0.0149587948115538  0.4111365689623906
  0.6614061015363297  0.0154582085325292  0.5861432114613697
  0.0143995333825878  0.8233143016593019  0.5863661416000674
  0.3388195738550834  0.6426559022839651  0.5691328534293003
  0.0143797069178360  0.6621592329290149  0.4111760694966376
  0.1657968817086850  0.8181760371260682  0.4143493681424227
  0.3377827975734338  0.5188163687223318  0.4276888085884989
  0.1659569781170090  0.5162985465010338  0.5829144129180596
  0.5156632709762611  0.8187864747947974  0.5828197794563675
  0.8233042238179068  0.6619936153412495  0.5859530106143865
  0.5186760859640419  0.6429627636041415  0.4275537964788416
  0.6621317201569149  0.8235880103450552  0.4108322049019957
  0.8172230634500725  0.5168026604328922  0.4140475929852537
  0.6432250798301264  0.5188230339394748  0.5689903409455574
 
  0.00000000E+00  0.00000000E+00  0.00000000E+00
  0.00000000E+00  0.00000000E+00  0.00000000E+00
  0.00000000E+00  0.00000000E+00  0.00000000E+00
  0.00000000E+00  0.00000000E+00  0.00000000E+00
  0.00000000E+00  0.00000000E+00  0.00000000E+00
  0.00000000E+00  0.00000000E+00  0.00000000E+00
  0.00000000E+00  0.00000000E+00  0.00000000E+00
  0.00000000E+00  0.00000000E+00  0.00000000E+00
  0.00000000E+00  0.00000000E+00  0.00000000E+00
  0.00000000E+00  0.00000000E+00  0.00000000E+00
  0.00000000E+00  0.00000000E+00  0.00000000E+00
  0.00000000E+00  0.00000000E+00  0.00000000E+00
  0.00000000E+00  0.00000000E+00  0.00000000E+00
  0.00000000E+00  0.00000000E+00  0.00000000E+00
  0.00000000E+00  0.00000000E+00  0.00000000E+00
  0.00000000E+00  0.00000000E+00  0.00000000E+00
  0.00000000E+00  0.00000000E+00  0.00000000E+00
  0.00000000E+00  0.00000000E+00  0.00000000E+00
  0.00000000E+00  0.00000000E+00  0.00000000E+00
  0.00000000E+00  0.00000000E+00  0.00000000E+00
  0.00000000E+00  0.00000000E+00  0.00000000E+00
  0.00000000E+00  0.00000000E+00  0.00000000E+00
  0.00000000E+00  0.00000000E+00  0.00000000E+00
  0.00000000E+00  0.00000000E+00  0.00000000E+00
  0.00000000E+00  0.00000000E+00  0.00000000E+00
  0.00000000E+00  0.00000000E+00  0.00000000E+00
  0.00000000E+00  0.00000000E+00  0.00000000E+00
  0.00000000E+00  0.00000000E+00  0.00000000E+00
  0.00000000E+00  0.00000000E+00  0.00000000E+00
  0.00000000E+00  0.00000000E+00  0.00000000E+00
  0.00000000E+00  0.00000000E+00  0.00000000E+00
  0.00000000E+00  0.00000000E+00  0.00000000E+00
  0.00000000E+00  0.00000000E+00  0.00000000E+00
  0.00000000E+00  0.00000000E+00  0.00000000E+00
  0.00000000E+00  0.00000000E+00  0.00000000E+00
  0.00000000E+00  0.00000000E+00  0.00000000E+00
  0.00000000E+00  0.00000000E+00  0.00000000E+00
  0.00000000E+00  0.00000000E+00  0.00000000E+00
  0.00000000E+00  0.00000000E+00  0.00000000E+00
