CONTCAR\(6)                             
   1.00000000000000     
    12.5545997620000005    0.0000000000000000    0.0000000000000000
     6.2753582318000003   10.8725691462000000    0.0000000000000000
     0.0000000000000000    0.0000000000000000   18.6128997803000011
   Ta   Se   O 
    13    26     1
Direct
  0.9919772674258309  0.0109117240124279  0.4999258484881881
  0.7814100304568075  0.9374574843395658  0.4999077950907205
  0.2097996900543193  0.0742849135976584  0.4999391743794604
  0.2809290402236522  0.7904309228700903  0.5005883569575140
  0.7125189042069510  0.2202614215735442  0.5005788322119763
  0.0644535702776638  0.7211713345810158  0.5011635820448330
  0.9267193612604002  0.2886832130646287  0.5000640220164484
  0.8440372103868152  0.6430798219176291  0.5012292667047230
  0.1500687038128428  0.3644268332409549  0.4995743198115561
  0.5101559797165959  0.8528582760497410  0.5014504087818087
  0.4832674723835805  0.1566824378194810  0.5000532210891588
  0.3599018195157465  0.4905133184096890  0.4999605709866333
  0.6369875742435062  0.5165983395730384  0.5012155650556682
  0.9456598569945665  0.8826338663374562  0.5972079952103146
  0.0469583643745808  0.1293152371757658  0.4015878577857283
  0.1692868696788944  0.9551708187536525  0.5970165046603358
  0.8208337099160840  0.0561053586485491  0.4017716083518919
  0.8718115894786038  0.1805614404004182  0.5962701725679758
  0.1193825245585827  0.8316432741828668  0.4048106489310561
  0.2464407072752915  0.6532532460820478  0.5944748343786704
  0.7460915277627009  0.3572188897335715  0.4049651603729488
  0.0973279555776046  0.2550588902523776  0.5945706801303315
  0.8943987512518150  0.7553687075825414  0.4066046705299343
  0.6448315515355807  0.1075460730253868  0.5950859939994305
  0.3482147349102608  0.9034337987014134  0.4063355046989559
  0.0255789086159619  0.5690384303047175  0.5839872650830701
  0.9675478413874170  0.4397561817750331  0.4167216761777126
  0.4018001477176738  0.0343972910740353  0.5838780635901452
  0.5902393195787990  0.9758176548367908  0.4169142870840618
  0.5618203980506949  0.4109579856736971  0.5847799620631913
  0.4318680628629448  0.5992072911097893  0.4171048765772386
  0.7078123539869869  0.8092811109002080  0.5852023035957873
  0.2859846307186648  0.2003256724920793  0.4150001858178714
  0.4823843705427850  0.7153550537519009  0.5854286010458548
  0.5122075102343256  0.2933337020093293  0.4151824231068734
  0.8009006916223036  0.4891981526723331  0.5859905681351023
  0.1929555434962038  0.5198346381392760  0.4163702520714336
  0.3297065281866028  0.3381601847087486  0.5846242041267634
  0.6630429594771742  0.6713493203870790  0.4164563499762718
  0.8780856352421945  0.1713976342394637  0.6864062173123724
 
  0.00000000E+00  0.00000000E+00  0.00000000E+00
  0.00000000E+00  0.00000000E+00  0.00000000E+00
  0.00000000E+00  0.00000000E+00  0.00000000E+00
  0.00000000E+00  0.00000000E+00  0.00000000E+00
  0.00000000E+00  0.00000000E+00  0.00000000E+00
  0.00000000E+00  0.00000000E+00  0.00000000E+00
  0.00000000E+00  0.00000000E+00  0.00000000E+00
  0.00000000E+00  0.00000000E+00  0.00000000E+00
  0.00000000E+00  0.00000000E+00  0.00000000E+00
  0.00000000E+00  0.00000000E+00  0.00000000E+00
  0.00000000E+00  0.00000000E+00  0.00000000E+00
  0.00000000E+00  0.00000000E+00  0.00000000E+00
  0.00000000E+00  0.00000000E+00  0.00000000E+00
  0.00000000E+00  0.00000000E+00  0.00000000E+00
  0.00000000E+00  0.00000000E+00  0.00000000E+00
  0.00000000E+00  0.00000000E+00  0.00000000E+00
  0.00000000E+00  0.00000000E+00  0.00000000E+00
  0.00000000E+00  0.00000000E+00  0.00000000E+00
  0.00000000E+00  0.00000000E+00  0.00000000E+00
  0.00000000E+00  0.00000000E+00  0.00000000E+00
  0.00000000E+00  0.00000000E+00  0.00000000E+00
  0.00000000E+00  0.00000000E+00  0.00000000E+00
  0.00000000E+00  0.00000000E+00  0.00000000E+00
  0.00000000E+00  0.00000000E+00  0.00000000E+00
  0.00000000E+00  0.00000000E+00  0.00000000E+00
  0.00000000E+00  0.00000000E+00  0.00000000E+00
  0.00000000E+00  0.00000000E+00  0.00000000E+00
  0.00000000E+00  0.00000000E+00  0.00000000E+00
  0.00000000E+00  0.00000000E+00  0.00000000E+00
  0.00000000E+00  0.00000000E+00  0.00000000E+00
  0.00000000E+00  0.00000000E+00  0.00000000E+00
  0.00000000E+00  0.00000000E+00  0.00000000E+00
  0.00000000E+00  0.00000000E+00  0.00000000E+00
  0.00000000E+00  0.00000000E+00  0.00000000E+00
  0.00000000E+00  0.00000000E+00  0.00000000E+00
  0.00000000E+00  0.00000000E+00  0.00000000E+00
  0.00000000E+00  0.00000000E+00  0.00000000E+00
  0.00000000E+00  0.00000000E+00  0.00000000E+00
  0.00000000E+00  0.00000000E+00  0.00000000E+00
  0.00000000E+00  0.00000000E+00  0.00000000E+00
