CONTCAR\(5)                             
   1.00000000000000     
    13.6462001800999992    0.0000000000000000    0.0000000000000000
     1.7063387634000000   10.2396006658999994    0.0000000000000000
     0.0000000000000000    0.0000000000000000   19.9377994536999985
   Ta   Te   O 
    16    24     1
Direct
  0.1435351304730860  0.8551219030386368  0.4966824559901492
  0.1013751645470876  0.1539852745268933  0.5089114370842636
  0.2000562953047008  0.3934465489047098  0.5238663817882514
  0.0492119166756421  0.6108425106143632  0.4810181648559365
  0.3924857508699713  0.8512141215742920  0.5038966352424707
  0.3568612151915587  0.1464569368251835  0.5096673996887141
  0.4548105188458124  0.3774133531201885  0.5173717808737165
  0.2989845903922657  0.6083634269528332  0.4797667810695940
  0.6434211953181128  0.8531791856473441  0.4952579836853543
  0.6110495507509217  0.1503918183733624  0.5061346665869161
  0.7014886797340028  0.3925231034335313  0.5223395528482329
  0.5476062425907784  0.6072317964967208  0.4793897030806891
  0.8938156103487309  0.8543563012279516  0.4942570847364922
  0.8561017044482497  0.1500053217330108  0.5093654136238428
  0.9500805107446534  0.3934940397960959  0.5241815184438177
  0.7987233560429310  0.6105662607551580  0.4804569173299345
  0.1711106751430553  0.6484326693174189  0.5911933878300141
  0.0794428263942504  0.3577729996720618  0.4137082158317648
  0.1621008832858935  0.7040359014340303  0.3791132624278999
  0.0860518706643957  0.3061578404023236  0.6270207125081495
  0.0004724462047248  0.9848372847036245  0.5904774245931705
  0.2471268335761261  0.0187204599859151  0.4170444649299483
  0.4223469792462842  0.6151015935273892  0.5920204548433388
  0.3272881167076974  0.3521199219184789  0.4121762217703959
  0.4108714772915458  0.7044974745821035  0.3797545140398969
  0.3389104410037627  0.3034990573348845  0.6250838607987741
  0.2415724240741492  0.9972802588485481  0.5912316176884284
  0.4970542138969112  0.0152101887079865  0.4161681412516510
  0.6661006532734529  0.6474373496292590  0.5901341118401991
  0.5842353632578354  0.3548928151957679  0.4092204287680774
  0.6618769924816479  0.7009929848923038  0.3782561098222441
  0.5873813779677537  0.3017998110852504  0.6244424922420087
  0.5102704853409673  0.9942963213670121  0.5899039266657670
  0.7491131369162584  0.0169104748871197  0.4128152308455340
  0.9186546552441610  0.6494635447452115  0.5903757429983255
  0.8322898136289606  0.3544558766221601  0.4133473278663518
  0.9129869529247759  0.6996667745662173  0.3777978286488334
  0.8361170108691087  0.3032322321814778  0.6264096367043894
  0.7532864346965713  0.9828985635974253  0.5893341684374683
  0.9977497633109882  0.0192455263036144  0.4143796035458040
  0.3986705213202119  0.8136815684722017  0.6037673611731592
 
  0.00000000E+00  0.00000000E+00  0.00000000E+00
  0.00000000E+00  0.00000000E+00  0.00000000E+00
  0.00000000E+00  0.00000000E+00  0.00000000E+00
  0.00000000E+00  0.00000000E+00  0.00000000E+00
  0.00000000E+00  0.00000000E+00  0.00000000E+00
  0.00000000E+00  0.00000000E+00  0.00000000E+00
  0.00000000E+00  0.00000000E+00  0.00000000E+00
  0.00000000E+00  0.00000000E+00  0.00000000E+00
  0.00000000E+00  0.00000000E+00  0.00000000E+00
  0.00000000E+00  0.00000000E+00  0.00000000E+00
  0.00000000E+00  0.00000000E+00  0.00000000E+00
  0.00000000E+00  0.00000000E+00  0.00000000E+00
  0.00000000E+00  0.00000000E+00  0.00000000E+00
  0.00000000E+00  0.00000000E+00  0.00000000E+00
  0.00000000E+00  0.00000000E+00  0.00000000E+00
  0.00000000E+00  0.00000000E+00  0.00000000E+00
  0.00000000E+00  0.00000000E+00  0.00000000E+00
  0.00000000E+00  0.00000000E+00  0.00000000E+00
  0.00000000E+00  0.00000000E+00  0.00000000E+00
  0.00000000E+00  0.00000000E+00  0.00000000E+00
  0.00000000E+00  0.00000000E+00  0.00000000E+00
  0.00000000E+00  0.00000000E+00  0.00000000E+00
  0.00000000E+00  0.00000000E+00  0.00000000E+00
  0.00000000E+00  0.00000000E+00  0.00000000E+00
  0.00000000E+00  0.00000000E+00  0.00000000E+00
  0.00000000E+00  0.00000000E+00  0.00000000E+00
  0.00000000E+00  0.00000000E+00  0.00000000E+00
  0.00000000E+00  0.00000000E+00  0.00000000E+00
  0.00000000E+00  0.00000000E+00  0.00000000E+00
  0.00000000E+00  0.00000000E+00  0.00000000E+00
  0.00000000E+00  0.00000000E+00  0.00000000E+00
  0.00000000E+00  0.00000000E+00  0.00000000E+00
  0.00000000E+00  0.00000000E+00  0.00000000E+00
  0.00000000E+00  0.00000000E+00  0.00000000E+00
  0.00000000E+00  0.00000000E+00  0.00000000E+00
  0.00000000E+00  0.00000000E+00  0.00000000E+00
  0.00000000E+00  0.00000000E+00  0.00000000E+00
  0.00000000E+00  0.00000000E+00  0.00000000E+00
  0.00000000E+00  0.00000000E+00  0.00000000E+00
  0.00000000E+00  0.00000000E+00  0.00000000E+00
  0.00000000E+00  0.00000000E+00  0.00000000E+00
