 Ti1 S2                                 
   1.00000000000000     
     3.3960984622996522    0.0000000000000000    0.0000000000000000
    -1.6980492311498261    2.9411356854520094    0.0000000000000000
     0.0000000000000000    0.0000000000000000   17.8367315607420025
   Ti   S 
     1     2
Direct
 -0.0000000013957491  0.0000000008417369  0.4999999999238132
  0.3333334225643302  0.6666663181003857  0.4199576792255423
  0.6666665788314167  0.3333336810578776  0.5800423208506443
 
  0.00000000E+00  0.00000000E+00  0.00000000E+00
  0.00000000E+00  0.00000000E+00  0.00000000E+00
  0.00000000E+00  0.00000000E+00  0.00000000E+00
