CONTCAR                                 
   1.00000000000000     
    12.3818998337000004    0.0000000000000000    0.0000000000000000
     0.0000000000000000   16.1389999390000014    0.0000000000000000
     0.0000000000000000    0.0000000000000000   23.5562000275000010
   Ag   Ru   F 
    24    24   168
Direct
  0.0844989781687283  0.3079028564759262  0.4618289942583191
  0.2510679263387861  0.4340481837221327  0.5523157488933490
  0.2462436305544012  0.1756100784513452  0.5528735834725855
  0.0776697412274350  0.0586844921351229  0.4548364605990456
  0.4178289771687284  0.3079028564759262  0.4618289942583191
  0.5844079283387861  0.4340481837221327  0.5523157488933490
  0.5795836325544010  0.1756100784513452  0.5528735834725855
  0.4109997642274371  0.0586844921351229  0.4548364605990456
  0.7511689601687231  0.3079028564759262  0.4618289942583191
  0.9177379363387904  0.4340481837221327  0.5523157488933490
  0.9129136405543983  0.1756100784513452  0.5528735834725855
  0.7443397852274348  0.0586844921351229  0.4548364605990456
  0.0844989781687283  0.8079028564759263  0.4618289942583191
  0.2510679263387861  0.9340481837221327  0.5523157488933490
  0.2462436305544012  0.6756100924513465  0.5528735834725855
  0.0776697412274350  0.5586845031351204  0.4548364605990456
  0.4178289771687284  0.8079028564759263  0.4618289942583191
  0.5844079283387861  0.9340481837221327  0.5523157488933490
  0.5795836325544010  0.6756100924513465  0.5528735834725855
  0.4109997642274371  0.5586845031351204  0.4548364605990456
  0.7511689601687231  0.8079028564759263  0.4618289942583191
  0.9177379363387904  0.9340481837221327  0.5523157488933490
  0.9129136405543983  0.6756100924513465  0.5528735834725855
  0.7443397852274348  0.5586845031351204  0.4548364605990456
  0.0867409182837287  0.2994796313954265  0.6746081325036980
  0.2491366782165301  0.4444179660732545  0.3254007328478936
  0.2494056245129934  0.1950835937302667  0.3254254282006941
  0.0833076938817778  0.0493981510937275  0.6765805300606698
  0.4200708972837270  0.2994796313954265  0.6746081325036980
  0.5824667062165290  0.4444179660732545  0.3254007328478936
  0.5827356325129908  0.1950835937302667  0.3254254282006941
  0.4166376828817770  0.0493981510937275  0.6765805300606698
  0.7534009442837311  0.2994796313954265  0.6746081325036980
  0.9158067272165269  0.4444179660732545  0.3254007328478936
  0.9160756155129927  0.1950835937302667  0.3254254282006941
  0.7499676528817782  0.0493981510937275  0.6765805300606698
  0.0867409182837287  0.7994795723954252  0.6746081325036980
  0.2491366782165301  0.9444179660732545  0.3254007328478936
  0.2494056245129934  0.6950835937302666  0.3254254282006941
  0.0833076938817778  0.5493981400937300  0.6765805300606698
  0.4200708972837270  0.7994795723954252  0.6746081325036980
  0.5824667062165290  0.9444179660732545  0.3254007328478936
  0.5827356325129908  0.6950835937302666  0.3254254282006941
  0.4166376828817770  0.5493981400937300  0.6765805300606698
  0.7534009442837311  0.7994795723954252  0.6746081325036980
  0.9158067272165269  0.9444179660732545  0.3254007328478936
  0.9160756155129927  0.6950835937302666  0.3254254282006941
  0.7499676528817782  0.5493981400937300  0.6765805300606698
  0.2511211845965158  0.3097144916650487  0.4779041562069544
  0.0856832923826776  0.4315304174323296  0.5035189498672958
  0.0760893170144993  0.1819235387219474  0.5030393553160777
  0.2445435846754193  0.0610079464204449  0.4845685183318392
  0.1679451654139245  0.3767796610468366  0.7125579530915246
  0.3305404510512377  0.3671107410643989  0.2875689844834562
  0.1678364309023484  0.1176157636086288  0.2877285173198693
  0.0017434860980299  0.1270881710175779  0.7139467176716692
  0.1663297329553103  0.4713623553048280  0.6360629536488968
  0.3311412713994987  0.2725382033640382  0.3659262142740248
  0.1685025523180130  0.0230397796201356  0.3658972605962085
  0.0047234640793270  0.2206301324543821  0.6343703692591481
  0.0015132086198988  0.4711403536241169  0.7132413798299923
  0.1674141250275939  0.2726551126658173  0.2881582258784163
  0.3306916193020397  0.0221647097209189  0.2879275189883500
  0.1677990432184282  0.2221112759738584  0.7126297752518128
  0.0012633312742840  0.0501821036080257  0.6072144781647555
  0.1632525049524096  0.1942625121236893  0.3920416314067162
  0.0023977857649251  0.4440937723835563  0.3920244359412510
  0.1704573524462294  0.2993618663811062  0.6055467168558102
  0.1712642469617700  0.0489025409938205  0.7394262009156923
  0.0047571690185628  0.1951605927504185  0.2628069843568023
  0.1599923843501536  0.4445673994497196  0.2629913521511977
  0.3311298582855690  0.2996884911033684  0.7370648820095747
  0.1672932595615285  0.1268934233793720  0.6362934792035884
  0.3313960471788822  0.1173192976668046  0.3657496197749862
  0.1674736039546393  0.3676780568375424  0.3663630734786213
  0.0042933770118967  0.3772024075400731  0.6336007448892395
  0.5844611865965157  0.3097144916650487  0.4779041562069544
  0.4190132823826804  0.4315304174323296  0.5035189498672958
  0.4094193300145005  0.1819235387219474  0.5030393553160777
  0.5778735936754202  0.0610079464204449  0.4845685183318392
  0.5012751744139254  0.3767796610468366  0.7125579530915246
  0.6638704980512345  0.3671107410643989  0.2875689844834562
  0.5011664589023473  0.1176157636086288  0.2877285173198693
  0.3350734910980304  0.1270881710175779  0.7139467176716692
  0.4996697549553047  0.4713623553048280  0.6360629536488968
  0.6644712413995000  0.2725382033640382  0.3659262142740248
  0.5018325603180172  0.0230397796201356  0.3658972605962085
  0.3380634750793240  0.2206301324543821  0.6343703692591481
  0.3348432136198993  0.4711403536241169  0.7132413798299923
  0.5007441340275949  0.2726551126658173  0.2881582258784163
  0.6640216273020371  0.0221647097209189  0.2879275189883500
  0.5011390452184282  0.2221112759738584  0.7126297752518128
  0.3345933242742836  0.0501821036080257  0.6072144781647555
  0.4965924879524115  0.1942625121236893  0.3920416314067162
  0.3357378017649261  0.4440937723835563  0.3920244359412510
  0.5037973164462264  0.2993618663811062  0.6055467168558102
  0.5046042679617750  0.0489025409938205  0.7394262009156923
  0.3380971800185599  0.1951605927504185  0.2628069843568023
  0.4933223643501557  0.4445673994497196  0.2629913521511977
  0.6644698032855677  0.2996884911033684  0.7370648820095747
  0.5006332615615284  0.1268934233793720  0.6362934792035884
  0.6647260561788830  0.1173192976668046  0.3657496197749862
  0.5008035929546456  0.3676780568375424  0.3663630734786213
  0.3376233630118992  0.3772024075400731  0.6336007448892395
  0.9177911565965098  0.3097144916650487  0.4779041562069544
  0.7523433293826773  0.4315304174323296  0.5035189498672958
  0.7427493390145012  0.1819235387219474  0.5030393553160777
  0.9112036406754171  0.0610079464204449  0.4845685183318392
  0.8346051054139270  0.3767796610468366  0.7125579530915246
  0.9972104810512364  0.3671107410643989  0.2875689844834562
  0.8344964289023485  0.1176157636086288  0.2877285173198693
  0.6684134730980288  0.1270881710175779  0.7139467176716692
  0.8329996859553063  0.4713623553048280  0.6360629536488968
  0.9978113013994976  0.2725382033640382  0.3659262142740248
  0.8351625313180149  0.0230397796201356  0.3658972605962085
  0.6713934450793253  0.2206301324543821  0.6343703692591481
  0.6681831966199011  0.4711403536241169  0.7132413798299923
  0.8340740660275929  0.2726551126658173  0.2881582258784163
  0.9973515973020383  0.0221647097209189  0.2879275189883500
  0.8344690542184220  0.2221112759738584  0.7126297752518128
  0.6679333072742856  0.0501821036080257  0.6072144781647555
  0.8299224579524126  0.1942625121236893  0.3920416314067162
  0.6690677717649275  0.4440937723835563  0.3920244359412510
  0.8371273634462304  0.2993618663811062  0.6055467168558102
  0.8379342769617759  0.0489025409938205  0.7394262009156923
  0.6714271500185610  0.1951605927504185  0.2628069843568023
  0.8266623853501536  0.4445673994497196  0.2629913521511977
  0.9977997732855689  0.2996884911033684  0.7370648820095747
  0.8339632705615293  0.1268934233793720  0.6362934792035884
  0.9980560261788842  0.1173192976668046  0.3657496197749862
  0.8341436149546401  0.3676780568375424  0.3663630734786213
  0.6709633840118970  0.3772024075400731  0.6336007448892395
  0.2511211845965158  0.8097144616650532  0.4779041562069544
  0.0856832923826776  0.9315304464323283  0.5035189498672958
  0.0760893170144993  0.6819235537219451  0.5030393553160777
  0.2445435846754193  0.5610079014204448  0.4845685183318392
  0.1679451654139245  0.8767796610468366  0.7125579530915246
  0.3305404510512377  0.8671107110644034  0.2875689844834562
  0.1678364309023484  0.6176158156086332  0.2877285173198693
  0.0017434860980299  0.6270881850175719  0.7139467176716692
  0.1663297329553103  0.9713623263048220  0.6360629536488968
  0.3311412713994987  0.7725381743640394  0.3659262142740248
  0.1685025523180130  0.5230397796201357  0.3658972605962085
  0.0047234640793270  0.7206301914543832  0.6343703692591481
  0.0015132086198988  0.9711403246241179  0.7132413798299923
  0.1674141250275939  0.7726551426658198  0.2881582258784163
  0.3306916193020397  0.5221647117209189  0.2879275189883500
  0.1677990432184282  0.7221113199738549  0.7126297752518128
  0.0012633312742840  0.5501820556080217  0.6072144781647555
  0.1632525049524096  0.6942624821236868  0.3920416314067162
  0.0023977857649251  0.9440937723835563  0.3920244359412510
  0.1704573524462294  0.7993618073811048  0.6055467168558102
  0.1712642469617700  0.5489024999938208  0.7394262009156923
  0.0047571690185628  0.6951605627504162  0.2628069843568023
  0.1599923843501536  0.9445674584497209  0.2629913521511977
  0.3311298582855690  0.7996884321033669  0.7370648820095747
  0.1672932595615285  0.6268933943793732  0.6362934792035884
  0.3313960471788822  0.6173193126668023  0.3657496197749862
  0.1674736039546393  0.8676780568375424  0.3663630734786213
  0.0042933770118967  0.8772024365400719  0.6336007448892395
  0.5844611865965157  0.8097144616650532  0.4779041562069544
  0.4190132823826804  0.9315304464323283  0.5035189498672958
  0.4094193300145005  0.6819235537219451  0.5030393553160777
  0.5778735936754202  0.5610079014204448  0.4845685183318392
  0.5012751744139254  0.8767796610468366  0.7125579530915246
  0.6638704980512345  0.8671107110644034  0.2875689844834562
  0.5011664589023473  0.6176158156086332  0.2877285173198693
  0.3350734910980304  0.6270881850175719  0.7139467176716692
  0.4996697549553047  0.9713623263048220  0.6360629536488968
  0.6644712413995000  0.7725381743640394  0.3659262142740248
  0.5018325603180172  0.5230397796201357  0.3658972605962085
  0.3380634750793240  0.7206301914543832  0.6343703692591481
  0.3348432136198993  0.9711403246241179  0.7132413798299923
  0.5007441340275949  0.7726551426658198  0.2881582258784163
  0.6640216273020371  0.5221647117209189  0.2879275189883500
  0.5011390452184282  0.7221113199738549  0.7126297752518128
  0.3345933242742836  0.5501820556080217  0.6072144781647555
  0.4965924879524115  0.6942624821236868  0.3920416314067162
  0.3357378017649261  0.9440937723835563  0.3920244359412510
  0.5037973164462264  0.7993618073811048  0.6055467168558102
  0.5046042679617750  0.5489024999938208  0.7394262009156923
  0.3380971800185599  0.6951605627504162  0.2628069843568023
  0.4933223643501557  0.9445674584497209  0.2629913521511977
  0.6644698032855677  0.7996884321033669  0.7370648820095747
  0.5006332615615284  0.6268933943793732  0.6362934792035884
  0.6647260561788830  0.6173193126668023  0.3657496197749862
  0.5008035929546456  0.8676780568375424  0.3663630734786213
  0.3376233630118992  0.8772024365400719  0.6336007448892395
  0.9177911565965098  0.8097144616650532  0.4779041562069544
  0.7523433293826773  0.9315304464323283  0.5035189498672958
  0.7427493390145012  0.6819235537219451  0.5030393553160777
  0.9112036406754171  0.5610079014204448  0.4845685183318392
  0.8346051054139270  0.8767796610468366  0.7125579530915246
  0.9972104810512364  0.8671107110644034  0.2875689844834562
  0.8344964289023485  0.6176158156086332  0.2877285173198693
  0.6684134730980288  0.6270881850175719  0.7139467176716692
  0.8329996859553063  0.9713623263048220  0.6360629536488968
  0.9978113013994976  0.7725381743640394  0.3659262142740248
  0.8351625313180149  0.5230397796201357  0.3658972605962085
  0.6713934450793253  0.7206301914543832  0.6343703692591481
  0.6681831966199011  0.9711403246241179  0.7132413798299923
  0.8340740660275929  0.7726551426658198  0.2881582258784163
  0.9973515973020383  0.5221647117209189  0.2879275189883500
  0.8344690542184220  0.7221113199738549  0.7126297752518128
  0.6679333072742856  0.5501820556080217  0.6072144781647555
  0.8299224579524126  0.6942624821236868  0.3920416314067162
  0.6690677717649275  0.9440937723835563  0.3920244359412510
  0.8371273634462304  0.7993618073811048  0.6055467168558102
  0.8379342769617759  0.5489024999938208  0.7394262009156923
  0.6714271500185610  0.6951605627504162  0.2628069843568023
  0.8266623853501536  0.9445674584497209  0.2629913521511977
  0.9977997732855689  0.7996884321033669  0.7370648820095747
  0.8339632705615293  0.6268933943793732  0.6362934792035884
  0.9980560261788842  0.6173193126668023  0.3657496197749862
  0.8341436149546401  0.8676780568375424  0.3663630734786213
  0.6709633840118970  0.8772024365400719  0.6336007448892395
 
  0.00000000E+00  0.00000000E+00  0.00000000E+00
  0.00000000E+00  0.00000000E+00  0.00000000E+00
  0.00000000E+00  0.00000000E+00  0.00000000E+00
  0.00000000E+00  0.00000000E+00  0.00000000E+00
  0.00000000E+00  0.00000000E+00  0.00000000E+00
  0.00000000E+00  0.00000000E+00  0.00000000E+00
  0.00000000E+00  0.00000000E+00  0.00000000E+00
  0.00000000E+00  0.00000000E+00  0.00000000E+00
  0.00000000E+00  0.00000000E+00  0.00000000E+00
  0.00000000E+00  0.00000000E+00  0.00000000E+00
  0.00000000E+00  0.00000000E+00  0.00000000E+00
  0.00000000E+00  0.00000000E+00  0.00000000E+00
  0.00000000E+00  0.00000000E+00  0.00000000E+00
  0.00000000E+00  0.00000000E+00  0.00000000E+00
  0.00000000E+00  0.00000000E+00  0.00000000E+00
  0.00000000E+00  0.00000000E+00  0.00000000E+00
  0.00000000E+00  0.00000000E+00  0.00000000E+00
  0.00000000E+00  0.00000000E+00  0.00000000E+00
  0.00000000E+00  0.00000000E+00  0.00000000E+00
  0.00000000E+00  0.00000000E+00  0.00000000E+00
  0.00000000E+00  0.00000000E+00  0.00000000E+00
  0.00000000E+00  0.00000000E+00  0.00000000E+00
  0.00000000E+00  0.00000000E+00  0.00000000E+00
  0.00000000E+00  0.00000000E+00  0.00000000E+00
  0.00000000E+00  0.00000000E+00  0.00000000E+00
  0.00000000E+00  0.00000000E+00  0.00000000E+00
  0.00000000E+00  0.00000000E+00  0.00000000E+00
  0.00000000E+00  0.00000000E+00  0.00000000E+00
  0.00000000E+00  0.00000000E+00  0.00000000E+00
  0.00000000E+00  0.00000000E+00  0.00000000E+00
  0.00000000E+00  0.00000000E+00  0.00000000E+00
  0.00000000E+00  0.00000000E+00  0.00000000E+00
  0.00000000E+00  0.00000000E+00  0.00000000E+00
  0.00000000E+00  0.00000000E+00  0.00000000E+00
  0.00000000E+00  0.00000000E+00  0.00000000E+00
  0.00000000E+00  0.00000000E+00  0.00000000E+00
  0.00000000E+00  0.00000000E+00  0.00000000E+00
  0.00000000E+00  0.00000000E+00  0.00000000E+00
  0.00000000E+00  0.00000000E+00  0.00000000E+00
  0.00000000E+00  0.00000000E+00  0.00000000E+00
  0.00000000E+00  0.00000000E+00  0.00000000E+00
  0.00000000E+00  0.00000000E+00  0.00000000E+00
  0.00000000E+00  0.00000000E+00  0.00000000E+00
  0.00000000E+00  0.00000000E+00  0.00000000E+00
  0.00000000E+00  0.00000000E+00  0.00000000E+00
  0.00000000E+00  0.00000000E+00  0.00000000E+00
  0.00000000E+00  0.00000000E+00  0.00000000E+00
  0.00000000E+00  0.00000000E+00  0.00000000E+00
  0.00000000E+00  0.00000000E+00  0.00000000E+00
  0.00000000E+00  0.00000000E+00  0.00000000E+00
  0.00000000E+00  0.00000000E+00  0.00000000E+00
  0.00000000E+00  0.00000000E+00  0.00000000E+00
  0.00000000E+00  0.00000000E+00  0.00000000E+00
  0.00000000E+00  0.00000000E+00  0.00000000E+00
  0.00000000E+00  0.00000000E+00  0.00000000E+00
  0.00000000E+00  0.00000000E+00  0.00000000E+00
  0.00000000E+00  0.00000000E+00  0.00000000E+00
  0.00000000E+00  0.00000000E+00  0.00000000E+00
  0.00000000E+00  0.00000000E+00  0.00000000E+00
  0.00000000E+00  0.00000000E+00  0.00000000E+00
  0.00000000E+00  0.00000000E+00  0.00000000E+00
  0.00000000E+00  0.00000000E+00  0.00000000E+00
  0.00000000E+00  0.00000000E+00  0.00000000E+00
  0.00000000E+00  0.00000000E+00  0.00000000E+00
  0.00000000E+00  0.00000000E+00  0.00000000E+00
  0.00000000E+00  0.00000000E+00  0.00000000E+00
  0.00000000E+00  0.00000000E+00  0.00000000E+00
  0.00000000E+00  0.00000000E+00  0.00000000E+00
  0.00000000E+00  0.00000000E+00  0.00000000E+00
  0.00000000E+00  0.00000000E+00  0.00000000E+00
  0.00000000E+00  0.00000000E+00  0.00000000E+00
  0.00000000E+00  0.00000000E+00  0.00000000E+00
  0.00000000E+00  0.00000000E+00  0.00000000E+00
  0.00000000E+00  0.00000000E+00  0.00000000E+00
  0.00000000E+00  0.00000000E+00  0.00000000E+00
  0.00000000E+00  0.00000000E+00  0.00000000E+00
  0.00000000E+00  0.00000000E+00  0.00000000E+00
  0.00000000E+00  0.00000000E+00  0.00000000E+00
  0.00000000E+00  0.00000000E+00  0.00000000E+00
  0.00000000E+00  0.00000000E+00  0.00000000E+00
  0.00000000E+00  0.00000000E+00  0.00000000E+00
  0.00000000E+00  0.00000000E+00  0.00000000E+00
  0.00000000E+00  0.00000000E+00  0.00000000E+00
  0.00000000E+00  0.00000000E+00  0.00000000E+00
  0.00000000E+00  0.00000000E+00  0.00000000E+00
  0.00000000E+00  0.00000000E+00  0.00000000E+00
  0.00000000E+00  0.00000000E+00  0.00000000E+00
  0.00000000E+00  0.00000000E+00  0.00000000E+00
  0.00000000E+00  0.00000000E+00  0.00000000E+00
  0.00000000E+00  0.00000000E+00  0.00000000E+00
  0.00000000E+00  0.00000000E+00  0.00000000E+00
  0.00000000E+00  0.00000000E+00  0.00000000E+00
  0.00000000E+00  0.00000000E+00  0.00000000E+00
  0.00000000E+00  0.00000000E+00  0.00000000E+00
  0.00000000E+00  0.00000000E+00  0.00000000E+00
  0.00000000E+00  0.00000000E+00  0.00000000E+00
  0.00000000E+00  0.00000000E+00  0.00000000E+00
  0.00000000E+00  0.00000000E+00  0.00000000E+00
  0.00000000E+00  0.00000000E+00  0.00000000E+00
  0.00000000E+00  0.00000000E+00  0.00000000E+00
  0.00000000E+00  0.00000000E+00  0.00000000E+00
  0.00000000E+00  0.00000000E+00  0.00000000E+00
  0.00000000E+00  0.00000000E+00  0.00000000E+00
  0.00000000E+00  0.00000000E+00  0.00000000E+00
  0.00000000E+00  0.00000000E+00  0.00000000E+00
  0.00000000E+00  0.00000000E+00  0.00000000E+00
  0.00000000E+00  0.00000000E+00  0.00000000E+00
  0.00000000E+00  0.00000000E+00  0.00000000E+00
  0.00000000E+00  0.00000000E+00  0.00000000E+00
  0.00000000E+00  0.00000000E+00  0.00000000E+00
  0.00000000E+00  0.00000000E+00  0.00000000E+00
  0.00000000E+00  0.00000000E+00  0.00000000E+00
  0.00000000E+00  0.00000000E+00  0.00000000E+00
  0.00000000E+00  0.00000000E+00  0.00000000E+00
  0.00000000E+00  0.00000000E+00  0.00000000E+00
  0.00000000E+00  0.00000000E+00  0.00000000E+00
  0.00000000E+00  0.00000000E+00  0.00000000E+00
  0.00000000E+00  0.00000000E+00  0.00000000E+00
  0.00000000E+00  0.00000000E+00  0.00000000E+00
  0.00000000E+00  0.00000000E+00  0.00000000E+00
  0.00000000E+00  0.00000000E+00  0.00000000E+00
  0.00000000E+00  0.00000000E+00  0.00000000E+00
  0.00000000E+00  0.00000000E+00  0.00000000E+00
  0.00000000E+00  0.00000000E+00  0.00000000E+00
  0.00000000E+00  0.00000000E+00  0.00000000E+00
  0.00000000E+00  0.00000000E+00  0.00000000E+00
  0.00000000E+00  0.00000000E+00  0.00000000E+00
  0.00000000E+00  0.00000000E+00  0.00000000E+00
  0.00000000E+00  0.00000000E+00  0.00000000E+00
  0.00000000E+00  0.00000000E+00  0.00000000E+00
  0.00000000E+00  0.00000000E+00  0.00000000E+00
  0.00000000E+00  0.00000000E+00  0.00000000E+00
  0.00000000E+00  0.00000000E+00  0.00000000E+00
  0.00000000E+00  0.00000000E+00  0.00000000E+00
  0.00000000E+00  0.00000000E+00  0.00000000E+00
  0.00000000E+00  0.00000000E+00  0.00000000E+00
  0.00000000E+00  0.00000000E+00  0.00000000E+00
  0.00000000E+00  0.00000000E+00  0.00000000E+00
  0.00000000E+00  0.00000000E+00  0.00000000E+00
  0.00000000E+00  0.00000000E+00  0.00000000E+00
  0.00000000E+00  0.00000000E+00  0.00000000E+00
  0.00000000E+00  0.00000000E+00  0.00000000E+00
  0.00000000E+00  0.00000000E+00  0.00000000E+00
  0.00000000E+00  0.00000000E+00  0.00000000E+00
  0.00000000E+00  0.00000000E+00  0.00000000E+00
  0.00000000E+00  0.00000000E+00  0.00000000E+00
  0.00000000E+00  0.00000000E+00  0.00000000E+00
  0.00000000E+00  0.00000000E+00  0.00000000E+00
  0.00000000E+00  0.00000000E+00  0.00000000E+00
  0.00000000E+00  0.00000000E+00  0.00000000E+00
  0.00000000E+00  0.00000000E+00  0.00000000E+00
  0.00000000E+00  0.00000000E+00  0.00000000E+00
  0.00000000E+00  0.00000000E+00  0.00000000E+00
  0.00000000E+00  0.00000000E+00  0.00000000E+00
  0.00000000E+00  0.00000000E+00  0.00000000E+00
  0.00000000E+00  0.00000000E+00  0.00000000E+00
  0.00000000E+00  0.00000000E+00  0.00000000E+00
  0.00000000E+00  0.00000000E+00  0.00000000E+00
  0.00000000E+00  0.00000000E+00  0.00000000E+00
  0.00000000E+00  0.00000000E+00  0.00000000E+00
  0.00000000E+00  0.00000000E+00  0.00000000E+00
  0.00000000E+00  0.00000000E+00  0.00000000E+00
  0.00000000E+00  0.00000000E+00  0.00000000E+00
  0.00000000E+00  0.00000000E+00  0.00000000E+00
  0.00000000E+00  0.00000000E+00  0.00000000E+00
  0.00000000E+00  0.00000000E+00  0.00000000E+00
  0.00000000E+00  0.00000000E+00  0.00000000E+00
  0.00000000E+00  0.00000000E+00  0.00000000E+00
  0.00000000E+00  0.00000000E+00  0.00000000E+00
  0.00000000E+00  0.00000000E+00  0.00000000E+00
  0.00000000E+00  0.00000000E+00  0.00000000E+00
  0.00000000E+00  0.00000000E+00  0.00000000E+00
  0.00000000E+00  0.00000000E+00  0.00000000E+00
  0.00000000E+00  0.00000000E+00  0.00000000E+00
  0.00000000E+00  0.00000000E+00  0.00000000E+00
  0.00000000E+00  0.00000000E+00  0.00000000E+00
  0.00000000E+00  0.00000000E+00  0.00000000E+00
  0.00000000E+00  0.00000000E+00  0.00000000E+00
  0.00000000E+00  0.00000000E+00  0.00000000E+00
  0.00000000E+00  0.00000000E+00  0.00000000E+00
  0.00000000E+00  0.00000000E+00  0.00000000E+00
  0.00000000E+00  0.00000000E+00  0.00000000E+00
  0.00000000E+00  0.00000000E+00  0.00000000E+00
  0.00000000E+00  0.00000000E+00  0.00000000E+00
  0.00000000E+00  0.00000000E+00  0.00000000E+00
  0.00000000E+00  0.00000000E+00  0.00000000E+00
  0.00000000E+00  0.00000000E+00  0.00000000E+00
  0.00000000E+00  0.00000000E+00  0.00000000E+00
  0.00000000E+00  0.00000000E+00  0.00000000E+00
  0.00000000E+00  0.00000000E+00  0.00000000E+00
  0.00000000E+00  0.00000000E+00  0.00000000E+00
  0.00000000E+00  0.00000000E+00  0.00000000E+00
  0.00000000E+00  0.00000000E+00  0.00000000E+00
  0.00000000E+00  0.00000000E+00  0.00000000E+00
  0.00000000E+00  0.00000000E+00  0.00000000E+00
  0.00000000E+00  0.00000000E+00  0.00000000E+00
  0.00000000E+00  0.00000000E+00  0.00000000E+00
  0.00000000E+00  0.00000000E+00  0.00000000E+00
  0.00000000E+00  0.00000000E+00  0.00000000E+00
  0.00000000E+00  0.00000000E+00  0.00000000E+00
  0.00000000E+00  0.00000000E+00  0.00000000E+00
  0.00000000E+00  0.00000000E+00  0.00000000E+00
  0.00000000E+00  0.00000000E+00  0.00000000E+00
  0.00000000E+00  0.00000000E+00  0.00000000E+00
  0.00000000E+00  0.00000000E+00  0.00000000E+00
  0.00000000E+00  0.00000000E+00  0.00000000E+00
  0.00000000E+00  0.00000000E+00  0.00000000E+00
  0.00000000E+00  0.00000000E+00  0.00000000E+00
  0.00000000E+00  0.00000000E+00  0.00000000E+00
  0.00000000E+00  0.00000000E+00  0.00000000E+00
  0.00000000E+00  0.00000000E+00  0.00000000E+00
  0.00000000E+00  0.00000000E+00  0.00000000E+00
  0.00000000E+00  0.00000000E+00  0.00000000E+00
  0.00000000E+00  0.00000000E+00  0.00000000E+00
  0.00000000E+00  0.00000000E+00  0.00000000E+00
  0.00000000E+00  0.00000000E+00  0.00000000E+00
