CONTCAR\(9)                             
   1.00000000000000     
    14.3102998734000000    0.0000000000000000    0.0000000000000000
     0.0000000000000000   14.3102998734000000    0.0000000000000000
     0.0000000000000000    0.0000000000000000   17.4472007751000007
   Fe   S    O 
    32    32     1
Direct
  0.1249958175715282  0.1250050645515070  0.4977521839354865
 -0.0000000000000000  0.0000906292675513  0.4978142357641924
  0.3754798138553110  0.1249157487536669  0.4972576533990262
  0.2503330115674233 -0.0000974087559622  0.4984642024836415
  0.6245201861446895  0.1249157487536669  0.4972576533990262
  0.5000000000000000  0.9993695188671665  0.4984183270221311
  0.8750041574284733  0.1250050645515070  0.4977521839354865
  0.7496670054325748 -0.0000974087559622  0.4984642024836415
  0.1250892884988297  0.3753497176722609  0.4983635748721785
 -0.0000000000000000  0.2500080582061442  0.4977681127579170
  0.3746423869299957  0.3747195202451349  0.5022614559167039
  0.2504155258887659  0.2500415082663014  0.4982604298248957
  0.6253576130700039  0.3747195202451349  0.5022614559167039
  0.5000000000000000  0.2504907248268326  0.4980931194961062
  0.8749106865011714  0.3753497176722609  0.4983635748721785
  0.7495844911112318  0.2500415082663014  0.4982604298248957
  0.1254798249279627  0.6249782780637724  0.4983229857724625
 -0.0000000000000000  0.5004314503250986  0.4973679200521160
  0.3778938080467593  0.6250064404147729  0.5175639168656300
  0.2496602860011998  0.4996165652312488  0.5023833458383732
  0.6221061919532411  0.6250064404147729  0.5175639168656300
  0.5000000000000000  0.5030162905255642  0.5175173345912537
  0.8745201500720386  0.6249782780637724  0.4983229857724625
  0.7503397309987984  0.4996165652312488  0.5023833458383732
  0.1250192427680683  0.8747159901198970  0.4983836343676370
 -0.0000000000000000  0.7495758036395546  0.4971250583512241
  0.3745825599181046  0.8753167146592856  0.5024197755643059
  0.2495937110866282  0.7504168285539893  0.5024033535170979
  0.6254174400818953  0.8753167146592856  0.5024197755643059
  0.5000000000000000  0.7470748387043979  0.5175807989554070
  0.8749807322319333  0.8747159901198970  0.4983836343676370
  0.7504063059133690  0.7504168285539893  0.5024033535170979
 -0.0000000000000000  0.1249842846937023  0.4274933477966769
  0.1247900277681122  0.0002097810396691  0.5682230743955318
  0.2498991084106253  0.1248285718674291  0.4277088837542052
  0.3750725970666943  0.0024682217305654  0.5694289443848569
  0.5000000000000000  0.1247611703010487  0.4272876210641970
  0.6249274029333054  0.0024682217305654  0.5694289443848569
  0.7501009085893727  0.1248285718674291  0.4277088837542052
  0.8752099472318892  0.0002097810396691  0.5682230743955318
 -0.0000000000000000  0.3749635232491502  0.4277297729966369
  0.1249538719611072  0.2498566978471463  0.5681431947367396
  0.2512755200711937  0.3763832556417675  0.4297371493755768
  0.3751116292694111  0.2475540448361464  0.5692072775168538
  0.5000000000000000  0.3814893259861870  0.4347291393857534
  0.6248883707305891  0.2475540448361464  0.5692072775168538
  0.7487244969288042  0.3763832556417675  0.4297371493755768
  0.8750461030388945  0.2498566978471463  0.5681431947367396
 -0.0000000000000000  0.6248841009906704  0.4272940093876396
  0.1225101107118855  0.5000369530914947  0.5693846001893632
  0.2564285141012257  0.6250131880464742  0.4349205870874440
  0.3657176905686561  0.4907035251426801  0.5800394393353634
  0.5000000000000000  0.6250073566837766  0.4341083712183604
  0.6342823094313436  0.4907035251426801  0.5800394393353634
  0.7435715028987721  0.6250131880464742  0.4349205870874440
  0.8774898642881160  0.5000369530914947  0.5693846001893632
 -0.0000000000000000  0.8752705200318897  0.4276621342703055
  0.1223832150496139  0.7499764793271603  0.5693381251341656
  0.2512820080429157  0.8737215963561813  0.4298400587660881
  0.3656665744826937  0.7592647377116482  0.5800550875271641
  0.5000000000000000  0.8684891315954745  0.4349473039740528
  0.6343334255173065  0.7592647377116482  0.5800550875271641
  0.7487180089570823  0.8737215963561813  0.4298400587660881
  0.8776167599503873  0.7499764793271603  0.5693381251341656
  0.5000100299999986  0.6248891642773026  0.5781579437943981
 
  0.00000000E+00  0.00000000E+00  0.00000000E+00
  0.00000000E+00  0.00000000E+00  0.00000000E+00
  0.00000000E+00  0.00000000E+00  0.00000000E+00
  0.00000000E+00  0.00000000E+00  0.00000000E+00
  0.00000000E+00  0.00000000E+00  0.00000000E+00
  0.00000000E+00  0.00000000E+00  0.00000000E+00
  0.00000000E+00  0.00000000E+00  0.00000000E+00
  0.00000000E+00  0.00000000E+00  0.00000000E+00
  0.00000000E+00  0.00000000E+00  0.00000000E+00
  0.00000000E+00  0.00000000E+00  0.00000000E+00
  0.00000000E+00  0.00000000E+00  0.00000000E+00
  0.00000000E+00  0.00000000E+00  0.00000000E+00
  0.00000000E+00  0.00000000E+00  0.00000000E+00
  0.00000000E+00  0.00000000E+00  0.00000000E+00
  0.00000000E+00  0.00000000E+00  0.00000000E+00
  0.00000000E+00  0.00000000E+00  0.00000000E+00
  0.00000000E+00  0.00000000E+00  0.00000000E+00
  0.00000000E+00  0.00000000E+00  0.00000000E+00
  0.00000000E+00  0.00000000E+00  0.00000000E+00
  0.00000000E+00  0.00000000E+00  0.00000000E+00
  0.00000000E+00  0.00000000E+00  0.00000000E+00
  0.00000000E+00  0.00000000E+00  0.00000000E+00
  0.00000000E+00  0.00000000E+00  0.00000000E+00
  0.00000000E+00  0.00000000E+00  0.00000000E+00
  0.00000000E+00  0.00000000E+00  0.00000000E+00
  0.00000000E+00  0.00000000E+00  0.00000000E+00
  0.00000000E+00  0.00000000E+00  0.00000000E+00
  0.00000000E+00  0.00000000E+00  0.00000000E+00
  0.00000000E+00  0.00000000E+00  0.00000000E+00
  0.00000000E+00  0.00000000E+00  0.00000000E+00
  0.00000000E+00  0.00000000E+00  0.00000000E+00
  0.00000000E+00  0.00000000E+00  0.00000000E+00
  0.00000000E+00  0.00000000E+00  0.00000000E+00
  0.00000000E+00  0.00000000E+00  0.00000000E+00
  0.00000000E+00  0.00000000E+00  0.00000000E+00
  0.00000000E+00  0.00000000E+00  0.00000000E+00
  0.00000000E+00  0.00000000E+00  0.00000000E+00
  0.00000000E+00  0.00000000E+00  0.00000000E+00
  0.00000000E+00  0.00000000E+00  0.00000000E+00
  0.00000000E+00  0.00000000E+00  0.00000000E+00
  0.00000000E+00  0.00000000E+00  0.00000000E+00
  0.00000000E+00  0.00000000E+00  0.00000000E+00
  0.00000000E+00  0.00000000E+00  0.00000000E+00
  0.00000000E+00  0.00000000E+00  0.00000000E+00
  0.00000000E+00  0.00000000E+00  0.00000000E+00
  0.00000000E+00  0.00000000E+00  0.00000000E+00
  0.00000000E+00  0.00000000E+00  0.00000000E+00
  0.00000000E+00  0.00000000E+00  0.00000000E+00
  0.00000000E+00  0.00000000E+00  0.00000000E+00
  0.00000000E+00  0.00000000E+00  0.00000000E+00
  0.00000000E+00  0.00000000E+00  0.00000000E+00
  0.00000000E+00  0.00000000E+00  0.00000000E+00
  0.00000000E+00  0.00000000E+00  0.00000000E+00
  0.00000000E+00  0.00000000E+00  0.00000000E+00
  0.00000000E+00  0.00000000E+00  0.00000000E+00
  0.00000000E+00  0.00000000E+00  0.00000000E+00
  0.00000000E+00  0.00000000E+00  0.00000000E+00
  0.00000000E+00  0.00000000E+00  0.00000000E+00
  0.00000000E+00  0.00000000E+00  0.00000000E+00
  0.00000000E+00  0.00000000E+00  0.00000000E+00
  0.00000000E+00  0.00000000E+00  0.00000000E+00
  0.00000000E+00  0.00000000E+00  0.00000000E+00
  0.00000000E+00  0.00000000E+00  0.00000000E+00
  0.00000000E+00  0.00000000E+00  0.00000000E+00
  0.00000000E+00  0.00000000E+00  0.00000000E+00
