CONTCAR\(11)                            
   1.00000000000000     
    11.3364000320000002    0.0000000000000000    0.0000000000000000
     0.0000000000000000   11.3364000320000002    0.0000000000000000
     0.0000000000000000    0.0000000000000000   21.6329994202000009
   Rb   Mn   P 
    18    18    18
Direct
  0.1666699900000026  0.0000000000000000  0.3473009987985108
 -0.0000000000000000  0.1666699900000026  0.6526990232014910
  0.5000000000000000  0.0000000000000000  0.3473009987985108
  0.3333300099999974  0.1666699900000026  0.6526990232014910
  0.8333300099999974 -0.0000000000000000  0.3473009987985108
  0.6666700319999990  0.1666699900000026  0.6526990232014910
  0.1666699900000026  0.3333300099999974  0.3473009987985108
 -0.0000000000000000  0.5000000000000000  0.6526990232014910
  0.5000000000000000  0.3333300099999974  0.3473009987985108
  0.3333300099999974  0.5000000000000000  0.6526990232014910
  0.8333300099999974  0.3333300099999974  0.3473009987985108
  0.6666700319999990  0.5000000000000000  0.6526990232014910
  0.1666699900000026  0.6666700319999990  0.3473009987985108
  0.0000000000000000  0.8333300099999974  0.6526990232014910
  0.5000000000000000  0.6666700319999990  0.3473009987985108
  0.3333300099999974  0.8333300099999974  0.6526990232014910
  0.8333300099999974  0.6666700319999990  0.3473009987985108
  0.6666700319999990  0.8333300099999974  0.6526990232014910
  0.1666699900000026  0.1666699900000026  0.5000000000000000
 -0.0000000000000000 -0.0000000000000000  0.5000000000000000
  0.5000000000000000  0.1666699900000026  0.5000000000000000
  0.3333300099999974 -0.0000000000000000  0.5000000000000000
  0.8333300099999974  0.1666699900000026  0.5000000000000000
  0.6666700319999990 -0.0000000000000000  0.5000000000000000
  0.1666699900000026  0.5000000000000000  0.5000000000000000
 -0.0000000000000000  0.3333300099999974  0.5000000000000000
  0.5000000000000000  0.5000000000000000  0.5000000000000000
  0.3333300099999974  0.3333300099999974  0.5000000000000000
  0.8333300099999974  0.5000000000000000  0.5000000000000000
  0.6666700319999990  0.3333300099999974  0.5000000000000000
  0.1666699900000026  0.8333300099999974  0.5000000000000000
 -0.0000000000000000  0.6666700319999990  0.5000000000000000
  0.5000000000000000  0.8333300099999974  0.5000000000000000
  0.3333300099999974  0.6666700319999990  0.5000000000000000
  0.8333300099999974  0.8333300099999974  0.5000000000000000
  0.6666700319999990  0.6666700319999990  0.5000000000000000
  0.1666699900000026 -0.0000000000000000  0.5591107125248945
 -0.0000000000000000  0.1666699900000026  0.4408892874751054
  0.5000000000000000  0.0000000000000000  0.5591107125248945
  0.3333300099999974  0.1666699900000026  0.4408892874751054
  0.8333300099999974  0.0000000000000000  0.5591107125248945
  0.6666700319999990  0.1666699900000026  0.4408892874751054
  0.1666699900000026  0.3333300099999974  0.5591107125248945
  0.0000000000000000  0.5000000000000000  0.4408892874751054
  0.5000000000000000  0.3333300099999974  0.5591107125248945
  0.3333300099999974  0.5000000000000000  0.4408892874751054
  0.8333300099999974  0.3333300099999974  0.5591107125248945
  0.6666700319999990  0.5000000000000000  0.4408892874751054
  0.1666699900000026  0.6666700319999990  0.5591107125248945
  0.0000000000000000  0.8333300099999974  0.4408892874751054
  0.5000000000000000  0.6666700319999990  0.5591107125248945
  0.3333300099999974  0.8333300099999974  0.4408892874751054
  0.8333300099999974  0.6666700319999990  0.5591107125248945
  0.6666700319999990  0.8333300099999974  0.4408892874751054
 
  0.00000000E+00  0.00000000E+00  0.00000000E+00
  0.00000000E+00  0.00000000E+00  0.00000000E+00
  0.00000000E+00  0.00000000E+00  0.00000000E+00
  0.00000000E+00  0.00000000E+00  0.00000000E+00
  0.00000000E+00  0.00000000E+00  0.00000000E+00
  0.00000000E+00  0.00000000E+00  0.00000000E+00
  0.00000000E+00  0.00000000E+00  0.00000000E+00
  0.00000000E+00  0.00000000E+00  0.00000000E+00
  0.00000000E+00  0.00000000E+00  0.00000000E+00
  0.00000000E+00  0.00000000E+00  0.00000000E+00
  0.00000000E+00  0.00000000E+00  0.00000000E+00
  0.00000000E+00  0.00000000E+00  0.00000000E+00
  0.00000000E+00  0.00000000E+00  0.00000000E+00
  0.00000000E+00  0.00000000E+00  0.00000000E+00
  0.00000000E+00  0.00000000E+00  0.00000000E+00
  0.00000000E+00  0.00000000E+00  0.00000000E+00
  0.00000000E+00  0.00000000E+00  0.00000000E+00
  0.00000000E+00  0.00000000E+00  0.00000000E+00
  0.00000000E+00  0.00000000E+00  0.00000000E+00
  0.00000000E+00  0.00000000E+00  0.00000000E+00
  0.00000000E+00  0.00000000E+00  0.00000000E+00
  0.00000000E+00  0.00000000E+00  0.00000000E+00
  0.00000000E+00  0.00000000E+00  0.00000000E+00
  0.00000000E+00  0.00000000E+00  0.00000000E+00
  0.00000000E+00  0.00000000E+00  0.00000000E+00
  0.00000000E+00  0.00000000E+00  0.00000000E+00
  0.00000000E+00  0.00000000E+00  0.00000000E+00
  0.00000000E+00  0.00000000E+00  0.00000000E+00
  0.00000000E+00  0.00000000E+00  0.00000000E+00
  0.00000000E+00  0.00000000E+00  0.00000000E+00
  0.00000000E+00  0.00000000E+00  0.00000000E+00
  0.00000000E+00  0.00000000E+00  0.00000000E+00
  0.00000000E+00  0.00000000E+00  0.00000000E+00
  0.00000000E+00  0.00000000E+00  0.00000000E+00
  0.00000000E+00  0.00000000E+00  0.00000000E+00
  0.00000000E+00  0.00000000E+00  0.00000000E+00
  0.00000000E+00  0.00000000E+00  0.00000000E+00
  0.00000000E+00  0.00000000E+00  0.00000000E+00
  0.00000000E+00  0.00000000E+00  0.00000000E+00
  0.00000000E+00  0.00000000E+00  0.00000000E+00
  0.00000000E+00  0.00000000E+00  0.00000000E+00
  0.00000000E+00  0.00000000E+00  0.00000000E+00
  0.00000000E+00  0.00000000E+00  0.00000000E+00
  0.00000000E+00  0.00000000E+00  0.00000000E+00
  0.00000000E+00  0.00000000E+00  0.00000000E+00
  0.00000000E+00  0.00000000E+00  0.00000000E+00
  0.00000000E+00  0.00000000E+00  0.00000000E+00
  0.00000000E+00  0.00000000E+00  0.00000000E+00
  0.00000000E+00  0.00000000E+00  0.00000000E+00
  0.00000000E+00  0.00000000E+00  0.00000000E+00
  0.00000000E+00  0.00000000E+00  0.00000000E+00
  0.00000000E+00  0.00000000E+00  0.00000000E+00
  0.00000000E+00  0.00000000E+00  0.00000000E+00
  0.00000000E+00  0.00000000E+00  0.00000000E+00
