CONTCAR\(7)                             
   1.00000000000000     
    13.8427000045999993    0.0000000000000000    0.0000000000000000
    -6.9212999344000004   11.9880431408000003    0.0000000000000000
     0.0000000000000000    0.0000000000000000   18.3542995453000017
   Ta   Se   O    H 
    16    32     1     1
Selective dynamics
Direct
  0.9959618205735978  0.9874153066670601  0.4995974523236697   F   F   F
  0.2444187414648340  0.9919189162653552  0.4998113036518887   F   F   F
  0.4890277702613517  0.9868883043864898  0.4998988621753497   F   F   F
  0.7448180593694076  0.9928871157561119  0.4994640748675891   F   F   F
  0.9946208395717875  0.2437086160235680  0.5001703354687734   F   F   F
  0.2500130222869572  0.2419194112697696  0.4999192011950626   F   F   F
  0.4890968568821137  0.2423764668985129  0.4998593261876536   F   F   F
  0.7459472124807291  0.2431289274655626  0.5001361768112602   F   F   F
  0.9943990975852870  0.4910123525364156  0.5000782304661442   F   F   F
  0.2445908333122233  0.4922092751918470  0.4997758645391031   F   F   F
  0.4849769995004678  0.4728094343802525  0.4991645439213386   F   F   F
  0.7448633632616719  0.4920073098737134  0.4995079799582101   F   F   F
  0.9959776118985459  0.7483558147451035  0.4995932249393320   F   F   F
  0.2497587083158948  0.7478446848364015  0.4998988012078129   F   F   F
  0.4849030641210277  0.7521963427028737  0.4989830257875099   F   F   F
  0.7645464683318863  0.7521771997219844  0.4979916723878475   F   F   F
  0.0784829620564551  0.1589236070810855  0.4105427411629279   F   F   F
  0.0785707874424943  0.1584650972268591  0.5893039802529216   F   F   F
  0.3269920958165713  0.1568553285325436  0.4064951796003484   F   F   F
  0.3270987902094689  0.1568077400300965  0.5932109840810966   F   F   F
  0.5770784608933326  0.1585741549326798  0.4106984566470189   F   F   F
  0.5767168252178720  0.1584853360498713  0.5892415859657376   F   F   F
  0.8284638789821201  0.1596537935745559  0.4083228998252864   F   F   F
  0.8278960237199016  0.1585543104349441  0.5916513757498549   F   F   F
  0.0781343691796366  0.4091783221194660  0.4080645610675973   F   F   F
  0.0788817072922754  0.4095770433549504  0.5920129360707804   F   F   F
  0.3244444997737403  0.4071044205295848  0.4068411189201484   F   F   F
  0.3259170239485485  0.4078980047286649  0.5927084926757331   F   F   F
  0.5798707952431954  0.4074823308728241  0.4066211653058360   F   F   F
  0.5797055179191801  0.4080361058330269  0.5926386125337189   F   F   F
  0.8283264203750207  0.4089181171358547  0.4081559178090046   F   F   F
  0.8279035658008453  0.4094081808247552  0.5916781617612799   F   F   F
  0.0784963357831998  0.6596370879776003  0.4104149051556405   F   F   F
  0.0784271146208511  0.6599881718638443  0.5894087126055894   F   F   F
  0.3243910203254714  0.6571871238825793  0.4066771721733460   F   F   F
  0.3259710639236957  0.6579042958496402  0.5926520435683074   F   F   F
  0.5774992405715125  0.6588891464190567  0.4211468404071823   F   F   F
  0.5803725669588644  0.6602711718546175  0.5733388202431371   F   F   F
  0.8304239834940930  0.6570625169597335  0.4063983925764205   F   F   F
  0.8299230052114552  0.6581102366843155  0.5921695586869760   F   F   F
  0.0802674702896127  0.9100398819007367  0.4060312328985347   F   F   F
  0.0801532528856228  0.9099915908483140  0.5933832660617782   F   F   F
  0.3271875654769971  0.9098488703325955  0.4064895712243910   F   F   F
  0.3271362419370831  0.9099467887447190  0.5933031015378987   F   F   F
  0.5798648596175724  0.9127544710168962  0.4065771597855488   F   F   F
  0.5795780147961906  0.9116583524828030  0.5925127509221539   F   F   F
  0.8302984187197779  0.9132771820125498  0.4065138537113953   F   F   F
  0.8297198311723903  0.9117419022339632  0.5920760404927989   F   F   F
  0.5836386916111280  0.6616865129375498  0.6739053107772932   T   T   T
  0.6632359125160363  0.7024266700156758  0.6856362486489677   T   T   T
 
  0.00000000E+00  0.00000000E+00  0.00000000E+00
  0.00000000E+00  0.00000000E+00  0.00000000E+00
  0.00000000E+00  0.00000000E+00  0.00000000E+00
  0.00000000E+00  0.00000000E+00  0.00000000E+00
  0.00000000E+00  0.00000000E+00  0.00000000E+00
  0.00000000E+00  0.00000000E+00  0.00000000E+00
  0.00000000E+00  0.00000000E+00  0.00000000E+00
  0.00000000E+00  0.00000000E+00  0.00000000E+00
  0.00000000E+00  0.00000000E+00  0.00000000E+00
  0.00000000E+00  0.00000000E+00  0.00000000E+00
  0.00000000E+00  0.00000000E+00  0.00000000E+00
  0.00000000E+00  0.00000000E+00  0.00000000E+00
  0.00000000E+00  0.00000000E+00  0.00000000E+00
  0.00000000E+00  0.00000000E+00  0.00000000E+00
  0.00000000E+00  0.00000000E+00  0.00000000E+00
  0.00000000E+00  0.00000000E+00  0.00000000E+00
  0.00000000E+00  0.00000000E+00  0.00000000E+00
  0.00000000E+00  0.00000000E+00  0.00000000E+00
  0.00000000E+00  0.00000000E+00  0.00000000E+00
  0.00000000E+00  0.00000000E+00  0.00000000E+00
  0.00000000E+00  0.00000000E+00  0.00000000E+00
  0.00000000E+00  0.00000000E+00  0.00000000E+00
  0.00000000E+00  0.00000000E+00  0.00000000E+00
  0.00000000E+00  0.00000000E+00  0.00000000E+00
  0.00000000E+00  0.00000000E+00  0.00000000E+00
  0.00000000E+00  0.00000000E+00  0.00000000E+00
  0.00000000E+00  0.00000000E+00  0.00000000E+00
  0.00000000E+00  0.00000000E+00  0.00000000E+00
  0.00000000E+00  0.00000000E+00  0.00000000E+00
  0.00000000E+00  0.00000000E+00  0.00000000E+00
  0.00000000E+00  0.00000000E+00  0.00000000E+00
  0.00000000E+00  0.00000000E+00  0.00000000E+00
  0.00000000E+00  0.00000000E+00  0.00000000E+00
  0.00000000E+00  0.00000000E+00  0.00000000E+00
  0.00000000E+00  0.00000000E+00  0.00000000E+00
  0.00000000E+00  0.00000000E+00  0.00000000E+00
  0.00000000E+00  0.00000000E+00  0.00000000E+00
  0.00000000E+00  0.00000000E+00  0.00000000E+00
  0.00000000E+00  0.00000000E+00  0.00000000E+00
  0.00000000E+00  0.00000000E+00  0.00000000E+00
  0.00000000E+00  0.00000000E+00  0.00000000E+00
  0.00000000E+00  0.00000000E+00  0.00000000E+00
  0.00000000E+00  0.00000000E+00  0.00000000E+00
  0.00000000E+00  0.00000000E+00  0.00000000E+00
  0.00000000E+00  0.00000000E+00  0.00000000E+00
  0.00000000E+00  0.00000000E+00  0.00000000E+00
  0.00000000E+00  0.00000000E+00  0.00000000E+00
  0.00000000E+00  0.00000000E+00  0.00000000E+00
  0.00000000E+00  0.00000000E+00  0.00000000E+00
  0.00000000E+00  0.00000000E+00  0.00000000E+00
