CONTCAR\(9)                             
   1.00000000000000     
    13.8964004516999999    0.0000000000000000    0.0000000000000000
     0.0991868080000000   15.6682861384999992    0.0000000000000000
     0.0000000000000000    0.0000000000000000   19.4270992279000012
   Ta   Ni   Se   O 
    16     8    40     1
Direct
  0.0619080284524575  0.1109633183565102  0.4815854192585445
  0.0600642291935605  0.3923703851730765  0.4824614121867993
  0.1843670424380161  0.8921016095490185  0.5189707299384912
  0.1860426539016046  0.6112833739339567  0.5204889535201646
  0.3118648271499179  0.1109570043811158  0.4810660690093049
  0.3099820334787202  0.3924306567095086  0.4819802496698503
  0.4345236937860855  0.8913560813832042  0.5176480609901983
  0.4322579580612497  0.6090959264389693  0.5168778658040092
  0.5619411147780716  0.1109571656245230  0.4808669224276397
  0.5600540561158980  0.3916687031483421  0.4813722850862683
  0.6841598786710408  0.8911761225439856  0.5179961126511220
  0.6895609310610642  0.6091932436132319  0.5174162001542703
  0.8120363817582584  0.1108801148536860  0.4813890703484571
  0.8101967449614054  0.3925056010963874  0.4822389211680543
  0.9339947322715577  0.8921183142055056  0.5190808513278414
  0.9360655678290403  0.6110559652253129  0.5206793614783852
  0.1856315920428142  0.2516231165141881  0.4687154728204548
  0.0600411939078250  0.7520817007513192  0.5328760286609641
  0.4361226264915814  0.2514062453353909  0.4684465947919791
  0.3102981530168174  0.7523735834385268  0.5314142476640700
  0.6865161432904706  0.2513023422323158  0.4685683577549482
  0.5603658045414357  0.7504419302489482  0.5296582694808107
  0.9363841072929541  0.2516139279727681  0.4688242305495076
  0.8102628044333451  0.7520630508853037  0.5319594304414420
  0.1845135986051474  0.1419135260720613  0.3869912520746954
  0.1858261346291631  0.3621304060645332  0.3877188772854439
  0.0613300847506943  0.8627315287127828  0.6136172768824836
  0.0600662157417316  0.6425813327216630  0.6149022906093617
  0.0611460521812691  0.9523724229441520  0.4295441135974272
  0.0602667929275528  0.5511586504923689  0.4310294869462841
  0.1852890308939587  0.0509376475576822  0.5708565558811757
  0.1862545814731863  0.4524679791140039  0.5717184436559071
  0.0610917797319257  0.2513988272274050  0.5527302996278729
  0.1840822394743980  0.7512463957846055  0.4486218659632079
  0.4346990897508182  0.1417609233976097  0.3865965448750709
  0.4358526277840623  0.3619334713120999  0.3872548342929648
  0.3120900252227602  0.8622909234965450  0.6128078171307307
  0.3115505332945973  0.6429606070644993  0.6136663876213424
  0.3106213362270853  0.9524484076858653  0.4288675840744025
  0.3081238462913621  0.5510054020480772  0.4285655306867741
  0.4351786109376366  0.0502245711344963  0.5701590541871766
  0.4357473486650190  0.4520449154151345  0.5712111078790095
  0.3110028379631639  0.2514903637543122  0.5521041234782412
  0.4342233193584070  0.7512851727181227  0.4466666510063353
  0.6852269300575962  0.1418577060484949  0.3867472731043619
  0.6867576251722572  0.3619553480698320  0.3874813870751142
  0.5612446544684929  0.8598401956070900  0.6119024137008362
  0.5594732464052103  0.6405694772732419  0.6093486886271680
  0.5614551835705689  0.9524098392344799  0.4284800778765413
  0.5606851991909482  0.5501203262121401  0.4300318717394051
  0.6846826501015999  0.0502136488789412  0.5703045042510183
  0.6858413410534971  0.4520332736147122  0.5714080883974386
  0.5611146634428372  0.2515294523463774  0.5521745126010128
  0.6868192694239057  0.7511072774830881  0.4468250536010132
  0.9349214530230563  0.1417986573780970  0.3870997358050280
  0.9365081409177513  0.3620231340537060  0.3878385320476804
  0.8106783549208151  0.8622332075497392  0.6131458596511787
  0.8085380678563387  0.6425332195508423  0.6141057762733809
  0.8116412640321986  0.9523313182327074  0.4290910088145297
  0.8126223672946079  0.5508012157088485  0.4288984793195190
  0.9348640117341322  0.0510446637986811  0.5710561233262355
  0.9358270990195204  0.4521742084783413  0.5721125570811968
  0.8108717141266045  0.2515159724361007  0.5523928745109354
  0.9358654174550489  0.7511685187503293  0.4487920270192763
  0.5584532809038864  0.6576872159610435  0.6944610902376347
 
  0.00000000E+00  0.00000000E+00  0.00000000E+00
  0.00000000E+00  0.00000000E+00  0.00000000E+00
  0.00000000E+00  0.00000000E+00  0.00000000E+00
  0.00000000E+00  0.00000000E+00  0.00000000E+00
  0.00000000E+00  0.00000000E+00  0.00000000E+00
  0.00000000E+00  0.00000000E+00  0.00000000E+00
  0.00000000E+00  0.00000000E+00  0.00000000E+00
  0.00000000E+00  0.00000000E+00  0.00000000E+00
  0.00000000E+00  0.00000000E+00  0.00000000E+00
  0.00000000E+00  0.00000000E+00  0.00000000E+00
  0.00000000E+00  0.00000000E+00  0.00000000E+00
  0.00000000E+00  0.00000000E+00  0.00000000E+00
  0.00000000E+00  0.00000000E+00  0.00000000E+00
  0.00000000E+00  0.00000000E+00  0.00000000E+00
  0.00000000E+00  0.00000000E+00  0.00000000E+00
  0.00000000E+00  0.00000000E+00  0.00000000E+00
  0.00000000E+00  0.00000000E+00  0.00000000E+00
  0.00000000E+00  0.00000000E+00  0.00000000E+00
  0.00000000E+00  0.00000000E+00  0.00000000E+00
  0.00000000E+00  0.00000000E+00  0.00000000E+00
  0.00000000E+00  0.00000000E+00  0.00000000E+00
  0.00000000E+00  0.00000000E+00  0.00000000E+00
  0.00000000E+00  0.00000000E+00  0.00000000E+00
  0.00000000E+00  0.00000000E+00  0.00000000E+00
  0.00000000E+00  0.00000000E+00  0.00000000E+00
  0.00000000E+00  0.00000000E+00  0.00000000E+00
  0.00000000E+00  0.00000000E+00  0.00000000E+00
  0.00000000E+00  0.00000000E+00  0.00000000E+00
  0.00000000E+00  0.00000000E+00  0.00000000E+00
  0.00000000E+00  0.00000000E+00  0.00000000E+00
  0.00000000E+00  0.00000000E+00  0.00000000E+00
  0.00000000E+00  0.00000000E+00  0.00000000E+00
  0.00000000E+00  0.00000000E+00  0.00000000E+00
  0.00000000E+00  0.00000000E+00  0.00000000E+00
  0.00000000E+00  0.00000000E+00  0.00000000E+00
  0.00000000E+00  0.00000000E+00  0.00000000E+00
  0.00000000E+00  0.00000000E+00  0.00000000E+00
  0.00000000E+00  0.00000000E+00  0.00000000E+00
  0.00000000E+00  0.00000000E+00  0.00000000E+00
  0.00000000E+00  0.00000000E+00  0.00000000E+00
  0.00000000E+00  0.00000000E+00  0.00000000E+00
  0.00000000E+00  0.00000000E+00  0.00000000E+00
  0.00000000E+00  0.00000000E+00  0.00000000E+00
  0.00000000E+00  0.00000000E+00  0.00000000E+00
  0.00000000E+00  0.00000000E+00  0.00000000E+00
  0.00000000E+00  0.00000000E+00  0.00000000E+00
  0.00000000E+00  0.00000000E+00  0.00000000E+00
  0.00000000E+00  0.00000000E+00  0.00000000E+00
  0.00000000E+00  0.00000000E+00  0.00000000E+00
  0.00000000E+00  0.00000000E+00  0.00000000E+00
  0.00000000E+00  0.00000000E+00  0.00000000E+00
  0.00000000E+00  0.00000000E+00  0.00000000E+00
  0.00000000E+00  0.00000000E+00  0.00000000E+00
  0.00000000E+00  0.00000000E+00  0.00000000E+00
  0.00000000E+00  0.00000000E+00  0.00000000E+00
  0.00000000E+00  0.00000000E+00  0.00000000E+00
  0.00000000E+00  0.00000000E+00  0.00000000E+00
  0.00000000E+00  0.00000000E+00  0.00000000E+00
  0.00000000E+00  0.00000000E+00  0.00000000E+00
  0.00000000E+00  0.00000000E+00  0.00000000E+00
  0.00000000E+00  0.00000000E+00  0.00000000E+00
  0.00000000E+00  0.00000000E+00  0.00000000E+00
  0.00000000E+00  0.00000000E+00  0.00000000E+00
  0.00000000E+00  0.00000000E+00  0.00000000E+00
  0.00000000E+00  0.00000000E+00  0.00000000E+00
