CONTCAR\(4)                             
   1.00000000000000     
    10.8957996367999996    0.0000000000000000    0.0000000000000000
     0.0000000000000000   12.8001003265000008    0.0000000000000000
     0.0000000000000000    0.0000000000000000   21.8099994658999989
   Cu   Si   P    O    H 
    12    24    36     1     1
Selective dynamics
Direct
  0.0005335356909129  0.1099201424271072  0.4617000638270028   F   F   F
  0.0041358600548378  0.2919271255045572  0.3603923589714171   F   F   F
  0.3327309482861622  0.1100070477889830  0.4611599007957565   F   F   F
  0.3335077477306498  0.2889606246157470  0.3617743186962130   F   F   F
  0.6647570632923419  0.1098807701458213  0.4616093742389822   F   F   F
  0.6629824348174367  0.2917053245877170  0.3602805348034721   F   F   F
  0.9938900086879485  0.6109450753872991  0.4639892245615727   F   F   F
  0.0010703997257053  0.7905682333853292  0.3617263047469876   F   F   F
  0.3337259527634515  0.6108485174738192  0.4584428336872790   F   F   F
  0.3335167482547376  0.7816058038127167  0.3476842582530466   F   F   F
  0.6742942839771544  0.6109644364817228  0.4640096679798802   F   F   F
  0.6660288772333942  0.7905956508973091  0.3616888860118976   F   F   F
  0.1686305654867226  0.0453911048242119  0.3853539264425478   F   F   F
  0.1672517145040970  0.1982541739506019  0.6073804701332648   F   F   F
  0.1676618436731729  0.3597431501684696  0.4796794044416899   F   F   F
  0.0000544510115006  0.4469624721801040  0.6138570294046843   F   F   F
  0.5001570265808795  0.0452513110826729  0.3853053776082618   F   F   F
  0.4996276513924585  0.1982854426417759  0.6073923975756230   F   F   F
  0.4987820723971126  0.3598478108004528  0.4796413073561396   F   F   F
  0.3334899041729642  0.4462457393315375  0.6146338911604161   F   F   F
  0.8344158903763557  0.0489203455472662  0.3861640794723726   F   F   F
  0.8334362793237347  0.1968484200523903  0.6081918500447898   F   F   F
  0.8331714202154501  0.3552429985702190  0.4805422730200988   F   F   F
  0.6668974342405249  0.4468812930444770  0.6138618826524933   F   F   F
  0.1888743933131209  0.5567564719329070  0.3791843599136726   F   F   F
  0.1681409729139531  0.6970658733090431  0.6078185298107499   F   F   F
  0.1685448137873564  0.8539130396957830  0.4793292378349321   F   F   F
  0.0016048383245888  0.9466862209312765  0.6133486010932430   F   F   F
  0.4768964435677390  0.5565280132212465  0.3786526674538848   F   F   F
  0.4991383351657888  0.6970070230706824  0.6077268508378708   F   F   F
  0.4989241357652077  0.8538434098201009  0.4793548890346457   F   F   F
  0.3336983961542686  0.9469130568419715  0.6134563999565117   F   F   F
  0.8331604864472908  0.5475806976866338  0.3882658825461647   F   F   F
  0.8335910840434053  0.6993161552398632  0.6107535570963165   F   F   F
  0.8336320571431131  0.8574707241298114  0.4813137627145068   F   F   F
  0.6658850285791047  0.9467951048520717  0.6134606513357994   F   F   F
  0.0021187728750149  0.1228752689838686  0.3456411898227287   F   F   F
  0.1667355959458448  0.1923903743346997  0.5045913292017730   F   F   F
  0.1696584487550865  0.3832896625842892  0.3781976821729316   F   F   F
  0.0002576161814360  0.2786435693453768  0.6538255856205311   F   F   F
  0.9991919596056533  0.4510696938971464  0.5107310201131270   F   F   F
  0.1674061670258240  0.0341208740072290  0.6543476567908186   F   F   F
  0.3344559201951682  0.1214269977006239  0.3450683673336741   F   F   F
  0.4987592199558080  0.1924543859976424  0.5045881904110416   F   F   F
  0.4974588729117926  0.3832239087869098  0.3781524852439304   F   F   F
  0.3333999079937371  0.2782613968606000  0.6545626882028301   F   F   F
  0.3332408229685271  0.4531470632093573  0.5120970968678478   F   F   F
  0.4998864503194866  0.0341476950963084  0.6543945960976174   F   F   F
  0.6667249102723716  0.1226775235607889  0.3455725676604828   F   F   F
  0.8326537857533580  0.1885112090747825  0.5056683515675999   F   F   F
  0.8334582933609411  0.3756420437610757  0.3791388700942235   F   F   F
  0.6666221732879549  0.2785958629968022  0.6539009669650113   F   F   F
  0.6673533676697900  0.4511282016505973  0.5107363071649615   F   F   F
  0.8338354684113369  0.0323372247935723  0.6543124225505608   F   F   F
  0.0035980945293943  0.6219647407725901  0.3503332692830980   F   F   F
  0.1670843099051496  0.6870719702655990  0.5047850420303561   F   F   F
  0.1722530582448698  0.8733445381766174  0.3779233902393742   F   F   F
  0.0030004836043886  0.7799336296290491  0.6549437099120325   F   F   F
  0.0026570805056494  0.9501930519017066  0.5100725070962682   F   F   F
  0.1666922188142479  0.5331968189413772  0.6553632897549519   F   F   F
  0.3322252291251786  0.6188110284675901  0.3125408648149275   F   F   F
  0.5008134295639053  0.6868893948763528  0.5046825532183945   F   F   F
  0.4948435878450042  0.8732424667784358  0.3779487377081097   F   F   F
  0.3337102482937269  0.7791321802901194  0.6542050892466591   F   F   F
  0.3337641980039407  0.9502078681905886  0.5101563501697939   F   F   F
  0.5003860028569420  0.5332093451786264  0.6553629226046738   F   F   F
  0.6624956474637287  0.6219940127396839  0.3505574336343500   F   F   F
  0.8340382138414952  0.6937017062148811  0.5095537658010940   F   F   F
  0.8335339434697886  0.8769649116313616  0.3797597832285717   F   F   F
  0.6641750254156804  0.7799110219754866  0.6549527846039993   F   F   F
  0.6646343166943467  0.9502386871241981  0.5101494287066473   F   F   F
  0.8334540220347293  0.5329700376689956  0.6555812528995020   F   F   F
  0.3304539695365705  0.5973391857468400  0.2377119360958204   T   T   T
  0.3275685676675266  0.5230819923545624  0.2267540276294190   T   T   T
 
  0.00000000E+00  0.00000000E+00  0.00000000E+00
  0.00000000E+00  0.00000000E+00  0.00000000E+00
  0.00000000E+00  0.00000000E+00  0.00000000E+00
  0.00000000E+00  0.00000000E+00  0.00000000E+00
  0.00000000E+00  0.00000000E+00  0.00000000E+00
  0.00000000E+00  0.00000000E+00  0.00000000E+00
  0.00000000E+00  0.00000000E+00  0.00000000E+00
  0.00000000E+00  0.00000000E+00  0.00000000E+00
  0.00000000E+00  0.00000000E+00  0.00000000E+00
  0.00000000E+00  0.00000000E+00  0.00000000E+00
  0.00000000E+00  0.00000000E+00  0.00000000E+00
  0.00000000E+00  0.00000000E+00  0.00000000E+00
  0.00000000E+00  0.00000000E+00  0.00000000E+00
  0.00000000E+00  0.00000000E+00  0.00000000E+00
  0.00000000E+00  0.00000000E+00  0.00000000E+00
  0.00000000E+00  0.00000000E+00  0.00000000E+00
  0.00000000E+00  0.00000000E+00  0.00000000E+00
  0.00000000E+00  0.00000000E+00  0.00000000E+00
  0.00000000E+00  0.00000000E+00  0.00000000E+00
  0.00000000E+00  0.00000000E+00  0.00000000E+00
  0.00000000E+00  0.00000000E+00  0.00000000E+00
  0.00000000E+00  0.00000000E+00  0.00000000E+00
  0.00000000E+00  0.00000000E+00  0.00000000E+00
  0.00000000E+00  0.00000000E+00  0.00000000E+00
  0.00000000E+00  0.00000000E+00  0.00000000E+00
  0.00000000E+00  0.00000000E+00  0.00000000E+00
  0.00000000E+00  0.00000000E+00  0.00000000E+00
  0.00000000E+00  0.00000000E+00  0.00000000E+00
  0.00000000E+00  0.00000000E+00  0.00000000E+00
  0.00000000E+00  0.00000000E+00  0.00000000E+00
  0.00000000E+00  0.00000000E+00  0.00000000E+00
  0.00000000E+00  0.00000000E+00  0.00000000E+00
  0.00000000E+00  0.00000000E+00  0.00000000E+00
  0.00000000E+00  0.00000000E+00  0.00000000E+00
  0.00000000E+00  0.00000000E+00  0.00000000E+00
  0.00000000E+00  0.00000000E+00  0.00000000E+00
  0.00000000E+00  0.00000000E+00  0.00000000E+00
  0.00000000E+00  0.00000000E+00  0.00000000E+00
  0.00000000E+00  0.00000000E+00  0.00000000E+00
  0.00000000E+00  0.00000000E+00  0.00000000E+00
  0.00000000E+00  0.00000000E+00  0.00000000E+00
  0.00000000E+00  0.00000000E+00  0.00000000E+00
  0.00000000E+00  0.00000000E+00  0.00000000E+00
  0.00000000E+00  0.00000000E+00  0.00000000E+00
  0.00000000E+00  0.00000000E+00  0.00000000E+00
  0.00000000E+00  0.00000000E+00  0.00000000E+00
  0.00000000E+00  0.00000000E+00  0.00000000E+00
  0.00000000E+00  0.00000000E+00  0.00000000E+00
  0.00000000E+00  0.00000000E+00  0.00000000E+00
  0.00000000E+00  0.00000000E+00  0.00000000E+00
  0.00000000E+00  0.00000000E+00  0.00000000E+00
  0.00000000E+00  0.00000000E+00  0.00000000E+00
  0.00000000E+00  0.00000000E+00  0.00000000E+00
  0.00000000E+00  0.00000000E+00  0.00000000E+00
  0.00000000E+00  0.00000000E+00  0.00000000E+00
  0.00000000E+00  0.00000000E+00  0.00000000E+00
  0.00000000E+00  0.00000000E+00  0.00000000E+00
  0.00000000E+00  0.00000000E+00  0.00000000E+00
  0.00000000E+00  0.00000000E+00  0.00000000E+00
  0.00000000E+00  0.00000000E+00  0.00000000E+00
  0.00000000E+00  0.00000000E+00  0.00000000E+00
  0.00000000E+00  0.00000000E+00  0.00000000E+00
  0.00000000E+00  0.00000000E+00  0.00000000E+00
  0.00000000E+00  0.00000000E+00  0.00000000E+00
  0.00000000E+00  0.00000000E+00  0.00000000E+00
  0.00000000E+00  0.00000000E+00  0.00000000E+00
  0.00000000E+00  0.00000000E+00  0.00000000E+00
  0.00000000E+00  0.00000000E+00  0.00000000E+00
  0.00000000E+00  0.00000000E+00  0.00000000E+00
  0.00000000E+00  0.00000000E+00  0.00000000E+00
  0.00000000E+00  0.00000000E+00  0.00000000E+00
  0.00000000E+00  0.00000000E+00  0.00000000E+00
  0.00000000E+00  0.00000000E+00  0.00000000E+00
  0.00000000E+00  0.00000000E+00  0.00000000E+00
