 Ru2 Cl6                                
   1.00000000000000     
     5.9666866171552222    0.0000000000000000    0.0000000000000000
    -2.9833433085776111    5.1680572668572786    0.0000000000000000
     0.0000000000000000    0.0000000000000000   17.6816010323960029
   Ru   Cl
     2     6
Direct
  0.6666869392229419  0.3333736856689685  0.5000000013698873
  0.3333129083739427  0.6666260163261184  0.4999999981558798
  0.3492254595883115  0.3492275795489295  0.5763825567503617
  0.3491423418897076 -0.0000039147811208  0.4236607057059715
  1.0000022094117134  0.3492273076185928  0.4236174732662621
  0.6507697523445548  0.6507764851678081  0.4236173306019761
  0.0000067515350214  0.6507768520250489  0.5763827121034951
  0.6508536376338065 -0.0000040115743450  0.5763392220461657
 
  0.00000000E+00  0.00000000E+00  0.00000000E+00
  0.00000000E+00  0.00000000E+00  0.00000000E+00
  0.00000000E+00  0.00000000E+00  0.00000000E+00
  0.00000000E+00  0.00000000E+00  0.00000000E+00
  0.00000000E+00  0.00000000E+00  0.00000000E+00
  0.00000000E+00  0.00000000E+00  0.00000000E+00
  0.00000000E+00  0.00000000E+00  0.00000000E+00
  0.00000000E+00  0.00000000E+00  0.00000000E+00
