CONTCAR\(7)                             
   1.00000000000000     
    13.7100000381000005    0.0000000000000000    0.0000000000000000
    -6.8218533300999997   11.9299668931999996    0.0000000000000000
     0.0000000000000000    0.0000000000000000   18.6952991486000002
   Nb   Ir   Se   O 
    12     4    32     1
Direct
  0.4973648236074736  0.2254590831994806  0.4988781248221100
  0.4739524841373722  0.9882877248228672  0.5024309498910742
  0.2677783365398838  0.2390734860105108  0.5014714896791267
  0.9729144073071495  0.2482056749456177  0.5009481861723467
  0.9875539686322324  0.0184265916573836  0.4987223680348396
  0.7365123645583721  0.2256743172170530  0.4978366803155477
  0.4732509822713793  0.7477875954912525  0.5012842704714290
  0.4879963348129846  0.5187731371418235  0.4981165661323247
  0.2366742291300797  0.7253993614145815  0.4992938030768727
  0.9978635607104605  0.7287576566108733  0.5014613937486507
  0.9740874950787801  0.4875299983784088  0.5025068739133447
  0.7671328702893625  0.7385679884078986  0.5023949466067869
  0.2722118968549647  0.0224724895044468  0.5025096039506222
  0.7709395774559511  0.0230307678993956  0.4978430450844447
  0.2708512726336509  0.5229294845272654  0.4977940081713612
  0.7717011227498874  0.5228959255683385  0.5013340893669009
  0.4191623320142743  0.0859218299550817  0.6006890486689689
  0.4184275216092698  0.3297432431982448  0.5881379739202989
  0.1606897165470404  0.0755278132855627  0.5866303422181244
  0.1715745758549299  0.3415484872293237  0.5703926993318591
  0.3403791781665965  0.1669645521388033  0.4024935437457916
  0.3235301440483240  0.4115672264083719  0.4133734709574931
  0.0777483806598946  0.1683234033958521  0.4117967350439363
  0.0920419553247848  0.4231140369778214  0.4215429396522691
  0.9165359818521296  0.0916687787546371  0.5974319893703700
  0.8995575701292040  0.3262498704513224  0.5960448999842634
  0.6609246820120197  0.0708782365132690  0.5876576650780858
  0.6726566993373556  0.3446974570212216  0.5778675661649704
  0.8329626666798051  0.1695728234654773  0.3994611084706737
  0.8191135103421386  0.4123959976004137  0.4124247047896951
  0.5760192006993774  0.1499489979906417  0.4043135815594604
  0.5896113966102435  0.4224847322161375  0.4283977473286656
  0.4164628315230451  0.5912227237695900  0.5974048692473261
  0.4007845615515309  0.8281943666741860  0.5962799832679275
  0.1614425202606552  0.5700302768082371  0.5885604548666159
  0.1735420777130935  0.8451366690763213  0.5798852121320214
  0.3325981250638559  0.6700729465809707  0.4000311849875925
  0.3186997436803830  0.9114889783549287  0.4130036781749587
  0.0760188001293782  0.6517735452055610  0.4063268287411403
  0.0906758406642254  0.9222174939598987  0.4294058466924160
  0.9226291751779194  0.5850733072651556  0.5990840977411801
  0.9171834591085799  0.8305418768115572  0.5897829878224250
  0.6604104621005431  0.5742881461114007  0.5866670300493581
  0.6714308578603281  0.8421198705001752  0.5709420531287788
  0.8417749412268533  0.6697049235727313  0.4033108114012882
  0.8233398972314495  0.9109710591837512  0.4140059846696744
  0.5784723116207411  0.6696201790292337  0.4117916046534811
  0.5917150062239528  0.9227944476581107  0.4221129553672763
  0.8798984892060902  0.5621004980387748  0.6841622323338504
 
  0.00000000E+00  0.00000000E+00  0.00000000E+00
  0.00000000E+00  0.00000000E+00  0.00000000E+00
  0.00000000E+00  0.00000000E+00  0.00000000E+00
  0.00000000E+00  0.00000000E+00  0.00000000E+00
  0.00000000E+00  0.00000000E+00  0.00000000E+00
  0.00000000E+00  0.00000000E+00  0.00000000E+00
  0.00000000E+00  0.00000000E+00  0.00000000E+00
  0.00000000E+00  0.00000000E+00  0.00000000E+00
  0.00000000E+00  0.00000000E+00  0.00000000E+00
  0.00000000E+00  0.00000000E+00  0.00000000E+00
  0.00000000E+00  0.00000000E+00  0.00000000E+00
  0.00000000E+00  0.00000000E+00  0.00000000E+00
  0.00000000E+00  0.00000000E+00  0.00000000E+00
  0.00000000E+00  0.00000000E+00  0.00000000E+00
  0.00000000E+00  0.00000000E+00  0.00000000E+00
  0.00000000E+00  0.00000000E+00  0.00000000E+00
  0.00000000E+00  0.00000000E+00  0.00000000E+00
  0.00000000E+00  0.00000000E+00  0.00000000E+00
  0.00000000E+00  0.00000000E+00  0.00000000E+00
  0.00000000E+00  0.00000000E+00  0.00000000E+00
  0.00000000E+00  0.00000000E+00  0.00000000E+00
  0.00000000E+00  0.00000000E+00  0.00000000E+00
  0.00000000E+00  0.00000000E+00  0.00000000E+00
  0.00000000E+00  0.00000000E+00  0.00000000E+00
  0.00000000E+00  0.00000000E+00  0.00000000E+00
  0.00000000E+00  0.00000000E+00  0.00000000E+00
  0.00000000E+00  0.00000000E+00  0.00000000E+00
  0.00000000E+00  0.00000000E+00  0.00000000E+00
  0.00000000E+00  0.00000000E+00  0.00000000E+00
  0.00000000E+00  0.00000000E+00  0.00000000E+00
  0.00000000E+00  0.00000000E+00  0.00000000E+00
  0.00000000E+00  0.00000000E+00  0.00000000E+00
  0.00000000E+00  0.00000000E+00  0.00000000E+00
  0.00000000E+00  0.00000000E+00  0.00000000E+00
  0.00000000E+00  0.00000000E+00  0.00000000E+00
  0.00000000E+00  0.00000000E+00  0.00000000E+00
  0.00000000E+00  0.00000000E+00  0.00000000E+00
  0.00000000E+00  0.00000000E+00  0.00000000E+00
  0.00000000E+00  0.00000000E+00  0.00000000E+00
  0.00000000E+00  0.00000000E+00  0.00000000E+00
  0.00000000E+00  0.00000000E+00  0.00000000E+00
  0.00000000E+00  0.00000000E+00  0.00000000E+00
  0.00000000E+00  0.00000000E+00  0.00000000E+00
  0.00000000E+00  0.00000000E+00  0.00000000E+00
  0.00000000E+00  0.00000000E+00  0.00000000E+00
  0.00000000E+00  0.00000000E+00  0.00000000E+00
  0.00000000E+00  0.00000000E+00  0.00000000E+00
  0.00000000E+00  0.00000000E+00  0.00000000E+00
  0.00000000E+00  0.00000000E+00  0.00000000E+00
