CONTCAR\(2)                             
   1.00000000000000     
    11.2371997832999995    0.0000000000000000    0.0000000000000000
     0.0000000000000000   14.7250003814999992    0.0000000000000000
     0.0000000000000000    0.0000000000000000   22.6672992706000009
   Li   Cu   F    O    H 
    32    32    80     1     1
Direct
  0.1876081508714575  0.0681447698346289  0.5205747074197244
  0.1913531770424610  0.4279655990445437  0.6044613518732382
  0.0626585252206031  0.0748127888988309  0.3930214477156529
  0.0626357529533730  0.4299356882706012  0.4770356880063793
  0.4374833754830604  0.0679926535728189  0.5206931910425197
  0.4375490671753920  0.4296824040721061  0.6123944753157443
  0.3121499292828087  0.0738619104427600  0.3934437086189291
  0.3156499897021626  0.4311031051849738  0.4778986944503020
  0.6873830298629759  0.0681528807634981  0.5205948194245305
  0.6836228813723230  0.4278340029348194  0.6043406647670279
  0.5628437667027683  0.0738798043696891  0.3934411811743406
  0.5592904510116603  0.4310729195855396  0.4778946411050143
  0.9374958339790792  0.0683157952957321  0.5207100590802173
  0.9375415929835781  0.4258463347359642  0.6029547368154725
  0.8123033517280818  0.0748125358923186  0.3930287382978410
  0.8123621671941185  0.4299244560646056  0.4770348258713067
  0.1882936346371295  0.5652039991913221  0.5163264057703730
  0.1888944293493159  0.9214577299681995  0.6090779460609372
  0.0626691320050913  0.5763100960911599  0.3893628210474703
  0.0624446631287933  0.9290229357815363  0.4810355125242646
  0.4374639358271096  0.5745899800348151  0.5341477096265708
  0.4374402103209893  0.9164974840788289  0.6072052750923510
  0.3138096417936117  0.5755290751164558  0.3913574070859347
  0.3129993310944005  0.9269220285483590  0.4824317370463270
  0.6866156161296355  0.5651884270542757  0.5163441736031621
  0.6860696389428064  0.9214760531377270  0.6091034040426225
  0.5611645871429465  0.5755188460336155  0.3914140072341221
  0.5620092393456940  0.9269433931405553  0.4824376548706282
  0.9374987297251058  0.5686595317629537  0.5183079698895755
  0.9375030456258189  0.9215684081797351  0.6079518865150965
  0.8123263226241183  0.5762945727822014  0.3894095449166337
  0.8125707670448350  0.9290438984059112  0.4810460593397761
  0.0632465500766436  0.2506397262940655  0.5665774034029222
  0.0624337085202996  0.0830237024352419  0.6591060871392199
  0.1877990424684000  0.4163961930930187  0.3388987030945934
  0.1881070903384043  0.2490629417087460  0.4318100653221575
  0.3132334632613247  0.2514152756419237  0.5661200300816172
  0.3128040329314150  0.0819401922549390  0.6573988868665354
  0.4375188325416733  0.4169336350380010  0.3395835894278401
  0.4374953473545374  0.2482630474867222  0.4305177716932211
  0.5617375371954897  0.2513681092447862  0.5661580729149882
  0.5621550653585186  0.0819449864092348  0.6574181041174059
  0.6872173176750132  0.4164197629648470  0.3389131083840831
  0.6868799795723245  0.2490779769912994  0.4318560234479402
  0.8118139150008413  0.2506255954708738  0.5666016071848490
  0.8125460434245747  0.0830284655650317  0.6591277601934961
  0.9375139069281300  0.4160639471385614  0.3387315173553535
  0.9374839377769960  0.2489937027205942  0.4321208270817368
  0.0712412597304651  0.7486638068084247  0.5675825130863666
  0.0670273257004693  0.5917272433233491  0.6578623130977129
  0.1878083427643867  0.9155656449974389  0.3428138666046849
  0.1889816056549060  0.7481763114485243  0.4335618060849937
  0.3009844179134110  0.7360213011414912  0.5756140649141146
  0.3181309045445952  0.5908924227070030  0.6920190904106855
  0.4375336173155506  0.9150339270106004  0.3434035217948219
  0.4375065730922916  0.7463902464498754  0.4398101455520257
  0.5738642942104946  0.7361011087838791  0.5755648700763882
  0.5568385136531782  0.5910211718236984  0.6918634236090759
  0.6872585675412966  0.9155804161665677  0.3428006304808158
  0.6860329155963043  0.7481893537883402  0.4335857078177817
  0.8037273066316248  0.7486958116984427  0.5675906878569246
  0.8079504213684766  0.5916848611709260  0.6576043662782555
  0.9375270195231964  0.9157302553388291  0.3424234159315491
  0.9374778752992798  0.7487417758032087  0.4340005147373382
  0.0623882415656183  0.1589862305875585  0.5081191375809827
  0.0624976552320203  0.4937406556974623  0.5522047998761395
  0.0636606868197382  0.3458022325557699  0.6186888271433163
  0.1874804525347702  0.1627591354747092  0.6272419690338283
  0.1875628732258173 -0.0010892192923150  0.6801958236805213
  0.0624841290586953  0.5008047756635950  0.3179789732488512
  0.0626222341123925  0.3357162127180026  0.3694187994170141
  0.1877007448455087  0.1549656383464240  0.3786959476008427
  0.1876826095137447  0.0047937840314905  0.4447575267952151
  0.1880056676585348  0.3396553927726668  0.4905161099851872
  0.3124190834531213  0.1590297912589415  0.5080099353242391
  0.3113141452291378  0.4912640159895305  0.5525221675345248
  0.3134076693664105  0.3439901880787612  0.6201140674464680
  0.4374845019881078  0.1620796176575000  0.6259544382641973
  0.4374759331440732  0.9972354147555466  0.6781217344757806
  0.3125268517374800  0.5014227244114509  0.3183934115330876
  0.3125388331434515  0.3346850736103466  0.3682428488532612
  0.4374928051432534  0.1533978986794755  0.3781067766418762
  0.4375076901834222  0.0033298940868788  0.4452184097520585
  0.4374763640920025  0.3372841724617786  0.4901483034792458
  0.5625781083821004  0.1590121230065053  0.5080110246168061
  0.5635886016330330  0.4912021745159990  0.5525183640446759
  0.5616041301431283  0.3439258955110924  0.6201765200544965
  0.6874996976737831  0.1627668485750615  0.6272656824281675
  0.6873999338237647 -0.0010743187086126  0.6802200311245922
  0.5624870718237621  0.5014483071368353  0.3184239878680587
  0.5625066276759877  0.3347179196052303  0.3682848236960236
  0.6872806397791719  0.1550030862729037  0.3787237610786289
  0.6873230121273967  0.0048030582255543  0.4447653377942640
  0.6869839639073747  0.3396556701038524  0.4905726194589496
  0.8126070753432648  0.1589849538574762  0.5081290340037826
  0.8124536914136747  0.4937336813941863  0.5522001216952216
  0.8114139684794115  0.3457889016633465  0.6187067832950358
  0.9374959552535138  0.1634306759509417  0.6279776619110385
  0.9374799725295904  0.9982109789094666  0.6796990251832838
  0.8125459137818055  0.5008171278015108  0.3180028117684906
  0.8124102649399515  0.3357242392995232  0.3694240002092363
  0.9374830535060665  0.1550570414121566  0.3788728279668139
  0.9374985830960278  0.0045104541315989  0.4446317078214324
  0.9375030652040477  0.3400724726239743  0.4906384285892531
  0.0631786870558714  0.6597965222087914  0.5078587471920556
  0.0623331450682834  0.9929234414968181  0.5567452611052017
  0.0633454897757167  0.8413973812884051  0.6213850289703577
  0.1971292172155469  0.6766297665807706  0.6609020695941520
  0.1935232243570536  0.5036287219452290  0.6732064320500273
  0.0628650898651923 -0.0004851626249687  0.3209680906245307
  0.0625237662732771  0.8360092912286743  0.3744157014043539
  0.1880353551107512  0.6570526256290860  0.3779324384758842
  0.1870024927281704  0.5041641682603805  0.4401420759182996
  0.1865385716453818  0.8388148034541910  0.4927692971930708
  0.3047211511763632  0.6603920731626295  0.5059578115815792
  0.3120646371826237  0.9925761345855788  0.5572979713236005
  0.3109174783904432  0.8392824678047376  0.6222284397072412
  0.4373906690474740  0.6497435569494600  0.6039932428331388
  0.4374735777511942  0.4921858499217835  0.6889563274211825
  0.3129517687198632 -0.0009369314175211  0.3210547437940309
  0.3124266110396557  0.8361388464198929  0.3754049301474345
  0.4374922888966432  0.6590468186409173  0.3818594535273219
  0.4374801982054557  0.5009644062633919  0.4375131897184462
  0.4375183848817191  0.8379690383474666  0.4978019763896164
  0.5701423582684482  0.6603581072179970  0.5059648193950296
  0.5629444422560979  0.9926043011662189  0.5573030767232270
  0.5639921382503782  0.8393278633121254  0.6222290298262955
  0.6777485730550985  0.6766169120857384  0.6604344291572672
  0.6813006802199523  0.5037655005881461  0.6728668909607690
  0.5621134097173266 -0.0009367493069380  0.3210575004981781
  0.5626495878737070  0.8361577931588553  0.3753975658024951
  0.6869494886348018  0.6570218876313054  0.3779804805225245
  0.6879623220351040  0.5041334724779520  0.4401445903062429
  0.6884627913677108  0.8388494968992455  0.4927965397951326
  0.8117513304281437  0.6597671039013079  0.5078851946226125
  0.8126650749168821  0.9929360265086098  0.5567564457145230
  0.8116292241617524  0.8414473813284559  0.6213938549742405
  0.9375684382131483  0.6688299490929590  0.6244890998278990
  0.9374759297112115  0.5069769454736048  0.6695571331633071
  0.8122090093101884 -0.0004464175303355  0.3209706266273872
  0.8125302752147837  0.8360065904877932  0.3744044886774979
  0.9374879542996100  0.6579016034942389  0.3781356888195053
  0.9374859698851100  0.5057545659562330  0.4408386682989537
  0.9374916760359595  0.8380927274983337  0.4942344370028421
  0.4375183235158395  0.6686720049050496  0.7250202824144395
  0.4376970274100319  0.6682671574835874  0.7680988979375737
 
  0.00000000E+00  0.00000000E+00  0.00000000E+00
  0.00000000E+00  0.00000000E+00  0.00000000E+00
  0.00000000E+00  0.00000000E+00  0.00000000E+00
  0.00000000E+00  0.00000000E+00  0.00000000E+00
  0.00000000E+00  0.00000000E+00  0.00000000E+00
  0.00000000E+00  0.00000000E+00  0.00000000E+00
  0.00000000E+00  0.00000000E+00  0.00000000E+00
  0.00000000E+00  0.00000000E+00  0.00000000E+00
  0.00000000E+00  0.00000000E+00  0.00000000E+00
  0.00000000E+00  0.00000000E+00  0.00000000E+00
  0.00000000E+00  0.00000000E+00  0.00000000E+00
  0.00000000E+00  0.00000000E+00  0.00000000E+00
  0.00000000E+00  0.00000000E+00  0.00000000E+00
  0.00000000E+00  0.00000000E+00  0.00000000E+00
  0.00000000E+00  0.00000000E+00  0.00000000E+00
  0.00000000E+00  0.00000000E+00  0.00000000E+00
  0.00000000E+00  0.00000000E+00  0.00000000E+00
  0.00000000E+00  0.00000000E+00  0.00000000E+00
  0.00000000E+00  0.00000000E+00  0.00000000E+00
  0.00000000E+00  0.00000000E+00  0.00000000E+00
  0.00000000E+00  0.00000000E+00  0.00000000E+00
  0.00000000E+00  0.00000000E+00  0.00000000E+00
  0.00000000E+00  0.00000000E+00  0.00000000E+00
  0.00000000E+00  0.00000000E+00  0.00000000E+00
  0.00000000E+00  0.00000000E+00  0.00000000E+00
  0.00000000E+00  0.00000000E+00  0.00000000E+00
  0.00000000E+00  0.00000000E+00  0.00000000E+00
  0.00000000E+00  0.00000000E+00  0.00000000E+00
  0.00000000E+00  0.00000000E+00  0.00000000E+00
  0.00000000E+00  0.00000000E+00  0.00000000E+00
  0.00000000E+00  0.00000000E+00  0.00000000E+00
  0.00000000E+00  0.00000000E+00  0.00000000E+00
  0.00000000E+00  0.00000000E+00  0.00000000E+00
  0.00000000E+00  0.00000000E+00  0.00000000E+00
  0.00000000E+00  0.00000000E+00  0.00000000E+00
  0.00000000E+00  0.00000000E+00  0.00000000E+00
  0.00000000E+00  0.00000000E+00  0.00000000E+00
  0.00000000E+00  0.00000000E+00  0.00000000E+00
  0.00000000E+00  0.00000000E+00  0.00000000E+00
  0.00000000E+00  0.00000000E+00  0.00000000E+00
  0.00000000E+00  0.00000000E+00  0.00000000E+00
  0.00000000E+00  0.00000000E+00  0.00000000E+00
  0.00000000E+00  0.00000000E+00  0.00000000E+00
  0.00000000E+00  0.00000000E+00  0.00000000E+00
  0.00000000E+00  0.00000000E+00  0.00000000E+00
  0.00000000E+00  0.00000000E+00  0.00000000E+00
  0.00000000E+00  0.00000000E+00  0.00000000E+00
  0.00000000E+00  0.00000000E+00  0.00000000E+00
  0.00000000E+00  0.00000000E+00  0.00000000E+00
  0.00000000E+00  0.00000000E+00  0.00000000E+00
  0.00000000E+00  0.00000000E+00  0.00000000E+00
  0.00000000E+00  0.00000000E+00  0.00000000E+00
  0.00000000E+00  0.00000000E+00  0.00000000E+00
  0.00000000E+00  0.00000000E+00  0.00000000E+00
  0.00000000E+00  0.00000000E+00  0.00000000E+00
  0.00000000E+00  0.00000000E+00  0.00000000E+00
  0.00000000E+00  0.00000000E+00  0.00000000E+00
  0.00000000E+00  0.00000000E+00  0.00000000E+00
  0.00000000E+00  0.00000000E+00  0.00000000E+00
  0.00000000E+00  0.00000000E+00  0.00000000E+00
  0.00000000E+00  0.00000000E+00  0.00000000E+00
  0.00000000E+00  0.00000000E+00  0.00000000E+00
  0.00000000E+00  0.00000000E+00  0.00000000E+00
  0.00000000E+00  0.00000000E+00  0.00000000E+00
  0.00000000E+00  0.00000000E+00  0.00000000E+00
  0.00000000E+00  0.00000000E+00  0.00000000E+00
  0.00000000E+00  0.00000000E+00  0.00000000E+00
  0.00000000E+00  0.00000000E+00  0.00000000E+00
  0.00000000E+00  0.00000000E+00  0.00000000E+00
  0.00000000E+00  0.00000000E+00  0.00000000E+00
  0.00000000E+00  0.00000000E+00  0.00000000E+00
  0.00000000E+00  0.00000000E+00  0.00000000E+00
  0.00000000E+00  0.00000000E+00  0.00000000E+00
  0.00000000E+00  0.00000000E+00  0.00000000E+00
  0.00000000E+00  0.00000000E+00  0.00000000E+00
  0.00000000E+00  0.00000000E+00  0.00000000E+00
  0.00000000E+00  0.00000000E+00  0.00000000E+00
  0.00000000E+00  0.00000000E+00  0.00000000E+00
  0.00000000E+00  0.00000000E+00  0.00000000E+00
  0.00000000E+00  0.00000000E+00  0.00000000E+00
  0.00000000E+00  0.00000000E+00  0.00000000E+00
  0.00000000E+00  0.00000000E+00  0.00000000E+00
  0.00000000E+00  0.00000000E+00  0.00000000E+00
  0.00000000E+00  0.00000000E+00  0.00000000E+00
  0.00000000E+00  0.00000000E+00  0.00000000E+00
  0.00000000E+00  0.00000000E+00  0.00000000E+00
  0.00000000E+00  0.00000000E+00  0.00000000E+00
  0.00000000E+00  0.00000000E+00  0.00000000E+00
  0.00000000E+00  0.00000000E+00  0.00000000E+00
  0.00000000E+00  0.00000000E+00  0.00000000E+00
  0.00000000E+00  0.00000000E+00  0.00000000E+00
  0.00000000E+00  0.00000000E+00  0.00000000E+00
  0.00000000E+00  0.00000000E+00  0.00000000E+00
  0.00000000E+00  0.00000000E+00  0.00000000E+00
  0.00000000E+00  0.00000000E+00  0.00000000E+00
  0.00000000E+00  0.00000000E+00  0.00000000E+00
  0.00000000E+00  0.00000000E+00  0.00000000E+00
  0.00000000E+00  0.00000000E+00  0.00000000E+00
  0.00000000E+00  0.00000000E+00  0.00000000E+00
  0.00000000E+00  0.00000000E+00  0.00000000E+00
  0.00000000E+00  0.00000000E+00  0.00000000E+00
  0.00000000E+00  0.00000000E+00  0.00000000E+00
  0.00000000E+00  0.00000000E+00  0.00000000E+00
  0.00000000E+00  0.00000000E+00  0.00000000E+00
  0.00000000E+00  0.00000000E+00  0.00000000E+00
  0.00000000E+00  0.00000000E+00  0.00000000E+00
  0.00000000E+00  0.00000000E+00  0.00000000E+00
  0.00000000E+00  0.00000000E+00  0.00000000E+00
  0.00000000E+00  0.00000000E+00  0.00000000E+00
  0.00000000E+00  0.00000000E+00  0.00000000E+00
  0.00000000E+00  0.00000000E+00  0.00000000E+00
  0.00000000E+00  0.00000000E+00  0.00000000E+00
  0.00000000E+00  0.00000000E+00  0.00000000E+00
  0.00000000E+00  0.00000000E+00  0.00000000E+00
  0.00000000E+00  0.00000000E+00  0.00000000E+00
  0.00000000E+00  0.00000000E+00  0.00000000E+00
  0.00000000E+00  0.00000000E+00  0.00000000E+00
  0.00000000E+00  0.00000000E+00  0.00000000E+00
  0.00000000E+00  0.00000000E+00  0.00000000E+00
  0.00000000E+00  0.00000000E+00  0.00000000E+00
  0.00000000E+00  0.00000000E+00  0.00000000E+00
  0.00000000E+00  0.00000000E+00  0.00000000E+00
  0.00000000E+00  0.00000000E+00  0.00000000E+00
  0.00000000E+00  0.00000000E+00  0.00000000E+00
  0.00000000E+00  0.00000000E+00  0.00000000E+00
  0.00000000E+00  0.00000000E+00  0.00000000E+00
  0.00000000E+00  0.00000000E+00  0.00000000E+00
  0.00000000E+00  0.00000000E+00  0.00000000E+00
  0.00000000E+00  0.00000000E+00  0.00000000E+00
  0.00000000E+00  0.00000000E+00  0.00000000E+00
  0.00000000E+00  0.00000000E+00  0.00000000E+00
  0.00000000E+00  0.00000000E+00  0.00000000E+00
  0.00000000E+00  0.00000000E+00  0.00000000E+00
  0.00000000E+00  0.00000000E+00  0.00000000E+00
  0.00000000E+00  0.00000000E+00  0.00000000E+00
  0.00000000E+00  0.00000000E+00  0.00000000E+00
  0.00000000E+00  0.00000000E+00  0.00000000E+00
  0.00000000E+00  0.00000000E+00  0.00000000E+00
  0.00000000E+00  0.00000000E+00  0.00000000E+00
  0.00000000E+00  0.00000000E+00  0.00000000E+00
  0.00000000E+00  0.00000000E+00  0.00000000E+00
  0.00000000E+00  0.00000000E+00  0.00000000E+00
  0.00000000E+00  0.00000000E+00  0.00000000E+00
  0.00000000E+00  0.00000000E+00  0.00000000E+00
  0.00000000E+00  0.00000000E+00  0.00000000E+00
  0.00000000E+00  0.00000000E+00  0.00000000E+00
