CONTCAR                                 
   1.00000000000000     
    14.4987001419000006    0.0000000000000000    0.0000000000000000
    -0.3851722429000000   15.7714976485000005    0.0000000000000000
     0.0000000000000000    0.0000000000000000   25.2446994780999994
   Cr   P    O    H 
    24    24   122     1
Selective dynamics
Direct
  0.9898010698315289  0.3548459742228616  0.3464108581267595   F   F   F
  0.2444995000718606  0.3738979727293739  0.5193460214676051   F   F   F
  0.0878274116114284  0.1267362143105046  0.4806083196448085   F   F   F
  0.3438405511052380  0.1448393515663469  0.6528037568755138   F   F   F
  0.3233051227644239  0.3555857470856836  0.3466110102206130   F   F   F
  0.5783048049505126  0.3738276503312790  0.5191573851095868   F   F   F
  0.4212115057067507  0.1259577085128285  0.4809569069412731   F   F   F
  0.6767682522724101  0.1460859349385473  0.6537566458132034   F   F   F
  0.6560099654430687  0.3549842715631542  0.3462251496738773   F   F   F
  0.9113480721905987  0.3735497278461253  0.5189192955990976   F   F   F
  0.7545516937893453  0.1268653803638600  0.4808722923298845   F   F   F
  0.0099437567623681  0.1450808417549609  0.6533857491470911   F   F   F
  0.9895796653644453  0.8558158057653316  0.3464227506673652   F   F   F
  0.2445226741221518  0.8733240441625938  0.5192715253277669   F   F   F
  0.0877075059637562  0.6266484591815313  0.4802532992096502   F   F   F
  0.3428472441093717  0.6449421170253942  0.6534409059602453   F   F   F
  0.3232725488076511  0.8552938501296694  0.3465643252265380   F   F   F
  0.5780374158371373  0.8737924580526553  0.5195200648606075   F   F   F
  0.4212880335689775  0.6269482079187014  0.4809146721039781   F   F   F
  0.6764811140668456  0.6446017793502108  0.6536270857443753   F   F   F
  0.6562417477426621  0.8558154886619036  0.3465247969642959   F   F   F
  0.9112469510586507  0.8734728317907852  0.5192007645634504   F   F   F
  0.7543742676290250  0.6267706077344641  0.4805002384848081   F   F   F
  0.0094200891586382  0.6441005764438472  0.6531295101066021   F   F   F
  0.0736047967525337  0.4397520191935769  0.4463490967627948   F   F   F
  0.2531563012731510  0.2190109478067299  0.4312072639769013   F   F   F
  0.0795773566598186  0.2817904906062978  0.5690885251174223   F   F   F
  0.2590447514288954  0.0597483349020322  0.5530121392840215   F   F   F
  0.4069600336974659  0.4399624879849284  0.4468955820521572   F   F   F
  0.5860796175044953  0.2188502030245658  0.4311800489024193   F   F   F
  0.4132737904363779  0.2821953852389854  0.5690855589391077   F   F   F
  0.5927975785662838  0.0604633685877261  0.5536606753391808   F   F   F
  0.7401217054285496  0.4398133645686499  0.4463169004152547   F   F   F
  0.9195171283455608  0.2186055747859754  0.4308645594632949   F   F   F
  0.7464836326401780  0.2820021541239299  0.5690879486611351   F   F   F
  0.9258168657760137  0.0603357823173454  0.5533180766022667   F   F   F
  0.0734576034307963  0.9399996866909888  0.4465558958169638   F   F   F
  0.2529351216528539  0.7185474319938052  0.4308292658992769   F   F   F
  0.0795441638328001  0.7811446931287236  0.5687882698940854   F   F   F
  0.2588326065256297  0.5606525558523003  0.5534142658615693   F   F   F
  0.4067864935137564  0.9398150431453018  0.4465936499738419   F   F   F
  0.5860082279799599  0.7191379971040277  0.4310448837575009   F   F   F
  0.4129215188077424  0.7817216135587088  0.5692170522079465   F   F   F
  0.5923685777806185  0.5605000100878001  0.5534700541673701   F   F   F
  0.7400601994924330  0.9401279754860212  0.4467455894615284   F   F   F
  0.9192451552902554  0.7188973888613077  0.4306493843383166   F   F   F
  0.7463748825578804  0.7813519613932911  0.5689441207695864   F   F   F
  0.9254599056847184  0.5603808254499469  0.5529603311307838   F   F   F
  0.0761510365811944  0.3967054927143181  0.3891029340226737   F   F   F
  0.3065260304962436  0.4409981583946063  0.4659066808491872   F   F   F
  0.2447553317453099  0.4218110350469146  0.3383173291721846   F   F   F
  0.1333662185410773  0.3834626084834909  0.4802323327485851   F   F   F
  0.2186782180727391  0.4707652303965588  0.5604521759760885   F   F   F
  0.2789374958815571  0.2601602208239768  0.3759242276092962   F   F   F
  0.0348554249607815  0.3342153377659685  0.2911492403727394   F   F   F
  0.1819662366965957  0.3071988097312683  0.5726445589802367   F   F   F
  0.2704908725858104  0.2827776672914553  0.4756786121620138   F   F   F
  0.3151348041446340  0.1426707684799666  0.4387586676448691   F   F   F
  0.0175353794098783  0.3580004724928827  0.5612515599154335   F   F   F
  0.0626563656315469  0.2174802096399517  0.5248938552837075   F   F   F
  0.1507393957528649  0.1936348441839328  0.4278329951597186   F   F   F
  0.3006021894970416  0.1635167433874187  0.7088778225075032   F   F   F
  0.0533945504760709  0.2412083499825144  0.6245512642226743   F   F   F
  0.1139958159253212  0.0297669996407777  0.4397926498256766   F   F   F
  0.1995198211199423  0.1167598386946551  0.5196250569023348   F   F   F
  0.0891838297456502  0.0793173189753986  0.6610892264226322   F   F   F
  0.0261392695309368  0.0594961742128106  0.5341206390246001   F   F   F
  0.2575194699061072  0.1043217060060826  0.6102405123439354   F   F   F
  0.4093010322267645  0.3981308965770509  0.3892920268362801   F   F   F
  0.6397752700611647  0.4407791825872351  0.4655845589642453   F   F   F
  0.5777221093240570  0.4213859783340794  0.3376570301390913   F   F   F
  0.4663171700184279  0.3825273765498238  0.4803251733376541   F   F   F
  0.5515101739903017  0.4707179677249940  0.5598290175056135   F   F   F
  0.6112444837855620  0.2598807049558758  0.3757885819327811   F   F   F
  0.3686284005750622  0.3347306083524018  0.2914517018043910   F   F   F
  0.5156266596758741  0.3067404316399092  0.5725856087549772   F   F   F
  0.6038725844812873  0.2827969010517606  0.4755221504103062   F   F   F
  0.6481773178287895  0.1425944595298105  0.4386395413480457   F   F   F
  0.3512737080423847  0.3584657881821158  0.5620947607606794   F   F   F
  0.3936718592705546  0.2150897944700532  0.5274450787221383   F   F   F
  0.4835100469962796  0.1939789818483106  0.4284561760268701   F   F   F
  0.6310027343586952  0.1668808377769437  0.7088231317578177   F   F   F
  0.3872155692179646  0.2453877477466193  0.6269577506012070   F   F   F
  0.4471934486145415  0.0296465200498872  0.4395514527226183   F   F   F
  0.5326281901824359  0.1167641579072480  0.5200061874105941   F   F   F
  0.4231214315337652  0.0789290422837112  0.6588989921900534   F   F   F
  0.3593529174332559  0.0577748493714196  0.5340364043770975   F   F   F
  0.5910355888058092  0.1036178111702739  0.6109168849849027   F   F   F
  0.7420801759354063  0.3975698487749071  0.3888179218020440   F   F   F
  0.9731750032691977  0.4405571993722646  0.4653794432033465   F   F   F
  0.9115928692336368  0.4215111955626512  0.3384714647945941   F   F   F
  0.7999224852987012  0.3827926603585681  0.4796831886904727   F   F   F
  0.8847003217745808  0.4706488829901474  0.5594275902987746   F   F   F
  0.9450394722752975  0.2593573746921365  0.3754474545947772   F   F   F
  0.7014764918359617  0.3336417125930708  0.2911805435534447   F   F   F
  0.8489190089489256  0.3071651578135572  0.5721163680101284   F   F   F
  0.9371215662627890  0.2825984855495776  0.4751981244075694   F   F   F
  0.9816239892182494  0.1423823876376105  0.4384343189798017   F   F   F
  0.6844764225116080  0.3582741011796102  0.5613791533437791   F   F   F
  0.7289226164021940  0.2175528242616309  0.5250367120085286   F   F   F
  0.8170458554102211  0.1935127319324224  0.4278171814190799   F   F   F
  0.9650440512176175  0.1650015350518288  0.7088092735857359   F   F   F
  0.7210218386497118  0.2416066447404219  0.6246482548050594   F   F   F
  0.7807831475567966  0.0298632994613612  0.4401558862086929   F   F   F
  0.8660819812117850  0.1173832920393139  0.5199439104091326   F   F   F
  0.7553786815910968  0.0799704046332366  0.6621953379857572   F   F   F
  0.6930283365560257  0.0595247365039242  0.5343590218907366   F   F   F
  0.9238543322759227  0.1024282079979884  0.6108878864744156   F   F   F
  0.0759535059190739  0.8974458290884968  0.3891540015617991   F   F   F
  0.3062570698828040  0.9402018163927437  0.4655101680751486   F   F   F
  0.2450060547447492  0.9219606614820606  0.3387562895906129   F   F   F
  0.1331776189070553  0.8834375854377470  0.4802689716761179   F   F   F
  0.2179651828246065  0.9705244755935070  0.5605769981298394   F   F   F
  0.2787991314073182  0.7596975196754343  0.3755632348906701   F   F   F
  0.0347177963177216  0.8353857790739170  0.2911529785900413   F   F   F
  0.1818546779420416  0.8066668687526644  0.5722842223554139   F   F   F
  0.2696867787195174  0.7823234741333067  0.4753716274602837   F   F   F
  0.3151871626842464  0.6424220043787088  0.4384886029270803   F   F   F
  0.0173389077448292  0.8573655598777918  0.5614282349943309   F   F   F
  0.0626853881921861  0.7177376240954985  0.5240559221688272   F   F   F
  0.1506058924675031  0.6930431044639533  0.4272612191048424   F   F   F
  0.2980442440050837  0.6651162517526359  0.7088448484849863   F   F   F
  0.0539018299649001  0.7395289121466817  0.6239429194034258   F   F   F
  0.1138636563938817  0.5295813323124037  0.4394458751532895   F   F   F
  0.1989944751846764  0.6166821982405750  0.5194526324283970   F   F   F
  0.0875561946642875  0.5773255282480250  0.6610474703626110   F   F   F
  0.0258498786240509  0.5596497938966962  0.5339158810722111   F   F   F
  0.2562281881311606  0.6036334115858537  0.6107054407164370   F   F   F
  0.4097099707182039  0.8969182088117051  0.3892957670932020   F   F   F
  0.6397096723269513  0.9409039406906672  0.4659117384046780   F   F   F
  0.5779784874629428  0.9223530647142368  0.3382574300605086   F   F   F
  0.4665642717066305  0.8837753401950010  0.4806103859343906   F   F   F
  0.5523023513306100  0.9707533482921420  0.5606676041706606   F   F   F
  0.6115398621223846  0.7605017638237186  0.3758104099602448   F   F   F
  0.3681957858623974  0.8348498684971375  0.2912352953096047   F   F   F
  0.5152216897506392  0.8072532070748792  0.5725493611372983   F   F   F
  0.6030707389166778  0.7828724167120455  0.4755701470071259   F   F   F
  0.6481087528732843  0.6428486925692170  0.4384334310315907   F   F   F
  0.3505809450847792  0.8578104695052531  0.5616300830151957   F   F   F
  0.3957551143457323  0.7178668069753797  0.5247469101808591   F   F   F
  0.4836537251001047  0.6935967872211251  0.4278010982859257   F   F   F
  0.6313841284923143  0.6657091831097262  0.7088088658814868   F   F   F
  0.3873671134491516  0.7406553987147362  0.6245560370867551   F   F   F
  0.4480248635430044  0.5296241644017741  0.4406254290087048   F   F   F
  0.5326407307470475  0.6176373506786987  0.5201548910441005   F   F   F
  0.4209455550527252  0.5780968404534121  0.6610509595363609   F   F   F
  0.3593224318174819  0.5599520371829954  0.5344847849875549   F   F   F
  0.5902023952300937  0.6022351245273256  0.6110964958823786   F   F   F
  0.7423682687662847  0.8979300488630741  0.3892423125214179   F   F   F
  0.9730539739410489  0.9406448575964106  0.4656417380761724   F   F   F
  0.9114992773743751  0.9226242492019452  0.3385117637891284   F   F   F
  0.7997560729161250  0.8831981684775201  0.4802149506984179   F   F   F
  0.8851267794137598  0.9705947679364044  0.5599005052065635   F   F   F
  0.9447135877965778  0.7602920249218386  0.3753915785774780   F   F   F
  0.7015712317357057  0.8349146648873997  0.2913793878439250   F   F   F
  0.8487021167076989  0.8068818894995644  0.5722525472698763   F   F   F
  0.9363168325031310  0.7826301371705568  0.4751954583585913   F   F   F
  0.9815770373157733  0.6427711567100971  0.4380455754093902   F   F   F
  0.6842181549917186  0.8576077396869337  0.5616017109364790   F   F   F
  0.7292582092584752  0.7177636186358143  0.5243449667343398   F   F   F
  0.8169331038821497  0.6932976440337839  0.4273544206711151   F   F   F
  0.9645156879343233  0.6648223576491716  0.7084184005611220   F   F   F
  0.7209173007628351  0.7398815061001258  0.6241503053358031   F   F   F
  0.7806348152105826  0.5296236019027134  0.4397925465347328   F   F   F
  0.8659150278038368  0.6173661841713596  0.5194337427398992   F   F   F
  0.7548788748186723  0.5782108809176307  0.6618815103905931   F   F   F
  0.6926706596540342  0.5597858989911160  0.5342378350430081   F   F   F
  0.9229516242263500  0.6024244029982313  0.6104989634544111   F   F   F
  0.3896046213675532  0.3796055079570380  0.6981624680946155   T   T   T
  0.4793471568133114  0.3905978528316467  0.7061026647766795   T   T   T
  0.3832010826032572  0.3303263081433911  0.6719094535101160   T   T   T
 
  0.00000000E+00  0.00000000E+00  0.00000000E+00
  0.00000000E+00  0.00000000E+00  0.00000000E+00
  0.00000000E+00  0.00000000E+00  0.00000000E+00
  0.00000000E+00  0.00000000E+00  0.00000000E+00
  0.00000000E+00  0.00000000E+00  0.00000000E+00
  0.00000000E+00  0.00000000E+00  0.00000000E+00
  0.00000000E+00  0.00000000E+00  0.00000000E+00
  0.00000000E+00  0.00000000E+00  0.00000000E+00
  0.00000000E+00  0.00000000E+00  0.00000000E+00
  0.00000000E+00  0.00000000E+00  0.00000000E+00
  0.00000000E+00  0.00000000E+00  0.00000000E+00
  0.00000000E+00  0.00000000E+00  0.00000000E+00
  0.00000000E+00  0.00000000E+00  0.00000000E+00
  0.00000000E+00  0.00000000E+00  0.00000000E+00
  0.00000000E+00  0.00000000E+00  0.00000000E+00
  0.00000000E+00  0.00000000E+00  0.00000000E+00
  0.00000000E+00  0.00000000E+00  0.00000000E+00
  0.00000000E+00  0.00000000E+00  0.00000000E+00
  0.00000000E+00  0.00000000E+00  0.00000000E+00
  0.00000000E+00  0.00000000E+00  0.00000000E+00
  0.00000000E+00  0.00000000E+00  0.00000000E+00
  0.00000000E+00  0.00000000E+00  0.00000000E+00
  0.00000000E+00  0.00000000E+00  0.00000000E+00
  0.00000000E+00  0.00000000E+00  0.00000000E+00
  0.00000000E+00  0.00000000E+00  0.00000000E+00
  0.00000000E+00  0.00000000E+00  0.00000000E+00
  0.00000000E+00  0.00000000E+00  0.00000000E+00
  0.00000000E+00  0.00000000E+00  0.00000000E+00
  0.00000000E+00  0.00000000E+00  0.00000000E+00
  0.00000000E+00  0.00000000E+00  0.00000000E+00
  0.00000000E+00  0.00000000E+00  0.00000000E+00
  0.00000000E+00  0.00000000E+00  0.00000000E+00
  0.00000000E+00  0.00000000E+00  0.00000000E+00
  0.00000000E+00  0.00000000E+00  0.00000000E+00
  0.00000000E+00  0.00000000E+00  0.00000000E+00
  0.00000000E+00  0.00000000E+00  0.00000000E+00
  0.00000000E+00  0.00000000E+00  0.00000000E+00
  0.00000000E+00  0.00000000E+00  0.00000000E+00
  0.00000000E+00  0.00000000E+00  0.00000000E+00
  0.00000000E+00  0.00000000E+00  0.00000000E+00
  0.00000000E+00  0.00000000E+00  0.00000000E+00
  0.00000000E+00  0.00000000E+00  0.00000000E+00
  0.00000000E+00  0.00000000E+00  0.00000000E+00
  0.00000000E+00  0.00000000E+00  0.00000000E+00
  0.00000000E+00  0.00000000E+00  0.00000000E+00
  0.00000000E+00  0.00000000E+00  0.00000000E+00
  0.00000000E+00  0.00000000E+00  0.00000000E+00
  0.00000000E+00  0.00000000E+00  0.00000000E+00
  0.00000000E+00  0.00000000E+00  0.00000000E+00
  0.00000000E+00  0.00000000E+00  0.00000000E+00
  0.00000000E+00  0.00000000E+00  0.00000000E+00
  0.00000000E+00  0.00000000E+00  0.00000000E+00
  0.00000000E+00  0.00000000E+00  0.00000000E+00
  0.00000000E+00  0.00000000E+00  0.00000000E+00
  0.00000000E+00  0.00000000E+00  0.00000000E+00
  0.00000000E+00  0.00000000E+00  0.00000000E+00
  0.00000000E+00  0.00000000E+00  0.00000000E+00
  0.00000000E+00  0.00000000E+00  0.00000000E+00
  0.00000000E+00  0.00000000E+00  0.00000000E+00
  0.00000000E+00  0.00000000E+00  0.00000000E+00
  0.00000000E+00  0.00000000E+00  0.00000000E+00
  0.00000000E+00  0.00000000E+00  0.00000000E+00
  0.00000000E+00  0.00000000E+00  0.00000000E+00
  0.00000000E+00  0.00000000E+00  0.00000000E+00
  0.00000000E+00  0.00000000E+00  0.00000000E+00
  0.00000000E+00  0.00000000E+00  0.00000000E+00
  0.00000000E+00  0.00000000E+00  0.00000000E+00
  0.00000000E+00  0.00000000E+00  0.00000000E+00
  0.00000000E+00  0.00000000E+00  0.00000000E+00
  0.00000000E+00  0.00000000E+00  0.00000000E+00
  0.00000000E+00  0.00000000E+00  0.00000000E+00
  0.00000000E+00  0.00000000E+00  0.00000000E+00
  0.00000000E+00  0.00000000E+00  0.00000000E+00
  0.00000000E+00  0.00000000E+00  0.00000000E+00
  0.00000000E+00  0.00000000E+00  0.00000000E+00
  0.00000000E+00  0.00000000E+00  0.00000000E+00
  0.00000000E+00  0.00000000E+00  0.00000000E+00
  0.00000000E+00  0.00000000E+00  0.00000000E+00
  0.00000000E+00  0.00000000E+00  0.00000000E+00
  0.00000000E+00  0.00000000E+00  0.00000000E+00
  0.00000000E+00  0.00000000E+00  0.00000000E+00
  0.00000000E+00  0.00000000E+00  0.00000000E+00
  0.00000000E+00  0.00000000E+00  0.00000000E+00
  0.00000000E+00  0.00000000E+00  0.00000000E+00
  0.00000000E+00  0.00000000E+00  0.00000000E+00
  0.00000000E+00  0.00000000E+00  0.00000000E+00
  0.00000000E+00  0.00000000E+00  0.00000000E+00
  0.00000000E+00  0.00000000E+00  0.00000000E+00
  0.00000000E+00  0.00000000E+00  0.00000000E+00
  0.00000000E+00  0.00000000E+00  0.00000000E+00
  0.00000000E+00  0.00000000E+00  0.00000000E+00
  0.00000000E+00  0.00000000E+00  0.00000000E+00
  0.00000000E+00  0.00000000E+00  0.00000000E+00
  0.00000000E+00  0.00000000E+00  0.00000000E+00
  0.00000000E+00  0.00000000E+00  0.00000000E+00
  0.00000000E+00  0.00000000E+00  0.00000000E+00
  0.00000000E+00  0.00000000E+00  0.00000000E+00
  0.00000000E+00  0.00000000E+00  0.00000000E+00
  0.00000000E+00  0.00000000E+00  0.00000000E+00
  0.00000000E+00  0.00000000E+00  0.00000000E+00
  0.00000000E+00  0.00000000E+00  0.00000000E+00
  0.00000000E+00  0.00000000E+00  0.00000000E+00
  0.00000000E+00  0.00000000E+00  0.00000000E+00
  0.00000000E+00  0.00000000E+00  0.00000000E+00
  0.00000000E+00  0.00000000E+00  0.00000000E+00
  0.00000000E+00  0.00000000E+00  0.00000000E+00
  0.00000000E+00  0.00000000E+00  0.00000000E+00
  0.00000000E+00  0.00000000E+00  0.00000000E+00
  0.00000000E+00  0.00000000E+00  0.00000000E+00
  0.00000000E+00  0.00000000E+00  0.00000000E+00
  0.00000000E+00  0.00000000E+00  0.00000000E+00
  0.00000000E+00  0.00000000E+00  0.00000000E+00
  0.00000000E+00  0.00000000E+00  0.00000000E+00
  0.00000000E+00  0.00000000E+00  0.00000000E+00
  0.00000000E+00  0.00000000E+00  0.00000000E+00
  0.00000000E+00  0.00000000E+00  0.00000000E+00
  0.00000000E+00  0.00000000E+00  0.00000000E+00
  0.00000000E+00  0.00000000E+00  0.00000000E+00
  0.00000000E+00  0.00000000E+00  0.00000000E+00
  0.00000000E+00  0.00000000E+00  0.00000000E+00
  0.00000000E+00  0.00000000E+00  0.00000000E+00
  0.00000000E+00  0.00000000E+00  0.00000000E+00
  0.00000000E+00  0.00000000E+00  0.00000000E+00
  0.00000000E+00  0.00000000E+00  0.00000000E+00
  0.00000000E+00  0.00000000E+00  0.00000000E+00
  0.00000000E+00  0.00000000E+00  0.00000000E+00
  0.00000000E+00  0.00000000E+00  0.00000000E+00
  0.00000000E+00  0.00000000E+00  0.00000000E+00
  0.00000000E+00  0.00000000E+00  0.00000000E+00
  0.00000000E+00  0.00000000E+00  0.00000000E+00
  0.00000000E+00  0.00000000E+00  0.00000000E+00
  0.00000000E+00  0.00000000E+00  0.00000000E+00
  0.00000000E+00  0.00000000E+00  0.00000000E+00
  0.00000000E+00  0.00000000E+00  0.00000000E+00
  0.00000000E+00  0.00000000E+00  0.00000000E+00
  0.00000000E+00  0.00000000E+00  0.00000000E+00
  0.00000000E+00  0.00000000E+00  0.00000000E+00
  0.00000000E+00  0.00000000E+00  0.00000000E+00
  0.00000000E+00  0.00000000E+00  0.00000000E+00
  0.00000000E+00  0.00000000E+00  0.00000000E+00
  0.00000000E+00  0.00000000E+00  0.00000000E+00
  0.00000000E+00  0.00000000E+00  0.00000000E+00
  0.00000000E+00  0.00000000E+00  0.00000000E+00
  0.00000000E+00  0.00000000E+00  0.00000000E+00
  0.00000000E+00  0.00000000E+00  0.00000000E+00
  0.00000000E+00  0.00000000E+00  0.00000000E+00
  0.00000000E+00  0.00000000E+00  0.00000000E+00
  0.00000000E+00  0.00000000E+00  0.00000000E+00
  0.00000000E+00  0.00000000E+00  0.00000000E+00
  0.00000000E+00  0.00000000E+00  0.00000000E+00
  0.00000000E+00  0.00000000E+00  0.00000000E+00
  0.00000000E+00  0.00000000E+00  0.00000000E+00
  0.00000000E+00  0.00000000E+00  0.00000000E+00
  0.00000000E+00  0.00000000E+00  0.00000000E+00
  0.00000000E+00  0.00000000E+00  0.00000000E+00
  0.00000000E+00  0.00000000E+00  0.00000000E+00
  0.00000000E+00  0.00000000E+00  0.00000000E+00
  0.00000000E+00  0.00000000E+00  0.00000000E+00
  0.00000000E+00  0.00000000E+00  0.00000000E+00
  0.00000000E+00  0.00000000E+00  0.00000000E+00
  0.00000000E+00  0.00000000E+00  0.00000000E+00
  0.00000000E+00  0.00000000E+00  0.00000000E+00
  0.00000000E+00  0.00000000E+00  0.00000000E+00
  0.00000000E+00  0.00000000E+00  0.00000000E+00
  0.00000000E+00  0.00000000E+00  0.00000000E+00
  0.00000000E+00  0.00000000E+00  0.00000000E+00
  0.00000000E+00  0.00000000E+00  0.00000000E+00
  0.00000000E+00  0.00000000E+00  0.00000000E+00
  0.00000000E+00  0.00000000E+00  0.00000000E+00
  0.00000000E+00  0.00000000E+00  0.00000000E+00
  0.00000000E+00  0.00000000E+00  0.00000000E+00
