 La4 I10                                
   1.00000000000000     
     4.3650642753505151    0.0000000000000000    0.0000000000000000
     0.0000000000000000   17.1204229675625506    0.0000000000000000
     0.0000000000000000    0.0000000000000000   20.8015945403779980
   La   I 
     4    10
Direct
  0.7499996290045525  0.1102936123473915  0.5208905051047577
  0.2500002771114105  0.8352435570234812  0.4791192942246175
  0.7500000358170160  0.6090938234568758  0.5287649832242046
  0.2500000038735205  0.3364417134544192  0.4712369993823169
  0.7499999511654722  0.3489295347668927  0.3604929163259267
  0.2500000275172686  0.5965043840811153  0.6394945660520471
  0.7500000793217336  0.9570940157008681  0.4164902306307955
  0.2499998295005603  0.9884278296778801  0.5835100395120194
  0.2500000121059475  0.5311257561830864  0.4321966367487076
  0.7499999586085695  0.4144363577688902  0.5677774297309646
  0.2499998369367805  0.2175872537232068  0.5984857650685235
  0.7500001995609734  0.7279412456725166  0.4015177260950453
  0.2499999968656147  0.1572706572721480  0.4129046268927876
  0.7500001626105836  0.7882492588712249  0.5871182810072848
 
  0.00000000E+00  0.00000000E+00  0.00000000E+00
  0.00000000E+00  0.00000000E+00  0.00000000E+00
  0.00000000E+00  0.00000000E+00  0.00000000E+00
  0.00000000E+00  0.00000000E+00  0.00000000E+00
  0.00000000E+00  0.00000000E+00  0.00000000E+00
  0.00000000E+00  0.00000000E+00  0.00000000E+00
  0.00000000E+00  0.00000000E+00  0.00000000E+00
  0.00000000E+00  0.00000000E+00  0.00000000E+00
  0.00000000E+00  0.00000000E+00  0.00000000E+00
  0.00000000E+00  0.00000000E+00  0.00000000E+00
  0.00000000E+00  0.00000000E+00  0.00000000E+00
  0.00000000E+00  0.00000000E+00  0.00000000E+00
  0.00000000E+00  0.00000000E+00  0.00000000E+00
  0.00000000E+00  0.00000000E+00  0.00000000E+00
