CONTCAR\(7)                             
   1.00000000000000     
    11.6875000000000000    0.0000000000000000    0.0000000000000000
     0.0000000000000000   15.6604003905999996    0.0000000000000000
     0.0000000000000000    0.0000000000000000   20.9486999511999983
   Pr   C    Cl   O 
    24    12    30     1
Direct
  0.1667675149204108  0.2498340328542927  0.3601404160063939
  0.1665606381097934  0.2498105224512713  0.6398792206942183
 -0.0000032874316798  0.3573818469193911  0.5000579673263423
  0.0000073546691320  0.1422360453139948  0.5000687265864848
  0.5000082909786722  0.2497977142215123  0.3601424453603217
  0.5000071858444860  0.2498013584400371  0.6398897725188128
  0.3333286416947383  0.3574059033694537  0.5000967173009481
  0.3333043652938605  0.1422135975898033  0.5001056294253232
  0.8332351717059967  0.2498257556018188  0.3601430752618707
  0.8334441346530370  0.2498037416250653  0.6398711868671629
  0.6666709311795440  0.3574038453224939  0.5001022535432834
  0.6666958315651229  0.1422070455112408  0.5001147900259979
  0.1669332308839191  0.7497152147872734  0.3606722323649760
  0.1717945369511723  0.7496750468744582  0.6408061633764472
 -0.0000019579784697  0.8567404603753254  0.5006412544263454
  0.0000037169259675  0.6427229045736278  0.5005332896527118
  0.5000070417122940  0.7498138924278683  0.3601771548958529
  0.4999855105922832  0.7496894261469135  0.6705364841096378
  0.3346578764384741  0.8559464830942132  0.4997832423549534
  0.3346741403519372  0.6434688661654421  0.4997515160087606
  0.8330921441595593  0.7497155347732651  0.3606757917764844
  0.8280666029315116  0.7496725581625040  0.6408483588457826
  0.6653701965993800  0.8559620598506271  0.4997747457724933
  0.6653794463826684  0.6434658612170351  0.4997363315660197
  0.1666787536649895  0.2497951397826601  0.4664673268664006
  0.1666221017369448  0.2497910734901712  0.5334940776487428
  0.5000028044286944  0.2497827504116824  0.4664627605805168
  0.5000030166565642  0.2497854671801248  0.5334841958512971
  0.8333293205559702  0.2497915814952435  0.4664690108106090
  0.8333911881553838  0.2497896842481380  0.5334957171394313
  0.1660631594417100  0.7497104824149864  0.4670377247153123
  0.1668113529077494  0.7497059676142924  0.5337931316447326
  0.5000249792050372  0.7497253472624865  0.4676950810628651
  0.5000201553595353  0.7496614442840233  0.5340571815573270
  0.8339546163955268  0.7497115868501144  0.4670516762906417
  0.8332028016969703  0.7497084127574873  0.5338149940198306
 -0.0000009781952860  0.1176605247196229  0.6435217145604262
  0.0000049930211929  0.1177282280053524  0.3561950129290289
 -0.0000040881764364  0.3819214797865845  0.3562176348414449
  0.0000046681851920  0.3818972435770503  0.6435575034523047
  0.1663345652423839  0.4993275339354079  0.5000476437396825
  0.3332459872111826  0.1182206632833465  0.6434664475885191
  0.3332932113230028  0.1176265842685688  0.3562012430537401
  0.3333316412408268  0.3819559868280588  0.3562348195156859
  0.3332481281045173  0.3813337105034422  0.6434953331587366
  0.5000044536359066  0.4992829359477037  0.4992310900949957
  0.6667620066516196  0.1182226066116546  0.6434677923808626
  0.6667008718930653  0.1176225985489381  0.3562016725959316
  0.6666731862815232  0.3819492479758160  0.3562350603503469
  0.6667560292966763  0.3813352779942228  0.6434952399969627
  0.8336893201429045  0.4993132916004039  0.5000366272842827
  0.9999613531425418  0.6209073672498887  0.6446132266117849
  0.0000086653356116  0.6179566287993482  0.3562305776021477
  0.0000110780820066  0.8815271482203018  0.3562558407073546
  0.9999745836118767  0.8783894553520767  0.6447405495205997
  0.1663351092355584  0.0001869804223153  0.5000467660595901
  0.3301288512910781  0.6156101307667328  0.6397947183049167
  0.3325452443662413  0.6182742449302467  0.3548702246809858
  0.3324898893612795  0.8812280775005865  0.3548925175528221
  0.3301954570546820  0.8837123173502295  0.6398379397936053
  0.5000002595711567  0.0001803501601680  0.4992750708643640
  0.6698018006286989  0.6155603259824323  0.6396901126501443
  0.6674700869139116  0.6182796614510251  0.3548591190374473
  0.6675238674453450  0.8812257046545242  0.3548823866433438
  0.6697377883679738  0.8837657936620581  0.6397359839090900
  0.8336798120747503  0.0001912568537390  0.5000383432477888
  0.5010787163201013  0.7496481945977612  0.7649408300157079
 
  0.00000000E+00  0.00000000E+00  0.00000000E+00
  0.00000000E+00  0.00000000E+00  0.00000000E+00
  0.00000000E+00  0.00000000E+00  0.00000000E+00
  0.00000000E+00  0.00000000E+00  0.00000000E+00
  0.00000000E+00  0.00000000E+00  0.00000000E+00
  0.00000000E+00  0.00000000E+00  0.00000000E+00
  0.00000000E+00  0.00000000E+00  0.00000000E+00
  0.00000000E+00  0.00000000E+00  0.00000000E+00
  0.00000000E+00  0.00000000E+00  0.00000000E+00
  0.00000000E+00  0.00000000E+00  0.00000000E+00
  0.00000000E+00  0.00000000E+00  0.00000000E+00
  0.00000000E+00  0.00000000E+00  0.00000000E+00
  0.00000000E+00  0.00000000E+00  0.00000000E+00
  0.00000000E+00  0.00000000E+00  0.00000000E+00
  0.00000000E+00  0.00000000E+00  0.00000000E+00
  0.00000000E+00  0.00000000E+00  0.00000000E+00
  0.00000000E+00  0.00000000E+00  0.00000000E+00
  0.00000000E+00  0.00000000E+00  0.00000000E+00
  0.00000000E+00  0.00000000E+00  0.00000000E+00
  0.00000000E+00  0.00000000E+00  0.00000000E+00
  0.00000000E+00  0.00000000E+00  0.00000000E+00
  0.00000000E+00  0.00000000E+00  0.00000000E+00
  0.00000000E+00  0.00000000E+00  0.00000000E+00
  0.00000000E+00  0.00000000E+00  0.00000000E+00
  0.00000000E+00  0.00000000E+00  0.00000000E+00
  0.00000000E+00  0.00000000E+00  0.00000000E+00
  0.00000000E+00  0.00000000E+00  0.00000000E+00
  0.00000000E+00  0.00000000E+00  0.00000000E+00
  0.00000000E+00  0.00000000E+00  0.00000000E+00
  0.00000000E+00  0.00000000E+00  0.00000000E+00
  0.00000000E+00  0.00000000E+00  0.00000000E+00
  0.00000000E+00  0.00000000E+00  0.00000000E+00
  0.00000000E+00  0.00000000E+00  0.00000000E+00
  0.00000000E+00  0.00000000E+00  0.00000000E+00
  0.00000000E+00  0.00000000E+00  0.00000000E+00
  0.00000000E+00  0.00000000E+00  0.00000000E+00
  0.00000000E+00  0.00000000E+00  0.00000000E+00
  0.00000000E+00  0.00000000E+00  0.00000000E+00
  0.00000000E+00  0.00000000E+00  0.00000000E+00
  0.00000000E+00  0.00000000E+00  0.00000000E+00
  0.00000000E+00  0.00000000E+00  0.00000000E+00
  0.00000000E+00  0.00000000E+00  0.00000000E+00
  0.00000000E+00  0.00000000E+00  0.00000000E+00
  0.00000000E+00  0.00000000E+00  0.00000000E+00
  0.00000000E+00  0.00000000E+00  0.00000000E+00
  0.00000000E+00  0.00000000E+00  0.00000000E+00
  0.00000000E+00  0.00000000E+00  0.00000000E+00
  0.00000000E+00  0.00000000E+00  0.00000000E+00
  0.00000000E+00  0.00000000E+00  0.00000000E+00
  0.00000000E+00  0.00000000E+00  0.00000000E+00
  0.00000000E+00  0.00000000E+00  0.00000000E+00
  0.00000000E+00  0.00000000E+00  0.00000000E+00
  0.00000000E+00  0.00000000E+00  0.00000000E+00
  0.00000000E+00  0.00000000E+00  0.00000000E+00
  0.00000000E+00  0.00000000E+00  0.00000000E+00
  0.00000000E+00  0.00000000E+00  0.00000000E+00
  0.00000000E+00  0.00000000E+00  0.00000000E+00
  0.00000000E+00  0.00000000E+00  0.00000000E+00
  0.00000000E+00  0.00000000E+00  0.00000000E+00
  0.00000000E+00  0.00000000E+00  0.00000000E+00
  0.00000000E+00  0.00000000E+00  0.00000000E+00
  0.00000000E+00  0.00000000E+00  0.00000000E+00
  0.00000000E+00  0.00000000E+00  0.00000000E+00
  0.00000000E+00  0.00000000E+00  0.00000000E+00
  0.00000000E+00  0.00000000E+00  0.00000000E+00
  0.00000000E+00  0.00000000E+00  0.00000000E+00
  0.00000000E+00  0.00000000E+00  0.00000000E+00
