CONTCAR\(11)                            
   1.00000000000000     
    10.8789997101000004    0.0000000000000000    0.0000000000000000
     0.0000000000000000   14.0766000748000000    0.0000000000000000
     0.0000000000000000    0.0000000000000000   17.9612998961999999
   Cu   Br   O 
    12    12    25
Direct
  0.1231738850244717  0.3850505800200145  0.5619984423522920
  0.9991385799142256  0.1276594036174147  0.4555854130748367
  0.4762493454583200  0.3688443465520205  0.5342613172541377
  0.3416905054919051  0.1375351166975808  0.4727263834846318
  0.7971622614507271  0.3927784502562693  0.5611910206318398
  0.6674790505893805  0.1210702896163291  0.4447300915934522
  0.1641501524205944  0.8879658285158101  0.5599033962983978
 -0.0351354866676854  0.6221326509725955  0.4506264507333734
  0.4928312288537397  0.8844811777086892  0.5502800706801564
  0.3012835224785179  0.6099600295505618  0.4438980891309623
  0.8293921150268981  0.8863919239152042  0.5534760999161472
  0.6330555536441315  0.6140777371407756  0.4423128072564248
  0.2674695449786338  0.2763261191631192  0.6236990827542961
  0.1606213802327671  0.2276576133600093  0.4137879764561847
  0.6373258252118952  0.2890854963274090  0.6019665927434901
  0.5003876692598235  0.2150578885330875  0.3976482576064485
  0.9570253599424637  0.3042926004364813  0.6227066832409514
  0.8336454679386489  0.2200025893372742  0.4033003434640294
  0.3299594815195247  0.7875073248216473  0.6007182556993210
  0.1354466612373599  0.7114726629870188  0.4027311947599065
  0.6610894867675102  0.7873051461927272  0.5941803515853422
  0.4654987952533037  0.7058215530686966  0.3929408665536282
  0.9949195221691920  0.7917981830525310  0.6029095320143831
  0.7992770317320945  0.7108286640865452  0.3948901912021686
  0.0253094725121999  0.4322143423016841  0.4815463807651946
  0.1036182167891038  0.0179946610548384  0.4484085836324740
  0.2418339323691847  0.4851311213572790  0.5612465985128938
  0.2317623314261282  0.0809159792361571  0.5446016255731779
  0.3612099498862384  0.4166988296372801  0.4627372766403124
  0.4094578795749437  0.0145264910755761  0.4417766255182781
  0.5565338132994505  0.4871873711884254  0.5541385667460790
  0.5642576221930096  0.0730612371688093  0.5227986226519711
  0.7091429515466812  0.4270466422635549  0.4725383869892284
  0.7692502248300883  0.0097645369747259  0.4367757661068052
  0.8905638796262771  0.5073503784957769  0.5694767871673317
  0.8929922766950061  0.0779692947005740  0.5314699491292717
  0.0687271368542871  0.9388755991088599  0.4797301469974012
  0.0609333287466093  0.5075904671454613  0.4453322002857402
  0.2614074643867222  0.0008594758128127  0.5764855653083832
  0.2117395505505048  0.5650758691864087  0.5288838114105963
  0.3817248216451469  0.9369900594240941  0.4774969361441931
  0.3895713911616144  0.4938193976076454  0.4262645637497302
  0.5946452191343330 -0.0048045539004550  0.5579871740967578
  0.5255344188487912  0.5639505896311795  0.5174263194222707
  0.7358633527668338  0.9316085417136380  0.4701086624933902
  0.7386672750630630  0.5047418955999227  0.4372006851965713
  0.9240761548368125  0.0006491346935622  0.5670239436669980
  0.8591340807371745  0.5813351840871281  0.5299491579032966
  0.3745466045913452  0.2538339755052337  0.5460973354048241
 
  0.00000000E+00  0.00000000E+00  0.00000000E+00
  0.00000000E+00  0.00000000E+00  0.00000000E+00
  0.00000000E+00  0.00000000E+00  0.00000000E+00
  0.00000000E+00  0.00000000E+00  0.00000000E+00
  0.00000000E+00  0.00000000E+00  0.00000000E+00
  0.00000000E+00  0.00000000E+00  0.00000000E+00
  0.00000000E+00  0.00000000E+00  0.00000000E+00
  0.00000000E+00  0.00000000E+00  0.00000000E+00
  0.00000000E+00  0.00000000E+00  0.00000000E+00
  0.00000000E+00  0.00000000E+00  0.00000000E+00
  0.00000000E+00  0.00000000E+00  0.00000000E+00
  0.00000000E+00  0.00000000E+00  0.00000000E+00
  0.00000000E+00  0.00000000E+00  0.00000000E+00
  0.00000000E+00  0.00000000E+00  0.00000000E+00
  0.00000000E+00  0.00000000E+00  0.00000000E+00
  0.00000000E+00  0.00000000E+00  0.00000000E+00
  0.00000000E+00  0.00000000E+00  0.00000000E+00
  0.00000000E+00  0.00000000E+00  0.00000000E+00
  0.00000000E+00  0.00000000E+00  0.00000000E+00
  0.00000000E+00  0.00000000E+00  0.00000000E+00
  0.00000000E+00  0.00000000E+00  0.00000000E+00
  0.00000000E+00  0.00000000E+00  0.00000000E+00
  0.00000000E+00  0.00000000E+00  0.00000000E+00
  0.00000000E+00  0.00000000E+00  0.00000000E+00
  0.00000000E+00  0.00000000E+00  0.00000000E+00
  0.00000000E+00  0.00000000E+00  0.00000000E+00
  0.00000000E+00  0.00000000E+00  0.00000000E+00
  0.00000000E+00  0.00000000E+00  0.00000000E+00
  0.00000000E+00  0.00000000E+00  0.00000000E+00
  0.00000000E+00  0.00000000E+00  0.00000000E+00
  0.00000000E+00  0.00000000E+00  0.00000000E+00
  0.00000000E+00  0.00000000E+00  0.00000000E+00
  0.00000000E+00  0.00000000E+00  0.00000000E+00
  0.00000000E+00  0.00000000E+00  0.00000000E+00
  0.00000000E+00  0.00000000E+00  0.00000000E+00
  0.00000000E+00  0.00000000E+00  0.00000000E+00
  0.00000000E+00  0.00000000E+00  0.00000000E+00
  0.00000000E+00  0.00000000E+00  0.00000000E+00
  0.00000000E+00  0.00000000E+00  0.00000000E+00
  0.00000000E+00  0.00000000E+00  0.00000000E+00
  0.00000000E+00  0.00000000E+00  0.00000000E+00
  0.00000000E+00  0.00000000E+00  0.00000000E+00
  0.00000000E+00  0.00000000E+00  0.00000000E+00
  0.00000000E+00  0.00000000E+00  0.00000000E+00
  0.00000000E+00  0.00000000E+00  0.00000000E+00
  0.00000000E+00  0.00000000E+00  0.00000000E+00
  0.00000000E+00  0.00000000E+00  0.00000000E+00
  0.00000000E+00  0.00000000E+00  0.00000000E+00
  0.00000000E+00  0.00000000E+00  0.00000000E+00
