CONTCAR\(3)                             
   1.00000000000000     
    14.8798999785999992    0.0000000000000000    0.0000000000000000
     7.4399499892999996   12.8863713873000005    0.0000000000000000
     0.0000000000000000    0.0000000000000000   21.2917003632000004
   Tb   Cl
    32    32
Direct
  0.1666699960000031  0.1666700059999968  0.4346099959999989
  0.0833300019999967  0.0833299980000035  0.5653900040000011
  0.4166699960000031  0.1666700059999968  0.4346099959999989
  0.3333300179999981  0.0833299980000035  0.5653900040000011
  0.6666700279999986  0.1666700059999968  0.4346099959999989
  0.5833299860000025  0.0833299980000035  0.5653900040000011
  0.9166699960000031  0.1666700059999968  0.4346099959999989
  0.8333300179999981  0.0833299980000035  0.5653900040000011
  0.1666700190000014  0.4166699920000028  0.4346099959999989
  0.0833299900000029  0.3333300210000019  0.5653900040000011
  0.4166699869999988  0.4166699920000028  0.4346099959999989
  0.3333299900000029  0.3333300210000019  0.5653900040000011
  0.6666700190000014  0.4166699920000028  0.4346099959999989
  0.5833299580000002  0.3333300210000019  0.5653900040000011
  0.9166699869999988  0.4166699920000028  0.4346099959999989
  0.8333299900000029  0.3333300210000019  0.5653900040000011
  0.1666699820000019  0.6666700330000026  0.4346099959999989
  0.0833299909999994  0.5833299889999992  0.5653900040000011
  0.4166700150000011  0.6666700330000026  0.4346099959999989
  0.3333299909999994  0.5833299889999992  0.5653900040000011
  0.6666699820000019  0.6666700330000026  0.4346099959999989
  0.5833299589999967  0.5833299889999992  0.5653900040000011
  0.9166699499999993  0.6666700330000026  0.4346099959999989
  0.8333299909999994  0.5833299889999992  0.5653900040000011
  0.1666700279999986  0.9166700379999995  0.4346099959999989
  0.0833300039999969  0.8333299929999995  0.5653900040000011
  0.4166699960000031  0.9166700379999995  0.4346099959999989
  0.3333300359999996  0.8333299929999995  0.5653900040000011
  0.6666699640000004  0.9166700379999995  0.4346099959999989
  0.5833300039999969  0.8333299929999995  0.5653900040000011
  0.9166700600000013  0.9166700379999995  0.4346099959999989
  0.8333299720000014  0.8333299929999995  0.5653900040000011
  0.0000000000000000  0.0000000000000000  0.6478599849999966
  0.0000000000000000  0.0000000000000000  0.3521400150000034
  0.2500000000000000  0.0000000000000000  0.6478599849999966
  0.2500000000000000  0.0000000000000000  0.3521400150000034
  0.5000000000000000  0.0000000000000000  0.6478599849999966
  0.5000000000000000  0.0000000000000000  0.3521400150000034
  0.7500000320000026  0.0000000000000000  0.6478599849999966
  0.7500000320000026  0.0000000000000000  0.3521400150000034
  0.9999999979999998  0.2500000040000003  0.6478599849999966
  0.9999999979999998  0.2500000040000003  0.3521400150000034
  0.2500000140000012  0.2500000040000003  0.6478599849999966
  0.2500000140000012  0.2500000040000003  0.3521400150000034
  0.4999999819999985  0.2500000040000003  0.6478599849999966
  0.4999999819999985  0.2500000040000003  0.3521400150000034
  0.7500000140000012  0.2500000040000003  0.6478599849999966
  0.7500000140000012  0.2500000040000003  0.3521400150000034
  0.9999999959999997  0.5000000089999972  0.6478599849999966
  0.9999999959999997  0.5000000089999972  0.3521400150000034
  0.2499999959999997  0.5000000089999972  0.6478599849999966
  0.2499999959999997  0.5000000089999972  0.3521400150000034
  0.5000000280000023  0.5000000089999972  0.6478599849999966
  0.5000000280000023  0.5000000089999972  0.3521400150000034
  0.7499999959999997  0.5000000089999972  0.6478599849999966
  0.7499999959999997  0.5000000089999972  0.3521400150000034
  0.0000000089999972  0.7500000129999975  0.6478599849999966
  0.0000000089999972  0.7500000129999975  0.3521400150000034
  0.2500000420000035  0.7500000129999975  0.6478599849999966
  0.2500000420000035  0.7500000129999975  0.3521400150000034
  0.5000000089999972  0.7500000129999975  0.6478599849999966
  0.5000000089999972  0.7500000129999975  0.3521400150000034
  0.7499999770000016  0.7500000129999975  0.6478599849999966
  0.7499999770000016  0.7500000129999975  0.3521400150000034
 
  0.00000000E+00  0.00000000E+00  0.00000000E+00
  0.00000000E+00  0.00000000E+00  0.00000000E+00
  0.00000000E+00  0.00000000E+00  0.00000000E+00
  0.00000000E+00  0.00000000E+00  0.00000000E+00
  0.00000000E+00  0.00000000E+00  0.00000000E+00
  0.00000000E+00  0.00000000E+00  0.00000000E+00
  0.00000000E+00  0.00000000E+00  0.00000000E+00
  0.00000000E+00  0.00000000E+00  0.00000000E+00
  0.00000000E+00  0.00000000E+00  0.00000000E+00
  0.00000000E+00  0.00000000E+00  0.00000000E+00
  0.00000000E+00  0.00000000E+00  0.00000000E+00
  0.00000000E+00  0.00000000E+00  0.00000000E+00
  0.00000000E+00  0.00000000E+00  0.00000000E+00
  0.00000000E+00  0.00000000E+00  0.00000000E+00
  0.00000000E+00  0.00000000E+00  0.00000000E+00
  0.00000000E+00  0.00000000E+00  0.00000000E+00
  0.00000000E+00  0.00000000E+00  0.00000000E+00
  0.00000000E+00  0.00000000E+00  0.00000000E+00
  0.00000000E+00  0.00000000E+00  0.00000000E+00
  0.00000000E+00  0.00000000E+00  0.00000000E+00
  0.00000000E+00  0.00000000E+00  0.00000000E+00
  0.00000000E+00  0.00000000E+00  0.00000000E+00
  0.00000000E+00  0.00000000E+00  0.00000000E+00
  0.00000000E+00  0.00000000E+00  0.00000000E+00
  0.00000000E+00  0.00000000E+00  0.00000000E+00
  0.00000000E+00  0.00000000E+00  0.00000000E+00
  0.00000000E+00  0.00000000E+00  0.00000000E+00
  0.00000000E+00  0.00000000E+00  0.00000000E+00
  0.00000000E+00  0.00000000E+00  0.00000000E+00
  0.00000000E+00  0.00000000E+00  0.00000000E+00
  0.00000000E+00  0.00000000E+00  0.00000000E+00
  0.00000000E+00  0.00000000E+00  0.00000000E+00
  0.00000000E+00  0.00000000E+00  0.00000000E+00
  0.00000000E+00  0.00000000E+00  0.00000000E+00
  0.00000000E+00  0.00000000E+00  0.00000000E+00
  0.00000000E+00  0.00000000E+00  0.00000000E+00
  0.00000000E+00  0.00000000E+00  0.00000000E+00
  0.00000000E+00  0.00000000E+00  0.00000000E+00
  0.00000000E+00  0.00000000E+00  0.00000000E+00
  0.00000000E+00  0.00000000E+00  0.00000000E+00
  0.00000000E+00  0.00000000E+00  0.00000000E+00
  0.00000000E+00  0.00000000E+00  0.00000000E+00
  0.00000000E+00  0.00000000E+00  0.00000000E+00
  0.00000000E+00  0.00000000E+00  0.00000000E+00
  0.00000000E+00  0.00000000E+00  0.00000000E+00
  0.00000000E+00  0.00000000E+00  0.00000000E+00
  0.00000000E+00  0.00000000E+00  0.00000000E+00
  0.00000000E+00  0.00000000E+00  0.00000000E+00
  0.00000000E+00  0.00000000E+00  0.00000000E+00
  0.00000000E+00  0.00000000E+00  0.00000000E+00
  0.00000000E+00  0.00000000E+00  0.00000000E+00
  0.00000000E+00  0.00000000E+00  0.00000000E+00
  0.00000000E+00  0.00000000E+00  0.00000000E+00
  0.00000000E+00  0.00000000E+00  0.00000000E+00
  0.00000000E+00  0.00000000E+00  0.00000000E+00
  0.00000000E+00  0.00000000E+00  0.00000000E+00
  0.00000000E+00  0.00000000E+00  0.00000000E+00
  0.00000000E+00  0.00000000E+00  0.00000000E+00
  0.00000000E+00  0.00000000E+00  0.00000000E+00
  0.00000000E+00  0.00000000E+00  0.00000000E+00
  0.00000000E+00  0.00000000E+00  0.00000000E+00
  0.00000000E+00  0.00000000E+00  0.00000000E+00
  0.00000000E+00  0.00000000E+00  0.00000000E+00
  0.00000000E+00  0.00000000E+00  0.00000000E+00
