CONTCAR\(2)                             
   1.00000000000000     
    11.6593999863000004    0.0000000000000000    0.0000000000000000
    -5.8296999931000002   10.0973365810000004    0.0000000000000000
     0.0000000000000000    0.0000000000000000   24.5373001098999985
   Zn   In   S    O    H 
     9    18    36     2     1
Direct
  0.1089533654434422  0.2231770705960581  0.3290453697635681
  0.4424274856304807  0.2237187484885713  0.3288704997166850
  0.7751055620721675  0.2233384718278887  0.3288865806877754
  0.1092138501117340  0.5573868998981008  0.3255997234966770
  0.4421544417149154  0.5560324688274475  0.3289255331530532
  0.7748131744138990  0.5562309880524733  0.3290085095236910
  0.1092092323985015  0.8892153684679548  0.3258887544673657
  0.4409409330962299  0.8889699522981451  0.3256649227062621
  0.7752738594284002  0.8894064090869637  0.3291401223562068
 -0.0039663064286738  0.0023654607427516  0.4809597759247423
  0.2210988108696695  0.1103485382247785  0.6461106797960089
  0.3310751547129369  0.0023160899531071  0.4833288037909465
  0.5529557582972167  0.1099757353298034  0.6463248393784361
  0.6656972322118715  0.0026016383551374  0.4797630466980816
  0.8872704517992850  0.1113752713381841  0.6444855190198864
 -0.0039887812625234  0.3331219067403983  0.4795578534741998
  0.2194890987394080  0.4459912662102125  0.6456849748772643
  0.3364753532610913  0.3377704065929371  0.4917694694222491
  0.5526094238924840  0.4458531549736399  0.6731530343806872
  0.6604510000815812  0.3381221520804475  0.4929217638772323
  0.8886281184015710  0.4459158219458585  0.6462863723091321
 -0.0033553230584325  0.6677783539704604  0.4833661604410227
  0.2204590023873090  0.7779472072802350  0.6475486393448848
  0.3308928090777402  0.6677952937014878  0.4833450753860369
  0.5521934267469011  0.7788049999520337  0.6458485758857129
  0.6604214100142067  0.6614722487005162  0.4920343284897007
  0.8878499679849164  0.7773654976191987  0.6462006282118905
  0.2206552443845652  0.1124890208305551  0.3094282402392485
  0.2155513920130626  0.1084595944531292  0.5479058130675314
  0.1158411297843342  0.2268538134542737  0.4338533634283717
  0.1090638619038102  0.2224893266860684  0.6912397150224825
  0.5528461523357912  0.1123022867408770  0.3092195523434451
  0.5533670397576103  0.1082969225587006  0.5480489668324766
  0.4448161330014493  0.2289832144134619  0.4370114454162799
  0.4323715467040912  0.2009872121808508  0.6957829142048908
  0.8864060929315308  0.1119523137304139  0.3102717656878551
  0.8860116333762303  0.1127803154205130  0.5460857032728417
  0.7704816904425442  0.2277750456680107  0.4338472690825584
  0.7768076895946924  0.2221871003028916  0.6915916728201748
  0.2204715304518829  0.4452693849688302  0.3090667840159529
  0.2149038230002191  0.4451389285092897  0.5475477202213396
  0.1092818185409656  0.5588741527214924  0.4322489566974159
  0.1090124961576038  0.5553497542826342  0.6931406512978717
  0.5531993248919421  0.4452984693584968  0.3093181573734310
  0.5521845977971850  0.4459891024687977  0.5632719216509404
  0.4440681565699153  0.5543581592759654  0.4366499486091679
  0.4298463268097101  0.5683538594731181  0.6956506846258852
  0.8858791068660989  0.4454909057209773  0.3091487347595891
  0.8902173777164580  0.4451967809065972  0.5479743951508652
  0.7698233570953965  0.5539878830870536  0.4370739315145091
  0.7972301154772586  0.5660618344405054  0.6956915415030224
  0.2197500540794159  0.7786388201429170  0.3051661862758651
  0.2198383182389957  0.7789134357041271  0.5484936626724991
  0.1090889367008833  0.8896171190252945  0.4326664637074038
  0.1089118392218270  0.8895358394974285  0.6928657131025764
  0.5530556735617533  0.7777446571804523  0.3091976898896817
  0.5534202515255053  0.7836386665554441  0.5476576468092399
  0.4399124983935221  0.8894290464013987  0.4323109785346350
  0.4430751564009958  0.8895777275616060  0.6932246682886368
  0.8859994537906035  0.7778405522404114  0.3092346626149087
  0.8900209971887646  0.7827513924335134  0.5479966047272151
  0.7713516013420472  0.8821884317912840  0.4340268071730549
  0.7760314971651801  0.8896881180049504  0.6912516819979418
  0.5406093142840662  0.4587902950122242  0.7614637535644050
  0.6096350990403886  0.3980134447258385  0.7875852488872995
  0.5587038344233857  0.3666804838147838  0.8214487283372095
 
  0.00000000E+00  0.00000000E+00  0.00000000E+00
  0.00000000E+00  0.00000000E+00  0.00000000E+00
  0.00000000E+00  0.00000000E+00  0.00000000E+00
  0.00000000E+00  0.00000000E+00  0.00000000E+00
  0.00000000E+00  0.00000000E+00  0.00000000E+00
  0.00000000E+00  0.00000000E+00  0.00000000E+00
  0.00000000E+00  0.00000000E+00  0.00000000E+00
  0.00000000E+00  0.00000000E+00  0.00000000E+00
  0.00000000E+00  0.00000000E+00  0.00000000E+00
  0.00000000E+00  0.00000000E+00  0.00000000E+00
  0.00000000E+00  0.00000000E+00  0.00000000E+00
  0.00000000E+00  0.00000000E+00  0.00000000E+00
  0.00000000E+00  0.00000000E+00  0.00000000E+00
  0.00000000E+00  0.00000000E+00  0.00000000E+00
  0.00000000E+00  0.00000000E+00  0.00000000E+00
  0.00000000E+00  0.00000000E+00  0.00000000E+00
  0.00000000E+00  0.00000000E+00  0.00000000E+00
  0.00000000E+00  0.00000000E+00  0.00000000E+00
  0.00000000E+00  0.00000000E+00  0.00000000E+00
  0.00000000E+00  0.00000000E+00  0.00000000E+00
  0.00000000E+00  0.00000000E+00  0.00000000E+00
  0.00000000E+00  0.00000000E+00  0.00000000E+00
  0.00000000E+00  0.00000000E+00  0.00000000E+00
  0.00000000E+00  0.00000000E+00  0.00000000E+00
  0.00000000E+00  0.00000000E+00  0.00000000E+00
  0.00000000E+00  0.00000000E+00  0.00000000E+00
  0.00000000E+00  0.00000000E+00  0.00000000E+00
  0.00000000E+00  0.00000000E+00  0.00000000E+00
  0.00000000E+00  0.00000000E+00  0.00000000E+00
  0.00000000E+00  0.00000000E+00  0.00000000E+00
  0.00000000E+00  0.00000000E+00  0.00000000E+00
  0.00000000E+00  0.00000000E+00  0.00000000E+00
  0.00000000E+00  0.00000000E+00  0.00000000E+00
  0.00000000E+00  0.00000000E+00  0.00000000E+00
  0.00000000E+00  0.00000000E+00  0.00000000E+00
  0.00000000E+00  0.00000000E+00  0.00000000E+00
  0.00000000E+00  0.00000000E+00  0.00000000E+00
  0.00000000E+00  0.00000000E+00  0.00000000E+00
  0.00000000E+00  0.00000000E+00  0.00000000E+00
  0.00000000E+00  0.00000000E+00  0.00000000E+00
  0.00000000E+00  0.00000000E+00  0.00000000E+00
  0.00000000E+00  0.00000000E+00  0.00000000E+00
  0.00000000E+00  0.00000000E+00  0.00000000E+00
  0.00000000E+00  0.00000000E+00  0.00000000E+00
  0.00000000E+00  0.00000000E+00  0.00000000E+00
  0.00000000E+00  0.00000000E+00  0.00000000E+00
  0.00000000E+00  0.00000000E+00  0.00000000E+00
  0.00000000E+00  0.00000000E+00  0.00000000E+00
  0.00000000E+00  0.00000000E+00  0.00000000E+00
  0.00000000E+00  0.00000000E+00  0.00000000E+00
  0.00000000E+00  0.00000000E+00  0.00000000E+00
  0.00000000E+00  0.00000000E+00  0.00000000E+00
  0.00000000E+00  0.00000000E+00  0.00000000E+00
  0.00000000E+00  0.00000000E+00  0.00000000E+00
  0.00000000E+00  0.00000000E+00  0.00000000E+00
  0.00000000E+00  0.00000000E+00  0.00000000E+00
  0.00000000E+00  0.00000000E+00  0.00000000E+00
  0.00000000E+00  0.00000000E+00  0.00000000E+00
  0.00000000E+00  0.00000000E+00  0.00000000E+00
  0.00000000E+00  0.00000000E+00  0.00000000E+00
  0.00000000E+00  0.00000000E+00  0.00000000E+00
  0.00000000E+00  0.00000000E+00  0.00000000E+00
  0.00000000E+00  0.00000000E+00  0.00000000E+00
  0.00000000E+00  0.00000000E+00  0.00000000E+00
  0.00000000E+00  0.00000000E+00  0.00000000E+00
  0.00000000E+00  0.00000000E+00  0.00000000E+00
