CONTCAR\(12)                            
   1.00000000000000     
    21.4713001251000009    0.0000000000000000    0.0000000000000000
    10.7356067371999995   19.1142855119999986    0.0000000000000000
     0.0000000000000000    0.0000000000000000   19.1464004516999999
   Ta   Te   O 
    36    72     1
Direct
  0.4044918531195237  0.3547267520189824  0.5001626301245934
  0.2590928567024532  0.1454021709003689  0.4994906448671365
  0.0953437815035564  0.1454198037375382  0.4995652407293054
  0.2411564433676216  0.3559918033349321  0.5010425312374597
  0.4292087365902265  0.1435516558166964  0.4977266162196943
  0.0721384845931115  0.3556678124138658  0.5028095748087846
  0.0984462618525699  0.0002713511763528  0.5021583676582837
  0.4011434758122549  0.0004001598838478  0.5019570251949987
  0.2493427084799595  0.0012258534747316  0.5014062609888423
  0.9027892736828439  0.3560376486652647  0.5009767923710333
  0.7598130688789946  0.1421316244592584  0.4995838005045725
  0.5979360889147605  0.1422115290737854  0.4995708421709209
  0.7407551946027850  0.3548328972507496  0.5001489247134432
  0.9271528542562943  0.1435314548772749  0.4978765689005734
  0.5730936209706005  0.3538931131716723  0.5006440034703834
  0.5987066564981017  0.9990682003504284  0.5019767095859314
  0.9022245657083872  0.9990823397615798  0.5020741433996444
  0.7504613971463829  0.9991115235262897  0.5013983399854759
  0.3962003144030279  0.8621008795322298  0.5038204642141831
  0.2638534246753936  0.6374765817657462  0.4984387880610233
  0.0992774980900862  0.6427412972448949  0.5012451406205255
  0.2417730439421111  0.8620456980728994  0.5039414347743943
  0.4307042281257497  0.6385813419830829  0.4801554944848592
  0.0740952424842418  0.8576480327860280  0.5096965333966426
  0.0991393352709931  0.4995679056395907  0.5011707719328088
  0.4021318189189543  0.4985614850657534  0.4963215994950906
  0.2513342717699104  0.4990851482026393  0.4998256568789486
  0.9051009151053111  0.8551097968874349  0.5031080595420224
  0.7579108076083427  0.6428270278584540  0.5010556512177305
  0.5986787269987893  0.6375918197195074  0.4983303777980055
  0.7397980302411363  0.8551733568559192  0.5030413872777625
  0.9283055686988626  0.6433817851540308  0.4995548036896161
  0.5683432122134936  0.8576798596623877  0.5094364827072254
  0.5993170658464942  0.4986699751916757  0.4962934822859842
  0.9012267431378430  0.4996807020363391  0.5011306967133747
  0.7495552831340468  0.4991959682655067  0.4997484057937385
  0.4725694000803065  0.2230579193029940  0.5800644389827075
  0.1949527944629434  0.2770886266064704  0.4197882136158952
  0.0278780772763287  0.2770539407682238  0.4197443708066252
  0.3053147496015695  0.2242832334729462  0.5800571919580623
  0.3628744684608939  0.2740781176050763  0.4184341169856901
  0.1371519107263477  0.2256916388264444  0.5823464410732738
  0.3575777495787378  0.4433383056704041  0.3900303815940398
  0.3024177805563951  0.0569388682968450  0.6093412880292126
  0.1406447501708029  0.0569225609066973  0.6094334633648216
  0.1946523560993175  0.1104324294799678  0.3946961441651856
  0.3061419320849927  0.3898873029322021  0.6060920727747909
  0.3614853616009064  0.1075201721034286  0.3963631896627883
  0.4698346351747578  0.3924806178002163  0.6027075286782867
  0.1399302362769226  0.3911486045291298  0.6050886875846821
  0.0308918167249728  0.1072802424951997  0.3965559836999044
  0.0226788332581113  0.4546399400953984  0.4054545927686056
  0.4765957813576213  0.0476072447603955  0.5976286114788514
  0.1955387102772786  0.4464836023429803  0.3921145620380539
  0.9702995275554931  0.2243883732391308  0.5800288909444412
  0.6966403186987595  0.2737120949473447  0.4195903113211664
  0.5296721863816807  0.2737401106392437  0.4195142965768202
  0.8042309679229468  0.2231394634246208  0.5801074562376830
  0.8629576236701039  0.2740661769035831  0.4184753685581525
  0.6383135552957607  0.2233757346969022  0.5819805444251248
  0.8580141276494576  0.4465009770412644  0.3920855908804044
  0.8040647843419622  0.0525564277108174  0.6095376964977353
  0.6433765276164845  0.0525364964413952  0.6094936047446683
  0.6966790581025306  0.1065848061812513  0.3938127222207742
  0.8039794064820486  0.3899448937911562  0.6060507576937137
  0.8623106950571573  0.1050431803137358  0.3959427355135994
  0.9688147559128107  0.3912487860438947  0.6049985849768346
  0.6376572564414476  0.3926643388553753  0.6026726439401930
  0.5325766604463017  0.1050707118679712  0.3958968916047891
  0.5249788067155186  0.4500521428893706  0.4007922007365480
  0.9758282969376013  0.0475892653204934  0.5977940063943467
  0.6990873971758021  0.4433896234051876  0.3899623113625704
  0.4603576409608816  0.7260103194703204  0.5670294067324799
  0.2011591662154568  0.7734406773118849  0.4329801484999143
  0.0314746574273371  0.7760419855873012  0.4253221575990276
  0.3139306478811940  0.7259539089371703  0.5672701251733370
  0.3604688869460731  0.7790292477833743  0.4132579414575696
  0.1416582934205509  0.7231066884589370  0.5816030323378618
  0.3562621182331634  0.9485801749132389  0.3924131001643059
  0.3074377737451467  0.5500488616621010  0.6082227211463015
  0.1445982072080304  0.5516263535850725  0.6095330824391318
  0.1958460710936793  0.6071910597291870  0.3936958633311634
  0.3010058960899259  0.8981272609723169  0.6119230431094844
  0.3589089654663436  0.6030094834454871  0.3861187898691213
  0.4642608957573312  0.8954933960016173  0.6096899016391986
  0.1404548096366226  0.8953304297887905  0.6099533765812210
  0.0315175829371197  0.6087209684388495  0.3976459776009825
  0.0257388663254640  0.9504699412180995  0.4068373729960461
  0.4749190947029265  0.5502108674385251  0.5882043654176110
  0.1950687699507231  0.9484856040804557  0.3925120344486644
  0.9725778038543393  0.7228406556137382  0.5813211703191470
  0.6926047636559290  0.7761286662864366  0.4251193988748988
  0.5253863455350316  0.7736130102932698  0.4326968094022349
  0.8045972357090306  0.7229211694212144  0.5812601812423276
  0.8627407038773325  0.7745866357416137  0.4218415510252889
  0.6352917351361419  0.7232334912575962  0.5814449296195467
  0.8584061073852683  0.9451768975028201  0.3938187524737381
  0.8036641459778820  0.5518205589952916  0.6094324572224582
  0.6425324410094336  0.5501889954087710  0.6081787779833558
  0.6969630826475320  0.6072387078645254  0.3934735756480810
  0.8051054099011428  0.8897463907601068  0.6076742273592883
  0.8598170888314002  0.6087780860610348  0.3975492440810640
  0.9689829119917961  0.8920365795617312  0.6084775240891283
  0.6389927905837672  0.8920078525035747  0.6083947067655431
  0.5380332744198220  0.6030543112252001  0.3861108603005192
  0.5236751068487450  0.9506197211532629  0.4066812334990074
  0.9773795429372518  0.5452325945160326  0.5975518217709065
  0.6965175490261866  0.9451855976656608  0.3936985324269945
  0.3884274161556978  0.7236524358198413  0.6398698676470063
 
  0.00000000E+00  0.00000000E+00  0.00000000E+00
  0.00000000E+00  0.00000000E+00  0.00000000E+00
  0.00000000E+00  0.00000000E+00  0.00000000E+00
  0.00000000E+00  0.00000000E+00  0.00000000E+00
  0.00000000E+00  0.00000000E+00  0.00000000E+00
  0.00000000E+00  0.00000000E+00  0.00000000E+00
  0.00000000E+00  0.00000000E+00  0.00000000E+00
  0.00000000E+00  0.00000000E+00  0.00000000E+00
  0.00000000E+00  0.00000000E+00  0.00000000E+00
  0.00000000E+00  0.00000000E+00  0.00000000E+00
  0.00000000E+00  0.00000000E+00  0.00000000E+00
  0.00000000E+00  0.00000000E+00  0.00000000E+00
  0.00000000E+00  0.00000000E+00  0.00000000E+00
  0.00000000E+00  0.00000000E+00  0.00000000E+00
  0.00000000E+00  0.00000000E+00  0.00000000E+00
  0.00000000E+00  0.00000000E+00  0.00000000E+00
  0.00000000E+00  0.00000000E+00  0.00000000E+00
  0.00000000E+00  0.00000000E+00  0.00000000E+00
  0.00000000E+00  0.00000000E+00  0.00000000E+00
  0.00000000E+00  0.00000000E+00  0.00000000E+00
  0.00000000E+00  0.00000000E+00  0.00000000E+00
  0.00000000E+00  0.00000000E+00  0.00000000E+00
  0.00000000E+00  0.00000000E+00  0.00000000E+00
  0.00000000E+00  0.00000000E+00  0.00000000E+00
  0.00000000E+00  0.00000000E+00  0.00000000E+00
  0.00000000E+00  0.00000000E+00  0.00000000E+00
  0.00000000E+00  0.00000000E+00  0.00000000E+00
  0.00000000E+00  0.00000000E+00  0.00000000E+00
  0.00000000E+00  0.00000000E+00  0.00000000E+00
  0.00000000E+00  0.00000000E+00  0.00000000E+00
  0.00000000E+00  0.00000000E+00  0.00000000E+00
  0.00000000E+00  0.00000000E+00  0.00000000E+00
  0.00000000E+00  0.00000000E+00  0.00000000E+00
  0.00000000E+00  0.00000000E+00  0.00000000E+00
  0.00000000E+00  0.00000000E+00  0.00000000E+00
  0.00000000E+00  0.00000000E+00  0.00000000E+00
  0.00000000E+00  0.00000000E+00  0.00000000E+00
  0.00000000E+00  0.00000000E+00  0.00000000E+00
  0.00000000E+00  0.00000000E+00  0.00000000E+00
  0.00000000E+00  0.00000000E+00  0.00000000E+00
  0.00000000E+00  0.00000000E+00  0.00000000E+00
  0.00000000E+00  0.00000000E+00  0.00000000E+00
  0.00000000E+00  0.00000000E+00  0.00000000E+00
  0.00000000E+00  0.00000000E+00  0.00000000E+00
  0.00000000E+00  0.00000000E+00  0.00000000E+00
  0.00000000E+00  0.00000000E+00  0.00000000E+00
  0.00000000E+00  0.00000000E+00  0.00000000E+00
  0.00000000E+00  0.00000000E+00  0.00000000E+00
  0.00000000E+00  0.00000000E+00  0.00000000E+00
  0.00000000E+00  0.00000000E+00  0.00000000E+00
  0.00000000E+00  0.00000000E+00  0.00000000E+00
  0.00000000E+00  0.00000000E+00  0.00000000E+00
  0.00000000E+00  0.00000000E+00  0.00000000E+00
  0.00000000E+00  0.00000000E+00  0.00000000E+00
  0.00000000E+00  0.00000000E+00  0.00000000E+00
  0.00000000E+00  0.00000000E+00  0.00000000E+00
  0.00000000E+00  0.00000000E+00  0.00000000E+00
  0.00000000E+00  0.00000000E+00  0.00000000E+00
  0.00000000E+00  0.00000000E+00  0.00000000E+00
  0.00000000E+00  0.00000000E+00  0.00000000E+00
  0.00000000E+00  0.00000000E+00  0.00000000E+00
  0.00000000E+00  0.00000000E+00  0.00000000E+00
  0.00000000E+00  0.00000000E+00  0.00000000E+00
  0.00000000E+00  0.00000000E+00  0.00000000E+00
  0.00000000E+00  0.00000000E+00  0.00000000E+00
  0.00000000E+00  0.00000000E+00  0.00000000E+00
  0.00000000E+00  0.00000000E+00  0.00000000E+00
  0.00000000E+00  0.00000000E+00  0.00000000E+00
  0.00000000E+00  0.00000000E+00  0.00000000E+00
  0.00000000E+00  0.00000000E+00  0.00000000E+00
  0.00000000E+00  0.00000000E+00  0.00000000E+00
  0.00000000E+00  0.00000000E+00  0.00000000E+00
  0.00000000E+00  0.00000000E+00  0.00000000E+00
  0.00000000E+00  0.00000000E+00  0.00000000E+00
  0.00000000E+00  0.00000000E+00  0.00000000E+00
  0.00000000E+00  0.00000000E+00  0.00000000E+00
  0.00000000E+00  0.00000000E+00  0.00000000E+00
  0.00000000E+00  0.00000000E+00  0.00000000E+00
  0.00000000E+00  0.00000000E+00  0.00000000E+00
  0.00000000E+00  0.00000000E+00  0.00000000E+00
  0.00000000E+00  0.00000000E+00  0.00000000E+00
  0.00000000E+00  0.00000000E+00  0.00000000E+00
  0.00000000E+00  0.00000000E+00  0.00000000E+00
  0.00000000E+00  0.00000000E+00  0.00000000E+00
  0.00000000E+00  0.00000000E+00  0.00000000E+00
  0.00000000E+00  0.00000000E+00  0.00000000E+00
  0.00000000E+00  0.00000000E+00  0.00000000E+00
  0.00000000E+00  0.00000000E+00  0.00000000E+00
  0.00000000E+00  0.00000000E+00  0.00000000E+00
  0.00000000E+00  0.00000000E+00  0.00000000E+00
  0.00000000E+00  0.00000000E+00  0.00000000E+00
  0.00000000E+00  0.00000000E+00  0.00000000E+00
  0.00000000E+00  0.00000000E+00  0.00000000E+00
  0.00000000E+00  0.00000000E+00  0.00000000E+00
  0.00000000E+00  0.00000000E+00  0.00000000E+00
  0.00000000E+00  0.00000000E+00  0.00000000E+00
  0.00000000E+00  0.00000000E+00  0.00000000E+00
  0.00000000E+00  0.00000000E+00  0.00000000E+00
  0.00000000E+00  0.00000000E+00  0.00000000E+00
  0.00000000E+00  0.00000000E+00  0.00000000E+00
  0.00000000E+00  0.00000000E+00  0.00000000E+00
  0.00000000E+00  0.00000000E+00  0.00000000E+00
  0.00000000E+00  0.00000000E+00  0.00000000E+00
  0.00000000E+00  0.00000000E+00  0.00000000E+00
  0.00000000E+00  0.00000000E+00  0.00000000E+00
  0.00000000E+00  0.00000000E+00  0.00000000E+00
  0.00000000E+00  0.00000000E+00  0.00000000E+00
  0.00000000E+00  0.00000000E+00  0.00000000E+00
  0.00000000E+00  0.00000000E+00  0.00000000E+00
