CONTCAR\(6)                             
   1.00000000000000     
    12.5569000244000009    0.0000000000000000    0.0000000000000000
     0.0000000000000000   12.5685997009000001    0.0000000000000000
     0.0000000000000000    0.0000000000000000   19.2248001098999985
   Cu   Ag   Te   O    H 
    12    12    24     2     1
Selective dynamics
Direct
  0.1573391948394018  0.9936531419300110  0.5303704849803097   F   F   F
  0.3674962857176141  0.9972839508560298  0.5158796356063675   F   F   F
  0.6619901859841519  0.9933407610561602  0.5251472135386521   F   F   F
  0.8751781829488081  0.9937856069365836  0.5058258341098067   F   F   F
  0.1094193833250330  0.3266743983449985  0.5583339141932129   F   F   F
  0.3955309235365547  0.3237317058891946  0.5696123004677460   F   F   F
  0.6103508540541043  0.3240315651560195  0.5627660560896217   F   F   F
  0.9051086503429318  0.3268759910977010  0.5217145894098891   F   F   F
  0.1605877389660577  0.6593609152351618  0.5269408340480410   F   F   F
  0.3739347499857075  0.6575162709036206  0.5143312602857648   F   F   F
  0.6350789050455745  0.6498619799567606  0.5108528563068191   F   F   F
  0.8725509642961882  0.6588623154792046  0.5030037098017246   F   F   F
  0.0310178460901014  0.1544978697557511  0.4732060649481795   F   F   F
  0.2588667143945997  0.2073344755588522  0.4850666027265049   F   F   F
  0.4993770454476305  0.1720822883139164  0.4892381423945480   F   F   F
  0.7321178389026741  0.1926749323001573  0.4766404250316754   F   F   F
  0.0301303651483877  0.4993889612043461  0.4732865297009852   F   F   F
  0.2574073862812583  0.4470710911130737  0.4822755018206166   F   F   F
  0.5005051471533051  0.4652483300223906  0.4779133238610314   F   F   F
  0.7347458586997533  0.4541733467493501  0.4735868502438834   F   F   F
  0.0141289727689227  0.8284649289371515  0.4669619619497425   F   F   F
  0.2479095027033296  0.8287603220599848  0.4613952043477667   F   F   F
  0.5009590304403559  0.8443279045060663  0.4651453282258871   F   F   F
  0.7341397183245277  0.8197618314279325  0.4574230644230113   F   F   F
  0.9755446611806065  0.9970792624156601  0.3783036610348702   F   F   F
  0.1255202656218017  0.1485281297558600  0.6170431718357392   F   F   F
  0.2376507517449653  0.0215621824136036  0.3971576295588051   F   F   F
  0.3742437360164246  0.1380610320786815  0.6167558613738962   F   F   F
  0.4768962208633738  0.0230485676862813  0.3862803662797916   F   F   F
  0.6300541903968409  0.1424299950995973  0.6162174991595464   F   F   F
  0.7417824707685199  0.0086079289483578  0.3883220719495029   F   F   F
  0.8791167291678974  0.1532474456674535  0.5929619221577980   F   F   F
  0.9952886689084792  0.3271607097900642  0.3870805058491058   F   F   F
  0.1272454403577541  0.5060247358376486  0.6151917159601297   F   F   F
  0.2799935436074747  0.3233863869336489  0.3644300614650504   F   F   F
  0.3773383545443707  0.5105811238442257  0.6116565007887189   F   F   F
  0.5062706973091977  0.3177686271554876  0.3730058995783736   F   F   F
  0.6309212679025649  0.5081982866695185  0.6104921167876256   F   F   F
  0.7699152152683126  0.3192215025203495  0.3629320297411383   F   F   F
  0.8784101293837736  0.5021251720627973  0.5920298624563216   F   F   F
  0.9840769550477049  0.6583834174034990  0.3781098725718124   F   F   F
  0.1220936428731605  0.8244726696032600  0.6051042739574086   F   F   F
  0.2424774615194920  0.6360592964298775  0.3971287273799078   F   F   F
  0.3821079630281972  0.8268081495030728  0.5966790174910486   F   F   F
  0.4915259521281143  0.6518200311046201  0.3967307386488912   F   F   F
  0.6252055060549253  0.8183379711731575  0.5968182289059456   F   F   F
  0.7499988877890686  0.6347614208294416  0.3831990137998389   F   F   F
  0.8791083331478902  0.8246485649893458  0.5887560052840826   F   F   F
  0.5186049304425566  0.4280014069807763  0.2852836958875002   T   T   T
  0.4199721601031356  0.4741459573376687  0.2632127594910898   T   T   T
  0.4202144474264387  0.5427150339756607  0.2880183509115772   T   T   T
 
  0.00000000E+00  0.00000000E+00  0.00000000E+00
  0.00000000E+00  0.00000000E+00  0.00000000E+00
  0.00000000E+00  0.00000000E+00  0.00000000E+00
  0.00000000E+00  0.00000000E+00  0.00000000E+00
  0.00000000E+00  0.00000000E+00  0.00000000E+00
  0.00000000E+00  0.00000000E+00  0.00000000E+00
  0.00000000E+00  0.00000000E+00  0.00000000E+00
  0.00000000E+00  0.00000000E+00  0.00000000E+00
  0.00000000E+00  0.00000000E+00  0.00000000E+00
  0.00000000E+00  0.00000000E+00  0.00000000E+00
  0.00000000E+00  0.00000000E+00  0.00000000E+00
  0.00000000E+00  0.00000000E+00  0.00000000E+00
  0.00000000E+00  0.00000000E+00  0.00000000E+00
  0.00000000E+00  0.00000000E+00  0.00000000E+00
  0.00000000E+00  0.00000000E+00  0.00000000E+00
  0.00000000E+00  0.00000000E+00  0.00000000E+00
  0.00000000E+00  0.00000000E+00  0.00000000E+00
  0.00000000E+00  0.00000000E+00  0.00000000E+00
  0.00000000E+00  0.00000000E+00  0.00000000E+00
  0.00000000E+00  0.00000000E+00  0.00000000E+00
  0.00000000E+00  0.00000000E+00  0.00000000E+00
  0.00000000E+00  0.00000000E+00  0.00000000E+00
  0.00000000E+00  0.00000000E+00  0.00000000E+00
  0.00000000E+00  0.00000000E+00  0.00000000E+00
  0.00000000E+00  0.00000000E+00  0.00000000E+00
  0.00000000E+00  0.00000000E+00  0.00000000E+00
  0.00000000E+00  0.00000000E+00  0.00000000E+00
  0.00000000E+00  0.00000000E+00  0.00000000E+00
  0.00000000E+00  0.00000000E+00  0.00000000E+00
  0.00000000E+00  0.00000000E+00  0.00000000E+00
  0.00000000E+00  0.00000000E+00  0.00000000E+00
  0.00000000E+00  0.00000000E+00  0.00000000E+00
  0.00000000E+00  0.00000000E+00  0.00000000E+00
  0.00000000E+00  0.00000000E+00  0.00000000E+00
  0.00000000E+00  0.00000000E+00  0.00000000E+00
  0.00000000E+00  0.00000000E+00  0.00000000E+00
  0.00000000E+00  0.00000000E+00  0.00000000E+00
  0.00000000E+00  0.00000000E+00  0.00000000E+00
  0.00000000E+00  0.00000000E+00  0.00000000E+00
  0.00000000E+00  0.00000000E+00  0.00000000E+00
  0.00000000E+00  0.00000000E+00  0.00000000E+00
  0.00000000E+00  0.00000000E+00  0.00000000E+00
  0.00000000E+00  0.00000000E+00  0.00000000E+00
  0.00000000E+00  0.00000000E+00  0.00000000E+00
  0.00000000E+00  0.00000000E+00  0.00000000E+00
  0.00000000E+00  0.00000000E+00  0.00000000E+00
  0.00000000E+00  0.00000000E+00  0.00000000E+00
  0.00000000E+00  0.00000000E+00  0.00000000E+00
  0.00000000E+00  0.00000000E+00  0.00000000E+00
  0.00000000E+00  0.00000000E+00  0.00000000E+00
  0.00000000E+00  0.00000000E+00  0.00000000E+00
