CONTCAR\(4)                             
   1.00000000000000     
    12.3037004471000007    0.0000000000000000    0.0000000000000000
     6.1518502235000003   10.6553171476999999    0.0000000000000000
     0.0000000000000000    0.0000000000000000   24.8090991973999984
   Mn   In   Se   O    H 
     9    18    36     2     1
Direct
  0.2114620998625893  0.2271803652829106  0.3290719494130576
  0.5450841971217286  0.2267451007282577  0.3291806654239021
  0.8775789596588979  0.2273781840059259  0.3294467138249160
  0.2115167146495878  0.5601469776336693  0.3292839742741407
  0.5452871799568381  0.5594735488184589  0.3282041526565931
  0.8778199175094828  0.5607835547720772  0.3305168103334979
  0.2108836752919749  0.8937616500124567  0.3265812657510029
  0.5448168994142750  0.8940431748173924  0.3280370545033904
  0.8772495774991551  0.8943041068422218  0.3293302540538544
 -0.0100608629540195  0.0038454961694666  0.4864146632610659
  0.1110946467204989  0.1051369630738023  0.6539152952239415
  0.3228509702976179  0.0021893191211811  0.4848765711566255
  0.4368482824546631  0.1107240081320353  0.6559091687569604
  0.6563265911545509  0.0034397463530884  0.4893198720158554
  0.7712839092841330  0.1108527899173369  0.6562262016387109
 -0.0119095107697588  0.3400997541009753  0.4896679234800360
  0.1025633810055089  0.4445874052284537  0.6582012455433148
  0.3250115786146351  0.3357726721991244  0.4880744343511431
  0.4372409860106160  0.4476385945044912  0.6559831788657937
  0.6565158844380603  0.3368545112401435  0.4892758925582113
  0.7762713586891553  0.4418950497507586  0.6587919980039603
 -0.0113516555478867  0.6705326354535782  0.4895699279095789
  0.1091397036792945  0.7737217175298157  0.6542902481915848
  0.3240192727880595  0.6709317095704921  0.4856592792496769
  0.4688103158467255  0.7634522004194819  0.6546850583535891
  0.6496658870789075  0.6741179472183982  0.4892342697745332
  0.7742425185178901  0.7743829701329632  0.6587917645290358
 -0.0127025212840387  0.0058618942552219  0.2997732021163808
 -0.0041972580360053 -0.0026752175075173  0.7020723671334659
  0.2104371828552729  0.2278749291422019  0.4323430672099079
  0.1016261557156436  0.1130833566550073  0.5499912129651239
  0.3224645893184584  0.0055047345101297  0.2994911625428641
  0.3308031238678974 -0.0056927857055545  0.7019265000348465
  0.5467015351862938  0.2252126223272795  0.4324664543489445
  0.4337284985034516  0.1134792727611539  0.5517382986407212
  0.6558694088985360  0.0052907678756764  0.2994999211448530
  0.6595086517709905  0.0006800201861118  0.7044544960979626
  0.8777550051395401  0.2282129770504992  0.4327322520464212
  0.7688662542893687  0.1137067741035132  0.5523185789754655
 -0.0113355101922387  0.3388742259853918  0.3011892524321509
  0.0011677986105164  0.3228587457523017  0.7046110666904810
  0.2110260273009054  0.5587954722290833  0.4325138152638643
  0.1024492159700485  0.4473620365623673  0.5535462516997094
  0.3229280016503852  0.3380023822646752  0.3004900531245867
  0.3284714281827096  0.3331996247853176  0.7039085682128732
  0.5474460842751340  0.5568017767252375  0.4314446084891320
  0.4345126918674334  0.4477589379895701  0.5518403429741570
  0.6562307249415533  0.3372216993991583  0.2996316463116862
  0.6597990711465843  0.3329978369207592  0.7046803763600415
  0.8751818446548496  0.5617552423732800  0.4337924738835572
  0.7652040764172545  0.4505921884488207  0.5544581865747621
 -0.0111578176804819  0.6716695220037889  0.3012207639046944
 -0.0014061026542700  0.6668448417253984  0.7050683081554990
  0.2100540289487753  0.8928965433838645  0.4294225674797177
  0.1019972553317313  0.7814322638599248  0.5502907095255434
  0.3229969504452744  0.6702801414321787  0.2996299347183810
  0.3298745777622664  0.6702067945067672  0.7013626030865556
  0.5468822664141394  0.8935801884665254  0.4313009230781431
  0.4269176845453314  0.7850930792242317  0.5491163498127110
  0.6564321675292977  0.6711565271415617  0.3003937070569820
  0.6825907331986349  0.6541986124915440  0.7145801059039557
  0.8776632391854525  0.8923039700598884  0.4325885038535833
  0.7663058949217171  0.7806622468191772  0.5542026028284658
  0.8470186193599835  0.6287687106573218  0.8122805545018388
  0.8578326179966927  0.5556976219528630  0.7650033021633043
  0.8184237003717552  0.5905179501562656  0.8393550835586264
 
  0.00000000E+00  0.00000000E+00  0.00000000E+00
  0.00000000E+00  0.00000000E+00  0.00000000E+00
  0.00000000E+00  0.00000000E+00  0.00000000E+00
  0.00000000E+00  0.00000000E+00  0.00000000E+00
  0.00000000E+00  0.00000000E+00  0.00000000E+00
  0.00000000E+00  0.00000000E+00  0.00000000E+00
  0.00000000E+00  0.00000000E+00  0.00000000E+00
  0.00000000E+00  0.00000000E+00  0.00000000E+00
  0.00000000E+00  0.00000000E+00  0.00000000E+00
  0.00000000E+00  0.00000000E+00  0.00000000E+00
  0.00000000E+00  0.00000000E+00  0.00000000E+00
  0.00000000E+00  0.00000000E+00  0.00000000E+00
  0.00000000E+00  0.00000000E+00  0.00000000E+00
  0.00000000E+00  0.00000000E+00  0.00000000E+00
  0.00000000E+00  0.00000000E+00  0.00000000E+00
  0.00000000E+00  0.00000000E+00  0.00000000E+00
  0.00000000E+00  0.00000000E+00  0.00000000E+00
  0.00000000E+00  0.00000000E+00  0.00000000E+00
  0.00000000E+00  0.00000000E+00  0.00000000E+00
  0.00000000E+00  0.00000000E+00  0.00000000E+00
  0.00000000E+00  0.00000000E+00  0.00000000E+00
  0.00000000E+00  0.00000000E+00  0.00000000E+00
  0.00000000E+00  0.00000000E+00  0.00000000E+00
  0.00000000E+00  0.00000000E+00  0.00000000E+00
  0.00000000E+00  0.00000000E+00  0.00000000E+00
  0.00000000E+00  0.00000000E+00  0.00000000E+00
  0.00000000E+00  0.00000000E+00  0.00000000E+00
  0.00000000E+00  0.00000000E+00  0.00000000E+00
  0.00000000E+00  0.00000000E+00  0.00000000E+00
  0.00000000E+00  0.00000000E+00  0.00000000E+00
  0.00000000E+00  0.00000000E+00  0.00000000E+00
  0.00000000E+00  0.00000000E+00  0.00000000E+00
  0.00000000E+00  0.00000000E+00  0.00000000E+00
  0.00000000E+00  0.00000000E+00  0.00000000E+00
  0.00000000E+00  0.00000000E+00  0.00000000E+00
  0.00000000E+00  0.00000000E+00  0.00000000E+00
  0.00000000E+00  0.00000000E+00  0.00000000E+00
  0.00000000E+00  0.00000000E+00  0.00000000E+00
  0.00000000E+00  0.00000000E+00  0.00000000E+00
  0.00000000E+00  0.00000000E+00  0.00000000E+00
  0.00000000E+00  0.00000000E+00  0.00000000E+00
  0.00000000E+00  0.00000000E+00  0.00000000E+00
  0.00000000E+00  0.00000000E+00  0.00000000E+00
  0.00000000E+00  0.00000000E+00  0.00000000E+00
  0.00000000E+00  0.00000000E+00  0.00000000E+00
  0.00000000E+00  0.00000000E+00  0.00000000E+00
  0.00000000E+00  0.00000000E+00  0.00000000E+00
  0.00000000E+00  0.00000000E+00  0.00000000E+00
  0.00000000E+00  0.00000000E+00  0.00000000E+00
  0.00000000E+00  0.00000000E+00  0.00000000E+00
  0.00000000E+00  0.00000000E+00  0.00000000E+00
  0.00000000E+00  0.00000000E+00  0.00000000E+00
  0.00000000E+00  0.00000000E+00  0.00000000E+00
  0.00000000E+00  0.00000000E+00  0.00000000E+00
  0.00000000E+00  0.00000000E+00  0.00000000E+00
  0.00000000E+00  0.00000000E+00  0.00000000E+00
  0.00000000E+00  0.00000000E+00  0.00000000E+00
  0.00000000E+00  0.00000000E+00  0.00000000E+00
  0.00000000E+00  0.00000000E+00  0.00000000E+00
  0.00000000E+00  0.00000000E+00  0.00000000E+00
  0.00000000E+00  0.00000000E+00  0.00000000E+00
  0.00000000E+00  0.00000000E+00  0.00000000E+00
  0.00000000E+00  0.00000000E+00  0.00000000E+00
  0.00000000E+00  0.00000000E+00  0.00000000E+00
  0.00000000E+00  0.00000000E+00  0.00000000E+00
  0.00000000E+00  0.00000000E+00  0.00000000E+00
