CONTCAR                                 
   1.00000000000000     
    13.4303998947000007    0.0000000000000000    0.0000000000000000
     6.7152097469000003   11.6311774608000000    0.0000000000000000
     0.0000000000000000    0.0000000000000000   17.3265991210999992
   Fe   C    O 
     9    18    55
Direct
  0.0036315110287446  0.9964794287659977  0.4941784081756534
  0.3273806464774219  0.0072476537833528  0.4850928000612312
  0.6715526602556127  0.9938835326846327  0.4967519417516487
  0.0015744527770919  0.3312377034636583  0.4950666484962414
  0.3341690252878624  0.3275345943766654  0.4929438048153401
  0.6696567821240662  0.3285919041726630  0.4952114674844284
  0.0044739056693044  0.6609370153650670  0.4956980667247720
  0.3339584046192548  0.6522730317555601  0.4831132889306259
  0.6674132613425021  0.6639344022510452  0.5064779691334979
  0.2179248994285739  0.2250390928387947  0.4237766758038087
  0.1168591720555851  0.1057997044223149  0.5568963150112594
  0.5585560782559617  0.2162717706448412  0.4319159653470445
  0.4484826939648917  0.1037642687958489  0.5580587182893501
  0.8914965731243085  0.2190530070879926  0.4315694298564545
  0.7818853593455110  0.1062441216357619  0.5584607868729849
  0.2220459031482060  0.5453273764239317  0.4233313667706687
  0.1146477760600100  0.4391977132622648  0.5593563095815158
  0.5596465710957241  0.5522218077878660  0.4341935815000499
  0.4456841176134170  0.4414005002289486  0.5556095393786665
  0.8878884629875649  0.5551286979410066  0.4345680294361156
  0.7814327354565661  0.4376866391276070  0.5625141844637848
  0.2258475321419444  0.8833260915265541  0.4311328266622622
  0.1178032276524200  0.7742707211454377  0.5571477404356994
  0.5568412891280735  0.8848301602371202  0.4383242102581332
  0.3423638273167375  0.8833614715406853  0.7083856419967214
  0.8925846249528405  0.8840726058118693  0.4325604510151094
  0.7832216565744881  0.7729443071342009  0.5640212381468626
  0.1101768178497641  0.2048056213092191  0.5557754133199205
  0.1200280331672904  0.3182764204575407  0.4295393427064851
  0.3130037161602064  0.2277980509844950  0.4277108091419915
  0.0253738619986172  0.0977360801873692  0.5591626642342263
  0.2178739017298041  0.0132535109799705  0.5571303248150412
  0.2252250459065938  0.1267530793900402  0.4133196028902902
  0.4376624326254309  0.2043362072685323  0.5576961123938869
  0.4579460817734785  0.3070958770261137  0.4295740707183055
  0.6494183588614445  0.2261159123340272  0.4309343931197440
  0.3588348743772541  0.0908303860722244  0.5583013160364195
  0.5486824787191252  0.0128684809074114  0.5615010698970760
  0.5684382166127460  0.1154773092820157  0.4319185163968972
  0.7727780699816118  0.2065608394773553  0.5592986667133071
  0.7910350717620390  0.3102609852455571  0.4309245023138161
  0.9824691176818754  0.2284511586527231  0.4303385998774196
  0.6903171460704616  0.0976197427946154  0.5600723233589439
  0.8822196601915423  0.0149608869924589  0.5589916901385995
  0.9007076485749563  0.1186393141225620  0.4302677519203527
  0.1072687832770871  0.5388294536863614  0.5601031707293467
  0.1240565413735954  0.6396586621841854  0.4280803506386510
  0.3130475103152113  0.5523215638021731  0.4118762899424149
  0.0226913983070903  0.4314184782699852  0.5613545789036081
  0.2144371993122136  0.3470036312664067  0.5597374596432978
  0.2272663089374959  0.4471682238124734  0.4290546177605781
  0.4372412548729457  0.5422806156528586  0.5546127782676061
  0.4590490445242152  0.6446598574857141  0.4311294035847231
  0.6496016716922386  0.5621546543127934  0.4393442797370709
  0.3535596745913182  0.4342854135985461  0.5545790152879605
  0.5454689681070855  0.3501993949101512  0.5590263744416671
  0.5678376206259202  0.4527459172016945  0.4300649569276642
  0.7719364009844378  0.5383535572887561  0.5678528411657401
  0.7889861775772430  0.6455466352086692  0.4344008237730635
  0.9816394455859075  0.5605704262344758  0.4329458418616587
  0.6894830038156663  0.4297858128705144  0.5619738572569170
  0.8814522250147342  0.3465431257935742  0.5605168370519449
  0.8960698602703587  0.4545587604027625  0.4338300577570476
  0.1086890947793531  0.8744791001359877  0.5584798113273848
  0.1275342200722214  0.9760895437019887  0.4292536786636077
  0.3201236260287953  0.8874390047208827  0.4350445749609527
  0.0282514365603985  0.7633262674642368  0.5588893981201969
  0.2204367704269275  0.6846910487464219  0.5577700769460954
  0.2323943609451860  0.7843755238048669  0.4271290578514585
  0.4065123070940547  0.9172792800639780  0.6963064631382427
  0.4587251341522242  0.9779078957464850  0.4287414429151741
  0.6506669960329101  0.8883978309820030  0.4351022662527725
  0.2785474154792531  0.8491544668215951  0.7204382847988016
  0.5406405878549079  0.6926563592203387  0.5738053409893877
  0.5567445193811045  0.7899848550530295  0.4492222261692080
  0.7744397832583705  0.8731385218509891  0.5618491435635650
  0.7923103899834927  0.9754065353938554  0.4313331345538813
  0.9839963685219012  0.8929725711621379  0.4307282808907895
  0.6914876221254708  0.7644829935321589  0.5703903213205018
  0.8828955683469700  0.6815581201650243  0.5627693218921292
  0.9008467283642817  0.7841544930236509  0.4325646511292554
  0.5577801794785382  0.6663738757323178  0.6441843893929730
 
  0.00000000E+00  0.00000000E+00  0.00000000E+00
  0.00000000E+00  0.00000000E+00  0.00000000E+00
  0.00000000E+00  0.00000000E+00  0.00000000E+00
  0.00000000E+00  0.00000000E+00  0.00000000E+00
  0.00000000E+00  0.00000000E+00  0.00000000E+00
  0.00000000E+00  0.00000000E+00  0.00000000E+00
  0.00000000E+00  0.00000000E+00  0.00000000E+00
  0.00000000E+00  0.00000000E+00  0.00000000E+00
  0.00000000E+00  0.00000000E+00  0.00000000E+00
  0.00000000E+00  0.00000000E+00  0.00000000E+00
  0.00000000E+00  0.00000000E+00  0.00000000E+00
  0.00000000E+00  0.00000000E+00  0.00000000E+00
  0.00000000E+00  0.00000000E+00  0.00000000E+00
  0.00000000E+00  0.00000000E+00  0.00000000E+00
  0.00000000E+00  0.00000000E+00  0.00000000E+00
  0.00000000E+00  0.00000000E+00  0.00000000E+00
  0.00000000E+00  0.00000000E+00  0.00000000E+00
  0.00000000E+00  0.00000000E+00  0.00000000E+00
  0.00000000E+00  0.00000000E+00  0.00000000E+00
  0.00000000E+00  0.00000000E+00  0.00000000E+00
  0.00000000E+00  0.00000000E+00  0.00000000E+00
  0.00000000E+00  0.00000000E+00  0.00000000E+00
  0.00000000E+00  0.00000000E+00  0.00000000E+00
  0.00000000E+00  0.00000000E+00  0.00000000E+00
  0.00000000E+00  0.00000000E+00  0.00000000E+00
  0.00000000E+00  0.00000000E+00  0.00000000E+00
  0.00000000E+00  0.00000000E+00  0.00000000E+00
  0.00000000E+00  0.00000000E+00  0.00000000E+00
  0.00000000E+00  0.00000000E+00  0.00000000E+00
  0.00000000E+00  0.00000000E+00  0.00000000E+00
  0.00000000E+00  0.00000000E+00  0.00000000E+00
  0.00000000E+00  0.00000000E+00  0.00000000E+00
  0.00000000E+00  0.00000000E+00  0.00000000E+00
  0.00000000E+00  0.00000000E+00  0.00000000E+00
  0.00000000E+00  0.00000000E+00  0.00000000E+00
  0.00000000E+00  0.00000000E+00  0.00000000E+00
  0.00000000E+00  0.00000000E+00  0.00000000E+00
  0.00000000E+00  0.00000000E+00  0.00000000E+00
  0.00000000E+00  0.00000000E+00  0.00000000E+00
  0.00000000E+00  0.00000000E+00  0.00000000E+00
  0.00000000E+00  0.00000000E+00  0.00000000E+00
  0.00000000E+00  0.00000000E+00  0.00000000E+00
  0.00000000E+00  0.00000000E+00  0.00000000E+00
  0.00000000E+00  0.00000000E+00  0.00000000E+00
  0.00000000E+00  0.00000000E+00  0.00000000E+00
  0.00000000E+00  0.00000000E+00  0.00000000E+00
  0.00000000E+00  0.00000000E+00  0.00000000E+00
  0.00000000E+00  0.00000000E+00  0.00000000E+00
  0.00000000E+00  0.00000000E+00  0.00000000E+00
  0.00000000E+00  0.00000000E+00  0.00000000E+00
  0.00000000E+00  0.00000000E+00  0.00000000E+00
  0.00000000E+00  0.00000000E+00  0.00000000E+00
  0.00000000E+00  0.00000000E+00  0.00000000E+00
  0.00000000E+00  0.00000000E+00  0.00000000E+00
  0.00000000E+00  0.00000000E+00  0.00000000E+00
  0.00000000E+00  0.00000000E+00  0.00000000E+00
  0.00000000E+00  0.00000000E+00  0.00000000E+00
  0.00000000E+00  0.00000000E+00  0.00000000E+00
  0.00000000E+00  0.00000000E+00  0.00000000E+00
  0.00000000E+00  0.00000000E+00  0.00000000E+00
  0.00000000E+00  0.00000000E+00  0.00000000E+00
  0.00000000E+00  0.00000000E+00  0.00000000E+00
  0.00000000E+00  0.00000000E+00  0.00000000E+00
  0.00000000E+00  0.00000000E+00  0.00000000E+00
  0.00000000E+00  0.00000000E+00  0.00000000E+00
  0.00000000E+00  0.00000000E+00  0.00000000E+00
  0.00000000E+00  0.00000000E+00  0.00000000E+00
  0.00000000E+00  0.00000000E+00  0.00000000E+00
  0.00000000E+00  0.00000000E+00  0.00000000E+00
  0.00000000E+00  0.00000000E+00  0.00000000E+00
  0.00000000E+00  0.00000000E+00  0.00000000E+00
  0.00000000E+00  0.00000000E+00  0.00000000E+00
  0.00000000E+00  0.00000000E+00  0.00000000E+00
  0.00000000E+00  0.00000000E+00  0.00000000E+00
  0.00000000E+00  0.00000000E+00  0.00000000E+00
  0.00000000E+00  0.00000000E+00  0.00000000E+00
  0.00000000E+00  0.00000000E+00  0.00000000E+00
  0.00000000E+00  0.00000000E+00  0.00000000E+00
  0.00000000E+00  0.00000000E+00  0.00000000E+00
  0.00000000E+00  0.00000000E+00  0.00000000E+00
  0.00000000E+00  0.00000000E+00  0.00000000E+00
  0.00000000E+00  0.00000000E+00  0.00000000E+00
