CONTCAR\(3)                             
   1.00000000000000     
    12.5569000244000009    0.0000000000000000    0.0000000000000000
     0.0000000000000000   12.5685997009000001    0.0000000000000000
     0.0000000000000000    0.0000000000000000   19.2248001098999985
   Cu   Ag   Te   O 
    12    12    24     1
Selective dynamics
Direct
  0.1311920133682776  0.9986216800828984  0.5112820607936044   F   F   F
  0.3750000000000000  0.0022284105743040  0.5098638817305172   F   F   F
  0.6188079866317224  0.9986216800828984  0.5112820607936044   F   F   F
  0.8750000000000000  0.9990963113425622  0.5105609157222446   F   F   F
  0.1383469748806121  0.3303173802222190  0.5640888069048913   F   F   F
  0.3750000000000000  0.3350186605227705  0.5621497738533776   F   F   F
  0.6116530251193879  0.3303173802222190  0.5640888069048913   F   F   F
  0.8750000000000000  0.3256153397548545  0.5761473697937021   F   F   F
  0.1002405786677585  0.6595872330697787  0.5230815963216813   F   F   F
  0.3750000000000000  0.6666276941669338  0.5279086629529885   F   F   F
  0.6497594213322415  0.6595872330697787  0.5230815963216813   F   F   F
  0.8750000000000000  0.6589734913073784  0.5211419517043510   F   F   F
  0.9942905239206183  0.1945768690575562  0.4851439013984447   F   F   F
  0.2562142255695292  0.1932648740648659  0.4792084860502186   F   F   F
  0.4937857744304708  0.1932648740648659  0.4792084860502186   F   F   F
  0.7557094760793817  0.1945768690575562  0.4851439013984447   F   F   F
  0.9929355847807955  0.4603116487632377  0.4915267448990406   F   F   F
  0.2549254846384486  0.4953547412194936  0.4813794611117714   F   F   F
  0.4950745153615514  0.4953547412194936  0.4813794611117714   F   F   F
  0.7570644152192045  0.4603116487632377  0.4915267448990406   F   F   F
  0.0044277506098069  0.8315800226911918  0.4643083034303359   F   F   F
  0.2565542399571896  0.8163161429943955  0.4632664571894196   F   F   F
  0.4934457600428104  0.8163161429943955  0.4632664571894196   F   F   F
  0.7455722493901931  0.8315800226911918  0.4643083034303359   F   F   F
  0.0017099338224895  0.0175438964518548  0.3921247163430195   F   F   F
  0.1255894736755465  0.1436750979420367  0.6093093357029247   F   F   F
  0.2475333687172210  0.0106873711676414  0.3925673609827527   F   F   F
  0.3750000000000000  0.1480722815169599  0.6102091493573951   F   F   F
  0.5024666312827790  0.0106873711676414  0.3925673609827527   F   F   F
  0.6244105263244535  0.1436750979420367  0.6093093357029247   F   F   F
  0.7482900661775105  0.0175438964518548  0.3921247163430195   F   F   F
  0.8750000000000000  0.1363161718752082  0.6150566739827497   F   F   F
  0.0145571784494933  0.3341460222894170  0.3768550287692349   F   F   F
  0.1254947095428349  0.5118742958490614  0.6161561071234800   F   F   F
  0.2374152760127970  0.3433237226684582  0.3785044980593000   F   F   F
  0.3750000000000000  0.5164328384630394  0.6161343123975271   F   F   F
  0.5125847239872030  0.3433237226684582  0.3785044980593000   F   F   F
  0.6245052904571651  0.5118742958490614  0.6161561071234800   F   F   F
  0.7354428215505067  0.3341460222894170  0.3768550287692349   F   F   F
  0.8750000000000000  0.5117434773207208  0.6224876950659066   F   F   F
  0.9998470383409099  0.6378851105871277  0.3997229003410894   F   F   F
  0.1265159200606121  0.8330993268011966  0.5984532575050991   F   F   F
  0.2352322108933222  0.6481951254373257  0.3750620487585294   F   F   F
  0.3750000000000000  0.8407262017626493  0.5986251323611640   F   F   F
  0.5147677891066778  0.6481951254373257  0.3750620487585294   F   F   F
  0.6234840799393879  0.8330993268011966  0.5984532575050991   F   F   F
  0.7501529616590901  0.6378851105871277  0.3997229003410894   F   F   F
  0.8750000000000000  0.8334923506955292  0.5973564140111662   F   F   F
  0.3749600129999991  0.6050454799775409  0.3292451645144885   T   T   T
 
  0.00000000E+00  0.00000000E+00  0.00000000E+00
  0.00000000E+00  0.00000000E+00  0.00000000E+00
  0.00000000E+00  0.00000000E+00  0.00000000E+00
  0.00000000E+00  0.00000000E+00  0.00000000E+00
  0.00000000E+00  0.00000000E+00  0.00000000E+00
  0.00000000E+00  0.00000000E+00  0.00000000E+00
  0.00000000E+00  0.00000000E+00  0.00000000E+00
  0.00000000E+00  0.00000000E+00  0.00000000E+00
  0.00000000E+00  0.00000000E+00  0.00000000E+00
  0.00000000E+00  0.00000000E+00  0.00000000E+00
  0.00000000E+00  0.00000000E+00  0.00000000E+00
  0.00000000E+00  0.00000000E+00  0.00000000E+00
  0.00000000E+00  0.00000000E+00  0.00000000E+00
  0.00000000E+00  0.00000000E+00  0.00000000E+00
  0.00000000E+00  0.00000000E+00  0.00000000E+00
  0.00000000E+00  0.00000000E+00  0.00000000E+00
  0.00000000E+00  0.00000000E+00  0.00000000E+00
  0.00000000E+00  0.00000000E+00  0.00000000E+00
  0.00000000E+00  0.00000000E+00  0.00000000E+00
  0.00000000E+00  0.00000000E+00  0.00000000E+00
  0.00000000E+00  0.00000000E+00  0.00000000E+00
  0.00000000E+00  0.00000000E+00  0.00000000E+00
  0.00000000E+00  0.00000000E+00  0.00000000E+00
  0.00000000E+00  0.00000000E+00  0.00000000E+00
  0.00000000E+00  0.00000000E+00  0.00000000E+00
  0.00000000E+00  0.00000000E+00  0.00000000E+00
  0.00000000E+00  0.00000000E+00  0.00000000E+00
  0.00000000E+00  0.00000000E+00  0.00000000E+00
  0.00000000E+00  0.00000000E+00  0.00000000E+00
  0.00000000E+00  0.00000000E+00  0.00000000E+00
  0.00000000E+00  0.00000000E+00  0.00000000E+00
  0.00000000E+00  0.00000000E+00  0.00000000E+00
  0.00000000E+00  0.00000000E+00  0.00000000E+00
  0.00000000E+00  0.00000000E+00  0.00000000E+00
  0.00000000E+00  0.00000000E+00  0.00000000E+00
  0.00000000E+00  0.00000000E+00  0.00000000E+00
  0.00000000E+00  0.00000000E+00  0.00000000E+00
  0.00000000E+00  0.00000000E+00  0.00000000E+00
  0.00000000E+00  0.00000000E+00  0.00000000E+00
  0.00000000E+00  0.00000000E+00  0.00000000E+00
  0.00000000E+00  0.00000000E+00  0.00000000E+00
  0.00000000E+00  0.00000000E+00  0.00000000E+00
  0.00000000E+00  0.00000000E+00  0.00000000E+00
  0.00000000E+00  0.00000000E+00  0.00000000E+00
  0.00000000E+00  0.00000000E+00  0.00000000E+00
  0.00000000E+00  0.00000000E+00  0.00000000E+00
  0.00000000E+00  0.00000000E+00  0.00000000E+00
  0.00000000E+00  0.00000000E+00  0.00000000E+00
  0.00000000E+00  0.00000000E+00  0.00000000E+00
