Repeated-UnitCell:     2    2    1      
   1.00000000000000     
    14.6650457381999999    0.0000000000000000    0.0000000000000000
     0.0000000000000000   17.2791137695000003    0.0000000000000000
    -0.1285798454000000    0.0000000000000000   17.7376340212999999
   Cu   Te   O 
    16    15    48
Direct
  0.3440527893950514  0.2667439400473284  0.5234835953715472
  0.8446377168498398  0.2652108730289878  0.5208656192574542
  0.3312808721574712  0.6952741951119585  0.5472230925157008
  0.8478952147741476  0.7557252709260177  0.5384498280156752
  0.0955555763219843  0.4942422892598560  0.5263871101997568
  0.6050793111513327  0.4925230661746721  0.5402389347794956
  0.0872739083077734  0.9875168100927171  0.5097670657325803
  0.5866781002112362  0.9832368300363156  0.5399511605823066
  0.1583599234357730  0.2454640853128429  0.4590361412986650
  0.6558425339696037  0.2440119030651207  0.4643609974677936
  0.1535225503578626  0.7463459102916568  0.4511882591287746
  0.6538860097997145  0.7332852315790735  0.5032688208770435
  0.4018537704299476  0.0023723476040758  0.4721790774036801
  0.8938586322465987  0.0067758232469871  0.4607726180795588
  0.4167972135401690  0.5303909271458228  0.4851784802624898
  0.9143436825230580  0.5196140634687632  0.4693249083445861
  0.2781146127978595  0.1050150320489890  0.5728987087479926
  0.7780583137281009  0.1056489473397538  0.5777460205116003
  0.8006258016329977  0.6004550722477920  0.5983408401978790
  0.2271523599204634  0.4085878817050221  0.4134548753027222
  0.7227437101577308  0.4057574033018900  0.4130971086531529
  0.2199862323228723  0.8989336395453584  0.3931116066832119
  0.7046085987451370  0.8848256602498420  0.4266144825180617
  0.4733028060689339  0.3685030196712453  0.4173390489357925
  0.9734774042951496  0.3599615174323835  0.4080136653161792
  0.4509845265460944  0.8286284390217102  0.4390653577834600
  0.9597160242016152  0.8444528746331206  0.4064850620090241
  0.0309667362399406  0.1473415690996726  0.5696010898444689
  0.5284175969595802  0.1504898932287053  0.5792998734691799
  0.0781680781335402  0.6544506569079807  0.5756655680490924
  0.5260277477696564  0.6338952003278641  0.6282411944992052
  0.3061485927859005  0.0749103701784690  0.4740855526707370
  0.7933296678694591  0.0719661763081891  0.4780996215452957
  0.3493920439878505  0.6164292693193854  0.4818499440270751
  0.8115029210487006  0.5771210488876686  0.4945004553679769
  0.2708514902782377  0.3049247185988993  0.4367064991141127
  0.7676864238844814  0.3021644558405738  0.4360161304980099
  0.2572774139590626  0.7949706175940159  0.4132248101615161
  0.7574379855498230  0.7863550538081566  0.4598659377398283
  0.3959516456149424  0.1837465085013466  0.5819001391301071
  0.8991506264374020  0.1820188133272438  0.5771876411537035
  0.4037529538409363  0.6666713503320159  0.6343739811645328
  0.9064621163734464  0.6818568440897553  0.5981467256090954
  0.4797678408545262  0.0474467305178179  0.5557008205925293
  0.9808314466866913  0.0472634294173398  0.5388450802787628
  0.4959421035053794  0.5362767016218302  0.5776266806315244
  0.9962314437690661  0.5572726090127739  0.5473087840113314
  0.3542739883970670  0.4485169331371806  0.4248044860249005
  0.8543374526685298  0.4411035217724418  0.4087390230568746
  0.3500265494780951  0.9269700059146155  0.4030335863548687
  0.8314072627536884  0.9219371217138200  0.4101364879295563
  0.1467650203057845  0.0678536662593559  0.5691208486294642
  0.6458330083971983  0.0720586289361097  0.5865610856566060
  0.1558584064225833  0.5641280351414660  0.5870180908342579
  0.6704569434258859  0.5583880641095069  0.6071278544510159
  0.4507766214804391  0.3276038822376289  0.5134146371640445
  0.9505836073328767  0.3267281850552782  0.5067825290514008
  0.4046092435925353  0.7980166186919034  0.5308620688681488
  0.9495455432751853  0.8145290419628651  0.5082543884783667
  0.1961138758537941  0.4307208122677983  0.5135591083839531
  0.7049798673919444  0.4302682937138582  0.5151257344121899
  0.1886197461788705  0.9246264217736471  0.4925337186341216
  0.6913133529445231  0.9219785287353538  0.5254544860476621
  0.0216788923789471  0.4612964934337093  0.4391992641351549
  0.5260704211632939  0.4654426187901069  0.4516323808033249
  0.0015605711842408  0.9486648255336918  0.4308577641948790
  0.5002713493472262  0.9301446800059061  0.4716803419905266
  0.2323443233662259  0.2072301603824411  0.5447619397022300
  0.7333162237449664  0.2079710618100771  0.5493247755394081
  0.2008810224925378  0.7128060103164187  0.5428080441358036
  0.7427738548620705  0.7022066852129213  0.5766739828995265
  0.0535433835035755  0.1821747223101775  0.4710651941104835
  0.5526935097682676  0.1792500242721549  0.4793630512436871
  0.0614361039661801  0.6767803567269008  0.4700375015704263
  0.5514339541522907  0.6819861960544472  0.5351738891724270
  0.1042840276026410  0.3276460758954092  0.4004852485438753
  0.6015745011529233  0.3277340915712445  0.4074727398807480
  0.0882446787587425  0.8150972492660215  0.3865232253381798
  0.5869000512196896  0.7979930564865423  0.4379223332276267
 
  0.00000000E+00  0.00000000E+00  0.00000000E+00
  0.00000000E+00  0.00000000E+00  0.00000000E+00
  0.00000000E+00  0.00000000E+00  0.00000000E+00
  0.00000000E+00  0.00000000E+00  0.00000000E+00
  0.00000000E+00  0.00000000E+00  0.00000000E+00
  0.00000000E+00  0.00000000E+00  0.00000000E+00
  0.00000000E+00  0.00000000E+00  0.00000000E+00
  0.00000000E+00  0.00000000E+00  0.00000000E+00
  0.00000000E+00  0.00000000E+00  0.00000000E+00
  0.00000000E+00  0.00000000E+00  0.00000000E+00
  0.00000000E+00  0.00000000E+00  0.00000000E+00
  0.00000000E+00  0.00000000E+00  0.00000000E+00
  0.00000000E+00  0.00000000E+00  0.00000000E+00
  0.00000000E+00  0.00000000E+00  0.00000000E+00
  0.00000000E+00  0.00000000E+00  0.00000000E+00
  0.00000000E+00  0.00000000E+00  0.00000000E+00
  0.00000000E+00  0.00000000E+00  0.00000000E+00
  0.00000000E+00  0.00000000E+00  0.00000000E+00
  0.00000000E+00  0.00000000E+00  0.00000000E+00
  0.00000000E+00  0.00000000E+00  0.00000000E+00
  0.00000000E+00  0.00000000E+00  0.00000000E+00
  0.00000000E+00  0.00000000E+00  0.00000000E+00
  0.00000000E+00  0.00000000E+00  0.00000000E+00
  0.00000000E+00  0.00000000E+00  0.00000000E+00
  0.00000000E+00  0.00000000E+00  0.00000000E+00
  0.00000000E+00  0.00000000E+00  0.00000000E+00
  0.00000000E+00  0.00000000E+00  0.00000000E+00
  0.00000000E+00  0.00000000E+00  0.00000000E+00
  0.00000000E+00  0.00000000E+00  0.00000000E+00
  0.00000000E+00  0.00000000E+00  0.00000000E+00
  0.00000000E+00  0.00000000E+00  0.00000000E+00
  0.00000000E+00  0.00000000E+00  0.00000000E+00
  0.00000000E+00  0.00000000E+00  0.00000000E+00
  0.00000000E+00  0.00000000E+00  0.00000000E+00
  0.00000000E+00  0.00000000E+00  0.00000000E+00
  0.00000000E+00  0.00000000E+00  0.00000000E+00
  0.00000000E+00  0.00000000E+00  0.00000000E+00
  0.00000000E+00  0.00000000E+00  0.00000000E+00
  0.00000000E+00  0.00000000E+00  0.00000000E+00
  0.00000000E+00  0.00000000E+00  0.00000000E+00
  0.00000000E+00  0.00000000E+00  0.00000000E+00
  0.00000000E+00  0.00000000E+00  0.00000000E+00
  0.00000000E+00  0.00000000E+00  0.00000000E+00
  0.00000000E+00  0.00000000E+00  0.00000000E+00
  0.00000000E+00  0.00000000E+00  0.00000000E+00
  0.00000000E+00  0.00000000E+00  0.00000000E+00
  0.00000000E+00  0.00000000E+00  0.00000000E+00
  0.00000000E+00  0.00000000E+00  0.00000000E+00
  0.00000000E+00  0.00000000E+00  0.00000000E+00
  0.00000000E+00  0.00000000E+00  0.00000000E+00
  0.00000000E+00  0.00000000E+00  0.00000000E+00
  0.00000000E+00  0.00000000E+00  0.00000000E+00
  0.00000000E+00  0.00000000E+00  0.00000000E+00
  0.00000000E+00  0.00000000E+00  0.00000000E+00
  0.00000000E+00  0.00000000E+00  0.00000000E+00
  0.00000000E+00  0.00000000E+00  0.00000000E+00
  0.00000000E+00  0.00000000E+00  0.00000000E+00
  0.00000000E+00  0.00000000E+00  0.00000000E+00
  0.00000000E+00  0.00000000E+00  0.00000000E+00
  0.00000000E+00  0.00000000E+00  0.00000000E+00
  0.00000000E+00  0.00000000E+00  0.00000000E+00
  0.00000000E+00  0.00000000E+00  0.00000000E+00
  0.00000000E+00  0.00000000E+00  0.00000000E+00
  0.00000000E+00  0.00000000E+00  0.00000000E+00
  0.00000000E+00  0.00000000E+00  0.00000000E+00
  0.00000000E+00  0.00000000E+00  0.00000000E+00
  0.00000000E+00  0.00000000E+00  0.00000000E+00
  0.00000000E+00  0.00000000E+00  0.00000000E+00
  0.00000000E+00  0.00000000E+00  0.00000000E+00
  0.00000000E+00  0.00000000E+00  0.00000000E+00
  0.00000000E+00  0.00000000E+00  0.00000000E+00
  0.00000000E+00  0.00000000E+00  0.00000000E+00
  0.00000000E+00  0.00000000E+00  0.00000000E+00
  0.00000000E+00  0.00000000E+00  0.00000000E+00
  0.00000000E+00  0.00000000E+00  0.00000000E+00
  0.00000000E+00  0.00000000E+00  0.00000000E+00
  0.00000000E+00  0.00000000E+00  0.00000000E+00
  0.00000000E+00  0.00000000E+00  0.00000000E+00
  0.00000000E+00  0.00000000E+00  0.00000000E+00
