 Cu3 Se2 Cl2 O6                         
   1.00000000000000     
     5.3268985527876795    0.0000000000000000    0.0000000000000000
     1.8674968232072517    5.0474010877335544    0.0000000000000000
     0.0000000000000000    0.0000000000000000   20.5363940212239982
   Cu   Se   Cl   O 
     3     2     2     6
Direct
  0.8788507380330383  0.8762219960546771  0.4338922292490637
  0.5011420562648841  0.4969950044936823  0.4999949090035394
  0.1230676755414516  0.1178921983416857  0.5661355221597059
  0.2606482366136378  0.2601560715813771  0.4028857278059416
  0.7409831996139260  0.7343518034772366  0.5971147759645936
  0.3072045544839306  0.2984117145783265  0.6404502006354144
  0.6957681292314267  0.6948064989642936  0.3595436347831412
  0.4267013956567483  0.8037691955923330  0.5569768947916041
  0.5751550224623985  0.1903373238438663  0.4429764848673129
  0.1101054409833756  0.1047172529811893  0.4528079792237764
  0.8917275295323290  0.8895993664435996  0.5471756881463880
  0.1907435340649912  0.5704123284769566  0.4436076903921147
  0.8113644092039484  0.4239300948985253  0.5564382629774032
 
  0.00000000E+00  0.00000000E+00  0.00000000E+00
  0.00000000E+00  0.00000000E+00  0.00000000E+00
  0.00000000E+00  0.00000000E+00  0.00000000E+00
  0.00000000E+00  0.00000000E+00  0.00000000E+00
  0.00000000E+00  0.00000000E+00  0.00000000E+00
  0.00000000E+00  0.00000000E+00  0.00000000E+00
  0.00000000E+00  0.00000000E+00  0.00000000E+00
  0.00000000E+00  0.00000000E+00  0.00000000E+00
  0.00000000E+00  0.00000000E+00  0.00000000E+00
  0.00000000E+00  0.00000000E+00  0.00000000E+00
  0.00000000E+00  0.00000000E+00  0.00000000E+00
  0.00000000E+00  0.00000000E+00  0.00000000E+00
  0.00000000E+00  0.00000000E+00  0.00000000E+00
