CONTCAR                                 
   1.00000000000000     
     7.8446002007000004    0.0000000000000000    0.0000000000000000
     3.9223001003000002    6.7936230563000004    0.0000000000000000
     0.0000000000000000    0.0000000000000000   18.9503002167000005
   Te   Pt   O 
     8     8     4
Direct
  0.3348416089813956  0.3348042375340088  0.6112933556342093
  0.3352892512278566  0.3336875739093361  0.3946036851779411
  0.8325992953821528  0.3326519822104053  0.6054003525642992
  0.8321681414784634  0.3319935936640476  0.3886854038463906
  0.3325993013821529  0.8326519402104021  0.6054003525642992
  0.3321681474784640  0.8319935516640440  0.3886854038463906
  0.8348415529813983  0.8348041955340055  0.6112933556342093
  0.8352891952278590  0.8336875319093324  0.3946036851779411
  0.1699438552393821  0.1690705640682431  0.5417635108672477
  0.0025046615481015  0.0023622358975809  0.4586712872672604
  0.6645446636335576  0.1644084151049761  0.5414794482861525
  0.4974796262370360 -0.0028375065291372  0.4581834754459408
  0.1645446426335596  0.6644084261049735  0.5414794482861525
 -0.0025203707629673  0.4971624874708624  0.4581834754459408
  0.6699438942393819  0.6690606080682439  0.5417635108672477
  0.5025046495481004  0.5023622298975805  0.4586712872672604
  0.3420762778928187  0.3278537491810962  0.2980538971921934
  0.8294626323792378  0.3376252079594519  0.7019555127183629
  0.3294625593792355  0.8376252019594514  0.7019555127183629
  0.8420762648928211  0.8278437761810913  0.2980538971921934
 
  0.00000000E+00  0.00000000E+00  0.00000000E+00
  0.00000000E+00  0.00000000E+00  0.00000000E+00
  0.00000000E+00  0.00000000E+00  0.00000000E+00
  0.00000000E+00  0.00000000E+00  0.00000000E+00
  0.00000000E+00  0.00000000E+00  0.00000000E+00
  0.00000000E+00  0.00000000E+00  0.00000000E+00
  0.00000000E+00  0.00000000E+00  0.00000000E+00
  0.00000000E+00  0.00000000E+00  0.00000000E+00
  0.00000000E+00  0.00000000E+00  0.00000000E+00
  0.00000000E+00  0.00000000E+00  0.00000000E+00
  0.00000000E+00  0.00000000E+00  0.00000000E+00
  0.00000000E+00  0.00000000E+00  0.00000000E+00
  0.00000000E+00  0.00000000E+00  0.00000000E+00
  0.00000000E+00  0.00000000E+00  0.00000000E+00
  0.00000000E+00  0.00000000E+00  0.00000000E+00
  0.00000000E+00  0.00000000E+00  0.00000000E+00
  0.00000000E+00  0.00000000E+00  0.00000000E+00
  0.00000000E+00  0.00000000E+00  0.00000000E+00
  0.00000000E+00  0.00000000E+00  0.00000000E+00
  0.00000000E+00  0.00000000E+00  0.00000000E+00
