CONTCAR\(7)                             
   1.00000000000000     
    12.2055997849000004    0.0000000000000000    0.0000000000000000
    -6.1027998924000002   10.5703594821000006    0.0000000000000000
     0.0000000000000000    0.0000000000000000   18.8425998688000007
   Tm   I    O    H 
     9    18     2     1
Direct
  0.9830017924971461  0.0137918760417639  0.5028736150104507
  0.3617962656009581  0.0388595609160911  0.4972629050593448
  0.6842421708620785  0.0404857710750866  0.4970667172781110
  0.9587315403211670  0.3133360801108594  0.4972916615012579
  0.3673783487344110  0.3293800452558047  0.4969747503973850
  0.6634036083335989  0.3337710054064712  0.4955044839918029
  0.9593853113743679  0.6377770764718963  0.4975701271063339
  0.3298850402628893  0.6638750599040142  0.5498887661885810
  0.6693121881660401  0.6302450775718211  0.4970007366895709
  0.2177792185795713  0.1112011739361249  0.5997293594502235
  0.1150561217185157  0.2285152349505207  0.4026340851307719
  0.5557361741790494  0.1133671595281831  0.6113193544601770
  0.4458166901915165  0.2226116244169714  0.3760655284123622
  0.8822691750851365  0.1145072794766265  0.6160588386895247
  0.7737708397673491  0.2251179377268610  0.3760126857078746
  0.1984406768445417  0.3987406957808435  0.5896332898522697
  0.1190906400523387  0.5596285265840347  0.4168474189308172
  0.5553524125062805  0.4426726599581376  0.6157272642321630
  0.4376959920741003  0.5609037800022248  0.4107147757694397
  0.8852431724705241  0.4425547616259249  0.6108988434682053
  0.7753725641252167  0.5512462325521104  0.3763257687514420
  0.1990601475642274  0.8001389110454319  0.5912360549415288
  0.1048075189257831  0.8932176465052275  0.4112723638862170
  0.5967255152038679  0.7989881343983404  0.5887276539387691
  0.4384944474033449  0.8787746314687580  0.4166138502684484
  0.8858114433789417  0.7800733396657996  0.6008977205309571
  0.7686424364566647  0.8823558354212769  0.4028826832644821
  0.3148715918223161  0.6785704640737348  0.6595696640414095
  0.3731654611209758  0.6082097764346428  0.6920518340802700
  0.4388217633770698  0.6760126556944234  0.7209967139697908
 
  0.00000000E+00  0.00000000E+00  0.00000000E+00
  0.00000000E+00  0.00000000E+00  0.00000000E+00
  0.00000000E+00  0.00000000E+00  0.00000000E+00
  0.00000000E+00  0.00000000E+00  0.00000000E+00
  0.00000000E+00  0.00000000E+00  0.00000000E+00
  0.00000000E+00  0.00000000E+00  0.00000000E+00
  0.00000000E+00  0.00000000E+00  0.00000000E+00
  0.00000000E+00  0.00000000E+00  0.00000000E+00
  0.00000000E+00  0.00000000E+00  0.00000000E+00
  0.00000000E+00  0.00000000E+00  0.00000000E+00
  0.00000000E+00  0.00000000E+00  0.00000000E+00
  0.00000000E+00  0.00000000E+00  0.00000000E+00
  0.00000000E+00  0.00000000E+00  0.00000000E+00
  0.00000000E+00  0.00000000E+00  0.00000000E+00
  0.00000000E+00  0.00000000E+00  0.00000000E+00
  0.00000000E+00  0.00000000E+00  0.00000000E+00
  0.00000000E+00  0.00000000E+00  0.00000000E+00
  0.00000000E+00  0.00000000E+00  0.00000000E+00
  0.00000000E+00  0.00000000E+00  0.00000000E+00
  0.00000000E+00  0.00000000E+00  0.00000000E+00
  0.00000000E+00  0.00000000E+00  0.00000000E+00
  0.00000000E+00  0.00000000E+00  0.00000000E+00
  0.00000000E+00  0.00000000E+00  0.00000000E+00
  0.00000000E+00  0.00000000E+00  0.00000000E+00
  0.00000000E+00  0.00000000E+00  0.00000000E+00
  0.00000000E+00  0.00000000E+00  0.00000000E+00
  0.00000000E+00  0.00000000E+00  0.00000000E+00
  0.00000000E+00  0.00000000E+00  0.00000000E+00
  0.00000000E+00  0.00000000E+00  0.00000000E+00
  0.00000000E+00  0.00000000E+00  0.00000000E+00
