CONTCAR\(8)                             
   1.00000000000000     
    13.4425001143999996    0.0000000000000000    0.0000000000000000
     3.3606099258000000   18.5762653218000011    0.0000000000000000
     0.0000000000000000    0.0000000000000000   18.6296005248999990
   V    Te
    24    48
Direct
  0.0000000000000000  0.0000100000000032  0.5000000000000000
  0.0885955288552338  0.1450559676618416  0.4967146215453402
  0.1614044731447593  0.3549340343381554  0.5032853274546589
  0.2500000009999965  0.0000100000000032  0.5000000000000000
  0.3385955108552394  0.1450559676618416  0.4967146215453402
  0.4114044551447649  0.3549340343381554  0.5032853274546589
  0.4999999830000021  0.0000100000000032  0.5000000000000000
  0.5885955288552338  0.1450559676618416  0.4967146215453402
  0.6614044731447664  0.3549340343381554  0.5032853274546589
  0.7499999650000007  0.0000100000000032  0.5000000000000000
  0.8385955468552353  0.1450559676618416  0.4967146215453402
  0.9114044911447607  0.3549340343381554  0.5032853274546589
  0.0000000009999965  0.5000100110000005  0.5000000000000000
  0.0885955288552338  0.6450559806618391  0.4967146215453402
  0.1614044821447636  0.8549340093381569  0.5032853274546589
  0.2500000009999965  0.5000100110000005  0.5000000000000000
  0.3385955458552387  0.6450559806618391  0.4967146215453402
  0.4114044291447628  0.8549340093381569  0.5032853274546589
  0.4999999830000021  0.5000100110000005  0.5000000000000000
  0.5885955638552403  0.6450559806618391  0.4967146215453402
  0.6614044471447642  0.8549340093381569  0.5032853274546589
  0.7500000009999965  0.5000100110000005  0.5000000000000000
  0.8385955108552394  0.6450559806618391  0.4967146215453402
  0.9114044651447657  0.8549340093381569  0.5032853274546589
  0.1116083046864639  0.0537550045711755  0.6014832338600407
  0.1383916863135389  0.4462450054288253  0.3985167401399572
  0.1938181278590695  0.2242031753789445  0.5812094888579514
  0.0561818711409269  0.2757868396210571  0.4187904851420464
  0.0268412207887733  0.3929755927326882  0.6042907265015334
  0.2231587862112237  0.1070243942673144  0.3957092474984715
  0.3616083136864611  0.0537550045711755  0.6014832338600407
  0.3883917043135333  0.4462450054288253  0.3985167401399572
  0.4438181458590709  0.2242031753789445  0.5812094888579514
  0.3061818531409254  0.2757868396210571  0.4187904851420464
  0.2768412377887782  0.3929755927326882  0.6042907265015334
  0.4731587862112238  0.1070243942673144  0.3957092474984715
  0.6116083666864620  0.0537550045711755  0.6014832338600407
  0.6383916863135388  0.4462450054288253  0.3985167401399572
  0.6938181278590694  0.2242031753789445  0.5812094888579514
  0.5561818711409270  0.2757868396210571  0.4187904851420464
  0.5268412557887726  0.3929755927326882  0.6042907265015334
  0.7231588032112216  0.1070243942673144  0.3957092474984715
  0.8616083136864612  0.0537550045711755  0.6014832338600407
  0.8883917043135332  0.4462450054288253  0.3985167401399572
  0.9438180748590757  0.2242031753789445  0.5812094888579514
  0.8061818881409248  0.2757868396210571  0.4187904851420464
  0.7768412737887741  0.3929755927326882  0.6042907265015334
  0.9731587502112279  0.1070243942673144  0.3957092474984715
  0.1116083066864640  0.5537550465711718  0.6014832338600407
  0.1383917023135331  0.9462449544288247  0.3985167401399572
  0.1938181438590708  0.7242031243789439  0.5812094888579514
  0.0561818801409241  0.7757868146210586  0.4187904851420464
  0.0268412167887730  0.8929756187326832  0.6042907265015334
  0.2231588102112257  0.6070243822673134  0.3957092474984715
  0.3616083066864640  0.5537550465711718  0.6014832338600407
  0.3883917203135346  0.9462449544288247  0.3985167401399572
  0.4438181608590757  0.7242031243789439  0.5812094888579514
  0.3061818621409297  0.7757868146210586  0.4187904851420464
  0.2768411987887786  0.8929756187326832  0.6042907265015334
  0.4731588272112236  0.6070243822673134  0.3957092474984715
  0.6116083246864656  0.5537550465711718  0.6014832338600407
  0.6383916673135337  0.9462449544288247  0.3985167401399572
  0.6938181788590700  0.7242031243789439  0.5812094888579514
  0.5561818451409248  0.7757868146210586  0.4187904851420464
  0.5268412167887729  0.8929756187326832  0.6042907265015334
  0.7231587742112228  0.6070243822673134  0.3957092474984715
  0.8616082706864612  0.5537550465711718  0.6014832338600407
  0.8883916843135387  0.9462449544288247  0.3985167401399572
  0.9438181258590692  0.7242031243789439  0.5812094888579514
  0.8061819331409250  0.7757868146210586  0.4187904851420464
  0.7768412347887744  0.8929756187326832  0.6042907265015334
  0.9731587212112219  0.6070243822673134  0.3957092474984715
 
  0.00000000E+00  0.00000000E+00  0.00000000E+00
  0.00000000E+00  0.00000000E+00  0.00000000E+00
  0.00000000E+00  0.00000000E+00  0.00000000E+00
  0.00000000E+00  0.00000000E+00  0.00000000E+00
  0.00000000E+00  0.00000000E+00  0.00000000E+00
  0.00000000E+00  0.00000000E+00  0.00000000E+00
  0.00000000E+00  0.00000000E+00  0.00000000E+00
  0.00000000E+00  0.00000000E+00  0.00000000E+00
  0.00000000E+00  0.00000000E+00  0.00000000E+00
  0.00000000E+00  0.00000000E+00  0.00000000E+00
  0.00000000E+00  0.00000000E+00  0.00000000E+00
  0.00000000E+00  0.00000000E+00  0.00000000E+00
  0.00000000E+00  0.00000000E+00  0.00000000E+00
  0.00000000E+00  0.00000000E+00  0.00000000E+00
  0.00000000E+00  0.00000000E+00  0.00000000E+00
  0.00000000E+00  0.00000000E+00  0.00000000E+00
  0.00000000E+00  0.00000000E+00  0.00000000E+00
  0.00000000E+00  0.00000000E+00  0.00000000E+00
  0.00000000E+00  0.00000000E+00  0.00000000E+00
  0.00000000E+00  0.00000000E+00  0.00000000E+00
  0.00000000E+00  0.00000000E+00  0.00000000E+00
  0.00000000E+00  0.00000000E+00  0.00000000E+00
  0.00000000E+00  0.00000000E+00  0.00000000E+00
  0.00000000E+00  0.00000000E+00  0.00000000E+00
  0.00000000E+00  0.00000000E+00  0.00000000E+00
  0.00000000E+00  0.00000000E+00  0.00000000E+00
  0.00000000E+00  0.00000000E+00  0.00000000E+00
  0.00000000E+00  0.00000000E+00  0.00000000E+00
  0.00000000E+00  0.00000000E+00  0.00000000E+00
  0.00000000E+00  0.00000000E+00  0.00000000E+00
  0.00000000E+00  0.00000000E+00  0.00000000E+00
  0.00000000E+00  0.00000000E+00  0.00000000E+00
  0.00000000E+00  0.00000000E+00  0.00000000E+00
  0.00000000E+00  0.00000000E+00  0.00000000E+00
  0.00000000E+00  0.00000000E+00  0.00000000E+00
  0.00000000E+00  0.00000000E+00  0.00000000E+00
  0.00000000E+00  0.00000000E+00  0.00000000E+00
  0.00000000E+00  0.00000000E+00  0.00000000E+00
  0.00000000E+00  0.00000000E+00  0.00000000E+00
  0.00000000E+00  0.00000000E+00  0.00000000E+00
  0.00000000E+00  0.00000000E+00  0.00000000E+00
  0.00000000E+00  0.00000000E+00  0.00000000E+00
  0.00000000E+00  0.00000000E+00  0.00000000E+00
  0.00000000E+00  0.00000000E+00  0.00000000E+00
  0.00000000E+00  0.00000000E+00  0.00000000E+00
  0.00000000E+00  0.00000000E+00  0.00000000E+00
  0.00000000E+00  0.00000000E+00  0.00000000E+00
  0.00000000E+00  0.00000000E+00  0.00000000E+00
  0.00000000E+00  0.00000000E+00  0.00000000E+00
  0.00000000E+00  0.00000000E+00  0.00000000E+00
  0.00000000E+00  0.00000000E+00  0.00000000E+00
  0.00000000E+00  0.00000000E+00  0.00000000E+00
  0.00000000E+00  0.00000000E+00  0.00000000E+00
  0.00000000E+00  0.00000000E+00  0.00000000E+00
  0.00000000E+00  0.00000000E+00  0.00000000E+00
  0.00000000E+00  0.00000000E+00  0.00000000E+00
  0.00000000E+00  0.00000000E+00  0.00000000E+00
  0.00000000E+00  0.00000000E+00  0.00000000E+00
  0.00000000E+00  0.00000000E+00  0.00000000E+00
  0.00000000E+00  0.00000000E+00  0.00000000E+00
  0.00000000E+00  0.00000000E+00  0.00000000E+00
  0.00000000E+00  0.00000000E+00  0.00000000E+00
  0.00000000E+00  0.00000000E+00  0.00000000E+00
  0.00000000E+00  0.00000000E+00  0.00000000E+00
  0.00000000E+00  0.00000000E+00  0.00000000E+00
  0.00000000E+00  0.00000000E+00  0.00000000E+00
  0.00000000E+00  0.00000000E+00  0.00000000E+00
  0.00000000E+00  0.00000000E+00  0.00000000E+00
  0.00000000E+00  0.00000000E+00  0.00000000E+00
  0.00000000E+00  0.00000000E+00  0.00000000E+00
  0.00000000E+00  0.00000000E+00  0.00000000E+00
  0.00000000E+00  0.00000000E+00  0.00000000E+00
