Li4 Fe2 P8 O26                          
   1.00000000000000     
     4.8526951712372695   -0.0168565512740816   -0.4350019262359890
     1.1956343861707881    7.8674514680670669   -0.0029721584950104
     0.3044846073845358    2.3735904218350745   12.3505627780099978
   Li   Fe   P    O 
     4     2     8    26
Direct
  0.1233400392120135  0.3321532173903932  0.0349774327910146
  0.4576852907131699  0.2742075746631173  0.4933876184029927
  0.5423146402868285  0.7257924663368821  0.5066123785970031
  0.8766599247879905  0.6678467976096045  0.9650225512089912
  0.4420553359744250  0.0350022664634235  0.2574307232161597
  0.5579446290255756  0.9649977605365755  0.7425693267838448
  0.9475250181328101  0.8851446688267429  0.1482370664829958
  0.0707968127026101  0.8167495782171535  0.6310370840556153
  0.3274319078429845  0.6356673285802463  0.3060443060861906
  0.3688348985400486  0.5765175729337394  0.8316335592067406
  0.6311650834599569  0.4234824340662646  0.1683664557932569
  0.6725680841570145  0.3643326524197557  0.6939556909138123
  0.9292031572973882  0.1832504527828451  0.3689629489443839
  0.0524750108671883  0.1148553771732539  0.8517629135170103
  0.1124242600748308  0.0284907914025026  0.1765586331044507
  0.2488773007853658  0.1220147501530043  0.3694419840965661
  0.0206993400251329  0.7245794101086492  0.2520510441878047
  0.0091808035030087  0.8222524938909936  0.0469668731470146
  0.3179851422385588  0.4769375004540485  0.3879602265655315
  0.1419379699348715  0.6527452394776497  0.7292391700452481
  0.3679024685178873  0.0473476097259663  0.8509028651542032
  0.1414498773235071  0.7701875395626290  0.5264305575227317
  0.4269482056929990  0.2964473631977152  0.1644466384963752
  0.2150713704993100  0.5262915481709265  0.9281901531218635
  0.4763022566779511  0.5964667807350483  0.1998819248446829
  0.2303567905354303  0.9584974208148257  0.6640578048110535
  0.4678673104482133  0.7771677670878260  0.3432708690435977
  0.5321327375517826  0.2228322239121705  0.6567290929563996
  0.7696430854645667  0.0415026101851732  0.3359422281889526
  0.5236977763220482  0.4035332702649522  0.8001180371553143
  0.7849285545006872  0.4737083848290715  0.0718097998781360
  0.5730517533070016  0.7035527338022824  0.8355533765036227
  0.8585501466764880  0.2298124624373709  0.4735694744772713
  0.6320975124821150  0.9526523972740306  0.1490971498458014
  0.8580620310651325  0.3472547515223459  0.2707607919547489
  0.6820148507614439  0.5230624805459465  0.6120397704344653
  0.9908192204969936  0.1777475471090062  0.9530331238529891
  0.9793006059748697  0.2754206208913494  0.7479489888121948
  0.7511226492146370  0.8779852158469930  0.6305580129034375
  0.8875757129251636  0.9715091945974963  0.8234413458955511
 
  0.00000000E+00  0.00000000E+00  0.00000000E+00
  0.00000000E+00  0.00000000E+00  0.00000000E+00
  0.00000000E+00  0.00000000E+00  0.00000000E+00
  0.00000000E+00  0.00000000E+00  0.00000000E+00
  0.00000000E+00  0.00000000E+00  0.00000000E+00
  0.00000000E+00  0.00000000E+00  0.00000000E+00
  0.00000000E+00  0.00000000E+00  0.00000000E+00
  0.00000000E+00  0.00000000E+00  0.00000000E+00
  0.00000000E+00  0.00000000E+00  0.00000000E+00
  0.00000000E+00  0.00000000E+00  0.00000000E+00
  0.00000000E+00  0.00000000E+00  0.00000000E+00
  0.00000000E+00  0.00000000E+00  0.00000000E+00
  0.00000000E+00  0.00000000E+00  0.00000000E+00
  0.00000000E+00  0.00000000E+00  0.00000000E+00
  0.00000000E+00  0.00000000E+00  0.00000000E+00
  0.00000000E+00  0.00000000E+00  0.00000000E+00
  0.00000000E+00  0.00000000E+00  0.00000000E+00
  0.00000000E+00  0.00000000E+00  0.00000000E+00
  0.00000000E+00  0.00000000E+00  0.00000000E+00
  0.00000000E+00  0.00000000E+00  0.00000000E+00
  0.00000000E+00  0.00000000E+00  0.00000000E+00
  0.00000000E+00  0.00000000E+00  0.00000000E+00
  0.00000000E+00  0.00000000E+00  0.00000000E+00
  0.00000000E+00  0.00000000E+00  0.00000000E+00
  0.00000000E+00  0.00000000E+00  0.00000000E+00
  0.00000000E+00  0.00000000E+00  0.00000000E+00
  0.00000000E+00  0.00000000E+00  0.00000000E+00
  0.00000000E+00  0.00000000E+00  0.00000000E+00
  0.00000000E+00  0.00000000E+00  0.00000000E+00
  0.00000000E+00  0.00000000E+00  0.00000000E+00
  0.00000000E+00  0.00000000E+00  0.00000000E+00
  0.00000000E+00  0.00000000E+00  0.00000000E+00
  0.00000000E+00  0.00000000E+00  0.00000000E+00
  0.00000000E+00  0.00000000E+00  0.00000000E+00
  0.00000000E+00  0.00000000E+00  0.00000000E+00
  0.00000000E+00  0.00000000E+00  0.00000000E+00
  0.00000000E+00  0.00000000E+00  0.00000000E+00
  0.00000000E+00  0.00000000E+00  0.00000000E+00
  0.00000000E+00  0.00000000E+00  0.00000000E+00
  0.00000000E+00  0.00000000E+00  0.00000000E+00
