CONTCAR\(3)                             
   1.00000000000000     
    14.5429000853999995    0.0000000000000000    0.0000000000000000
     0.0000000000000000   10.6486997603999995    0.0000000000000000
     0.0000000000000000    0.0000000000000000   18.9185009002999998
   Ta   Ni   Te   O    H 
     8    16    24     1     1
Selective dynamics
Direct
  0.0621159607151824  0.8016126172291607  0.5064981703001976   F   F   F
  0.1869602743912040  0.2101689067934629  0.4916198419078128   F   F   F
  0.3113587212931535  0.8012797246028072  0.5067250107319978   F   F   F
  0.4356144299491831  0.2113836897222114  0.4904636337090409   F   F   F
  0.5623682298520265  0.8023472304972046  0.5034583656946552   F   F   F
  0.6891042143715040  0.2113439858425465  0.4904776786380296   F   F   F
  0.8132176802012907  0.8010081946929404  0.5073002388770078   F   F   F
  0.9374928330515289  0.2102124971088131  0.4916453624489918   F   F   F
  0.0623862447694989  0.4124177871491312  0.5001933967306798   F   F   F
  0.1870026997449727  0.5988243545447176  0.4977505332140524   F   F   F
  0.1870134173605393  0.9693364369441682  0.4600183255829506   F   F   F
  0.0623413460322340  0.0428154725933609  0.5384099955117989   F   F   F
  0.3121517907581079  0.4129522017691372  0.5000085269815102   F   F   F
  0.4329348479748703  0.5965207949831708  0.4968068247630413   F   F   F
  0.4365957672663612  0.9690794556798323  0.4598645426151080   F   F   F
  0.3125992042325692  0.0425965932933181  0.5381890059596373   F   F   F
  0.5618492531560264  0.4076600293686923  0.4933739344114727   F   F   F
  0.6898926000693564  0.5969296071501589  0.4986275044526280   F   F   F
  0.6882346950973144  0.9689142771338410  0.4599978659031692   F   F   F
  0.5623277930435435  0.0428504385006576  0.5372177062160333   F   F   F
  0.8128440491139912  0.4129688707649706  0.5002267505199995   F   F   F
  0.9373431190907624  0.5988826870310149  0.4980345357514366   F   F   F
  0.9373512851193482  0.9693963338729645  0.4601118262945150   F   F   F
  0.8121434617909742  0.0426030914571243  0.5383345635439127   F   F   F
  0.1866265290962090  0.7560887054709156  0.3967328019974161   F   F   F
  0.0622184472313094  0.2556344445673773  0.6015537499556984   F   F   F
  0.1865058886229889  0.4176190840126424  0.4063397108719613   F   F   F
  0.0622480631365079  0.5936522237678972  0.5916480877436925   F   F   F
  0.0622584691912351  0.0887732718443530  0.3936619587007684   F   F   F
  0.1876620495713013  0.9225912141768831  0.6044014534915547   F   F   F
  0.4359063574242370  0.7555540757527197  0.3962653445582021   F   F   F
  0.3120356501267949  0.2554289929579454  0.6010721666210657   F   F   F
  0.4348129206666940  0.4190757057633903  0.4042173796128239   F   F   F
  0.3095033607779456  0.5936807664031036  0.5923222539001216   F   F   F
  0.3119078392715906  0.0888395362580425  0.3933280915677670   F   F   F
  0.4387661038006954  0.9189503421294702  0.6034860504439123   F   F   F
  0.6893118715850974  0.7548569551461455  0.3967412847311991   F   F   F
  0.5623594019971065  0.2558255253367818  0.5990335404020115   F   F   F
  0.6899194672393421  0.4198928558064736  0.4050158735681038   F   F   F
  0.5612955694518220  0.5950566254600247  0.5888048602671816   F   F   F
  0.5625381234722795  0.0881608759433519  0.3942190512702766   F   F   F
  0.6858938250602549  0.9191360331533218  0.6037062002407296   F   F   F
  0.9375639892617400  0.7560208888494273  0.3970158380960740   F   F   F
  0.8123955385761690  0.2554607524699790  0.6012389380006553   F   F   F
  0.9380988896450049  0.4177785467906645  0.4064225581278649   F   F   F
  0.8144594594172361  0.5932970224481693  0.5926877857037240   F   F   F
  0.8127726513624793  0.0889940320230238  0.3932512741034913   F   F   F
  0.9370540106033545  0.9229068521200503  0.6046389423520182   F   F   F
  0.5702675969225837  0.6924465635411963  0.6872153545784840   T   T   T
  0.5708439290425034  0.6294630050813197  0.7241524996718928   T   T   T
 
  0.00000000E+00  0.00000000E+00  0.00000000E+00
  0.00000000E+00  0.00000000E+00  0.00000000E+00
  0.00000000E+00  0.00000000E+00  0.00000000E+00
  0.00000000E+00  0.00000000E+00  0.00000000E+00
  0.00000000E+00  0.00000000E+00  0.00000000E+00
  0.00000000E+00  0.00000000E+00  0.00000000E+00
  0.00000000E+00  0.00000000E+00  0.00000000E+00
  0.00000000E+00  0.00000000E+00  0.00000000E+00
  0.00000000E+00  0.00000000E+00  0.00000000E+00
  0.00000000E+00  0.00000000E+00  0.00000000E+00
  0.00000000E+00  0.00000000E+00  0.00000000E+00
  0.00000000E+00  0.00000000E+00  0.00000000E+00
  0.00000000E+00  0.00000000E+00  0.00000000E+00
  0.00000000E+00  0.00000000E+00  0.00000000E+00
  0.00000000E+00  0.00000000E+00  0.00000000E+00
  0.00000000E+00  0.00000000E+00  0.00000000E+00
  0.00000000E+00  0.00000000E+00  0.00000000E+00
  0.00000000E+00  0.00000000E+00  0.00000000E+00
  0.00000000E+00  0.00000000E+00  0.00000000E+00
  0.00000000E+00  0.00000000E+00  0.00000000E+00
  0.00000000E+00  0.00000000E+00  0.00000000E+00
  0.00000000E+00  0.00000000E+00  0.00000000E+00
  0.00000000E+00  0.00000000E+00  0.00000000E+00
  0.00000000E+00  0.00000000E+00  0.00000000E+00
  0.00000000E+00  0.00000000E+00  0.00000000E+00
  0.00000000E+00  0.00000000E+00  0.00000000E+00
  0.00000000E+00  0.00000000E+00  0.00000000E+00
  0.00000000E+00  0.00000000E+00  0.00000000E+00
  0.00000000E+00  0.00000000E+00  0.00000000E+00
  0.00000000E+00  0.00000000E+00  0.00000000E+00
  0.00000000E+00  0.00000000E+00  0.00000000E+00
  0.00000000E+00  0.00000000E+00  0.00000000E+00
  0.00000000E+00  0.00000000E+00  0.00000000E+00
  0.00000000E+00  0.00000000E+00  0.00000000E+00
  0.00000000E+00  0.00000000E+00  0.00000000E+00
  0.00000000E+00  0.00000000E+00  0.00000000E+00
  0.00000000E+00  0.00000000E+00  0.00000000E+00
  0.00000000E+00  0.00000000E+00  0.00000000E+00
  0.00000000E+00  0.00000000E+00  0.00000000E+00
  0.00000000E+00  0.00000000E+00  0.00000000E+00
  0.00000000E+00  0.00000000E+00  0.00000000E+00
  0.00000000E+00  0.00000000E+00  0.00000000E+00
  0.00000000E+00  0.00000000E+00  0.00000000E+00
  0.00000000E+00  0.00000000E+00  0.00000000E+00
  0.00000000E+00  0.00000000E+00  0.00000000E+00
  0.00000000E+00  0.00000000E+00  0.00000000E+00
  0.00000000E+00  0.00000000E+00  0.00000000E+00
  0.00000000E+00  0.00000000E+00  0.00000000E+00
  0.00000000E+00  0.00000000E+00  0.00000000E+00
  0.00000000E+00  0.00000000E+00  0.00000000E+00
