CONTCAR\(8)                             
   1.00000000000000     
    11.2503995895000006    0.0000000000000000    0.0000000000000000
     0.0000000000000000   11.4902000426999997    0.0000000000000000
     0.0000000000000000    0.0000000000000000   19.3134994507000002
   Cr   Te   O    H 
     8    24     2     1
Direct
  0.0028914541349578  0.6571210735975992  0.5028440141300744
  0.5276962156697569  0.8184652989519978  0.5003391037488762
  0.9979619715857434  0.3243875580487043  0.5021033494941214
  0.5023572617347205  0.1544324979608552  0.5049201188405107
  0.2759544051474561  0.4898529330487589  0.5113053304673810
  0.7661680655420902  0.9865822811417023  0.4932718956737069
  0.7383508859838127  0.4857804094648356  0.4949318429703995
  0.2198457873718420  0.0012610618394836  0.5113286895853555
  0.9129871092236811  0.4897483757046039  0.5899841388882568
  0.4094245912548660  0.9842782907808396  0.4225165435699921
  0.0972104969970120  0.4900105214215343  0.4175196033145501
  0.5960507740366564  0.9869496705427800  0.5896519319447667
  0.3302042452817670  0.1429267372600864  0.6033019341485438
  0.8319830444007115  0.3327962221661361  0.4014454052910212
  0.6816608553021901  0.8333406138422115  0.3971927387279031
  0.1704494846868427  0.6392057957841326  0.6018498010097212
  0.1699356208868363  0.3384452015508388  0.6010562561606294
  0.6658916829569554  0.1409605859271792  0.4030084498821546
  0.8393281108539169  0.6373038338724443  0.4016569123654518
  0.3303463236895123  0.8317935007984733  0.5739328897337089
  0.6257983216265687  0.3201986328513618  0.5767058397709592
  0.1165508881832858  0.1607814252761853  0.4274057332115674
  0.3917469008003536  0.6568417165080407  0.4297627423811115
  0.8778714488893274  0.8218506347697129  0.5741133001193619
  0.4447741243835529  0.4896276376830834  0.6097679189465544
  0.9351155411789364  0.9909073727691960  0.3957690391657649
  0.5688994489821767  0.4837793962997848  0.3969929695556424
  0.0550065817844418 -0.0064438747364257  0.6106305092355628
  0.6347076473065196  0.6513440926839248  0.5782903786239451
  0.1210087582780714  0.8274345190953429  0.4305594482018442
  0.3843479926398662  0.3216018308015958  0.4313139130311291
  0.8732400722819811  0.1583231065400445  0.5735806428034377
  0.3461017774191182  0.8663764289558690  0.6797475647309339
  0.4036135946927248  0.7677823477512689  0.7134012538007382
  0.3343484178117223  0.7237622140457847  0.7301780474743123
 
  0.00000000E+00  0.00000000E+00  0.00000000E+00
  0.00000000E+00  0.00000000E+00  0.00000000E+00
  0.00000000E+00  0.00000000E+00  0.00000000E+00
  0.00000000E+00  0.00000000E+00  0.00000000E+00
  0.00000000E+00  0.00000000E+00  0.00000000E+00
  0.00000000E+00  0.00000000E+00  0.00000000E+00
  0.00000000E+00  0.00000000E+00  0.00000000E+00
  0.00000000E+00  0.00000000E+00  0.00000000E+00
  0.00000000E+00  0.00000000E+00  0.00000000E+00
  0.00000000E+00  0.00000000E+00  0.00000000E+00
  0.00000000E+00  0.00000000E+00  0.00000000E+00
  0.00000000E+00  0.00000000E+00  0.00000000E+00
  0.00000000E+00  0.00000000E+00  0.00000000E+00
  0.00000000E+00  0.00000000E+00  0.00000000E+00
  0.00000000E+00  0.00000000E+00  0.00000000E+00
  0.00000000E+00  0.00000000E+00  0.00000000E+00
  0.00000000E+00  0.00000000E+00  0.00000000E+00
  0.00000000E+00  0.00000000E+00  0.00000000E+00
  0.00000000E+00  0.00000000E+00  0.00000000E+00
  0.00000000E+00  0.00000000E+00  0.00000000E+00
  0.00000000E+00  0.00000000E+00  0.00000000E+00
  0.00000000E+00  0.00000000E+00  0.00000000E+00
  0.00000000E+00  0.00000000E+00  0.00000000E+00
  0.00000000E+00  0.00000000E+00  0.00000000E+00
  0.00000000E+00  0.00000000E+00  0.00000000E+00
  0.00000000E+00  0.00000000E+00  0.00000000E+00
  0.00000000E+00  0.00000000E+00  0.00000000E+00
  0.00000000E+00  0.00000000E+00  0.00000000E+00
  0.00000000E+00  0.00000000E+00  0.00000000E+00
  0.00000000E+00  0.00000000E+00  0.00000000E+00
  0.00000000E+00  0.00000000E+00  0.00000000E+00
  0.00000000E+00  0.00000000E+00  0.00000000E+00
  0.00000000E+00  0.00000000E+00  0.00000000E+00
  0.00000000E+00  0.00000000E+00  0.00000000E+00
  0.00000000E+00  0.00000000E+00  0.00000000E+00
