 Er6 I7                                 
   1.00000000000000     
     3.9494988794155272    0.0000000000000000    0.0000000000000000
    -1.9747494397077636   10.7919195749237371    0.0000000000000000
     0.0000000000000000    0.0000000000000000   24.1043654967539993
   Er   I 
     6     7
Direct
  0.3858562993042294  0.7715392521943414  0.4801462913317875
  0.2225235904793246  0.4452071955035443  0.4479588703359728
  0.8281481285342430  0.6560625064095428  0.3743372388734821
  0.7774682658799874  0.5547849835263359  0.5520471717585099
  0.1718483146425306  0.3439337772644517  0.6256455102235434
  0.6141402541681369  0.2284765653122618  0.5198586780680252
  0.7505778745053061  0.5013160425161497  0.6898534121759380
  0.4353656801698003  0.8700889632087143  0.3573342236420284
  0.5646291985597266  0.1299033000194887  0.6426673228596094
  0.2494280805262339  0.4986768618665168  0.3101456162290324
  0.3792113297088763  0.7576887300118137  0.6037021159661086
 -0.0000089950436094 -0.0000048400973882  0.5000110803645402
  0.6208119785652125  0.2423266622642216  0.3962924681714196
 
  0.00000000E+00  0.00000000E+00  0.00000000E+00
  0.00000000E+00  0.00000000E+00  0.00000000E+00
  0.00000000E+00  0.00000000E+00  0.00000000E+00
  0.00000000E+00  0.00000000E+00  0.00000000E+00
  0.00000000E+00  0.00000000E+00  0.00000000E+00
  0.00000000E+00  0.00000000E+00  0.00000000E+00
  0.00000000E+00  0.00000000E+00  0.00000000E+00
  0.00000000E+00  0.00000000E+00  0.00000000E+00
  0.00000000E+00  0.00000000E+00  0.00000000E+00
  0.00000000E+00  0.00000000E+00  0.00000000E+00
  0.00000000E+00  0.00000000E+00  0.00000000E+00
  0.00000000E+00  0.00000000E+00  0.00000000E+00
  0.00000000E+00  0.00000000E+00  0.00000000E+00
