CONTCAR\(3)                             
   1.00000000000000     
    11.1367998122999996    0.0000000000000000    0.0000000000000000
    -5.5683999061999998    9.6447515543000009    0.0000000000000000
     0.0000000000000000    0.0000000000000000   17.5949001311999993
   Ni   Te   O    H 
     9    18     1     1
Direct
  0.9996601093272053  0.9987226020769924  0.5054437608577412
  0.3351854356218367  0.0005104460565435  0.5017533906594935
  0.6672375137521019  0.0002977003642973  0.5028776400525252
  0.9963132769867998  0.3317548323191680  0.5059849661263681
  0.3374168368081854  0.3270694325846118  0.5042557556109222
  0.6674739997380545  0.3330547883463885  0.5023989161409677
  0.9994318054356833  0.6676740446883310  0.5057388213820938
  0.3362719624660056  0.6746332487862872  0.5041623973700136
  0.6670993481093113  0.6665197863734046  0.5050647810088802
  0.1135329683857120  0.2235080787934110  0.4265569948423820
  0.2240241423724917  0.1065735830175304  0.5839876933528728
  0.4500814951553991  0.2182833533542298  0.4191475347105452
  0.5560172762617392  0.1113229581316106  0.5832402182876243
  0.7765191325866878  0.2209779978604254  0.4223745678687542
  0.8856421301077271  0.1086188721432931  0.5842503190075676
  0.1122406876427703  0.5567694459202500  0.4262769973982927
  0.2228459617899209  0.4453416714082419  0.5771588887789900
  0.4409663084369869  0.5527103458818240  0.4265603670652338
  0.5581618696144499  0.4428492301538414  0.5841818002234193
  0.7791840929847138  0.5581131864798111  0.4244418548073091
  0.8848541609057383  0.4434905046857387  0.5842439827435546
  0.1093458640005070  0.8878868955151893  0.4243251940958309
  0.2242792520947093  0.7834611499960108  0.5839081278496221
  0.4495287752469556  0.8962259765666925  0.4197264386556381
  0.5570333100577189  0.7798470540165017  0.5840539858490310
  0.7789260442599678  0.8875610045796820  0.4244958140111043
  0.8882010278056264  0.7775730229710303  0.5859038307382146
  0.1755960533314276  0.4325551393296885  0.6911339142464852
  0.2611993417135588  0.4669439615989765  0.7205008202585417
 
  0.00000000E+00  0.00000000E+00  0.00000000E+00
  0.00000000E+00  0.00000000E+00  0.00000000E+00
  0.00000000E+00  0.00000000E+00  0.00000000E+00
  0.00000000E+00  0.00000000E+00  0.00000000E+00
  0.00000000E+00  0.00000000E+00  0.00000000E+00
  0.00000000E+00  0.00000000E+00  0.00000000E+00
  0.00000000E+00  0.00000000E+00  0.00000000E+00
  0.00000000E+00  0.00000000E+00  0.00000000E+00
  0.00000000E+00  0.00000000E+00  0.00000000E+00
  0.00000000E+00  0.00000000E+00  0.00000000E+00
  0.00000000E+00  0.00000000E+00  0.00000000E+00
  0.00000000E+00  0.00000000E+00  0.00000000E+00
  0.00000000E+00  0.00000000E+00  0.00000000E+00
  0.00000000E+00  0.00000000E+00  0.00000000E+00
  0.00000000E+00  0.00000000E+00  0.00000000E+00
  0.00000000E+00  0.00000000E+00  0.00000000E+00
  0.00000000E+00  0.00000000E+00  0.00000000E+00
  0.00000000E+00  0.00000000E+00  0.00000000E+00
  0.00000000E+00  0.00000000E+00  0.00000000E+00
  0.00000000E+00  0.00000000E+00  0.00000000E+00
  0.00000000E+00  0.00000000E+00  0.00000000E+00
  0.00000000E+00  0.00000000E+00  0.00000000E+00
  0.00000000E+00  0.00000000E+00  0.00000000E+00
  0.00000000E+00  0.00000000E+00  0.00000000E+00
  0.00000000E+00  0.00000000E+00  0.00000000E+00
  0.00000000E+00  0.00000000E+00  0.00000000E+00
  0.00000000E+00  0.00000000E+00  0.00000000E+00
  0.00000000E+00  0.00000000E+00  0.00000000E+00
  0.00000000E+00  0.00000000E+00  0.00000000E+00
