This file is generated by VASPKIT code  
   1.00000000000000     
    11.6057996750000001    0.0000000000000000    0.0000000000000000
     5.8028893088000002   10.0513859330000006    0.0000000000000000
     0.0000000000000000    0.0000000000000000   18.0372009276999989
   Ni   P    S    O 
     8     8    24     8
Direct
  0.1664825323013042  0.1666859979454216  0.5000045997555695
  0.1664815435728972  0.6666878817888366  0.5000046035529304
  0.6664825323013043  0.1666859979454216  0.5000045997555695
  0.6664815435728972  0.6666878817888366  0.5000046035529304
  0.3331822876533847  0.3335010685847566  0.5000077664665384
  0.3331828326327929  0.8335000742001629  0.5000077629468190
  0.8331822876533846  0.3335010685847566  0.5000077664665384
  0.8331828326327928  0.8335000742001629  0.5000077629468190
  0.9997283048756912  0.0001378743368589  0.6097012360052273
  0.9997297162988109  0.5001375129405308  0.6097014700970900
  0.4997283048756910  0.0001378743368589  0.6097012360052273
  0.4997297162988108  0.5001375129405308  0.6097014700970900
  0.0000452601060440  0.9999651613591749  0.3902825057062406
  0.0000442035461321  0.4999647670368900  0.3902822499929675
  0.5000452601060439  0.9999651613591749  0.3902825057062406
  0.5000442035461322  0.4999647670368900  0.3902822499929675
  0.3199795664444336  0.1799426706906357  0.5760804300491326
  0.3199833327071976  0.6799402206157683  0.5760814724399421
  0.8199795664444335  0.1799426706906357  0.5760804300491326
  0.8199833327071977  0.6799402206157683  0.5760814724399421
  0.9999711616934824  0.1797320003196404  0.4238572885970724
  0.9999698348271640  0.6797295148086112  0.4238562508483311
  0.4999711616934825  0.1797320003196404  0.4238572885970724
  0.4999698348271640  0.6797295148086112  0.4238562508483311
  0.3203148376392247  0.0000131943752387  0.4238414653020992
  0.3203176980472043  0.5000110311306565  0.4238409804862532
  0.8203148376392247  0.0000131943752387  0.4238414653020992
  0.8203176980472043  0.5000110311306565  0.4238409804862532
  0.1794158171066123  0.0001148844822001  0.5761911297801440
  0.1794152085046374  0.5001127193504645  0.5761915894339263
  0.6794158171066124  0.0001148844822001  0.5761911297801440
  0.6794152085046372  0.5001127193504645  0.5761915894339263
  0.9998257464551078  0.3203666786577478  0.5761450118773088
  0.9998240017232330  0.8203705614544752  0.5761460082922975
  0.4998257464551078  0.3203666786577478  0.5761450118773088
  0.4998240017232329  0.8203705614544752  0.5761460082922975
  0.1797476085970807  0.3202326198951588  0.4238948518541659
  0.1797455249044908  0.8202364610320670  0.4238938517098599
  0.6797476085970807  0.3202326198951588  0.4238948518541659
  0.6797455249044906  0.8202364610320670  0.4238938517098599
  0.4994536543181528  0.0002323779306996  0.6920580003376832
  0.4994525020233187  0.5002330209601936  0.6920582058761501
  0.9994536543181527  0.0002323779306996  0.6920580003376832
  0.9994525020233186  0.5002330209601936  0.6920582058761501
  0.0002237384644658  0.4998911152665403  0.3079256223792073
  0.0002232095571216  0.9998905068372616  0.3079258182130089
  0.5002237384644657  0.4998911152665403  0.3079256223792073
  0.5002232095571215  0.9998905068372616  0.3079258182130089
 
  0.00000000E+00  0.00000000E+00  0.00000000E+00
  0.00000000E+00  0.00000000E+00  0.00000000E+00
  0.00000000E+00  0.00000000E+00  0.00000000E+00
  0.00000000E+00  0.00000000E+00  0.00000000E+00
  0.00000000E+00  0.00000000E+00  0.00000000E+00
  0.00000000E+00  0.00000000E+00  0.00000000E+00
  0.00000000E+00  0.00000000E+00  0.00000000E+00
  0.00000000E+00  0.00000000E+00  0.00000000E+00
  0.00000000E+00  0.00000000E+00  0.00000000E+00
  0.00000000E+00  0.00000000E+00  0.00000000E+00
  0.00000000E+00  0.00000000E+00  0.00000000E+00
  0.00000000E+00  0.00000000E+00  0.00000000E+00
  0.00000000E+00  0.00000000E+00  0.00000000E+00
  0.00000000E+00  0.00000000E+00  0.00000000E+00
  0.00000000E+00  0.00000000E+00  0.00000000E+00
  0.00000000E+00  0.00000000E+00  0.00000000E+00
  0.00000000E+00  0.00000000E+00  0.00000000E+00
  0.00000000E+00  0.00000000E+00  0.00000000E+00
  0.00000000E+00  0.00000000E+00  0.00000000E+00
  0.00000000E+00  0.00000000E+00  0.00000000E+00
  0.00000000E+00  0.00000000E+00  0.00000000E+00
  0.00000000E+00  0.00000000E+00  0.00000000E+00
  0.00000000E+00  0.00000000E+00  0.00000000E+00
  0.00000000E+00  0.00000000E+00  0.00000000E+00
  0.00000000E+00  0.00000000E+00  0.00000000E+00
  0.00000000E+00  0.00000000E+00  0.00000000E+00
  0.00000000E+00  0.00000000E+00  0.00000000E+00
  0.00000000E+00  0.00000000E+00  0.00000000E+00
  0.00000000E+00  0.00000000E+00  0.00000000E+00
  0.00000000E+00  0.00000000E+00  0.00000000E+00
  0.00000000E+00  0.00000000E+00  0.00000000E+00
  0.00000000E+00  0.00000000E+00  0.00000000E+00
  0.00000000E+00  0.00000000E+00  0.00000000E+00
  0.00000000E+00  0.00000000E+00  0.00000000E+00
  0.00000000E+00  0.00000000E+00  0.00000000E+00
  0.00000000E+00  0.00000000E+00  0.00000000E+00
  0.00000000E+00  0.00000000E+00  0.00000000E+00
  0.00000000E+00  0.00000000E+00  0.00000000E+00
  0.00000000E+00  0.00000000E+00  0.00000000E+00
  0.00000000E+00  0.00000000E+00  0.00000000E+00
  0.00000000E+00  0.00000000E+00  0.00000000E+00
  0.00000000E+00  0.00000000E+00  0.00000000E+00
  0.00000000E+00  0.00000000E+00  0.00000000E+00
  0.00000000E+00  0.00000000E+00  0.00000000E+00
  0.00000000E+00  0.00000000E+00  0.00000000E+00
  0.00000000E+00  0.00000000E+00  0.00000000E+00
  0.00000000E+00  0.00000000E+00  0.00000000E+00
  0.00000000E+00  0.00000000E+00  0.00000000E+00
