 Nb4 Co4 Te8                            
   1.00000000000000     
     6.2390339094501508    0.0000000000000000    0.0000000000000000
     0.0000000000000000    7.7217231948120748    0.0000000000000000
     0.0000000000000000    0.0000000000000000   19.6901375504819995
   Nb   Co   Te
     4     4     8
Direct
  0.4835100892994433  0.2528782665741787  0.4942076718538431
  0.5164683085244164  0.6517798496714207  0.5057817359948373
  0.9835273101346118  0.1517744833936092  0.5057826532144034
  0.0164815119739146  0.7528995274969219  0.4942122500878341
  0.8547952778859695  0.4576499571667725  0.4587422595761694
  0.3548784990416962  0.9470464783127781  0.5412661903672884
  0.6452045982731818  0.9576604419026182  0.4587370340301646
  0.1451445395934101  0.4470370595304800  0.5412724617178384
  0.2549936864297848  0.9845096341049953  0.4124363497992363
  0.7461912879450807  0.7096816199969993  0.3811713918464505
  0.2461902505353990  0.6950185483965825  0.6188233929775819
  0.7549676607107330  0.4200419881564059  0.5875669950095954
  0.7538022962396695  0.2096735025918406  0.3811721775022079
  0.2538082417319103  0.1950043780771082  0.6188217213401401
  0.2450126327530455  0.4845036027880951  0.4124369581576275
  0.7450238089277406  0.9200526618392075  0.5875687565247887
 
  0.00000000E+00  0.00000000E+00  0.00000000E+00
  0.00000000E+00  0.00000000E+00  0.00000000E+00
  0.00000000E+00  0.00000000E+00  0.00000000E+00
  0.00000000E+00  0.00000000E+00  0.00000000E+00
  0.00000000E+00  0.00000000E+00  0.00000000E+00
  0.00000000E+00  0.00000000E+00  0.00000000E+00
  0.00000000E+00  0.00000000E+00  0.00000000E+00
  0.00000000E+00  0.00000000E+00  0.00000000E+00
  0.00000000E+00  0.00000000E+00  0.00000000E+00
  0.00000000E+00  0.00000000E+00  0.00000000E+00
  0.00000000E+00  0.00000000E+00  0.00000000E+00
  0.00000000E+00  0.00000000E+00  0.00000000E+00
  0.00000000E+00  0.00000000E+00  0.00000000E+00
  0.00000000E+00  0.00000000E+00  0.00000000E+00
  0.00000000E+00  0.00000000E+00  0.00000000E+00
  0.00000000E+00  0.00000000E+00  0.00000000E+00
