G   32   26    1    0.005     # Parameters to Generate KPOINTS (Don't Edit This Line)
     418
Reciprocal lattice
    0.000000000000    0.000000000000    0.000000000000       1
    0.031250000000    0.000000000000    0.000000000000       2
    0.062500000000    0.000000000000    0.000000000000       2
    0.093750000000    0.000000000000    0.000000000000       2
    0.125000000000    0.000000000000    0.000000000000       2
    0.156250000000    0.000000000000    0.000000000000       2
    0.187500000000    0.000000000000    0.000000000000       2
    0.218750000000    0.000000000000    0.000000000000       2
    0.250000000000    0.000000000000    0.000000000000       2
    0.281250000000    0.000000000000    0.000000000000       2
    0.312500000000    0.000000000000    0.000000000000       2
    0.343750000000    0.000000000000    0.000000000000       2
    0.375000000000    0.000000000000    0.000000000000       2
    0.406250000000    0.000000000000    0.000000000000       2
    0.437500000000    0.000000000000    0.000000000000       2
    0.468750000000    0.000000000000    0.000000000000       2
    0.500000000000    0.000000000000    0.000000000000       1
    0.000000000000    0.038461538462    0.000000000000       2
    0.031250000000    0.038461538462    0.000000000000       2
    0.062500000000    0.038461538462    0.000000000000       2
    0.093750000000    0.038461538462    0.000000000000       2
    0.125000000000    0.038461538462    0.000000000000       2
    0.156250000000    0.038461538462    0.000000000000       2
    0.187500000000    0.038461538462    0.000000000000       2
    0.218750000000    0.038461538462    0.000000000000       2
    0.250000000000    0.038461538462    0.000000000000       2
    0.281250000000    0.038461538462    0.000000000000       2
    0.312500000000    0.038461538462    0.000000000000       2
    0.343750000000    0.038461538462    0.000000000000       2
    0.375000000000    0.038461538462    0.000000000000       2
    0.406250000000    0.038461538462    0.000000000000       2
    0.437500000000    0.038461538462    0.000000000000       2
    0.468750000000    0.038461538462    0.000000000000       2
    0.500000000000    0.038461538462    0.000000000000       2
   -0.468750000000    0.038461538462    0.000000000000       2
   -0.437500000000    0.038461538462    0.000000000000       2
   -0.406250000000    0.038461538462    0.000000000000       2
   -0.375000000000    0.038461538462    0.000000000000       2
   -0.343750000000    0.038461538462    0.000000000000       2
   -0.312500000000    0.038461538462    0.000000000000       2
   -0.281250000000    0.038461538462    0.000000000000       2
   -0.250000000000    0.038461538462    0.000000000000       2
   -0.218750000000    0.038461538462    0.000000000000       2
   -0.187500000000    0.038461538462    0.000000000000       2
   -0.156250000000    0.038461538462    0.000000000000       2
   -0.125000000000    0.038461538462    0.000000000000       2
   -0.093750000000    0.038461538462    0.000000000000       2
   -0.062500000000    0.038461538462    0.000000000000       2
   -0.031250000000    0.038461538462    0.000000000000       2
    0.000000000000    0.076923076923    0.000000000000       2
    0.031250000000    0.076923076923    0.000000000000       2
    0.062500000000    0.076923076923    0.000000000000       2
    0.093750000000    0.076923076923    0.000000000000       2
    0.125000000000    0.076923076923    0.000000000000       2
    0.156250000000    0.076923076923    0.000000000000       2
    0.187500000000    0.076923076923    0.000000000000       2
    0.218750000000    0.076923076923    0.000000000000       2
    0.250000000000    0.076923076923    0.000000000000       2
    0.281250000000    0.076923076923    0.000000000000       2
    0.312500000000    0.076923076923    0.000000000000       2
    0.343750000000    0.076923076923    0.000000000000       2
    0.375000000000    0.076923076923    0.000000000000       2
    0.406250000000    0.076923076923    0.000000000000       2
    0.437500000000    0.076923076923    0.000000000000       2
    0.468750000000    0.076923076923    0.000000000000       2
    0.500000000000    0.076923076923    0.000000000000       2
   -0.468750000000    0.076923076923    0.000000000000       2
   -0.437500000000    0.076923076923    0.000000000000       2
   -0.406250000000    0.076923076923    0.000000000000       2
   -0.375000000000    0.076923076923    0.000000000000       2
   -0.343750000000    0.076923076923    0.000000000000       2
   -0.312500000000    0.076923076923    0.000000000000       2
   -0.281250000000    0.076923076923    0.000000000000       2
   -0.250000000000    0.076923076923    0.000000000000       2
   -0.218750000000    0.076923076923    0.000000000000       2
   -0.187500000000    0.076923076923    0.000000000000       2
   -0.156250000000    0.076923076923    0.000000000000       2
   -0.125000000000    0.076923076923    0.000000000000       2
   -0.093750000000    0.076923076923    0.000000000000       2
   -0.062500000000    0.076923076923    0.000000000000       2
   -0.031250000000    0.076923076923    0.000000000000       2
    0.000000000000    0.115384615385    0.000000000000       2
    0.031250000000    0.115384615385    0.000000000000       2
    0.062500000000    0.115384615385    0.000000000000       2
    0.093750000000    0.115384615385    0.000000000000       2
    0.125000000000    0.115384615385    0.000000000000       2
    0.156250000000    0.115384615385    0.000000000000       2
    0.187500000000    0.115384615385    0.000000000000       2
    0.218750000000    0.115384615385    0.000000000000       2
    0.250000000000    0.115384615385    0.000000000000       2
    0.281250000000    0.115384615385    0.000000000000       2
    0.312500000000    0.115384615385    0.000000000000       2
    0.343750000000    0.115384615385    0.000000000000       2
    0.375000000000    0.115384615385    0.000000000000       2
    0.406250000000    0.115384615385    0.000000000000       2
    0.437500000000    0.115384615385    0.000000000000       2
    0.468750000000    0.115384615385    0.000000000000       2
    0.500000000000    0.115384615385    0.000000000000       2
   -0.468750000000    0.115384615385    0.000000000000       2
   -0.437500000000    0.115384615385    0.000000000000       2
   -0.406250000000    0.115384615385    0.000000000000       2
   -0.375000000000    0.115384615385    0.000000000000       2
   -0.343750000000    0.115384615385    0.000000000000       2
   -0.312500000000    0.115384615385    0.000000000000       2
   -0.281250000000    0.115384615385    0.000000000000       2
   -0.250000000000    0.115384615385    0.000000000000       2
   -0.218750000000    0.115384615385    0.000000000000       2
   -0.187500000000    0.115384615385    0.000000000000       2
   -0.156250000000    0.115384615385    0.000000000000       2
   -0.125000000000    0.115384615385    0.000000000000       2
   -0.093750000000    0.115384615385    0.000000000000       2
   -0.062500000000    0.115384615385    0.000000000000       2
   -0.031250000000    0.115384615385    0.000000000000       2
    0.000000000000    0.153846153846    0.000000000000       2
    0.031250000000    0.153846153846    0.000000000000       2
    0.062500000000    0.153846153846    0.000000000000       2
    0.093750000000    0.153846153846    0.000000000000       2
    0.125000000000    0.153846153846    0.000000000000       2
    0.156250000000    0.153846153846    0.000000000000       2
    0.187500000000    0.153846153846    0.000000000000       2
    0.218750000000    0.153846153846    0.000000000000       2
    0.250000000000    0.153846153846    0.000000000000       2
    0.281250000000    0.153846153846    0.000000000000       2
    0.312500000000    0.153846153846    0.000000000000       2
    0.343750000000    0.153846153846    0.000000000000       2
    0.375000000000    0.153846153846    0.000000000000       2
    0.406250000000    0.153846153846    0.000000000000       2
    0.437500000000    0.153846153846    0.000000000000       2
    0.468750000000    0.153846153846    0.000000000000       2
    0.500000000000    0.153846153846    0.000000000000       2
   -0.468750000000    0.153846153846    0.000000000000       2
   -0.437500000000    0.153846153846    0.000000000000       2
   -0.406250000000    0.153846153846    0.000000000000       2
   -0.375000000000    0.153846153846    0.000000000000       2
   -0.343750000000    0.153846153846    0.000000000000       2
   -0.312500000000    0.153846153846    0.000000000000       2
   -0.281250000000    0.153846153846    0.000000000000       2
   -0.250000000000    0.153846153846    0.000000000000       2
   -0.218750000000    0.153846153846    0.000000000000       2
   -0.187500000000    0.153846153846    0.000000000000       2
   -0.156250000000    0.153846153846    0.000000000000       2
   -0.125000000000    0.153846153846    0.000000000000       2
   -0.093750000000    0.153846153846    0.000000000000       2
   -0.062500000000    0.153846153846    0.000000000000       2
   -0.031250000000    0.153846153846    0.000000000000       2
    0.000000000000    0.192307692308    0.000000000000       2
    0.031250000000    0.192307692308    0.000000000000       2
    0.062500000000    0.192307692308    0.000000000000       2
    0.093750000000    0.192307692308    0.000000000000       2
    0.125000000000    0.192307692308    0.000000000000       2
    0.156250000000    0.192307692308    0.000000000000       2
    0.187500000000    0.192307692308    0.000000000000       2
    0.218750000000    0.192307692308    0.000000000000       2
    0.250000000000    0.192307692308    0.000000000000       2
    0.281250000000    0.192307692308    0.000000000000       2
    0.312500000000    0.192307692308    0.000000000000       2
    0.343750000000    0.192307692308    0.000000000000       2
    0.375000000000    0.192307692308    0.000000000000       2
    0.406250000000    0.192307692308    0.000000000000       2
    0.437500000000    0.192307692308    0.000000000000       2
    0.468750000000    0.192307692308    0.000000000000       2
    0.500000000000    0.192307692308    0.000000000000       2
   -0.468750000000    0.192307692308    0.000000000000       2
   -0.437500000000    0.192307692308    0.000000000000       2
   -0.406250000000    0.192307692308    0.000000000000       2
   -0.375000000000    0.192307692308    0.000000000000       2
   -0.343750000000    0.192307692308    0.000000000000       2
   -0.312500000000    0.192307692308    0.000000000000       2
   -0.281250000000    0.192307692308    0.000000000000       2
   -0.250000000000    0.192307692308    0.000000000000       2
   -0.218750000000    0.192307692308    0.000000000000       2
   -0.187500000000    0.192307692308    0.000000000000       2
   -0.156250000000    0.192307692308    0.000000000000       2
   -0.125000000000    0.192307692308    0.000000000000       2
   -0.093750000000    0.192307692308    0.000000000000       2
   -0.062500000000    0.192307692308    0.000000000000       2
   -0.031250000000    0.192307692308    0.000000000000       2
    0.000000000000    0.230769230769    0.000000000000       2
    0.031250000000    0.230769230769    0.000000000000       2
    0.062500000000    0.230769230769    0.000000000000       2
    0.093750000000    0.230769230769    0.000000000000       2
    0.125000000000    0.230769230769    0.000000000000       2
    0.156250000000    0.230769230769    0.000000000000       2
    0.187500000000    0.230769230769    0.000000000000       2
    0.218750000000    0.230769230769    0.000000000000       2
    0.250000000000    0.230769230769    0.000000000000       2
    0.281250000000    0.230769230769    0.000000000000       2
    0.312500000000    0.230769230769    0.000000000000       2
    0.343750000000    0.230769230769    0.000000000000       2
    0.375000000000    0.230769230769    0.000000000000       2
    0.406250000000    0.230769230769    0.000000000000       2
    0.437500000000    0.230769230769    0.000000000000       2
    0.468750000000    0.230769230769    0.000000000000       2
    0.500000000000    0.230769230769    0.000000000000       2
   -0.468750000000    0.230769230769    0.000000000000       2
   -0.437500000000    0.230769230769    0.000000000000       2
   -0.406250000000    0.230769230769    0.000000000000       2
   -0.375000000000    0.230769230769    0.000000000000       2
   -0.343750000000    0.230769230769    0.000000000000       2
   -0.312500000000    0.230769230769    0.000000000000       2
   -0.281250000000    0.230769230769    0.000000000000       2
   -0.250000000000    0.230769230769    0.000000000000       2
   -0.218750000000    0.230769230769    0.000000000000       2
   -0.187500000000    0.230769230769    0.000000000000       2
   -0.156250000000    0.230769230769    0.000000000000       2
   -0.125000000000    0.230769230769    0.000000000000       2
   -0.093750000000    0.230769230769    0.000000000000       2
   -0.062500000000    0.230769230769    0.000000000000       2
   -0.031250000000    0.230769230769    0.000000000000       2
    0.000000000000    0.269230769231    0.000000000000       2
    0.031250000000    0.269230769231    0.000000000000       2
    0.062500000000    0.269230769231    0.000000000000       2
    0.093750000000    0.269230769231    0.000000000000       2
    0.125000000000    0.269230769231    0.000000000000       2
    0.156250000000    0.269230769231    0.000000000000       2
    0.187500000000    0.269230769231    0.000000000000       2
    0.218750000000    0.269230769231    0.000000000000       2
    0.250000000000    0.269230769231    0.000000000000       2
    0.281250000000    0.269230769231    0.000000000000       2
    0.312500000000    0.269230769231    0.000000000000       2
    0.343750000000    0.269230769231    0.000000000000       2
    0.375000000000    0.269230769231    0.000000000000       2
    0.406250000000    0.269230769231    0.000000000000       2
    0.437500000000    0.269230769231    0.000000000000       2
    0.468750000000    0.269230769231    0.000000000000       2
    0.500000000000    0.269230769231    0.000000000000       2
   -0.468750000000    0.269230769231    0.000000000000       2
   -0.437500000000    0.269230769231    0.000000000000       2
   -0.406250000000    0.269230769231    0.000000000000       2
   -0.375000000000    0.269230769231    0.000000000000       2
   -0.343750000000    0.269230769231    0.000000000000       2
   -0.312500000000    0.269230769231    0.000000000000       2
   -0.281250000000    0.269230769231    0.000000000000       2
   -0.250000000000    0.269230769231    0.000000000000       2
   -0.218750000000    0.269230769231    0.000000000000       2
   -0.187500000000    0.269230769231    0.000000000000       2
   -0.156250000000    0.269230769231    0.000000000000       2
   -0.125000000000    0.269230769231    0.000000000000       2
   -0.093750000000    0.269230769231    0.000000000000       2
   -0.062500000000    0.269230769231    0.000000000000       2
   -0.031250000000    0.269230769231    0.000000000000       2
    0.000000000000    0.307692307692    0.000000000000       2
    0.031250000000    0.307692307692    0.000000000000       2
    0.062500000000    0.307692307692    0.000000000000       2
    0.093750000000    0.307692307692    0.000000000000       2
    0.125000000000    0.307692307692    0.000000000000       2
    0.156250000000    0.307692307692    0.000000000000       2
    0.187500000000    0.307692307692    0.000000000000       2
    0.218750000000    0.307692307692    0.000000000000       2
    0.250000000000    0.307692307692    0.000000000000       2
    0.281250000000    0.307692307692    0.000000000000       2
    0.312500000000    0.307692307692    0.000000000000       2
    0.343750000000    0.307692307692    0.000000000000       2
    0.375000000000    0.307692307692    0.000000000000       2
    0.406250000000    0.307692307692    0.000000000000       2
    0.437500000000    0.307692307692    0.000000000000       2
    0.468750000000    0.307692307692    0.000000000000       2
    0.500000000000    0.307692307692    0.000000000000       2
   -0.468750000000    0.307692307692    0.000000000000       2
   -0.437500000000    0.307692307692    0.000000000000       2
   -0.406250000000    0.307692307692    0.000000000000       2
   -0.375000000000    0.307692307692    0.000000000000       2
   -0.343750000000    0.307692307692    0.000000000000       2
   -0.312500000000    0.307692307692    0.000000000000       2
   -0.281250000000    0.307692307692    0.000000000000       2
   -0.250000000000    0.307692307692    0.000000000000       2
   -0.218750000000    0.307692307692    0.000000000000       2
   -0.187500000000    0.307692307692    0.000000000000       2
   -0.156250000000    0.307692307692    0.000000000000       2
   -0.125000000000    0.307692307692    0.000000000000       2
   -0.093750000000    0.307692307692    0.000000000000       2
   -0.062500000000    0.307692307692    0.000000000000       2
   -0.031250000000    0.307692307692    0.000000000000       2
    0.000000000000    0.346153846154    0.000000000000       2
    0.031250000000    0.346153846154    0.000000000000       2
    0.062500000000    0.346153846154    0.000000000000       2
    0.093750000000    0.346153846154    0.000000000000       2
    0.125000000000    0.346153846154    0.000000000000       2
    0.156250000000    0.346153846154    0.000000000000       2
    0.187500000000    0.346153846154    0.000000000000       2
    0.218750000000    0.346153846154    0.000000000000       2
    0.250000000000    0.346153846154    0.000000000000       2
    0.281250000000    0.346153846154    0.000000000000       2
    0.312500000000    0.346153846154    0.000000000000       2
    0.343750000000    0.346153846154    0.000000000000       2
    0.375000000000    0.346153846154    0.000000000000       2
    0.406250000000    0.346153846154    0.000000000000       2
    0.437500000000    0.346153846154    0.000000000000       2
    0.468750000000    0.346153846154    0.000000000000       2
    0.500000000000    0.346153846154    0.000000000000       2
   -0.468750000000    0.346153846154    0.000000000000       2
   -0.437500000000    0.346153846154    0.000000000000       2
   -0.406250000000    0.346153846154    0.000000000000       2
   -0.375000000000    0.346153846154    0.000000000000       2
   -0.343750000000    0.346153846154    0.000000000000       2
   -0.312500000000    0.346153846154    0.000000000000       2
   -0.281250000000    0.346153846154    0.000000000000       2
   -0.250000000000    0.346153846154    0.000000000000       2
   -0.218750000000    0.346153846154    0.000000000000       2
   -0.187500000000    0.346153846154    0.000000000000       2
   -0.156250000000    0.346153846154    0.000000000000       2
   -0.125000000000    0.346153846154    0.000000000000       2
   -0.093750000000    0.346153846154    0.000000000000       2
   -0.062500000000    0.346153846154    0.000000000000       2
   -0.031250000000    0.346153846154    0.000000000000       2
    0.000000000000    0.384615384615    0.000000000000       2
    0.031250000000    0.384615384615    0.000000000000       2
    0.062500000000    0.384615384615    0.000000000000       2
    0.093750000000    0.384615384615    0.000000000000       2
    0.125000000000    0.384615384615    0.000000000000       2
    0.156250000000    0.384615384615    0.000000000000       2
    0.187500000000    0.384615384615    0.000000000000       2
    0.218750000000    0.384615384615    0.000000000000       2
    0.250000000000    0.384615384615    0.000000000000       2
    0.281250000000    0.384615384615    0.000000000000       2
    0.312500000000    0.384615384615    0.000000000000       2
    0.343750000000    0.384615384615    0.000000000000       2
    0.375000000000    0.384615384615    0.000000000000       2
    0.406250000000    0.384615384615    0.000000000000       2
    0.437500000000    0.384615384615    0.000000000000       2
    0.468750000000    0.384615384615    0.000000000000       2
    0.500000000000    0.384615384615    0.000000000000       2
   -0.468750000000    0.384615384615    0.000000000000       2
   -0.437500000000    0.384615384615    0.000000000000       2
   -0.406250000000    0.384615384615    0.000000000000       2
   -0.375000000000    0.384615384615    0.000000000000       2
   -0.343750000000    0.384615384615    0.000000000000       2
   -0.312500000000    0.384615384615    0.000000000000       2
   -0.281250000000    0.384615384615    0.000000000000       2
   -0.250000000000    0.384615384615    0.000000000000       2
   -0.218750000000    0.384615384615    0.000000000000       2
   -0.187500000000    0.384615384615    0.000000000000       2
   -0.156250000000    0.384615384615    0.000000000000       2
   -0.125000000000    0.384615384615    0.000000000000       2
   -0.093750000000    0.384615384615    0.000000000000       2
   -0.062500000000    0.384615384615    0.000000000000       2
   -0.031250000000    0.384615384615    0.000000000000       2
    0.000000000000    0.423076923077    0.000000000000       2
    0.031250000000    0.423076923077    0.000000000000       2
    0.062500000000    0.423076923077    0.000000000000       2
    0.093750000000    0.423076923077    0.000000000000       2
    0.125000000000    0.423076923077    0.000000000000       2
    0.156250000000    0.423076923077    0.000000000000       2
    0.187500000000    0.423076923077    0.000000000000       2
    0.218750000000    0.423076923077    0.000000000000       2
    0.250000000000    0.423076923077    0.000000000000       2
    0.281250000000    0.423076923077    0.000000000000       2
    0.312500000000    0.423076923077    0.000000000000       2
    0.343750000000    0.423076923077    0.000000000000       2
    0.375000000000    0.423076923077    0.000000000000       2
    0.406250000000    0.423076923077    0.000000000000       2
    0.437500000000    0.423076923077    0.000000000000       2
    0.468750000000    0.423076923077    0.000000000000       2
    0.500000000000    0.423076923077    0.000000000000       2
   -0.468750000000    0.423076923077    0.000000000000       2
   -0.437500000000    0.423076923077    0.000000000000       2
   -0.406250000000    0.423076923077    0.000000000000       2
   -0.375000000000    0.423076923077    0.000000000000       2
   -0.343750000000    0.423076923077    0.000000000000       2
   -0.312500000000    0.423076923077    0.000000000000       2
   -0.281250000000    0.423076923077    0.000000000000       2
   -0.250000000000    0.423076923077    0.000000000000       2
   -0.218750000000    0.423076923077    0.000000000000       2
   -0.187500000000    0.423076923077    0.000000000000       2
   -0.156250000000    0.423076923077    0.000000000000       2
   -0.125000000000    0.423076923077    0.000000000000       2
   -0.093750000000    0.423076923077    0.000000000000       2
   -0.062500000000    0.423076923077    0.000000000000       2
   -0.031250000000    0.423076923077    0.000000000000       2
    0.000000000000    0.461538461538    0.000000000000       2
    0.031250000000    0.461538461538    0.000000000000       2
    0.062500000000    0.461538461538    0.000000000000       2
    0.093750000000    0.461538461538    0.000000000000       2
    0.125000000000    0.461538461538    0.000000000000       2
    0.156250000000    0.461538461538    0.000000000000       2
    0.187500000000    0.461538461538    0.000000000000       2
    0.218750000000    0.461538461538    0.000000000000       2
    0.250000000000    0.461538461538    0.000000000000       2
    0.281250000000    0.461538461538    0.000000000000       2
    0.312500000000    0.461538461538    0.000000000000       2
    0.343750000000    0.461538461538    0.000000000000       2
    0.375000000000    0.461538461538    0.000000000000       2
    0.406250000000    0.461538461538    0.000000000000       2
    0.437500000000    0.461538461538    0.000000000000       2
    0.468750000000    0.461538461538    0.000000000000       2
    0.500000000000    0.461538461538    0.000000000000       2
   -0.468750000000    0.461538461538    0.000000000000       2
   -0.437500000000    0.461538461538    0.000000000000       2
   -0.406250000000    0.461538461538    0.000000000000       2
   -0.375000000000    0.461538461538    0.000000000000       2
   -0.343750000000    0.461538461538    0.000000000000       2
   -0.312500000000    0.461538461538    0.000000000000       2
   -0.281250000000    0.461538461538    0.000000000000       2
   -0.250000000000    0.461538461538    0.000000000000       2
   -0.218750000000    0.461538461538    0.000000000000       2
   -0.187500000000    0.461538461538    0.000000000000       2
   -0.156250000000    0.461538461538    0.000000000000       2
   -0.125000000000    0.461538461538    0.000000000000       2
   -0.093750000000    0.461538461538    0.000000000000       2
   -0.062500000000    0.461538461538    0.000000000000       2
   -0.031250000000    0.461538461538    0.000000000000       2
    0.000000000000    0.500000000000    0.000000000000       1
    0.031250000000    0.500000000000    0.000000000000       2
    0.062500000000    0.500000000000    0.000000000000       2
    0.093750000000    0.500000000000    0.000000000000       2
    0.125000000000    0.500000000000    0.000000000000       2
    0.156250000000    0.500000000000    0.000000000000       2
    0.187500000000    0.500000000000    0.000000000000       2
    0.218750000000    0.500000000000    0.000000000000       2
    0.250000000000    0.500000000000    0.000000000000       2
    0.281250000000    0.500000000000    0.000000000000       2
    0.312500000000    0.500000000000    0.000000000000       2
    0.343750000000    0.500000000000    0.000000000000       2
    0.375000000000    0.500000000000    0.000000000000       2
    0.406250000000    0.500000000000    0.000000000000       2
    0.437500000000    0.500000000000    0.000000000000       2
    0.468750000000    0.500000000000    0.000000000000       2
    0.500000000000    0.500000000000    0.000000000000       1
