G   54   15    1    0.005     # Parameters to Generate KPOINTS (Don't Edit This Line)
     406
Reciprocal lattice
    0.000000000000    0.000000000000    0.000000000000       1
    0.018518518519    0.000000000000    0.000000000000       2
    0.037037037037    0.000000000000    0.000000000000       2
    0.055555555556    0.000000000000    0.000000000000       2
    0.074074074074    0.000000000000    0.000000000000       2
    0.092592592593    0.000000000000    0.000000000000       2
    0.111111111111    0.000000000000    0.000000000000       2
    0.129629629630    0.000000000000    0.000000000000       2
    0.148148148148    0.000000000000    0.000000000000       2
    0.166666666667    0.000000000000    0.000000000000       2
    0.185185185185    0.000000000000    0.000000000000       2
    0.203703703704    0.000000000000    0.000000000000       2
    0.222222222222    0.000000000000    0.000000000000       2
    0.240740740741    0.000000000000    0.000000000000       2
    0.259259259259    0.000000000000    0.000000000000       2
    0.277777777778    0.000000000000    0.000000000000       2
    0.296296296296    0.000000000000    0.000000000000       2
    0.314814814815    0.000000000000    0.000000000000       2
    0.333333333333    0.000000000000    0.000000000000       2
    0.351851851852    0.000000000000    0.000000000000       2
    0.370370370370    0.000000000000    0.000000000000       2
    0.388888888889    0.000000000000    0.000000000000       2
    0.407407407407    0.000000000000    0.000000000000       2
    0.425925925926    0.000000000000    0.000000000000       2
    0.444444444444    0.000000000000    0.000000000000       2
    0.462962962963    0.000000000000    0.000000000000       2
    0.481481481481    0.000000000000    0.000000000000       2
    0.500000000000    0.000000000000    0.000000000000       1
    0.000000000000    0.066666666667    0.000000000000       2
    0.018518518519    0.066666666667    0.000000000000       2
    0.037037037037    0.066666666667    0.000000000000       2
    0.055555555556    0.066666666667    0.000000000000       2
    0.074074074074    0.066666666667    0.000000000000       2
    0.092592592593    0.066666666667    0.000000000000       2
    0.111111111111    0.066666666667    0.000000000000       2
    0.129629629630    0.066666666667    0.000000000000       2
    0.148148148148    0.066666666667    0.000000000000       2
    0.166666666667    0.066666666667    0.000000000000       2
    0.185185185185    0.066666666667    0.000000000000       2
    0.203703703704    0.066666666667    0.000000000000       2
    0.222222222222    0.066666666667    0.000000000000       2
    0.240740740741    0.066666666667    0.000000000000       2
    0.259259259259    0.066666666667    0.000000000000       2
    0.277777777778    0.066666666667    0.000000000000       2
    0.296296296296    0.066666666667    0.000000000000       2
    0.314814814815    0.066666666667    0.000000000000       2
    0.333333333333    0.066666666667    0.000000000000       2
    0.351851851852    0.066666666667    0.000000000000       2
    0.370370370370    0.066666666667    0.000000000000       2
    0.388888888889    0.066666666667    0.000000000000       2
    0.407407407407    0.066666666667    0.000000000000       2
    0.425925925926    0.066666666667    0.000000000000       2
    0.444444444444    0.066666666667    0.000000000000       2
    0.462962962963    0.066666666667    0.000000000000       2
    0.481481481481    0.066666666667    0.000000000000       2
    0.500000000000    0.066666666667    0.000000000000       2
   -0.481481481481    0.066666666667    0.000000000000       2
   -0.462962962963    0.066666666667    0.000000000000       2
   -0.444444444444    0.066666666667    0.000000000000       2
   -0.425925925926    0.066666666667    0.000000000000       2
   -0.407407407407    0.066666666667    0.000000000000       2
   -0.388888888889    0.066666666667    0.000000000000       2
   -0.370370370370    0.066666666667    0.000000000000       2
   -0.351851851852    0.066666666667    0.000000000000       2
   -0.333333333333    0.066666666667    0.000000000000       2
   -0.314814814815    0.066666666667    0.000000000000       2
   -0.296296296296    0.066666666667    0.000000000000       2
   -0.277777777778    0.066666666667    0.000000000000       2
   -0.259259259259    0.066666666667    0.000000000000       2
   -0.240740740741    0.066666666667    0.000000000000       2
   -0.222222222222    0.066666666667    0.000000000000       2
   -0.203703703704    0.066666666667    0.000000000000       2
   -0.185185185185    0.066666666667    0.000000000000       2
   -0.166666666667    0.066666666667    0.000000000000       2
   -0.148148148148    0.066666666667    0.000000000000       2
   -0.129629629630    0.066666666667    0.000000000000       2
   -0.111111111111    0.066666666667    0.000000000000       2
   -0.092592592593    0.066666666667    0.000000000000       2
   -0.074074074074    0.066666666667    0.000000000000       2
   -0.055555555556    0.066666666667    0.000000000000       2
   -0.037037037037    0.066666666667    0.000000000000       2
   -0.018518518519    0.066666666667    0.000000000000       2
    0.000000000000    0.133333333333    0.000000000000       2
    0.018518518519    0.133333333333    0.000000000000       2
    0.037037037037    0.133333333333    0.000000000000       2
    0.055555555556    0.133333333333    0.000000000000       2
    0.074074074074    0.133333333333    0.000000000000       2
    0.092592592593    0.133333333333    0.000000000000       2
    0.111111111111    0.133333333333    0.000000000000       2
    0.129629629630    0.133333333333    0.000000000000       2
    0.148148148148    0.133333333333    0.000000000000       2
    0.166666666667    0.133333333333    0.000000000000       2
    0.185185185185    0.133333333333    0.000000000000       2
    0.203703703704    0.133333333333    0.000000000000       2
    0.222222222222    0.133333333333    0.000000000000       2
    0.240740740741    0.133333333333    0.000000000000       2
    0.259259259259    0.133333333333    0.000000000000       2
    0.277777777778    0.133333333333    0.000000000000       2
    0.296296296296    0.133333333333    0.000000000000       2
    0.314814814815    0.133333333333    0.000000000000       2
    0.333333333333    0.133333333333    0.000000000000       2
    0.351851851852    0.133333333333    0.000000000000       2
    0.370370370370    0.133333333333    0.000000000000       2
    0.388888888889    0.133333333333    0.000000000000       2
    0.407407407407    0.133333333333    0.000000000000       2
    0.425925925926    0.133333333333    0.000000000000       2
    0.444444444444    0.133333333333    0.000000000000       2
    0.462962962963    0.133333333333    0.000000000000       2
    0.481481481481    0.133333333333    0.000000000000       2
    0.500000000000    0.133333333333    0.000000000000       2
   -0.481481481481    0.133333333333    0.000000000000       2
   -0.462962962963    0.133333333333    0.000000000000       2
   -0.444444444444    0.133333333333    0.000000000000       2
   -0.425925925926    0.133333333333    0.000000000000       2
   -0.407407407407    0.133333333333    0.000000000000       2
   -0.388888888889    0.133333333333    0.000000000000       2
   -0.370370370370    0.133333333333    0.000000000000       2
   -0.351851851852    0.133333333333    0.000000000000       2
   -0.333333333333    0.133333333333    0.000000000000       2
   -0.314814814815    0.133333333333    0.000000000000       2
   -0.296296296296    0.133333333333    0.000000000000       2
   -0.277777777778    0.133333333333    0.000000000000       2
   -0.259259259259    0.133333333333    0.000000000000       2
   -0.240740740741    0.133333333333    0.000000000000       2
   -0.222222222222    0.133333333333    0.000000000000       2
   -0.203703703704    0.133333333333    0.000000000000       2
   -0.185185185185    0.133333333333    0.000000000000       2
   -0.166666666667    0.133333333333    0.000000000000       2
   -0.148148148148    0.133333333333    0.000000000000       2
   -0.129629629630    0.133333333333    0.000000000000       2
   -0.111111111111    0.133333333333    0.000000000000       2
   -0.092592592593    0.133333333333    0.000000000000       2
   -0.074074074074    0.133333333333    0.000000000000       2
   -0.055555555556    0.133333333333    0.000000000000       2
   -0.037037037037    0.133333333333    0.000000000000       2
   -0.018518518519    0.133333333333    0.000000000000       2
    0.000000000000    0.200000000000    0.000000000000       2
    0.018518518519    0.200000000000    0.000000000000       2
    0.037037037037    0.200000000000    0.000000000000       2
    0.055555555556    0.200000000000    0.000000000000       2
    0.074074074074    0.200000000000    0.000000000000       2
    0.092592592593    0.200000000000    0.000000000000       2
    0.111111111111    0.200000000000    0.000000000000       2
    0.129629629630    0.200000000000    0.000000000000       2
    0.148148148148    0.200000000000    0.000000000000       2
    0.166666666667    0.200000000000    0.000000000000       2
    0.185185185185    0.200000000000    0.000000000000       2
    0.203703703704    0.200000000000    0.000000000000       2
    0.222222222222    0.200000000000    0.000000000000       2
    0.240740740741    0.200000000000    0.000000000000       2
    0.259259259259    0.200000000000    0.000000000000       2
    0.277777777778    0.200000000000    0.000000000000       2
    0.296296296296    0.200000000000    0.000000000000       2
    0.314814814815    0.200000000000    0.000000000000       2
    0.333333333333    0.200000000000    0.000000000000       2
    0.351851851852    0.200000000000    0.000000000000       2
    0.370370370370    0.200000000000    0.000000000000       2
    0.388888888889    0.200000000000    0.000000000000       2
    0.407407407407    0.200000000000    0.000000000000       2
    0.425925925926    0.200000000000    0.000000000000       2
    0.444444444444    0.200000000000    0.000000000000       2
    0.462962962963    0.200000000000    0.000000000000       2
    0.481481481481    0.200000000000    0.000000000000       2
    0.500000000000    0.200000000000    0.000000000000       2
   -0.481481481481    0.200000000000    0.000000000000       2
   -0.462962962963    0.200000000000    0.000000000000       2
   -0.444444444444    0.200000000000    0.000000000000       2
   -0.425925925926    0.200000000000    0.000000000000       2
   -0.407407407407    0.200000000000    0.000000000000       2
   -0.388888888889    0.200000000000    0.000000000000       2
   -0.370370370370    0.200000000000    0.000000000000       2
   -0.351851851852    0.200000000000    0.000000000000       2
   -0.333333333333    0.200000000000    0.000000000000       2
   -0.314814814815    0.200000000000    0.000000000000       2
   -0.296296296296    0.200000000000    0.000000000000       2
   -0.277777777778    0.200000000000    0.000000000000       2
   -0.259259259259    0.200000000000    0.000000000000       2
   -0.240740740741    0.200000000000    0.000000000000       2
   -0.222222222222    0.200000000000    0.000000000000       2
   -0.203703703704    0.200000000000    0.000000000000       2
   -0.185185185185    0.200000000000    0.000000000000       2
   -0.166666666667    0.200000000000    0.000000000000       2
   -0.148148148148    0.200000000000    0.000000000000       2
   -0.129629629630    0.200000000000    0.000000000000       2
   -0.111111111111    0.200000000000    0.000000000000       2
   -0.092592592593    0.200000000000    0.000000000000       2
   -0.074074074074    0.200000000000    0.000000000000       2
   -0.055555555556    0.200000000000    0.000000000000       2
   -0.037037037037    0.200000000000    0.000000000000       2
   -0.018518518519    0.200000000000    0.000000000000       2
    0.000000000000    0.266666666667    0.000000000000       2
    0.018518518519    0.266666666667    0.000000000000       2
    0.037037037037    0.266666666667    0.000000000000       2
    0.055555555556    0.266666666667    0.000000000000       2
    0.074074074074    0.266666666667    0.000000000000       2
    0.092592592593    0.266666666667    0.000000000000       2
    0.111111111111    0.266666666667    0.000000000000       2
    0.129629629630    0.266666666667    0.000000000000       2
    0.148148148148    0.266666666667    0.000000000000       2
    0.166666666667    0.266666666667    0.000000000000       2
    0.185185185185    0.266666666667    0.000000000000       2
    0.203703703704    0.266666666667    0.000000000000       2
    0.222222222222    0.266666666667    0.000000000000       2
    0.240740740741    0.266666666667    0.000000000000       2
    0.259259259259    0.266666666667    0.000000000000       2
    0.277777777778    0.266666666667    0.000000000000       2
    0.296296296296    0.266666666667    0.000000000000       2
    0.314814814815    0.266666666667    0.000000000000       2
    0.333333333333    0.266666666667    0.000000000000       2
    0.351851851852    0.266666666667    0.000000000000       2
    0.370370370370    0.266666666667    0.000000000000       2
    0.388888888889    0.266666666667    0.000000000000       2
    0.407407407407    0.266666666667    0.000000000000       2
    0.425925925926    0.266666666667    0.000000000000       2
    0.444444444444    0.266666666667    0.000000000000       2
    0.462962962963    0.266666666667    0.000000000000       2
    0.481481481481    0.266666666667    0.000000000000       2
    0.500000000000    0.266666666667    0.000000000000       2
   -0.481481481481    0.266666666667    0.000000000000       2
   -0.462962962963    0.266666666667    0.000000000000       2
   -0.444444444444    0.266666666667    0.000000000000       2
   -0.425925925926    0.266666666667    0.000000000000       2
   -0.407407407407    0.266666666667    0.000000000000       2
   -0.388888888889    0.266666666667    0.000000000000       2
   -0.370370370370    0.266666666667    0.000000000000       2
   -0.351851851852    0.266666666667    0.000000000000       2
   -0.333333333333    0.266666666667    0.000000000000       2
   -0.314814814815    0.266666666667    0.000000000000       2
   -0.296296296296    0.266666666667    0.000000000000       2
   -0.277777777778    0.266666666667    0.000000000000       2
   -0.259259259259    0.266666666667    0.000000000000       2
   -0.240740740741    0.266666666667    0.000000000000       2
   -0.222222222222    0.266666666667    0.000000000000       2
   -0.203703703704    0.266666666667    0.000000000000       2
   -0.185185185185    0.266666666667    0.000000000000       2
   -0.166666666667    0.266666666667    0.000000000000       2
   -0.148148148148    0.266666666667    0.000000000000       2
   -0.129629629630    0.266666666667    0.000000000000       2
   -0.111111111111    0.266666666667    0.000000000000       2
   -0.092592592593    0.266666666667    0.000000000000       2
   -0.074074074074    0.266666666667    0.000000000000       2
   -0.055555555556    0.266666666667    0.000000000000       2
   -0.037037037037    0.266666666667    0.000000000000       2
   -0.018518518519    0.266666666667    0.000000000000       2
    0.000000000000    0.333333333333    0.000000000000       2
    0.018518518519    0.333333333333    0.000000000000       2
    0.037037037037    0.333333333333    0.000000000000       2
    0.055555555556    0.333333333333    0.000000000000       2
    0.074074074074    0.333333333333    0.000000000000       2
    0.092592592593    0.333333333333    0.000000000000       2
    0.111111111111    0.333333333333    0.000000000000       2
    0.129629629630    0.333333333333    0.000000000000       2
    0.148148148148    0.333333333333    0.000000000000       2
    0.166666666667    0.333333333333    0.000000000000       2
    0.185185185185    0.333333333333    0.000000000000       2
    0.203703703704    0.333333333333    0.000000000000       2
    0.222222222222    0.333333333333    0.000000000000       2
    0.240740740741    0.333333333333    0.000000000000       2
    0.259259259259    0.333333333333    0.000000000000       2
    0.277777777778    0.333333333333    0.000000000000       2
    0.296296296296    0.333333333333    0.000000000000       2
    0.314814814815    0.333333333333    0.000000000000       2
    0.333333333333    0.333333333333    0.000000000000       2
    0.351851851852    0.333333333333    0.000000000000       2
    0.370370370370    0.333333333333    0.000000000000       2
    0.388888888889    0.333333333333    0.000000000000       2
    0.407407407407    0.333333333333    0.000000000000       2
    0.425925925926    0.333333333333    0.000000000000       2
    0.444444444444    0.333333333333    0.000000000000       2
    0.462962962963    0.333333333333    0.000000000000       2
    0.481481481481    0.333333333333    0.000000000000       2
    0.500000000000    0.333333333333    0.000000000000       2
   -0.481481481481    0.333333333333    0.000000000000       2
   -0.462962962963    0.333333333333    0.000000000000       2
   -0.444444444444    0.333333333333    0.000000000000       2
   -0.425925925926    0.333333333333    0.000000000000       2
   -0.407407407407    0.333333333333    0.000000000000       2
   -0.388888888889    0.333333333333    0.000000000000       2
   -0.370370370370    0.333333333333    0.000000000000       2
   -0.351851851852    0.333333333333    0.000000000000       2
   -0.333333333333    0.333333333333    0.000000000000       2
   -0.314814814815    0.333333333333    0.000000000000       2
   -0.296296296296    0.333333333333    0.000000000000       2
   -0.277777777778    0.333333333333    0.000000000000       2
   -0.259259259259    0.333333333333    0.000000000000       2
   -0.240740740741    0.333333333333    0.000000000000       2
   -0.222222222222    0.333333333333    0.000000000000       2
   -0.203703703704    0.333333333333    0.000000000000       2
   -0.185185185185    0.333333333333    0.000000000000       2
   -0.166666666667    0.333333333333    0.000000000000       2
   -0.148148148148    0.333333333333    0.000000000000       2
   -0.129629629630    0.333333333333    0.000000000000       2
   -0.111111111111    0.333333333333    0.000000000000       2
   -0.092592592593    0.333333333333    0.000000000000       2
   -0.074074074074    0.333333333333    0.000000000000       2
   -0.055555555556    0.333333333333    0.000000000000       2
   -0.037037037037    0.333333333333    0.000000000000       2
   -0.018518518519    0.333333333333    0.000000000000       2
    0.000000000000    0.400000000000    0.000000000000       2
    0.018518518519    0.400000000000    0.000000000000       2
    0.037037037037    0.400000000000    0.000000000000       2
    0.055555555556    0.400000000000    0.000000000000       2
    0.074074074074    0.400000000000    0.000000000000       2
    0.092592592593    0.400000000000    0.000000000000       2
    0.111111111111    0.400000000000    0.000000000000       2
    0.129629629630    0.400000000000    0.000000000000       2
    0.148148148148    0.400000000000    0.000000000000       2
    0.166666666667    0.400000000000    0.000000000000       2
    0.185185185185    0.400000000000    0.000000000000       2
    0.203703703704    0.400000000000    0.000000000000       2
    0.222222222222    0.400000000000    0.000000000000       2
    0.240740740741    0.400000000000    0.000000000000       2
    0.259259259259    0.400000000000    0.000000000000       2
    0.277777777778    0.400000000000    0.000000000000       2
    0.296296296296    0.400000000000    0.000000000000       2
    0.314814814815    0.400000000000    0.000000000000       2
    0.333333333333    0.400000000000    0.000000000000       2
    0.351851851852    0.400000000000    0.000000000000       2
    0.370370370370    0.400000000000    0.000000000000       2
    0.388888888889    0.400000000000    0.000000000000       2
    0.407407407407    0.400000000000    0.000000000000       2
    0.425925925926    0.400000000000    0.000000000000       2
    0.444444444444    0.400000000000    0.000000000000       2
    0.462962962963    0.400000000000    0.000000000000       2
    0.481481481481    0.400000000000    0.000000000000       2
    0.500000000000    0.400000000000    0.000000000000       2
   -0.481481481481    0.400000000000    0.000000000000       2
   -0.462962962963    0.400000000000    0.000000000000       2
   -0.444444444444    0.400000000000    0.000000000000       2
   -0.425925925926    0.400000000000    0.000000000000       2
   -0.407407407407    0.400000000000    0.000000000000       2
   -0.388888888889    0.400000000000    0.000000000000       2
   -0.370370370370    0.400000000000    0.000000000000       2
   -0.351851851852    0.400000000000    0.000000000000       2
   -0.333333333333    0.400000000000    0.000000000000       2
   -0.314814814815    0.400000000000    0.000000000000       2
   -0.296296296296    0.400000000000    0.000000000000       2
   -0.277777777778    0.400000000000    0.000000000000       2
   -0.259259259259    0.400000000000    0.000000000000       2
   -0.240740740741    0.400000000000    0.000000000000       2
   -0.222222222222    0.400000000000    0.000000000000       2
   -0.203703703704    0.400000000000    0.000000000000       2
   -0.185185185185    0.400000000000    0.000000000000       2
   -0.166666666667    0.400000000000    0.000000000000       2
   -0.148148148148    0.400000000000    0.000000000000       2
   -0.129629629630    0.400000000000    0.000000000000       2
   -0.111111111111    0.400000000000    0.000000000000       2
   -0.092592592593    0.400000000000    0.000000000000       2
   -0.074074074074    0.400000000000    0.000000000000       2
   -0.055555555556    0.400000000000    0.000000000000       2
   -0.037037037037    0.400000000000    0.000000000000       2
   -0.018518518519    0.400000000000    0.000000000000       2
    0.000000000000    0.466666666667    0.000000000000       2
    0.018518518519    0.466666666667    0.000000000000       2
    0.037037037037    0.466666666667    0.000000000000       2
    0.055555555556    0.466666666667    0.000000000000       2
    0.074074074074    0.466666666667    0.000000000000       2
    0.092592592593    0.466666666667    0.000000000000       2
    0.111111111111    0.466666666667    0.000000000000       2
    0.129629629630    0.466666666667    0.000000000000       2
    0.148148148148    0.466666666667    0.000000000000       2
    0.166666666667    0.466666666667    0.000000000000       2
    0.185185185185    0.466666666667    0.000000000000       2
    0.203703703704    0.466666666667    0.000000000000       2
    0.222222222222    0.466666666667    0.000000000000       2
    0.240740740741    0.466666666667    0.000000000000       2
    0.259259259259    0.466666666667    0.000000000000       2
    0.277777777778    0.466666666667    0.000000000000       2
    0.296296296296    0.466666666667    0.000000000000       2
    0.314814814815    0.466666666667    0.000000000000       2
    0.333333333333    0.466666666667    0.000000000000       2
    0.351851851852    0.466666666667    0.000000000000       2
    0.370370370370    0.466666666667    0.000000000000       2
    0.388888888889    0.466666666667    0.000000000000       2
    0.407407407407    0.466666666667    0.000000000000       2
    0.425925925926    0.466666666667    0.000000000000       2
    0.444444444444    0.466666666667    0.000000000000       2
    0.462962962963    0.466666666667    0.000000000000       2
    0.481481481481    0.466666666667    0.000000000000       2
    0.500000000000    0.466666666667    0.000000000000       2
   -0.481481481481    0.466666666667    0.000000000000       2
   -0.462962962963    0.466666666667    0.000000000000       2
   -0.444444444444    0.466666666667    0.000000000000       2
   -0.425925925926    0.466666666667    0.000000000000       2
   -0.407407407407    0.466666666667    0.000000000000       2
   -0.388888888889    0.466666666667    0.000000000000       2
   -0.370370370370    0.466666666667    0.000000000000       2
   -0.351851851852    0.466666666667    0.000000000000       2
   -0.333333333333    0.466666666667    0.000000000000       2
   -0.314814814815    0.466666666667    0.000000000000       2
   -0.296296296296    0.466666666667    0.000000000000       2
   -0.277777777778    0.466666666667    0.000000000000       2
   -0.259259259259    0.466666666667    0.000000000000       2
   -0.240740740741    0.466666666667    0.000000000000       2
   -0.222222222222    0.466666666667    0.000000000000       2
   -0.203703703704    0.466666666667    0.000000000000       2
   -0.185185185185    0.466666666667    0.000000000000       2
   -0.166666666667    0.466666666667    0.000000000000       2
   -0.148148148148    0.466666666667    0.000000000000       2
   -0.129629629630    0.466666666667    0.000000000000       2
   -0.111111111111    0.466666666667    0.000000000000       2
   -0.092592592593    0.466666666667    0.000000000000       2
   -0.074074074074    0.466666666667    0.000000000000       2
   -0.055555555556    0.466666666667    0.000000000000       2
   -0.037037037037    0.466666666667    0.000000000000       2
   -0.018518518519    0.466666666667    0.000000000000       2
