 La1 I2                                 
   1.00000000000000     
     3.9228536189472156    0.0000000000000000    0.0000000000000000
     0.0000000000000000    3.9228361400741583    0.0000000000000000
     0.0000000000000000    0.0000000000000000   18.8055876625919964
   La   I 
     1     2
Direct
 -0.0000011683720308  0.0000008596136357  0.4999999225849992
  0.5000005853638708  0.4999996202092519  0.3988470068576583
  0.5000005830081600  0.4999995201771124  0.6011530705573425
 
  0.00000000E+00  0.00000000E+00  0.00000000E+00
  0.00000000E+00  0.00000000E+00  0.00000000E+00
  0.00000000E+00  0.00000000E+00  0.00000000E+00
