CONTCAR\(6)                             
   1.00000000000000     
    13.9937000274999992    0.0000000000000000    0.0000000000000000
     0.0000000000000000   12.1743001938000006    0.0000000000000000
     0.0000000000000000    0.0000000000000000   22.0200004577999984
   Ta   Se   O    H 
    16    48     2     1
Direct
  0.0620468293439384  0.9940467530537953  0.4163159229231609
  0.1872702068705744  0.8553043504919645  0.5817538827327414
  0.0619911879784905  0.5874136145519158  0.4749961549392108
  0.1871620925407859  0.2619078869849386  0.5232506608963675
  0.3120341506949011  0.9940601863655136  0.4162956089917971
  0.4370817726152864  0.8551146476254143  0.5819821853974879
  0.3120684953897410  0.5872415282824019  0.4748907004284555
  0.4371350628471415  0.2616872910157790  0.5231862925964825
  0.5620781684646978  0.9939845055558822  0.4163380790860405
  0.6868727335343492  0.8554322129993353  0.5818261206270817
  0.5619897521002519  0.5872156027000603  0.4750104941408399
  0.6871271932004561  0.2619040929407006  0.5232009221711924
  0.8120655378029462  0.9941320112651100  0.4162866959085944
  0.9370555121227621  0.8552108028376093  0.5818299611920189
  0.8120473254625467  0.5873105825724273  0.4749711354756398
  0.9372059385467355  0.2619011627498791  0.5231331760957247
  0.0619991060283919  0.8148478971701822  0.4929391786614548
  0.1871973921963737  0.0344114636477402  0.5051317605912806
  0.0621975230571837  0.9849486481683229  0.6379989191090601
  0.1870528667689829  0.8641315469998478  0.3600817780228832
  0.1869890551279311  0.4364509628025767  0.4396190102747559
  0.0621236078949453  0.4129811330495342  0.5586054856579603
  0.1873577263193806  0.6316676899672953  0.5633950479557588
  0.0621184145921920  0.2173721850403988  0.4347695745317310
  0.1870435287314536  0.0768487063349593  0.3403973390493509
  0.0621444386787103  0.7721343758779512  0.6574849425510400
  0.1868652759877057  0.6557739934834422  0.3930663220007381
  0.0621501914108693  0.1934121946560796  0.6050977529013037
  0.3119927656482933  0.8148340487279517  0.4928559670056817
  0.4370767146067776  0.0341372709651880  0.5051982286809320
  0.3121237504363800  0.9845485622010079  0.6381057485746966
  0.4369860498373065  0.8641245070825277  0.3601353723327065
  0.4371188366765442  0.4361499839846875  0.4396215023639525
  0.3122806393727702  0.4126536969565954  0.5585846890067433
  0.4369951312316153  0.6316396507111981  0.5633904405700286
  0.3119841286599262  0.2174192449866887  0.4347513365085640
  0.4371419111959369  0.0767324827172036  0.3403916333069281
  0.3118245021745545  0.7720873827470288  0.6573949976990753
  0.4370526719747738  0.6557453025643378  0.3930782284543737
  0.3122018791654624  0.1931474663774225  0.6050210365795641
  0.5621446200896855  0.8147782802600018  0.4929204737305022
  0.6871329630860756  0.0344225689029133  0.5051263596113335
  0.5619506107911504  0.9849114127602345  0.6379550108689576
  0.6870651162682664  0.8640806919976942  0.3601346156292287
  0.6869247252518649  0.4363020681204682  0.4396324849018777
  0.5620960384835976  0.4126446701841456  0.5587313173125684
  0.6869848565041897  0.6317315504640945  0.5635017873502777
  0.5620781929912511  0.2173315735703452  0.4347417685512565
  0.6870523149069823  0.0765840634134029  0.3402769443540042
  0.5620921460288049  0.7717883647787541  0.6573728761142870
  0.6868904059085764  0.6557048674133723  0.3931841568615955
  0.5621633255851080  0.1930527143680931  0.6050000409577163
  0.8120320146783402  0.8148812227435898  0.4929573026010838
  0.9371017992884783  0.0343480764479716  0.5051748927193055
  0.8120553659174782  0.9852411233160493  0.6379070319484510
  0.9369314569120992  0.8642819668596173  0.3601184922327638
  0.9371203686126687  0.4364118232387539  0.4395052574470980
  0.8122185149144787  0.4129023975866109  0.5585288861839303
  0.9370117264506806  0.6317224436265143  0.5633992148411021
  0.8119824215011123  0.2175053306225505  0.4347415963844711
  0.9371775950947725  0.0770613149368931  0.3404554916946496
  0.8119068784361796  0.7725299972307567  0.6575611361372927
  0.9368647154288485  0.6559542544676106  0.3931212318505772
  0.8122466385407872  0.1936343463585163  0.6051115787747788
  0.4400678942363855  0.8800697774916476  0.7579574845377203
  0.4468895661475822  0.9386862577220292  0.8105158270248612
  0.4518177446544639  0.8822890829045252  0.8426529983849796
 
  0.00000000E+00  0.00000000E+00  0.00000000E+00
  0.00000000E+00  0.00000000E+00  0.00000000E+00
  0.00000000E+00  0.00000000E+00  0.00000000E+00
  0.00000000E+00  0.00000000E+00  0.00000000E+00
  0.00000000E+00  0.00000000E+00  0.00000000E+00
  0.00000000E+00  0.00000000E+00  0.00000000E+00
  0.00000000E+00  0.00000000E+00  0.00000000E+00
  0.00000000E+00  0.00000000E+00  0.00000000E+00
  0.00000000E+00  0.00000000E+00  0.00000000E+00
  0.00000000E+00  0.00000000E+00  0.00000000E+00
  0.00000000E+00  0.00000000E+00  0.00000000E+00
  0.00000000E+00  0.00000000E+00  0.00000000E+00
  0.00000000E+00  0.00000000E+00  0.00000000E+00
  0.00000000E+00  0.00000000E+00  0.00000000E+00
  0.00000000E+00  0.00000000E+00  0.00000000E+00
  0.00000000E+00  0.00000000E+00  0.00000000E+00
  0.00000000E+00  0.00000000E+00  0.00000000E+00
  0.00000000E+00  0.00000000E+00  0.00000000E+00
  0.00000000E+00  0.00000000E+00  0.00000000E+00
  0.00000000E+00  0.00000000E+00  0.00000000E+00
  0.00000000E+00  0.00000000E+00  0.00000000E+00
  0.00000000E+00  0.00000000E+00  0.00000000E+00
  0.00000000E+00  0.00000000E+00  0.00000000E+00
  0.00000000E+00  0.00000000E+00  0.00000000E+00
  0.00000000E+00  0.00000000E+00  0.00000000E+00
  0.00000000E+00  0.00000000E+00  0.00000000E+00
  0.00000000E+00  0.00000000E+00  0.00000000E+00
  0.00000000E+00  0.00000000E+00  0.00000000E+00
  0.00000000E+00  0.00000000E+00  0.00000000E+00
  0.00000000E+00  0.00000000E+00  0.00000000E+00
  0.00000000E+00  0.00000000E+00  0.00000000E+00
  0.00000000E+00  0.00000000E+00  0.00000000E+00
  0.00000000E+00  0.00000000E+00  0.00000000E+00
  0.00000000E+00  0.00000000E+00  0.00000000E+00
  0.00000000E+00  0.00000000E+00  0.00000000E+00
  0.00000000E+00  0.00000000E+00  0.00000000E+00
  0.00000000E+00  0.00000000E+00  0.00000000E+00
  0.00000000E+00  0.00000000E+00  0.00000000E+00
  0.00000000E+00  0.00000000E+00  0.00000000E+00
  0.00000000E+00  0.00000000E+00  0.00000000E+00
  0.00000000E+00  0.00000000E+00  0.00000000E+00
  0.00000000E+00  0.00000000E+00  0.00000000E+00
  0.00000000E+00  0.00000000E+00  0.00000000E+00
  0.00000000E+00  0.00000000E+00  0.00000000E+00
  0.00000000E+00  0.00000000E+00  0.00000000E+00
  0.00000000E+00  0.00000000E+00  0.00000000E+00
  0.00000000E+00  0.00000000E+00  0.00000000E+00
  0.00000000E+00  0.00000000E+00  0.00000000E+00
  0.00000000E+00  0.00000000E+00  0.00000000E+00
  0.00000000E+00  0.00000000E+00  0.00000000E+00
  0.00000000E+00  0.00000000E+00  0.00000000E+00
  0.00000000E+00  0.00000000E+00  0.00000000E+00
  0.00000000E+00  0.00000000E+00  0.00000000E+00
  0.00000000E+00  0.00000000E+00  0.00000000E+00
  0.00000000E+00  0.00000000E+00  0.00000000E+00
  0.00000000E+00  0.00000000E+00  0.00000000E+00
  0.00000000E+00  0.00000000E+00  0.00000000E+00
  0.00000000E+00  0.00000000E+00  0.00000000E+00
  0.00000000E+00  0.00000000E+00  0.00000000E+00
  0.00000000E+00  0.00000000E+00  0.00000000E+00
  0.00000000E+00  0.00000000E+00  0.00000000E+00
  0.00000000E+00  0.00000000E+00  0.00000000E+00
  0.00000000E+00  0.00000000E+00  0.00000000E+00
  0.00000000E+00  0.00000000E+00  0.00000000E+00
  0.00000000E+00  0.00000000E+00  0.00000000E+00
  0.00000000E+00  0.00000000E+00  0.00000000E+00
  0.00000000E+00  0.00000000E+00  0.00000000E+00
