CONTCAR\(7)                             
   1.00000000000000     
    12.0179996490000001    0.0000000000000000    0.0000000000000000
     5.5443836140000000   17.3830097696000010    0.0000000000000000
     0.0000000000000000    0.0000000000000000   18.4081001282000010
   Nb   Ir   Se   O 
    16     4    40     1
Selective dynamics
Direct
  0.3128948729457832  0.4150340498589102  0.5010683612472491   F   F   F
  0.3696001073443966  0.2067316255816252  0.5021763686371372   F   F   F
  0.0429041359576701  0.0028856131915092  0.4979510586485389   F   F   F
  0.0872586516705454  0.3185748867505822  0.4968867064597760   F   F   F
  0.8146595132837717  0.4141726971471442  0.5014389591983104   F   F   F
  0.8704622133161735  0.2070381388907165  0.5032495818696958   F   F   F
  0.5430301133861164  0.0024424296164511  0.4983541104836462   F   F   F
  0.5864596688475245  0.3147352306770657  0.4980343658909518   F   F   F
  0.3126538718044785  0.9192842822862914  0.4980100759129513   F   F   F
  0.3748787032212704  0.6932071571815115  0.5044006857015120   F   F   F
  0.0411446556590391  0.4941898991072335  0.5054384687088600   F   F   F
  0.0789769647603435  0.8095161068334136  0.4990998518549219   F   F   F
  0.8124274296624563  0.9191836216534099  0.4981290647274221   F   F   F
  0.8754288932731882  0.6919656146064099  0.5044695839446049   F   F   F
  0.5400410134242506  0.4945761785875575  0.5025558158499521   F   F   F
  0.5795282898238767  0.8097714485651153  0.4990850263948019   F   F   F
  0.2103764743924827  0.0956348121634463  0.4993431164553499   F   F   F
  0.7105263159337483  0.0952008940463571  0.4997293049301348   F   F   F
  0.2113752875164252  0.5908522716768729  0.5031425074043696   F   F   F
  0.7110885402098290  0.5905003921472556  0.5029663104814830   F   F   F
  0.1838538805100143  0.0067216803473542  0.5979073440419711   F   F   F
  0.0427538986240421  0.1061971799325008  0.4114728179373515   F   F   F
  0.2653104143779430  0.3049622736121833  0.5903882283778685   F   F   F
  0.1514620893646281  0.4033170176680301  0.4051935398458681   F   F   F
  0.3777978845945640  0.0960540726229624  0.5849592990523718   F   F   F
  0.2215841589384979  0.2025501178477427  0.4097009568259296   F   F   F
  0.4732914186802404  0.4037192083041816  0.5945997043197977   F   F   F
  0.3526742865157999  0.0087255357047766  0.4086270663861100   F   F   F
  0.0699139981861805  0.2000545829912710  0.5736745662317730   F   F   F
  0.4283005032171303  0.3042587344922509  0.4107027505701382   F   F   F
  0.6840488006507996  0.0062188668631009  0.5982185661757455   F   F   F
  0.5424483038039298  0.1062151596299614  0.4119095773242378   F   F   F
  0.7651074391865293  0.3045375345061885  0.5907936166367165   F   F   F
  0.6513856891180652  0.4014104873499917  0.4064808482692399   F   F   F
  0.8785873140190930  0.0954415669811439  0.5849822987325126   F   F   F
  0.7216978591820791  0.2022569426012737  0.4100999816925537   F   F   F
  0.9742120532186433  0.4041845173856728  0.5986589747343274   F   F   F
  0.8526250830487996  0.0087683534103959  0.4087010182883475   F   F   F
  0.5697033528430708  0.1984882895022224  0.5751917723532074   F   F   F
  0.9292286356088937  0.3040089867642664  0.4111727854920844   F   F   F
  0.1836987903348799  0.5018005464034303  0.6026781296080728   F   F   F
  0.0411399333722642  0.6021457960979717  0.4169770588322521   F   F   F
  0.2687370509208122  0.8049365952275593  0.5830153757289622   F   F   F
  0.1506488356702675  0.8971743016979516  0.4105994180044661   F   F   F
  0.3745276502438060  0.5924298282079548  0.5924403421340330   F   F   F
  0.2235964175743277  0.6947811699348847  0.4115283437444859   F   F   F
  0.4772694402582474  0.9063261228083093  0.5933147150939817   F   F   F
  0.3519042503032139  0.5059852256465192  0.4122932239269872   F   F   F
  0.0700821085494567  0.6945641836771088  0.5783708626344577   F   F   F
  0.4260458853428872  0.8026047525234290  0.4111129280380723   F   F   F
  0.6819837917060738  0.5008964337210244  0.6017125323404500   F   F   F
  0.5414496329528831  0.6028089536586521  0.4159469323155633   F   F   F
  0.7691459403506116  0.8046683613643140  0.5826492778680574   F   F   F
  0.6505705533631740  0.8975360252159277  0.4102732215248324   F   F   F
  0.8731355794092011  0.5921926781828262  0.5932177986179354   F   F   F
  0.7237356058243094  0.6946222100048658  0.4116153021938871   F   F   F
  0.9773963454459746  0.9061609452491410  0.5932279356987067   F   F   F
  0.8527128969126139  0.5050297189070960  0.4132832455400859   F   F   F
  0.5702076682833237  0.6945362976129701  0.5779917244822244   F   F   F
  0.9255324802001681  0.8024611206927688  0.4112031647925107   F   F   F
  0.4716368628591711  0.4113286670789478  0.6845980931194371   T   T   T
 
  0.00000000E+00  0.00000000E+00  0.00000000E+00
  0.00000000E+00  0.00000000E+00  0.00000000E+00
  0.00000000E+00  0.00000000E+00  0.00000000E+00
  0.00000000E+00  0.00000000E+00  0.00000000E+00
  0.00000000E+00  0.00000000E+00  0.00000000E+00
  0.00000000E+00  0.00000000E+00  0.00000000E+00
  0.00000000E+00  0.00000000E+00  0.00000000E+00
  0.00000000E+00  0.00000000E+00  0.00000000E+00
  0.00000000E+00  0.00000000E+00  0.00000000E+00
  0.00000000E+00  0.00000000E+00  0.00000000E+00
  0.00000000E+00  0.00000000E+00  0.00000000E+00
  0.00000000E+00  0.00000000E+00  0.00000000E+00
  0.00000000E+00  0.00000000E+00  0.00000000E+00
  0.00000000E+00  0.00000000E+00  0.00000000E+00
  0.00000000E+00  0.00000000E+00  0.00000000E+00
  0.00000000E+00  0.00000000E+00  0.00000000E+00
  0.00000000E+00  0.00000000E+00  0.00000000E+00
  0.00000000E+00  0.00000000E+00  0.00000000E+00
  0.00000000E+00  0.00000000E+00  0.00000000E+00
  0.00000000E+00  0.00000000E+00  0.00000000E+00
  0.00000000E+00  0.00000000E+00  0.00000000E+00
  0.00000000E+00  0.00000000E+00  0.00000000E+00
  0.00000000E+00  0.00000000E+00  0.00000000E+00
  0.00000000E+00  0.00000000E+00  0.00000000E+00
  0.00000000E+00  0.00000000E+00  0.00000000E+00
  0.00000000E+00  0.00000000E+00  0.00000000E+00
  0.00000000E+00  0.00000000E+00  0.00000000E+00
  0.00000000E+00  0.00000000E+00  0.00000000E+00
  0.00000000E+00  0.00000000E+00  0.00000000E+00
  0.00000000E+00  0.00000000E+00  0.00000000E+00
  0.00000000E+00  0.00000000E+00  0.00000000E+00
  0.00000000E+00  0.00000000E+00  0.00000000E+00
  0.00000000E+00  0.00000000E+00  0.00000000E+00
  0.00000000E+00  0.00000000E+00  0.00000000E+00
  0.00000000E+00  0.00000000E+00  0.00000000E+00
  0.00000000E+00  0.00000000E+00  0.00000000E+00
  0.00000000E+00  0.00000000E+00  0.00000000E+00
  0.00000000E+00  0.00000000E+00  0.00000000E+00
  0.00000000E+00  0.00000000E+00  0.00000000E+00
  0.00000000E+00  0.00000000E+00  0.00000000E+00
  0.00000000E+00  0.00000000E+00  0.00000000E+00
  0.00000000E+00  0.00000000E+00  0.00000000E+00
  0.00000000E+00  0.00000000E+00  0.00000000E+00
  0.00000000E+00  0.00000000E+00  0.00000000E+00
  0.00000000E+00  0.00000000E+00  0.00000000E+00
  0.00000000E+00  0.00000000E+00  0.00000000E+00
  0.00000000E+00  0.00000000E+00  0.00000000E+00
  0.00000000E+00  0.00000000E+00  0.00000000E+00
  0.00000000E+00  0.00000000E+00  0.00000000E+00
  0.00000000E+00  0.00000000E+00  0.00000000E+00
  0.00000000E+00  0.00000000E+00  0.00000000E+00
  0.00000000E+00  0.00000000E+00  0.00000000E+00
  0.00000000E+00  0.00000000E+00  0.00000000E+00
  0.00000000E+00  0.00000000E+00  0.00000000E+00
  0.00000000E+00  0.00000000E+00  0.00000000E+00
  0.00000000E+00  0.00000000E+00  0.00000000E+00
  0.00000000E+00  0.00000000E+00  0.00000000E+00
  0.00000000E+00  0.00000000E+00  0.00000000E+00
  0.00000000E+00  0.00000000E+00  0.00000000E+00
  0.00000000E+00  0.00000000E+00  0.00000000E+00
  0.00000000E+00  0.00000000E+00  0.00000000E+00
