CONTCAR\(4)                             
   1.00000000000000     
    13.8203001021999992    0.0000000000000000    0.0000000000000000
     1.7075399424000000   15.0073707208999991    0.0000000000000000
     0.0000000000000000    0.0000000000000000   18.4675998688000007
   Nb   Ir   Se   O 
    18     2    40     1
Direct
  0.0876521934141408  0.1815864861105271  0.5034574736906053
  0.9926095381369674  0.9796605424232031  0.4942546697438841
  0.4163778647027300  0.7981242054060050  0.5027607478043904
  0.2902202027931896  0.6223111334094615  0.5237465190761039
  0.2562123088069032  0.9818599702844852  0.4994777263040463
  0.1987234322363310  0.4242950172401069  0.5131158221267214
  0.1325971409200015  0.8042328895473085  0.5036820101099430
  0.0255126772219029  0.6134462526595087  0.5019939183927983
  0.4546745024270517  0.3812495629619072  0.4991302582791260
  0.5880899440651449  0.1813515275173949  0.5034863776872929
  0.5149306511544971  0.9798857201884470  0.4963505835052657
  0.8864891377375701  0.8024092535156805  0.4977623768561769
  0.7973104077839158  0.6216702160345194  0.4965562591123297
  0.7471177906366502  0.9829384548549387  0.4979303600980335
  0.7003567263457231  0.4243515673131838  0.5019160415448077
  0.6600286481959715  0.8042935517536844  0.4980049056062277
  0.5692772403769115  0.6190896469491453  0.4992040673531873
  0.9521631562056890  0.3806858234821605  0.4988881832967075
  0.3713089518138692  0.2100540502525040  0.4998426738920147
  0.8704952239424996  0.2092203417974552  0.4983467891126463
  0.4746975171075238  0.2653056566137648  0.5987632162746707
  0.0849504199909785  0.3334617842340082  0.4161042264143977
  0.3708866601445748  0.0700194458108475  0.5752741126748228
  0.4843312992375654  0.1277523878373578  0.4075998545003590
  0.2692906800062009  0.8607433410511666  0.5920990433086876
  0.2229664016088311  0.2633984069278548  0.5747093721859252
  0.3866565713321867  0.9285356308966812  0.4066446994148571
  0.3237128036787307  0.3392483648918967  0.4154606864674498
  0.1264985426455161  0.6898240096345426  0.6068693179248191
  0.1123439775351823  0.0558578071510533  0.5892855061572476
  0.2443522949241198  0.1389742904083702  0.4255663550495833
  0.2814175863082489  0.7351412311889146  0.4215171269209768
  0.0541565081695350  0.4708833482461254  0.5920606562263863
  0.0021543768156590  0.8714902167576113  0.5959683111983684
  0.1833291783586906  0.5464326043676481  0.4224071090344808
  0.1345482055982499  0.9343308391670849  0.4071040569607406
  0.4384193293565262  0.6662985525350574  0.5959027667260566
  0.0293068944143030  0.7358496346008245  0.4075837396340626
  0.3211607005791845  0.4646531691560801  0.5979117375439967
  0.4265184607015997  0.5405046670336814  0.4358199070937147
  0.9713083486490376  0.2645002014287685  0.5978912811076793
  0.5813418932959321  0.3320203576149779  0.4120935664541907
  0.8653839128611159  0.0717023847045482  0.5763916529693520
  0.9848436139577530  0.1289630000999057  0.4062733488104691
  0.7656748888828319  0.8683789734966206  0.5984811949237343
  0.7224929446742536  0.2675972735370771  0.5713341597538684
  0.8776797937963182  0.9317591580651869  0.3992535715229303
  0.8271139881742001  0.3345144960148433  0.4108211555417861
  0.6726191235964475  0.6757278425705298  0.5972331374289996
  0.6166726730902145  0.0586051521713796  0.5939986199372708
  0.7416618891934802  0.1398399043996443  0.4233303347142119
  0.7826419443792693  0.7384867943294773  0.3970258895488915
  0.5640196096882562  0.4710916154615087  0.5869467362030074
  0.5235387700103159  0.8656456796881391  0.5963361798550940
  0.6858717370368780  0.5385967539330567  0.4025693257101869
  0.6366805937859150  0.9311467578016673  0.3970860140443793
  0.9044718283923472  0.6752063460918047  0.5978538453386700
  0.5369189079770116  0.7369839296489005  0.4032123306223618
  0.8169691043298162  0.4746019907404994  0.5874565781125087
  0.9302673387428885  0.5312620881115734  0.4137668772047698
  0.2528007770547079  0.6441381288776798  0.6268948618917650
 
  0.00000000E+00  0.00000000E+00  0.00000000E+00
  0.00000000E+00  0.00000000E+00  0.00000000E+00
  0.00000000E+00  0.00000000E+00  0.00000000E+00
  0.00000000E+00  0.00000000E+00  0.00000000E+00
  0.00000000E+00  0.00000000E+00  0.00000000E+00
  0.00000000E+00  0.00000000E+00  0.00000000E+00
  0.00000000E+00  0.00000000E+00  0.00000000E+00
  0.00000000E+00  0.00000000E+00  0.00000000E+00
  0.00000000E+00  0.00000000E+00  0.00000000E+00
  0.00000000E+00  0.00000000E+00  0.00000000E+00
  0.00000000E+00  0.00000000E+00  0.00000000E+00
  0.00000000E+00  0.00000000E+00  0.00000000E+00
  0.00000000E+00  0.00000000E+00  0.00000000E+00
  0.00000000E+00  0.00000000E+00  0.00000000E+00
  0.00000000E+00  0.00000000E+00  0.00000000E+00
  0.00000000E+00  0.00000000E+00  0.00000000E+00
  0.00000000E+00  0.00000000E+00  0.00000000E+00
  0.00000000E+00  0.00000000E+00  0.00000000E+00
  0.00000000E+00  0.00000000E+00  0.00000000E+00
  0.00000000E+00  0.00000000E+00  0.00000000E+00
  0.00000000E+00  0.00000000E+00  0.00000000E+00
  0.00000000E+00  0.00000000E+00  0.00000000E+00
  0.00000000E+00  0.00000000E+00  0.00000000E+00
  0.00000000E+00  0.00000000E+00  0.00000000E+00
  0.00000000E+00  0.00000000E+00  0.00000000E+00
  0.00000000E+00  0.00000000E+00  0.00000000E+00
  0.00000000E+00  0.00000000E+00  0.00000000E+00
  0.00000000E+00  0.00000000E+00  0.00000000E+00
  0.00000000E+00  0.00000000E+00  0.00000000E+00
  0.00000000E+00  0.00000000E+00  0.00000000E+00
  0.00000000E+00  0.00000000E+00  0.00000000E+00
  0.00000000E+00  0.00000000E+00  0.00000000E+00
  0.00000000E+00  0.00000000E+00  0.00000000E+00
  0.00000000E+00  0.00000000E+00  0.00000000E+00
  0.00000000E+00  0.00000000E+00  0.00000000E+00
  0.00000000E+00  0.00000000E+00  0.00000000E+00
  0.00000000E+00  0.00000000E+00  0.00000000E+00
  0.00000000E+00  0.00000000E+00  0.00000000E+00
  0.00000000E+00  0.00000000E+00  0.00000000E+00
  0.00000000E+00  0.00000000E+00  0.00000000E+00
  0.00000000E+00  0.00000000E+00  0.00000000E+00
  0.00000000E+00  0.00000000E+00  0.00000000E+00
  0.00000000E+00  0.00000000E+00  0.00000000E+00
  0.00000000E+00  0.00000000E+00  0.00000000E+00
  0.00000000E+00  0.00000000E+00  0.00000000E+00
  0.00000000E+00  0.00000000E+00  0.00000000E+00
  0.00000000E+00  0.00000000E+00  0.00000000E+00
  0.00000000E+00  0.00000000E+00  0.00000000E+00
  0.00000000E+00  0.00000000E+00  0.00000000E+00
  0.00000000E+00  0.00000000E+00  0.00000000E+00
  0.00000000E+00  0.00000000E+00  0.00000000E+00
  0.00000000E+00  0.00000000E+00  0.00000000E+00
  0.00000000E+00  0.00000000E+00  0.00000000E+00
  0.00000000E+00  0.00000000E+00  0.00000000E+00
  0.00000000E+00  0.00000000E+00  0.00000000E+00
  0.00000000E+00  0.00000000E+00  0.00000000E+00
  0.00000000E+00  0.00000000E+00  0.00000000E+00
  0.00000000E+00  0.00000000E+00  0.00000000E+00
  0.00000000E+00  0.00000000E+00  0.00000000E+00
  0.00000000E+00  0.00000000E+00  0.00000000E+00
  0.00000000E+00  0.00000000E+00  0.00000000E+00
