CONTCAR\(3)                             
   1.00000000000000     
    12.9047002792000001    0.0000000000000000    0.0000000000000000
     0.0000000000000000   17.0116996765000010    0.0000000000000000
     0.0000000000000000    0.0000000000000000   20.7707004546999983
   Pr   I    O 
    12    30     1
Direct
  0.2786689507828146  0.1688479872255909  0.5402069664334523
  0.0857286503231588  0.8709327840313970  0.4803666048370162
  0.2515541861045255  0.6392155930483921  0.5276113163218697
  0.0749978438676645  0.3707514983298775  0.4761228098703992
  0.5548714148231160  0.1673246639657173  0.5401487092489002
  0.4162435498577047  0.8642987556428113  0.4687475327774586
  0.5815474745650511  0.6391113031552899  0.5277809990322373
  0.4158509334056901  0.3576059710544920  0.4644055402076018
  0.9171892160582801  0.1453101036990109  0.5279780375450301
  0.7471220253385142  0.8709982101088166  0.4806443208470740
  0.9166089747712460  0.6460312473236444  0.5311006287965522
  0.7600971452327648  0.3712343784248938  0.4759260491249576
  0.2407535411162637  0.3793086372115098  0.3620416230546215
  0.0866191228047123  0.6286015532994965  0.6391644385433305
  0.2455394172709393  0.9792324528974317  0.4071878680430854
  0.0938542406440286  0.0265759863126775  0.5821118169904042
  0.0790883500649402  0.5621823106835868  0.4351133195092832
  0.2565566516565251  0.4393687359212674  0.5657800451057261
  0.0812946396199277  0.2563080753787236  0.6074831161936552
  0.2440234039677245  0.7533433272511407  0.4018145535316406
  0.0947014792181876  0.1905596209040792  0.4272078583050972
  0.2548119252427479  0.8186588595067881  0.5836674877597653
  0.5924606737707142  0.3786399064972599  0.3627836767235080
  0.4160877684309003  0.6241864227182169  0.6385720778736336
  0.5870579837303073  0.9799046715474394  0.4077274119892118
  0.4162100935743852  0.0138628658729154  0.5666185820765838
  0.4167410629595107  0.5617146402506025  0.4311001031763382
  0.5776587538298131  0.4385489820080750  0.5655240141506672
  0.4157625808298174  0.1838663892434080  0.6731873521455704
  0.5891302042610238  0.7535623350485304  0.4020723767083803
  0.4154143894388311  0.1712139407238931  0.4014112001411860
  0.5780288103834645  0.8185761154805594  0.5840082164903665
  0.9169770429142103  0.3782847282524258  0.3614607315615368
  0.7466319638202055  0.6283725931202763  0.6392414620716298
  0.9162518107000222  0.9940087230350135  0.4216926080092543
  0.7404947648786167  0.0261074681249802  0.5826405060358789
  0.7540291504878353  0.5623079362827191  0.4349291954049629
  0.9167639974072460  0.4520051655176369  0.5735671567413567
  0.7526141933617165  0.2559348341964818  0.6074615518215800
  0.9164535384781527  0.7638089182423260  0.4046774556626919
  0.7384009870030607  0.1906044588505479  0.4272877605353947
  0.9165550794830544  0.8246147191145955  0.5892577685401085
  0.4190420125205845  0.2535523664955204  0.5313473350609978
 
  0.00000000E+00  0.00000000E+00  0.00000000E+00
  0.00000000E+00  0.00000000E+00  0.00000000E+00
  0.00000000E+00  0.00000000E+00  0.00000000E+00
  0.00000000E+00  0.00000000E+00  0.00000000E+00
  0.00000000E+00  0.00000000E+00  0.00000000E+00
  0.00000000E+00  0.00000000E+00  0.00000000E+00
  0.00000000E+00  0.00000000E+00  0.00000000E+00
  0.00000000E+00  0.00000000E+00  0.00000000E+00
  0.00000000E+00  0.00000000E+00  0.00000000E+00
  0.00000000E+00  0.00000000E+00  0.00000000E+00
  0.00000000E+00  0.00000000E+00  0.00000000E+00
  0.00000000E+00  0.00000000E+00  0.00000000E+00
  0.00000000E+00  0.00000000E+00  0.00000000E+00
  0.00000000E+00  0.00000000E+00  0.00000000E+00
  0.00000000E+00  0.00000000E+00  0.00000000E+00
  0.00000000E+00  0.00000000E+00  0.00000000E+00
  0.00000000E+00  0.00000000E+00  0.00000000E+00
  0.00000000E+00  0.00000000E+00  0.00000000E+00
  0.00000000E+00  0.00000000E+00  0.00000000E+00
  0.00000000E+00  0.00000000E+00  0.00000000E+00
  0.00000000E+00  0.00000000E+00  0.00000000E+00
  0.00000000E+00  0.00000000E+00  0.00000000E+00
  0.00000000E+00  0.00000000E+00  0.00000000E+00
  0.00000000E+00  0.00000000E+00  0.00000000E+00
  0.00000000E+00  0.00000000E+00  0.00000000E+00
  0.00000000E+00  0.00000000E+00  0.00000000E+00
  0.00000000E+00  0.00000000E+00  0.00000000E+00
  0.00000000E+00  0.00000000E+00  0.00000000E+00
  0.00000000E+00  0.00000000E+00  0.00000000E+00
  0.00000000E+00  0.00000000E+00  0.00000000E+00
  0.00000000E+00  0.00000000E+00  0.00000000E+00
  0.00000000E+00  0.00000000E+00  0.00000000E+00
  0.00000000E+00  0.00000000E+00  0.00000000E+00
  0.00000000E+00  0.00000000E+00  0.00000000E+00
  0.00000000E+00  0.00000000E+00  0.00000000E+00
  0.00000000E+00  0.00000000E+00  0.00000000E+00
  0.00000000E+00  0.00000000E+00  0.00000000E+00
  0.00000000E+00  0.00000000E+00  0.00000000E+00
  0.00000000E+00  0.00000000E+00  0.00000000E+00
  0.00000000E+00  0.00000000E+00  0.00000000E+00
  0.00000000E+00  0.00000000E+00  0.00000000E+00
  0.00000000E+00  0.00000000E+00  0.00000000E+00
  0.00000000E+00  0.00000000E+00  0.00000000E+00
