 K2 Mn2 P2                              
   1.00000000000000     
     3.7313332916059143    0.0000000000000000    0.0000000000000000
     0.0000000000000000    3.7313311182221875    0.0000000000000000
     0.0000000000000000    0.0000000000000000   21.3454565740719993
   K    Mn   P 
     2     2     2
Direct
  0.0000000376930345  0.4999997554582620  0.3522837508057606
  0.4999999608783199  0.0000002287471048  0.6477243793014011
  0.0000000504385582  0.0000000409509511  0.4999980354916929
  0.4999999502981325  0.4999999646733286  0.4999981459671190
  0.9999999203326198  0.5000000813427832  0.5613131777832621
  0.5000000803593352  0.9999999288275632  0.4386825106507644
 
  0.00000000E+00  0.00000000E+00  0.00000000E+00
  0.00000000E+00  0.00000000E+00  0.00000000E+00
  0.00000000E+00  0.00000000E+00  0.00000000E+00
  0.00000000E+00  0.00000000E+00  0.00000000E+00
  0.00000000E+00  0.00000000E+00  0.00000000E+00
  0.00000000E+00  0.00000000E+00  0.00000000E+00
