G   54   54    1    0.005     # Parameters to Generate KPOINTS (Don't Edit This Line)
     406
Reciprocal lattice
    0.000000000000    0.000000000000    0.000000000000       1
    0.018518518519    0.000000000000    0.000000000000       4
    0.037037037037    0.000000000000    0.000000000000       4
    0.055555555556    0.000000000000    0.000000000000       4
    0.074074074074    0.000000000000    0.000000000000       4
    0.092592592593    0.000000000000    0.000000000000       4
    0.111111111111    0.000000000000    0.000000000000       4
    0.129629629630    0.000000000000    0.000000000000       4
    0.148148148148    0.000000000000    0.000000000000       4
    0.166666666667    0.000000000000    0.000000000000       4
    0.185185185185    0.000000000000    0.000000000000       4
    0.203703703704    0.000000000000    0.000000000000       4
    0.222222222222    0.000000000000    0.000000000000       4
    0.240740740741    0.000000000000    0.000000000000       4
    0.259259259259    0.000000000000    0.000000000000       4
    0.277777777778    0.000000000000    0.000000000000       4
    0.296296296296    0.000000000000    0.000000000000       4
    0.314814814815    0.000000000000    0.000000000000       4
    0.333333333333    0.000000000000    0.000000000000       4
    0.351851851852    0.000000000000    0.000000000000       4
    0.370370370370    0.000000000000    0.000000000000       4
    0.388888888889    0.000000000000    0.000000000000       4
    0.407407407407    0.000000000000    0.000000000000       4
    0.425925925926    0.000000000000    0.000000000000       4
    0.444444444444    0.000000000000    0.000000000000       4
    0.462962962963    0.000000000000    0.000000000000       4
    0.481481481481    0.000000000000    0.000000000000       4
    0.500000000000    0.000000000000    0.000000000000       2
    0.018518518519    0.018518518519    0.000000000000       4
    0.037037037037    0.018518518519    0.000000000000       8
    0.055555555556    0.018518518519    0.000000000000       8
    0.074074074074    0.018518518519    0.000000000000       8
    0.092592592593    0.018518518519    0.000000000000       8
    0.111111111111    0.018518518519    0.000000000000       8
    0.129629629630    0.018518518519    0.000000000000       8
    0.148148148148    0.018518518519    0.000000000000       8
    0.166666666667    0.018518518519    0.000000000000       8
    0.185185185185    0.018518518519    0.000000000000       8
    0.203703703704    0.018518518519    0.000000000000       8
    0.222222222222    0.018518518519    0.000000000000       8
    0.240740740741    0.018518518519    0.000000000000       8
    0.259259259259    0.018518518519    0.000000000000       8
    0.277777777778    0.018518518519    0.000000000000       8
    0.296296296296    0.018518518519    0.000000000000       8
    0.314814814815    0.018518518519    0.000000000000       8
    0.333333333333    0.018518518519    0.000000000000       8
    0.351851851852    0.018518518519    0.000000000000       8
    0.370370370370    0.018518518519    0.000000000000       8
    0.388888888889    0.018518518519    0.000000000000       8
    0.407407407407    0.018518518519    0.000000000000       8
    0.425925925926    0.018518518519    0.000000000000       8
    0.444444444444    0.018518518519    0.000000000000       8
    0.462962962963    0.018518518519    0.000000000000       8
    0.481481481481    0.018518518519    0.000000000000       8
    0.500000000000    0.018518518519    0.000000000000       4
    0.037037037037    0.037037037037    0.000000000000       4
    0.055555555556    0.037037037037    0.000000000000       8
    0.074074074074    0.037037037037    0.000000000000       8
    0.092592592593    0.037037037037    0.000000000000       8
    0.111111111111    0.037037037037    0.000000000000       8
    0.129629629630    0.037037037037    0.000000000000       8
    0.148148148148    0.037037037037    0.000000000000       8
    0.166666666667    0.037037037037    0.000000000000       8
    0.185185185185    0.037037037037    0.000000000000       8
    0.203703703704    0.037037037037    0.000000000000       8
    0.222222222222    0.037037037037    0.000000000000       8
    0.240740740741    0.037037037037    0.000000000000       8
    0.259259259259    0.037037037037    0.000000000000       8
    0.277777777778    0.037037037037    0.000000000000       8
    0.296296296296    0.037037037037    0.000000000000       8
    0.314814814815    0.037037037037    0.000000000000       8
    0.333333333333    0.037037037037    0.000000000000       8
    0.351851851852    0.037037037037    0.000000000000       8
    0.370370370370    0.037037037037    0.000000000000       8
    0.388888888889    0.037037037037    0.000000000000       8
    0.407407407407    0.037037037037    0.000000000000       8
    0.425925925926    0.037037037037    0.000000000000       8
    0.444444444444    0.037037037037    0.000000000000       8
    0.462962962963    0.037037037037    0.000000000000       8
    0.481481481481    0.037037037037    0.000000000000       8
    0.500000000000    0.037037037037    0.000000000000       4
    0.055555555556    0.055555555556    0.000000000000       4
    0.074074074074    0.055555555556    0.000000000000       8
    0.092592592593    0.055555555556    0.000000000000       8
    0.111111111111    0.055555555556    0.000000000000       8
    0.129629629630    0.055555555556    0.000000000000       8
    0.148148148148    0.055555555556    0.000000000000       8
    0.166666666667    0.055555555556    0.000000000000       8
    0.185185185185    0.055555555556    0.000000000000       8
    0.203703703704    0.055555555556    0.000000000000       8
    0.222222222222    0.055555555556    0.000000000000       8
    0.240740740741    0.055555555556    0.000000000000       8
    0.259259259259    0.055555555556    0.000000000000       8
    0.277777777778    0.055555555556    0.000000000000       8
    0.296296296296    0.055555555556    0.000000000000       8
    0.314814814815    0.055555555556    0.000000000000       8
    0.333333333333    0.055555555556    0.000000000000       8
    0.351851851852    0.055555555556    0.000000000000       8
    0.370370370370    0.055555555556    0.000000000000       8
    0.388888888889    0.055555555556    0.000000000000       8
    0.407407407407    0.055555555556    0.000000000000       8
    0.425925925926    0.055555555556    0.000000000000       8
    0.444444444444    0.055555555556    0.000000000000       8
    0.462962962963    0.055555555556    0.000000000000       8
    0.481481481481    0.055555555556    0.000000000000       8
    0.500000000000    0.055555555556    0.000000000000       4
    0.074074074074    0.074074074074    0.000000000000       4
    0.092592592593    0.074074074074    0.000000000000       8
    0.111111111111    0.074074074074    0.000000000000       8
    0.129629629630    0.074074074074    0.000000000000       8
    0.148148148148    0.074074074074    0.000000000000       8
    0.166666666667    0.074074074074    0.000000000000       8
    0.185185185185    0.074074074074    0.000000000000       8
    0.203703703704    0.074074074074    0.000000000000       8
    0.222222222222    0.074074074074    0.000000000000       8
    0.240740740741    0.074074074074    0.000000000000       8
    0.259259259259    0.074074074074    0.000000000000       8
    0.277777777778    0.074074074074    0.000000000000       8
    0.296296296296    0.074074074074    0.000000000000       8
    0.314814814815    0.074074074074    0.000000000000       8
    0.333333333333    0.074074074074    0.000000000000       8
    0.351851851852    0.074074074074    0.000000000000       8
    0.370370370370    0.074074074074    0.000000000000       8
    0.388888888889    0.074074074074    0.000000000000       8
    0.407407407407    0.074074074074    0.000000000000       8
    0.425925925926    0.074074074074    0.000000000000       8
    0.444444444444    0.074074074074    0.000000000000       8
    0.462962962963    0.074074074074    0.000000000000       8
    0.481481481481    0.074074074074    0.000000000000       8
    0.500000000000    0.074074074074    0.000000000000       4
    0.092592592593    0.092592592593    0.000000000000       4
    0.111111111111    0.092592592593    0.000000000000       8
    0.129629629630    0.092592592593    0.000000000000       8
    0.148148148148    0.092592592593    0.000000000000       8
    0.166666666667    0.092592592593    0.000000000000       8
    0.185185185185    0.092592592593    0.000000000000       8
    0.203703703704    0.092592592593    0.000000000000       8
    0.222222222222    0.092592592593    0.000000000000       8
    0.240740740741    0.092592592593    0.000000000000       8
    0.259259259259    0.092592592593    0.000000000000       8
    0.277777777778    0.092592592593    0.000000000000       8
    0.296296296296    0.092592592593    0.000000000000       8
    0.314814814815    0.092592592593    0.000000000000       8
    0.333333333333    0.092592592593    0.000000000000       8
    0.351851851852    0.092592592593    0.000000000000       8
    0.370370370370    0.092592592593    0.000000000000       8
    0.388888888889    0.092592592593    0.000000000000       8
    0.407407407407    0.092592592593    0.000000000000       8
    0.425925925926    0.092592592593    0.000000000000       8
    0.444444444444    0.092592592593    0.000000000000       8
    0.462962962963    0.092592592593    0.000000000000       8
    0.481481481481    0.092592592593    0.000000000000       8
    0.500000000000    0.092592592593    0.000000000000       4
    0.111111111111    0.111111111111    0.000000000000       4
    0.129629629630    0.111111111111    0.000000000000       8
    0.148148148148    0.111111111111    0.000000000000       8
    0.166666666667    0.111111111111    0.000000000000       8
    0.185185185185    0.111111111111    0.000000000000       8
    0.203703703704    0.111111111111    0.000000000000       8
    0.222222222222    0.111111111111    0.000000000000       8
    0.240740740741    0.111111111111    0.000000000000       8
    0.259259259259    0.111111111111    0.000000000000       8
    0.277777777778    0.111111111111    0.000000000000       8
    0.296296296296    0.111111111111    0.000000000000       8
    0.314814814815    0.111111111111    0.000000000000       8
    0.333333333333    0.111111111111    0.000000000000       8
    0.351851851852    0.111111111111    0.000000000000       8
    0.370370370370    0.111111111111    0.000000000000       8
    0.388888888889    0.111111111111    0.000000000000       8
    0.407407407407    0.111111111111    0.000000000000       8
    0.425925925926    0.111111111111    0.000000000000       8
    0.444444444444    0.111111111111    0.000000000000       8
    0.462962962963    0.111111111111    0.000000000000       8
    0.481481481481    0.111111111111    0.000000000000       8
    0.500000000000    0.111111111111    0.000000000000       4
    0.129629629630    0.129629629630    0.000000000000       4
    0.148148148148    0.129629629630    0.000000000000       8
    0.166666666667    0.129629629630    0.000000000000       8
    0.185185185185    0.129629629630    0.000000000000       8
    0.203703703704    0.129629629630    0.000000000000       8
    0.222222222222    0.129629629630    0.000000000000       8
    0.240740740741    0.129629629630    0.000000000000       8
    0.259259259259    0.129629629630    0.000000000000       8
    0.277777777778    0.129629629630    0.000000000000       8
    0.296296296296    0.129629629630    0.000000000000       8
    0.314814814815    0.129629629630    0.000000000000       8
    0.333333333333    0.129629629630    0.000000000000       8
    0.351851851852    0.129629629630    0.000000000000       8
    0.370370370370    0.129629629630    0.000000000000       8
    0.388888888889    0.129629629630    0.000000000000       8
    0.407407407407    0.129629629630    0.000000000000       8
    0.425925925926    0.129629629630    0.000000000000       8
    0.444444444444    0.129629629630    0.000000000000       8
    0.462962962963    0.129629629630    0.000000000000       8
    0.481481481481    0.129629629630    0.000000000000       8
    0.500000000000    0.129629629630    0.000000000000       4
    0.148148148148    0.148148148148    0.000000000000       4
    0.166666666667    0.148148148148    0.000000000000       8
    0.185185185185    0.148148148148    0.000000000000       8
    0.203703703704    0.148148148148    0.000000000000       8
    0.222222222222    0.148148148148    0.000000000000       8
    0.240740740741    0.148148148148    0.000000000000       8
    0.259259259259    0.148148148148    0.000000000000       8
    0.277777777778    0.148148148148    0.000000000000       8
    0.296296296296    0.148148148148    0.000000000000       8
    0.314814814815    0.148148148148    0.000000000000       8
    0.333333333333    0.148148148148    0.000000000000       8
    0.351851851852    0.148148148148    0.000000000000       8
    0.370370370370    0.148148148148    0.000000000000       8
    0.388888888889    0.148148148148    0.000000000000       8
    0.407407407407    0.148148148148    0.000000000000       8
    0.425925925926    0.148148148148    0.000000000000       8
    0.444444444444    0.148148148148    0.000000000000       8
    0.462962962963    0.148148148148    0.000000000000       8
    0.481481481481    0.148148148148    0.000000000000       8
    0.500000000000    0.148148148148    0.000000000000       4
    0.166666666667    0.166666666667    0.000000000000       4
    0.185185185185    0.166666666667    0.000000000000       8
    0.203703703704    0.166666666667    0.000000000000       8
    0.222222222222    0.166666666667    0.000000000000       8
    0.240740740741    0.166666666667    0.000000000000       8
    0.259259259259    0.166666666667    0.000000000000       8
    0.277777777778    0.166666666667    0.000000000000       8
    0.296296296296    0.166666666667    0.000000000000       8
    0.314814814815    0.166666666667    0.000000000000       8
    0.333333333333    0.166666666667    0.000000000000       8
    0.351851851852    0.166666666667    0.000000000000       8
    0.370370370370    0.166666666667    0.000000000000       8
    0.388888888889    0.166666666667    0.000000000000       8
    0.407407407407    0.166666666667    0.000000000000       8
    0.425925925926    0.166666666667    0.000000000000       8
    0.444444444444    0.166666666667    0.000000000000       8
    0.462962962963    0.166666666667    0.000000000000       8
    0.481481481481    0.166666666667    0.000000000000       8
    0.500000000000    0.166666666667    0.000000000000       4
    0.185185185185    0.185185185185    0.000000000000       4
    0.203703703704    0.185185185185    0.000000000000       8
    0.222222222222    0.185185185185    0.000000000000       8
    0.240740740741    0.185185185185    0.000000000000       8
    0.259259259259    0.185185185185    0.000000000000       8
    0.277777777778    0.185185185185    0.000000000000       8
    0.296296296296    0.185185185185    0.000000000000       8
    0.314814814815    0.185185185185    0.000000000000       8
    0.333333333333    0.185185185185    0.000000000000       8
    0.351851851852    0.185185185185    0.000000000000       8
    0.370370370370    0.185185185185    0.000000000000       8
    0.388888888889    0.185185185185    0.000000000000       8
    0.407407407407    0.185185185185    0.000000000000       8
    0.425925925926    0.185185185185    0.000000000000       8
    0.444444444444    0.185185185185    0.000000000000       8
    0.462962962963    0.185185185185    0.000000000000       8
    0.481481481481    0.185185185185    0.000000000000       8
    0.500000000000    0.185185185185    0.000000000000       4
    0.203703703704    0.203703703704    0.000000000000       4
    0.222222222222    0.203703703704    0.000000000000       8
    0.240740740741    0.203703703704    0.000000000000       8
    0.259259259259    0.203703703704    0.000000000000       8
    0.277777777778    0.203703703704    0.000000000000       8
    0.296296296296    0.203703703704    0.000000000000       8
    0.314814814815    0.203703703704    0.000000000000       8
    0.333333333333    0.203703703704    0.000000000000       8
    0.351851851852    0.203703703704    0.000000000000       8
    0.370370370370    0.203703703704    0.000000000000       8
    0.388888888889    0.203703703704    0.000000000000       8
    0.407407407407    0.203703703704    0.000000000000       8
    0.425925925926    0.203703703704    0.000000000000       8
    0.444444444444    0.203703703704    0.000000000000       8
    0.462962962963    0.203703703704    0.000000000000       8
    0.481481481481    0.203703703704    0.000000000000       8
    0.500000000000    0.203703703704    0.000000000000       4
    0.222222222222    0.222222222222    0.000000000000       4
    0.240740740741    0.222222222222    0.000000000000       8
    0.259259259259    0.222222222222    0.000000000000       8
    0.277777777778    0.222222222222    0.000000000000       8
    0.296296296296    0.222222222222    0.000000000000       8
    0.314814814815    0.222222222222    0.000000000000       8
    0.333333333333    0.222222222222    0.000000000000       8
    0.351851851852    0.222222222222    0.000000000000       8
    0.370370370370    0.222222222222    0.000000000000       8
    0.388888888889    0.222222222222    0.000000000000       8
    0.407407407407    0.222222222222    0.000000000000       8
    0.425925925926    0.222222222222    0.000000000000       8
    0.444444444444    0.222222222222    0.000000000000       8
    0.462962962963    0.222222222222    0.000000000000       8
    0.481481481481    0.222222222222    0.000000000000       8
    0.500000000000    0.222222222222    0.000000000000       4
    0.240740740741    0.240740740741    0.000000000000       4
    0.259259259259    0.240740740741    0.000000000000       8
    0.277777777778    0.240740740741    0.000000000000       8
    0.296296296296    0.240740740741    0.000000000000       8
    0.314814814815    0.240740740741    0.000000000000       8
    0.333333333333    0.240740740741    0.000000000000       8
    0.351851851852    0.240740740741    0.000000000000       8
    0.370370370370    0.240740740741    0.000000000000       8
    0.388888888889    0.240740740741    0.000000000000       8
    0.407407407407    0.240740740741    0.000000000000       8
    0.425925925926    0.240740740741    0.000000000000       8
    0.444444444444    0.240740740741    0.000000000000       8
    0.462962962963    0.240740740741    0.000000000000       8
    0.481481481481    0.240740740741    0.000000000000       8
    0.500000000000    0.240740740741    0.000000000000       4
    0.259259259259    0.259259259259    0.000000000000       4
    0.277777777778    0.259259259259    0.000000000000       8
    0.296296296296    0.259259259259    0.000000000000       8
    0.314814814815    0.259259259259    0.000000000000       8
    0.333333333333    0.259259259259    0.000000000000       8
    0.351851851852    0.259259259259    0.000000000000       8
    0.370370370370    0.259259259259    0.000000000000       8
    0.388888888889    0.259259259259    0.000000000000       8
    0.407407407407    0.259259259259    0.000000000000       8
    0.425925925926    0.259259259259    0.000000000000       8
    0.444444444444    0.259259259259    0.000000000000       8
    0.462962962963    0.259259259259    0.000000000000       8
    0.481481481481    0.259259259259    0.000000000000       8
    0.500000000000    0.259259259259    0.000000000000       4
    0.277777777778    0.277777777778    0.000000000000       4
    0.296296296296    0.277777777778    0.000000000000       8
    0.314814814815    0.277777777778    0.000000000000       8
    0.333333333333    0.277777777778    0.000000000000       8
    0.351851851852    0.277777777778    0.000000000000       8
    0.370370370370    0.277777777778    0.000000000000       8
    0.388888888889    0.277777777778    0.000000000000       8
    0.407407407407    0.277777777778    0.000000000000       8
    0.425925925926    0.277777777778    0.000000000000       8
    0.444444444444    0.277777777778    0.000000000000       8
    0.462962962963    0.277777777778    0.000000000000       8
    0.481481481481    0.277777777778    0.000000000000       8
    0.500000000000    0.277777777778    0.000000000000       4
    0.296296296296    0.296296296296    0.000000000000       4
    0.314814814815    0.296296296296    0.000000000000       8
    0.333333333333    0.296296296296    0.000000000000       8
    0.351851851852    0.296296296296    0.000000000000       8
    0.370370370370    0.296296296296    0.000000000000       8
    0.388888888889    0.296296296296    0.000000000000       8
    0.407407407407    0.296296296296    0.000000000000       8
    0.425925925926    0.296296296296    0.000000000000       8
    0.444444444444    0.296296296296    0.000000000000       8
    0.462962962963    0.296296296296    0.000000000000       8
    0.481481481481    0.296296296296    0.000000000000       8
    0.500000000000    0.296296296296    0.000000000000       4
    0.314814814815    0.314814814815    0.000000000000       4
    0.333333333333    0.314814814815    0.000000000000       8
    0.351851851852    0.314814814815    0.000000000000       8
    0.370370370370    0.314814814815    0.000000000000       8
    0.388888888889    0.314814814815    0.000000000000       8
    0.407407407407    0.314814814815    0.000000000000       8
    0.425925925926    0.314814814815    0.000000000000       8
    0.444444444444    0.314814814815    0.000000000000       8
    0.462962962963    0.314814814815    0.000000000000       8
    0.481481481481    0.314814814815    0.000000000000       8
    0.500000000000    0.314814814815    0.000000000000       4
    0.333333333333    0.333333333333    0.000000000000       4
    0.351851851852    0.333333333333    0.000000000000       8
    0.370370370370    0.333333333333    0.000000000000       8
    0.388888888889    0.333333333333    0.000000000000       8
    0.407407407407    0.333333333333    0.000000000000       8
    0.425925925926    0.333333333333    0.000000000000       8
    0.444444444444    0.333333333333    0.000000000000       8
    0.462962962963    0.333333333333    0.000000000000       8
    0.481481481481    0.333333333333    0.000000000000       8
    0.500000000000    0.333333333333    0.000000000000       4
    0.351851851852    0.351851851852    0.000000000000       4
    0.370370370370    0.351851851852    0.000000000000       8
    0.388888888889    0.351851851852    0.000000000000       8
    0.407407407407    0.351851851852    0.000000000000       8
    0.425925925926    0.351851851852    0.000000000000       8
    0.444444444444    0.351851851852    0.000000000000       8
    0.462962962963    0.351851851852    0.000000000000       8
    0.481481481481    0.351851851852    0.000000000000       8
    0.500000000000    0.351851851852    0.000000000000       4
    0.370370370370    0.370370370370    0.000000000000       4
    0.388888888889    0.370370370370    0.000000000000       8
    0.407407407407    0.370370370370    0.000000000000       8
    0.425925925926    0.370370370370    0.000000000000       8
    0.444444444444    0.370370370370    0.000000000000       8
    0.462962962963    0.370370370370    0.000000000000       8
    0.481481481481    0.370370370370    0.000000000000       8
    0.500000000000    0.370370370370    0.000000000000       4
    0.388888888889    0.388888888889    0.000000000000       4
    0.407407407407    0.388888888889    0.000000000000       8
    0.425925925926    0.388888888889    0.000000000000       8
    0.444444444444    0.388888888889    0.000000000000       8
    0.462962962963    0.388888888889    0.000000000000       8
    0.481481481481    0.388888888889    0.000000000000       8
    0.500000000000    0.388888888889    0.000000000000       4
    0.407407407407    0.407407407407    0.000000000000       4
    0.425925925926    0.407407407407    0.000000000000       8
    0.444444444444    0.407407407407    0.000000000000       8
    0.462962962963    0.407407407407    0.000000000000       8
    0.481481481481    0.407407407407    0.000000000000       8
    0.500000000000    0.407407407407    0.000000000000       4
    0.425925925926    0.425925925926    0.000000000000       4
    0.444444444444    0.425925925926    0.000000000000       8
    0.462962962963    0.425925925926    0.000000000000       8
    0.481481481481    0.425925925926    0.000000000000       8
    0.500000000000    0.425925925926    0.000000000000       4
    0.444444444444    0.444444444444    0.000000000000       4
    0.462962962963    0.444444444444    0.000000000000       8
    0.481481481481    0.444444444444    0.000000000000       8
    0.500000000000    0.444444444444    0.000000000000       4
    0.462962962963    0.462962962963    0.000000000000       4
    0.481481481481    0.462962962963    0.000000000000       8
    0.500000000000    0.462962962963    0.000000000000       4
    0.481481481481    0.481481481481    0.000000000000       4
    0.500000000000    0.481481481481    0.000000000000       4
    0.500000000000    0.500000000000    0.000000000000       1
