CONTCAR                                 
   1.00000000000000     
    13.4303998947000007    0.0000000000000000    0.0000000000000000
     6.7152097469000003   11.6311774608000000    0.0000000000000000
     0.0000000000000000    0.0000000000000000   17.3265991210999992
   Fe   C    O 
     9    18    55
Direct
 -0.0015683807460421  0.9984325083856674  0.4954469846980845
  0.3221013698345909  0.0103608410939283  0.4833905726736248
  0.6661663680625451  0.9966716968499902  0.4941599991927135
 -0.0028018842463602  0.3351439743369082  0.4930147479722450
  0.3306414148105899  0.3311704133464875  0.4958448219244715
  0.6636260644169694  0.3311090093792237  0.4967810333445576
  0.0009868610403220  0.6639651791958884  0.4950800713478838
  0.3337834583165950  0.6652007596715404  0.5068304972398392
  0.6767257704838707  0.6622224451351582  0.4847657735701654
  0.2150038174478947  0.2291809157681457  0.4235634998066812
  0.1110366395138217  0.1097676147265201  0.5557520388331455
  0.5536864009533957  0.2200478329220346  0.4326448203183755
  0.4440725679059762  0.1044373490317633  0.5573762416254567
  0.8860936822629335  0.2217694616360817  0.4320540203520498
  0.7760100876822836  0.1085331818322257  0.5585250421329784
  0.2250133554146052  0.5535607842864136  0.4347580834359153
  0.1088781610241496  0.4429829600598906  0.5594810764751980
  0.5545697611597559  0.5550050362508065  0.4383945471214858
  0.4427764132738611  0.4401970605837326  0.5641363189556010
  0.8946952061117124  0.5539086115155214  0.4237729740695532
  0.7733327053719334  0.4445778059012828  0.5579595289165962
  0.2221672530817529  0.8846507511577147  0.4344937738925298
  0.1074613712992238  0.7775029447739299  0.5626945520219473
  0.5529133475901175  0.8877784229814784  0.4309656161265185
  0.5467264816077373  0.7817550131635188  0.7074596768428854
  0.8888259190115839  0.8862633129875730  0.4316692772362029
  0.7754104803177484  0.7740945922172412  0.5566857612338474
  0.1039279863569554  0.2089841912561367  0.5546805444441488
  0.1169587305214237  0.3222659161150482  0.4291798088688260
  0.3094519423312933  0.2326426575919480  0.4283820337476433
  0.0198206975159209  0.1011777615277368  0.5592205579026506
  0.2118828378875632  0.0172692844680977  0.5547702207722838
  0.2218207317126837  0.1312571552244431  0.4122023039493552
  0.4329148019230169  0.2050193195762492  0.5590957973630392
  0.4537815335316515  0.3117024001646725  0.4326593974983875
  0.6450653003925159  0.2289127712404805  0.4313511110390447
  0.3546169949498325  0.0911732330620734  0.5582540680942754
  0.5443493585413660  0.0134125620335513  0.5585425627839564
  0.5625220269623048  0.1197532558983636  0.4308370778367823
  0.7674755277026042  0.2086945898877044  0.5600355764117835
  0.7852068590937995  0.3125756162888864  0.4319654493128451
  0.9767775425987107  0.2317554813318653  0.4296943579289615
  0.6847030953376302  0.0995164002536250  0.5590268427706619
  0.8763357305647033  0.0173283372165929  0.5594975717451570
  0.8961095380669256  0.1209700193711470  0.4310704014273379
  0.1011423264553198  0.5426893821064571  0.5614652987565700
  0.1244614604106520  0.6459974389571377  0.4339667704591899
  0.3154601443544474  0.5619572925221605  0.4347662002225132
  0.0167350305916691  0.4353347494886742  0.5598273579648383
  0.2085357377312202  0.3507252931686617  0.5603203121213481
  0.2304266031435379  0.4543571453567465  0.4330066387315654
  0.4343375213724981  0.5403739963358372  0.5705949422587043
  0.4599103375451535  0.6499177337079183  0.4497423939632675
  0.6475409703290796  0.5601261015620130  0.4284137602889547
  0.3512991956046261  0.4320574467988638  0.5629363901420372
  0.5429137447544967  0.3487556385977638  0.5618777443926627
  0.5580863368745934  0.4576552242413724  0.4351465923711521
  0.7601554645485038  0.5472599036251373  0.5580861398470777
  0.7964236025183477  0.6448812027639002  0.4132015180456080
  0.9879228593648005  0.5585767019688384  0.4295670831472069
  0.6825383963806357  0.4350861472394998  0.5615005291029866
  0.8739812380266756  0.3548880267836294  0.5576862733314600
  0.8974857304946630  0.4560720760998856  0.4277581657159202
  0.0996315891920870  0.8773265025541923  0.5622174959058637
  0.1226869134921026  0.9759527238199908  0.4303012340453045
  0.3145934501339661  0.8928495880168865  0.4314635420124338
  0.0162889459591467  0.7686790557530015  0.5606246108188454
  0.2080740114223238  0.6862731111177356  0.5680971150191980
  0.2320354866359129  0.7848087074814079  0.4396877145785363
  0.5069582833604029  0.8814072633085107  0.7158701732955556
  0.4539387117880685  0.9802019590534551  0.4273018410635849
  0.6456925238085568  0.8932977283925022  0.4290534164715573
  0.3623017561901734  0.7629237529411461  0.5744156217750903
  0.5862637893675930  0.6820536097163757  0.6989979913454668
  0.5570848212431081  0.7893337431394878  0.4345927842518014
  0.7674190913331210  0.8736349590511757  0.5590784600094103
  0.7884245865038534  0.9774940213540535  0.4303266451507183
  0.9800768394319931  0.8954415382103880  0.4311297985742208
  0.6827990954673868  0.7657790596376937  0.5567049161359748
  0.8744180566258402  0.6817791377807557  0.5556743703238332
  0.8981659302221915  0.7859322454811560  0.4303875392937500
  0.3368734193267777  0.7706999661662813  0.6449136038081090
 
  0.00000000E+00  0.00000000E+00  0.00000000E+00
  0.00000000E+00  0.00000000E+00  0.00000000E+00
  0.00000000E+00  0.00000000E+00  0.00000000E+00
  0.00000000E+00  0.00000000E+00  0.00000000E+00
  0.00000000E+00  0.00000000E+00  0.00000000E+00
  0.00000000E+00  0.00000000E+00  0.00000000E+00
  0.00000000E+00  0.00000000E+00  0.00000000E+00
  0.00000000E+00  0.00000000E+00  0.00000000E+00
  0.00000000E+00  0.00000000E+00  0.00000000E+00
  0.00000000E+00  0.00000000E+00  0.00000000E+00
  0.00000000E+00  0.00000000E+00  0.00000000E+00
  0.00000000E+00  0.00000000E+00  0.00000000E+00
  0.00000000E+00  0.00000000E+00  0.00000000E+00
  0.00000000E+00  0.00000000E+00  0.00000000E+00
  0.00000000E+00  0.00000000E+00  0.00000000E+00
  0.00000000E+00  0.00000000E+00  0.00000000E+00
  0.00000000E+00  0.00000000E+00  0.00000000E+00
  0.00000000E+00  0.00000000E+00  0.00000000E+00
  0.00000000E+00  0.00000000E+00  0.00000000E+00
  0.00000000E+00  0.00000000E+00  0.00000000E+00
  0.00000000E+00  0.00000000E+00  0.00000000E+00
  0.00000000E+00  0.00000000E+00  0.00000000E+00
  0.00000000E+00  0.00000000E+00  0.00000000E+00
  0.00000000E+00  0.00000000E+00  0.00000000E+00
  0.00000000E+00  0.00000000E+00  0.00000000E+00
  0.00000000E+00  0.00000000E+00  0.00000000E+00
  0.00000000E+00  0.00000000E+00  0.00000000E+00
  0.00000000E+00  0.00000000E+00  0.00000000E+00
  0.00000000E+00  0.00000000E+00  0.00000000E+00
  0.00000000E+00  0.00000000E+00  0.00000000E+00
  0.00000000E+00  0.00000000E+00  0.00000000E+00
  0.00000000E+00  0.00000000E+00  0.00000000E+00
  0.00000000E+00  0.00000000E+00  0.00000000E+00
  0.00000000E+00  0.00000000E+00  0.00000000E+00
  0.00000000E+00  0.00000000E+00  0.00000000E+00
  0.00000000E+00  0.00000000E+00  0.00000000E+00
  0.00000000E+00  0.00000000E+00  0.00000000E+00
  0.00000000E+00  0.00000000E+00  0.00000000E+00
  0.00000000E+00  0.00000000E+00  0.00000000E+00
  0.00000000E+00  0.00000000E+00  0.00000000E+00
  0.00000000E+00  0.00000000E+00  0.00000000E+00
  0.00000000E+00  0.00000000E+00  0.00000000E+00
  0.00000000E+00  0.00000000E+00  0.00000000E+00
  0.00000000E+00  0.00000000E+00  0.00000000E+00
  0.00000000E+00  0.00000000E+00  0.00000000E+00
  0.00000000E+00  0.00000000E+00  0.00000000E+00
  0.00000000E+00  0.00000000E+00  0.00000000E+00
  0.00000000E+00  0.00000000E+00  0.00000000E+00
  0.00000000E+00  0.00000000E+00  0.00000000E+00
  0.00000000E+00  0.00000000E+00  0.00000000E+00
  0.00000000E+00  0.00000000E+00  0.00000000E+00
  0.00000000E+00  0.00000000E+00  0.00000000E+00
  0.00000000E+00  0.00000000E+00  0.00000000E+00
  0.00000000E+00  0.00000000E+00  0.00000000E+00
  0.00000000E+00  0.00000000E+00  0.00000000E+00
  0.00000000E+00  0.00000000E+00  0.00000000E+00
  0.00000000E+00  0.00000000E+00  0.00000000E+00
  0.00000000E+00  0.00000000E+00  0.00000000E+00
  0.00000000E+00  0.00000000E+00  0.00000000E+00
  0.00000000E+00  0.00000000E+00  0.00000000E+00
  0.00000000E+00  0.00000000E+00  0.00000000E+00
  0.00000000E+00  0.00000000E+00  0.00000000E+00
  0.00000000E+00  0.00000000E+00  0.00000000E+00
  0.00000000E+00  0.00000000E+00  0.00000000E+00
  0.00000000E+00  0.00000000E+00  0.00000000E+00
  0.00000000E+00  0.00000000E+00  0.00000000E+00
  0.00000000E+00  0.00000000E+00  0.00000000E+00
  0.00000000E+00  0.00000000E+00  0.00000000E+00
  0.00000000E+00  0.00000000E+00  0.00000000E+00
  0.00000000E+00  0.00000000E+00  0.00000000E+00
  0.00000000E+00  0.00000000E+00  0.00000000E+00
  0.00000000E+00  0.00000000E+00  0.00000000E+00
  0.00000000E+00  0.00000000E+00  0.00000000E+00
  0.00000000E+00  0.00000000E+00  0.00000000E+00
  0.00000000E+00  0.00000000E+00  0.00000000E+00
  0.00000000E+00  0.00000000E+00  0.00000000E+00
  0.00000000E+00  0.00000000E+00  0.00000000E+00
  0.00000000E+00  0.00000000E+00  0.00000000E+00
  0.00000000E+00  0.00000000E+00  0.00000000E+00
  0.00000000E+00  0.00000000E+00  0.00000000E+00
  0.00000000E+00  0.00000000E+00  0.00000000E+00
  0.00000000E+00  0.00000000E+00  0.00000000E+00
