 Tb2 Cl2                                
   1.00000000000000     
     3.7199828288175532    0.0000000000000000    0.0000000000000000
     1.8599914144087766    3.2215993863471306    0.0000000000000000
     0.0000000000000000    0.0000000000000000   21.2917039514160003
   Tb   Cl
     2     2
Direct
  0.6666667838111001  0.6666667954238333  0.4346076415204458
  0.3333332137352588  0.3333332036595628  0.5653923580732382
 -0.0000000794997186 -0.0000000891753477  0.6478629521334165
  0.0000000819533596  0.0000000900919514  0.3521370482728993
 
  0.00000000E+00  0.00000000E+00  0.00000000E+00
  0.00000000E+00  0.00000000E+00  0.00000000E+00
  0.00000000E+00  0.00000000E+00  0.00000000E+00
  0.00000000E+00  0.00000000E+00  0.00000000E+00
