CONTCAR\(2)                             
   1.00000000000000     
    21.4713001251000009    0.0000000000000000    0.0000000000000000
    10.7356067371999995   19.1142855119999986    0.0000000000000000
     0.0000000000000000    0.0000000000000000   19.1464004516999999
   Ta   Te   O    H 
    36    72     2     1
Direct
  0.4050723578738223  0.3567350367501072  0.5012719498056412
  0.2603389369330117  0.1450803584296965  0.5006881009272696
  0.0980093803885556  0.1443746624279652  0.5008534672242008
  0.2421548083946382  0.3568626165344108  0.5009998854469618
  0.4290182606824885  0.1450747063994668  0.4985599439078865
  0.0736933140052168  0.3558822879079795  0.5028353704121979
  0.0998395111785653  0.0002487040677622  0.5022367170011967
  0.4024395987074493  0.0010181134112418  0.5023601923423417
  0.2517564067632473  0.0005198736269796  0.5025478825570453
  0.9047724205209303  0.3561440463596420  0.5013221928774926
  0.7609196082581728  0.1436080528370761  0.5007126413112353
  0.5984440029760947  0.1439206008043293  0.5004547822442060
  0.7422141344519062  0.3561960571254205  0.5016534654817454
  0.9289715021053989  0.1445727432597594  0.4988733486071227
  0.5744285561507061  0.3561111203276143  0.5035966132108038
  0.5995889682929606  0.0002945146862800  0.5019998515728672
  0.9025454906614695  0.0003101300189681  0.5018319234804336
  0.7515010915181025  0.0002910859733550  0.5015871359964500
  0.4016502636508707  0.8620963191013975  0.5048639956252269
  0.2614277301877931  0.6435522790565275  0.4985438076597748
  0.0984850033336737  0.6440338897318271  0.4997009557353213
  0.2427406043207270  0.8570041532995862  0.5043215134416488
  0.4275352716405477  0.6400520605482858  0.4926466987448581
  0.0737579879939765  0.8568389244541015  0.5049647693791388
  0.1001354349807563  0.5004192357758607  0.5001866841083629
  0.4027296135991683  0.5017692892299800  0.4995645510647262
  0.2508886349386526  0.5007779999167147  0.4999409983356849
  0.9047474593683986  0.8565023723809175  0.5023457999520616
  0.7612094292103441  0.6429777086065823  0.4987355586652044
  0.6029013004809654  0.6404745216036043  0.4959012523888248
  0.7413035950855739  0.8567123200138823  0.5027535807809761
  0.9294176735968488  0.6440481198943041  0.4976158770403598
  0.5710731755352154  0.8580024688304440  0.5077091475642005
  0.6008677142059521  0.4994318332257749  0.4993903677569911
  0.9032895273453532  0.4999995701853903  0.5000518095219709
  0.7511772203842251  0.5005179371916307  0.4996428631252761
  0.4728452942740037  0.2247050056590443  0.5805259995687402
  0.1968481318237646  0.2767635591318791  0.4205644832468693
  0.0301854374364932  0.2761267714943441  0.4207824214481044
  0.3057616199852274  0.2253410444764531  0.5807194259033019
  0.3640408152743018  0.2759299386720754  0.4188433315442812
  0.1386223265068920  0.2257849975338874  0.5831531362376068
  0.3586632735063553  0.4468721613644756  0.3921703249170542
  0.3041219331673741  0.0559572006845109  0.6105115989493194
  0.1432525781227795  0.0545270653781544  0.6102071491565474
  0.1968522184532588  0.1092703638253649  0.3956257426755968
  0.3058468352421829  0.3920716491391249  0.6065342528589871
  0.3623285069413035  0.1082612397380634  0.3969734022088365
  0.4699154100361727  0.3940264172105711  0.6047033973370579
  0.1404629090543222  0.3926566497890556  0.6048038980114324
  0.0328150347145580  0.1077901099990178  0.3972286119103060
  0.0250237526420821  0.4536245389848507  0.4043869179224876
  0.4775721639474599  0.0485522968641509  0.5979641213643175
  0.1972944719276855  0.4472436352293496  0.3916659422871867
  0.9726848282005465  0.2243438418555492  0.5810500400887975
  0.6974794408751770  0.2754910179820332  0.4214007635238175
  0.5307361889165114  0.2762142530615071  0.4213302719650223
  0.8061614587328615  0.2240111213515252  0.5810440657060754
  0.8639744940119943  0.2751424109455868  0.4189136688434932
  0.6390968797264165  0.2248464975953652  0.5827819669522628
  0.8595931415712192  0.4460914026980883  0.3920130117196940
  0.8051949653809517  0.0533289202757680  0.6101066882325878
  0.6441067135260744  0.0536668704311615  0.6097391109019835
  0.6972237468749505  0.1086705424980047  0.3948659733620032
  0.8057019414829926  0.3919649835753854  0.6067033325149997
  0.8625883581949972  0.1076686302486254  0.3968086160250388
  0.9703875141653605  0.3924101189082054  0.6049358904768907
  0.6402841208914375  0.3932308695040626  0.6055351946936819
  0.5327418102102777  0.1076651830202983  0.3967870928722147
  0.5253977629163151  0.4524363372347152  0.4040775356556841
  0.9776835067844936  0.0470176835600333  0.5975075014152417
  0.6987163854937245  0.4450661478498677  0.3915975516222397
  0.4714687661181475  0.7249143181282235  0.5612766685942842
  0.1970683676314744  0.7772271295759939  0.4227385207612708
  0.0304612836497066  0.7769411682466512  0.4222074388349663
  0.3070396670964490  0.7233007495637807  0.5794304811419144
  0.3645838876218176  0.7755617084855103  0.4212896167597193
  0.1399879222722433  0.7245871895994527  0.5818842247261603
  0.3581011976704050  0.9480551743722437  0.3932216775854946
  0.3051878553452340  0.5537670474104897  0.6080833914350158
  0.1441907437638530  0.5534679893843589  0.6088093789242743
  0.1963752475941289  0.6092478264775658  0.3934400586882112
  0.3043232967693158  0.8938530620517818  0.6106889228139620
  0.3601165515558495  0.6069899769601376  0.3909868629450404
  0.4683118926609558  0.8954763215615112  0.6096798559710824
  0.1406043677019412  0.8927181052681864  0.6075457412334440
  0.0325764469659366  0.6084040856681293  0.3956396990397039
  0.0247492242427721  0.9538113575719595  0.4059741516645850
  0.4777006893620592  0.5483055468714878  0.5959280732643772
  0.1976237881172052  0.9468121429758909  0.3944450655877360
  0.9730232297038395  0.7237377239156313  0.5803083824053791
  0.6948679910136210  0.7769480196850498  0.4239080069353212
  0.5291906347768338  0.7766080326846709  0.4244489242822541
  0.8060874028031304  0.7234545568933127  0.5799555907400331
  0.8632568570562399  0.7759048221494846  0.4202729849824560
  0.6391450814613445  0.7245459067915797  0.5812343308722863
  0.8587101884159294  0.9468758577156845  0.3932261604002968
  0.8057434218078257  0.5532184609264771  0.6082879511731298
  0.6436659162135526  0.5542191423523198  0.6078577463376980
  0.6998256252317603  0.6071883029362345  0.3907280883520889
  0.8058929106257277  0.8913183735281346  0.6078560629783433
  0.8626847140692337  0.6079965397907261  0.3950752826530073
  0.9702345446194689  0.8922774142373873  0.6066003469860521
  0.6404707034612825  0.8929111185188185  0.6077997080408117
  0.5342020098194736  0.6054335039886429  0.3933397013995348
  0.5247695208367787  0.9529993167059755  0.4066120745024128
  0.9783534070264260  0.5465676763760936  0.5961697923123508
  0.6969615198969968  0.9471186500031199  0.3936345554601167
  0.4758070968309985  0.7034703069176222  0.6686711458307696
  0.5051025248883577  0.7416827299994710  0.7055691113560508
  0.5568015485673872  0.7083783979451781  0.7038062496108631
 
  0.00000000E+00  0.00000000E+00  0.00000000E+00
  0.00000000E+00  0.00000000E+00  0.00000000E+00
  0.00000000E+00  0.00000000E+00  0.00000000E+00
  0.00000000E+00  0.00000000E+00  0.00000000E+00
  0.00000000E+00  0.00000000E+00  0.00000000E+00
  0.00000000E+00  0.00000000E+00  0.00000000E+00
  0.00000000E+00  0.00000000E+00  0.00000000E+00
  0.00000000E+00  0.00000000E+00  0.00000000E+00
  0.00000000E+00  0.00000000E+00  0.00000000E+00
  0.00000000E+00  0.00000000E+00  0.00000000E+00
  0.00000000E+00  0.00000000E+00  0.00000000E+00
  0.00000000E+00  0.00000000E+00  0.00000000E+00
  0.00000000E+00  0.00000000E+00  0.00000000E+00
  0.00000000E+00  0.00000000E+00  0.00000000E+00
  0.00000000E+00  0.00000000E+00  0.00000000E+00
  0.00000000E+00  0.00000000E+00  0.00000000E+00
  0.00000000E+00  0.00000000E+00  0.00000000E+00
  0.00000000E+00  0.00000000E+00  0.00000000E+00
  0.00000000E+00  0.00000000E+00  0.00000000E+00
  0.00000000E+00  0.00000000E+00  0.00000000E+00
  0.00000000E+00  0.00000000E+00  0.00000000E+00
  0.00000000E+00  0.00000000E+00  0.00000000E+00
  0.00000000E+00  0.00000000E+00  0.00000000E+00
  0.00000000E+00  0.00000000E+00  0.00000000E+00
  0.00000000E+00  0.00000000E+00  0.00000000E+00
  0.00000000E+00  0.00000000E+00  0.00000000E+00
  0.00000000E+00  0.00000000E+00  0.00000000E+00
  0.00000000E+00  0.00000000E+00  0.00000000E+00
  0.00000000E+00  0.00000000E+00  0.00000000E+00
  0.00000000E+00  0.00000000E+00  0.00000000E+00
  0.00000000E+00  0.00000000E+00  0.00000000E+00
  0.00000000E+00  0.00000000E+00  0.00000000E+00
  0.00000000E+00  0.00000000E+00  0.00000000E+00
  0.00000000E+00  0.00000000E+00  0.00000000E+00
  0.00000000E+00  0.00000000E+00  0.00000000E+00
  0.00000000E+00  0.00000000E+00  0.00000000E+00
  0.00000000E+00  0.00000000E+00  0.00000000E+00
  0.00000000E+00  0.00000000E+00  0.00000000E+00
  0.00000000E+00  0.00000000E+00  0.00000000E+00
  0.00000000E+00  0.00000000E+00  0.00000000E+00
  0.00000000E+00  0.00000000E+00  0.00000000E+00
  0.00000000E+00  0.00000000E+00  0.00000000E+00
  0.00000000E+00  0.00000000E+00  0.00000000E+00
  0.00000000E+00  0.00000000E+00  0.00000000E+00
  0.00000000E+00  0.00000000E+00  0.00000000E+00
  0.00000000E+00  0.00000000E+00  0.00000000E+00
  0.00000000E+00  0.00000000E+00  0.00000000E+00
  0.00000000E+00  0.00000000E+00  0.00000000E+00
  0.00000000E+00  0.00000000E+00  0.00000000E+00
  0.00000000E+00  0.00000000E+00  0.00000000E+00
  0.00000000E+00  0.00000000E+00  0.00000000E+00
  0.00000000E+00  0.00000000E+00  0.00000000E+00
  0.00000000E+00  0.00000000E+00  0.00000000E+00
  0.00000000E+00  0.00000000E+00  0.00000000E+00
  0.00000000E+00  0.00000000E+00  0.00000000E+00
  0.00000000E+00  0.00000000E+00  0.00000000E+00
  0.00000000E+00  0.00000000E+00  0.00000000E+00
  0.00000000E+00  0.00000000E+00  0.00000000E+00
  0.00000000E+00  0.00000000E+00  0.00000000E+00
  0.00000000E+00  0.00000000E+00  0.00000000E+00
  0.00000000E+00  0.00000000E+00  0.00000000E+00
  0.00000000E+00  0.00000000E+00  0.00000000E+00
  0.00000000E+00  0.00000000E+00  0.00000000E+00
  0.00000000E+00  0.00000000E+00  0.00000000E+00
  0.00000000E+00  0.00000000E+00  0.00000000E+00
  0.00000000E+00  0.00000000E+00  0.00000000E+00
  0.00000000E+00  0.00000000E+00  0.00000000E+00
  0.00000000E+00  0.00000000E+00  0.00000000E+00
  0.00000000E+00  0.00000000E+00  0.00000000E+00
  0.00000000E+00  0.00000000E+00  0.00000000E+00
  0.00000000E+00  0.00000000E+00  0.00000000E+00
  0.00000000E+00  0.00000000E+00  0.00000000E+00
  0.00000000E+00  0.00000000E+00  0.00000000E+00
  0.00000000E+00  0.00000000E+00  0.00000000E+00
  0.00000000E+00  0.00000000E+00  0.00000000E+00
  0.00000000E+00  0.00000000E+00  0.00000000E+00
  0.00000000E+00  0.00000000E+00  0.00000000E+00
  0.00000000E+00  0.00000000E+00  0.00000000E+00
  0.00000000E+00  0.00000000E+00  0.00000000E+00
  0.00000000E+00  0.00000000E+00  0.00000000E+00
  0.00000000E+00  0.00000000E+00  0.00000000E+00
  0.00000000E+00  0.00000000E+00  0.00000000E+00
  0.00000000E+00  0.00000000E+00  0.00000000E+00
  0.00000000E+00  0.00000000E+00  0.00000000E+00
  0.00000000E+00  0.00000000E+00  0.00000000E+00
  0.00000000E+00  0.00000000E+00  0.00000000E+00
  0.00000000E+00  0.00000000E+00  0.00000000E+00
  0.00000000E+00  0.00000000E+00  0.00000000E+00
  0.00000000E+00  0.00000000E+00  0.00000000E+00
  0.00000000E+00  0.00000000E+00  0.00000000E+00
  0.00000000E+00  0.00000000E+00  0.00000000E+00
  0.00000000E+00  0.00000000E+00  0.00000000E+00
  0.00000000E+00  0.00000000E+00  0.00000000E+00
  0.00000000E+00  0.00000000E+00  0.00000000E+00
  0.00000000E+00  0.00000000E+00  0.00000000E+00
  0.00000000E+00  0.00000000E+00  0.00000000E+00
  0.00000000E+00  0.00000000E+00  0.00000000E+00
  0.00000000E+00  0.00000000E+00  0.00000000E+00
  0.00000000E+00  0.00000000E+00  0.00000000E+00
  0.00000000E+00  0.00000000E+00  0.00000000E+00
  0.00000000E+00  0.00000000E+00  0.00000000E+00
  0.00000000E+00  0.00000000E+00  0.00000000E+00
  0.00000000E+00  0.00000000E+00  0.00000000E+00
  0.00000000E+00  0.00000000E+00  0.00000000E+00
  0.00000000E+00  0.00000000E+00  0.00000000E+00
  0.00000000E+00  0.00000000E+00  0.00000000E+00
  0.00000000E+00  0.00000000E+00  0.00000000E+00
  0.00000000E+00  0.00000000E+00  0.00000000E+00
  0.00000000E+00  0.00000000E+00  0.00000000E+00
  0.00000000E+00  0.00000000E+00  0.00000000E+00
  0.00000000E+00  0.00000000E+00  0.00000000E+00
