CONTCAR                                 
   1.00000000000000     
    15.5867004394999995    0.0000000000000000    0.0000000000000000
     0.0000000000000000   15.5869998931999998    0.0000000000000000
     0.0000000000000000    0.0000000000000000   20.8931999206999990
   Sr   Cu   Cl   O 
    32    16    32    33
Direct
  0.0000000000000000  0.9999396158812754  0.4172817711678046
  0.0000000000000000  0.0001973576440521  0.5821571270652453
  0.2503091337903836  0.9998865033760512  0.4179120650398547
  0.2497283390345089  0.0003621234528229  0.5827723987618427
  0.5000000000000000  0.9999523097393684  0.4181794391282694
  0.5000000000000000  0.0002181317482088  0.5830456197164151
  0.7496908662096164  0.9998865033760512  0.4179120650398547
  0.7502716609654910  0.0003621234528229  0.5827723987618427
  0.0000000000000000  0.2500955651720751  0.4172090295231151
  0.0000000000000000  0.2498893561781443  0.5820802889978538
  0.2503141711076016  0.2501339591011486  0.4178188154060812
  0.2497328088626479  0.2497176755270451  0.5826777149487790
  0.5000000000000000  0.2500753641830476  0.4180620650814254
  0.5000000000000000  0.2499322906233866  0.5829542743634178
  0.7496858288923983  0.2501339591011486  0.4178188154060812
  0.7502671911373521  0.2497176755270451  0.5826777149487790
  0.0000000000000000  0.5002191957774140  0.4176377663976339
  0.0000000000000000  0.4999109255657212  0.5824138363079391
  0.2503955740472943  0.5001248244277678  0.4184747129226954
  0.2491890092372760  0.4987303314551174  0.5828748097652148
  0.5000000000000000  0.4998961177612428  0.4198549214455345
  0.5000000000000000  0.5000393938961742  0.5857528103723634
  0.7496044259527056  0.5001248244277678  0.4184747129226954
  0.7508109907627241  0.4987303314551174  0.5828748097652148
  0.0000000000000000  0.7498860749784365  0.4176840820974224
  0.0000000000000000  0.7501377458765187  0.5824644576835137
  0.2503746756935518  0.7499685145396584  0.4185672634715032
  0.2491959958022438  0.7513059629045267  0.5829664786309718
  0.5000000000000000  0.7501593618845147  0.4199573662915905
  0.5000000000000000  0.7499755951725353  0.5858964723092834
  0.7496253243064480  0.7499685145396584  0.4185672634715032
  0.7508040041977561  0.7513059629045267  0.5829664786309718
  0.1249943988751150  0.1250303910862574  0.4996503807484078
  0.3749588323202852  0.1250031685378571  0.5006296047537971
  0.6250411676797148  0.1250031685378571  0.5006296047537971
  0.8750056011248850  0.1250303910862574  0.4996503807484078
  0.1249745842376453  0.3749292363753956  0.4998852461178117
  0.3751644017335094  0.3749313843817070  0.5013252807089701
  0.6248355982664906  0.3749313843817070  0.5013252807089701
  0.8750254157623547  0.3749292363753956  0.4998852461178117
  0.1251375749525369  0.6250145934898821  0.5007059375861366
  0.3753627510491720  0.6250177350460169  0.5020010652051393
  0.6246372489508281  0.6250177350460169  0.5020010652051393
  0.8748624250474629  0.6250145934898821  0.5007059375861366
  0.1250044551948409  0.8751149414381719  0.5000169421978105
  0.3751604814387187  0.8751244436271849  0.5014392247733275
  0.6248395185612814  0.8751244436271849  0.5014392247733275
  0.8749955448051591  0.8751149414381719  0.5000169421978105
  0.1252995964908349  0.1249940185509417  0.3552695740835859
  0.1245554312120017  0.1250891124086042  0.6447033819493955
  0.3750505546316231  0.1249862425080835  0.3558668669267547
  0.3747579539119075  0.1251074277125636  0.6451200114748848
  0.6249494453683768  0.1249862425080835  0.3558668669267547
  0.6252420460880924  0.1251074277125636  0.6451200114748848
  0.8747004035091652  0.1249940185509417  0.3552695740835859
  0.8754445687879983  0.1250891124086042  0.6447033819493955
  0.1253518658223964  0.3753944459251751  0.3555375181066989
  0.1243513777598911  0.3746882676097715  0.6448352441946366
  0.3750402768463058  0.3755786449303873  0.3562375494299772
  0.3739569378495003  0.3739482023005077  0.6454348776230849
  0.6249597231536940  0.3755786449303873  0.3562375494299772
  0.6260430621504997  0.3739482023005077  0.6454348776230849
  0.8746481341776036  0.3753944459251751  0.3555375181066989
  0.8756486222401090  0.3746882676097715  0.6448352441946366
  0.1255362805879679  0.6250561380882133  0.3560003324107265
  0.1252816192764293  0.6249880506976482  0.6451802188988782
  0.3753114244467025  0.6251151797340068  0.3571626777627713
  0.3652089231447485  0.6249607377978629  0.6569051098720436
  0.6246885755532973  0.6251151797340068  0.3571626777627713
  0.6347910768552516  0.6249607377978629  0.6569051098720436
  0.8744637194120320  0.6250561380882133  0.3560003324107265
  0.8747183807235709  0.6249880506976482  0.6451802188988782
  0.1253688280465937  0.8746564279377704  0.3556238008875522
  0.1243438400861927  0.8753828114314047  0.6448998030501447
  0.3750724980129878  0.8744563892127738  0.3563439531514889
  0.3739538909449334  0.8761375252054378  0.6455498631936469
  0.6249275019870122  0.8744563892127738  0.3563439531514889
  0.6260461090550667  0.8761375252054378  0.6455498631936469
  0.8746311719534063  0.8746564279377704  0.3556238008875522
  0.8756561599138073  0.8753828114314047  0.6448998030501447
  0.0000000000000000  0.1250376477208739  0.4995067499841538
  0.1248950504830765  0.0000915683431664  0.4998526294332216
  0.2499215380062116  0.1250528892017080  0.5002019401280695
  0.3747156107366399  0.0001940457546151  0.5005980129989569
  0.5000000000000000  0.1250558931997852  0.5006305900602830
  0.6252843892633601  0.0001940457546151  0.5005980129989569
  0.7500784619937882  0.1250528892017080  0.5002019401280695
  0.8751049495169235  0.0000915683431664  0.4998526294332216
  0.0000000000000000  0.3750942290034807  0.4996888883289343
  0.1249098126300185  0.2500071803386413  0.4997720118347614
  0.2500635560605093  0.3749738080070478  0.5003793349922784
  0.3747371334825524  0.2498966385261086  0.5005196360795103
  0.5000000000000000  0.3735909897041302  0.4997669766744169
  0.6252628665174476  0.2498966385261086  0.5005196360795103
  0.7499364439394907  0.3749738080070478  0.5003793349922784
  0.8750901873699815  0.2500071803386413  0.4997720118347614
  0.0000000000000000  0.6250449232505119  0.5002265870151279
  0.1250014514071594  0.5000000365709404  0.5002910911728295
  0.2503608434804154  0.6250335568915980  0.5016554586892785
  0.3747796486789278  0.5001673414213017  0.5025872800543761
  0.5000000000000000  0.6250002220400692  0.5006813515725199
  0.6252203513210722  0.5001673414213017  0.5025872800543761
  0.7496391565195845  0.6250335568915980  0.5016554586892785
  0.8749985485928407  0.5000000365709404  0.5002910911728295
  0.0000000000000000  0.8749569495333126  0.4997425355098357
  0.1249811182534821  0.7500990670886830  0.5003762295999592
  0.2500469847136689  0.8750607844064863  0.5004715379267571
  0.3747728077931834  0.7499043606017249  0.5027621897636250
  0.5000000000000000  0.8764680845545945  0.4999128031671047
  0.6252271922068166  0.7499043606017249  0.5027621897636250
  0.7499530152863311  0.8750607844064863  0.5004715379267571
  0.8750188817465180  0.7500990670886830  0.5003762295999592
  0.4999499810000003  0.6249338609715336  0.6568703472822086
 
  0.00000000E+00  0.00000000E+00  0.00000000E+00
  0.00000000E+00  0.00000000E+00  0.00000000E+00
  0.00000000E+00  0.00000000E+00  0.00000000E+00
  0.00000000E+00  0.00000000E+00  0.00000000E+00
  0.00000000E+00  0.00000000E+00  0.00000000E+00
  0.00000000E+00  0.00000000E+00  0.00000000E+00
  0.00000000E+00  0.00000000E+00  0.00000000E+00
  0.00000000E+00  0.00000000E+00  0.00000000E+00
  0.00000000E+00  0.00000000E+00  0.00000000E+00
  0.00000000E+00  0.00000000E+00  0.00000000E+00
  0.00000000E+00  0.00000000E+00  0.00000000E+00
  0.00000000E+00  0.00000000E+00  0.00000000E+00
  0.00000000E+00  0.00000000E+00  0.00000000E+00
  0.00000000E+00  0.00000000E+00  0.00000000E+00
  0.00000000E+00  0.00000000E+00  0.00000000E+00
  0.00000000E+00  0.00000000E+00  0.00000000E+00
  0.00000000E+00  0.00000000E+00  0.00000000E+00
  0.00000000E+00  0.00000000E+00  0.00000000E+00
  0.00000000E+00  0.00000000E+00  0.00000000E+00
  0.00000000E+00  0.00000000E+00  0.00000000E+00
  0.00000000E+00  0.00000000E+00  0.00000000E+00
  0.00000000E+00  0.00000000E+00  0.00000000E+00
  0.00000000E+00  0.00000000E+00  0.00000000E+00
  0.00000000E+00  0.00000000E+00  0.00000000E+00
  0.00000000E+00  0.00000000E+00  0.00000000E+00
  0.00000000E+00  0.00000000E+00  0.00000000E+00
  0.00000000E+00  0.00000000E+00  0.00000000E+00
  0.00000000E+00  0.00000000E+00  0.00000000E+00
  0.00000000E+00  0.00000000E+00  0.00000000E+00
  0.00000000E+00  0.00000000E+00  0.00000000E+00
  0.00000000E+00  0.00000000E+00  0.00000000E+00
  0.00000000E+00  0.00000000E+00  0.00000000E+00
  0.00000000E+00  0.00000000E+00  0.00000000E+00
  0.00000000E+00  0.00000000E+00  0.00000000E+00
  0.00000000E+00  0.00000000E+00  0.00000000E+00
  0.00000000E+00  0.00000000E+00  0.00000000E+00
  0.00000000E+00  0.00000000E+00  0.00000000E+00
  0.00000000E+00  0.00000000E+00  0.00000000E+00
  0.00000000E+00  0.00000000E+00  0.00000000E+00
  0.00000000E+00  0.00000000E+00  0.00000000E+00
  0.00000000E+00  0.00000000E+00  0.00000000E+00
  0.00000000E+00  0.00000000E+00  0.00000000E+00
  0.00000000E+00  0.00000000E+00  0.00000000E+00
  0.00000000E+00  0.00000000E+00  0.00000000E+00
  0.00000000E+00  0.00000000E+00  0.00000000E+00
  0.00000000E+00  0.00000000E+00  0.00000000E+00
  0.00000000E+00  0.00000000E+00  0.00000000E+00
  0.00000000E+00  0.00000000E+00  0.00000000E+00
  0.00000000E+00  0.00000000E+00  0.00000000E+00
  0.00000000E+00  0.00000000E+00  0.00000000E+00
  0.00000000E+00  0.00000000E+00  0.00000000E+00
  0.00000000E+00  0.00000000E+00  0.00000000E+00
  0.00000000E+00  0.00000000E+00  0.00000000E+00
  0.00000000E+00  0.00000000E+00  0.00000000E+00
  0.00000000E+00  0.00000000E+00  0.00000000E+00
  0.00000000E+00  0.00000000E+00  0.00000000E+00
  0.00000000E+00  0.00000000E+00  0.00000000E+00
  0.00000000E+00  0.00000000E+00  0.00000000E+00
  0.00000000E+00  0.00000000E+00  0.00000000E+00
  0.00000000E+00  0.00000000E+00  0.00000000E+00
  0.00000000E+00  0.00000000E+00  0.00000000E+00
  0.00000000E+00  0.00000000E+00  0.00000000E+00
  0.00000000E+00  0.00000000E+00  0.00000000E+00
  0.00000000E+00  0.00000000E+00  0.00000000E+00
  0.00000000E+00  0.00000000E+00  0.00000000E+00
  0.00000000E+00  0.00000000E+00  0.00000000E+00
  0.00000000E+00  0.00000000E+00  0.00000000E+00
  0.00000000E+00  0.00000000E+00  0.00000000E+00
  0.00000000E+00  0.00000000E+00  0.00000000E+00
  0.00000000E+00  0.00000000E+00  0.00000000E+00
  0.00000000E+00  0.00000000E+00  0.00000000E+00
  0.00000000E+00  0.00000000E+00  0.00000000E+00
  0.00000000E+00  0.00000000E+00  0.00000000E+00
  0.00000000E+00  0.00000000E+00  0.00000000E+00
  0.00000000E+00  0.00000000E+00  0.00000000E+00
  0.00000000E+00  0.00000000E+00  0.00000000E+00
  0.00000000E+00  0.00000000E+00  0.00000000E+00
  0.00000000E+00  0.00000000E+00  0.00000000E+00
  0.00000000E+00  0.00000000E+00  0.00000000E+00
  0.00000000E+00  0.00000000E+00  0.00000000E+00
  0.00000000E+00  0.00000000E+00  0.00000000E+00
  0.00000000E+00  0.00000000E+00  0.00000000E+00
  0.00000000E+00  0.00000000E+00  0.00000000E+00
  0.00000000E+00  0.00000000E+00  0.00000000E+00
  0.00000000E+00  0.00000000E+00  0.00000000E+00
  0.00000000E+00  0.00000000E+00  0.00000000E+00
  0.00000000E+00  0.00000000E+00  0.00000000E+00
  0.00000000E+00  0.00000000E+00  0.00000000E+00
  0.00000000E+00  0.00000000E+00  0.00000000E+00
  0.00000000E+00  0.00000000E+00  0.00000000E+00
  0.00000000E+00  0.00000000E+00  0.00000000E+00
  0.00000000E+00  0.00000000E+00  0.00000000E+00
  0.00000000E+00  0.00000000E+00  0.00000000E+00
  0.00000000E+00  0.00000000E+00  0.00000000E+00
  0.00000000E+00  0.00000000E+00  0.00000000E+00
  0.00000000E+00  0.00000000E+00  0.00000000E+00
  0.00000000E+00  0.00000000E+00  0.00000000E+00
  0.00000000E+00  0.00000000E+00  0.00000000E+00
  0.00000000E+00  0.00000000E+00  0.00000000E+00
  0.00000000E+00  0.00000000E+00  0.00000000E+00
  0.00000000E+00  0.00000000E+00  0.00000000E+00
  0.00000000E+00  0.00000000E+00  0.00000000E+00
  0.00000000E+00  0.00000000E+00  0.00000000E+00
  0.00000000E+00  0.00000000E+00  0.00000000E+00
  0.00000000E+00  0.00000000E+00  0.00000000E+00
  0.00000000E+00  0.00000000E+00  0.00000000E+00
  0.00000000E+00  0.00000000E+00  0.00000000E+00
  0.00000000E+00  0.00000000E+00  0.00000000E+00
  0.00000000E+00  0.00000000E+00  0.00000000E+00
  0.00000000E+00  0.00000000E+00  0.00000000E+00
  0.00000000E+00  0.00000000E+00  0.00000000E+00
  0.00000000E+00  0.00000000E+00  0.00000000E+00
  0.00000000E+00  0.00000000E+00  0.00000000E+00
