CONTCAR                                 
   1.00000000000000     
    15.5867004394999995    0.0000000000000000    0.0000000000000000
     0.0000000000000000   15.5869998931999998    0.0000000000000000
     0.0000000000000000    0.0000000000000000   20.8931999206999990
   Sr   Cu   Cl   O 
    32    16    32    33
Direct
  0.0000100458990748  0.0000369241591129  0.4171473544330359
  0.0000052463207340  0.0000193907226076  0.5822793821756601
  0.2502831754992708  0.0000277656326162  0.4171591185631313
  0.2498152438002798  0.0000222515131212  0.5823052872229848
  0.5000057195920066  0.0000294917006087  0.4174184579070837
  0.5000071877919791  0.0000318409585775  0.5825435745342105
  0.7497326256662026  0.0000287655006289  0.4171549113464460
  0.7501970704444652  0.0000234615142874  0.5823020688425378
  0.0000071327397800  0.2503005005074268  0.4171637336166165
  0.0000050696328290  0.2498328312322641  0.5823107062379129
  0.2504058899067353  0.2504234755456375  0.4174103243119527
  0.2494367440759746  0.2494508639692845  0.5824835778765222
  0.5000037893631634  0.2505979948969169  0.4181912886636845
  0.5000045939943288  0.2499728653651241  0.5834509209732729
  0.7496026425347549  0.2504248649281114  0.4174065253708290
  0.7505743951372599  0.2494501823088456  0.5824798975213115
  0.0000059540156409  0.5000217071519774  0.4174178417979686
  0.0000064224479245  0.5000331687624864  0.5825431227247096
  0.2505794970592496  0.5000181448736477  0.4181892121235951
  0.2499508063988479  0.5000210087133899  0.5834507197283699
  0.5000048385673251  0.5000213188147324  0.4210306641208716
  0.5000081885559265  0.5000275490281970  0.5886855313736805
  0.7494306691105573  0.5000180222341306  0.4181894122463903
  0.7500615349964687  0.5000223578768243  0.5834520596765532
  0.0000058550769714  0.7497532815171556  0.4171492544665478
  0.0000056134493656  0.7502146164978333  0.5822969290774261
  0.2504095707911513  0.7496170456088784  0.4173992633079813
  0.2494238731509501  0.7505991048195995  0.5824691920450916
  0.5000053317858213  0.7494447151330965  0.4181910790877440
  0.5000052059434705  0.7500822795647631  0.5834533743623370
  0.7496010825031902  0.7496179615298595  0.4173960298414717
  0.7505884019682011  0.7506035422924857  0.5824672437445001
  0.1249836536063315  0.1249943740710596  0.4993829271451755
  0.3750248786756012  0.1250683175293329  0.5000099875556252
  0.6249815744438254  0.1250764484426523  0.5000068755249633
  0.8750295533751314  0.1250015902139349  0.4993785325788186
  0.1250569693442994  0.3750401271679356  0.5000135621523133
  0.3750882187660500  0.3750945957613212  0.5017047753433104
  0.6249086108176888  0.3751039451002268  0.5017061816704118
  0.8749433316625584  0.3750476615706110  0.5000127152265740
  0.1250649748232714  0.6250018286967184  0.5000006091209491
  0.3750953278806258  0.6249205115225780  0.5017069725753549
  0.6249217918690904  0.6249308751401251  0.5017066140626464
  0.8749522050647387  0.6250084714528430  0.5000006318544402
  0.1249875838640279  0.8750448453842790  0.4993677494048793
  0.3750317076458617  0.8749569204998948  0.5000060169093838
  0.6249915733998382  0.8749661386057438  0.5000033588977221
  0.8750391515201658  0.8750510484040740  0.4993651411246403
  0.1250613313541894  0.1250714724736146  0.3552935351167980
  0.1246397582579432  0.1246483670583711  0.6444903214773058
  0.3752310604278096  0.1251675644656255  0.3553849948790401
  0.3746751493600057  0.1241907011814530  0.6443606272621528
  0.6247724678106930  0.1251673876909605  0.3553836176358410
  0.6253318102596637  0.1241913927646584  0.6443595850262861
  0.8749574524374556  0.1250737614259052  0.3552922674420527
  0.8753662890188527  0.1246483431417497  0.6444889533517115
  0.1251210367666196  0.3752494979575863  0.3553793979746543
  0.1241779068737041  0.3746876570126833  0.6443590019609932
  0.3754372598231624  0.3754491695381746  0.3562430985276059
  0.3713436688309771  0.3713551667418025  0.6438838505715614
  0.6245683190265149  0.3754521572204612  0.3562436788662927
  0.6286705847566973  0.3713493620639372  0.6438769062728035
  0.8748926006051440  0.3752476198997119  0.3553839883423570
  0.8758351400210046  0.3746883832655737  0.6443574667464698
  0.1251268837294394  0.6247857858355268  0.3553811190653136
  0.1241719339964887  0.6253512166505911  0.6443583282048122
  0.3754332030299519  0.6245936001047295  0.3562469469462179
  0.3713191325134049  0.6287018928791493  0.6438555261560243
  0.6245739019272054  0.6245889588494716  0.3562433757940532
  0.6287025265860946  0.6287213178862080  0.6438604001877576
  0.8748790630660906  0.6247859925312644  0.3553821782172986
  0.8758348767110691  0.6253520168509171  0.6443560564544711
  0.1250602434325506  0.8749807972892975  0.3552893709665072
  0.1246374790626506  0.8753784853104229  0.6444866343786387
  0.3752407859224164  0.8749047494051509  0.3553829335940398
  0.3746734123601108  0.8758479472804988  0.6443564245435434
  0.6247675233179411  0.8749052563961918  0.3553779145373782
  0.6253366239027137  0.8758497033111049  0.6443558518806172
  0.8749697749899008  0.8749820456023369  0.3552830749503537
  0.8753699822550340  0.8753782791002471  0.6444859733930932
  0.0000001913300840  0.1249198871467021  0.4996325665678673
  0.1248997812077958  0.0000272985899236  0.4996287886792622
  0.2499624423177538  0.1248096065873538  0.4996598347307929
  0.3750188187225309  0.0000518434022677  0.4996761424861312
  0.5000002624786971  0.1250238304248803  0.5002378100596478
  0.6249950710876353  0.0000262581178778  0.4996731417026076
  0.7500710560748097  0.1248090833037018  0.4996555344014683
  0.8751150479286919  0.0000366439911133  0.4996259323125268
  0.0000212369211874  0.3750367516414124  0.4996800728445488
  0.1247919878020718  0.2499863483088478  0.4996617136930476
  0.2499176207422418  0.3747851018715092  0.4999591575277646
  0.3747704263049830  0.2499452610975997  0.4999622566233663
  0.5000225129931521  0.3741728483067265  0.5015219642918316
  0.6252384531920100  0.2499566733184401  0.4999594998937594
  0.7500891045317704  0.3747874268224905  0.4999580083488831
  0.8752196356922498  0.2499614640112219  0.4996599003352603
 -0.0000045693491061  0.6250138052859633  0.4996706862138234
  0.1250042703915228  0.5000224421526751  0.5002378429267371
  0.2499328124438630  0.6252539201784691  0.4999502674196008
  0.3741569617405744  0.5000530464900911  0.5015233844874272
  0.4999919180315476  0.6258658806687261  0.5015290964693401
  0.6258533941148102  0.5000223422983248  0.5015265269828239
  0.7500987070374093  0.6252574532894515  0.4999483740614423
  0.8750076802975687  0.5000348450532457  0.5002396264065532
  0.0000088197677866  0.8751327688089569  0.4996246837206038
  0.1247883062661329  0.7500962680139006  0.4996479871919847
  0.2499391191419109  0.8752408305990778  0.4996519868828102
  0.3747720304572094  0.7501134289272884  0.4999518187580843
  0.5000127137560658  0.8750309946894117  0.5002426291036686
  0.6252384930329410  0.7501313293036133  0.4999498691165250
  0.7500440906372516  0.8752423761821072  0.4996470284716452
  0.8752233124448572  0.7500730223114348  0.4996464742834743
  0.5001685940474416  0.5005964651821941  0.7094556398109275
 
  0.00000000E+00  0.00000000E+00  0.00000000E+00
  0.00000000E+00  0.00000000E+00  0.00000000E+00
  0.00000000E+00  0.00000000E+00  0.00000000E+00
  0.00000000E+00  0.00000000E+00  0.00000000E+00
  0.00000000E+00  0.00000000E+00  0.00000000E+00
  0.00000000E+00  0.00000000E+00  0.00000000E+00
  0.00000000E+00  0.00000000E+00  0.00000000E+00
  0.00000000E+00  0.00000000E+00  0.00000000E+00
  0.00000000E+00  0.00000000E+00  0.00000000E+00
  0.00000000E+00  0.00000000E+00  0.00000000E+00
  0.00000000E+00  0.00000000E+00  0.00000000E+00
  0.00000000E+00  0.00000000E+00  0.00000000E+00
  0.00000000E+00  0.00000000E+00  0.00000000E+00
  0.00000000E+00  0.00000000E+00  0.00000000E+00
  0.00000000E+00  0.00000000E+00  0.00000000E+00
  0.00000000E+00  0.00000000E+00  0.00000000E+00
  0.00000000E+00  0.00000000E+00  0.00000000E+00
  0.00000000E+00  0.00000000E+00  0.00000000E+00
  0.00000000E+00  0.00000000E+00  0.00000000E+00
  0.00000000E+00  0.00000000E+00  0.00000000E+00
  0.00000000E+00  0.00000000E+00  0.00000000E+00
  0.00000000E+00  0.00000000E+00  0.00000000E+00
  0.00000000E+00  0.00000000E+00  0.00000000E+00
  0.00000000E+00  0.00000000E+00  0.00000000E+00
  0.00000000E+00  0.00000000E+00  0.00000000E+00
  0.00000000E+00  0.00000000E+00  0.00000000E+00
  0.00000000E+00  0.00000000E+00  0.00000000E+00
  0.00000000E+00  0.00000000E+00  0.00000000E+00
  0.00000000E+00  0.00000000E+00  0.00000000E+00
  0.00000000E+00  0.00000000E+00  0.00000000E+00
  0.00000000E+00  0.00000000E+00  0.00000000E+00
  0.00000000E+00  0.00000000E+00  0.00000000E+00
  0.00000000E+00  0.00000000E+00  0.00000000E+00
  0.00000000E+00  0.00000000E+00  0.00000000E+00
  0.00000000E+00  0.00000000E+00  0.00000000E+00
  0.00000000E+00  0.00000000E+00  0.00000000E+00
  0.00000000E+00  0.00000000E+00  0.00000000E+00
  0.00000000E+00  0.00000000E+00  0.00000000E+00
  0.00000000E+00  0.00000000E+00  0.00000000E+00
  0.00000000E+00  0.00000000E+00  0.00000000E+00
  0.00000000E+00  0.00000000E+00  0.00000000E+00
  0.00000000E+00  0.00000000E+00  0.00000000E+00
  0.00000000E+00  0.00000000E+00  0.00000000E+00
  0.00000000E+00  0.00000000E+00  0.00000000E+00
  0.00000000E+00  0.00000000E+00  0.00000000E+00
  0.00000000E+00  0.00000000E+00  0.00000000E+00
  0.00000000E+00  0.00000000E+00  0.00000000E+00
  0.00000000E+00  0.00000000E+00  0.00000000E+00
  0.00000000E+00  0.00000000E+00  0.00000000E+00
  0.00000000E+00  0.00000000E+00  0.00000000E+00
  0.00000000E+00  0.00000000E+00  0.00000000E+00
  0.00000000E+00  0.00000000E+00  0.00000000E+00
  0.00000000E+00  0.00000000E+00  0.00000000E+00
  0.00000000E+00  0.00000000E+00  0.00000000E+00
  0.00000000E+00  0.00000000E+00  0.00000000E+00
  0.00000000E+00  0.00000000E+00  0.00000000E+00
  0.00000000E+00  0.00000000E+00  0.00000000E+00
  0.00000000E+00  0.00000000E+00  0.00000000E+00
  0.00000000E+00  0.00000000E+00  0.00000000E+00
  0.00000000E+00  0.00000000E+00  0.00000000E+00
  0.00000000E+00  0.00000000E+00  0.00000000E+00
  0.00000000E+00  0.00000000E+00  0.00000000E+00
  0.00000000E+00  0.00000000E+00  0.00000000E+00
  0.00000000E+00  0.00000000E+00  0.00000000E+00
  0.00000000E+00  0.00000000E+00  0.00000000E+00
  0.00000000E+00  0.00000000E+00  0.00000000E+00
  0.00000000E+00  0.00000000E+00  0.00000000E+00
  0.00000000E+00  0.00000000E+00  0.00000000E+00
  0.00000000E+00  0.00000000E+00  0.00000000E+00
  0.00000000E+00  0.00000000E+00  0.00000000E+00
  0.00000000E+00  0.00000000E+00  0.00000000E+00
  0.00000000E+00  0.00000000E+00  0.00000000E+00
  0.00000000E+00  0.00000000E+00  0.00000000E+00
  0.00000000E+00  0.00000000E+00  0.00000000E+00
  0.00000000E+00  0.00000000E+00  0.00000000E+00
  0.00000000E+00  0.00000000E+00  0.00000000E+00
  0.00000000E+00  0.00000000E+00  0.00000000E+00
  0.00000000E+00  0.00000000E+00  0.00000000E+00
  0.00000000E+00  0.00000000E+00  0.00000000E+00
  0.00000000E+00  0.00000000E+00  0.00000000E+00
  0.00000000E+00  0.00000000E+00  0.00000000E+00
  0.00000000E+00  0.00000000E+00  0.00000000E+00
  0.00000000E+00  0.00000000E+00  0.00000000E+00
  0.00000000E+00  0.00000000E+00  0.00000000E+00
  0.00000000E+00  0.00000000E+00  0.00000000E+00
  0.00000000E+00  0.00000000E+00  0.00000000E+00
  0.00000000E+00  0.00000000E+00  0.00000000E+00
  0.00000000E+00  0.00000000E+00  0.00000000E+00
  0.00000000E+00  0.00000000E+00  0.00000000E+00
  0.00000000E+00  0.00000000E+00  0.00000000E+00
  0.00000000E+00  0.00000000E+00  0.00000000E+00
  0.00000000E+00  0.00000000E+00  0.00000000E+00
  0.00000000E+00  0.00000000E+00  0.00000000E+00
  0.00000000E+00  0.00000000E+00  0.00000000E+00
  0.00000000E+00  0.00000000E+00  0.00000000E+00
  0.00000000E+00  0.00000000E+00  0.00000000E+00
  0.00000000E+00  0.00000000E+00  0.00000000E+00
  0.00000000E+00  0.00000000E+00  0.00000000E+00
  0.00000000E+00  0.00000000E+00  0.00000000E+00
  0.00000000E+00  0.00000000E+00  0.00000000E+00
  0.00000000E+00  0.00000000E+00  0.00000000E+00
  0.00000000E+00  0.00000000E+00  0.00000000E+00
  0.00000000E+00  0.00000000E+00  0.00000000E+00
  0.00000000E+00  0.00000000E+00  0.00000000E+00
  0.00000000E+00  0.00000000E+00  0.00000000E+00
  0.00000000E+00  0.00000000E+00  0.00000000E+00
  0.00000000E+00  0.00000000E+00  0.00000000E+00
  0.00000000E+00  0.00000000E+00  0.00000000E+00
  0.00000000E+00  0.00000000E+00  0.00000000E+00
  0.00000000E+00  0.00000000E+00  0.00000000E+00
  0.00000000E+00  0.00000000E+00  0.00000000E+00
  0.00000000E+00  0.00000000E+00  0.00000000E+00
  0.00000000E+00  0.00000000E+00  0.00000000E+00
