CONTCAR\(4)                             
   1.00000000000000     
    11.8118000031000001    0.0000000000000000    0.0000000000000000
     0.0000000000000000   12.8071002959999998    0.0000000000000000
     0.0000000000000000    0.0000000000000000   20.7511997223000009
   Cu   Sb   Se   O    H 
    12    12    24     2     1
Direct
  0.1541137746673442  0.3649490658880268  0.4370051744699666
  0.1622941135745251  0.1226832570587106  0.5536816429117764
  0.4951614032337872  0.3662934989054989  0.4550936043242189
  0.5001236942725029  0.1202740198097558  0.5620076499640732
  0.8377231992449055  0.3655245911610407  0.4362133506131585
  0.8349601471841552  0.1174109787425124  0.5556369774887528
  0.1677513697609925  0.8662454803433590  0.4422720340998154
  0.1736509322593989  0.6110081051850287  0.5612229931913220
  0.4999205579361998  0.8676187757134741  0.4454169222066824
  0.4999187796792128  0.6164139152765102  0.5661313094380915
  0.8342734624632584  0.8667816945998510  0.4405002053116220
  0.8420823681266540  0.6165623034139216  0.5540485733866731
  0.0022303252123450  0.3595642513957742  0.6249341797675712
  0.9994735107558483  0.1136332328178185  0.3639057711319609
  0.3321006336325922  0.3712261857190668  0.6514243847084842
  0.3361807745838377  0.1200157549749576  0.3702768625638626
  0.6774139620268045  0.3689100366019034  0.6343561568421521
  0.6626348625942455  0.1201612698432299  0.3704118603782973
  0.0015506165636268  0.8663672782209488  0.6303123022851977
  0.0064521338526191  0.6181551377308452  0.3671798091122156
  0.3314370660572479  0.8711036713520173  0.6319321044571211
  0.3363924005243604  0.6138006224432715  0.3717086671948380
  0.6711002923486120  0.8675949713648663  0.6317585415470433
  0.6619667460673213  0.6145754412484763  0.3716026136641659
  0.1649357018834081  0.3086345689142931  0.5459955482288095
  0.9962374484528382  0.3113422808366977  0.3725529217234396
  0.0007071817282167  0.0620498730427883  0.6128963740440128
  0.1650267356001009  0.0539213700918637  0.4465915530815110
  0.4956729417159238  0.3088890507301372  0.5652787980322032
  0.3336393533804625  0.3142993196439576  0.3918917307080960
  0.3277808317975541  0.0658686884741826  0.6114736919704953
  0.4997736864800402  0.0557939692095886  0.4530578893649135
  0.8334452530400824  0.3051335530848789  0.5456679342194874
  0.6581396568014029  0.3143165099947822  0.3927519860258215
  0.6696927837405653  0.0636257432065861  0.6136788608580162
  0.8346135330484614  0.0547048358976667  0.4467241424756665
  0.1692035065165314  0.8010421011668711  0.5505029585032375
  0.0015443959921342  0.8140519930559122  0.3841798997989159
  0.0029986128085042  0.5591515503581732  0.6136265795353708
  0.1665651577309859  0.5526324469622423  0.4506854050253182
  0.5008940289698032  0.8047987069136511  0.5541164333492006
  0.3355538929164439  0.8107264651085799  0.3872578072745014
  0.3355493520381145  0.5671059222691923  0.6243950683815029
  0.4989595909154971  0.5550406757825783  0.4561260866182977
  0.8358718358031041  0.8045886152572237  0.5492271257507539
  0.6651269961730506  0.8110182444728977  0.3875020022914271
  0.6763866089007138  0.5643533796058975  0.6103615249883134
  0.8380656012994834  0.5532806376097383  0.4459873194428638
  0.4429825858274157  0.3727710012802063  0.7289741814784634
  0.5369262699198600  0.4503880333378518  0.7247180372166824
  0.5684695228969687  0.4427167648806787  0.7682144455536317
 
  0.00000000E+00  0.00000000E+00  0.00000000E+00
  0.00000000E+00  0.00000000E+00  0.00000000E+00
  0.00000000E+00  0.00000000E+00  0.00000000E+00
  0.00000000E+00  0.00000000E+00  0.00000000E+00
  0.00000000E+00  0.00000000E+00  0.00000000E+00
  0.00000000E+00  0.00000000E+00  0.00000000E+00
  0.00000000E+00  0.00000000E+00  0.00000000E+00
  0.00000000E+00  0.00000000E+00  0.00000000E+00
  0.00000000E+00  0.00000000E+00  0.00000000E+00
  0.00000000E+00  0.00000000E+00  0.00000000E+00
  0.00000000E+00  0.00000000E+00  0.00000000E+00
  0.00000000E+00  0.00000000E+00  0.00000000E+00
  0.00000000E+00  0.00000000E+00  0.00000000E+00
  0.00000000E+00  0.00000000E+00  0.00000000E+00
  0.00000000E+00  0.00000000E+00  0.00000000E+00
  0.00000000E+00  0.00000000E+00  0.00000000E+00
  0.00000000E+00  0.00000000E+00  0.00000000E+00
  0.00000000E+00  0.00000000E+00  0.00000000E+00
  0.00000000E+00  0.00000000E+00  0.00000000E+00
  0.00000000E+00  0.00000000E+00  0.00000000E+00
  0.00000000E+00  0.00000000E+00  0.00000000E+00
  0.00000000E+00  0.00000000E+00  0.00000000E+00
  0.00000000E+00  0.00000000E+00  0.00000000E+00
  0.00000000E+00  0.00000000E+00  0.00000000E+00
  0.00000000E+00  0.00000000E+00  0.00000000E+00
  0.00000000E+00  0.00000000E+00  0.00000000E+00
  0.00000000E+00  0.00000000E+00  0.00000000E+00
  0.00000000E+00  0.00000000E+00  0.00000000E+00
  0.00000000E+00  0.00000000E+00  0.00000000E+00
  0.00000000E+00  0.00000000E+00  0.00000000E+00
  0.00000000E+00  0.00000000E+00  0.00000000E+00
  0.00000000E+00  0.00000000E+00  0.00000000E+00
  0.00000000E+00  0.00000000E+00  0.00000000E+00
  0.00000000E+00  0.00000000E+00  0.00000000E+00
  0.00000000E+00  0.00000000E+00  0.00000000E+00
  0.00000000E+00  0.00000000E+00  0.00000000E+00
  0.00000000E+00  0.00000000E+00  0.00000000E+00
  0.00000000E+00  0.00000000E+00  0.00000000E+00
  0.00000000E+00  0.00000000E+00  0.00000000E+00
  0.00000000E+00  0.00000000E+00  0.00000000E+00
  0.00000000E+00  0.00000000E+00  0.00000000E+00
  0.00000000E+00  0.00000000E+00  0.00000000E+00
  0.00000000E+00  0.00000000E+00  0.00000000E+00
  0.00000000E+00  0.00000000E+00  0.00000000E+00
  0.00000000E+00  0.00000000E+00  0.00000000E+00
  0.00000000E+00  0.00000000E+00  0.00000000E+00
  0.00000000E+00  0.00000000E+00  0.00000000E+00
  0.00000000E+00  0.00000000E+00  0.00000000E+00
  0.00000000E+00  0.00000000E+00  0.00000000E+00
  0.00000000E+00  0.00000000E+00  0.00000000E+00
  0.00000000E+00  0.00000000E+00  0.00000000E+00
