CONTCAR\(2)                             
   1.00000000000000     
    11.7456998825000003    0.0000000000000000    0.0000000000000000
     0.0000000000000000   17.6870002747000008    0.0000000000000000
     0.0000000000000000    0.0000000000000000   19.5771007537999999
   Ti   Ge   Te   O    H 
     6     6    36     2     1
Direct
  0.0838067246797130  0.4769871710268939  0.5087372985416853
  0.2513962596959619  0.9502635204325453  0.4848335974336583
  0.4180412423932388  0.4793858980674526  0.5200561056663948
  0.5864041118195488  0.9504356527961769  0.4850057702164582
  0.7529939214084183  0.4768939025679133  0.5087964466180704
  0.9186759651845369  0.9523065377514457  0.4860688628309914
  0.2566191802912722  0.7992198689846395  0.4722949328992453
  0.0866147448550326  0.6278195642970111  0.5202470324267772
  0.5806795565428414  0.7997675005341010  0.4718581198892586
  0.4175220765728462  0.6173984940542389  0.5819333590695978
  0.9184884204030200  0.8013417089058429  0.4779179703420673
  0.7502230073274211  0.6275672110887400  0.5202265319535498
  0.0836161303901258  0.9226326747221187  0.3799001128125329
  0.2534520288544775  0.2510371011792050  0.5654544674749596
  0.2526454910835742  0.0596796854033354  0.3773237224465934
  0.0860646050455283  0.8968590997522173  0.5827165045566943
  0.2371235108031327  0.4937076109374615  0.6235678825516265
  0.0814522967965773  0.3585735770703641  0.6081642513237862
  0.0890481595706167  0.1754936731749960  0.4248515086458050
  0.2404261444535147  0.7150981722917745  0.5896863638135276
  0.0834312052426115  0.7231976575612544  0.4080512894950298
  0.2556907674223957  0.3850284428720704  0.4514591242574479
  0.0865815955327133  0.0497187570173517  0.5420744983645607
  0.2615718861338910  0.5410624021651885  0.4228705451040884
  0.4190105490840113  0.9214476147266231  0.3780642062669575
  0.5837576277807129  0.2509488056486118  0.5664552663827552
  0.5850006501958399  0.0598285768066009  0.3775785848701045
  0.4189757810523594  0.8948102491864467  0.5811679564431721
  0.5994323055602421  0.4939969687709779  0.6235221770808141
  0.4182184962660582  0.3591461822304838  0.6168178795806046
  0.4184720273593582  0.1724929630579085  0.4215049097896152
  0.5954591521586624  0.7147683758051482  0.5891824713107088
  0.4187733892620354  0.7264770158648335  0.4021564870001940
  0.5810409548762672  0.3849675459737118  0.4516790050528458
  0.4186925909229431  0.0486801808369366  0.5400894038522547
  0.5746396992868742  0.5406788776917211  0.4228579045195169
  0.7538018254080650  0.9225999663652498  0.3798993011007605
  0.9184355834687629  0.2458629391137670  0.5487830954317416
  0.9187202296982230  0.0657861709245361  0.3808456804693561
  0.7511041101258487  0.8966114464819447  0.5827786560563141
  0.9185531397632771  0.5022895341208669  0.6138488049326708
  0.7557144914059500  0.3586102497544938  0.6083589296180935
  0.7486134909708416  0.1753941234545336  0.4258338075529765
  0.9182816059717130  0.7044611460820267  0.5889961726308577
  0.7536170412995542  0.7231594976018870  0.4081627435632544
  0.9184109225024135  0.3819572124617067  0.4460898060676281
  0.7508701428314645  0.0497217481489244  0.5424270601346188
  0.9184622047704540  0.5382460944113433  0.4129936787615063
  0.4174572346912480  0.6058912036352254  0.6794180135943133
  0.4079327100838205  0.6786688725878429  0.7152584137624354
  0.4828233136999973  0.6809403006012658  0.7373834824395515
 
  0.00000000E+00  0.00000000E+00  0.00000000E+00
  0.00000000E+00  0.00000000E+00  0.00000000E+00
  0.00000000E+00  0.00000000E+00  0.00000000E+00
  0.00000000E+00  0.00000000E+00  0.00000000E+00
  0.00000000E+00  0.00000000E+00  0.00000000E+00
  0.00000000E+00  0.00000000E+00  0.00000000E+00
  0.00000000E+00  0.00000000E+00  0.00000000E+00
  0.00000000E+00  0.00000000E+00  0.00000000E+00
  0.00000000E+00  0.00000000E+00  0.00000000E+00
  0.00000000E+00  0.00000000E+00  0.00000000E+00
  0.00000000E+00  0.00000000E+00  0.00000000E+00
  0.00000000E+00  0.00000000E+00  0.00000000E+00
  0.00000000E+00  0.00000000E+00  0.00000000E+00
  0.00000000E+00  0.00000000E+00  0.00000000E+00
  0.00000000E+00  0.00000000E+00  0.00000000E+00
  0.00000000E+00  0.00000000E+00  0.00000000E+00
  0.00000000E+00  0.00000000E+00  0.00000000E+00
  0.00000000E+00  0.00000000E+00  0.00000000E+00
  0.00000000E+00  0.00000000E+00  0.00000000E+00
  0.00000000E+00  0.00000000E+00  0.00000000E+00
  0.00000000E+00  0.00000000E+00  0.00000000E+00
  0.00000000E+00  0.00000000E+00  0.00000000E+00
  0.00000000E+00  0.00000000E+00  0.00000000E+00
  0.00000000E+00  0.00000000E+00  0.00000000E+00
  0.00000000E+00  0.00000000E+00  0.00000000E+00
  0.00000000E+00  0.00000000E+00  0.00000000E+00
  0.00000000E+00  0.00000000E+00  0.00000000E+00
  0.00000000E+00  0.00000000E+00  0.00000000E+00
  0.00000000E+00  0.00000000E+00  0.00000000E+00
  0.00000000E+00  0.00000000E+00  0.00000000E+00
  0.00000000E+00  0.00000000E+00  0.00000000E+00
  0.00000000E+00  0.00000000E+00  0.00000000E+00
  0.00000000E+00  0.00000000E+00  0.00000000E+00
  0.00000000E+00  0.00000000E+00  0.00000000E+00
  0.00000000E+00  0.00000000E+00  0.00000000E+00
  0.00000000E+00  0.00000000E+00  0.00000000E+00
  0.00000000E+00  0.00000000E+00  0.00000000E+00
  0.00000000E+00  0.00000000E+00  0.00000000E+00
  0.00000000E+00  0.00000000E+00  0.00000000E+00
  0.00000000E+00  0.00000000E+00  0.00000000E+00
  0.00000000E+00  0.00000000E+00  0.00000000E+00
  0.00000000E+00  0.00000000E+00  0.00000000E+00
  0.00000000E+00  0.00000000E+00  0.00000000E+00
  0.00000000E+00  0.00000000E+00  0.00000000E+00
  0.00000000E+00  0.00000000E+00  0.00000000E+00
  0.00000000E+00  0.00000000E+00  0.00000000E+00
  0.00000000E+00  0.00000000E+00  0.00000000E+00
  0.00000000E+00  0.00000000E+00  0.00000000E+00
  0.00000000E+00  0.00000000E+00  0.00000000E+00
  0.00000000E+00  0.00000000E+00  0.00000000E+00
  0.00000000E+00  0.00000000E+00  0.00000000E+00
