CONTCAR                                 
   1.00000000000000     
    12.7006998061999994    0.0000000000000000    0.0000000000000000
    -6.3503999709999999   10.9992153982000005    0.0000000000000000
     0.0000000000000000    0.0000000000000000   18.1460990905999999
   W    S    H 
    16    32     1
Direct
  0.0828061764239634  0.1655984236862554  0.5003986103119116
  0.3327795474719780  0.1655760862485584  0.5003852524517264
  0.5832199510579257  0.1666014646689345  0.5000540549117511
  0.8333460275698673  0.1666094250871149  0.5000615224450028
  0.0834394354836896  0.4166932234662699  0.5004991726446664
  0.3345084521546224  0.4190180659637645  0.5010321351207653
  0.5832253808499379  0.4166636747456459  0.5004993160143885
  0.8333445399889887  0.4167006831914132  0.5000686261043007
  0.0828443947686115  0.6671833795008325  0.5004159763455274
  0.3345029681276849  0.6654770944011601  0.5010644755561152
  0.5809870356122451  0.6654887752323269  0.5010914510357107
  0.8342821958915404  0.6671692553380514  0.5004271428780503
  0.0832892122562028  0.9166259022297394  0.5002170493927725
  0.3327871676057594  0.9171641195976213  0.5003914536688034
  0.5832502957371261  0.9165556483882452  0.5005019936123420
  0.8342938908348408  0.9171090704439870  0.5004166095417494
  0.1665731917026264  0.0831814666657316  0.4133850488534433
  0.1663580679742006  0.0827238655808482  0.5872095792574481
  0.4165182801689774  0.0832444396440438  0.4132145944760961
  0.4170698862276390  0.0835239232087994  0.5872814246044307
  0.6663528087762896  0.0827319749484579  0.4133614772533553
  0.6667915680729687  0.0836318352685960  0.5868843877743615
  0.9166882981462068  0.0832303231657128  0.4132454266921064
  0.9164257037425010  0.0835310584196186  0.5872670865799207
  0.1678638529689556  0.3337390828041300  0.4141213217910614
  0.1654002058665691  0.3321747390328631  0.5875275351078723
  0.4158540357438008  0.3337387905425768  0.4141206343671599
  0.4167317937191174  0.3321594638775713  0.5875205758621754
  0.6663554506830641  0.3336105618366573  0.4133647593423717
  0.6667795218024742  0.3331337828810196  0.5868838209763407
  0.9172374443588802  0.3336065525079148  0.4133666889875091
  0.9163527782565065  0.3331517325699869  0.5868861571755823
  0.1678494757125979  0.5840731415067352  0.4141247580198324
  0.1653993739411944  0.5831665984254013  0.5875410038699554
  0.4167116931190430  0.5833742888315300  0.4119114267288347
  0.4168487290973250  0.5834866247842679  0.5871173883417333
  0.6661927626729129  0.5840317420940213  0.4141228593487910
  0.6676922752366649  0.5831339694106928  0.5875526160301593
  0.9167043244695852  0.5834453529503943  0.4132689942038574
  0.9164286548727205  0.5828747711258044  0.5872614711857559
  0.1665839030198863  0.8333523616753453  0.4133897099163582
  0.1663684135971738  0.8336160882240654  0.5872211757054643
  0.4158780298547859  0.8321006070815409  0.4141249319504832
  0.4167525306616898  0.8345419075758564  0.5875294918273400
  0.6661872238964742  0.8321329461645413  0.4141234453100389
  0.6677034219908158  0.8345321688946330  0.5875497074617813
  0.9167152085436485  0.8333438668509980  0.4133962846059189
  0.9172101181262341  0.8336023891013860  0.5872375866009926
  0.4192441091415222  0.5856728131583532  0.6659721817558621
 
  0.00000000E+00  0.00000000E+00  0.00000000E+00
  0.00000000E+00  0.00000000E+00  0.00000000E+00
  0.00000000E+00  0.00000000E+00  0.00000000E+00
  0.00000000E+00  0.00000000E+00  0.00000000E+00
  0.00000000E+00  0.00000000E+00  0.00000000E+00
  0.00000000E+00  0.00000000E+00  0.00000000E+00
  0.00000000E+00  0.00000000E+00  0.00000000E+00
  0.00000000E+00  0.00000000E+00  0.00000000E+00
  0.00000000E+00  0.00000000E+00  0.00000000E+00
  0.00000000E+00  0.00000000E+00  0.00000000E+00
  0.00000000E+00  0.00000000E+00  0.00000000E+00
  0.00000000E+00  0.00000000E+00  0.00000000E+00
  0.00000000E+00  0.00000000E+00  0.00000000E+00
  0.00000000E+00  0.00000000E+00  0.00000000E+00
  0.00000000E+00  0.00000000E+00  0.00000000E+00
  0.00000000E+00  0.00000000E+00  0.00000000E+00
  0.00000000E+00  0.00000000E+00  0.00000000E+00
  0.00000000E+00  0.00000000E+00  0.00000000E+00
  0.00000000E+00  0.00000000E+00  0.00000000E+00
  0.00000000E+00  0.00000000E+00  0.00000000E+00
  0.00000000E+00  0.00000000E+00  0.00000000E+00
  0.00000000E+00  0.00000000E+00  0.00000000E+00
  0.00000000E+00  0.00000000E+00  0.00000000E+00
  0.00000000E+00  0.00000000E+00  0.00000000E+00
  0.00000000E+00  0.00000000E+00  0.00000000E+00
  0.00000000E+00  0.00000000E+00  0.00000000E+00
  0.00000000E+00  0.00000000E+00  0.00000000E+00
  0.00000000E+00  0.00000000E+00  0.00000000E+00
  0.00000000E+00  0.00000000E+00  0.00000000E+00
  0.00000000E+00  0.00000000E+00  0.00000000E+00
  0.00000000E+00  0.00000000E+00  0.00000000E+00
  0.00000000E+00  0.00000000E+00  0.00000000E+00
  0.00000000E+00  0.00000000E+00  0.00000000E+00
  0.00000000E+00  0.00000000E+00  0.00000000E+00
  0.00000000E+00  0.00000000E+00  0.00000000E+00
  0.00000000E+00  0.00000000E+00  0.00000000E+00
  0.00000000E+00  0.00000000E+00  0.00000000E+00
  0.00000000E+00  0.00000000E+00  0.00000000E+00
  0.00000000E+00  0.00000000E+00  0.00000000E+00
  0.00000000E+00  0.00000000E+00  0.00000000E+00
  0.00000000E+00  0.00000000E+00  0.00000000E+00
  0.00000000E+00  0.00000000E+00  0.00000000E+00
  0.00000000E+00  0.00000000E+00  0.00000000E+00
  0.00000000E+00  0.00000000E+00  0.00000000E+00
  0.00000000E+00  0.00000000E+00  0.00000000E+00
  0.00000000E+00  0.00000000E+00  0.00000000E+00
  0.00000000E+00  0.00000000E+00  0.00000000E+00
  0.00000000E+00  0.00000000E+00  0.00000000E+00
  0.00000000E+00  0.00000000E+00  0.00000000E+00
