CONTCAR\(3)                             
   1.00000000000000     
    12.0853004455999997    0.0000000000000000    0.0000000000000000
     0.0000000000000000   13.7131004332999993    0.0000000000000000
     0.0000000000000000    0.0000000000000000   20.3784999846999995
   Zr   Te   O 
     6    30     1
Direct
  0.9955077810757942  0.5018728021084797  0.4544151154055101
  0.1701961629752518  0.0016791669510567  0.5513894062699976
  0.3414322898494646  0.5016650631826707  0.4635896262729489
  0.5034674669015260  0.0017055490047255  0.5519846122195986
  0.6706083713300544  0.5014748079448523  0.4528438329465345
  0.8356038779390715  0.0018659541783919  0.5478640671250830
  0.1028730422046991  0.5029934778912022  0.5845557763416167
  0.0054350614843770  0.0022189516605309  0.4389814336106568
  0.1732697747844014  0.6019938607165543  0.3797396681644116
  0.0009356118993722  0.9007957426124804  0.6316040549795474
  0.0009081457804427  0.1038575469166076  0.6308473357370445
  0.1733997966286225  0.4006757487659485  0.3803392008514805
  0.9983923021619603  0.3117575739984488  0.5277474524885477
  0.1725577003772116  0.1823783698605297  0.4721914483501450
  0.1713956233315130  0.8221369223204817  0.4709550226010535
  0.9982703201731482  0.6919175219614928  0.5274806979135960
  0.5193704434004474  0.5022651274902330  0.5668227745359289
  0.3375996792362272  0.0029830910066977  0.4407613899796630
  0.5031624905061562  0.6003152277031845  0.3712137116721408
  0.3367016833754022  0.8984643638513887  0.6325641647604883
  0.3366821333633396  0.1029661554545811  0.6335392588849587
  0.5031536794829492  0.3988086998521609  0.3730108423044172
  0.3434523007442678  0.3094048559389719  0.5341211130267070
  0.5050230606894459  0.1839973420007794  0.4739024389869613
  0.5045880398274250  0.8213185691749700  0.4714857205653331
  0.3451549289548055  0.6955078233584402  0.5313090930074225
  0.8366654365473636  0.5030186118619042  0.5672079924090596
  0.6640101306050497  0.0046759877120479  0.4388072188627135
  0.8348508439252100  0.6035195226254260  0.3699152662126366
  0.6714857786690089  0.8991000133185310  0.6313157487009917
  0.6717144644442641  0.1018929786540710  0.6330018195567817
  0.8353252443194776  0.4005143985283439  0.3696876656795069
  0.6717071591362895  0.3180741253376453  0.5320099034290990
  0.8345846663120113  0.1839038143462801  0.4687344676721352
  0.8346640311858451  0.8206013833503931  0.4677304295198539
  0.6707829139667538  0.6867305818906573  0.5299879755884476
  0.2575475684113329  0.5062082254688107  0.5493524003670203
 
  0.00000000E+00  0.00000000E+00  0.00000000E+00
  0.00000000E+00  0.00000000E+00  0.00000000E+00
  0.00000000E+00  0.00000000E+00  0.00000000E+00
  0.00000000E+00  0.00000000E+00  0.00000000E+00
  0.00000000E+00  0.00000000E+00  0.00000000E+00
  0.00000000E+00  0.00000000E+00  0.00000000E+00
  0.00000000E+00  0.00000000E+00  0.00000000E+00
  0.00000000E+00  0.00000000E+00  0.00000000E+00
  0.00000000E+00  0.00000000E+00  0.00000000E+00
  0.00000000E+00  0.00000000E+00  0.00000000E+00
  0.00000000E+00  0.00000000E+00  0.00000000E+00
  0.00000000E+00  0.00000000E+00  0.00000000E+00
  0.00000000E+00  0.00000000E+00  0.00000000E+00
  0.00000000E+00  0.00000000E+00  0.00000000E+00
  0.00000000E+00  0.00000000E+00  0.00000000E+00
  0.00000000E+00  0.00000000E+00  0.00000000E+00
  0.00000000E+00  0.00000000E+00  0.00000000E+00
  0.00000000E+00  0.00000000E+00  0.00000000E+00
  0.00000000E+00  0.00000000E+00  0.00000000E+00
  0.00000000E+00  0.00000000E+00  0.00000000E+00
  0.00000000E+00  0.00000000E+00  0.00000000E+00
  0.00000000E+00  0.00000000E+00  0.00000000E+00
  0.00000000E+00  0.00000000E+00  0.00000000E+00
  0.00000000E+00  0.00000000E+00  0.00000000E+00
  0.00000000E+00  0.00000000E+00  0.00000000E+00
  0.00000000E+00  0.00000000E+00  0.00000000E+00
  0.00000000E+00  0.00000000E+00  0.00000000E+00
  0.00000000E+00  0.00000000E+00  0.00000000E+00
  0.00000000E+00  0.00000000E+00  0.00000000E+00
  0.00000000E+00  0.00000000E+00  0.00000000E+00
  0.00000000E+00  0.00000000E+00  0.00000000E+00
  0.00000000E+00  0.00000000E+00  0.00000000E+00
  0.00000000E+00  0.00000000E+00  0.00000000E+00
  0.00000000E+00  0.00000000E+00  0.00000000E+00
  0.00000000E+00  0.00000000E+00  0.00000000E+00
  0.00000000E+00  0.00000000E+00  0.00000000E+00
  0.00000000E+00  0.00000000E+00  0.00000000E+00
