CONTCAR\(8)                             
   1.00000000000000     
    11.2503995895000006    0.0000000000000000    0.0000000000000000
     0.0000000000000000   11.4902000426999997    0.0000000000000000
     0.0000000000000000    0.0000000000000000   19.3134994507000002
   Cr   Te   O 
     8    24     1
Direct
  0.9953736170556186  0.6747469275314780  0.4991153542075867
  0.4994341454082135  0.8255734304730556  0.5021176737753691
  0.9976396204554978  0.3411686556602890  0.5000340530731600
  0.5059828893219710  0.1670333620682719  0.5020674448160620
  0.2599230276530608  0.5047804624872043  0.5102186816171301
  0.7670558511612263  0.0153123344306724  0.4909548960718841
  0.7310574094745393  0.5063710551655994  0.4918581206153074
  0.2225047585085833  0.0103415987349208  0.5087598457061540
  0.9077876226695836  0.5071907264306802  0.5861427651223042
  0.4081568238974019  0.0005050581941506  0.4199776700213574
  0.0893260797898893  0.5068285872478068  0.4144305937095186
  0.5901420098738832 -0.0003158733695556  0.5841117051171957
  0.3335295086058629  0.1599575214074079  0.5976367205043562
  0.8288440774645535  0.3540237074433970  0.3994219751250165
  0.6671271070323672  0.8553731913297173  0.4030124067213378
  0.1613182480218892  0.6610710977289750  0.5993105390852428
  0.1649623448640029  0.3498759540169120  0.6002631435452656
  0.6618316189012260  0.1628055926017279  0.3999378279122954
  0.8272633599299843  0.6614159042859470  0.3996522527972670
  0.3247331642961596  0.8532179274705708  0.5971616091684033
  0.6304995781260949  0.3273746628295945  0.5680211159332194
  0.1173785981757903  0.1767631292020723  0.4252669343465739
  0.3758576475119620  0.6650078190911886  0.4288946833681447
  0.8750208551721063  0.8440782937275538  0.5706296671711069
  0.4456331665702060  0.5017023594959651  0.6017883552987920
  0.9363139710303672  0.0095906539190517  0.3926133825768390
  0.5587805554216773  0.5011904132833653  0.3940846163825836
  0.0562188710222733  0.0073166153538210  0.6081272392696464
  0.6290299965717533  0.6723572348225189  0.5770836588642223
  0.1158011508809347  0.8419716708837657  0.4271285663912227
  0.3807118871441937  0.3327600087229929  0.4384797525383276
  0.8763307930286737  0.1771612681271930  0.5747303480029160
  0.4090796729584363  0.5019086712017045  0.6942862711441548
 
  0.00000000E+00  0.00000000E+00  0.00000000E+00
  0.00000000E+00  0.00000000E+00  0.00000000E+00
  0.00000000E+00  0.00000000E+00  0.00000000E+00
  0.00000000E+00  0.00000000E+00  0.00000000E+00
  0.00000000E+00  0.00000000E+00  0.00000000E+00
  0.00000000E+00  0.00000000E+00  0.00000000E+00
  0.00000000E+00  0.00000000E+00  0.00000000E+00
  0.00000000E+00  0.00000000E+00  0.00000000E+00
  0.00000000E+00  0.00000000E+00  0.00000000E+00
  0.00000000E+00  0.00000000E+00  0.00000000E+00
  0.00000000E+00  0.00000000E+00  0.00000000E+00
  0.00000000E+00  0.00000000E+00  0.00000000E+00
  0.00000000E+00  0.00000000E+00  0.00000000E+00
  0.00000000E+00  0.00000000E+00  0.00000000E+00
  0.00000000E+00  0.00000000E+00  0.00000000E+00
  0.00000000E+00  0.00000000E+00  0.00000000E+00
  0.00000000E+00  0.00000000E+00  0.00000000E+00
  0.00000000E+00  0.00000000E+00  0.00000000E+00
  0.00000000E+00  0.00000000E+00  0.00000000E+00
  0.00000000E+00  0.00000000E+00  0.00000000E+00
  0.00000000E+00  0.00000000E+00  0.00000000E+00
  0.00000000E+00  0.00000000E+00  0.00000000E+00
  0.00000000E+00  0.00000000E+00  0.00000000E+00
  0.00000000E+00  0.00000000E+00  0.00000000E+00
  0.00000000E+00  0.00000000E+00  0.00000000E+00
  0.00000000E+00  0.00000000E+00  0.00000000E+00
  0.00000000E+00  0.00000000E+00  0.00000000E+00
  0.00000000E+00  0.00000000E+00  0.00000000E+00
  0.00000000E+00  0.00000000E+00  0.00000000E+00
  0.00000000E+00  0.00000000E+00  0.00000000E+00
  0.00000000E+00  0.00000000E+00  0.00000000E+00
  0.00000000E+00  0.00000000E+00  0.00000000E+00
  0.00000000E+00  0.00000000E+00  0.00000000E+00
