CONTCAR                                 
   1.00000000000000     
    13.9573001861999995    0.0000000000000000    0.0000000000000000
     0.0000000000000000   20.3449993133999989    0.0000000000000000
     0.0000000000000000    0.0000000000000000   22.8059997559000003
   Nb   Cr   Se   O 
    16    16    80     1
Direct
  0.1873106124691472  0.2290952437835863  0.5869662508375593
  0.0623001902860462  0.2701358685533299  0.4163505969728142
  0.4387508507717769  0.2287215548573845  0.5883337269909374
  0.3120274272098238  0.2701216519900510  0.4161071615727793
  0.6865367248405732  0.2284898727060239  0.5882772684643353
  0.5621765013319623  0.2706133659215186  0.4164737321039836
  0.9375681751781093  0.2290448377272302  0.5867406110515414
  0.8124584037506902  0.2698569856859249  0.4158099680168829
  0.1850044370747773  0.7308440854318143  0.5852342472745737
  0.0606301832377587  0.7710352898777244  0.4141875118483057
  0.4344645114608917  0.7317748059306297  0.5854247612905835
  0.3104733872659990  0.7714683998598871  0.4142442963349405
  0.6860897388897668  0.7318176928385718  0.5855837417893456
  0.5605724195078378  0.7724776769162218  0.4141640810108981
  0.9358350678565617  0.7306099970882959  0.5850985112151396
  0.8104067537036712  0.7712962692560119  0.4143284661787914
  0.0622700847821283  0.0663343319980365  0.5284320455238398
  0.1896753413831758  0.4337040792222189  0.4731797768846704
  0.3106890430698350  0.0659046407439420  0.5279709973081025
  0.4259855735591294  0.4314320244060866  0.4706148854551965
  0.5621550928755108  0.0661305947133641  0.5285814344335811
  0.6972628717394042  0.4312616087289610  0.4703222447862318
  0.8131302219133985  0.0656156337931067  0.5276406925661917
  0.9333773660053037  0.4337048701909150  0.4732535840529277
  0.0612884457246899  0.5673060888162362  0.5277340049767867
  0.1861807407903928  0.9345021957470905  0.4712427545357368
  0.3101128076287415  0.5677344572462782  0.5287659099047033
  0.4360220389972208  0.9353722656704017  0.4713866801792221
  0.5614471393817027  0.5737495686024943  0.5283783640727707
  0.6863658073708141  0.9352562402395470  0.4714695574146108
  0.8099301267886432  0.5676849201087224  0.5286670241273831
  0.9361450496223930  0.9343113757903796  0.4713873605493928
  0.1874392547133888  0.3136744057987741  0.4941770017667122
  0.0614953787034371  0.4486170692134306  0.5497413556241604
  0.0626620835608241  0.1862252730234610  0.5089035657113982
  0.1874139511221935  0.1799080252684948  0.3755747324327988
  0.0624544561889878  0.3193153865110623  0.6274260751894262
  0.0624646432700015  0.2139020710013500  0.6732429248966537
  0.0615602260808086  0.4041614097292840  0.3998236355170598
  0.1871991143412167  0.2855929274194897  0.3300230229369980
  0.1868295218127408  0.0950383823866761  0.6035819760748313
  0.1862354818942576  0.0528595809694532  0.4494485565999158
  0.4374433133123986  0.3133862815000895  0.4949463931485933
  0.3120861174414006  0.4492576584082178  0.5526242973968905
  0.3131342400392437  0.1862336865499080  0.5093928853244483
  0.4373297264279809  0.1804914531774563  0.3755415648556343
  0.3129795810310560  0.3181285995674154  0.6285033758292947
  0.3125157071232184  0.2125350635511790  0.6733895308693325
  0.3084455554934299  0.4033518124679157  0.3948003431407026
  0.4373688009751217  0.2863500858712599  0.3302188889267840
  0.4356195304082093  0.0942641254170032  0.6024299515527246
  0.4366748969231793  0.0535179245120834  0.4499523757536001
  0.6874407577474513  0.3131347236923843  0.4947328236360338
  0.5618793419980279  0.4542296437675015  0.5386715797983598
  0.5625355692745199  0.1861371415544229  0.5092805417526581
  0.6869351147707660  0.1803380305730704  0.3752579925407653
  0.5627116029424712  0.3174995623927256  0.6339687230059352
  0.5626418532139825  0.2037630900612118  0.6718427952976002
  0.5615633645826474  0.4044236580868421  0.4001289266269188
  0.6868541438096341  0.2862264863767635  0.3300117020235396
  0.6888421600024188  0.0938399994372188  0.6025066841738035
  0.6870791108387312  0.0533306173900759  0.4497060798092591
  0.9367965218272024  0.3136281481706507  0.4940251163981916
  0.8106853110028474  0.4492289409681540  0.5525835772044444
  0.8117922201142069  0.1860041708447652  0.5091169757027719
  0.9373634776278608  0.1796302973800068  0.3756994206333114
  0.8121746263967163  0.3179536861165406  0.6285440449655815
  0.8129349130776464  0.2122448730477446  0.6732295902126029
  0.8152262248429168  0.4031074890446967  0.3946722263746300
  0.9379535061364058  0.2851373449565062  0.3298534448849464
  0.9371180186002196  0.0950003464364007  0.6031576790932701
  0.9380792400454019  0.0525382180758689  0.4494597838175118
  0.1852425883813518  0.8146923791062654  0.4920753009665563
  0.0612631963811739  0.9479684224950593  0.5496705528017801
  0.0605697595783544  0.6870091834804128  0.5071498320660374
  0.1857790048645809  0.6814025406223543  0.3731925904094669
  0.0602270007082949  0.8208454336235221  0.6259803565646102
  0.0603154022861350  0.7149474406051188  0.6712468742374331
  0.0608791986560987  0.9049378504708437  0.3965439910638444
  0.1854977865625888  0.7872007563459668  0.3281017777593033
  0.1849892215222738  0.5970551202229246  0.6033808244394276
  0.1864738966405108  0.5521449294838885  0.4498402481082971
  0.4346845181170578  0.8157057060771801  0.4919346614088315
  0.3108327930053220  0.9479201899577487  0.5497860207348241
  0.3106289548184571  0.6874196866492170  0.5073774379986342
  0.4357736450906105  0.6815089225117291  0.3742956017081093
  0.3096088901062724  0.8212306578010259  0.6261409579369112
  0.3098636448931689  0.7153308522757340  0.6714371712462914
  0.3111882599132578  0.9054407259865170  0.3964881568532020
  0.4353761090170534  0.7867215160286085  0.3279889684258298
  0.4355909036921412  0.5979857899066702  0.6034992985123332
  0.4357580653242181  0.5515741653019214  0.4510296613367636
  0.6860409338425373  0.8156441289191665  0.4921208571635134
  0.5611170338352470  0.9479935623424802  0.5497735887324140
  0.5603359042851946  0.6907071406593345  0.5071469164369392
  0.6850520626788057  0.6817478909029123  0.3735943403532360
  0.5601601872908388  0.8216740339656083  0.6261970969532051
  0.5601556390107030  0.7155932477638165  0.6711270937574935
  0.5611047137852680  0.9060999955851682  0.3966367369305202
  0.6856647657573491  0.7872898393360878  0.3280822828409147
  0.6856081609293013  0.5981468677209230  0.6040452933331839
  0.6855997813834247  0.5513406515175975  0.4503732946218537
  0.9357007381449722  0.8144849064473298  0.4920038899318556
  0.8114988470615062  0.9477735605568985  0.5499015347615196
  0.8097456608628374  0.6873375099751267  0.5074611821905298
  0.9353346914721486  0.6809427948172432  0.3739803964440314
  0.8112743242512980  0.8211270382816408  0.6261741960700536
  0.8109613230842481  0.7151588077406715  0.6712878939766180
  0.8110652751682249  0.9051937334059443  0.3965764250705610
  0.9354637482010099  0.7864501525163492  0.3281491725541802
  0.9359378874816594  0.5966087748204412  0.6028386013103511
  0.9349526318540662  0.5523796013911833  0.4504272036025401
  0.5621106848773614  0.4177774742219085  0.6088568071610795
 
  0.00000000E+00  0.00000000E+00  0.00000000E+00
  0.00000000E+00  0.00000000E+00  0.00000000E+00
  0.00000000E+00  0.00000000E+00  0.00000000E+00
  0.00000000E+00  0.00000000E+00  0.00000000E+00
  0.00000000E+00  0.00000000E+00  0.00000000E+00
  0.00000000E+00  0.00000000E+00  0.00000000E+00
  0.00000000E+00  0.00000000E+00  0.00000000E+00
  0.00000000E+00  0.00000000E+00  0.00000000E+00
  0.00000000E+00  0.00000000E+00  0.00000000E+00
  0.00000000E+00  0.00000000E+00  0.00000000E+00
  0.00000000E+00  0.00000000E+00  0.00000000E+00
  0.00000000E+00  0.00000000E+00  0.00000000E+00
  0.00000000E+00  0.00000000E+00  0.00000000E+00
  0.00000000E+00  0.00000000E+00  0.00000000E+00
  0.00000000E+00  0.00000000E+00  0.00000000E+00
  0.00000000E+00  0.00000000E+00  0.00000000E+00
  0.00000000E+00  0.00000000E+00  0.00000000E+00
  0.00000000E+00  0.00000000E+00  0.00000000E+00
  0.00000000E+00  0.00000000E+00  0.00000000E+00
  0.00000000E+00  0.00000000E+00  0.00000000E+00
  0.00000000E+00  0.00000000E+00  0.00000000E+00
  0.00000000E+00  0.00000000E+00  0.00000000E+00
  0.00000000E+00  0.00000000E+00  0.00000000E+00
  0.00000000E+00  0.00000000E+00  0.00000000E+00
  0.00000000E+00  0.00000000E+00  0.00000000E+00
  0.00000000E+00  0.00000000E+00  0.00000000E+00
  0.00000000E+00  0.00000000E+00  0.00000000E+00
  0.00000000E+00  0.00000000E+00  0.00000000E+00
  0.00000000E+00  0.00000000E+00  0.00000000E+00
  0.00000000E+00  0.00000000E+00  0.00000000E+00
  0.00000000E+00  0.00000000E+00  0.00000000E+00
  0.00000000E+00  0.00000000E+00  0.00000000E+00
  0.00000000E+00  0.00000000E+00  0.00000000E+00
  0.00000000E+00  0.00000000E+00  0.00000000E+00
  0.00000000E+00  0.00000000E+00  0.00000000E+00
  0.00000000E+00  0.00000000E+00  0.00000000E+00
  0.00000000E+00  0.00000000E+00  0.00000000E+00
  0.00000000E+00  0.00000000E+00  0.00000000E+00
  0.00000000E+00  0.00000000E+00  0.00000000E+00
  0.00000000E+00  0.00000000E+00  0.00000000E+00
  0.00000000E+00  0.00000000E+00  0.00000000E+00
  0.00000000E+00  0.00000000E+00  0.00000000E+00
  0.00000000E+00  0.00000000E+00  0.00000000E+00
  0.00000000E+00  0.00000000E+00  0.00000000E+00
  0.00000000E+00  0.00000000E+00  0.00000000E+00
  0.00000000E+00  0.00000000E+00  0.00000000E+00
  0.00000000E+00  0.00000000E+00  0.00000000E+00
  0.00000000E+00  0.00000000E+00  0.00000000E+00
  0.00000000E+00  0.00000000E+00  0.00000000E+00
  0.00000000E+00  0.00000000E+00  0.00000000E+00
  0.00000000E+00  0.00000000E+00  0.00000000E+00
  0.00000000E+00  0.00000000E+00  0.00000000E+00
  0.00000000E+00  0.00000000E+00  0.00000000E+00
  0.00000000E+00  0.00000000E+00  0.00000000E+00
  0.00000000E+00  0.00000000E+00  0.00000000E+00
  0.00000000E+00  0.00000000E+00  0.00000000E+00
  0.00000000E+00  0.00000000E+00  0.00000000E+00
  0.00000000E+00  0.00000000E+00  0.00000000E+00
  0.00000000E+00  0.00000000E+00  0.00000000E+00
  0.00000000E+00  0.00000000E+00  0.00000000E+00
  0.00000000E+00  0.00000000E+00  0.00000000E+00
  0.00000000E+00  0.00000000E+00  0.00000000E+00
  0.00000000E+00  0.00000000E+00  0.00000000E+00
  0.00000000E+00  0.00000000E+00  0.00000000E+00
  0.00000000E+00  0.00000000E+00  0.00000000E+00
  0.00000000E+00  0.00000000E+00  0.00000000E+00
  0.00000000E+00  0.00000000E+00  0.00000000E+00
  0.00000000E+00  0.00000000E+00  0.00000000E+00
  0.00000000E+00  0.00000000E+00  0.00000000E+00
  0.00000000E+00  0.00000000E+00  0.00000000E+00
  0.00000000E+00  0.00000000E+00  0.00000000E+00
  0.00000000E+00  0.00000000E+00  0.00000000E+00
  0.00000000E+00  0.00000000E+00  0.00000000E+00
  0.00000000E+00  0.00000000E+00  0.00000000E+00
  0.00000000E+00  0.00000000E+00  0.00000000E+00
  0.00000000E+00  0.00000000E+00  0.00000000E+00
  0.00000000E+00  0.00000000E+00  0.00000000E+00
  0.00000000E+00  0.00000000E+00  0.00000000E+00
  0.00000000E+00  0.00000000E+00  0.00000000E+00
  0.00000000E+00  0.00000000E+00  0.00000000E+00
  0.00000000E+00  0.00000000E+00  0.00000000E+00
  0.00000000E+00  0.00000000E+00  0.00000000E+00
  0.00000000E+00  0.00000000E+00  0.00000000E+00
  0.00000000E+00  0.00000000E+00  0.00000000E+00
  0.00000000E+00  0.00000000E+00  0.00000000E+00
  0.00000000E+00  0.00000000E+00  0.00000000E+00
  0.00000000E+00  0.00000000E+00  0.00000000E+00
  0.00000000E+00  0.00000000E+00  0.00000000E+00
  0.00000000E+00  0.00000000E+00  0.00000000E+00
  0.00000000E+00  0.00000000E+00  0.00000000E+00
  0.00000000E+00  0.00000000E+00  0.00000000E+00
  0.00000000E+00  0.00000000E+00  0.00000000E+00
  0.00000000E+00  0.00000000E+00  0.00000000E+00
  0.00000000E+00  0.00000000E+00  0.00000000E+00
  0.00000000E+00  0.00000000E+00  0.00000000E+00
  0.00000000E+00  0.00000000E+00  0.00000000E+00
  0.00000000E+00  0.00000000E+00  0.00000000E+00
  0.00000000E+00  0.00000000E+00  0.00000000E+00
  0.00000000E+00  0.00000000E+00  0.00000000E+00
  0.00000000E+00  0.00000000E+00  0.00000000E+00
  0.00000000E+00  0.00000000E+00  0.00000000E+00
  0.00000000E+00  0.00000000E+00  0.00000000E+00
  0.00000000E+00  0.00000000E+00  0.00000000E+00
  0.00000000E+00  0.00000000E+00  0.00000000E+00
  0.00000000E+00  0.00000000E+00  0.00000000E+00
  0.00000000E+00  0.00000000E+00  0.00000000E+00
  0.00000000E+00  0.00000000E+00  0.00000000E+00
  0.00000000E+00  0.00000000E+00  0.00000000E+00
  0.00000000E+00  0.00000000E+00  0.00000000E+00
  0.00000000E+00  0.00000000E+00  0.00000000E+00
  0.00000000E+00  0.00000000E+00  0.00000000E+00
  0.00000000E+00  0.00000000E+00  0.00000000E+00
  0.00000000E+00  0.00000000E+00  0.00000000E+00
