CONTCAR\(12)                            
   1.00000000000000     
    13.7187995910999998    0.0000000000000000    0.0000000000000000
    -4.5729412920000003   17.9978325079000001    0.0000000000000000
     0.0000000000000000    0.0000000000000000   21.4340000153000005
   Ag   Te   Mo
     6    36    36
Direct
  0.0000000000000000  0.0000000000000000  0.5000000000000000
  0.3333299969999999 -0.0000000000000000  0.5000000000000000
  0.6666700030000001  0.0000000000000000  0.5000000000000000
  0.0000000060000005  0.5000000209999982  0.5000000000000000
  0.3333300030000004  0.5000000209999982  0.5000000000000000
  0.6666700270000021  0.5000000209999982  0.5000000000000000
  0.2576694560342682  0.2728217412398415  0.6495377359268716
  0.1382607569992374  0.4146272721877185  0.5647064597167371
  0.1950692460007629  0.0853727478122832  0.4353035062832633
  0.0358231033679880  0.1076744325230392  0.5966724761076375
  0.2975069276320076  0.3923255884769589  0.4033275238923625
  0.0756705569657362  0.2271783057601588  0.3504622420731264
  0.5909994530342680  0.2728217412398415  0.6495377359268716
  0.4716007639992342  0.4146272721877185  0.5647064597167371
  0.5283992250007613  0.0853727478122832  0.4353035062832633
  0.3691531243679899  0.1076744325230392  0.5966724761076375
  0.6308468996320121  0.3923255884769589  0.4033275238923625
  0.4090005449657318  0.2271783057601588  0.3504622420731264
  0.9243394600342648  0.2728217412398415  0.6495377359268716
  0.8049307599992376  0.4146272721877185  0.5647064597167371
  0.8617292570007605  0.0853727478122832  0.4353035062832633
  0.7024931313679866  0.1076744325230392  0.5966724761076375
  0.9641768966320120  0.3923255884769589  0.4033275238923625
  0.7423305759657345  0.2271783057601588  0.3504622420731264
  0.2576694540342680  0.7728217352398410  0.6495377359268716
  0.1382607719992351  0.9146272661877179  0.5647064597167371
  0.1950692610007606  0.5853727958122801  0.4353035062832633
  0.0358230993679877  0.6076744535230444  0.5966724761076375
  0.2975069346320117  0.8923256614769616  0.4033275238923625
  0.0756705719657339  0.7271783267601641  0.3504622420731264
  0.5909994680342657  0.7728217352398410  0.6495377359268716
  0.4716007789992390  0.9146272661877179  0.5647064597167371
  0.5283992580007605  0.5853727958122801  0.4353035062832633
  0.3691531133679925  0.6076744535230444  0.5966724761076375
  0.6308469066320092  0.8923256614769616  0.4033275238923625
  0.4090005689657338  0.7271783267601641  0.3504622420731264
  0.9243394750342625  0.7728217352398410  0.6495377359268716
  0.8049307749992353  0.9146272661877179  0.5647064597167371
  0.8617292200007610  0.5853727958122801  0.4353035062832633
  0.7024931203679893  0.6076744535230444  0.5966724761076375
  0.9641769376320118  0.8923256614769616  0.4033275238923625
  0.7423305649657371  0.7271783267601641  0.3504622420731264
  0.1061289135753930  0.3182600037685217  0.4569543416477481
  0.2272110914246036  0.1817400162314800  0.5430456583522519
  0.0569886442751185  0.1710755826278288  0.4730986242800110
  0.2763413767248833  0.3289244513721669  0.5269013757199890
  0.0868218421938906  0.2606058814962613  0.5710577454960316
  0.2465181628061060  0.2393941385037404  0.4289422545039684
  0.4394589355753984  0.3182600037685217  0.4569543416477481
  0.5605410874246070  0.1817400162314800  0.5430456583522519
  0.3903286722751206  0.1710755826278288  0.4730986242800110
  0.6096713907248811  0.3289244513721669  0.5269013757199890
  0.4201518301938933  0.2606058814962613  0.5710577454960316
  0.5798481588061093  0.2393941385037404  0.4289422545039684
  0.7727889325753984  0.3182600037685217  0.4569543416477481
  0.8938810944246037  0.1817400162314800  0.5430456583522519
  0.7236586692751205  0.1710755826278288  0.4730986242800110
  0.9430114317248807  0.3289244513721669  0.5269013757199890
  0.7534918021938908  0.2606058814962613  0.5710577454960316
  0.9131781558061092  0.2393941385037404  0.4289422545039684
  0.1061289115753928  0.8182600777685207  0.4569543416477481
  0.2272110974246041  0.6817399842314844  0.5430456583522519
  0.0569886422751183  0.6710756156278280  0.4730986242800110
  0.2763413917248810  0.8289244463721700  0.5269013757199890
  0.0868218571938954  0.7606059024962594  0.5710577454960316
  0.2465181518061086  0.7393941595037387  0.4289422545039684
  0.4394589425753955  0.8182600777685207  0.4569543416477481
  0.5605410944246040  0.6817399842314844  0.5430456583522519
  0.3903286492751222  0.6710756156278280  0.4730986242800110
  0.6096714057248788  0.8289244463721700  0.5269013757199890
  0.4201518541938953  0.7606059024962594  0.5710577454960316
  0.5798481828061042  0.7393941595037387  0.4289422545039684
  0.7727889395753954  0.8182600777685207  0.4569543416477481
  0.8938811004246042  0.6817399842314844  0.5430456583522519
  0.7236586972751228  0.6710756156278280  0.4730986242800110
  0.9430114467248784  0.8289244463721700  0.5269013757199890
  0.7534918261938928  0.7606059024962594  0.5710577454960316
  0.9131781098061054  0.7393941595037387  0.4289422545039684
 
  0.00000000E+00  0.00000000E+00  0.00000000E+00
  0.00000000E+00  0.00000000E+00  0.00000000E+00
  0.00000000E+00  0.00000000E+00  0.00000000E+00
  0.00000000E+00  0.00000000E+00  0.00000000E+00
  0.00000000E+00  0.00000000E+00  0.00000000E+00
  0.00000000E+00  0.00000000E+00  0.00000000E+00
  0.00000000E+00  0.00000000E+00  0.00000000E+00
  0.00000000E+00  0.00000000E+00  0.00000000E+00
  0.00000000E+00  0.00000000E+00  0.00000000E+00
  0.00000000E+00  0.00000000E+00  0.00000000E+00
  0.00000000E+00  0.00000000E+00  0.00000000E+00
  0.00000000E+00  0.00000000E+00  0.00000000E+00
  0.00000000E+00  0.00000000E+00  0.00000000E+00
  0.00000000E+00  0.00000000E+00  0.00000000E+00
  0.00000000E+00  0.00000000E+00  0.00000000E+00
  0.00000000E+00  0.00000000E+00  0.00000000E+00
  0.00000000E+00  0.00000000E+00  0.00000000E+00
  0.00000000E+00  0.00000000E+00  0.00000000E+00
  0.00000000E+00  0.00000000E+00  0.00000000E+00
  0.00000000E+00  0.00000000E+00  0.00000000E+00
  0.00000000E+00  0.00000000E+00  0.00000000E+00
  0.00000000E+00  0.00000000E+00  0.00000000E+00
  0.00000000E+00  0.00000000E+00  0.00000000E+00
  0.00000000E+00  0.00000000E+00  0.00000000E+00
  0.00000000E+00  0.00000000E+00  0.00000000E+00
  0.00000000E+00  0.00000000E+00  0.00000000E+00
  0.00000000E+00  0.00000000E+00  0.00000000E+00
  0.00000000E+00  0.00000000E+00  0.00000000E+00
  0.00000000E+00  0.00000000E+00  0.00000000E+00
  0.00000000E+00  0.00000000E+00  0.00000000E+00
  0.00000000E+00  0.00000000E+00  0.00000000E+00
  0.00000000E+00  0.00000000E+00  0.00000000E+00
  0.00000000E+00  0.00000000E+00  0.00000000E+00
  0.00000000E+00  0.00000000E+00  0.00000000E+00
  0.00000000E+00  0.00000000E+00  0.00000000E+00
  0.00000000E+00  0.00000000E+00  0.00000000E+00
  0.00000000E+00  0.00000000E+00  0.00000000E+00
  0.00000000E+00  0.00000000E+00  0.00000000E+00
  0.00000000E+00  0.00000000E+00  0.00000000E+00
  0.00000000E+00  0.00000000E+00  0.00000000E+00
  0.00000000E+00  0.00000000E+00  0.00000000E+00
  0.00000000E+00  0.00000000E+00  0.00000000E+00
  0.00000000E+00  0.00000000E+00  0.00000000E+00
  0.00000000E+00  0.00000000E+00  0.00000000E+00
  0.00000000E+00  0.00000000E+00  0.00000000E+00
  0.00000000E+00  0.00000000E+00  0.00000000E+00
  0.00000000E+00  0.00000000E+00  0.00000000E+00
  0.00000000E+00  0.00000000E+00  0.00000000E+00
  0.00000000E+00  0.00000000E+00  0.00000000E+00
  0.00000000E+00  0.00000000E+00  0.00000000E+00
  0.00000000E+00  0.00000000E+00  0.00000000E+00
  0.00000000E+00  0.00000000E+00  0.00000000E+00
  0.00000000E+00  0.00000000E+00  0.00000000E+00
  0.00000000E+00  0.00000000E+00  0.00000000E+00
  0.00000000E+00  0.00000000E+00  0.00000000E+00
  0.00000000E+00  0.00000000E+00  0.00000000E+00
  0.00000000E+00  0.00000000E+00  0.00000000E+00
  0.00000000E+00  0.00000000E+00  0.00000000E+00
  0.00000000E+00  0.00000000E+00  0.00000000E+00
  0.00000000E+00  0.00000000E+00  0.00000000E+00
  0.00000000E+00  0.00000000E+00  0.00000000E+00
  0.00000000E+00  0.00000000E+00  0.00000000E+00
  0.00000000E+00  0.00000000E+00  0.00000000E+00
  0.00000000E+00  0.00000000E+00  0.00000000E+00
  0.00000000E+00  0.00000000E+00  0.00000000E+00
  0.00000000E+00  0.00000000E+00  0.00000000E+00
  0.00000000E+00  0.00000000E+00  0.00000000E+00
  0.00000000E+00  0.00000000E+00  0.00000000E+00
  0.00000000E+00  0.00000000E+00  0.00000000E+00
  0.00000000E+00  0.00000000E+00  0.00000000E+00
  0.00000000E+00  0.00000000E+00  0.00000000E+00
  0.00000000E+00  0.00000000E+00  0.00000000E+00
  0.00000000E+00  0.00000000E+00  0.00000000E+00
  0.00000000E+00  0.00000000E+00  0.00000000E+00
  0.00000000E+00  0.00000000E+00  0.00000000E+00
  0.00000000E+00  0.00000000E+00  0.00000000E+00
  0.00000000E+00  0.00000000E+00  0.00000000E+00
  0.00000000E+00  0.00000000E+00  0.00000000E+00
