CONTCAR\(2)                             
   1.00000000000000     
    13.5039997101000004    0.0000000000000000    0.0000000000000000
    -1.6652898762999999    9.0626697148000002    0.0000000000000000
     0.0000000000000000    0.0000000000000000   22.9836997986000000
   Tl   Cu   Se   O 
     6     9    18    55
Direct
  0.2993130116040030  0.9130853938037279  0.6396443311941611
  0.2381929558912684  0.5732532915349782  0.3649847406133694
  0.6109659670910027  0.9067448669563694  0.6338801263649221
  0.5864662901969163  0.5629512002442326  0.3676293904514422
  0.9573037681444146  0.9117771398017096  0.6364532487833275
  0.9070250424842312  0.5714015444451013  0.3668513108124095
  0.0371792597897690  0.2980666671566447  0.4522562344865442
  0.1646130379794399  0.1874797459423810  0.5541930578229789
  0.1003242305623873  0.7453624449671107  0.5017852930389053
  0.3665330810768054  0.3023595364031259  0.4500620667528495
  0.4987666103785559  0.1961395605017259  0.5487370556816392
  0.4369231160437849  0.7530453367220109  0.4873073690613562
  0.6948873668771770  0.3096634917872161  0.4559323218043924
  0.8277114228379594  0.1903376277581966  0.5524724094526882
  0.7611191622929232  0.7385547385785561  0.4962370804779366
  0.2413353070710129  0.5208995752287553  0.5120497911282277
  0.1175237581581886  0.8409674555826030  0.3578658783157777
  0.0831884321659899  0.6523152917463084  0.6448319614388882
  0.3373063271164101  0.2486247981780400  0.6566962473443749
  0.1956068268057404  0.2397146404681362  0.3444300412662319
  0.2952490646881848  0.9735683863795948  0.4884824596445840
  0.5513044994546291  0.5419510930991209  0.5192204679203262
  0.4545222065386151  0.8308767217466558  0.3475990084764178
  0.4000892207332662  0.6343413273380273  0.6701187365571747
  0.6652297222595437  0.2430726753394386  0.6548821213950315
  0.5305592283781344  0.2328406563662966  0.3482620872714817
  0.6280820300299575  0.9755437797562547  0.4871899189458789
  0.9049177413526418  0.5210301906117958  0.5127465281211131
  0.7890327124157852  0.8396885077963385  0.3536253449850265
  0.7458468682345869  0.6472714595399557  0.6412365249671794
  0.9978869149297406  0.2471566361132479  0.6578959861288802
  0.8638958544663196  0.2381113867494341  0.3485324439835509
  0.9597650229481601  0.9707150780153291  0.4909483932635618
  0.1431669716171969  0.3688275253449530  0.5114842058366926
  0.2636003332040822  0.1090087332694720  0.6938889988673864
  0.0059231626965118  0.8457011345199392  0.5362773076782440
  0.0925887042490370  0.8593705089862478  0.4313114156941775
  0.0616777439202375  0.1183636117926323  0.4925238209477781
  0.2688120777472404  0.3772542203709447  0.3062236099722366
  0.1292206617720556  0.3605653493122635  0.3807803107330097
  0.3135888594923396  0.4836786969857111  0.4515102852703456
  0.1924542000807724  0.6430160833081674  0.4665133391222746
  0.2635844919011078  0.3083503312987764  0.6029794848384207
  0.2807046563426226  0.6755192577731908  0.6474393971609785
  0.2668685422555420  0.1818123280056527  0.3994282469801838
  0.1248500193570361  0.8388483415049529  0.6574486189045750
  0.2413752698147945  0.8182294414917287  0.3533474253483692
  0.0712945602213335  0.6552303177114885  0.3425811430783178
  0.1064910122300383  0.6282467133358838  0.5708048945728578
  0.0665490464353839  0.1291147378646822  0.6219759547653522
  0.2230868387603409  0.0051126420987565  0.5486068268820476
  0.4648861047447392  0.3755068593641756  0.5132294434772404
  0.5851073579000436  0.1097219169649054  0.6909563158580802
  0.3476615530437167  0.8464341807978508  0.5288096904559372
  0.4308520115668403  0.8704728161238237  0.4202110314474337
  0.3957861551332687  0.1237395988970840  0.4882039294083827
  0.6108893525566262  0.3619201082274492  0.3098516580896369
  0.4620565403659255  0.3583805513487688  0.3780466695032826
  0.6479809825501484  0.4900885041445557  0.4541788296322010
  0.5267925311082499  0.6469833965037970  0.4571084734474586
  0.6001163577839063  0.3099095505446766  0.5986212826818715
  0.6210226193739865  0.6665954198682427  0.6426698881148888
  0.5962853651670751  0.1847427827648777  0.4081557000429901
  0.4540020030935184  0.8299270619742463  0.6646247191713964
  0.5771943775602794  0.8000778861121340  0.3448108251407364
  0.4004450492656040  0.6478958644183566  0.3383523530423994
  0.4569356499341449  0.6425297971921875  0.5514294712274946
  0.4022775768417553  0.1294109698279443  0.6185425043486932
  0.5521790814709306  0.0139381120720242  0.5452126377724784
  0.8032042921452036  0.3737011659842682  0.5134359859027163
  0.9230496429810945  0.1062489989766882  0.6937290708795342
  0.6726827069634563  0.8484112466911291  0.5318703949449344
  0.7556559504980651  0.8550044024649599  0.4259039345758428
  0.7293133405724309  0.1248292588570779  0.4888502997099320
  0.9392205860447482  0.3746037716448851  0.3103480864125745
  0.7974556124951084  0.3584652394259057  0.3837271016776274
  0.9807011264406791  0.4781165916026290  0.4552013073143542
  0.8610747098201212  0.6432593682622936  0.4646805002224366
  0.9270382781189848  0.3075601420235169  0.6030230964892422
  0.9569633464311493  0.6685151241121641  0.6482233361151847
  0.9354863135944199  0.1787635141262228  0.4034096385145787
  0.7921286313258450  0.8295276002192472  0.6594735960744207
  0.9136220376657589  0.8201773805081506  0.3540449612800792
  0.7473206314246795  0.6535086253139945  0.3369558833532029
  0.7760661587309020  0.6347157804304676  0.5680364581518222
  0.7288910775416220  0.1168822815304220  0.6198505771079221
  0.8847755202925023  0.0096147075321562  0.5489108554402264
  0.3880561103572783  0.5978174435128473  0.7399241083649160
 
  0.00000000E+00  0.00000000E+00  0.00000000E+00
  0.00000000E+00  0.00000000E+00  0.00000000E+00
  0.00000000E+00  0.00000000E+00  0.00000000E+00
  0.00000000E+00  0.00000000E+00  0.00000000E+00
  0.00000000E+00  0.00000000E+00  0.00000000E+00
  0.00000000E+00  0.00000000E+00  0.00000000E+00
  0.00000000E+00  0.00000000E+00  0.00000000E+00
  0.00000000E+00  0.00000000E+00  0.00000000E+00
  0.00000000E+00  0.00000000E+00  0.00000000E+00
  0.00000000E+00  0.00000000E+00  0.00000000E+00
  0.00000000E+00  0.00000000E+00  0.00000000E+00
  0.00000000E+00  0.00000000E+00  0.00000000E+00
  0.00000000E+00  0.00000000E+00  0.00000000E+00
  0.00000000E+00  0.00000000E+00  0.00000000E+00
  0.00000000E+00  0.00000000E+00  0.00000000E+00
  0.00000000E+00  0.00000000E+00  0.00000000E+00
  0.00000000E+00  0.00000000E+00  0.00000000E+00
  0.00000000E+00  0.00000000E+00  0.00000000E+00
  0.00000000E+00  0.00000000E+00  0.00000000E+00
  0.00000000E+00  0.00000000E+00  0.00000000E+00
  0.00000000E+00  0.00000000E+00  0.00000000E+00
  0.00000000E+00  0.00000000E+00  0.00000000E+00
  0.00000000E+00  0.00000000E+00  0.00000000E+00
  0.00000000E+00  0.00000000E+00  0.00000000E+00
  0.00000000E+00  0.00000000E+00  0.00000000E+00
  0.00000000E+00  0.00000000E+00  0.00000000E+00
  0.00000000E+00  0.00000000E+00  0.00000000E+00
  0.00000000E+00  0.00000000E+00  0.00000000E+00
  0.00000000E+00  0.00000000E+00  0.00000000E+00
  0.00000000E+00  0.00000000E+00  0.00000000E+00
  0.00000000E+00  0.00000000E+00  0.00000000E+00
  0.00000000E+00  0.00000000E+00  0.00000000E+00
  0.00000000E+00  0.00000000E+00  0.00000000E+00
  0.00000000E+00  0.00000000E+00  0.00000000E+00
  0.00000000E+00  0.00000000E+00  0.00000000E+00
  0.00000000E+00  0.00000000E+00  0.00000000E+00
  0.00000000E+00  0.00000000E+00  0.00000000E+00
  0.00000000E+00  0.00000000E+00  0.00000000E+00
  0.00000000E+00  0.00000000E+00  0.00000000E+00
  0.00000000E+00  0.00000000E+00  0.00000000E+00
  0.00000000E+00  0.00000000E+00  0.00000000E+00
  0.00000000E+00  0.00000000E+00  0.00000000E+00
  0.00000000E+00  0.00000000E+00  0.00000000E+00
  0.00000000E+00  0.00000000E+00  0.00000000E+00
  0.00000000E+00  0.00000000E+00  0.00000000E+00
  0.00000000E+00  0.00000000E+00  0.00000000E+00
  0.00000000E+00  0.00000000E+00  0.00000000E+00
  0.00000000E+00  0.00000000E+00  0.00000000E+00
  0.00000000E+00  0.00000000E+00  0.00000000E+00
  0.00000000E+00  0.00000000E+00  0.00000000E+00
  0.00000000E+00  0.00000000E+00  0.00000000E+00
  0.00000000E+00  0.00000000E+00  0.00000000E+00
  0.00000000E+00  0.00000000E+00  0.00000000E+00
  0.00000000E+00  0.00000000E+00  0.00000000E+00
  0.00000000E+00  0.00000000E+00  0.00000000E+00
  0.00000000E+00  0.00000000E+00  0.00000000E+00
  0.00000000E+00  0.00000000E+00  0.00000000E+00
  0.00000000E+00  0.00000000E+00  0.00000000E+00
  0.00000000E+00  0.00000000E+00  0.00000000E+00
  0.00000000E+00  0.00000000E+00  0.00000000E+00
  0.00000000E+00  0.00000000E+00  0.00000000E+00
  0.00000000E+00  0.00000000E+00  0.00000000E+00
  0.00000000E+00  0.00000000E+00  0.00000000E+00
  0.00000000E+00  0.00000000E+00  0.00000000E+00
  0.00000000E+00  0.00000000E+00  0.00000000E+00
  0.00000000E+00  0.00000000E+00  0.00000000E+00
  0.00000000E+00  0.00000000E+00  0.00000000E+00
  0.00000000E+00  0.00000000E+00  0.00000000E+00
  0.00000000E+00  0.00000000E+00  0.00000000E+00
  0.00000000E+00  0.00000000E+00  0.00000000E+00
  0.00000000E+00  0.00000000E+00  0.00000000E+00
  0.00000000E+00  0.00000000E+00  0.00000000E+00
  0.00000000E+00  0.00000000E+00  0.00000000E+00
  0.00000000E+00  0.00000000E+00  0.00000000E+00
  0.00000000E+00  0.00000000E+00  0.00000000E+00
  0.00000000E+00  0.00000000E+00  0.00000000E+00
  0.00000000E+00  0.00000000E+00  0.00000000E+00
  0.00000000E+00  0.00000000E+00  0.00000000E+00
  0.00000000E+00  0.00000000E+00  0.00000000E+00
  0.00000000E+00  0.00000000E+00  0.00000000E+00
  0.00000000E+00  0.00000000E+00  0.00000000E+00
  0.00000000E+00  0.00000000E+00  0.00000000E+00
  0.00000000E+00  0.00000000E+00  0.00000000E+00
  0.00000000E+00  0.00000000E+00  0.00000000E+00
  0.00000000E+00  0.00000000E+00  0.00000000E+00
  0.00000000E+00  0.00000000E+00  0.00000000E+00
  0.00000000E+00  0.00000000E+00  0.00000000E+00
  0.00000000E+00  0.00000000E+00  0.00000000E+00
