CONTCAR\(2)                             
   1.00000000000000     
    12.6855001450000007    0.0000000000000000    0.0000000000000000
     6.3427500725000003   10.9859653852000001    0.0000000000000000
     0.0000000000000000    0.0000000000000000   18.4181995391999997
   Mn   P    Se   O    H 
     8     8    24     2     1
Direct
  0.1699962398756469  0.1661771655540183  0.4994460074851997
  0.3359744868401285  0.3345180315204075  0.5017580614772281
  0.6695296898947543  0.1676092565940087  0.5012451441845106
  0.8346751685560831  0.3339226026231364  0.5015576153817911
  0.1715053594750736  0.6657091834769734  0.5019299492669198
  0.3374676708565525  0.8309223669568824  0.5010416070612728
  0.6690422005291303  0.6662100077466967  0.5012599963343628
  0.8365128599930086  0.8333231322549689  0.4992560781340434
  0.0017683014063405  0.0012075595435098  0.4395902653511518
  0.0031110551204748 -0.0002647595914448  0.5612847547858890
  0.5030583721811277 -0.0012573494037077  0.4396880201155849
  0.5033095773753089 -0.0007517658625530  0.5613639098915217
  0.0042887655314377  0.4999106683231017  0.4395571195991390
  0.0036467425830354  0.4998149875535239  0.5613477165346541
  0.5030046422771942  0.5003780232935666  0.4627247507339600
  0.5039393223355583  0.5009434444453771  0.5942322052564758
  0.1713081835691805  0.4999701805369175  0.5949917699608910
  0.5023942108982022  0.3204391287186883  0.5924748350044565
  0.3333247296001947  0.1685274071791863  0.5921159264826353
  0.3347873843110780  0.9964313392866239  0.4085911424059024
  0.0000616372079035  0.1717684158628254  0.4092049094302899
  0.1745599674593391  0.3313679015584585  0.4085511450376404
  0.6844244805437463  0.5002190597145777  0.5937022945464366
  0.0038871174852856  0.3300952702164304  0.5920637914555134
  0.8353842299695490  0.1677034301027142  0.5946805213823028
  0.8315529814053672  0.0030396794037954  0.4083230943290708
  0.5023945989811364  0.1679376630066498  0.4080145173185339
  0.6664410385649926  0.3363697499935985  0.4159283471381288
  0.1730933783257882 -0.0004533027448237  0.5914903286465074
  0.5034174503138256  0.8314074238716680  0.5946493292867298
  0.3225231932835397  0.6806788571397795  0.5928420778540439
  0.3388019562178856  0.5002121381506889  0.4164060745305743
  0.0066145326189467  0.6683513483432192  0.4087174291180002
  0.1700416596882406  0.8324731946010391  0.4074266217591018
  0.6731107240427516  0.9994001854071286  0.5918006304488318
  0.0022636617878579  0.8306338858204788  0.5920876253462158
  0.8343068537454759  0.6697310580679641  0.5919796243577401
  0.8353470287792336  0.4999434624041599  0.4076035054095816
  0.5032003398169415  0.6636639247388014  0.4154894265332013
  0.6716771479371858  0.8289114224974631  0.4084537724773664
  0.5209100008968907  0.4995217060528243  0.6874526161843341
  0.4172947361164808  0.5030483216892977  0.7262096091342550
  0.4448858146021166  0.4152853523513606  0.7285058138279842
 
  0.00000000E+00  0.00000000E+00  0.00000000E+00
  0.00000000E+00  0.00000000E+00  0.00000000E+00
  0.00000000E+00  0.00000000E+00  0.00000000E+00
  0.00000000E+00  0.00000000E+00  0.00000000E+00
  0.00000000E+00  0.00000000E+00  0.00000000E+00
  0.00000000E+00  0.00000000E+00  0.00000000E+00
  0.00000000E+00  0.00000000E+00  0.00000000E+00
  0.00000000E+00  0.00000000E+00  0.00000000E+00
  0.00000000E+00  0.00000000E+00  0.00000000E+00
  0.00000000E+00  0.00000000E+00  0.00000000E+00
  0.00000000E+00  0.00000000E+00  0.00000000E+00
  0.00000000E+00  0.00000000E+00  0.00000000E+00
  0.00000000E+00  0.00000000E+00  0.00000000E+00
  0.00000000E+00  0.00000000E+00  0.00000000E+00
  0.00000000E+00  0.00000000E+00  0.00000000E+00
  0.00000000E+00  0.00000000E+00  0.00000000E+00
  0.00000000E+00  0.00000000E+00  0.00000000E+00
  0.00000000E+00  0.00000000E+00  0.00000000E+00
  0.00000000E+00  0.00000000E+00  0.00000000E+00
  0.00000000E+00  0.00000000E+00  0.00000000E+00
  0.00000000E+00  0.00000000E+00  0.00000000E+00
  0.00000000E+00  0.00000000E+00  0.00000000E+00
  0.00000000E+00  0.00000000E+00  0.00000000E+00
  0.00000000E+00  0.00000000E+00  0.00000000E+00
  0.00000000E+00  0.00000000E+00  0.00000000E+00
  0.00000000E+00  0.00000000E+00  0.00000000E+00
  0.00000000E+00  0.00000000E+00  0.00000000E+00
  0.00000000E+00  0.00000000E+00  0.00000000E+00
  0.00000000E+00  0.00000000E+00  0.00000000E+00
  0.00000000E+00  0.00000000E+00  0.00000000E+00
  0.00000000E+00  0.00000000E+00  0.00000000E+00
  0.00000000E+00  0.00000000E+00  0.00000000E+00
  0.00000000E+00  0.00000000E+00  0.00000000E+00
  0.00000000E+00  0.00000000E+00  0.00000000E+00
  0.00000000E+00  0.00000000E+00  0.00000000E+00
  0.00000000E+00  0.00000000E+00  0.00000000E+00
  0.00000000E+00  0.00000000E+00  0.00000000E+00
  0.00000000E+00  0.00000000E+00  0.00000000E+00
  0.00000000E+00  0.00000000E+00  0.00000000E+00
  0.00000000E+00  0.00000000E+00  0.00000000E+00
  0.00000000E+00  0.00000000E+00  0.00000000E+00
  0.00000000E+00  0.00000000E+00  0.00000000E+00
  0.00000000E+00  0.00000000E+00  0.00000000E+00
