CONTCAR\(13)                            
   1.00000000000000     
    11.8599996566999994    0.0000000000000000    0.0000000000000000
     0.0000000000000000   16.8432006835999992    0.0000000000000000
     0.0000000000000000    0.0000000000000000   21.2530994415000016
   Y    C    I    O 
    24     6    30     1
Direct
  0.1631056631534581  0.0008806181580732  0.3881391833651024
 -0.0016339844044605  0.0972408689064299  0.4997708399496850
  0.1652046601558082  0.5002552224558486  0.6110689094257112
 -0.0018010220330926  0.4043427030764800  0.4994468798071962
  0.4948566146339377  0.0009125324991741  0.3885980396832902
  0.3290348531621104  0.0970703919002896  0.4996891293158915
  0.4984566345733817  0.5007300045181909  0.6111533352613929
  0.3316429093716068  0.4044193435887874  0.4992272987542030
  0.8315911970215563  0.0012202382672905  0.3888912315651770
  0.6629551873214331  0.0990498193290733  0.5013212275476212
  0.8314802463864389  0.5006607030742904  0.6113565419364438
  0.6649559654625699  0.4045615826676522  0.4995242975265859
  0.1649188503513046  0.5009782842170971  0.3881105787296389
 -0.0016891063358989  0.5971697303748874  0.4997950592609596
  0.1639721142152457  0.0004246402495836  0.6113977148003334
 -0.0023662194877681  0.9043271176186002  0.4993883858704586
  0.4983759879671668  0.5010933082797545  0.3878465436926199
  0.3315220619504343  0.5973037727684327  0.4994246250466009
  0.4936638901271186 -0.0009115026265187  0.6119327028724975
  0.3293511942407268  0.9040253010762981  0.4994104023531548
  0.8318701108460560  0.5010880529669632  0.3880836504281703
  0.6649230289152129  0.5979275566246471  0.4990186379514764
  0.8330587475510184  0.0000646499700596  0.6122071321502116
  0.6637547688488387  0.9055371994916592  0.5014431822342672
  0.1635299490664060  0.0006784600921920  0.4997426754624752
  0.4959716304026598  0.0003822964156433  0.4996860198999670
  0.8310424045343449  0.0007223832200931  0.5000391160336840
  0.1649431614529209  0.5008760706513007  0.4996363248550712
  0.4988958901020071  0.5013086601751034  0.4994892566833534
  0.8310314717902880  0.5011875654952680  0.4997251678277201
 -0.0033002842594403  0.1317476437964378  0.3536101638551781
 -0.0017883350301381  0.3708084278531601  0.3531086730782471
  0.9978213203144214  0.1310018725396893  0.6459100355646573
  0.1640224511265122  0.2511515762984591  0.4990646920122997
  0.9982036453996390  0.3701701883270175  0.6452377107723972
  0.3292932521415008  0.1314386641039184  0.3533088229379038
  0.3318235006586224  0.3711637360647559  0.3525754037018148
  0.3299663651967160  0.1308379845280266  0.6458493867739393
  0.4968797122202906  0.2509501420551316  0.4995494996221000
  0.3320332751316138  0.3700476432330673  0.6449816145639101
  0.6631801643523675  0.1301719608776933  0.3541057742348714
  0.6651311847369488  0.3709719477287572  0.3527409082869664
  0.6616989519025436  0.1203340130375995  0.6452282893663945
  0.8305061467923452  0.2506700800970991  0.5004542145664131
  0.6644805696575137  0.3720926319579823  0.6437563250399343
 -0.0015994564144641  0.6314544797604487  0.3540184089295492
 -0.0036521814844659  0.8707343838106262  0.3530277333462317
 -0.0012941967570295  0.6307655478725344  0.6457248707664545
  0.1637840212442670  0.7506704694657874  0.4992234466143082
  0.9983511853134560  0.8686742906880798  0.6455778477658685
  0.3314863467450009  0.6312564073735253  0.3533594458951855
  0.3293410258828834  0.8704941053317168  0.3531003960255087
  0.3314746582943539  0.6308684873372739  0.6455869447441146
  0.4973472490534168  0.7512184331391804  0.4992365803664060
  0.3282315392368694  0.8681437478216074  0.6461793079161260
  0.6651301036022949  0.6313572422420131  0.3529764953137765
  0.6633303369920375  0.8714239092645676  0.3550600388804653
  0.6650724219301954  0.6313059493605392  0.6450734247433290
  0.8305514841870100  0.7511384920605895  0.4997132555199638
  0.6638046691594717  0.8684063224855959  0.6468059783807839
  0.6529701353304211  0.2147815559844653  0.6959401381239326
 
  0.00000000E+00  0.00000000E+00  0.00000000E+00
  0.00000000E+00  0.00000000E+00  0.00000000E+00
  0.00000000E+00  0.00000000E+00  0.00000000E+00
  0.00000000E+00  0.00000000E+00  0.00000000E+00
  0.00000000E+00  0.00000000E+00  0.00000000E+00
  0.00000000E+00  0.00000000E+00  0.00000000E+00
  0.00000000E+00  0.00000000E+00  0.00000000E+00
  0.00000000E+00  0.00000000E+00  0.00000000E+00
  0.00000000E+00  0.00000000E+00  0.00000000E+00
  0.00000000E+00  0.00000000E+00  0.00000000E+00
  0.00000000E+00  0.00000000E+00  0.00000000E+00
  0.00000000E+00  0.00000000E+00  0.00000000E+00
  0.00000000E+00  0.00000000E+00  0.00000000E+00
  0.00000000E+00  0.00000000E+00  0.00000000E+00
  0.00000000E+00  0.00000000E+00  0.00000000E+00
  0.00000000E+00  0.00000000E+00  0.00000000E+00
  0.00000000E+00  0.00000000E+00  0.00000000E+00
  0.00000000E+00  0.00000000E+00  0.00000000E+00
  0.00000000E+00  0.00000000E+00  0.00000000E+00
  0.00000000E+00  0.00000000E+00  0.00000000E+00
  0.00000000E+00  0.00000000E+00  0.00000000E+00
  0.00000000E+00  0.00000000E+00  0.00000000E+00
  0.00000000E+00  0.00000000E+00  0.00000000E+00
  0.00000000E+00  0.00000000E+00  0.00000000E+00
  0.00000000E+00  0.00000000E+00  0.00000000E+00
  0.00000000E+00  0.00000000E+00  0.00000000E+00
  0.00000000E+00  0.00000000E+00  0.00000000E+00
  0.00000000E+00  0.00000000E+00  0.00000000E+00
  0.00000000E+00  0.00000000E+00  0.00000000E+00
  0.00000000E+00  0.00000000E+00  0.00000000E+00
  0.00000000E+00  0.00000000E+00  0.00000000E+00
  0.00000000E+00  0.00000000E+00  0.00000000E+00
  0.00000000E+00  0.00000000E+00  0.00000000E+00
  0.00000000E+00  0.00000000E+00  0.00000000E+00
  0.00000000E+00  0.00000000E+00  0.00000000E+00
  0.00000000E+00  0.00000000E+00  0.00000000E+00
  0.00000000E+00  0.00000000E+00  0.00000000E+00
  0.00000000E+00  0.00000000E+00  0.00000000E+00
  0.00000000E+00  0.00000000E+00  0.00000000E+00
  0.00000000E+00  0.00000000E+00  0.00000000E+00
  0.00000000E+00  0.00000000E+00  0.00000000E+00
  0.00000000E+00  0.00000000E+00  0.00000000E+00
  0.00000000E+00  0.00000000E+00  0.00000000E+00
  0.00000000E+00  0.00000000E+00  0.00000000E+00
  0.00000000E+00  0.00000000E+00  0.00000000E+00
  0.00000000E+00  0.00000000E+00  0.00000000E+00
  0.00000000E+00  0.00000000E+00  0.00000000E+00
  0.00000000E+00  0.00000000E+00  0.00000000E+00
  0.00000000E+00  0.00000000E+00  0.00000000E+00
  0.00000000E+00  0.00000000E+00  0.00000000E+00
  0.00000000E+00  0.00000000E+00  0.00000000E+00
  0.00000000E+00  0.00000000E+00  0.00000000E+00
  0.00000000E+00  0.00000000E+00  0.00000000E+00
  0.00000000E+00  0.00000000E+00  0.00000000E+00
  0.00000000E+00  0.00000000E+00  0.00000000E+00
  0.00000000E+00  0.00000000E+00  0.00000000E+00
  0.00000000E+00  0.00000000E+00  0.00000000E+00
  0.00000000E+00  0.00000000E+00  0.00000000E+00
  0.00000000E+00  0.00000000E+00  0.00000000E+00
  0.00000000E+00  0.00000000E+00  0.00000000E+00
  0.00000000E+00  0.00000000E+00  0.00000000E+00
