 Zn1 In2 S4                             
   1.00000000000000     
     3.9032980798976018    0.0000000000000000    0.0000000000000000
    -1.9516495373480816    3.3803553165466189    0.0000000000000000
     0.0000000000000000    0.0000000000000000   24.5372907247499938
   Zn   In   S 
     1     2     4
Direct
  0.3333332921758227  0.6666667508836639  0.3247849845115235
  0.9999999755789588  0.0000000794651953  0.4848847533456624
  0.6666667131775696  0.3333332820096402  0.6488830368886468
  0.6666668214215505  0.3333332063761389  0.3086306460589467
  0.6666666201207221  0.3333333842448809  0.5504796177610092
  0.3333333032045402  0.6666667161810480  0.4345414791186938
  0.3333332743208288  0.6666665808394399  0.6958395292082290
 
  0.00000000E+00  0.00000000E+00  0.00000000E+00
  0.00000000E+00  0.00000000E+00  0.00000000E+00
  0.00000000E+00  0.00000000E+00  0.00000000E+00
  0.00000000E+00  0.00000000E+00  0.00000000E+00
  0.00000000E+00  0.00000000E+00  0.00000000E+00
  0.00000000E+00  0.00000000E+00  0.00000000E+00
  0.00000000E+00  0.00000000E+00  0.00000000E+00
