CONTCAR\(15)                            
   1.00000000000000     
    13.2923002242999999    0.0000000000000000    0.0000000000000000
     6.5701190447000002   11.5675693128999999    0.0000000000000000
     0.0000000000000000    0.0000000000000000   18.3850994109999988
   Nb   Ir   S 
    12     4    32
Direct
  0.2471431514924731  0.0177111196074335  0.4990387611759246
  0.4913039861821744  0.0090075882408769  0.5000160604085835
  0.4825731919695997  0.2531231833646146  0.5010439775401352
  0.7471432054924705  0.0177111196074335  0.4990387611759246
  0.9913039501821714  0.0090075882408769  0.5000160604085835
  0.9825732279696027  0.2531231833646146  0.5010439775401352
  0.2471431484924693  0.5177111506074326  0.4990387611759246
  0.4913039181821759  0.5090076412408706  0.5000160604085835
  0.4825731519696035  0.7531231813646144  0.5010439775401352
  0.7471431484924693  0.5177111506074326  0.4990387611759246
  0.9913039541821718  0.5090076412408706  0.5000160604085835
  0.9825731879695994  0.7531231813646144  0.5010439775401352
  0.2715018052965661  0.2287671115559178  0.5000337463675919
  0.7715017702965667  0.2287671115559178  0.5000337463675919
  0.2715017552965620  0.7287671295559193  0.5000337463675919
  0.7715017912965649  0.7287671295559193  0.5000337463675919
  0.3383705413202023  0.0788254557622210  0.4081397328850613
  0.0768692043016799  0.0919598616816586  0.4154254220874378
  0.0967402143888734  0.3249756916012458  0.4284068415709754
  0.3244188741105631  0.3362629527812331  0.4173991267423744
  0.1641461817192749  0.1756964533791461  0.5827193943775200
  0.4215772411566405  0.1617797883184267  0.5919008129418444
  0.4084856554433784  0.4233079916891924  0.5846272532884953
  0.1754298366185765  0.4034029000180297  0.5716489316140638
  0.8383706123202046  0.0788254557622210  0.4081397328850613
  0.5768691503016754  0.0919598616816586  0.4154254220874378
  0.5967402143888734  0.3249756916012458  0.4284068415709754
  0.8244189091105625  0.3362629527812331  0.4173991267423744
  0.6641462177192778  0.1756964533791461  0.5827193943775200
  0.9215772771566435  0.1617797883184267  0.5919008129418444
  0.9084856194433755  0.4233079916891924  0.5846272532884953
  0.6754198276185761  0.4034029000180297  0.5716489316140638
  0.3383705313202015  0.5788254637622217  0.4081397328850613
  0.0768691973016757  0.5919598996816546  0.4154254220874378
  0.0967402203888739  0.8249756686012546  0.4284068415709754
  0.3244188341105669  0.8362629507812329  0.4173991267423744
  0.1641461777192745  0.6756964503791494  0.5827193943775200
  0.4215772161566420  0.6617797553184275  0.5919008129418444
  0.4084856774433732  0.9233080096891939  0.5846272532884953
  0.1754298576185747  0.9034029190180277  0.5716489316140638
  0.8383705673202044  0.5788254637622217  0.4081397328850613
  0.5768691613016799  0.5919598996816546  0.4154254220874378
  0.5967402363888752  0.8249656926012534  0.4284068415709754
  0.8244188691105663  0.8362629507812329  0.4173991267423744
  0.6641462497192734  0.6756964503791494  0.5827193943775200
  0.9215772521566450  0.6617797553184275  0.5919008129418444
  0.9084855694433784  0.9233080096891939  0.5846272532884953
  0.6754198496185779  0.9034029190180277  0.5716489316140638
 
  0.00000000E+00  0.00000000E+00  0.00000000E+00
  0.00000000E+00  0.00000000E+00  0.00000000E+00
  0.00000000E+00  0.00000000E+00  0.00000000E+00
  0.00000000E+00  0.00000000E+00  0.00000000E+00
  0.00000000E+00  0.00000000E+00  0.00000000E+00
  0.00000000E+00  0.00000000E+00  0.00000000E+00
  0.00000000E+00  0.00000000E+00  0.00000000E+00
  0.00000000E+00  0.00000000E+00  0.00000000E+00
  0.00000000E+00  0.00000000E+00  0.00000000E+00
  0.00000000E+00  0.00000000E+00  0.00000000E+00
  0.00000000E+00  0.00000000E+00  0.00000000E+00
  0.00000000E+00  0.00000000E+00  0.00000000E+00
  0.00000000E+00  0.00000000E+00  0.00000000E+00
  0.00000000E+00  0.00000000E+00  0.00000000E+00
  0.00000000E+00  0.00000000E+00  0.00000000E+00
  0.00000000E+00  0.00000000E+00  0.00000000E+00
  0.00000000E+00  0.00000000E+00  0.00000000E+00
  0.00000000E+00  0.00000000E+00  0.00000000E+00
  0.00000000E+00  0.00000000E+00  0.00000000E+00
  0.00000000E+00  0.00000000E+00  0.00000000E+00
  0.00000000E+00  0.00000000E+00  0.00000000E+00
  0.00000000E+00  0.00000000E+00  0.00000000E+00
  0.00000000E+00  0.00000000E+00  0.00000000E+00
  0.00000000E+00  0.00000000E+00  0.00000000E+00
  0.00000000E+00  0.00000000E+00  0.00000000E+00
  0.00000000E+00  0.00000000E+00  0.00000000E+00
  0.00000000E+00  0.00000000E+00  0.00000000E+00
  0.00000000E+00  0.00000000E+00  0.00000000E+00
  0.00000000E+00  0.00000000E+00  0.00000000E+00
  0.00000000E+00  0.00000000E+00  0.00000000E+00
  0.00000000E+00  0.00000000E+00  0.00000000E+00
  0.00000000E+00  0.00000000E+00  0.00000000E+00
  0.00000000E+00  0.00000000E+00  0.00000000E+00
  0.00000000E+00  0.00000000E+00  0.00000000E+00
  0.00000000E+00  0.00000000E+00  0.00000000E+00
  0.00000000E+00  0.00000000E+00  0.00000000E+00
  0.00000000E+00  0.00000000E+00  0.00000000E+00
  0.00000000E+00  0.00000000E+00  0.00000000E+00
  0.00000000E+00  0.00000000E+00  0.00000000E+00
  0.00000000E+00  0.00000000E+00  0.00000000E+00
  0.00000000E+00  0.00000000E+00  0.00000000E+00
  0.00000000E+00  0.00000000E+00  0.00000000E+00
  0.00000000E+00  0.00000000E+00  0.00000000E+00
  0.00000000E+00  0.00000000E+00  0.00000000E+00
  0.00000000E+00  0.00000000E+00  0.00000000E+00
  0.00000000E+00  0.00000000E+00  0.00000000E+00
  0.00000000E+00  0.00000000E+00  0.00000000E+00
  0.00000000E+00  0.00000000E+00  0.00000000E+00
