CONTCAR\(10)                            
   1.00000000000000     
    13.2530002594000003    0.0000000000000000    0.0000000000000000
    -6.6264500618000000   11.4773481809000000    0.0000000000000000
     0.0000000000000000    0.0000000000000000   18.1429996490000001
   V    Se   O    H 
    16    32     1     1
Direct
  0.9966438989026885  0.0110869714708580  0.5005640731101199
  0.2350119281167412 -0.0083543462576436  0.5005522241990058
  0.4957080538318856 -0.0080115357827409  0.4999259211739788
  0.7557739845282165  0.0113946774854001  0.5002735355507140
  0.9990180682988625  0.2547292657940238  0.4991068783200694
  0.2320774235212059  0.2407409543706582  0.4997218011108896
  0.4879990875887366  0.2463290315068541  0.5004161128751546
  0.7505447205545059  0.2414022398428667  0.4996913489986508
 -0.0004286700644524  0.4916845145014822  0.5000511088056590
  0.2318711884210286  0.4917526882205839  0.4998324013286706
  0.4575546307294570  0.4785024733736862  0.5009255160368964
  0.7600614113355981  0.4784029884792860  0.5013843159353719
  0.9948468441347587  0.7344796409461271  0.5003724782041652
  0.2402870196017314  0.7417315941917161  0.5008844598291553
  0.4776381768399623  0.7322852227915825  0.5003643579804500
  0.7601009485656998  0.7806762469609033  0.5022858864353830
  0.1584946410838543  0.0800641625205746  0.5899270514783164
  0.0763224333626255  0.1641686782699429  0.4079167521418017
  0.4082746347805777  0.0774849339378860  0.5860512227677137
  0.3236384724928063  0.1597525445977238  0.4138027297897034
  0.6614609428298961  0.0799146683555054  0.5891816990328136
  0.5752337492619054  0.1611882896469578  0.4158083435252052
  0.9135148219507528  0.0862721291859752  0.5905751542990221
  0.8286645686404218  0.1644907871996812  0.4079138331001734
  0.1567864602184739  0.3286012443728277  0.5898895832288739
  0.0763250149181731  0.4129771904574098  0.4066576906055592
  0.4026236279134506  0.3250976200132600  0.5900619131954467
  0.3156192834848817  0.4069800377699816  0.4073936073004292
  0.6605289355865712  0.3241740144644651  0.5885032413928416
  0.5773383279936053  0.4158639614248681  0.4202682895732665
  0.9127003877600665  0.3285987069634091  0.5897332461558628
  0.8306938202190598  0.4070050038869287  0.4076589366913420
  0.1585816017084847  0.5772050488602598  0.5909003200121979
  0.0772721262369035  0.6605608612591439  0.4110111843353548
  0.4011519627884560  0.5743963928663580  0.5915133205206169
  0.3222776632759199  0.6605179612979798  0.4107697256859251
  0.6589672488256170  0.5797741292990275  0.5586566463008231
  0.5755084315600295  0.6607726385148786  0.4203922063415549
  0.9132155488207120  0.5749111232233085  0.5912103474746206
  0.8246766368152235  0.6608300988682133  0.4208399486801823
  0.1601259915515864  0.8279441237882342  0.5891042493490001
  0.0726997333387425  0.9099721834746586  0.4154696421796041
  0.4075160017052569  0.8275192276590815  0.5886954099321380
  0.3251858948863151  0.9114730859951122  0.4151179477991496
  0.6586189777422902  0.8350310450814159  0.5866083115970838
  0.5768359703638121  0.9096788154019347  0.4160339598869898
  0.9156283294482793  0.8348159505175343  0.5872601074412838
  0.8318349928478750  0.9234378200995413  0.4078622543928783
  0.6528390301728558  0.5780760600231992  0.6608814722431723
  0.7163953655079035  0.6548071448070927  0.6759076506547558
 
  0.00000000E+00  0.00000000E+00  0.00000000E+00
  0.00000000E+00  0.00000000E+00  0.00000000E+00
  0.00000000E+00  0.00000000E+00  0.00000000E+00
  0.00000000E+00  0.00000000E+00  0.00000000E+00
  0.00000000E+00  0.00000000E+00  0.00000000E+00
  0.00000000E+00  0.00000000E+00  0.00000000E+00
  0.00000000E+00  0.00000000E+00  0.00000000E+00
  0.00000000E+00  0.00000000E+00  0.00000000E+00
  0.00000000E+00  0.00000000E+00  0.00000000E+00
  0.00000000E+00  0.00000000E+00  0.00000000E+00
  0.00000000E+00  0.00000000E+00  0.00000000E+00
  0.00000000E+00  0.00000000E+00  0.00000000E+00
  0.00000000E+00  0.00000000E+00  0.00000000E+00
  0.00000000E+00  0.00000000E+00  0.00000000E+00
  0.00000000E+00  0.00000000E+00  0.00000000E+00
  0.00000000E+00  0.00000000E+00  0.00000000E+00
  0.00000000E+00  0.00000000E+00  0.00000000E+00
  0.00000000E+00  0.00000000E+00  0.00000000E+00
  0.00000000E+00  0.00000000E+00  0.00000000E+00
  0.00000000E+00  0.00000000E+00  0.00000000E+00
  0.00000000E+00  0.00000000E+00  0.00000000E+00
  0.00000000E+00  0.00000000E+00  0.00000000E+00
  0.00000000E+00  0.00000000E+00  0.00000000E+00
  0.00000000E+00  0.00000000E+00  0.00000000E+00
  0.00000000E+00  0.00000000E+00  0.00000000E+00
  0.00000000E+00  0.00000000E+00  0.00000000E+00
  0.00000000E+00  0.00000000E+00  0.00000000E+00
  0.00000000E+00  0.00000000E+00  0.00000000E+00
  0.00000000E+00  0.00000000E+00  0.00000000E+00
  0.00000000E+00  0.00000000E+00  0.00000000E+00
  0.00000000E+00  0.00000000E+00  0.00000000E+00
  0.00000000E+00  0.00000000E+00  0.00000000E+00
  0.00000000E+00  0.00000000E+00  0.00000000E+00
  0.00000000E+00  0.00000000E+00  0.00000000E+00
  0.00000000E+00  0.00000000E+00  0.00000000E+00
  0.00000000E+00  0.00000000E+00  0.00000000E+00
  0.00000000E+00  0.00000000E+00  0.00000000E+00
  0.00000000E+00  0.00000000E+00  0.00000000E+00
  0.00000000E+00  0.00000000E+00  0.00000000E+00
  0.00000000E+00  0.00000000E+00  0.00000000E+00
  0.00000000E+00  0.00000000E+00  0.00000000E+00
  0.00000000E+00  0.00000000E+00  0.00000000E+00
  0.00000000E+00  0.00000000E+00  0.00000000E+00
  0.00000000E+00  0.00000000E+00  0.00000000E+00
  0.00000000E+00  0.00000000E+00  0.00000000E+00
  0.00000000E+00  0.00000000E+00  0.00000000E+00
  0.00000000E+00  0.00000000E+00  0.00000000E+00
  0.00000000E+00  0.00000000E+00  0.00000000E+00
  0.00000000E+00  0.00000000E+00  0.00000000E+00
  0.00000000E+00  0.00000000E+00  0.00000000E+00
