CONTCAR                                 
   1.00000000000000     
     9.7571001052999993    0.0000000000000000    0.0000000000000000
    -3.0063686365000000   15.8319856181999992    0.0000000000000000
     0.0000000000000000    0.0000000000000000   18.2793006897000012
   V    P    S    O    H 
     4     8    26     2     1
Direct
  0.6190532043656644  0.6049123148252028  0.4976327844637921
  0.5911981591896329  0.0886187531433870  0.4923824206801569
  0.3811216445429894  0.3943144016227660  0.5032151950874931
  0.3993822976505130  0.9150018335076867  0.4915578518897177
  0.8131153187775216  0.2518784385791350  0.4921328474568876
  0.6931403759988006  0.4318964061798159  0.5363049880513741
  0.1836413868083984  0.7478805301075647  0.5032777230306558
  0.1659231290480912  0.2377518118758673  0.4957210209516393
  0.2669197210330960  0.0782012709201938  0.5924742971237080
  0.7046900328788273  0.9319495869125393  0.4635635087173085
  0.3078342255187594  0.5680061404168514  0.4618915571751585
  0.8366838141407260  0.7595833423452447  0.5068969412256535
  0.1129944128548643  0.1056262818682098  0.5185763482881294
  0.8955441077553133  0.8907890316119328  0.4795864454873136
  0.0095429676589545  0.7504769198008356  0.5752811004747326
  0.3987113750291438  0.0343448632228734  0.4277052362138186
  0.5363465325549717  0.3558287477838936  0.5905565372900439
  0.2362917977787949  0.4552478081434080  0.4151664156559934
  0.1919309271039919  0.3168426152012234  0.5809475691599305
  0.6688127319706548  0.7300979950760234  0.5729489234388988
  0.4662906188391827  0.6445747678350657  0.4090995271830157
  0.6035927567391340  0.4596000369190607  0.4389055212218033
  0.6507806838885902  0.2259175632771644  0.4233643703796446
  0.8777063613334065  0.3820743841572126  0.5216957429395394
  0.9931077797737945  0.2436219526595467  0.4251389403898227
  0.6090077225672058  0.9623274661232125  0.5609877273778879
  0.8087981703920880  0.6818282120580769  0.4205633818062394
  0.3944335080235954  0.5409397347590288  0.5604935572720399
  0.2033270481001702  0.8292748940894323  0.4194769619697463
  0.7660982459899727  0.5438608202615803  0.5840732387218327
  0.5517618822942609  0.8507741210377527  0.4137199292243320
  0.2487137012939621  0.9518628027860124  0.5920871356908675
  0.3495284440655854  0.7764444487838851  0.5683486615083627
  0.7814379186370274  0.1725560601096324  0.5764074083839753
  0.7655732596277109  0.0444980849457768  0.4144420052019019
  0.4587739446379073  0.1483063609384686  0.5881604992080008
  0.1226964828760610  0.6177353895213807  0.4715904494830985
  0.3323514803913203  0.2706239339977368  0.4287609403053138
  0.1844697150860301  0.1045714204860636  0.6656816637944231
  0.2629893319248727  0.0889961785232883  0.7321282229344408
  0.2201326738584343  0.0297723855859733  0.7419845671413197
 
  0.00000000E+00  0.00000000E+00  0.00000000E+00
  0.00000000E+00  0.00000000E+00  0.00000000E+00
  0.00000000E+00  0.00000000E+00  0.00000000E+00
  0.00000000E+00  0.00000000E+00  0.00000000E+00
  0.00000000E+00  0.00000000E+00  0.00000000E+00
  0.00000000E+00  0.00000000E+00  0.00000000E+00
  0.00000000E+00  0.00000000E+00  0.00000000E+00
  0.00000000E+00  0.00000000E+00  0.00000000E+00
  0.00000000E+00  0.00000000E+00  0.00000000E+00
  0.00000000E+00  0.00000000E+00  0.00000000E+00
  0.00000000E+00  0.00000000E+00  0.00000000E+00
  0.00000000E+00  0.00000000E+00  0.00000000E+00
  0.00000000E+00  0.00000000E+00  0.00000000E+00
  0.00000000E+00  0.00000000E+00  0.00000000E+00
  0.00000000E+00  0.00000000E+00  0.00000000E+00
  0.00000000E+00  0.00000000E+00  0.00000000E+00
  0.00000000E+00  0.00000000E+00  0.00000000E+00
  0.00000000E+00  0.00000000E+00  0.00000000E+00
  0.00000000E+00  0.00000000E+00  0.00000000E+00
  0.00000000E+00  0.00000000E+00  0.00000000E+00
  0.00000000E+00  0.00000000E+00  0.00000000E+00
  0.00000000E+00  0.00000000E+00  0.00000000E+00
  0.00000000E+00  0.00000000E+00  0.00000000E+00
  0.00000000E+00  0.00000000E+00  0.00000000E+00
  0.00000000E+00  0.00000000E+00  0.00000000E+00
  0.00000000E+00  0.00000000E+00  0.00000000E+00
  0.00000000E+00  0.00000000E+00  0.00000000E+00
  0.00000000E+00  0.00000000E+00  0.00000000E+00
  0.00000000E+00  0.00000000E+00  0.00000000E+00
  0.00000000E+00  0.00000000E+00  0.00000000E+00
  0.00000000E+00  0.00000000E+00  0.00000000E+00
  0.00000000E+00  0.00000000E+00  0.00000000E+00
  0.00000000E+00  0.00000000E+00  0.00000000E+00
  0.00000000E+00  0.00000000E+00  0.00000000E+00
  0.00000000E+00  0.00000000E+00  0.00000000E+00
  0.00000000E+00  0.00000000E+00  0.00000000E+00
  0.00000000E+00  0.00000000E+00  0.00000000E+00
  0.00000000E+00  0.00000000E+00  0.00000000E+00
  0.00000000E+00  0.00000000E+00  0.00000000E+00
  0.00000000E+00  0.00000000E+00  0.00000000E+00
  0.00000000E+00  0.00000000E+00  0.00000000E+00
