CONTCAR\(5)                             
   1.00000000000000     
    13.2600002288999992    0.0000000000000000    0.0000000000000000
    -6.6300199930000003   11.4834855754999996    0.0000000000000000
     0.0000000000000000    0.0000000000000000   20.2117004394999995
   Na   Zr   N    O    H 
    32    16    32     2     1
Selective dynamics
Direct
  0.1669495089404052  0.0832171425323764  0.3743535408180350   F   F   F
  0.0849764697960467  0.1690992212507112  0.6271798635004870   F   F   F
  0.4180026680830053  0.0840891526791054  0.3744587269739057   F   F   F
  0.3333313525968293  0.1671099851677837  0.6273918726406578   F   F   F
  0.6670418507706160  0.0842283077648460  0.3745940972583028   F   F   F
  0.5831853703507122  0.1665758129299846  0.6284016910975225   F   F   F
  0.9159719790390213  0.0835444846144924  0.3747512116801559   F   F   F
  0.8345859921668435  0.1678883094638621  0.6282357205266536   F   F   F
  0.1653680061335407  0.3319404764580227  0.3737664131789273   F   F   F
  0.1024406021487323  0.4262533316271373  0.6316000151361294   F   F   F
  0.4175779959646988  0.3325560005826418  0.3739876907344524   F   F   F
  0.3318437946212853  0.4224076238158574  0.6300972556421058   F   F   F
  0.6669772331823509  0.3328514743322231  0.3745982536664556   F   F   F
  0.5826100539740438  0.4168579125597347  0.6278065890177800   F   F   F
  0.9150735226691253  0.3325238261799797  0.3746188788145446   F   F   F
  0.8346258902470680  0.4168117219021354  0.6282018965258018   F   F   F
  0.1654168257223034  0.5834796143700771  0.3737387023905185   F   F   F
  0.0849582411545313  0.6659257876283533  0.6271762812966557   F   F   F
  0.4178655894463077  0.5839644207414025  0.3733546224367430   F   F   F
  0.3317691790426238  0.6593067657535840  0.6301163847380380   F   F   F
  0.6674844976849386  0.5830877850729621  0.3743873813368239   F   F   F
  0.5730293751619087  0.6615481996061447  0.6293823616169831   F   F   F
  0.9159626207126905  0.5825463417415762  0.3747355221494502   F   F   F
  0.8327128577453777  0.6667941289761572  0.6280243186724235   F   F   F
  0.1669237987198073  0.8337704654453901  0.3743682096708483   F   F   F
  0.0832178612962977  0.9166465310218825  0.6277091468156755   F   F   F
  0.4176118856448454  0.8350566835756936  0.3739763903183828   F   F   F
  0.3333211182892555  0.9162410364650526  0.6273631813578149   F   F   F
  0.6674418361727135  0.8344177537290065  0.3744270494142796   F   F   F
  0.5825419114137560  0.9158046159175441  0.6278018351421792   F   F   F
  0.9160269729885684  0.8330320314545716  0.3747868668378800   F   F   F
  0.8327186620601381  0.9159750738483297  0.6279949877034028   F   F   F
  0.0000185205301904  0.0002800368866076  0.5010980537370600   F   F   F
  0.2502437223698308  0.0001381101148397  0.5008356043328561   F   F   F
  0.5000203791481326  0.9997322382190106  0.5012944110542676   F   F   F
  0.7500432641950212  0.0001985547743431  0.5014358140578636   F   F   F
  0.0012655666175121  0.2513653687738469  0.5017394296924422   F   F   F
  0.2502311579096670  0.2509446582555128  0.5009153220268558   F   F   F
  0.5000269783932865  0.2503329845837072  0.5013024472899232   F   F   F
  0.7503118864970375  0.2501776268127358  0.5017911296966986   F   F   F
  0.0013035535168342  0.4999420231128511  0.5016959021433181   F   F   F
  0.2509116329889309  0.5004615811624760  0.4990177659157098   F   F   F
  0.4992564203964847  0.5002315833667481  0.5006534816040258   F   F   F
  0.7500517419279191  0.4998932649342578  0.5014154314260182   F   F   F
  0.0000286684073458  0.7498090648247384  0.5010634865740329   F   F   F
  0.2502338765613672  0.7492950967658842  0.5008983107996272   F   F   F
  0.4992737146925350  0.7491005091390548  0.5006558081515848   F   F   F
  0.7491293797004985  0.7495717490160132  0.5017249081627497   F   F   F
  0.1668474674075711  0.0837510446386389  0.5588957836925701   F   F   F
  0.0827224110754017  0.1656071735116456  0.4428649966185532   F   F   F
  0.4166428126333983  0.0833487070992618  0.5591786808887562   F   F   F
  0.3339787699953263  0.1663143946109784  0.4431773678611606   F   F   F
  0.6668346504857396  0.0833201315852534  0.5596561802142261   F   F   F
  0.5840542238129984  0.1670399696272966  0.4441268442445221   F   F   F
  0.9170485010775664  0.0835487391406176  0.5593717836057266   F   F   F
  0.8327533581888815  0.1665400650411755  0.4439789244874461   F   F   F
  0.1676889392181451  0.3338630307653645  0.5561211680713072   F   F   F
  0.0818054128925567  0.4159131198836263  0.4417792915399801   F   F   F
  0.4162750336248351  0.3341805036096872  0.5587947357821861   F   F   F
  0.3335128625101973  0.4156299347356622  0.4409589583403530   F   F   F
  0.6668388631371371  0.3335589315702094  0.5596562802521206   F   F   F
  0.5841068523922033  0.4162128771408149  0.4431179837151902   F   F   F
  0.9195411669710651  0.3348001608027076  0.5599401933800863   F   F   F
  0.8327568103056109  0.4162534633095092  0.4439687570784514   F   F   F
  0.1677163341781238  0.5838692627665480  0.5561133368884228   F   F   F
  0.0827166647782889  0.6671636773220655  0.4428501459847496   F   F   F
  0.4160289288746242  0.5830225451778830  0.5534840125798937   F   F   F
  0.3335110259686402  0.6679198427454196  0.4409527415987355   F   F   F
  0.6653047306696251  0.5833288177413607  0.5593118045742855   F   F   F
  0.5850532943865900  0.6675501799086803  0.4421326042249021   F   F   F
  0.9170549348660160  0.5835665852535215  0.5593404342243957   F   F   F
  0.8332265267225907  0.6663764922041864  0.4438936466632200   F   F   F
  0.1668388220667012  0.8331465468165362  0.5588690808578107   F   F   F
  0.0833180733750751  0.9166965680215000  0.4434899183260086   F   F   F
  0.4162877477397302  0.8321225654767872  0.5587888642836418   F   F   F
  0.3339848381054225  0.9177089828796667  0.4431632553355627   F   F   F
  0.6652984968547457  0.8320176473612264  0.5593179805033941   F   F   F
  0.5841243121077753  0.9179422282383243  0.4431162193922376   F   F   F
  0.9165866629910724  0.8333085447900501  0.5589712338213744   F   F   F
  0.8332415561628110  0.9169190071386240  0.4439175048661070   F   F   F
  0.4007271995299533  0.5755198202516709  0.7176008417300110   T   T   T
  0.2692621763289083  0.5094549783793241  0.7085311261073386   T   T   T
  0.4043620567716957  0.5776458765028494  0.7650820461048561   T   T   T
 
  0.00000000E+00  0.00000000E+00  0.00000000E+00
  0.00000000E+00  0.00000000E+00  0.00000000E+00
  0.00000000E+00  0.00000000E+00  0.00000000E+00
  0.00000000E+00  0.00000000E+00  0.00000000E+00
  0.00000000E+00  0.00000000E+00  0.00000000E+00
  0.00000000E+00  0.00000000E+00  0.00000000E+00
  0.00000000E+00  0.00000000E+00  0.00000000E+00
  0.00000000E+00  0.00000000E+00  0.00000000E+00
  0.00000000E+00  0.00000000E+00  0.00000000E+00
  0.00000000E+00  0.00000000E+00  0.00000000E+00
  0.00000000E+00  0.00000000E+00  0.00000000E+00
  0.00000000E+00  0.00000000E+00  0.00000000E+00
  0.00000000E+00  0.00000000E+00  0.00000000E+00
  0.00000000E+00  0.00000000E+00  0.00000000E+00
  0.00000000E+00  0.00000000E+00  0.00000000E+00
  0.00000000E+00  0.00000000E+00  0.00000000E+00
  0.00000000E+00  0.00000000E+00  0.00000000E+00
  0.00000000E+00  0.00000000E+00  0.00000000E+00
  0.00000000E+00  0.00000000E+00  0.00000000E+00
  0.00000000E+00  0.00000000E+00  0.00000000E+00
  0.00000000E+00  0.00000000E+00  0.00000000E+00
  0.00000000E+00  0.00000000E+00  0.00000000E+00
  0.00000000E+00  0.00000000E+00  0.00000000E+00
  0.00000000E+00  0.00000000E+00  0.00000000E+00
  0.00000000E+00  0.00000000E+00  0.00000000E+00
  0.00000000E+00  0.00000000E+00  0.00000000E+00
  0.00000000E+00  0.00000000E+00  0.00000000E+00
  0.00000000E+00  0.00000000E+00  0.00000000E+00
  0.00000000E+00  0.00000000E+00  0.00000000E+00
  0.00000000E+00  0.00000000E+00  0.00000000E+00
  0.00000000E+00  0.00000000E+00  0.00000000E+00
  0.00000000E+00  0.00000000E+00  0.00000000E+00
  0.00000000E+00  0.00000000E+00  0.00000000E+00
  0.00000000E+00  0.00000000E+00  0.00000000E+00
  0.00000000E+00  0.00000000E+00  0.00000000E+00
  0.00000000E+00  0.00000000E+00  0.00000000E+00
  0.00000000E+00  0.00000000E+00  0.00000000E+00
  0.00000000E+00  0.00000000E+00  0.00000000E+00
  0.00000000E+00  0.00000000E+00  0.00000000E+00
  0.00000000E+00  0.00000000E+00  0.00000000E+00
  0.00000000E+00  0.00000000E+00  0.00000000E+00
  0.00000000E+00  0.00000000E+00  0.00000000E+00
  0.00000000E+00  0.00000000E+00  0.00000000E+00
  0.00000000E+00  0.00000000E+00  0.00000000E+00
  0.00000000E+00  0.00000000E+00  0.00000000E+00
  0.00000000E+00  0.00000000E+00  0.00000000E+00
  0.00000000E+00  0.00000000E+00  0.00000000E+00
  0.00000000E+00  0.00000000E+00  0.00000000E+00
  0.00000000E+00  0.00000000E+00  0.00000000E+00
  0.00000000E+00  0.00000000E+00  0.00000000E+00
  0.00000000E+00  0.00000000E+00  0.00000000E+00
  0.00000000E+00  0.00000000E+00  0.00000000E+00
  0.00000000E+00  0.00000000E+00  0.00000000E+00
  0.00000000E+00  0.00000000E+00  0.00000000E+00
  0.00000000E+00  0.00000000E+00  0.00000000E+00
  0.00000000E+00  0.00000000E+00  0.00000000E+00
  0.00000000E+00  0.00000000E+00  0.00000000E+00
  0.00000000E+00  0.00000000E+00  0.00000000E+00
  0.00000000E+00  0.00000000E+00  0.00000000E+00
  0.00000000E+00  0.00000000E+00  0.00000000E+00
  0.00000000E+00  0.00000000E+00  0.00000000E+00
  0.00000000E+00  0.00000000E+00  0.00000000E+00
  0.00000000E+00  0.00000000E+00  0.00000000E+00
  0.00000000E+00  0.00000000E+00  0.00000000E+00
  0.00000000E+00  0.00000000E+00  0.00000000E+00
  0.00000000E+00  0.00000000E+00  0.00000000E+00
  0.00000000E+00  0.00000000E+00  0.00000000E+00
  0.00000000E+00  0.00000000E+00  0.00000000E+00
  0.00000000E+00  0.00000000E+00  0.00000000E+00
  0.00000000E+00  0.00000000E+00  0.00000000E+00
  0.00000000E+00  0.00000000E+00  0.00000000E+00
  0.00000000E+00  0.00000000E+00  0.00000000E+00
  0.00000000E+00  0.00000000E+00  0.00000000E+00
  0.00000000E+00  0.00000000E+00  0.00000000E+00
  0.00000000E+00  0.00000000E+00  0.00000000E+00
  0.00000000E+00  0.00000000E+00  0.00000000E+00
  0.00000000E+00  0.00000000E+00  0.00000000E+00
  0.00000000E+00  0.00000000E+00  0.00000000E+00
  0.00000000E+00  0.00000000E+00  0.00000000E+00
  0.00000000E+00  0.00000000E+00  0.00000000E+00
  0.00000000E+00  0.00000000E+00  0.00000000E+00
  0.00000000E+00  0.00000000E+00  0.00000000E+00
  0.00000000E+00  0.00000000E+00  0.00000000E+00
