CONTCAR                                 
   1.00000000000000     
     9.7571001052999993    0.0000000000000000    0.0000000000000000
    -3.0063686365000000   15.8319856181999992    0.0000000000000000
     0.0000000000000000    0.0000000000000000   18.2793006897000012
   V    P    S    O    H 
     4     8    26     2     1
Selective dynamics
Direct
  0.6190532043656631  0.6049123148251994  0.4976327844637893   F   F   F
  0.5911981591896307  0.0886187531433862  0.4923824206801584   F   F   F
  0.3811216445429864  0.3943144016227649  0.5032151950874919   F   F   F
  0.3993822976505115  0.9150018335076879  0.4915578518897163   F   F   F
  0.8131153187775197  0.2518784385791335  0.4921328474568867   F   F   F
  0.6931403759988015  0.4318964061798169  0.5363049880513771   F   F   F
  0.1836413868083966  0.7478805301075653  0.5032777230306564   F   F   F
  0.1659231290480889  0.2377518118758672  0.4957210209516418   F   F   F
  0.2669197210330978  0.0782012709201965  0.5924742971237080   F   F   F
  0.7046900328788297  0.9319495869125376  0.4635635087173071   F   F   F
  0.3078342255187607  0.5680061404168484  0.4618915571751572   F   F   F
  0.8366838141407271  0.7595833423452447  0.5068969412256550   F   F   F
  0.1129944128548672  0.1056262818682114  0.5185763482881285   F   F   F
  0.8955441077553132  0.8907890316119307  0.4795864454873140   F   F   F
  0.0095429676589518  0.7504769198008390  0.5752811004747329   F   F   F
  0.3987113750291442  0.0343448632228700  0.4277052362138178   F   F   F
  0.5363465325549726  0.3558287477838959  0.5905565372900412   F   F   F
  0.2362917977787973  0.4552478081434046  0.4151664156559960   F   F   F
  0.1919309271039893  0.3168426152012245  0.5809475691599317   F   F   F
  0.6688127319706538  0.7300979950760222  0.5729489234389007   F   F   F
  0.4662906188391815  0.6445747678350671  0.4090995271830167   F   F   F
  0.6035927567391326  0.4596000369190634  0.4389055212218054   F   F   F
  0.6507806838885912  0.2259175632771644  0.4233643703796446   F   F   F
  0.8777063613334093  0.3820743841572138  0.5216957429395421   F   F   F
  0.9931077797737942  0.2436219526595451  0.4251389403898216   F   F   F
  0.6090077225672061  0.9623274661232131  0.5609877273778849   F   F   F
  0.8087981703920875  0.6818282120580790  0.4205633818062395   F   F   F
  0.3944335080235959  0.5409397347590286  0.5604935572720393   F   F   F
  0.2033270481001708  0.8292748940894299  0.4194769619697496   F   F   F
  0.7660982459899728  0.5438608202615782  0.5840732387218353   F   F   F
  0.5517618822942580  0.8507741210377517  0.4137199292243352   F   F   F
  0.2487137012939655  0.9518628027860103  0.5920871356908677   F   F   F
  0.3495284440655837  0.7764444487838844  0.5683486615083595   F   F   F
  0.7814379186370246  0.1725560601096348  0.5764074083839787   F   F   F
  0.7655732596277076  0.0444980849457792  0.4144420052018987   F   F   F
  0.4587739446379047  0.1483063609384700  0.5881604992080014   F   F   F
  0.1226964828760586  0.6177353895213784  0.4715904494830951   F   F   F
  0.3323514803913170  0.2706239339977401  0.4287609403053168   F   F   F
  0.1844697150860313  0.1045714204860602  0.6656816637944232   T   T   T
  0.2629893319248708  0.0889961785232884  0.7321282229344419   T   T   T
  0.2201326738584370  0.0297723855859715  0.7411639668210681   T   T   T
 
  0.00000000E+00  0.00000000E+00  0.00000000E+00
  0.00000000E+00  0.00000000E+00  0.00000000E+00
  0.00000000E+00  0.00000000E+00  0.00000000E+00
  0.00000000E+00  0.00000000E+00  0.00000000E+00
  0.00000000E+00  0.00000000E+00  0.00000000E+00
  0.00000000E+00  0.00000000E+00  0.00000000E+00
  0.00000000E+00  0.00000000E+00  0.00000000E+00
  0.00000000E+00  0.00000000E+00  0.00000000E+00
  0.00000000E+00  0.00000000E+00  0.00000000E+00
  0.00000000E+00  0.00000000E+00  0.00000000E+00
  0.00000000E+00  0.00000000E+00  0.00000000E+00
  0.00000000E+00  0.00000000E+00  0.00000000E+00
  0.00000000E+00  0.00000000E+00  0.00000000E+00
  0.00000000E+00  0.00000000E+00  0.00000000E+00
  0.00000000E+00  0.00000000E+00  0.00000000E+00
  0.00000000E+00  0.00000000E+00  0.00000000E+00
  0.00000000E+00  0.00000000E+00  0.00000000E+00
  0.00000000E+00  0.00000000E+00  0.00000000E+00
  0.00000000E+00  0.00000000E+00  0.00000000E+00
  0.00000000E+00  0.00000000E+00  0.00000000E+00
  0.00000000E+00  0.00000000E+00  0.00000000E+00
  0.00000000E+00  0.00000000E+00  0.00000000E+00
  0.00000000E+00  0.00000000E+00  0.00000000E+00
  0.00000000E+00  0.00000000E+00  0.00000000E+00
  0.00000000E+00  0.00000000E+00  0.00000000E+00
  0.00000000E+00  0.00000000E+00  0.00000000E+00
  0.00000000E+00  0.00000000E+00  0.00000000E+00
  0.00000000E+00  0.00000000E+00  0.00000000E+00
  0.00000000E+00  0.00000000E+00  0.00000000E+00
  0.00000000E+00  0.00000000E+00  0.00000000E+00
  0.00000000E+00  0.00000000E+00  0.00000000E+00
  0.00000000E+00  0.00000000E+00  0.00000000E+00
  0.00000000E+00  0.00000000E+00  0.00000000E+00
  0.00000000E+00  0.00000000E+00  0.00000000E+00
  0.00000000E+00  0.00000000E+00  0.00000000E+00
  0.00000000E+00  0.00000000E+00  0.00000000E+00
  0.00000000E+00  0.00000000E+00  0.00000000E+00
  0.00000000E+00  0.00000000E+00  0.00000000E+00
  0.00000000E+00  0.00000000E+00  0.00000000E+00
  0.00000000E+00  0.00000000E+00  0.00000000E+00
  0.00000000E+00  0.00000000E+00  0.00000000E+00
