CONTCAR\(6)                             
   1.00000000000000     
    13.3114004134999995    0.0000000000000000    0.0000000000000000
     0.0000000000000000   13.2841997146999997    0.0000000000000000
     0.0000000000000000    0.0000000000000000   29.9494991301999995
   Bi   I    O    H 
    54    12     1     1
Direct
  0.2499102581445172  0.6568821973742445  0.6529438805313816
  0.0819457168189928  0.3435705461318648  0.3471651334783417
  0.2497103178127205  0.3016232715090723  0.4151685094840687
  0.0838038220287842  0.7011395778352778  0.5847208040251246
  0.2496386517084801  0.0792467386480453  0.3861938182658449
  0.0843137525296029  0.9231836566680229  0.6135883668208422
  0.2529359793286332  0.9755636815580928  0.5488677880562136
  0.0838509559919558  0.0241099300366088  0.4526029716590330
  0.2505686426169831  0.2001608906583883  0.5746085454003094
  0.0825328787584496  0.8007351431884615  0.4245923783100025
  0.2497789932809056  0.7538138438628366  0.4915602420751668
  0.0838016503592982  0.2499918683309517  0.5080242196391325
  0.2496491333695374  0.5280199113445860  0.4666372053036554
  0.0838569528825843  0.4754748908386546  0.5330176088171825
  0.0823570066541848  0.5671550523553108  0.3709314846925551
  0.2490113635261224  0.4330221399047147  0.6292358981349295
  0.0826908992511406  0.3820201696423382  0.6975968750266404
  0.2500825888618010  0.6171024414676651  0.3030585994318002
  0.5831768619042634  0.6723786220649259  0.6551939430475997
  0.4179024965464464  0.3435118234850663  0.3472964834289769
  0.5834151064324331  0.3001433272463672  0.4161058303515048
  0.4161339571837743  0.7008766669938780  0.5848554400881625
  0.5838433007056381  0.0791253136012813  0.3861803749064592
  0.4199821626671039  0.9217774815330912  0.6167889821730128
  0.5830429974832185  0.9763831711986626  0.5502494344735354
  0.4166371407385370  0.0254633107348710  0.4518675637768368
  0.5829882418158547  0.2083913558186552  0.5782859731443679
  0.4165091835371797  0.8017936250416682  0.4245103000574346
  0.5813539045827554  0.7564604243358701  0.4931042899933971
  0.4181086319552705  0.2503867151925618  0.5084755418431826
  0.5820508948003749  0.5290490161175612  0.4672526901045870
  0.4158397375033189  0.4760776640228954  0.5330141439700782
  0.4173953364734615  0.5671182883661245  0.3710949421809886
  0.5821857790803904  0.4278064015428527  0.6266240368824327
  0.4184961402453311  0.3806248937643062  0.6959697286113524
  0.5830417813992597  0.6162571338103362  0.3023375283347889
  0.9183771040925137  0.6563458274945617  0.6530355005443198
  0.7499792958809266  0.3430173617465542  0.3474331267546447
  0.9166092495927032  0.3006661466537892  0.4158379667825685
  0.7514822518600326  0.6999980505413745  0.5851984868586371
  0.9173114178045481  0.0785591215726384  0.3865147352617697
  0.7476831195037619  0.9213956508753398  0.6163399092508683
  0.9155813436996141  0.9758627267577111  0.5488976681947477
  0.7503236513972880  0.0255018795833664  0.4521221317715529
  0.9181810602284060  0.1999240786487348  0.5753242819473599
  0.7492850049173967  0.8011308423512418  0.4256469583599838
  0.9165010250607608  0.7530403176597886  0.4921319272007523
  0.7497443434771469  0.2498433514495133  0.5095538862173896
  0.9181450916535638  0.5279293480150500  0.4666711026221719
  0.7499604876397612  0.4761916371002712  0.5324508212110075
  0.7493529450687575  0.5667119527076849  0.3708266966623981
  0.9174145710688109  0.4326867737767230  0.6288070252704401
  0.7479944301839581  0.3803986720891004  0.6954823535053976
  0.9161754671738223  0.6174951014002659  0.3025385898026869
  0.0826643636288580  0.5929026425334882  0.7405624974114460
  0.2508104851751298  0.4064909630941571  0.2603794575564748
  0.0838128372772502  0.1566353455079081  0.6692001822097922
  0.2499670630585626  0.8434119265707167  0.3312166050601704
  0.4194118526663146  0.5919153216985791  0.7397360278137270
  0.5827148060956233  0.4044737724923451  0.2598264330728455
  0.4141949482022085  0.1529444069585679  0.6702165757312315
  0.5830637356011010  0.8409286555508118  0.3312860067089147
  0.7480838653833501  0.5915191201972334  0.7395313452774914
  0.9169199039880240  0.4066582597323247  0.2598822993137659
  0.7523075374294166  0.1525490265703979  0.6699432438331030
  0.9147966620775634  0.8433286094369805  0.3311716131516746
  0.5831494153888670  0.8422360542336165  0.6671215359631404
  0.5836371497446748  0.8585055527729395  0.6990116541566351
 
  0.00000000E+00  0.00000000E+00  0.00000000E+00
  0.00000000E+00  0.00000000E+00  0.00000000E+00
  0.00000000E+00  0.00000000E+00  0.00000000E+00
  0.00000000E+00  0.00000000E+00  0.00000000E+00
  0.00000000E+00  0.00000000E+00  0.00000000E+00
  0.00000000E+00  0.00000000E+00  0.00000000E+00
  0.00000000E+00  0.00000000E+00  0.00000000E+00
  0.00000000E+00  0.00000000E+00  0.00000000E+00
  0.00000000E+00  0.00000000E+00  0.00000000E+00
  0.00000000E+00  0.00000000E+00  0.00000000E+00
  0.00000000E+00  0.00000000E+00  0.00000000E+00
  0.00000000E+00  0.00000000E+00  0.00000000E+00
  0.00000000E+00  0.00000000E+00  0.00000000E+00
  0.00000000E+00  0.00000000E+00  0.00000000E+00
  0.00000000E+00  0.00000000E+00  0.00000000E+00
  0.00000000E+00  0.00000000E+00  0.00000000E+00
  0.00000000E+00  0.00000000E+00  0.00000000E+00
  0.00000000E+00  0.00000000E+00  0.00000000E+00
  0.00000000E+00  0.00000000E+00  0.00000000E+00
  0.00000000E+00  0.00000000E+00  0.00000000E+00
  0.00000000E+00  0.00000000E+00  0.00000000E+00
  0.00000000E+00  0.00000000E+00  0.00000000E+00
  0.00000000E+00  0.00000000E+00  0.00000000E+00
  0.00000000E+00  0.00000000E+00  0.00000000E+00
  0.00000000E+00  0.00000000E+00  0.00000000E+00
  0.00000000E+00  0.00000000E+00  0.00000000E+00
  0.00000000E+00  0.00000000E+00  0.00000000E+00
  0.00000000E+00  0.00000000E+00  0.00000000E+00
  0.00000000E+00  0.00000000E+00  0.00000000E+00
  0.00000000E+00  0.00000000E+00  0.00000000E+00
  0.00000000E+00  0.00000000E+00  0.00000000E+00
  0.00000000E+00  0.00000000E+00  0.00000000E+00
  0.00000000E+00  0.00000000E+00  0.00000000E+00
  0.00000000E+00  0.00000000E+00  0.00000000E+00
  0.00000000E+00  0.00000000E+00  0.00000000E+00
  0.00000000E+00  0.00000000E+00  0.00000000E+00
  0.00000000E+00  0.00000000E+00  0.00000000E+00
  0.00000000E+00  0.00000000E+00  0.00000000E+00
  0.00000000E+00  0.00000000E+00  0.00000000E+00
  0.00000000E+00  0.00000000E+00  0.00000000E+00
  0.00000000E+00  0.00000000E+00  0.00000000E+00
  0.00000000E+00  0.00000000E+00  0.00000000E+00
  0.00000000E+00  0.00000000E+00  0.00000000E+00
  0.00000000E+00  0.00000000E+00  0.00000000E+00
  0.00000000E+00  0.00000000E+00  0.00000000E+00
  0.00000000E+00  0.00000000E+00  0.00000000E+00
  0.00000000E+00  0.00000000E+00  0.00000000E+00
  0.00000000E+00  0.00000000E+00  0.00000000E+00
  0.00000000E+00  0.00000000E+00  0.00000000E+00
  0.00000000E+00  0.00000000E+00  0.00000000E+00
  0.00000000E+00  0.00000000E+00  0.00000000E+00
  0.00000000E+00  0.00000000E+00  0.00000000E+00
  0.00000000E+00  0.00000000E+00  0.00000000E+00
  0.00000000E+00  0.00000000E+00  0.00000000E+00
  0.00000000E+00  0.00000000E+00  0.00000000E+00
  0.00000000E+00  0.00000000E+00  0.00000000E+00
  0.00000000E+00  0.00000000E+00  0.00000000E+00
  0.00000000E+00  0.00000000E+00  0.00000000E+00
  0.00000000E+00  0.00000000E+00  0.00000000E+00
  0.00000000E+00  0.00000000E+00  0.00000000E+00
  0.00000000E+00  0.00000000E+00  0.00000000E+00
  0.00000000E+00  0.00000000E+00  0.00000000E+00
  0.00000000E+00  0.00000000E+00  0.00000000E+00
  0.00000000E+00  0.00000000E+00  0.00000000E+00
  0.00000000E+00  0.00000000E+00  0.00000000E+00
  0.00000000E+00  0.00000000E+00  0.00000000E+00
  0.00000000E+00  0.00000000E+00  0.00000000E+00
  0.00000000E+00  0.00000000E+00  0.00000000E+00
