 Nb4 Ir1 Se10                           
   1.00000000000000     
     6.0672849806525724    0.0000000000000000    0.0000000000000000
     2.7990668392803855    8.7964433449810695    0.0000000000000000
     0.0000000000000000    0.0000000000000000   18.4081236356679980
   Nb   Ir   Se
     4     1    10
Direct
  0.6575780710335009  0.8063727987309882  0.4997598810674814
  0.7431182273105851  0.4090730240580235  0.5012948316829597
  0.0911411614336748  0.0025514552346253  0.4987641283225053
  0.1761317524320888  0.6056928443748021  0.5001743467616222
  0.4172277415421502  0.2056317574222557  0.5000319287189519
  0.3792038255694033  0.0099339632295448  0.5943581726858945
  0.0812640038529731  0.2158385142548436  0.4142993762550046
  0.5319736107466826  0.6112628118198955  0.5883694590725304
  0.3020178107950973  0.8003874783082220  0.4115975504459444
  0.7532001412729715  0.1956945717009706  0.5857336733334219
  0.4551019691034855  0.4016851046619032  0.4057556233349254
  0.9659295872310305  0.8109499333511990  0.5928452001696585
  0.7009505332887138  0.0145284298487930  0.4173339303814586
  0.1333764752629903  0.3970898795875044  0.5825285421687422
  0.8680610891246520  0.6007224334164362  0.4071533555988852
 
  0.00000000E+00  0.00000000E+00  0.00000000E+00
  0.00000000E+00  0.00000000E+00  0.00000000E+00
  0.00000000E+00  0.00000000E+00  0.00000000E+00
  0.00000000E+00  0.00000000E+00  0.00000000E+00
  0.00000000E+00  0.00000000E+00  0.00000000E+00
  0.00000000E+00  0.00000000E+00  0.00000000E+00
  0.00000000E+00  0.00000000E+00  0.00000000E+00
  0.00000000E+00  0.00000000E+00  0.00000000E+00
  0.00000000E+00  0.00000000E+00  0.00000000E+00
  0.00000000E+00  0.00000000E+00  0.00000000E+00
  0.00000000E+00  0.00000000E+00  0.00000000E+00
  0.00000000E+00  0.00000000E+00  0.00000000E+00
  0.00000000E+00  0.00000000E+00  0.00000000E+00
  0.00000000E+00  0.00000000E+00  0.00000000E+00
  0.00000000E+00  0.00000000E+00  0.00000000E+00
