CONTCAR                                 
   1.00000000000000     
    14.1683998108000004    0.0000000000000000    0.0000000000000000
     0.0000000000000000   20.5298995972000000    0.0000000000000000
     0.0000000000000000    0.0000000000000000   19.1021003723000007
   Nb   Te   O    H 
    32    48     2     1
Direct
  0.0623930899243348  0.1366321129452572  0.5476193930766087
  0.1872804426685875  0.0766045451630504  0.4497462381618078
  0.0621985961051976  0.2948046046621329  0.4994990172706011
  0.1881915392248317  0.4182201437493944  0.5030045914074748
  0.3119181364919470  0.1366012143476993  0.5477599428965476
  0.4372308490846848  0.0765525726588621  0.4501857862452638
  0.3122175824631768  0.2941775388517343  0.4994292376087301
  0.4380552441741088  0.4166642204520130  0.5031861369524577
  0.5625341864143678  0.1364644785753839  0.5479139264839432
  0.6878889996666402  0.0763810244185663  0.4502894809032725
  0.5626736520646745  0.2936290897450604  0.4995997913308017
  0.6872624415482491  0.4167612574538211  0.5032558882370068
  0.8129746784783336  0.1365069578899494  0.5478432050625912
  0.9378984012416396  0.0765279586693168  0.4497797738040887
  0.8130295150738647  0.2942376267903342  0.4994272380425500
  0.9369421989058750  0.4181971691602868  0.5028236613588746
  0.0625359231646101  0.6361843150590261  0.5512167523455460
  0.1865945235037429  0.5760053947788606  0.4543695478423118
  0.0624285493711412  0.7946848772183301  0.4977379431958013
  0.1871433965450251  0.9188939585997318  0.4991058164764723
  0.3181147826052069  0.6361089049341331  0.5540175910081828
  0.4356811947426493  0.5760021136934839  0.4579215737855762
  0.3133421479120315  0.7955322924187627  0.4982517815807270
  0.4371767582142851  0.9195346368612434  0.5002593537106961
  0.5627659036263282  0.6365954419565156  0.5690648865396426
  0.6891920492136023  0.5760572745003927  0.4583398321435581
  0.5625238619949258  0.7954743082369760  0.5016301931833880
  0.6875432393196235  0.9195461967901366  0.5001907519412683
  0.8069815842877404  0.6361532748889900  0.5544611357556164
  0.9388187051155370  0.5760309569252016  0.4545175411963314
  0.8117362849500225  0.7955317869565306  0.4982664907401926
  0.9381759345060061  0.9188269275466396  0.4991047323405837
  0.1873523416054894  0.3299386991683519  0.3937051652364900
  0.0625742449626188  0.1754600848960806  0.4088078172320166
  0.1871426426165925  0.2319917743680691  0.6000065533674146
  0.0625979408651460  0.4807233011982248  0.4020533146649541
  0.0625143867899283  0.3840774845099162  0.6086399900081858
  0.1871752588294626  0.0382368319831556  0.5888149588330549
  0.4378147718252876  0.3286076920351704  0.3935097527348788
  0.3122424368367760  0.1752213936361926  0.4087302878941372
  0.4373520577535501  0.2313080338086664  0.6003042912038694
  0.3136058028983655  0.4811219661146140  0.4027504396868338
  0.3117930030859526  0.3821260514622722  0.6092219006390494
  0.4371661359466046  0.0386262389931034  0.5894695487521915
  0.6874081643453707  0.3288088398473121  0.3936075548877938
  0.5627350915052531  0.1746933080088482  0.4087986076752941
  0.6877560859433487  0.2313773302534443  0.6002841125505043
  0.5625238136582666  0.4809716072014822  0.4058989786237177
  0.5626778696342782  0.3815148770163290  0.6094665298662179
  0.6877420633373603  0.0385650841023804  0.5896424666363771
  0.9374691527874646  0.3299756325981420  0.3933508456293069
  0.8126429527579191  0.1750484095119162  0.4088379751006670
  0.9376781677672597  0.2320682977392536  0.6002014644037459
  0.8115296998068757  0.4813111384587501  0.4029060086281291
  0.8137167219322237  0.3822816517246110  0.6091654124993724
  0.9377508055627573  0.0380984872812036  0.5888458142100959
  0.1876697654476374  0.8288101580978235  0.3914223389227871
  0.0626529531606508  0.6739588998647008  0.4116176053648175
  0.1877401360665942  0.7334538948297862  0.5992116160718268
  0.0626098172669174  0.9806861492621692  0.3979356363393691
  0.0626099187085458  0.8845578972996933  0.6056987529622688
  0.1882839158935994  0.5383492502285208  0.5936691481790106
  0.4392147544735394  0.8287186855837803  0.3928091555068107
  0.3129882967389221  0.6736878274531222  0.4142605731911502
  0.4332966736893482  0.7390718224830621  0.6021761807609494
  0.3126713310491667  0.9807068094879625  0.3982839359523709
  0.3113724250371135  0.8858604631051605  0.6061370363077003
  0.4348521170818884  0.5323156134695353  0.5933003261715726
  0.6859471963982955  0.8287236383698726  0.3928314972720983
  0.5626455237618870  0.6736761959172881  0.4215730487853548
  0.6917938141158473  0.7391950110835879  0.6023646950688430
  0.5624186275460801  0.9807236098698269  0.3990193397777659
  0.5624071407425646  0.8869862107025384  0.6076122480775439
  0.6903759695767349  0.5322931263323696  0.5938871204842329
  0.9373564279219480  0.8287910173035939  0.3913388085513887
  0.8121756196679044  0.6736067855162844  0.4147598133413553
  0.9373750986810450  0.7336601770179598  0.5993747171160280
  0.8125625868024144  0.9806541298050249  0.3983834236207073
  0.8135250874629207  0.8860478499221003  0.6059066634692627
  0.9372262283879635  0.5383456464239913  0.5937351337810099
  0.5607370990206491  0.6416123342943436  0.6733254986934867
  0.5614752440300848  0.5938435768914943  0.7289732727970275
  0.5665112466126772  0.5522437405690397  0.7030037748404041
 
  0.00000000E+00  0.00000000E+00  0.00000000E+00
  0.00000000E+00  0.00000000E+00  0.00000000E+00
  0.00000000E+00  0.00000000E+00  0.00000000E+00
  0.00000000E+00  0.00000000E+00  0.00000000E+00
  0.00000000E+00  0.00000000E+00  0.00000000E+00
  0.00000000E+00  0.00000000E+00  0.00000000E+00
  0.00000000E+00  0.00000000E+00  0.00000000E+00
  0.00000000E+00  0.00000000E+00  0.00000000E+00
  0.00000000E+00  0.00000000E+00  0.00000000E+00
  0.00000000E+00  0.00000000E+00  0.00000000E+00
  0.00000000E+00  0.00000000E+00  0.00000000E+00
  0.00000000E+00  0.00000000E+00  0.00000000E+00
  0.00000000E+00  0.00000000E+00  0.00000000E+00
  0.00000000E+00  0.00000000E+00  0.00000000E+00
  0.00000000E+00  0.00000000E+00  0.00000000E+00
  0.00000000E+00  0.00000000E+00  0.00000000E+00
  0.00000000E+00  0.00000000E+00  0.00000000E+00
  0.00000000E+00  0.00000000E+00  0.00000000E+00
  0.00000000E+00  0.00000000E+00  0.00000000E+00
  0.00000000E+00  0.00000000E+00  0.00000000E+00
  0.00000000E+00  0.00000000E+00  0.00000000E+00
  0.00000000E+00  0.00000000E+00  0.00000000E+00
  0.00000000E+00  0.00000000E+00  0.00000000E+00
  0.00000000E+00  0.00000000E+00  0.00000000E+00
  0.00000000E+00  0.00000000E+00  0.00000000E+00
  0.00000000E+00  0.00000000E+00  0.00000000E+00
  0.00000000E+00  0.00000000E+00  0.00000000E+00
  0.00000000E+00  0.00000000E+00  0.00000000E+00
  0.00000000E+00  0.00000000E+00  0.00000000E+00
  0.00000000E+00  0.00000000E+00  0.00000000E+00
  0.00000000E+00  0.00000000E+00  0.00000000E+00
  0.00000000E+00  0.00000000E+00  0.00000000E+00
  0.00000000E+00  0.00000000E+00  0.00000000E+00
  0.00000000E+00  0.00000000E+00  0.00000000E+00
  0.00000000E+00  0.00000000E+00  0.00000000E+00
  0.00000000E+00  0.00000000E+00  0.00000000E+00
  0.00000000E+00  0.00000000E+00  0.00000000E+00
  0.00000000E+00  0.00000000E+00  0.00000000E+00
  0.00000000E+00  0.00000000E+00  0.00000000E+00
  0.00000000E+00  0.00000000E+00  0.00000000E+00
  0.00000000E+00  0.00000000E+00  0.00000000E+00
  0.00000000E+00  0.00000000E+00  0.00000000E+00
  0.00000000E+00  0.00000000E+00  0.00000000E+00
  0.00000000E+00  0.00000000E+00  0.00000000E+00
  0.00000000E+00  0.00000000E+00  0.00000000E+00
  0.00000000E+00  0.00000000E+00  0.00000000E+00
  0.00000000E+00  0.00000000E+00  0.00000000E+00
  0.00000000E+00  0.00000000E+00  0.00000000E+00
  0.00000000E+00  0.00000000E+00  0.00000000E+00
  0.00000000E+00  0.00000000E+00  0.00000000E+00
  0.00000000E+00  0.00000000E+00  0.00000000E+00
  0.00000000E+00  0.00000000E+00  0.00000000E+00
  0.00000000E+00  0.00000000E+00  0.00000000E+00
  0.00000000E+00  0.00000000E+00  0.00000000E+00
  0.00000000E+00  0.00000000E+00  0.00000000E+00
  0.00000000E+00  0.00000000E+00  0.00000000E+00
  0.00000000E+00  0.00000000E+00  0.00000000E+00
  0.00000000E+00  0.00000000E+00  0.00000000E+00
  0.00000000E+00  0.00000000E+00  0.00000000E+00
  0.00000000E+00  0.00000000E+00  0.00000000E+00
  0.00000000E+00  0.00000000E+00  0.00000000E+00
  0.00000000E+00  0.00000000E+00  0.00000000E+00
  0.00000000E+00  0.00000000E+00  0.00000000E+00
  0.00000000E+00  0.00000000E+00  0.00000000E+00
  0.00000000E+00  0.00000000E+00  0.00000000E+00
  0.00000000E+00  0.00000000E+00  0.00000000E+00
  0.00000000E+00  0.00000000E+00  0.00000000E+00
  0.00000000E+00  0.00000000E+00  0.00000000E+00
  0.00000000E+00  0.00000000E+00  0.00000000E+00
  0.00000000E+00  0.00000000E+00  0.00000000E+00
  0.00000000E+00  0.00000000E+00  0.00000000E+00
  0.00000000E+00  0.00000000E+00  0.00000000E+00
  0.00000000E+00  0.00000000E+00  0.00000000E+00
  0.00000000E+00  0.00000000E+00  0.00000000E+00
  0.00000000E+00  0.00000000E+00  0.00000000E+00
  0.00000000E+00  0.00000000E+00  0.00000000E+00
  0.00000000E+00  0.00000000E+00  0.00000000E+00
  0.00000000E+00  0.00000000E+00  0.00000000E+00
  0.00000000E+00  0.00000000E+00  0.00000000E+00
  0.00000000E+00  0.00000000E+00  0.00000000E+00
  0.00000000E+00  0.00000000E+00  0.00000000E+00
  0.00000000E+00  0.00000000E+00  0.00000000E+00
  0.00000000E+00  0.00000000E+00  0.00000000E+00
