CONTCAR\(4)                             
   1.00000000000000     
    13.4069995879999997    0.0000000000000000    0.0000000000000000
     0.0000000000000000   14.7997999190999998    0.0000000000000000
     0.0000000000000000    0.0000000000000000   22.4342994689999990
   Ta   S    O 
    24    72     1
Direct
  0.1859594319701663  0.0873936406906458  0.4408013920102893
  0.0618187650577796  0.9152289258303631  0.5604590961439466
  0.1858728589538050  0.7549519967350796  0.4266066189210960
  0.0612803018035028  0.2466776721380325  0.5740747142270440
  0.1852255679902751  0.5057119644227751  0.5821609494430923
  0.0610397763614592  0.4961515883143381  0.4184233882385242
  0.4361543376497901  0.0868438474304436  0.4411441751024194
  0.3087964549629590  0.9146836456262633  0.5606477665431790
  0.4362600665853568  0.7552555799709955  0.4269433955368682
  0.3118440989618768  0.2480152823178739  0.5743108120535481
  0.4364296993855607  0.5072779285995689  0.5821712629699076
  0.3112269965799629  0.4964828703153534  0.4185300378164340
  0.6861636085988394  0.0873458566719909  0.4408307125123360
  0.5633041354245308  0.9146184827623128  0.5607559456033677
  0.6865515656851698  0.7549851124557313  0.4266928259042720
  0.5606779247154758  0.2479783431580871  0.5743476642760216
  0.6875377164222634  0.5057253648763119  0.5822559021672934
  0.5615821466462475  0.4965220664189214  0.4185751152371471
  0.9360799249271168  0.0873142354459511  0.4407752224989638
  0.8104029427052725  0.9151933617384491  0.5604774043003582
  0.9361698903036448  0.7552360424937221  0.4269484777936565
  0.8111531054146951  0.2466674721816681  0.5741225618473322
  0.9363408391838526  0.5056059994052405  0.5824201757335487
  0.8115376572152490  0.4961205917440347  0.4184449000795989
  0.1855316735188988  0.9214820794513833  0.4771546319399665
  0.0612558779440578  0.0804501814134557  0.5235765874703630
  0.1854932915077676  0.9806180487418382  0.6336434020348606
  0.0610409479526935  0.0232131988127687  0.3678117565419054
  0.1850143571028161  0.8341823804976853  0.6253313301049086
  0.0611185324660988  0.1682447097166757  0.3760364312713798
  0.1863772200180761  0.1584371407480871  0.6307549720975669
  0.0609348815529529  0.8438592868505472  0.3704538295777666
  0.1859901488545459  0.3466078532603752  0.6272221761678971
  0.0609150160248952  0.6554807617183835  0.3735417088841362
  0.1861221548411939  0.2456021539801052  0.4896718936348320
  0.0612700552909694  0.7567659321067428  0.5113867172713046
  0.1864653972988818  0.4808093014660371  0.3348315175535582
  0.0612267228126079  0.5215023579197993  0.6661906144041876
  0.1858870318743942  0.5828967717768176  0.4781002744278993
  0.0610730150927883  0.4189963946570951  0.5223474658825261
  0.1863754603015794  0.3734265027347389  0.3953707998186183
  0.0610748772272820  0.6288236697454243  0.6057569864755694
  0.4361156875249987  0.9211142692175588  0.4778698236360402
  0.3109160166826004  0.0803961262620314  0.5237639182305388
  0.4359484224331894  0.9783870021280345  0.6328644579402238
  0.3111575842353665  0.0227620739648639  0.3681456099633548
  0.4359790838142368  0.8340448497997718  0.6230222283374038
  0.3114080819813901  0.1680496493925403  0.3764034061355724
  0.4361275546819539  0.1621896766397093  0.6311937531441009
  0.3111313902983900  0.8439361490219932  0.3705647214267539
  0.4363389806275629  0.3490468620102917  0.6269561207514442
  0.3112403184882679  0.6557195581278529  0.3734855621983319
  0.4361564778272748  0.2456870882161077  0.4897479445659752
  0.3104450722705592  0.7563709351575791  0.5112045965910943
  0.4364528613765069  0.4805767742189478  0.3348954712812309
  0.3110259677057215  0.5219843224703873  0.6657021304475497
  0.4362285721791647  0.5835043053142235  0.4780034774143755
  0.3115109042748309  0.4198150117477186  0.5226675985738541
  0.4363841448888996  0.3736322368176457  0.3956765879557362
  0.3099601086239870  0.6286539286244184  0.6049234376480760
  0.6865705953859116  0.9214817703294517  0.4772367042847660
  0.5612810258874548  0.0804423663834376  0.5238736204350923
  0.6867239141581376  0.9805634784920492  0.6336604100046700
  0.5609962382403744  0.0227530728302641  0.3681368009487418
  0.6871678430542186  0.8341213461247625  0.6253968836442013
  0.5607647384616639  0.1680934739856691  0.3764302546503000
  0.6860825409168968  0.1584353477083175  0.6307647643998689
  0.5612035552104644  0.8439955183786454  0.3706109029136788
  0.6865921363044005  0.3465540941563668  0.6272692581429126
  0.5614385427457658  0.6557577844860362  0.3735659565132438
  0.6862479967623836  0.2455579453461530  0.4897008727370300
  0.5618175133024218  0.7563217358230048  0.5112706527362028
  0.6863063686767612  0.4806336599427395  0.3348401734890226
  0.5618129139459100  0.5219232456655913  0.6657756402173477
  0.6867331670116820  0.5829165221307150  0.4782075010525260
  0.5612050293315256  0.4197988227030321  0.5226859040689996
  0.6863256466255846  0.3733357379199631  0.3954478218711001
  0.5627464614053910  0.6286811577387609  0.6050461401878975
  0.9360947612809244  0.9218714805241865  0.4777289068453983
  0.8109519140712754  0.0804012046196050  0.5235684140536297
  0.9360736426621820  0.9800715234325144  0.6327555534886188
  0.8110719051463529  0.0231685358563214  0.3678461674592303
  0.9360995984644048  0.8341177096576511  0.6241807434586708
  0.8110138293182396  0.1681522123515707  0.3759748171174915
  0.9361534412043322  0.1579445891445815  0.6305832967447352
  0.8112904683778408  0.8437927632119473  0.3704959926313023
  0.9363711887026268  0.3461793432660754  0.6273423965503873
  0.8115185374658033  0.6554638636751380  0.3735615734190152
  0.9361408467720208  0.2452786898980547  0.4896098967309004
  0.8111349348064822  0.7567721108124787  0.5114377722670581
  0.9363847059908292  0.4803290647246010  0.3346993706509914
  0.8116025804917167  0.5213761241087832  0.6662981944276081
  0.9362253419746202  0.5828696687957057  0.4783142721816303
  0.8115579032266382  0.4189087742191955  0.5224168806361487
  0.9363287428046060  0.3730544883946263  0.3952486491086158
  0.8118279091914558  0.6287736930959575  0.6059177322032600
  0.4358179275183970  0.7780706815922257  0.6782144069665750
 
  0.00000000E+00  0.00000000E+00  0.00000000E+00
  0.00000000E+00  0.00000000E+00  0.00000000E+00
  0.00000000E+00  0.00000000E+00  0.00000000E+00
  0.00000000E+00  0.00000000E+00  0.00000000E+00
  0.00000000E+00  0.00000000E+00  0.00000000E+00
  0.00000000E+00  0.00000000E+00  0.00000000E+00
  0.00000000E+00  0.00000000E+00  0.00000000E+00
  0.00000000E+00  0.00000000E+00  0.00000000E+00
  0.00000000E+00  0.00000000E+00  0.00000000E+00
  0.00000000E+00  0.00000000E+00  0.00000000E+00
  0.00000000E+00  0.00000000E+00  0.00000000E+00
  0.00000000E+00  0.00000000E+00  0.00000000E+00
  0.00000000E+00  0.00000000E+00  0.00000000E+00
  0.00000000E+00  0.00000000E+00  0.00000000E+00
  0.00000000E+00  0.00000000E+00  0.00000000E+00
  0.00000000E+00  0.00000000E+00  0.00000000E+00
  0.00000000E+00  0.00000000E+00  0.00000000E+00
  0.00000000E+00  0.00000000E+00  0.00000000E+00
  0.00000000E+00  0.00000000E+00  0.00000000E+00
  0.00000000E+00  0.00000000E+00  0.00000000E+00
  0.00000000E+00  0.00000000E+00  0.00000000E+00
  0.00000000E+00  0.00000000E+00  0.00000000E+00
  0.00000000E+00  0.00000000E+00  0.00000000E+00
  0.00000000E+00  0.00000000E+00  0.00000000E+00
  0.00000000E+00  0.00000000E+00  0.00000000E+00
  0.00000000E+00  0.00000000E+00  0.00000000E+00
  0.00000000E+00  0.00000000E+00  0.00000000E+00
  0.00000000E+00  0.00000000E+00  0.00000000E+00
  0.00000000E+00  0.00000000E+00  0.00000000E+00
  0.00000000E+00  0.00000000E+00  0.00000000E+00
  0.00000000E+00  0.00000000E+00  0.00000000E+00
  0.00000000E+00  0.00000000E+00  0.00000000E+00
  0.00000000E+00  0.00000000E+00  0.00000000E+00
  0.00000000E+00  0.00000000E+00  0.00000000E+00
  0.00000000E+00  0.00000000E+00  0.00000000E+00
  0.00000000E+00  0.00000000E+00  0.00000000E+00
  0.00000000E+00  0.00000000E+00  0.00000000E+00
  0.00000000E+00  0.00000000E+00  0.00000000E+00
  0.00000000E+00  0.00000000E+00  0.00000000E+00
  0.00000000E+00  0.00000000E+00  0.00000000E+00
  0.00000000E+00  0.00000000E+00  0.00000000E+00
  0.00000000E+00  0.00000000E+00  0.00000000E+00
  0.00000000E+00  0.00000000E+00  0.00000000E+00
  0.00000000E+00  0.00000000E+00  0.00000000E+00
  0.00000000E+00  0.00000000E+00  0.00000000E+00
  0.00000000E+00  0.00000000E+00  0.00000000E+00
  0.00000000E+00  0.00000000E+00  0.00000000E+00
  0.00000000E+00  0.00000000E+00  0.00000000E+00
  0.00000000E+00  0.00000000E+00  0.00000000E+00
  0.00000000E+00  0.00000000E+00  0.00000000E+00
  0.00000000E+00  0.00000000E+00  0.00000000E+00
  0.00000000E+00  0.00000000E+00  0.00000000E+00
  0.00000000E+00  0.00000000E+00  0.00000000E+00
  0.00000000E+00  0.00000000E+00  0.00000000E+00
  0.00000000E+00  0.00000000E+00  0.00000000E+00
  0.00000000E+00  0.00000000E+00  0.00000000E+00
  0.00000000E+00  0.00000000E+00  0.00000000E+00
  0.00000000E+00  0.00000000E+00  0.00000000E+00
  0.00000000E+00  0.00000000E+00  0.00000000E+00
  0.00000000E+00  0.00000000E+00  0.00000000E+00
  0.00000000E+00  0.00000000E+00  0.00000000E+00
  0.00000000E+00  0.00000000E+00  0.00000000E+00
  0.00000000E+00  0.00000000E+00  0.00000000E+00
  0.00000000E+00  0.00000000E+00  0.00000000E+00
  0.00000000E+00  0.00000000E+00  0.00000000E+00
  0.00000000E+00  0.00000000E+00  0.00000000E+00
  0.00000000E+00  0.00000000E+00  0.00000000E+00
  0.00000000E+00  0.00000000E+00  0.00000000E+00
  0.00000000E+00  0.00000000E+00  0.00000000E+00
  0.00000000E+00  0.00000000E+00  0.00000000E+00
  0.00000000E+00  0.00000000E+00  0.00000000E+00
  0.00000000E+00  0.00000000E+00  0.00000000E+00
  0.00000000E+00  0.00000000E+00  0.00000000E+00
  0.00000000E+00  0.00000000E+00  0.00000000E+00
  0.00000000E+00  0.00000000E+00  0.00000000E+00
  0.00000000E+00  0.00000000E+00  0.00000000E+00
  0.00000000E+00  0.00000000E+00  0.00000000E+00
  0.00000000E+00  0.00000000E+00  0.00000000E+00
  0.00000000E+00  0.00000000E+00  0.00000000E+00
  0.00000000E+00  0.00000000E+00  0.00000000E+00
  0.00000000E+00  0.00000000E+00  0.00000000E+00
  0.00000000E+00  0.00000000E+00  0.00000000E+00
  0.00000000E+00  0.00000000E+00  0.00000000E+00
  0.00000000E+00  0.00000000E+00  0.00000000E+00
  0.00000000E+00  0.00000000E+00  0.00000000E+00
  0.00000000E+00  0.00000000E+00  0.00000000E+00
  0.00000000E+00  0.00000000E+00  0.00000000E+00
  0.00000000E+00  0.00000000E+00  0.00000000E+00
  0.00000000E+00  0.00000000E+00  0.00000000E+00
  0.00000000E+00  0.00000000E+00  0.00000000E+00
  0.00000000E+00  0.00000000E+00  0.00000000E+00
  0.00000000E+00  0.00000000E+00  0.00000000E+00
  0.00000000E+00  0.00000000E+00  0.00000000E+00
  0.00000000E+00  0.00000000E+00  0.00000000E+00
  0.00000000E+00  0.00000000E+00  0.00000000E+00
  0.00000000E+00  0.00000000E+00  0.00000000E+00
  0.00000000E+00  0.00000000E+00  0.00000000E+00
