CONTCAR\(10)                            
   1.00000000000000     
    11.5354003905999996    0.0000000000000000    0.0000000000000000
     0.0000000000000000   13.3458003997999999    0.0000000000000000
     0.0000000000000000    0.0000000000000000   18.6074008942000013
   Zr   Ti   Te
     6     6    24
Direct
  0.1666699980000033  0.2525154246988492  0.4999691500848655
  0.5000000000000000  0.2525154246988492  0.4999691500848655
  0.8333299709999977  0.2525154246988492  0.4999691500848655
  0.1666699980000033  0.7525154596988486  0.4999691500848655
  0.5000000000000000  0.7525154596988486  0.4999691500848655
  0.8333299709999977  0.7525154596988486  0.4999691500848655
  0.0000000000000000  0.0026612477197787  0.4998420291497823
  0.3333300130000012  0.0026612477197787  0.4998420291497823
  0.6666700290000023  0.0026612477197787  0.4998420291497823
  0.0000000000000000  0.5026612517197719  0.4998420291497823
  0.3333300130000012  0.5026612517197719  0.4998420291497823
  0.6666700290000023  0.5026612517197719  0.4998420291497823
  0.1666699980000033  0.0803410256913324  0.5943383368922710
  0.1666699980000033  0.4245188619761961  0.4054961401766022
  0.0000000000000000  0.3409007438847240  0.5973254623490618
  0.0000000000000000  0.1641726740291176  0.4025188423474262
  0.5000000000000000  0.0803410256913324  0.5943383368922710
  0.5000000000000000  0.4245188619761961  0.4054961401766022
  0.3333300130000012  0.3409007438847240  0.5973254623490618
  0.3333300130000012  0.1641726740291176  0.4025188423474262
  0.8333299709999977  0.0803410256913324  0.5943383368922710
  0.8333299709999977  0.4245188619761961  0.4054961401766022
  0.6666700290000023  0.3409007438847240  0.5973254623490618
  0.6666700290000023  0.1641726740291176  0.4025188423474262
  0.1666699980000033  0.5803410346913367  0.5943383368922710
  0.1666699980000033  0.9245189339762021  0.4054961401766022
  0.0000000000000000  0.8409008148847263  0.5973254623490618
  0.0000000000000000  0.6641727090291170  0.4025188423474262
  0.5000000000000000  0.5803410346913367  0.5943383368922710
  0.5000000000000000  0.9245189339762021  0.4054961401766022
  0.3333300130000012  0.8409008148847263  0.5973254623490618
  0.3333300130000012  0.6641727090291170  0.4025188423474262
  0.8333299709999977  0.5803410346913367  0.5943383368922710
  0.8333299709999977  0.9245189339762021  0.4054961401766022
  0.6666700290000023  0.8409008148847263  0.5973254623490618
  0.6666700290000023  0.6641727090291170  0.4025188423474262
 
  0.00000000E+00  0.00000000E+00  0.00000000E+00
  0.00000000E+00  0.00000000E+00  0.00000000E+00
  0.00000000E+00  0.00000000E+00  0.00000000E+00
  0.00000000E+00  0.00000000E+00  0.00000000E+00
  0.00000000E+00  0.00000000E+00  0.00000000E+00
  0.00000000E+00  0.00000000E+00  0.00000000E+00
  0.00000000E+00  0.00000000E+00  0.00000000E+00
  0.00000000E+00  0.00000000E+00  0.00000000E+00
  0.00000000E+00  0.00000000E+00  0.00000000E+00
  0.00000000E+00  0.00000000E+00  0.00000000E+00
  0.00000000E+00  0.00000000E+00  0.00000000E+00
  0.00000000E+00  0.00000000E+00  0.00000000E+00
  0.00000000E+00  0.00000000E+00  0.00000000E+00
  0.00000000E+00  0.00000000E+00  0.00000000E+00
  0.00000000E+00  0.00000000E+00  0.00000000E+00
  0.00000000E+00  0.00000000E+00  0.00000000E+00
  0.00000000E+00  0.00000000E+00  0.00000000E+00
  0.00000000E+00  0.00000000E+00  0.00000000E+00
  0.00000000E+00  0.00000000E+00  0.00000000E+00
  0.00000000E+00  0.00000000E+00  0.00000000E+00
  0.00000000E+00  0.00000000E+00  0.00000000E+00
  0.00000000E+00  0.00000000E+00  0.00000000E+00
  0.00000000E+00  0.00000000E+00  0.00000000E+00
  0.00000000E+00  0.00000000E+00  0.00000000E+00
  0.00000000E+00  0.00000000E+00  0.00000000E+00
  0.00000000E+00  0.00000000E+00  0.00000000E+00
  0.00000000E+00  0.00000000E+00  0.00000000E+00
  0.00000000E+00  0.00000000E+00  0.00000000E+00
  0.00000000E+00  0.00000000E+00  0.00000000E+00
  0.00000000E+00  0.00000000E+00  0.00000000E+00
  0.00000000E+00  0.00000000E+00  0.00000000E+00
  0.00000000E+00  0.00000000E+00  0.00000000E+00
  0.00000000E+00  0.00000000E+00  0.00000000E+00
  0.00000000E+00  0.00000000E+00  0.00000000E+00
  0.00000000E+00  0.00000000E+00  0.00000000E+00
  0.00000000E+00  0.00000000E+00  0.00000000E+00
