CONTCAR                                 
   1.00000000000000     
     9.7571001052999993    0.0000000000000000    0.0000000000000000
    -3.0063686365000000   15.8319856181999992    0.0000000000000000
     0.0000000000000000    0.0000000000000000   18.2793006897000012
   V    P    S    O    H 
     4     8    26     2     1
Selective dynamics
Direct
  0.6072835612178125  0.5826168786085759  0.4916906752544463   F   F   F
  0.6245406353974658  0.1034204745361293  0.5009205079552359   F   F   F
  0.4148811109910824  0.4092686768810552  0.4908233858936342   F   F   F
  0.3867337889804858  0.8931559063335044  0.4967044032490833   F   F   F
  0.8396191738888135  0.2599647489845793  0.4933271151504144   F   F   F
  0.7382962510411701  0.4187619220708640  0.5913106357977682   F   F   F
  0.1698242498521907  0.7385109008586141  0.5074550386366212   F   F   F
  0.1929395780832976  0.2460774289070500  0.4886283538776510   F   F   F
  0.3126030976124241  0.0663311769149146  0.5328134340543471   F   F   F
  0.6980251017794714  0.9295940886319229  0.4608039443277718   F   F   F
  0.3021345237486628  0.5663597496310544  0.4637996725098645   F   F   F
  0.8227879025669225  0.7498350275541839  0.5032804479417052   F   F   F
  0.1279574406540078  0.1155609322246960  0.5163158272102635   F   F   F
  0.8832407682853116  0.8799431707047916  0.4711945992722022   F   F   F
  0.9966144332660463  0.7476710172618013  0.5755743704460343   F   F   F
  0.4028565566221971  0.0374342322296499  0.4360880943988477   F   F   F
  0.5459918010438400  0.3491190534336752  0.5863987484363093   F   F   F
  0.2400881039456735  0.4544002524042270  0.4138587867249726   F   F   F
  0.2246711422603198  0.3238722972323345  0.5739024780552313   F   F   F
  0.6567624330407114  0.7211877988209920  0.5681700018043898   F   F   F
  0.4549877078270654  0.6475628647188785  0.4141259645172823   F   F   F
  0.6074585893621460  0.4639492833149390  0.4265336803925592   F   F   F
  0.6733184978632281  0.2272026435947652  0.4263460992663894   F   F   F
  0.8920611009621098  0.3919745231446754  0.5168531348235703   F   F   F
  0.0122670105626739  0.2549821143395334  0.4222289709307461   F   F   F
  0.6113941849747917  0.9574856188317185  0.5591927011265767   F   F   F
  0.8036197774159675  0.6680225939820446  0.4197880853137406   F   F   F
  0.3975838386610135  0.5347328126402147  0.5608573313640761   F   F   F
  0.1967020516372671  0.8154752143404735  0.4205169118119798   F   F   F
  0.7572638216057115  0.5450329237450333  0.5923374286042034   F   F   F
  0.5397769781862536  0.8524685778618206  0.4085254071840438   F   F   F
  0.2399822188170333  0.9552146513866617  0.5820842385764635   F   F   F
  0.3377970611226502  0.7688167877696870  0.5731727400967515   F   F   F
  0.8139417030289025  0.1806360596272683  0.5784018101666177   F   F   F
  0.7695063144051986  0.0420416159593699  0.4133764270327802   F   F   F
  0.4680490418542362  0.1433378294134116  0.5869522957458386   F   F   F
  0.1113347032967837  0.6071547694099522  0.4807843775684049   F   F   F
  0.3554566345972887  0.2734967370544297  0.4200479928943608   F   F   F
  0.8202259835256740  0.3896907377907866  0.6636388973453009   T   T   T
  0.7404571524848649  0.4019768533271204  0.7306076911290660   T   T   T
  0.7918839375312174  0.4575391415225952  0.7454268237921993   T   T   T
 
  0.00000000E+00  0.00000000E+00  0.00000000E+00
  0.00000000E+00  0.00000000E+00  0.00000000E+00
  0.00000000E+00  0.00000000E+00  0.00000000E+00
  0.00000000E+00  0.00000000E+00  0.00000000E+00
  0.00000000E+00  0.00000000E+00  0.00000000E+00
  0.00000000E+00  0.00000000E+00  0.00000000E+00
  0.00000000E+00  0.00000000E+00  0.00000000E+00
  0.00000000E+00  0.00000000E+00  0.00000000E+00
  0.00000000E+00  0.00000000E+00  0.00000000E+00
  0.00000000E+00  0.00000000E+00  0.00000000E+00
  0.00000000E+00  0.00000000E+00  0.00000000E+00
  0.00000000E+00  0.00000000E+00  0.00000000E+00
  0.00000000E+00  0.00000000E+00  0.00000000E+00
  0.00000000E+00  0.00000000E+00  0.00000000E+00
  0.00000000E+00  0.00000000E+00  0.00000000E+00
  0.00000000E+00  0.00000000E+00  0.00000000E+00
  0.00000000E+00  0.00000000E+00  0.00000000E+00
  0.00000000E+00  0.00000000E+00  0.00000000E+00
  0.00000000E+00  0.00000000E+00  0.00000000E+00
  0.00000000E+00  0.00000000E+00  0.00000000E+00
  0.00000000E+00  0.00000000E+00  0.00000000E+00
  0.00000000E+00  0.00000000E+00  0.00000000E+00
  0.00000000E+00  0.00000000E+00  0.00000000E+00
  0.00000000E+00  0.00000000E+00  0.00000000E+00
  0.00000000E+00  0.00000000E+00  0.00000000E+00
  0.00000000E+00  0.00000000E+00  0.00000000E+00
  0.00000000E+00  0.00000000E+00  0.00000000E+00
  0.00000000E+00  0.00000000E+00  0.00000000E+00
  0.00000000E+00  0.00000000E+00  0.00000000E+00
  0.00000000E+00  0.00000000E+00  0.00000000E+00
  0.00000000E+00  0.00000000E+00  0.00000000E+00
  0.00000000E+00  0.00000000E+00  0.00000000E+00
  0.00000000E+00  0.00000000E+00  0.00000000E+00
  0.00000000E+00  0.00000000E+00  0.00000000E+00
  0.00000000E+00  0.00000000E+00  0.00000000E+00
  0.00000000E+00  0.00000000E+00  0.00000000E+00
  0.00000000E+00  0.00000000E+00  0.00000000E+00
  0.00000000E+00  0.00000000E+00  0.00000000E+00
  0.00000000E+00  0.00000000E+00  0.00000000E+00
  0.00000000E+00  0.00000000E+00  0.00000000E+00
  0.00000000E+00  0.00000000E+00  0.00000000E+00
