CONTCAR                                 
   1.00000000000000     
    12.0100002288999992    0.0000000000000000    0.0000000000000000
     0.0000000000000000   13.6953001021999992    0.0000000000000000
     0.0000000000000000    0.0000000000000000   20.2971992493000002
   Hf   Te   O    H 
     6    30     2     1
Selective dynamics
Direct
  0.1674913350868295  0.9917516037691030  0.5470373139360731   F   F   F
  0.9982506972464193  0.4923412086435803  0.4510921617314239   F   F   F
  0.4984939055980817  0.9925595637038072  0.5467716214145071   F   F   F
  0.3322081593994284  0.4933519581922781  0.4587032125066273   F   F   F
  0.8328523190711508  0.9907968360094301  0.5452513635393359   F   F   F
  0.6664767953443800  0.4922926335929745  0.4507011066585562   F   F   F
  0.9991727454523627  0.6730689280748052  0.5317027351866912   F   F   F
  0.1665205849918721  0.8060921353402293  0.4723670778430105   F   F   F
  0.1574108278789836  0.4790437975398163  0.5639544583971414   F   F   F
  0.0014741545772381  0.9842184129723037  0.4359597542751317   F   F   F
  0.1688476989894028  0.5992978314503290  0.3763908448508957   F   F   F
  0.9996886823709943  0.8931322344919721  0.6300872139190261   F   F   F
  0.9983017931523364  0.0963883725778274  0.6254960388272153   F   F   F
  0.1689120768467305  0.3961180987297439  0.3700715621663448   F   F   F
  0.9981202424907494  0.3046392173873116  0.5239475830196056   F   F   F
  0.1671949138357434  0.1732995963800121  0.4671088379745783   F   F   F
  0.3321526128993781  0.6771078662813750  0.5443979122065556   F   F   F
  0.5006586404264937  0.8080737587484776  0.4705722392564482   F   F   F
  0.5077881397486124  0.4773090231820163  0.5636755963752336   F   F   F
  0.3331204615464287  0.9923780547703203  0.4361035154558053   F   F   F
  0.4950452140770665  0.5987703034211123  0.3760395631108153   F   F   F
  0.3339391428099603  0.8892870558282979  0.6290652904834388   F   F   F
  0.3321562553443798  0.0948383357814606  0.6286363670778599   F   F   F
  0.4955061312210844  0.3956629572900994  0.3698468893289046   F   F   F
  0.3328569783685609  0.3048434129154032  0.5280977591737894   F   F   F
  0.4984685907512798  0.1737623986803882  0.4667082955818103   F   F   F
  0.6641243173662801  0.6742529383940195  0.5305786231101735   F   F   F
  0.8332954177066867  0.8042095436399137  0.4718530852674405   F   F   F
  0.8321206248864570  0.4934042241950252  0.5611552696528292   F   F   F
  0.6649934216495694  0.9852290930469465  0.4355280785610844   F   F   F
  0.8326449702917458  0.5961864360746176  0.3691103099266471   F   F   F
  0.6661647023703949  0.8933248546260941  0.6293285416124590   F   F   F
  0.6670969360277752  0.0965712757692287  0.6254133623819556   F   F   F
  0.8324267187966470  0.3929522420212308  0.3672907113397059   F   F   F
  0.6670664170245075  0.3055456788719297  0.5238470511162134   F   F   F
  0.8323299365641432  0.1685994307172081  0.4625528531644321   F   F   F
  0.3786601917132799  0.6516633642829674  0.6920651290306026   T   T   T
  0.3329788693138482  0.5938027564983557  0.6392429122030094   T   T   T
  0.3155783837626984  0.6511925391079743  0.7219986911195648   T   T   T
 
  0.00000000E+00  0.00000000E+00  0.00000000E+00
  0.00000000E+00  0.00000000E+00  0.00000000E+00
  0.00000000E+00  0.00000000E+00  0.00000000E+00
  0.00000000E+00  0.00000000E+00  0.00000000E+00
  0.00000000E+00  0.00000000E+00  0.00000000E+00
  0.00000000E+00  0.00000000E+00  0.00000000E+00
  0.00000000E+00  0.00000000E+00  0.00000000E+00
  0.00000000E+00  0.00000000E+00  0.00000000E+00
  0.00000000E+00  0.00000000E+00  0.00000000E+00
  0.00000000E+00  0.00000000E+00  0.00000000E+00
  0.00000000E+00  0.00000000E+00  0.00000000E+00
  0.00000000E+00  0.00000000E+00  0.00000000E+00
  0.00000000E+00  0.00000000E+00  0.00000000E+00
  0.00000000E+00  0.00000000E+00  0.00000000E+00
  0.00000000E+00  0.00000000E+00  0.00000000E+00
  0.00000000E+00  0.00000000E+00  0.00000000E+00
  0.00000000E+00  0.00000000E+00  0.00000000E+00
  0.00000000E+00  0.00000000E+00  0.00000000E+00
  0.00000000E+00  0.00000000E+00  0.00000000E+00
  0.00000000E+00  0.00000000E+00  0.00000000E+00
  0.00000000E+00  0.00000000E+00  0.00000000E+00
  0.00000000E+00  0.00000000E+00  0.00000000E+00
  0.00000000E+00  0.00000000E+00  0.00000000E+00
  0.00000000E+00  0.00000000E+00  0.00000000E+00
  0.00000000E+00  0.00000000E+00  0.00000000E+00
  0.00000000E+00  0.00000000E+00  0.00000000E+00
  0.00000000E+00  0.00000000E+00  0.00000000E+00
  0.00000000E+00  0.00000000E+00  0.00000000E+00
  0.00000000E+00  0.00000000E+00  0.00000000E+00
  0.00000000E+00  0.00000000E+00  0.00000000E+00
  0.00000000E+00  0.00000000E+00  0.00000000E+00
  0.00000000E+00  0.00000000E+00  0.00000000E+00
  0.00000000E+00  0.00000000E+00  0.00000000E+00
  0.00000000E+00  0.00000000E+00  0.00000000E+00
  0.00000000E+00  0.00000000E+00  0.00000000E+00
  0.00000000E+00  0.00000000E+00  0.00000000E+00
  0.00000000E+00  0.00000000E+00  0.00000000E+00
  0.00000000E+00  0.00000000E+00  0.00000000E+00
  0.00000000E+00  0.00000000E+00  0.00000000E+00
