CONTCAR\(2)                             
   1.00000000000000     
    12.1478996276999993    0.0000000000000000    0.0000000000000000
     0.0000000000000000   12.1478996276999993    0.0000000000000000
     0.0000000000000000    0.0000000000000000   26.4330997467000017
   Sr   Sb   Se   F    O    H 
    18    18    36    18     1     1
Direct
  0.0029599881449241  0.1673254295490270  0.4448086600987980
  0.1694397527901773  0.0001072329928751  0.5555847136159749
  0.3356510891316965  0.1670342402224145  0.4444818333215943
  0.5023766428980571  0.0001707676266503  0.5555170829938540
  0.6685047120945448  0.1673558973402453  0.4447240948408147
  0.8358256193243272  0.0004635947353965  0.5555546469290704
  0.0024910576557671  0.5003390066016047  0.4443976900814593
  0.1716995610854015  0.3361103909032602  0.5564206006031922
  0.3355749809962602  0.5004435854825587  0.4446083102667382
  0.5001320348711404  0.3363353990863019  0.5562682705344598
  0.6690814711371056  0.5002402908110646  0.4442289746856939
  0.8359986372697322  0.3337755273237971  0.5553257769580020
  0.0028314217086770  0.8333136165576815  0.4447606696319998
  0.1718814230657000  0.6648525393155587  0.5564705536725848
  0.3356629184149410  0.8337518026334300  0.4444033028413959
  0.5000680660468796  0.6644452956957880  0.5561294031611185
  0.6686344340743133  0.8333026891216100  0.4446911041995523
  0.8358657304806008  0.6669107941460858  0.5552970967534211
  0.0043852066416162  0.1624859782281464  0.7025386928165958
  0.1720298784310296  0.0001331520934803  0.2974142112526495
  0.3339364158759666  0.1653021281525158  0.7026322727228200
  0.5054096304493104  0.0001883198460798  0.2974184850571986
  0.6645368924937717  0.1671178838525300  0.7021730923230672
  0.8387053591314906  0.0001886516489798  0.2975761792843859
  0.0021562809080697  0.4978300332546927  0.7022471855813902
  0.1719261545531406  0.3335257167816532  0.2973141834022418
  0.3346363306808974  0.4995428615195845  0.7135294677501598
  0.5053448197918583  0.3334830518855767  0.2973059926182218
  0.6710811575401596  0.4958746458351904  0.7027012520880307
  0.8387329627103302  0.3333039304519413  0.2973747540355953
  0.9974417683926221  0.8339874529514337  0.7025482342326382
  0.1719288005223799  0.6669142774900274  0.2973012779374854
  0.3372947390276123  0.8276455329536584  0.7032423163791460
  0.5054037743726895  0.6669055323723835  0.2972916312549503
  0.6667701094416667  0.8309295610200519  0.7022901152959241
  0.8387072584802115  0.6668701575895332  0.2973901142687697
  0.1691628542347040  0.0005427423143931  0.3935401348633425
  0.1750012162084806  0.0166176051732659  0.7210934468566589
  0.9861453463787194  0.1659032340115260  0.2795382919062371
  0.0036181598568829  0.1668246952257535  0.6064982041668500
  0.5028084570598927  0.0005034377937812  0.3935622764604489
  0.5074360390877762  0.0177421463386270  0.7208598849511604
  0.3194055326768211  0.1658476466093792  0.2796546054772808
  0.3358835612095190  0.1657086818724742  0.6066986393787672
  0.8361073405123900  0.0004409790835816  0.3937126397155389
  0.8476862784680275  0.0098733819458088  0.7207787075166874
  0.6528736676578542  0.1659360441281778  0.2796289727039366
  0.6685614265811173  0.1679016213846038  0.6062674635926475
  0.1692989697315450  0.3338552497762316  0.3933736026544262
  0.1712735384483660  0.3495797711744847  0.7218330841542003
  0.9861184193507160  0.4993114774805162  0.2796186520669020
  0.0016515020545545  0.5003871708409168  0.6063636381865413
  0.5025394756099351  0.3338336452722607  0.3933646081566504
  0.5163764361629559  0.3436604966644750  0.7216923153222614
  0.3193919150607134  0.4993058115938644  0.2795581722066194
  0.3360229207563754  0.5008459037630925  0.6075895917169480
  0.8361096020493024  0.3330852966565589  0.3935279749029805
  0.8421617552494653  0.3493385786199283  0.7207998485389173
  0.6528887551036063  0.4993045312248073  0.2796590608802028
  0.6710591474206976  0.5000118213019361  0.6066599763613602
  0.1692598655196482  0.6673470369465750  0.3933456666200724
  0.1816505106930131  0.6759423200814040  0.7212466133709520
  0.9861199227827323  0.8326473953785677  0.2795998241678914
  0.0023339784935354  0.8338584119971881  0.6066083837737946
  0.5026483705242349  0.6673282948180258  0.3933433804039296
  0.5079914325885608  0.6821761143780126  0.7218698277495041
  0.3194890607353826  0.8327608240325947  0.2795926176318840
  0.3366710084054983  0.8341847075878757  0.6071913343959016
  0.8360787844531903  0.6673154713790839  0.3935312715479824
  0.8396926543691311  0.6853408243101453  0.7210101086522253
  0.6528775208351875  0.8327643251133818  0.2795769530227405
  0.6690646725892879  0.8329675962425261  0.6063192896367128
  0.0024894013225471  0.0001744791773676  0.5001407782834542
  0.1693622509362566  0.1671754057916046  0.5003186456420623
  0.3358108862004375  0.0000789854656747  0.5000407539686728
  0.5019176728590772  0.1672135255031716  0.5002616016046632
  0.6691985286503855  0.0002796916808546  0.5001512020497313
  0.8356497937677656  0.1668762379456598  0.5001410395122189
  0.0029804623061672  0.3336868383784841  0.5002569605083749
  0.1682891803207655  0.5004287917254694  0.4992372653155466
  0.3357873306859548  0.3330203551591320  0.4992456207334544
  0.5031024100381640  0.5002659770046030  0.4990331764453153
  0.6689153522818113  0.3337550061240460  0.5001084724728891
  0.8357253086619661  0.5002524462803286  0.4997189610158115
  0.0029264853562219  0.6667947195899068  0.5002907099852530
  0.1691991437352953  0.8333876033412495  0.5004043320344779
  0.3357577120405942  0.6677190733482784  0.4990387128489269
  0.5021139518295866  0.8333775448978729  0.5001899547610235
  0.6689243955747689  0.6665268400688409  0.5001272183695348
  0.8355610436408342  0.8338179238856890  0.5000142562109123
  0.3522753890857898  0.5015459507321068  0.7904981967430056
  0.2807564521507681  0.5000406853110620  0.8074407962925477
 
  0.00000000E+00  0.00000000E+00  0.00000000E+00
  0.00000000E+00  0.00000000E+00  0.00000000E+00
  0.00000000E+00  0.00000000E+00  0.00000000E+00
  0.00000000E+00  0.00000000E+00  0.00000000E+00
  0.00000000E+00  0.00000000E+00  0.00000000E+00
  0.00000000E+00  0.00000000E+00  0.00000000E+00
  0.00000000E+00  0.00000000E+00  0.00000000E+00
  0.00000000E+00  0.00000000E+00  0.00000000E+00
  0.00000000E+00  0.00000000E+00  0.00000000E+00
  0.00000000E+00  0.00000000E+00  0.00000000E+00
  0.00000000E+00  0.00000000E+00  0.00000000E+00
  0.00000000E+00  0.00000000E+00  0.00000000E+00
  0.00000000E+00  0.00000000E+00  0.00000000E+00
  0.00000000E+00  0.00000000E+00  0.00000000E+00
  0.00000000E+00  0.00000000E+00  0.00000000E+00
  0.00000000E+00  0.00000000E+00  0.00000000E+00
  0.00000000E+00  0.00000000E+00  0.00000000E+00
  0.00000000E+00  0.00000000E+00  0.00000000E+00
  0.00000000E+00  0.00000000E+00  0.00000000E+00
  0.00000000E+00  0.00000000E+00  0.00000000E+00
  0.00000000E+00  0.00000000E+00  0.00000000E+00
  0.00000000E+00  0.00000000E+00  0.00000000E+00
  0.00000000E+00  0.00000000E+00  0.00000000E+00
  0.00000000E+00  0.00000000E+00  0.00000000E+00
  0.00000000E+00  0.00000000E+00  0.00000000E+00
  0.00000000E+00  0.00000000E+00  0.00000000E+00
  0.00000000E+00  0.00000000E+00  0.00000000E+00
  0.00000000E+00  0.00000000E+00  0.00000000E+00
  0.00000000E+00  0.00000000E+00  0.00000000E+00
  0.00000000E+00  0.00000000E+00  0.00000000E+00
  0.00000000E+00  0.00000000E+00  0.00000000E+00
  0.00000000E+00  0.00000000E+00  0.00000000E+00
  0.00000000E+00  0.00000000E+00  0.00000000E+00
  0.00000000E+00  0.00000000E+00  0.00000000E+00
  0.00000000E+00  0.00000000E+00  0.00000000E+00
  0.00000000E+00  0.00000000E+00  0.00000000E+00
  0.00000000E+00  0.00000000E+00  0.00000000E+00
  0.00000000E+00  0.00000000E+00  0.00000000E+00
  0.00000000E+00  0.00000000E+00  0.00000000E+00
  0.00000000E+00  0.00000000E+00  0.00000000E+00
  0.00000000E+00  0.00000000E+00  0.00000000E+00
  0.00000000E+00  0.00000000E+00  0.00000000E+00
  0.00000000E+00  0.00000000E+00  0.00000000E+00
  0.00000000E+00  0.00000000E+00  0.00000000E+00
  0.00000000E+00  0.00000000E+00  0.00000000E+00
  0.00000000E+00  0.00000000E+00  0.00000000E+00
  0.00000000E+00  0.00000000E+00  0.00000000E+00
  0.00000000E+00  0.00000000E+00  0.00000000E+00
  0.00000000E+00  0.00000000E+00  0.00000000E+00
  0.00000000E+00  0.00000000E+00  0.00000000E+00
  0.00000000E+00  0.00000000E+00  0.00000000E+00
  0.00000000E+00  0.00000000E+00  0.00000000E+00
  0.00000000E+00  0.00000000E+00  0.00000000E+00
  0.00000000E+00  0.00000000E+00  0.00000000E+00
  0.00000000E+00  0.00000000E+00  0.00000000E+00
  0.00000000E+00  0.00000000E+00  0.00000000E+00
  0.00000000E+00  0.00000000E+00  0.00000000E+00
  0.00000000E+00  0.00000000E+00  0.00000000E+00
  0.00000000E+00  0.00000000E+00  0.00000000E+00
  0.00000000E+00  0.00000000E+00  0.00000000E+00
  0.00000000E+00  0.00000000E+00  0.00000000E+00
  0.00000000E+00  0.00000000E+00  0.00000000E+00
  0.00000000E+00  0.00000000E+00  0.00000000E+00
  0.00000000E+00  0.00000000E+00  0.00000000E+00
  0.00000000E+00  0.00000000E+00  0.00000000E+00
  0.00000000E+00  0.00000000E+00  0.00000000E+00
  0.00000000E+00  0.00000000E+00  0.00000000E+00
  0.00000000E+00  0.00000000E+00  0.00000000E+00
  0.00000000E+00  0.00000000E+00  0.00000000E+00
  0.00000000E+00  0.00000000E+00  0.00000000E+00
  0.00000000E+00  0.00000000E+00  0.00000000E+00
  0.00000000E+00  0.00000000E+00  0.00000000E+00
  0.00000000E+00  0.00000000E+00  0.00000000E+00
  0.00000000E+00  0.00000000E+00  0.00000000E+00
  0.00000000E+00  0.00000000E+00  0.00000000E+00
  0.00000000E+00  0.00000000E+00  0.00000000E+00
  0.00000000E+00  0.00000000E+00  0.00000000E+00
  0.00000000E+00  0.00000000E+00  0.00000000E+00
  0.00000000E+00  0.00000000E+00  0.00000000E+00
  0.00000000E+00  0.00000000E+00  0.00000000E+00
  0.00000000E+00  0.00000000E+00  0.00000000E+00
  0.00000000E+00  0.00000000E+00  0.00000000E+00
  0.00000000E+00  0.00000000E+00  0.00000000E+00
  0.00000000E+00  0.00000000E+00  0.00000000E+00
  0.00000000E+00  0.00000000E+00  0.00000000E+00
  0.00000000E+00  0.00000000E+00  0.00000000E+00
  0.00000000E+00  0.00000000E+00  0.00000000E+00
  0.00000000E+00  0.00000000E+00  0.00000000E+00
  0.00000000E+00  0.00000000E+00  0.00000000E+00
  0.00000000E+00  0.00000000E+00  0.00000000E+00
  0.00000000E+00  0.00000000E+00  0.00000000E+00
  0.00000000E+00  0.00000000E+00  0.00000000E+00
