CONTCAR\(5)                             
   1.00000000000000     
    12.8863000870000004    0.0000000000000000    0.0000000000000000
     6.4431192937999997   11.1597653626000000    0.0000000000000000
     0.0000000000000000    0.0000000000000000   25.6977996825999995
   In   Te   O 
    27    36     1
Direct
  0.0021602913481455  0.9987560034814342  0.5000685904414726
  0.1112478693159652  0.1095589486040794  0.3518087086595483
  0.2171298848307125  0.2277651284327381  0.6555513419104561
  0.3446535831634306  0.9944420684937082  0.4959478662615563
  0.4440575345028154  0.1130268060975652  0.3503867969205781
  0.5549677113514160  0.2129734014689675  0.6479859657064817
  0.6664926551522716  0.9995390383318110  0.5000892220406493
  0.7798219430102596  0.1099033481287365  0.3518804065294282
  0.9142662731443678  0.2093760872440799  0.6357661900011715
  0.0027112889605302  0.3322578545176104  0.5000430453310569
  0.1081535589560904  0.4475426176760159  0.3502175013624854
  0.2233858982540829  0.5555689013920736  0.6501434310412068
  0.3316717563013912  0.3346688767705476  0.5010377703682660
  0.4452815255272820  0.4443647246876805  0.3516268501612555
  0.5550056838954051  0.5650978114595209  0.6478466393629215
  0.6643235610500960  0.3343401537724433  0.5004124191371843
  0.7790861793760455  0.4449803154973690  0.3509217309382716
  0.8870265548057489  0.5590307786800006  0.6510895501298463
  0.9991443343049874  0.6665741599537808  0.5011286973001713
  0.1078053402641532  0.7772149821731531  0.3508375094372244
  0.2178979139194905  0.8895336675094371  0.6546832225553737
  0.3323871449219922  0.6657430102962347  0.5005825057964607
  0.4437175271501518  0.7764172892626434  0.3497757048756558
  0.5498292064989666  0.8927002103474604  0.6508271351700935
  0.6681035998906795  0.6659628311876207  0.5006087808090885
  0.7748676780746450  0.7795232825047402  0.3483385670619255
  0.8871645674036055  0.8872453179591013  0.6509920007458793
  0.0006609047905102 -0.0004534418867154  0.2934039051847299
  0.9863674004360714  0.0118222162246292  0.7073461935350012
  0.1247486676202492  0.1041631954262363  0.5685983999142284
  0.2255433219859672  0.2199224319485287  0.4316067798667163
  0.3334683984544121  0.0003094833959945  0.2938192746097513
  0.3296722390717137  0.0023556063176170  0.7098929173889568
  0.4478901578057083  0.1099048278981539  0.5696304339829041
  0.5546678706758503  0.2222926843844938  0.4318959154229844
  0.6658801250763106  0.0035344017444930  0.2926636641136162
  0.6662379092652400  0.9967895990590243  0.7090922820214915
  0.7769063811328282  0.1131988435570442  0.5696237939144783
  0.8891848581334678  0.2217907095741366  0.4326740841029924
  0.0013625452381532  0.3310184874864120  0.2935778498141250
  0.9855190372181847  0.3355696762659200  0.7077597396942932
  0.1090792325100321  0.4444831548431118  0.5696523131654841
  0.2196806460917436  0.5565704008403793  0.4313429800613309
  0.3318204103634562  0.3357642403605450  0.2937010642175777
  0.3334934158737466  0.3358064070655500  0.7089102271857801
  0.4385171828821031  0.4472869707236544  0.5678666216794048
  0.5554820527933076  0.5561592640399687  0.4315432065834061
  0.6678692182563811  0.3325060682607650  0.2944172275777074
  0.6309085045927737  0.3512548060097114  0.7118818594636687
  0.7770866953799199  0.4426488202706780  0.5696124984634698
  0.8921754223748093  0.5521883440599440  0.4308447830998416
  0.9972344963632744  0.6678549524000164  0.2916915313414751
  0.0020124334506108  0.6656823876040413  0.7083903188173639
  0.1092820965057043  0.7794453951694726  0.5694728696247201
  0.2254272408481809  0.8875372231222652  0.4316443970015312
  0.3308001668794708  0.6664594354142888  0.2936584310982645
  0.3332416401226154  0.6655387926289682  0.7085303998776509
  0.4480989464733696  0.7755168556979395  0.5691772839910282
  0.5654538923135703  0.8836074197003150  0.4299681783503352
  0.6654014260409477  0.6652762182019936  0.2920836837731751
  0.6654963283393189  0.6712861918308711  0.7086377403537698
  0.7792145127831230  0.7770831300987884  0.5695350322782260
  0.8920556223214156  0.8884514903038926  0.4309737428962418
  0.4744687281607643  0.4294953910263166  0.7422497454765867
 
  0.00000000E+00  0.00000000E+00  0.00000000E+00
  0.00000000E+00  0.00000000E+00  0.00000000E+00
  0.00000000E+00  0.00000000E+00  0.00000000E+00
  0.00000000E+00  0.00000000E+00  0.00000000E+00
  0.00000000E+00  0.00000000E+00  0.00000000E+00
  0.00000000E+00  0.00000000E+00  0.00000000E+00
  0.00000000E+00  0.00000000E+00  0.00000000E+00
  0.00000000E+00  0.00000000E+00  0.00000000E+00
  0.00000000E+00  0.00000000E+00  0.00000000E+00
  0.00000000E+00  0.00000000E+00  0.00000000E+00
  0.00000000E+00  0.00000000E+00  0.00000000E+00
  0.00000000E+00  0.00000000E+00  0.00000000E+00
  0.00000000E+00  0.00000000E+00  0.00000000E+00
  0.00000000E+00  0.00000000E+00  0.00000000E+00
  0.00000000E+00  0.00000000E+00  0.00000000E+00
  0.00000000E+00  0.00000000E+00  0.00000000E+00
  0.00000000E+00  0.00000000E+00  0.00000000E+00
  0.00000000E+00  0.00000000E+00  0.00000000E+00
  0.00000000E+00  0.00000000E+00  0.00000000E+00
  0.00000000E+00  0.00000000E+00  0.00000000E+00
  0.00000000E+00  0.00000000E+00  0.00000000E+00
  0.00000000E+00  0.00000000E+00  0.00000000E+00
  0.00000000E+00  0.00000000E+00  0.00000000E+00
  0.00000000E+00  0.00000000E+00  0.00000000E+00
  0.00000000E+00  0.00000000E+00  0.00000000E+00
  0.00000000E+00  0.00000000E+00  0.00000000E+00
  0.00000000E+00  0.00000000E+00  0.00000000E+00
  0.00000000E+00  0.00000000E+00  0.00000000E+00
  0.00000000E+00  0.00000000E+00  0.00000000E+00
  0.00000000E+00  0.00000000E+00  0.00000000E+00
  0.00000000E+00  0.00000000E+00  0.00000000E+00
  0.00000000E+00  0.00000000E+00  0.00000000E+00
  0.00000000E+00  0.00000000E+00  0.00000000E+00
  0.00000000E+00  0.00000000E+00  0.00000000E+00
  0.00000000E+00  0.00000000E+00  0.00000000E+00
  0.00000000E+00  0.00000000E+00  0.00000000E+00
  0.00000000E+00  0.00000000E+00  0.00000000E+00
  0.00000000E+00  0.00000000E+00  0.00000000E+00
  0.00000000E+00  0.00000000E+00  0.00000000E+00
  0.00000000E+00  0.00000000E+00  0.00000000E+00
  0.00000000E+00  0.00000000E+00  0.00000000E+00
  0.00000000E+00  0.00000000E+00  0.00000000E+00
  0.00000000E+00  0.00000000E+00  0.00000000E+00
  0.00000000E+00  0.00000000E+00  0.00000000E+00
  0.00000000E+00  0.00000000E+00  0.00000000E+00
  0.00000000E+00  0.00000000E+00  0.00000000E+00
  0.00000000E+00  0.00000000E+00  0.00000000E+00
  0.00000000E+00  0.00000000E+00  0.00000000E+00
  0.00000000E+00  0.00000000E+00  0.00000000E+00
  0.00000000E+00  0.00000000E+00  0.00000000E+00
  0.00000000E+00  0.00000000E+00  0.00000000E+00
  0.00000000E+00  0.00000000E+00  0.00000000E+00
  0.00000000E+00  0.00000000E+00  0.00000000E+00
  0.00000000E+00  0.00000000E+00  0.00000000E+00
  0.00000000E+00  0.00000000E+00  0.00000000E+00
  0.00000000E+00  0.00000000E+00  0.00000000E+00
  0.00000000E+00  0.00000000E+00  0.00000000E+00
  0.00000000E+00  0.00000000E+00  0.00000000E+00
  0.00000000E+00  0.00000000E+00  0.00000000E+00
  0.00000000E+00  0.00000000E+00  0.00000000E+00
  0.00000000E+00  0.00000000E+00  0.00000000E+00
  0.00000000E+00  0.00000000E+00  0.00000000E+00
  0.00000000E+00  0.00000000E+00  0.00000000E+00
  0.00000000E+00  0.00000000E+00  0.00000000E+00
