 K2 Fe4 S6                              
   1.00000000000000     
     5.1332436321492265    0.0000000000000000    0.0000000000000000
     0.0000000000000000    8.5855973167127182    0.0000000000000000
     0.0000000000000000    0.0000000000000000   18.9182367659579995
   K    Fe   S 
     2     4     6
Direct
  0.2499929336003759  0.4999610103218252  0.4100574269733842
  0.7500070676680953  0.4999609606236938  0.5899425751875089
 -0.0000000061275017  0.1470205685547668  0.4999999592657038
  0.5000000054892625  0.8529928662844747  0.5000000407203709
  0.0000000034447838  0.8530118033486961  0.5000000412060334
  0.4999999986161271  0.1469970052970230  0.4999999617807979
  0.7500142264526840  0.7155970345854399  0.4356669353711022
  0.2499856358380299  0.2844372424287458  0.5643363552474420
  0.2499857803472772  0.7155970753298954  0.5643331645879407
  0.7499887172393012 -0.0000062980063488  0.5646835712286802
  0.2500112877488433 -0.0000064429567393  0.4353164307033448
  0.7500143496827265  0.2844371741885288  0.4356635377277012
 
  0.00000000E+00  0.00000000E+00  0.00000000E+00
  0.00000000E+00  0.00000000E+00  0.00000000E+00
  0.00000000E+00  0.00000000E+00  0.00000000E+00
  0.00000000E+00  0.00000000E+00  0.00000000E+00
  0.00000000E+00  0.00000000E+00  0.00000000E+00
  0.00000000E+00  0.00000000E+00  0.00000000E+00
  0.00000000E+00  0.00000000E+00  0.00000000E+00
  0.00000000E+00  0.00000000E+00  0.00000000E+00
  0.00000000E+00  0.00000000E+00  0.00000000E+00
  0.00000000E+00  0.00000000E+00  0.00000000E+00
  0.00000000E+00  0.00000000E+00  0.00000000E+00
  0.00000000E+00  0.00000000E+00  0.00000000E+00
