 Ta4 Ni4 Te8                            
   1.00000000000000     
     6.1878672411992248    0.0000000000000000    0.0000000000000000
     0.0000000000000000    7.8799510169967579    0.0000000000000000
     0.0000000000000000    0.0000000000000000   19.7079817408910003
   Ta   Ni   Te
     4     4     8
Direct
  0.7500252562960774  0.9558468037334142  0.4999945023468402
  0.2499734115169167  0.0441640598407945  0.4999939040424600
  0.2499733318752917  0.4558362519270046  0.4999938994600026
  0.7500252476024869  0.5441528800907171  0.4999945125527545
  0.1048733571055045  0.7500001046441233  0.5434172994710396
  0.8951342400357200  0.2499999056735900  0.5434196329181170
  0.6047756960943556  0.2499999012784464  0.4566028045161720
  0.3952320783719035  0.7500001304477729  0.4565965364007325
  0.5029033833089007  0.7500000952079930  0.5856437492411970
 -0.0000012279857689  0.5000021026976795  0.6194300915397566
  0.0027955010577634  0.2499998579383903  0.4143568185543602
  0.9972031893372320  0.7500000678260414  0.4143623696119497
  0.4999985481906377  0.4999952804751360  0.3805724326223779
  0.4999985269754471  0.0000047455739511  0.3805724164937598
 -0.0000012369870148 -0.0000020978333759  0.6194300860943216
  0.4970896972045489  0.2499999104783217  0.5856490163045059
 
  0.00000000E+00  0.00000000E+00  0.00000000E+00
  0.00000000E+00  0.00000000E+00  0.00000000E+00
  0.00000000E+00  0.00000000E+00  0.00000000E+00
  0.00000000E+00  0.00000000E+00  0.00000000E+00
  0.00000000E+00  0.00000000E+00  0.00000000E+00
  0.00000000E+00  0.00000000E+00  0.00000000E+00
  0.00000000E+00  0.00000000E+00  0.00000000E+00
  0.00000000E+00  0.00000000E+00  0.00000000E+00
  0.00000000E+00  0.00000000E+00  0.00000000E+00
  0.00000000E+00  0.00000000E+00  0.00000000E+00
  0.00000000E+00  0.00000000E+00  0.00000000E+00
  0.00000000E+00  0.00000000E+00  0.00000000E+00
  0.00000000E+00  0.00000000E+00  0.00000000E+00
  0.00000000E+00  0.00000000E+00  0.00000000E+00
  0.00000000E+00  0.00000000E+00  0.00000000E+00
  0.00000000E+00  0.00000000E+00  0.00000000E+00
