CONTCAR                                 
   1.00000000000000     
    14.0796003342000002    0.0000000000000000    0.0000000000000000
    -7.0398001671000001   12.1932915645000008    0.0000000000000000
     0.0000000000000000    0.0000000000000000   18.0872001647999987
   Ti   Se   O 
    16    32     1
Direct
  0.9992565239070867  0.9937442855156101  0.5010846455996464
  0.2517885125526014  0.0002528902810680  0.5007621359384588
  0.4983454600792760  0.9936598424829993  0.4996050060031613
  0.7551901932774836  0.0078745340900944  0.4970050936035704
  0.9994124654363131  0.2476388211583303  0.5030846797964330
  0.2455228187062669  0.2465473952616498  0.5007149095287800
  0.4974442247005491  0.2460424781610993  0.5009319808609741
  0.7449428972959099  0.2480899433921656  0.5028033805568588
  0.9987493497236827  0.4936868650594455  0.5037970331228714
  0.2503879940232419  0.4980940482386377  0.5012542975690361
  0.4982664344295273  0.4929033105427302  0.4991018970557507
  0.7510555016332505  0.4985001211165542  0.5031309976370577
  0.9994033058337405  0.7469202015968816  0.5031990409069277
  0.2444927354377127  0.7472179354895647  0.5015615741771852
  0.4894311128763023  0.7420082627282670  0.4945843400750181
  0.7501516270226372  0.7424067626862972  0.4952291960926821
  0.0822492403700841  0.1646168015050971  0.4151895078524400
  0.1650199060784734  0.0798689107233528  0.5873375798986433
  0.3320092032242158  0.1625497029162010  0.4142849732994871
  0.4144966701594955  0.0795673775393285  0.5869809620943837
  0.5834666048159206  0.1654077617826589  0.4147417976940934
  0.6647716417188594  0.0779288825644151  0.5865574216683310
  0.8349177380062934  0.1685647260706110  0.4138805505270014
  0.9119707690076796  0.0787349378498522  0.5871356612274662
  0.0792578453394845  0.4130815885965505  0.4158133848052523
  0.1666628690156457  0.3293667299827346  0.5882619432828056
  0.3306818381935419  0.4122398732424766  0.4139729981544756
  0.4166058576551460  0.3320694272498008  0.5868986418295563
  0.5816389169332301  0.4129615560521751  0.4142504062723353
  0.6635330568811029  0.3284318232028317  0.5888973951769552
  0.8323550709615026  0.4137144085223459  0.4164577161223815
  0.9159923436138804  0.3309422862175936  0.5893424602122230
  0.0816520877045823  0.6633352277727065  0.4158994414331054
  0.1661715931045366  0.5804858254509194  0.5881007471386879
  0.3255994676610558  0.6591437558738735  0.4120300287244364
  0.4160797747976035  0.5824540971053618  0.5852058462937081
  0.5833147608251376  0.6649975006809921  0.4130736883206664
  0.6644307752433427  0.5819318440521288  0.5859882367582528
  0.8351704373919537  0.6593900464344482  0.4138192727993598
  0.9139284543238986  0.5805621125804742  0.5893467068331036
  0.0803924055163825  0.9126577726250238  0.4150226861461335
  0.1663631908947945  0.8300930905032303  0.5883791425148583
  0.3308128337034144  0.9131207783825543  0.4142639676690379
  0.4179520431518126  0.8300474152488269  0.5856376226195947
  0.5819363287839604  0.9140806060056473  0.4135046459108827
  0.6641804121580027  0.8274174036223227  0.5808536423314660
  0.8314868073972653  0.9137528407901860  0.4146496576875419
  0.9136275199085607  0.8303612539892334  0.5871041374997594
  0.6607107275235645  0.8275343930626684  0.6735160476771596
 
  0.00000000E+00  0.00000000E+00  0.00000000E+00
  0.00000000E+00  0.00000000E+00  0.00000000E+00
  0.00000000E+00  0.00000000E+00  0.00000000E+00
  0.00000000E+00  0.00000000E+00  0.00000000E+00
  0.00000000E+00  0.00000000E+00  0.00000000E+00
  0.00000000E+00  0.00000000E+00  0.00000000E+00
  0.00000000E+00  0.00000000E+00  0.00000000E+00
  0.00000000E+00  0.00000000E+00  0.00000000E+00
  0.00000000E+00  0.00000000E+00  0.00000000E+00
  0.00000000E+00  0.00000000E+00  0.00000000E+00
  0.00000000E+00  0.00000000E+00  0.00000000E+00
  0.00000000E+00  0.00000000E+00  0.00000000E+00
  0.00000000E+00  0.00000000E+00  0.00000000E+00
  0.00000000E+00  0.00000000E+00  0.00000000E+00
  0.00000000E+00  0.00000000E+00  0.00000000E+00
  0.00000000E+00  0.00000000E+00  0.00000000E+00
  0.00000000E+00  0.00000000E+00  0.00000000E+00
  0.00000000E+00  0.00000000E+00  0.00000000E+00
  0.00000000E+00  0.00000000E+00  0.00000000E+00
  0.00000000E+00  0.00000000E+00  0.00000000E+00
  0.00000000E+00  0.00000000E+00  0.00000000E+00
  0.00000000E+00  0.00000000E+00  0.00000000E+00
  0.00000000E+00  0.00000000E+00  0.00000000E+00
  0.00000000E+00  0.00000000E+00  0.00000000E+00
  0.00000000E+00  0.00000000E+00  0.00000000E+00
  0.00000000E+00  0.00000000E+00  0.00000000E+00
  0.00000000E+00  0.00000000E+00  0.00000000E+00
  0.00000000E+00  0.00000000E+00  0.00000000E+00
  0.00000000E+00  0.00000000E+00  0.00000000E+00
  0.00000000E+00  0.00000000E+00  0.00000000E+00
  0.00000000E+00  0.00000000E+00  0.00000000E+00
  0.00000000E+00  0.00000000E+00  0.00000000E+00
  0.00000000E+00  0.00000000E+00  0.00000000E+00
  0.00000000E+00  0.00000000E+00  0.00000000E+00
  0.00000000E+00  0.00000000E+00  0.00000000E+00
  0.00000000E+00  0.00000000E+00  0.00000000E+00
  0.00000000E+00  0.00000000E+00  0.00000000E+00
  0.00000000E+00  0.00000000E+00  0.00000000E+00
  0.00000000E+00  0.00000000E+00  0.00000000E+00
  0.00000000E+00  0.00000000E+00  0.00000000E+00
  0.00000000E+00  0.00000000E+00  0.00000000E+00
  0.00000000E+00  0.00000000E+00  0.00000000E+00
  0.00000000E+00  0.00000000E+00  0.00000000E+00
  0.00000000E+00  0.00000000E+00  0.00000000E+00
  0.00000000E+00  0.00000000E+00  0.00000000E+00
  0.00000000E+00  0.00000000E+00  0.00000000E+00
  0.00000000E+00  0.00000000E+00  0.00000000E+00
  0.00000000E+00  0.00000000E+00  0.00000000E+00
  0.00000000E+00  0.00000000E+00  0.00000000E+00
