CONTCAR\(16)                            
   1.00000000000000     
    12.3274002075000002    0.0000000000000000    0.0000000000000000
     0.0000000000000000   15.7540998459000008    0.0000000000000000
     0.0000000000000000    0.0000000000000000   20.2700004577999984
   Pr   Br   O 
    12    30     1
Direct
  0.2542323886841658  0.6459870125502007  0.4848307350900214
  0.0844827086446642  0.3603449779484436  0.4687980941353018
  0.2467842856304188  0.1375407377171740  0.5285679476828875
  0.0707728930944285  0.8735383578377807  0.4730414515350887
  0.5788972196578683  0.6459708694983135  0.4853812407530427
  0.4167427355273787  0.3612986733339696  0.4610167949512274
  0.5866526747958716  0.1376652189008212  0.5288529528755106
  0.4169701639638248  0.9118563584361610  0.6383307927502315
  0.9163949563859148  0.6372092012848256  0.5077284905472013
  0.7488157295895448  0.3603425182825291  0.4692269542215897
  0.9166927643441696  0.1455565872041831  0.5273684512246035
  0.7622941019350051  0.8735529842922176  0.4735380977853367
  0.2800483434116714  0.8254789317819871  0.4340136184525107
  0.0782285479701699  0.1511908617149160  0.6318434685165712
  0.2405927443031359  0.4734163455854699  0.3996277485523905
  0.0973493527898697  0.5225418307142675  0.5556007801251681
  0.0840010558219575  0.0601638445487254  0.4350614821990675
  0.2011973806858265  0.9580796777049798  0.5816119689932151
  0.0887246296354931  0.7399565615601915  0.5781191355322406
  0.2499584447443723  0.2458911776668984  0.4007758218910737
  0.0651405282056814  0.6849772697855343  0.4000235933281004
  0.2572960466692322  0.3226854337919320  0.5697121550436464
  0.5526623504798778  0.8259806250217778  0.4352421863034124
  0.4165738936794838  0.1215088212754836  0.6344627944633032
  0.5933367065666815  0.4734470168222344  0.3998911469656790
  0.4165392131211973  0.5188524538558354  0.5458684759376524
  0.4168776699408241  0.0490813681292082  0.4530495106024048
  0.6331512291039090  0.9585139220138856  0.5825511782557697
  0.4160820776732024  0.7260390762524125  0.5788651441237747
  0.5834895007559950  0.2457576180772705  0.4010032662270646
  0.4170981232819315  0.6438489310948867  0.3806444684887111
  0.5757542732762033  0.3227188670037506  0.5699209360686694
  0.9161587161596216  0.8901886499865483  0.3649546118272298
  0.7555200961828632  0.1520278088267730  0.6319539650032340
  0.9163673691146528  0.4799852159264191  0.4107719952798519
  0.7360783013185426  0.5224393718538565  0.5561228722540577
  0.7492033729521381  0.0601715066017974  0.4353231190268048
  0.9169512983096837  0.9515391151032304  0.5688223806485126
  0.7445471910024182  0.7400215866272646  0.5786442042206872
  0.9164718928746112  0.2525000248592661  0.4004701309824910
  0.7673875130835199  0.6852292603820160  0.4003097218508458
  0.9171570583281721  0.3316720801765456  0.5719864515756399
  0.4169127433038682  0.8804608519679959  0.7301294707081851
 
  0.00000000E+00  0.00000000E+00  0.00000000E+00
  0.00000000E+00  0.00000000E+00  0.00000000E+00
  0.00000000E+00  0.00000000E+00  0.00000000E+00
  0.00000000E+00  0.00000000E+00  0.00000000E+00
  0.00000000E+00  0.00000000E+00  0.00000000E+00
  0.00000000E+00  0.00000000E+00  0.00000000E+00
  0.00000000E+00  0.00000000E+00  0.00000000E+00
  0.00000000E+00  0.00000000E+00  0.00000000E+00
  0.00000000E+00  0.00000000E+00  0.00000000E+00
  0.00000000E+00  0.00000000E+00  0.00000000E+00
  0.00000000E+00  0.00000000E+00  0.00000000E+00
  0.00000000E+00  0.00000000E+00  0.00000000E+00
  0.00000000E+00  0.00000000E+00  0.00000000E+00
  0.00000000E+00  0.00000000E+00  0.00000000E+00
  0.00000000E+00  0.00000000E+00  0.00000000E+00
  0.00000000E+00  0.00000000E+00  0.00000000E+00
  0.00000000E+00  0.00000000E+00  0.00000000E+00
  0.00000000E+00  0.00000000E+00  0.00000000E+00
  0.00000000E+00  0.00000000E+00  0.00000000E+00
  0.00000000E+00  0.00000000E+00  0.00000000E+00
  0.00000000E+00  0.00000000E+00  0.00000000E+00
  0.00000000E+00  0.00000000E+00  0.00000000E+00
  0.00000000E+00  0.00000000E+00  0.00000000E+00
  0.00000000E+00  0.00000000E+00  0.00000000E+00
  0.00000000E+00  0.00000000E+00  0.00000000E+00
  0.00000000E+00  0.00000000E+00  0.00000000E+00
  0.00000000E+00  0.00000000E+00  0.00000000E+00
  0.00000000E+00  0.00000000E+00  0.00000000E+00
  0.00000000E+00  0.00000000E+00  0.00000000E+00
  0.00000000E+00  0.00000000E+00  0.00000000E+00
  0.00000000E+00  0.00000000E+00  0.00000000E+00
  0.00000000E+00  0.00000000E+00  0.00000000E+00
  0.00000000E+00  0.00000000E+00  0.00000000E+00
  0.00000000E+00  0.00000000E+00  0.00000000E+00
  0.00000000E+00  0.00000000E+00  0.00000000E+00
  0.00000000E+00  0.00000000E+00  0.00000000E+00
  0.00000000E+00  0.00000000E+00  0.00000000E+00
  0.00000000E+00  0.00000000E+00  0.00000000E+00
  0.00000000E+00  0.00000000E+00  0.00000000E+00
  0.00000000E+00  0.00000000E+00  0.00000000E+00
  0.00000000E+00  0.00000000E+00  0.00000000E+00
  0.00000000E+00  0.00000000E+00  0.00000000E+00
  0.00000000E+00  0.00000000E+00  0.00000000E+00
