 V2 Ag2 P4 S12                          
   1.00000000000000     
     5.8961512753213245    0.0000000000000000    0.0000000000000000
     0.0000000000000000   10.6548753430034591    0.0000000000000000
     0.0000000000000000    0.0000000000000000   18.7763323409839984
   V    Ag   P    S 
     2     2     4    12
Direct
  0.2497718398006086  0.9276742980322155  0.5000063147382861
  0.7502310400696359  0.0723233390347815  0.4999938131045312
  0.7500468527017077  0.4302970789806722  0.5000359640119285
  0.2499509096781480  0.5697034274210893  0.4999638638011845
  0.2423045977526783  0.2503981746663158  0.5595150310960548
  0.7421892990640728  0.7495975092900053  0.5595349206827649
  0.7576966888615075  0.7496008571242569  0.4404850273366918
  0.2578089963626056  0.2504015326227957  0.4404648627480867
  0.9192523501392387  0.9197497331196871  0.5799664249892089
  0.6092943380304519  0.6001882016507309  0.3996818365364945
  0.9076967288301390  0.2301819302649548  0.5829849369651896
  0.5924086023987130  0.2301658355076128  0.4170042074710238
  0.1093099892887750  0.3997584580247491  0.3996383285914291
  0.4075797971521595  0.7698332273835078  0.5829962245300848
  0.0923150317597958  0.7698154194915077  0.4170150020829766
  0.5806832196136540  0.9197345099948464  0.4200793557736731
  0.0807481934382395  0.0802517896184867  0.4200336920046652
  0.4193185201248966  0.0802676978510917  0.5799203084299194
  0.3906940868392397  0.3998138937026212  0.6003189319517119
  0.8906989180937401  0.6002430862180717  0.6003609531540874
 
  0.00000000E+00  0.00000000E+00  0.00000000E+00
  0.00000000E+00  0.00000000E+00  0.00000000E+00
  0.00000000E+00  0.00000000E+00  0.00000000E+00
  0.00000000E+00  0.00000000E+00  0.00000000E+00
  0.00000000E+00  0.00000000E+00  0.00000000E+00
  0.00000000E+00  0.00000000E+00  0.00000000E+00
  0.00000000E+00  0.00000000E+00  0.00000000E+00
  0.00000000E+00  0.00000000E+00  0.00000000E+00
  0.00000000E+00  0.00000000E+00  0.00000000E+00
  0.00000000E+00  0.00000000E+00  0.00000000E+00
  0.00000000E+00  0.00000000E+00  0.00000000E+00
  0.00000000E+00  0.00000000E+00  0.00000000E+00
  0.00000000E+00  0.00000000E+00  0.00000000E+00
  0.00000000E+00  0.00000000E+00  0.00000000E+00
  0.00000000E+00  0.00000000E+00  0.00000000E+00
  0.00000000E+00  0.00000000E+00  0.00000000E+00
  0.00000000E+00  0.00000000E+00  0.00000000E+00
  0.00000000E+00  0.00000000E+00  0.00000000E+00
  0.00000000E+00  0.00000000E+00  0.00000000E+00
  0.00000000E+00  0.00000000E+00  0.00000000E+00
