CONTCAR\(3)                             
   1.00000000000000     
    13.4954004288000000    0.0000000000000000    0.0000000000000000
    -3.3738461598999998   19.0216094057000014    0.0000000000000000
     0.0000000000000000    0.0000000000000000   18.9101009369000010
   Ta   Pd   Se   O    H 
    16     8    48     1     1
Selective dynamics
Direct
  0.0879521231889342  0.3513264693684874  0.5264439927611804   F   F   F
  0.1615359238077758  0.1484374828633079  0.4771617621915496   F   F   F
  0.3376079696250613  0.3512875457228830  0.5264077814587083   F   F   F
  0.4124308525247002  0.1487905158165432  0.4771509198839823   F   F   F
  0.5880369954579550  0.3518375006204622  0.5265620580979586   F   F   F
  0.6614611058532631  0.1490535176074275  0.4774297941658361   F   F   F
  0.8380121475539752  0.3521434091649169  0.5263138047268470   F   F   F
  0.9119275039476165  0.1486748626679670  0.4774828379396183   F   F   F
  0.0905308442192876  0.8525677854513205  0.5265032359723207   F   F   F
  0.1637641932143268  0.6473687772428747  0.4801529012536108   F   F   F
  0.3375907323767038  0.8553866897091993  0.5224011779025730   F   F   F
  0.4134380117514738  0.6434200907198502  0.4784061320455137   F   F   F
  0.5953815457795955  0.8554703007299977  0.5230739174604224   F   F   F
  0.6646521631568163  0.6477074382758161  0.4799188108772299   F   F   F
  0.8409802318051618  0.8526974851200109  0.5263201142720462   F   F   F
  0.9143775258593791  0.6478833621180797  0.4797323171543795   F   F   F
  0.0020644999722919  0.0012249982931962  0.5012577265929608   F   F   F
  0.2504656181672757  0.9990440965088538  0.5016400297189492   F   F   F
  0.5013709598773346  0.0026618967438381  0.4996196683826284   F   F   F
  0.7508712932783084  0.9993167877109741  0.5017699182118278   F   F   F
  0.0025684945931914  0.5008880407706116  0.5026127988323807   F   F   F
  0.2509361619786645  0.4982221099134492  0.5037821492566010   F   F   F
  0.5016936090320243  0.4997736792217111  0.5025233695109890   F   F   F
  0.7509232287787668  0.5001358475086306  0.5033139357297998   F   F   F
  0.2298311494465963  0.4187152401387877  0.6074958985989980   F   F   F
  0.0195330062469381  0.0803503509707397  0.3969274963032987   F   F   F
  0.0606751145474362  0.2437343891199717  0.4287821460340240   F   F   F
  0.2230494721873342  0.3923370495864162  0.4289333521487251   F   F   F
  0.0272525668988450  0.1081344177486443  0.5750798388624787   F   F   F
  0.1889446817606668  0.2558981732230876  0.5746706820675911   F   F   F
  0.4801446867924497  0.4206341745625082  0.6061145608441691   F   F   F
  0.2693685418818390  0.0783813055856442  0.3983888999218266   F   F   F
  0.3107152836565561  0.2432952523038097  0.4285077439599974   F   F   F
  0.4729395281185234  0.3930257670952315  0.4289167559643587   F   F   F
  0.2767075984948733  0.1063758788696916  0.5745708328054349   F   F   F
  0.4387719766964793  0.2566136832526382  0.5748938584102774   F   F   F
  0.7302995702643358  0.4203502141905560  0.6067225439788615   F   F   F
  0.5205006709861024  0.0822181924891936  0.3955536200726755   F   F   F
  0.5609522128188686  0.2444421520603939  0.4291221777361400   F   F   F
  0.7232472901648848  0.3935024120071091  0.4289808982595105   F   F   F
  0.5270269635584199  0.1085377728921060  0.5750128308484648   F   F   F
  0.6893781780145716  0.2569957536439276  0.5750591228266870   F   F   F
  0.9808265834298666  0.4211443045450238  0.6058236451976740   F   F   F
  0.7690565084581777  0.0787854172277846  0.3985884549338152   F   F   F
  0.8108516899444496  0.2436662247196253  0.4289467654714798   F   F   F
  0.9735389024026162  0.3939444480654473  0.4289514989127170   F   F   F
  0.7765134120143742  0.1065012947875630  0.5748687670532320   F   F   F
  0.9387032159172790  0.2569123984444559  0.5750499005267002   F   F   F
  0.2325656688696327  0.9206595768561101  0.6065562653414958   F   F   F
  0.0224475122460035  0.5803186814127912  0.3987620547137212   F   F   F
  0.0637543845747643  0.7421942603537417  0.4314472708190706   F   F   F
  0.2224748835451322  0.8925385947115601  0.4260501714152127   F   F   F
  0.0291695969444632  0.6071934831686860  0.5777683757216607   F   F   F
  0.1939103345468496  0.7581288660612628  0.5754998451901159   F   F   F
  0.4831338917164771  0.9226151532652409  0.6028678381543742   F   F   F
  0.2699148290385907  0.5767044155450307  0.3996107004882319   F   F   F
  0.3147040303618027  0.7416503051021621  0.4298492534105520   F   F   F
  0.4762569278279898  0.8957457609029404  0.4263827211002607   F   F   F
  0.2791094893243340  0.6054599803402638  0.5772192926896125   F   F   F
  0.4422522595882796  0.7584291823492748  0.5629313838687295   F   F   F
  0.7333806072149045  0.9209848114323549  0.6066147520251803   F   F   F
  0.5235827242142292  0.5784825004322585  0.3980951964606234   F   F   F
  0.5606521119905494  0.7422763681464559  0.4303977535616781   F   F   F
  0.7283206919314864  0.8929187853932845  0.4262084777237689   F   F   F
  0.5292801947607657  0.6062107982386564  0.5771619183355057   F   F   F
  0.6906606651136329  0.7585318235557210  0.5751884992821985   F   F   F
  0.9834168782080468  0.9227100329835380  0.6054391919060222   F   F   F
  0.7720886316147215  0.5792628915781819  0.3996103610762489   F   F   F
  0.8126687563959791  0.7421611900909539  0.4310143160090760   F   F   F
  0.9760313838991124  0.8937754938886755  0.4285322077049827   F   F   F
  0.7791588669651830  0.6068986316080682  0.5776285792894953   F   F   F
  0.9417963415548698  0.7582991428962416  0.5756823498096466   F   F   F
  0.4423733293916357  0.7541369894278063  0.6611480082252115   T   T   T
  0.3708728586581742  0.7453570788580065  0.6736768366776836   T   T   T
 
  0.00000000E+00  0.00000000E+00  0.00000000E+00
  0.00000000E+00  0.00000000E+00  0.00000000E+00
  0.00000000E+00  0.00000000E+00  0.00000000E+00
  0.00000000E+00  0.00000000E+00  0.00000000E+00
  0.00000000E+00  0.00000000E+00  0.00000000E+00
  0.00000000E+00  0.00000000E+00  0.00000000E+00
  0.00000000E+00  0.00000000E+00  0.00000000E+00
  0.00000000E+00  0.00000000E+00  0.00000000E+00
  0.00000000E+00  0.00000000E+00  0.00000000E+00
  0.00000000E+00  0.00000000E+00  0.00000000E+00
  0.00000000E+00  0.00000000E+00  0.00000000E+00
  0.00000000E+00  0.00000000E+00  0.00000000E+00
  0.00000000E+00  0.00000000E+00  0.00000000E+00
  0.00000000E+00  0.00000000E+00  0.00000000E+00
  0.00000000E+00  0.00000000E+00  0.00000000E+00
  0.00000000E+00  0.00000000E+00  0.00000000E+00
  0.00000000E+00  0.00000000E+00  0.00000000E+00
  0.00000000E+00  0.00000000E+00  0.00000000E+00
  0.00000000E+00  0.00000000E+00  0.00000000E+00
  0.00000000E+00  0.00000000E+00  0.00000000E+00
  0.00000000E+00  0.00000000E+00  0.00000000E+00
  0.00000000E+00  0.00000000E+00  0.00000000E+00
  0.00000000E+00  0.00000000E+00  0.00000000E+00
  0.00000000E+00  0.00000000E+00  0.00000000E+00
  0.00000000E+00  0.00000000E+00  0.00000000E+00
  0.00000000E+00  0.00000000E+00  0.00000000E+00
  0.00000000E+00  0.00000000E+00  0.00000000E+00
  0.00000000E+00  0.00000000E+00  0.00000000E+00
  0.00000000E+00  0.00000000E+00  0.00000000E+00
  0.00000000E+00  0.00000000E+00  0.00000000E+00
  0.00000000E+00  0.00000000E+00  0.00000000E+00
  0.00000000E+00  0.00000000E+00  0.00000000E+00
  0.00000000E+00  0.00000000E+00  0.00000000E+00
  0.00000000E+00  0.00000000E+00  0.00000000E+00
  0.00000000E+00  0.00000000E+00  0.00000000E+00
  0.00000000E+00  0.00000000E+00  0.00000000E+00
  0.00000000E+00  0.00000000E+00  0.00000000E+00
  0.00000000E+00  0.00000000E+00  0.00000000E+00
  0.00000000E+00  0.00000000E+00  0.00000000E+00
  0.00000000E+00  0.00000000E+00  0.00000000E+00
  0.00000000E+00  0.00000000E+00  0.00000000E+00
  0.00000000E+00  0.00000000E+00  0.00000000E+00
  0.00000000E+00  0.00000000E+00  0.00000000E+00
  0.00000000E+00  0.00000000E+00  0.00000000E+00
  0.00000000E+00  0.00000000E+00  0.00000000E+00
  0.00000000E+00  0.00000000E+00  0.00000000E+00
  0.00000000E+00  0.00000000E+00  0.00000000E+00
  0.00000000E+00  0.00000000E+00  0.00000000E+00
  0.00000000E+00  0.00000000E+00  0.00000000E+00
  0.00000000E+00  0.00000000E+00  0.00000000E+00
  0.00000000E+00  0.00000000E+00  0.00000000E+00
  0.00000000E+00  0.00000000E+00  0.00000000E+00
  0.00000000E+00  0.00000000E+00  0.00000000E+00
  0.00000000E+00  0.00000000E+00  0.00000000E+00
  0.00000000E+00  0.00000000E+00  0.00000000E+00
  0.00000000E+00  0.00000000E+00  0.00000000E+00
  0.00000000E+00  0.00000000E+00  0.00000000E+00
  0.00000000E+00  0.00000000E+00  0.00000000E+00
  0.00000000E+00  0.00000000E+00  0.00000000E+00
  0.00000000E+00  0.00000000E+00  0.00000000E+00
  0.00000000E+00  0.00000000E+00  0.00000000E+00
  0.00000000E+00  0.00000000E+00  0.00000000E+00
  0.00000000E+00  0.00000000E+00  0.00000000E+00
  0.00000000E+00  0.00000000E+00  0.00000000E+00
  0.00000000E+00  0.00000000E+00  0.00000000E+00
  0.00000000E+00  0.00000000E+00  0.00000000E+00
  0.00000000E+00  0.00000000E+00  0.00000000E+00
  0.00000000E+00  0.00000000E+00  0.00000000E+00
  0.00000000E+00  0.00000000E+00  0.00000000E+00
  0.00000000E+00  0.00000000E+00  0.00000000E+00
  0.00000000E+00  0.00000000E+00  0.00000000E+00
  0.00000000E+00  0.00000000E+00  0.00000000E+00
  0.00000000E+00  0.00000000E+00  0.00000000E+00
  0.00000000E+00  0.00000000E+00  0.00000000E+00
