CONTCAR\(6)                             
   1.00000000000000     
    10.0733995438000008    0.0000000000000000    0.0000000000000000
     0.0000000000000000    9.7955999374000005    0.0000000000000000
     0.0000000000000000    0.0000000000000000   18.6921005248999990
   Ta   Se   O    H 
    12    18     2     1
Direct
  0.0887661377932640  0.5552713210480142  0.5042269880814374
  0.2716242132423233  0.2999283772667377  0.5060569400349013
  0.0887513318181531  0.8667583620444421  0.5557084612437571
  0.2560420325843860  0.9891735456756251  0.4547575437924557
  0.4269738351807499  0.5520847304900648  0.5056982811681114
  0.5884016242450346  0.3033408809954633  0.5036400610565661
  0.4236193313881791  0.8659152537871210  0.5556067944980838
  0.5886811526341180  0.9877092556282742  0.4546961563167658
  0.7499151218074840  0.5519252934458744  0.5059776014875111
  0.9056853673297931  0.2999186333067421  0.5070974334399675
  0.7534971193794927  0.8656153736304578  0.5557493374264966
  0.9212585256049020  0.9892423841984033  0.4548967830679296
  0.0893980083458210  0.3668211139837565  0.5942251966771230
  0.2569948994677037  0.4843590158217519  0.4069037129926317
  0.0885859426420065  0.1781323752994566  0.4133443949350783
  0.2558833518108823  0.6770544461548025  0.5981568239921884
  0.2573088518160044  0.0580928873833262  0.5900372205812749
  0.0886221385437914  0.7974833111540909  0.4208595917560223
  0.4270151876975417  0.3711938035452756  0.6070106011437080
  0.5887732059054297  0.4867045605740228  0.4036483041743338
  0.4226636600677303  0.1778516683144898  0.4086968900029025
  0.5885925049724440  0.6762858021854778  0.6011532507659796
  0.5884185975688146  0.0586735043710888  0.5898102992439700
  0.4221738767311014  0.7956267505108719  0.4206611859827768
  0.7487483719820522  0.3715028850023531  0.6073412448943536
  0.9199654552655303  0.4838593828642981  0.4074677417156999
  0.7546542444778196  0.1781748904471870  0.4090668834464458
  0.9215304819671257  0.6769305521975747  0.5983212110424657
  0.9198588708987024  0.0575858236323467  0.5901965096440718
  0.7552547532850521  0.7956661549993723  0.4208008247599512
  0.1022672131074579  0.3938252126905729  0.7083281361522042
 -0.0159790875719930  0.3517145942412611  0.7438304827801645
  0.0069134910111119  0.2590573661094410  0.7596469287026403
 
  0.00000000E+00  0.00000000E+00  0.00000000E+00
  0.00000000E+00  0.00000000E+00  0.00000000E+00
  0.00000000E+00  0.00000000E+00  0.00000000E+00
  0.00000000E+00  0.00000000E+00  0.00000000E+00
  0.00000000E+00  0.00000000E+00  0.00000000E+00
  0.00000000E+00  0.00000000E+00  0.00000000E+00
  0.00000000E+00  0.00000000E+00  0.00000000E+00
  0.00000000E+00  0.00000000E+00  0.00000000E+00
  0.00000000E+00  0.00000000E+00  0.00000000E+00
  0.00000000E+00  0.00000000E+00  0.00000000E+00
  0.00000000E+00  0.00000000E+00  0.00000000E+00
  0.00000000E+00  0.00000000E+00  0.00000000E+00
  0.00000000E+00  0.00000000E+00  0.00000000E+00
  0.00000000E+00  0.00000000E+00  0.00000000E+00
  0.00000000E+00  0.00000000E+00  0.00000000E+00
  0.00000000E+00  0.00000000E+00  0.00000000E+00
  0.00000000E+00  0.00000000E+00  0.00000000E+00
  0.00000000E+00  0.00000000E+00  0.00000000E+00
  0.00000000E+00  0.00000000E+00  0.00000000E+00
  0.00000000E+00  0.00000000E+00  0.00000000E+00
  0.00000000E+00  0.00000000E+00  0.00000000E+00
  0.00000000E+00  0.00000000E+00  0.00000000E+00
  0.00000000E+00  0.00000000E+00  0.00000000E+00
  0.00000000E+00  0.00000000E+00  0.00000000E+00
  0.00000000E+00  0.00000000E+00  0.00000000E+00
  0.00000000E+00  0.00000000E+00  0.00000000E+00
  0.00000000E+00  0.00000000E+00  0.00000000E+00
  0.00000000E+00  0.00000000E+00  0.00000000E+00
  0.00000000E+00  0.00000000E+00  0.00000000E+00
  0.00000000E+00  0.00000000E+00  0.00000000E+00
  0.00000000E+00  0.00000000E+00  0.00000000E+00
  0.00000000E+00  0.00000000E+00  0.00000000E+00
  0.00000000E+00  0.00000000E+00  0.00000000E+00
