CONTCAR                                 
   1.00000000000000     
    12.9092998505000001    0.0000000000000000    0.0000000000000000
     0.0000000000000000   11.5581998825000003    0.0000000000000000
     0.0000000000000000    0.0000000000000000   18.7824001311999993
   Nb   Ge   Te   O    H 
    12     4    24     1     1
Direct
  0.3401937616128084  0.7162738524497504  0.4985610851717842
  0.0929380809376312  0.2771236985840801  0.4981823416307558
  0.4783457008968629  0.0572792058859434  0.4982096166269443
  0.2274334516903933  0.9311027086600762  0.4980752118005054
  0.3256638071902133  0.4037422967943378  0.4977111574986102
  0.0816618828730096  0.5783846067712821  0.4984245158469229
  0.8422283567356867  0.7092301158972901  0.4988222130983280
  0.5937328149583457  0.2768157809884612  0.4986198811886141
  0.9766145127398548  0.0577713964566317  0.4982141282643905
  0.7277447484282784  0.9301822320828436  0.4986428615867407
  0.8298705515844741  0.4118973793969937  0.4988140725409863
  0.5922179202154524  0.5760747346512066  0.4987912842494576
  0.2823628122422077  0.1669914149384558  0.4979345569667599
  0.0320047242881121  0.8185905342373362  0.4980368835586065
  0.7831604534873459  0.1692203686321951  0.4985770176687094
  0.5339651190583966  0.8193842366602762  0.4978133271575755
  0.4224271764058684  0.5566066683169347  0.5856231620326071
  0.1696495751676939  0.4267147645864729  0.3956968974007525
  0.1694733020498708  0.4263800969580420  0.6007709404720643
  0.4237406300005904  0.5588071554794333  0.4005941131933937
  0.3878629341440249  0.9034201160961670  0.5994591329094278
  0.1366026665017020  0.0852887741342671  0.3972450746845150
  0.1370507117741230  0.0851859757707111  0.5988172942941425
  0.3883114981336333  0.9032601081492626  0.3969169806345806
  0.1764702690597237  0.7390964541897999  0.5972405337069761
  0.4278220700901948  0.2493258046453430  0.3998834454405268
  0.4272385971102389  0.2478617811088978  0.5964801989839152
  0.1766973401536031  0.7380167026547411  0.3993873830932705
  0.9225006944648652  0.5617198049486997  0.6005115068264856
  0.6728564175933753  0.4250166348621884  0.3955806677657192
  0.6739205853755353  0.4238850766090564  0.6022099184131563
  0.9214317698861737  0.5614587094507221  0.3968107766202422
  0.8884136103268555  0.9027797311453142  0.5991344711349345
  0.6383356608037937  0.0849652868962380  0.3977128005757780
  0.6379667265423108  0.0847902451824133  0.5993709657010978
  0.8877896222568532  0.9021998120879058  0.3977449182123929
  0.6780487164765123  0.7385592761406341  0.5979026719581650
  0.9264908993741167  0.2517806817905204  0.4005235091374098
  0.9271281225221704  0.2513363021356432  0.5963665415976750
  0.6778071919039946  0.7380045713535829  0.3993091508646163
  0.4145857497931933  0.5346679827448265  0.6922225815228213
  0.4690990791499512  0.5822669414750271  0.7136343959676489
 
  0.00000000E+00  0.00000000E+00  0.00000000E+00
  0.00000000E+00  0.00000000E+00  0.00000000E+00
  0.00000000E+00  0.00000000E+00  0.00000000E+00
  0.00000000E+00  0.00000000E+00  0.00000000E+00
  0.00000000E+00  0.00000000E+00  0.00000000E+00
  0.00000000E+00  0.00000000E+00  0.00000000E+00
  0.00000000E+00  0.00000000E+00  0.00000000E+00
  0.00000000E+00  0.00000000E+00  0.00000000E+00
  0.00000000E+00  0.00000000E+00  0.00000000E+00
  0.00000000E+00  0.00000000E+00  0.00000000E+00
  0.00000000E+00  0.00000000E+00  0.00000000E+00
  0.00000000E+00  0.00000000E+00  0.00000000E+00
  0.00000000E+00  0.00000000E+00  0.00000000E+00
  0.00000000E+00  0.00000000E+00  0.00000000E+00
  0.00000000E+00  0.00000000E+00  0.00000000E+00
  0.00000000E+00  0.00000000E+00  0.00000000E+00
  0.00000000E+00  0.00000000E+00  0.00000000E+00
  0.00000000E+00  0.00000000E+00  0.00000000E+00
  0.00000000E+00  0.00000000E+00  0.00000000E+00
  0.00000000E+00  0.00000000E+00  0.00000000E+00
  0.00000000E+00  0.00000000E+00  0.00000000E+00
  0.00000000E+00  0.00000000E+00  0.00000000E+00
  0.00000000E+00  0.00000000E+00  0.00000000E+00
  0.00000000E+00  0.00000000E+00  0.00000000E+00
  0.00000000E+00  0.00000000E+00  0.00000000E+00
  0.00000000E+00  0.00000000E+00  0.00000000E+00
  0.00000000E+00  0.00000000E+00  0.00000000E+00
  0.00000000E+00  0.00000000E+00  0.00000000E+00
  0.00000000E+00  0.00000000E+00  0.00000000E+00
  0.00000000E+00  0.00000000E+00  0.00000000E+00
  0.00000000E+00  0.00000000E+00  0.00000000E+00
  0.00000000E+00  0.00000000E+00  0.00000000E+00
  0.00000000E+00  0.00000000E+00  0.00000000E+00
  0.00000000E+00  0.00000000E+00  0.00000000E+00
  0.00000000E+00  0.00000000E+00  0.00000000E+00
  0.00000000E+00  0.00000000E+00  0.00000000E+00
  0.00000000E+00  0.00000000E+00  0.00000000E+00
  0.00000000E+00  0.00000000E+00  0.00000000E+00
  0.00000000E+00  0.00000000E+00  0.00000000E+00
  0.00000000E+00  0.00000000E+00  0.00000000E+00
  0.00000000E+00  0.00000000E+00  0.00000000E+00
  0.00000000E+00  0.00000000E+00  0.00000000E+00
