CONTCAR                                 
   1.00000000000000     
    11.2503995895000006    0.0000000000000000    0.0000000000000000
     0.0000000000000000   11.4902000426999997    0.0000000000000000
     0.0000000000000000    0.0000000000000000   19.3134994507000002
   Cr   Te   O    H 
     8    24     1     1
Direct
  0.0029989261054946  0.6796260443630634  0.5008380930746067
  0.4697631686950314  0.8457134057232317  0.4966539473942799
  0.0102133769540794  0.3256607285118531  0.5017969404993816
  0.4708953540008705  0.1520966830423081  0.4979165444033943
  0.2451118553784420  0.4959645444709757  0.5127085666789156
  0.7733481074332473  0.0001494542560295  0.4897830087790511
  0.6891532236105983  0.4996879535612551  0.4805398884335538
  0.2406603314045689 -0.0004344149859446  0.5060860468304978
  0.8848533405571201  0.5006393738373621  0.5581991968599134
  0.3963917591466469  0.0002195077975019  0.4046540217645790
  0.0800371527556243  0.5015864484520665  0.4174298588098364
  0.5854315011852722 -0.0016613145308998  0.5794274083651767
  0.3269131798931706  0.1470087947055412  0.6025266086555269
  0.8237916140614483  0.3425968246061262  0.4093630638905371
  0.6521152992294337  0.8484140166599389  0.4056033504031418
  0.1609187843893488  0.6491468687960938  0.6032070466232270
  0.1626899622470381  0.3480713588830579  0.6053496266225729
  0.6538057681535004  0.1530778028060194  0.4073108341685890
  0.8196427296280706  0.6582634062869186  0.4076415144185174
  0.3258755116769193  0.8490284456544434  0.6009876445577028
  0.5962196801600091  0.3228473180821310  0.5616796519714806
  0.1265575488057573  0.1641748275526349  0.4259298933889443
  0.3532787553090478  0.6706034168648302  0.4408476428522410
  0.8801161574086899  0.8371557934151542  0.5728556541855570
  0.4252764805714384  0.4994320933909246  0.6022011630013679
  0.9361743182018403  0.0013535205084430  0.3890068835425988
  0.5287788232625397  0.4992403375321108  0.3834023285928552
  0.0702325065047049  0.0003512068574751  0.6035213641089952
  0.5952581198322484  0.6758716941787433  0.5609125293495905
  0.1249766243599099  0.8378845093408621  0.4252001325739699
  0.3544189931186125  0.3262534011868347  0.4425115461740625
  0.8830618062093006  0.1657300729593284  0.5708389921656450
  0.8570043521984212  0.5019984656866752  0.6612377182063395
  0.9348349205515558  0.5065674015469389  0.6838612296533431
 
  0.00000000E+00  0.00000000E+00  0.00000000E+00
  0.00000000E+00  0.00000000E+00  0.00000000E+00
  0.00000000E+00  0.00000000E+00  0.00000000E+00
  0.00000000E+00  0.00000000E+00  0.00000000E+00
  0.00000000E+00  0.00000000E+00  0.00000000E+00
  0.00000000E+00  0.00000000E+00  0.00000000E+00
  0.00000000E+00  0.00000000E+00  0.00000000E+00
  0.00000000E+00  0.00000000E+00  0.00000000E+00
  0.00000000E+00  0.00000000E+00  0.00000000E+00
  0.00000000E+00  0.00000000E+00  0.00000000E+00
  0.00000000E+00  0.00000000E+00  0.00000000E+00
  0.00000000E+00  0.00000000E+00  0.00000000E+00
  0.00000000E+00  0.00000000E+00  0.00000000E+00
  0.00000000E+00  0.00000000E+00  0.00000000E+00
  0.00000000E+00  0.00000000E+00  0.00000000E+00
  0.00000000E+00  0.00000000E+00  0.00000000E+00
  0.00000000E+00  0.00000000E+00  0.00000000E+00
  0.00000000E+00  0.00000000E+00  0.00000000E+00
  0.00000000E+00  0.00000000E+00  0.00000000E+00
  0.00000000E+00  0.00000000E+00  0.00000000E+00
  0.00000000E+00  0.00000000E+00  0.00000000E+00
  0.00000000E+00  0.00000000E+00  0.00000000E+00
  0.00000000E+00  0.00000000E+00  0.00000000E+00
  0.00000000E+00  0.00000000E+00  0.00000000E+00
  0.00000000E+00  0.00000000E+00  0.00000000E+00
  0.00000000E+00  0.00000000E+00  0.00000000E+00
  0.00000000E+00  0.00000000E+00  0.00000000E+00
  0.00000000E+00  0.00000000E+00  0.00000000E+00
  0.00000000E+00  0.00000000E+00  0.00000000E+00
  0.00000000E+00  0.00000000E+00  0.00000000E+00
  0.00000000E+00  0.00000000E+00  0.00000000E+00
  0.00000000E+00  0.00000000E+00  0.00000000E+00
  0.00000000E+00  0.00000000E+00  0.00000000E+00
  0.00000000E+00  0.00000000E+00  0.00000000E+00
