 Cu4 Te4 O12                            
   1.00000000000000     
     7.4292834603928135    0.0000000000000000    0.0000000000000000
     0.0000000000000000    8.6824134881498853    0.0000000000000000
    -0.1302775542224235    0.0000000000000000   17.7376334087797289
   Cu   Te   O 
     4     4    12
Direct
  0.6830179200768369  0.5225094128222278  0.5280107144009392
  0.1830169865510739  0.9775016366224677  0.5280077415001430
  0.3169819623346526  0.4774927998308469  0.4719908708492453
  0.8169834012276734  0.0224976575120272  0.4719898216894835
  0.5549791495657829  0.2041017921000489  0.5856796443811253
  0.4450305951072285  0.7958962765153843  0.4143222193313301
  0.9450236461448103  0.7040912233190357  0.4143233209324169
  0.0549678959727294  0.2959026947911224  0.5856780083241904
  0.6089698848687513  0.1475044670470791  0.4860806226364291
  0.5345204441651595  0.5914533495506689  0.4404731114151056
  0.8015167706225963  0.3669975839617051  0.5886889687250415
  0.9654885518764520  0.0914680078698538  0.5595302233971593
  0.6984615321424309  0.8669965781155554  0.4113186916154428
  0.3015320852094907  0.1330011977746776  0.5886781196002286
  0.8910147583130025  0.6474945985164963  0.5139178383856147
  0.3910307691045856  0.8524972897760916  0.5139155850416688
  0.0345119695336158  0.9085331455698873  0.4404670869813287
  0.4654831190861583  0.4085561950174936  0.5595336044864858
  0.1089852279603011  0.3525002954234049  0.4860815566910398
  0.1984832501366615  0.6330037098639112  0.4113121460970794
 
  0.00000000E+00  0.00000000E+00  0.00000000E+00
  0.00000000E+00  0.00000000E+00  0.00000000E+00
  0.00000000E+00  0.00000000E+00  0.00000000E+00
  0.00000000E+00  0.00000000E+00  0.00000000E+00
  0.00000000E+00  0.00000000E+00  0.00000000E+00
  0.00000000E+00  0.00000000E+00  0.00000000E+00
  0.00000000E+00  0.00000000E+00  0.00000000E+00
  0.00000000E+00  0.00000000E+00  0.00000000E+00
  0.00000000E+00  0.00000000E+00  0.00000000E+00
  0.00000000E+00  0.00000000E+00  0.00000000E+00
  0.00000000E+00  0.00000000E+00  0.00000000E+00
  0.00000000E+00  0.00000000E+00  0.00000000E+00
  0.00000000E+00  0.00000000E+00  0.00000000E+00
  0.00000000E+00  0.00000000E+00  0.00000000E+00
  0.00000000E+00  0.00000000E+00  0.00000000E+00
  0.00000000E+00  0.00000000E+00  0.00000000E+00
  0.00000000E+00  0.00000000E+00  0.00000000E+00
  0.00000000E+00  0.00000000E+00  0.00000000E+00
  0.00000000E+00  0.00000000E+00  0.00000000E+00
  0.00000000E+00  0.00000000E+00  0.00000000E+00
