CONTCAR                                 
   1.00000000000000     
    11.6387996674000007    0.0000000000000000    0.0000000000000000
     5.8194217944000002   10.1357943405000004    0.0000000000000000
     0.0000000000000000    0.0000000000000000   18.1699008942000013
   Li   Ni   P    S    O    H 
     4     4     8    24     1     1
Direct
  0.3418521461939577  0.3209220555392918  0.5016150284456060
  0.8444998694625170  0.3263672458997391  0.4985638131184231
  0.3412501980915863  0.8310729003289268  0.5106069417660208
  0.8431744260106697  0.8277512974063299  0.4921390138867707
  0.1716784255623054  0.1643651458434761  0.4996749450808977
  0.6849633626546066  0.1393959345446234  0.4953757352662009
  0.1700463942106012  0.6678656254969582  0.5008023542290161
  0.6759608537860373  0.6569957389713323  0.5068328313200041
  0.5045451485896422  0.5114610668349755  0.5808776143681840
  0.0080800330710886  0.4920446797027367  0.4355672078038921
  0.0058101813789904  0.4963591688414652  0.5560403245980297
  0.5068884809287155  0.4891916570271064  0.4598565673029498
  0.5061585305073777  0.9977359727696822  0.5658981168767880
  0.0125285423750015  0.9896270598330545  0.4338867954641188
  0.0036196963432999  0.9962925497034334  0.5539899691407513
  0.5078000569329788  0.9896034450834463  0.4459205980255021
  0.0218020854841043  0.3206141178715640  0.5856166333489981
  0.3304474438424734  0.1622186761861357  0.5900074684883663
  0.0246508471526923  0.1526665607537510  0.4081773376317912
  0.1742331351521784  0.3143299215779720  0.4135974357920844
  0.3305476102877165  0.0083760925079375  0.4171623673185252
  0.1586570882189662  0.0180838700789465  0.5874199418533621
  0.5101509049535764  0.3435591678925931  0.6324963768064933
  0.8228607546864595  0.1567426214207117  0.5784664057005884
  0.5285261985457339  0.1502629813486465  0.4188493870959462
  0.6638472358149770  0.3148788565858069  0.4263361198468090
  0.8443918123572942  0.9963175813744414  0.4006159745864935
  0.6705365384300848  0.0155804149097989  0.5859925596379725
  0.0167576494603381  0.8203513535940203  0.5820345488374699
  0.3299512028276723  0.6714730442054631  0.6028834074172593
  0.0216892273581593  0.6514460057220361  0.4054683072957772
  0.1834745607910833  0.8117197388914690  0.4179479224507787
  0.3308520124935725  0.5079676481623494  0.4270780584904301
  0.1663288303354094  0.5160109151921048  0.5831125293847919
  0.5212745271972636  0.8262889261492816  0.5991837751710989
  0.8317100639934836  0.6607456262832372  0.5842086637656294
  0.5234324712435168  0.6500287207638493  0.4290294773620360
  0.6666546923092866  0.8118570499326765  0.4182168502943782
  0.8329003071241559  0.5014170760319487  0.4120327809079214
  0.6792925076178449  0.5104024700346486  0.5955480708477552
  0.4015546973586410  0.4110234786177784  0.6996210908063745
  0.3114988528639344  0.4437064400843127  0.6789187021677066
 
  0.00000000E+00  0.00000000E+00  0.00000000E+00
  0.00000000E+00  0.00000000E+00  0.00000000E+00
  0.00000000E+00  0.00000000E+00  0.00000000E+00
  0.00000000E+00  0.00000000E+00  0.00000000E+00
  0.00000000E+00  0.00000000E+00  0.00000000E+00
  0.00000000E+00  0.00000000E+00  0.00000000E+00
  0.00000000E+00  0.00000000E+00  0.00000000E+00
  0.00000000E+00  0.00000000E+00  0.00000000E+00
  0.00000000E+00  0.00000000E+00  0.00000000E+00
  0.00000000E+00  0.00000000E+00  0.00000000E+00
  0.00000000E+00  0.00000000E+00  0.00000000E+00
  0.00000000E+00  0.00000000E+00  0.00000000E+00
  0.00000000E+00  0.00000000E+00  0.00000000E+00
  0.00000000E+00  0.00000000E+00  0.00000000E+00
  0.00000000E+00  0.00000000E+00  0.00000000E+00
  0.00000000E+00  0.00000000E+00  0.00000000E+00
  0.00000000E+00  0.00000000E+00  0.00000000E+00
  0.00000000E+00  0.00000000E+00  0.00000000E+00
  0.00000000E+00  0.00000000E+00  0.00000000E+00
  0.00000000E+00  0.00000000E+00  0.00000000E+00
  0.00000000E+00  0.00000000E+00  0.00000000E+00
  0.00000000E+00  0.00000000E+00  0.00000000E+00
  0.00000000E+00  0.00000000E+00  0.00000000E+00
  0.00000000E+00  0.00000000E+00  0.00000000E+00
  0.00000000E+00  0.00000000E+00  0.00000000E+00
  0.00000000E+00  0.00000000E+00  0.00000000E+00
  0.00000000E+00  0.00000000E+00  0.00000000E+00
  0.00000000E+00  0.00000000E+00  0.00000000E+00
  0.00000000E+00  0.00000000E+00  0.00000000E+00
  0.00000000E+00  0.00000000E+00  0.00000000E+00
  0.00000000E+00  0.00000000E+00  0.00000000E+00
  0.00000000E+00  0.00000000E+00  0.00000000E+00
  0.00000000E+00  0.00000000E+00  0.00000000E+00
  0.00000000E+00  0.00000000E+00  0.00000000E+00
  0.00000000E+00  0.00000000E+00  0.00000000E+00
  0.00000000E+00  0.00000000E+00  0.00000000E+00
  0.00000000E+00  0.00000000E+00  0.00000000E+00
  0.00000000E+00  0.00000000E+00  0.00000000E+00
  0.00000000E+00  0.00000000E+00  0.00000000E+00
  0.00000000E+00  0.00000000E+00  0.00000000E+00
  0.00000000E+00  0.00000000E+00  0.00000000E+00
  0.00000000E+00  0.00000000E+00  0.00000000E+00
