CONTCAR\(5)                             
   1.00000000000000     
    12.6978998183999998    0.0000000000000000    0.0000000000000000
     0.0000000000000000   11.4748001099000003    0.0000000000000000
     0.0000000000000000    0.0000000000000000   18.8323001862000012
   Ta   Si   Te   O    H 
    12     4    24     2     1
Direct
  0.3333526155375174  0.5871083394880144  0.5000395481982384
  0.0899576491465927  0.4108143378657887  0.5053386355485286
  0.4879394213358325  0.9336849981745220  0.4992230729379181
  0.2399367663744330  0.0601066964061413  0.5032042162858620
  0.3531969430285846  0.2842205843399042  0.5141030615881220
  0.1002120621469960  0.7116165507586097  0.5003528959473380
  0.8355901907825823  0.5802120649158929  0.4998276254927614
  0.5972378133070567  0.4146524424538206  0.5010353646784231
  0.9856165096068836  0.9325472989033778  0.4992221292171482
  0.7363851791305001  0.0579803472936788  0.5005064747861802
  0.8481579449949780  0.2809665767651139  0.5009970439311778
  0.5996571437902486  0.7110332425664846  0.5014231809273878
  0.2887000024491695  0.8225930250537768  0.4982756311749159
  0.0341720049036072  0.1682243223317726  0.4892887561499126
  0.7910614339205827  0.8196084715265116  0.4998303690134109
  0.5405706556566963  0.1724177289494563  0.5047348776249768
  0.4032259883525941  0.0743839961059978  0.6033959403795328
  0.1516250893909518  0.9034642076735997  0.4000871527136268
  0.1491768652069779  0.9006923055867332  0.5999005797081616
  0.4033995943307442  0.0949985995144249  0.4031295078776969
  0.4268912286385125  0.7533357075437066  0.5988386369938865
  0.1857491448538664  0.2529717597315025  0.4068139677337325
  0.1520362286426235  0.2313188098981225  0.6029291928428716
  0.4311248229247495  0.7432718331454030  0.4021501716012265
  0.4511216271275578  0.4729185811609923  0.6042822507337219
  0.1762962613120992  0.5601242524688225  0.3984975108860773
  0.1785972814386725  0.5656440943938937  0.6050556301800193
  0.4269276536177473  0.4252188593746157  0.4048028127651769
  0.9006199565758828  0.0894737706500707  0.5989315119612404
  0.6527763377463901  0.9009915434053932  0.3995123209939637
  0.6529709093299602  0.9009309793532865  0.6006184909941842
  0.8990786345455708  0.0889932568951651  0.3973623275982578
  0.9300582108767715  0.7426604104904545  0.5975491742750775
  0.6766247406326117  0.2475082859151476  0.4033844423017831
  0.6811873859544656  0.2496028381572222  0.6001819915359682
  0.9303923940052479  0.7410982942085087  0.4021862290873022
  0.9254671489916513  0.4291019959706356  0.6038383370283398
  0.6771074333969842  0.5659326935386962  0.3966235727563114
  0.6856840923049030  0.5695884930307960  0.6066779992340493
  0.9287488463402089  0.4282339608185707  0.3997568904523332
  0.3711887970383784  0.3210814421099926  0.6154561885048917
  0.2179029372102477  0.2652504274498890  0.6973860603699392
  0.2885259951013392  0.2958714566154644  0.6833883989883106
 
  0.00000000E+00  0.00000000E+00  0.00000000E+00
  0.00000000E+00  0.00000000E+00  0.00000000E+00
  0.00000000E+00  0.00000000E+00  0.00000000E+00
  0.00000000E+00  0.00000000E+00  0.00000000E+00
  0.00000000E+00  0.00000000E+00  0.00000000E+00
  0.00000000E+00  0.00000000E+00  0.00000000E+00
  0.00000000E+00  0.00000000E+00  0.00000000E+00
  0.00000000E+00  0.00000000E+00  0.00000000E+00
  0.00000000E+00  0.00000000E+00  0.00000000E+00
  0.00000000E+00  0.00000000E+00  0.00000000E+00
  0.00000000E+00  0.00000000E+00  0.00000000E+00
  0.00000000E+00  0.00000000E+00  0.00000000E+00
  0.00000000E+00  0.00000000E+00  0.00000000E+00
  0.00000000E+00  0.00000000E+00  0.00000000E+00
  0.00000000E+00  0.00000000E+00  0.00000000E+00
  0.00000000E+00  0.00000000E+00  0.00000000E+00
  0.00000000E+00  0.00000000E+00  0.00000000E+00
  0.00000000E+00  0.00000000E+00  0.00000000E+00
  0.00000000E+00  0.00000000E+00  0.00000000E+00
  0.00000000E+00  0.00000000E+00  0.00000000E+00
  0.00000000E+00  0.00000000E+00  0.00000000E+00
  0.00000000E+00  0.00000000E+00  0.00000000E+00
  0.00000000E+00  0.00000000E+00  0.00000000E+00
  0.00000000E+00  0.00000000E+00  0.00000000E+00
  0.00000000E+00  0.00000000E+00  0.00000000E+00
  0.00000000E+00  0.00000000E+00  0.00000000E+00
  0.00000000E+00  0.00000000E+00  0.00000000E+00
  0.00000000E+00  0.00000000E+00  0.00000000E+00
  0.00000000E+00  0.00000000E+00  0.00000000E+00
  0.00000000E+00  0.00000000E+00  0.00000000E+00
  0.00000000E+00  0.00000000E+00  0.00000000E+00
  0.00000000E+00  0.00000000E+00  0.00000000E+00
  0.00000000E+00  0.00000000E+00  0.00000000E+00
  0.00000000E+00  0.00000000E+00  0.00000000E+00
  0.00000000E+00  0.00000000E+00  0.00000000E+00
  0.00000000E+00  0.00000000E+00  0.00000000E+00
  0.00000000E+00  0.00000000E+00  0.00000000E+00
  0.00000000E+00  0.00000000E+00  0.00000000E+00
  0.00000000E+00  0.00000000E+00  0.00000000E+00
  0.00000000E+00  0.00000000E+00  0.00000000E+00
  0.00000000E+00  0.00000000E+00  0.00000000E+00
  0.00000000E+00  0.00000000E+00  0.00000000E+00
  0.00000000E+00  0.00000000E+00  0.00000000E+00
