CONTCAR                                 
   1.00000000000000     
     9.7571001052999993    0.0000000000000000    0.0000000000000000
    -3.0063686365000000   15.8319856181999992    0.0000000000000000
     0.0000000000000000    0.0000000000000000   18.2793006897000012
   V    P    S    O    H 
     4     8    26     1     1
Direct
  0.6188517023880933  0.6044555149500902  0.4974991261201772
  0.5915848641058453  0.0883235113675649  0.4925809095866212
  0.3812582362511497  0.3937194923129369  0.5029371044519245
  0.3980896630339211  0.9153609222498945  0.4919615112510912
  0.8140642336329301  0.2513233929225102  0.4915974431750637
  0.6939718668653490  0.4314189760085134  0.5353315997158973
  0.1828318125722308  0.7479139724567252  0.5036622217619290
  0.1663908493071890  0.2361516401714792  0.4953775315615975
  0.2659331531061527  0.0783310122698874  0.5946360162340397
  0.7035256025749135  0.9313248831529314  0.4638132894185407
  0.3072143200980459  0.5676037596388229  0.4621645934757452
  0.8360174006757625  0.7591980784426372  0.5070542009663301
  0.1152092323276045  0.1043577924212262  0.5179074633100630
  0.8945031090345309  0.8903949242974072  0.4799513172334259
  0.0087455893888507  0.7503156661071827  0.5755205971232504
  0.3983132782294658  0.0348297457116779  0.4282699704642841
  0.5376367965825861  0.3550642532491437  0.5896505428178980
  0.2354765593502128  0.4548605940959767  0.4153967473682593
  0.1922573743851156  0.3155255226310963  0.5805442135240984
  0.6681741923801282  0.7293542355205802  0.5730688853019017
  0.4655624877947157  0.6441621519385035  0.4093346056729500
  0.6032568515817511  0.4592989135230948  0.4383614555428514
  0.6510450128938529  0.2251618671534518  0.4232266595019232
  0.8787520481034571  0.3817200248392882  0.5203536477826880
 -0.0061530114643976  0.2425460906858083  0.4246597703405795
  0.6082057303706434  0.9619503507139814  0.5612292098317195
  0.8084428432758110  0.6818187935839044  0.4205344577057341
  0.3944646166273730  0.5402787535811295  0.5605503746334292
  0.2022632726538629  0.8295362614786674  0.4199360338757561
  0.7669812725400611  0.5432023027432654  0.5833447319526005
  0.5503348383886497  0.8504704004019056  0.4139977107015427
  0.2488050926200791  0.9519646935310367  0.5928017118319830
  0.3487258473855839  0.7766060012482795  0.5685976493665873
  0.7827738013006984  0.1722782461001246  0.5761213732903564
  0.7649344129125465  0.0438196339030123  0.4145390517143442
  0.4596514439376871  0.1475662649447682  0.5886693695025035
  0.1223382790992355  0.6176678226750876  0.4718448547070608
  0.3327568525382838  0.2702527274143237  0.4283968443490145
  0.1954813118288117  0.1051179856970298  0.6690656204475500
  0.2577370183212077  0.1049029368650483  0.7110497113867054
 
  0.00000000E+00  0.00000000E+00  0.00000000E+00
  0.00000000E+00  0.00000000E+00  0.00000000E+00
  0.00000000E+00  0.00000000E+00  0.00000000E+00
  0.00000000E+00  0.00000000E+00  0.00000000E+00
  0.00000000E+00  0.00000000E+00  0.00000000E+00
  0.00000000E+00  0.00000000E+00  0.00000000E+00
  0.00000000E+00  0.00000000E+00  0.00000000E+00
  0.00000000E+00  0.00000000E+00  0.00000000E+00
  0.00000000E+00  0.00000000E+00  0.00000000E+00
  0.00000000E+00  0.00000000E+00  0.00000000E+00
  0.00000000E+00  0.00000000E+00  0.00000000E+00
  0.00000000E+00  0.00000000E+00  0.00000000E+00
  0.00000000E+00  0.00000000E+00  0.00000000E+00
  0.00000000E+00  0.00000000E+00  0.00000000E+00
  0.00000000E+00  0.00000000E+00  0.00000000E+00
  0.00000000E+00  0.00000000E+00  0.00000000E+00
  0.00000000E+00  0.00000000E+00  0.00000000E+00
  0.00000000E+00  0.00000000E+00  0.00000000E+00
  0.00000000E+00  0.00000000E+00  0.00000000E+00
  0.00000000E+00  0.00000000E+00  0.00000000E+00
  0.00000000E+00  0.00000000E+00  0.00000000E+00
  0.00000000E+00  0.00000000E+00  0.00000000E+00
  0.00000000E+00  0.00000000E+00  0.00000000E+00
  0.00000000E+00  0.00000000E+00  0.00000000E+00
  0.00000000E+00  0.00000000E+00  0.00000000E+00
  0.00000000E+00  0.00000000E+00  0.00000000E+00
  0.00000000E+00  0.00000000E+00  0.00000000E+00
  0.00000000E+00  0.00000000E+00  0.00000000E+00
  0.00000000E+00  0.00000000E+00  0.00000000E+00
  0.00000000E+00  0.00000000E+00  0.00000000E+00
  0.00000000E+00  0.00000000E+00  0.00000000E+00
  0.00000000E+00  0.00000000E+00  0.00000000E+00
  0.00000000E+00  0.00000000E+00  0.00000000E+00
  0.00000000E+00  0.00000000E+00  0.00000000E+00
  0.00000000E+00  0.00000000E+00  0.00000000E+00
  0.00000000E+00  0.00000000E+00  0.00000000E+00
  0.00000000E+00  0.00000000E+00  0.00000000E+00
  0.00000000E+00  0.00000000E+00  0.00000000E+00
  0.00000000E+00  0.00000000E+00  0.00000000E+00
  0.00000000E+00  0.00000000E+00  0.00000000E+00
