CONTCAR\(6)                             
   1.00000000000000     
    13.7772998809999994    0.0000000000000000    0.0000000000000000
    -0.9002177756999999   20.5238668944999993    0.0000000000000000
     0.0000000000000000    0.0000000000000000   22.2061004639000004
   Cu   Se   O 
    36    36   109
Direct
  0.1654431545782558  0.0461240121308322  0.5111824273667978
  0.3092288202169655  0.0264831884023948  0.6375328572261552
  0.3170733777896331  0.4178428280711515  0.5002659177183162
  0.1356433398702634  0.2905377517306391  0.4894894384084267
  0.3181880711510416  0.1681927546745214  0.5003083570156122
  0.3265777670223855  0.3117178934518421  0.3619027448079990
  0.4993391239194480  0.0437520934280116  0.5122000237495712
  0.6433362089120251  0.0261310240413337  0.6386614387432417
  0.6505370775702275  0.4179587261675550  0.4998799016827675
  0.4690693854973631  0.2904620921171031  0.4898822043919893
  0.6512439419291667  0.1682878293250525  0.4998858799384465
  0.6594545806276813  0.3118096676758952  0.3614354971043312
  0.8332151640521630  0.0461271919869830  0.5098416744674736
  0.9762411804254327  0.0248707860171251  0.6386577854928888
  0.9833039377921367  0.4181535004115773  0.4999779022698974
  0.8017804156341484  0.2907719930684678  0.4892801812572785
  0.9835278520383355  0.1682779127467953  0.4995088157122396
  0.9933508658084591  0.3118080742917968  0.3617223746636853
  0.1652057396574804  0.5442286107182994  0.5115910362566538
  0.3083807616589382  0.5235490357142041  0.6381516329548589
  0.3154040623821359  0.9190235676424336  0.5043910994865968
  0.1326422666057994  0.7897721194767158  0.4887234972913959
  0.3161214857762502  0.6649991229370045  0.4988048453522254
  0.3275224063871534  0.8120919358224441  0.3641268488973637
  0.4991513469688229  0.5434335287561893  0.5105693856685605
  0.6421714207123230  0.5236916562287135  0.6379073234941046
  0.6523043077945516  0.9184449727153066  0.5006403337132710
  0.4731131535185682  0.7939480481669392  0.4903086192024233
  0.6515470544179891  0.6676011982672847  0.5000762098626907
  0.6598809845092362  0.8117568827973329  0.3623805464758050
  0.8325905664021249  0.5449799831689290  0.5104980326802462
  0.9745627478510954  0.5232912713670927  0.6385245527062153
  0.9835350997344605  0.9181880351378240  0.5002330453472084
  0.8031327650164144  0.7903224993930280  0.4902268986750755
  0.9845703121788105  0.6683140226769524  0.5007109602586581
  0.9937476421362064  0.8122341025187012  0.3622162617281575
  0.1223063791380099  0.4224604852061873  0.6189299810670903
  0.1305386796997041  0.1367974578955895  0.6097668589281824
  0.1793723128177902  0.4128548515732504  0.3814958632673324
  0.3342444778590163  0.0419550154772850  0.4120380185470012
  0.1705378142827456  0.2007858575001649  0.3898121007600324
  0.3012464451265160  0.2939601468273452  0.5893523639876364
  0.4558507227232198  0.4224398618485310  0.6191712405147598
  0.4658420386096651  0.1365267982356571  0.6102276281412529
  0.5125038057186373  0.4130574237464160  0.3810573971289060
  0.6674785392388287  0.0423315150749417  0.4107608148085049
  0.5033195489546642  0.2009698202992425  0.3899342655202744
  0.6344777544810682  0.2940490415036905  0.5894163633463663
  0.7888789580103577  0.4223167122179987  0.6187513809858487
  0.7998743850578478  0.1356882352511590  0.6097853226675483
  0.8457529362461571  0.4132869420872396  0.3809496065977171
  0.0011499490573641  0.0423984819585073  0.4104717037206811
  0.8364499535388390  0.2013122655106017  0.3891668986122312
  0.9675852609105036  0.2940508502584294  0.5888830696920522
  0.1247033265064630  0.9243821675712383  0.6184421737224284
  0.1302960416242982  0.6345031861441370  0.6111280110231974
  0.1804510430005095  0.9125660260439901  0.3840940643128548
  0.3338650091186608  0.5410069753498092  0.4105006623847061
  0.1710828903931372  0.7002952279699173  0.3897908783387365
  0.2944946389310417  0.7875661392090123  0.5884751529760806
  0.4578695447086858  0.9240373253001124  0.6208172841931230
  0.4648508366209541  0.6343090765142705  0.6094327475278050
  0.5127513520880385  0.9135076213165974  0.3820563229102234
  0.6676981177411534  0.5424226907569292  0.4104871628663247
  0.5031998984411672  0.7009304621254699  0.3916350451636177
  0.6373446773387883  0.7936427637380987  0.5894639484009119
  0.7893222366412900  0.9241002620705672  0.6199727915221160
  0.7985309018964699  0.6344592323567255  0.6101516175735071
  0.8460904806694387  0.9135391946936409  0.3814592668086405
  0.0012051050141864  0.5426344817114952  0.4110011080808107
  0.8374885936546690  0.7013639298740983  0.3899598866863343
  0.9669722009670281  0.7935958857474148  0.5904333718673769
  0.2864201946129015  0.0080875710491597  0.4805153252400984
  0.0833123451558109  0.1175744832360337  0.5363241580179761
  0.0827768708172414  0.4780014915944975  0.6703661657944835
  0.1801519858080383  0.2973460669719898  0.5740692053139753
  0.3234172641888406  0.2133309060721160  0.5770184630061266
  0.2124832443152016  0.0729407209170603  0.5932116067119324
  0.1221466168233221  0.0396450157353812  0.4262963291556474
  0.2464890347285333  0.4389136618199672  0.6194349085031376
  0.2167456766331171  0.2182063518241719  0.4633181776963298
  0.0903585139102674  0.4570389485258133  0.5488587830226450
  0.0460420381072595  0.1056689641273181  0.6584559789538531
  0.2564928867157477  0.2314212529283139  0.3416725490306476
  0.0551623315332108  0.3964229517988827  0.3809574105583948
  0.2110091707855730  0.3784477339534149  0.4517147266413488
  0.0897602227773291  0.2654739055310955  0.4061458519783940
  0.0158997116986228  0.3292735315481110  0.5209278742179677
  0.2184486382802007  0.3570603667677474  0.3301430465116368
  0.3138256658478156  0.1230765782260264  0.4234697491219706
  0.6215438298264075  0.0074776813395090  0.4792278142145179
  0.4194055788790507  0.1181336686208496  0.5367058186741787
  0.4165686347681046  0.4783105530808527  0.6703525010884448
  0.5132207593668312  0.2971749845264284  0.5744656605099081
  0.6570746873659488  0.2136208834398090  0.5768013345898808
  0.5469868957711270  0.0720933857764052  0.5942825249290635
  0.4553841918267665  0.0383241172972646  0.4274645439337874
  0.5799975715257375  0.4388437160767822  0.6194703301875961
  0.5501265546339340  0.2185023172902518  0.4632877980060144
  0.4235859969289777  0.4569255888225783  0.5490830909306013
  0.3797129213270267  0.1061533118095639  0.6584127935672797
  0.5891351240698768  0.2314399717266937  0.3415811043793795
  0.3882659636729713  0.3966215435409808  0.3805450420037317
  0.5441454437065616  0.3788574778431837  0.4513631599672863
  0.4229019824334017  0.2657677425332707  0.4065072447529303
  0.3495892705333858  0.3291364620326220  0.5213481744403907
  0.5511579156357556  0.3569405122002394  0.3298553150035701
  0.6449241776321415  0.1228683757041864  0.4231159467327501
  0.9521275660907733  0.0071327774548777  0.4784949760114969
  0.7522925339803805  0.1180476587451977  0.5366217451183957
  0.7499683092182039  0.4783477331214030  0.6700231680389948
  0.8465304197564762  0.2974015700025845  0.5738134758532567
  0.9896949643505977  0.2133714185049769  0.5762902584810732
  0.8794101908828935  0.0706254787249350  0.5936019570571887
  0.7890058773705064  0.0394993846045466  0.4251982058559278
  0.9131404455403782  0.4385653777908445  0.6190906250618724
  0.8827581653496495  0.2185156896650042  0.4627352776656721
  0.7571609822968242  0.4568580039661541  0.5487090834332449
  0.7135863673153793  0.1060458460341778  0.6583681843322040
  0.9226853081290329  0.2318364596162255  0.3411567179904438
  0.7215287254956664  0.3966698277396148  0.3797794995396018
  0.8769551996768072  0.3790005066689801  0.4513321638886936
  0.7561295381590440  0.2660453634321129  0.4057752162435193
  0.6821402739867679  0.3291891851949487  0.5211444387126392
  0.8857150494458992  0.3575527625894921  0.3298203896622454
  0.9789186059536590  0.1230707915271836  0.4226603043868238
  0.2867068137563820  0.5070318806063838  0.4789324425722086
  0.0839682322683615  0.6173035593666611  0.5370477070989921
  0.0855185535839738  0.9796502385796870  0.6700188309478889
  0.1747626287197406  0.7936765050107013  0.5745469593731443
  0.3204391731619722  0.7084278594116995  0.5763477910053680
  0.2109260960202732  0.5704269700251245  0.5945031240957093
  0.1223009202472696  0.5392545608437374  0.4266443907096544
  0.2478382224351918  0.9436966384350711  0.6139174338878632
  0.2166274619642081  0.7176289217290517  0.4643374060014480
  0.0882092199834261  0.9581214877243909  0.5486948773574269
  0.0440200794035874  0.6036448813470159  0.6588786205403352
  0.2581953730469806  0.7315062644296191  0.3428825988614363
  0.0561176243761565  0.8963410375714247  0.3831276169255844
  0.2123643140019595  0.8774429167058031  0.4540024174821085
  0.0901338568455543  0.7641740388625777  0.4057463313239111
  0.0140593234585182  0.8289872008368775  0.5224060971067601
  0.2190251523220752  0.8569713071969147  0.3323117331505898
  0.3120138312427940  0.6221244489932971  0.4216603233057441
  0.6207895498455471  0.5072351330960103  0.4786116805601637
  0.4173126794436683  0.6156904101280176  0.5358228427289902
  0.4153184186766055  0.9804632925626109  0.6704160864057584
  0.5168198267125277  0.7982467741167341  0.5742916918827348
  0.6575164973047549  0.7126169908087832  0.5766947340993624
  0.5460288333954395  0.5705633311160767  0.5932028083669749
  0.4551752230036854  0.5386151792140126  0.4258405792002335
  0.5819991036993812  0.9422957478066181  0.6216441945998241
  0.5506531950046707  0.7178877704484563  0.4653030181019631
  0.4267619848835125  0.9572055348048281  0.5497646925857040
  0.3796773219199778  0.6035838184672642  0.6578804594780934
  0.5883571898994120  0.7316133143778742  0.3430671048317180
  0.3886980916917793  0.8972131048651022  0.3819018645749921
  0.5447426694084783  0.8794531138268766  0.4527310275985954
  0.4232848290199698  0.7655219901413517  0.4092108159196997
  0.3495618254099000  0.8298552938420087  0.5287741786882805
  0.5509114238177304  0.8570870916721702  0.3311581821093839
  0.6456290735760319  0.6232131008850601  0.4231683811199431
  0.9533001471224480  0.5075129307703534  0.4789888421450854
  0.7516892104849617  0.6167692869648675  0.5363083417402947
  0.7509281211062842  0.9813805810644141  0.6705279520873191
  0.8458295472418556  0.7968373930830808  0.5753582425191723
  0.9890664110592908  0.7128985581364162  0.5777174519741379
  0.8785465625683244  0.5695570709009843  0.5934295895226356
  0.7889720839701297  0.5397669486603931  0.4254657667096566
  0.9134400406115333  0.9397244807517637  0.6215002029050680
  0.8845988314613393  0.7190626633687742  0.4632615171746153
  0.7587860308453784  0.9576495770575377  0.5493500226316925
  0.7125620529653034  0.6040640151234200  0.6581972917132504
  0.9225724989439712  0.7322319415940868  0.3414241105491982
  0.7220051838035246  0.8966386695319386  0.3800776275624145
  0.8775829666315431  0.8788243020707185  0.4514330952200751
  0.7567257307517323  0.7658652525932652  0.4066544207195051
  0.6847253244902518  0.8293330127062006  0.5210861864358236
  0.8869345039309593  0.8582273196888792  0.3300677153720741
  0.9799634561570798  0.6234088711832584  0.4235131447493785
  0.3248030212902364  0.8097917380116755  0.6564023282280971
 
  0.00000000E+00  0.00000000E+00  0.00000000E+00
  0.00000000E+00  0.00000000E+00  0.00000000E+00
  0.00000000E+00  0.00000000E+00  0.00000000E+00
  0.00000000E+00  0.00000000E+00  0.00000000E+00
  0.00000000E+00  0.00000000E+00  0.00000000E+00
  0.00000000E+00  0.00000000E+00  0.00000000E+00
  0.00000000E+00  0.00000000E+00  0.00000000E+00
  0.00000000E+00  0.00000000E+00  0.00000000E+00
  0.00000000E+00  0.00000000E+00  0.00000000E+00
  0.00000000E+00  0.00000000E+00  0.00000000E+00
  0.00000000E+00  0.00000000E+00  0.00000000E+00
  0.00000000E+00  0.00000000E+00  0.00000000E+00
  0.00000000E+00  0.00000000E+00  0.00000000E+00
  0.00000000E+00  0.00000000E+00  0.00000000E+00
  0.00000000E+00  0.00000000E+00  0.00000000E+00
  0.00000000E+00  0.00000000E+00  0.00000000E+00
  0.00000000E+00  0.00000000E+00  0.00000000E+00
  0.00000000E+00  0.00000000E+00  0.00000000E+00
  0.00000000E+00  0.00000000E+00  0.00000000E+00
  0.00000000E+00  0.00000000E+00  0.00000000E+00
  0.00000000E+00  0.00000000E+00  0.00000000E+00
  0.00000000E+00  0.00000000E+00  0.00000000E+00
  0.00000000E+00  0.00000000E+00  0.00000000E+00
  0.00000000E+00  0.00000000E+00  0.00000000E+00
  0.00000000E+00  0.00000000E+00  0.00000000E+00
  0.00000000E+00  0.00000000E+00  0.00000000E+00
  0.00000000E+00  0.00000000E+00  0.00000000E+00
  0.00000000E+00  0.00000000E+00  0.00000000E+00
  0.00000000E+00  0.00000000E+00  0.00000000E+00
  0.00000000E+00  0.00000000E+00  0.00000000E+00
  0.00000000E+00  0.00000000E+00  0.00000000E+00
  0.00000000E+00  0.00000000E+00  0.00000000E+00
  0.00000000E+00  0.00000000E+00  0.00000000E+00
  0.00000000E+00  0.00000000E+00  0.00000000E+00
  0.00000000E+00  0.00000000E+00  0.00000000E+00
  0.00000000E+00  0.00000000E+00  0.00000000E+00
  0.00000000E+00  0.00000000E+00  0.00000000E+00
  0.00000000E+00  0.00000000E+00  0.00000000E+00
  0.00000000E+00  0.00000000E+00  0.00000000E+00
  0.00000000E+00  0.00000000E+00  0.00000000E+00
  0.00000000E+00  0.00000000E+00  0.00000000E+00
  0.00000000E+00  0.00000000E+00  0.00000000E+00
  0.00000000E+00  0.00000000E+00  0.00000000E+00
  0.00000000E+00  0.00000000E+00  0.00000000E+00
  0.00000000E+00  0.00000000E+00  0.00000000E+00
  0.00000000E+00  0.00000000E+00  0.00000000E+00
  0.00000000E+00  0.00000000E+00  0.00000000E+00
  0.00000000E+00  0.00000000E+00  0.00000000E+00
  0.00000000E+00  0.00000000E+00  0.00000000E+00
  0.00000000E+00  0.00000000E+00  0.00000000E+00
  0.00000000E+00  0.00000000E+00  0.00000000E+00
  0.00000000E+00  0.00000000E+00  0.00000000E+00
  0.00000000E+00  0.00000000E+00  0.00000000E+00
  0.00000000E+00  0.00000000E+00  0.00000000E+00
  0.00000000E+00  0.00000000E+00  0.00000000E+00
  0.00000000E+00  0.00000000E+00  0.00000000E+00
  0.00000000E+00  0.00000000E+00  0.00000000E+00
  0.00000000E+00  0.00000000E+00  0.00000000E+00
  0.00000000E+00  0.00000000E+00  0.00000000E+00
  0.00000000E+00  0.00000000E+00  0.00000000E+00
  0.00000000E+00  0.00000000E+00  0.00000000E+00
  0.00000000E+00  0.00000000E+00  0.00000000E+00
  0.00000000E+00  0.00000000E+00  0.00000000E+00
  0.00000000E+00  0.00000000E+00  0.00000000E+00
  0.00000000E+00  0.00000000E+00  0.00000000E+00
  0.00000000E+00  0.00000000E+00  0.00000000E+00
  0.00000000E+00  0.00000000E+00  0.00000000E+00
  0.00000000E+00  0.00000000E+00  0.00000000E+00
  0.00000000E+00  0.00000000E+00  0.00000000E+00
  0.00000000E+00  0.00000000E+00  0.00000000E+00
  0.00000000E+00  0.00000000E+00  0.00000000E+00
  0.00000000E+00  0.00000000E+00  0.00000000E+00
  0.00000000E+00  0.00000000E+00  0.00000000E+00
  0.00000000E+00  0.00000000E+00  0.00000000E+00
  0.00000000E+00  0.00000000E+00  0.00000000E+00
  0.00000000E+00  0.00000000E+00  0.00000000E+00
  0.00000000E+00  0.00000000E+00  0.00000000E+00
  0.00000000E+00  0.00000000E+00  0.00000000E+00
  0.00000000E+00  0.00000000E+00  0.00000000E+00
  0.00000000E+00  0.00000000E+00  0.00000000E+00
  0.00000000E+00  0.00000000E+00  0.00000000E+00
  0.00000000E+00  0.00000000E+00  0.00000000E+00
  0.00000000E+00  0.00000000E+00  0.00000000E+00
  0.00000000E+00  0.00000000E+00  0.00000000E+00
  0.00000000E+00  0.00000000E+00  0.00000000E+00
  0.00000000E+00  0.00000000E+00  0.00000000E+00
  0.00000000E+00  0.00000000E+00  0.00000000E+00
  0.00000000E+00  0.00000000E+00  0.00000000E+00
  0.00000000E+00  0.00000000E+00  0.00000000E+00
  0.00000000E+00  0.00000000E+00  0.00000000E+00
  0.00000000E+00  0.00000000E+00  0.00000000E+00
  0.00000000E+00  0.00000000E+00  0.00000000E+00
  0.00000000E+00  0.00000000E+00  0.00000000E+00
  0.00000000E+00  0.00000000E+00  0.00000000E+00
  0.00000000E+00  0.00000000E+00  0.00000000E+00
  0.00000000E+00  0.00000000E+00  0.00000000E+00
  0.00000000E+00  0.00000000E+00  0.00000000E+00
  0.00000000E+00  0.00000000E+00  0.00000000E+00
  0.00000000E+00  0.00000000E+00  0.00000000E+00
  0.00000000E+00  0.00000000E+00  0.00000000E+00
  0.00000000E+00  0.00000000E+00  0.00000000E+00
  0.00000000E+00  0.00000000E+00  0.00000000E+00
  0.00000000E+00  0.00000000E+00  0.00000000E+00
  0.00000000E+00  0.00000000E+00  0.00000000E+00
  0.00000000E+00  0.00000000E+00  0.00000000E+00
  0.00000000E+00  0.00000000E+00  0.00000000E+00
  0.00000000E+00  0.00000000E+00  0.00000000E+00
  0.00000000E+00  0.00000000E+00  0.00000000E+00
  0.00000000E+00  0.00000000E+00  0.00000000E+00
  0.00000000E+00  0.00000000E+00  0.00000000E+00
  0.00000000E+00  0.00000000E+00  0.00000000E+00
  0.00000000E+00  0.00000000E+00  0.00000000E+00
  0.00000000E+00  0.00000000E+00  0.00000000E+00
  0.00000000E+00  0.00000000E+00  0.00000000E+00
  0.00000000E+00  0.00000000E+00  0.00000000E+00
  0.00000000E+00  0.00000000E+00  0.00000000E+00
  0.00000000E+00  0.00000000E+00  0.00000000E+00
  0.00000000E+00  0.00000000E+00  0.00000000E+00
  0.00000000E+00  0.00000000E+00  0.00000000E+00
  0.00000000E+00  0.00000000E+00  0.00000000E+00
  0.00000000E+00  0.00000000E+00  0.00000000E+00
  0.00000000E+00  0.00000000E+00  0.00000000E+00
  0.00000000E+00  0.00000000E+00  0.00000000E+00
  0.00000000E+00  0.00000000E+00  0.00000000E+00
  0.00000000E+00  0.00000000E+00  0.00000000E+00
  0.00000000E+00  0.00000000E+00  0.00000000E+00
  0.00000000E+00  0.00000000E+00  0.00000000E+00
  0.00000000E+00  0.00000000E+00  0.00000000E+00
  0.00000000E+00  0.00000000E+00  0.00000000E+00
  0.00000000E+00  0.00000000E+00  0.00000000E+00
  0.00000000E+00  0.00000000E+00  0.00000000E+00
  0.00000000E+00  0.00000000E+00  0.00000000E+00
  0.00000000E+00  0.00000000E+00  0.00000000E+00
  0.00000000E+00  0.00000000E+00  0.00000000E+00
  0.00000000E+00  0.00000000E+00  0.00000000E+00
  0.00000000E+00  0.00000000E+00  0.00000000E+00
  0.00000000E+00  0.00000000E+00  0.00000000E+00
  0.00000000E+00  0.00000000E+00  0.00000000E+00
  0.00000000E+00  0.00000000E+00  0.00000000E+00
  0.00000000E+00  0.00000000E+00  0.00000000E+00
  0.00000000E+00  0.00000000E+00  0.00000000E+00
  0.00000000E+00  0.00000000E+00  0.00000000E+00
  0.00000000E+00  0.00000000E+00  0.00000000E+00
  0.00000000E+00  0.00000000E+00  0.00000000E+00
  0.00000000E+00  0.00000000E+00  0.00000000E+00
  0.00000000E+00  0.00000000E+00  0.00000000E+00
  0.00000000E+00  0.00000000E+00  0.00000000E+00
  0.00000000E+00  0.00000000E+00  0.00000000E+00
  0.00000000E+00  0.00000000E+00  0.00000000E+00
  0.00000000E+00  0.00000000E+00  0.00000000E+00
  0.00000000E+00  0.00000000E+00  0.00000000E+00
  0.00000000E+00  0.00000000E+00  0.00000000E+00
  0.00000000E+00  0.00000000E+00  0.00000000E+00
  0.00000000E+00  0.00000000E+00  0.00000000E+00
  0.00000000E+00  0.00000000E+00  0.00000000E+00
  0.00000000E+00  0.00000000E+00  0.00000000E+00
  0.00000000E+00  0.00000000E+00  0.00000000E+00
  0.00000000E+00  0.00000000E+00  0.00000000E+00
  0.00000000E+00  0.00000000E+00  0.00000000E+00
  0.00000000E+00  0.00000000E+00  0.00000000E+00
  0.00000000E+00  0.00000000E+00  0.00000000E+00
  0.00000000E+00  0.00000000E+00  0.00000000E+00
  0.00000000E+00  0.00000000E+00  0.00000000E+00
  0.00000000E+00  0.00000000E+00  0.00000000E+00
  0.00000000E+00  0.00000000E+00  0.00000000E+00
  0.00000000E+00  0.00000000E+00  0.00000000E+00
  0.00000000E+00  0.00000000E+00  0.00000000E+00
  0.00000000E+00  0.00000000E+00  0.00000000E+00
  0.00000000E+00  0.00000000E+00  0.00000000E+00
  0.00000000E+00  0.00000000E+00  0.00000000E+00
  0.00000000E+00  0.00000000E+00  0.00000000E+00
  0.00000000E+00  0.00000000E+00  0.00000000E+00
  0.00000000E+00  0.00000000E+00  0.00000000E+00
  0.00000000E+00  0.00000000E+00  0.00000000E+00
  0.00000000E+00  0.00000000E+00  0.00000000E+00
  0.00000000E+00  0.00000000E+00  0.00000000E+00
  0.00000000E+00  0.00000000E+00  0.00000000E+00
  0.00000000E+00  0.00000000E+00  0.00000000E+00
  0.00000000E+00  0.00000000E+00  0.00000000E+00
  0.00000000E+00  0.00000000E+00  0.00000000E+00
  0.00000000E+00  0.00000000E+00  0.00000000E+00
