CONTCAR                                 
   1.00000000000000     
    11.3336000443000007    0.0000000000000000    0.0000000000000000
     0.0000000000000000   11.3336000443000007    0.0000000000000000
     0.0000000000000000    0.0000000000000000   27.5830993651999989
   Sr   Co   Cl   O    H 
    36    18    18    55     1
Direct
  0.1662778124688085 -0.0000452045661283  0.4508182518905299
  0.0007193426938682  0.1682039340929400  0.5505194772352187
  0.1666127497276322  0.0000619608430913  0.3177818423282443
  0.9991535203455650  0.1675847635379706  0.6832297652397313
  0.4998710050780422  0.9996061067175657  0.4506523963495423
  0.3323839565151291  0.1674831931885275  0.5495475159096854
  0.5000138282866067  0.0000080906650358  0.3180541543545315
  0.3284999731760763  0.1602882551481834  0.6820498589169617
  0.8333879884632589  0.9994357379285572  0.4508063637470078
  0.6663188860203063  0.1671117316828643  0.5502435639871006
  0.8331004135951929  0.0000096480845007  0.3178275151862369
  0.6711181323031385  0.1607850075287403  0.6818048074826564
  0.1673740597295149  0.3340660018979670  0.4514098996806614
  0.0024199294671579  0.4993907517485873  0.5508510338948749
  0.1667658051594791  0.3334180700401479  0.3176597452603593
  0.9992962216353020  0.4997293319111552  0.6854864684822877
  0.4996429748860902  0.3344559314854192  0.4518839221939016
  0.3340930894021591  0.5008622237551061  0.5517214283550863
  0.4999577281935085  0.3333315219349513  0.3180201406450452
  0.3464861011287786  0.4995336503540322  0.6948864425808302
  0.8325534321440702  0.3345109754952119  0.4513399545876847
  0.6628073588234731  0.4995669092449921  0.5521945073124415
  0.8329808944817754  0.3334945000576909  0.3176596708271147
  0.6592627610852153  0.4999124619389829  0.6935943691776554
  0.1664831237684145  0.6660125747773684  0.4512738541763961
  0.0015903623032960  0.8327362855021601  0.5499884329514617
  0.1665710851953543  0.6664797669072678  0.3175985108772382
  0.9993087485011241  0.8325856798206065  0.6837424818115072
  0.5001587215979868  0.6659622491967129  0.4516769379584973
  0.3320243673127224  0.8315145021141204  0.5498369493020586
  0.5000221874726549  0.6666546670800582  0.3179591234825564
  0.3285052793603550  0.8377744984505119  0.6820298672129640
  0.8327405653740203  0.6661573540984054  0.4510434807614200
  0.6650985425582149  0.8332118629948438  0.5500074946592053
  0.8330642356277014  0.6664937058789645  0.3175888956591296
  0.6706272526923349  0.8376855957825401  0.6827754498554970
  0.9997238216124563  0.1673377372184313  0.3884189194494437
  0.1646992521048481  0.0000326375016679  0.6116916263112350
  0.3330271757475698  0.1672200834586136  0.3885076054954438
  0.4994877341321087  0.9990951602594252  0.6114664566821794
  0.6669492056006787  0.1672633254944647  0.3887046261208721
  0.8348197916299115  0.9992028717360939  0.6102555962736692
  0.0000169265042080  0.4998797090623991  0.3882332575270320
  0.1681757281437070  0.3360705738778769  0.6135887003834103
  0.3329810573647105  0.5001247153159145  0.3885599106193659
  0.5000897598624287  0.3341383275784828  0.6154933546388479
  0.6667342502849182  0.4999009991178589  0.3884878007387894
  0.8311895217717590  0.3376302108520656  0.6119673365483940
  0.9999392817679943  0.8327588029341950  0.3881790984743085
  0.1667279321987293  0.6640154869671734  0.6127640419302209
  0.3327331902488438  0.8325669222028000  0.3885891328497713
  0.5006383505952824  0.6662114293706977  0.6145419403611958
  0.6669272033551485  0.8328680081918780  0.3884980362493071
  0.8322010584230443  0.6632712357603687  0.6103270239087817
  0.9998679369998648  0.1668252497835782  0.2695487841897639
  0.1631749167874573  0.9997590989218784  0.7325326124489280
  0.3333657908171093  0.1667945644959908  0.2695853409896643
  0.4995004448406020 -0.0000387002140702  0.7291857839416602
  0.6664764102654341  0.1668202245818449  0.2695601932780847
  0.8360970841759950  0.0003395734951205  0.7325967433359740
  0.9998813386967907  0.4998534753609427  0.2693588079728662
  0.1666125614191297  0.3316785071115845  0.7324567578045221
  0.3334666011074019  0.4999506917437039  0.2695480318265722
  0.4992972118088962  0.2941213699280665  0.7264539411533887
  0.6663544120999075  0.4999207760834263  0.2694998048923293
  0.8339443065155409  0.3302992475040785  0.7327364084295439
  0.9998931413601454  0.8332604087413025  0.2694809947990284
  0.1668836436635542  0.6675827592191795  0.7323711767972038
  0.3333128353507322  0.8332538121892347  0.2695911773140807
  0.4981016038612194  0.7053190389676358  0.7291358451601576
  0.6664845726693411  0.8332498398066519  0.2695257030234963
  0.8341806562489971  0.6688091391631528  0.7338564853029835
  0.1643594568555259  0.9999173435735528  0.5393054764737871
  0.9990073398767961  0.1690158342410967  0.4609421772736857
  0.1653611344917647  0.1674447484748874  0.6198179319987780
  0.1665513783370903  0.1671108685052130  0.3790695026602421
  0.9998388720195797  0.0000355358287169  0.3790996065871721
  0.0001448178962945  0.0003861167414831  0.6223477884390267
  0.5000126606566240  0.9968556665877543  0.5387471670247925
  0.3332929894935048  0.1676090741292744  0.4604686287230780
  0.4993907172114564  0.1644723522192013  0.6173505449499682
  0.4999926631435317  0.1670183358098887  0.3791073516467529
  0.3328504040471266 -0.0000164650230962  0.3790464702416810
  0.3308491761701401  0.9988710187962823  0.6199737960236150
  0.8349216157640301  0.9990974563666519  0.5396914685313116
  0.6672918204062698  0.1683678109424057  0.4610818026193380
  0.8349340253051142  0.1693753924524485  0.6210557853057678
  0.8332354374694481  0.1673490144453585  0.3791166002682302
  0.6670083520726634  0.0000653557711476  0.3792380014308989
  0.6681273103060830  0.9990831410197126  0.6196096663277232
  0.1679475805678732  0.3353613350916007  0.5408669989354258
  0.9988163390513877  0.4996285452120621  0.4612705565054274
  0.1678302157472526  0.4996003164024579  0.6220727613334229
  0.1666146492734343  0.4999509562132363  0.3791346219871825
  0.9996882097888639  0.3336544650770931  0.3789319142455511
 -0.0029831076295244  0.3360817000993667  0.6232218023842506
  0.4995802486485442  0.3384469262766867  0.5415288577623489
  0.3332274962689036  0.5003585151396611  0.4609300739997209
  0.5005038005260933  0.4997863249523047  0.6263881590588483
  0.4999786432452600  0.5000553642725970  0.3792136468932665
  0.3331360153829900  0.3336019015527812  0.3791288269706308
  0.3341006026044347  0.3352544123906148  0.6258901349063621
  0.8317865205778116  0.3366971506297706  0.5439578777923648
  0.6674258269852706  0.5001342693113492  0.4615233474382061
  0.8305185843385150  0.4983436580920415  0.6255227972547132
  0.8331032465940218  0.4999292480592502  0.3791846266418633
  0.6668791431580751  0.3337379790320325  0.3793583671712771
  0.6684488358270668  0.3338867570181795  0.6242445033829770
  0.1653773125032688  0.6649708514639848  0.5410580509215375
  0.9990994361628380  0.8313761703765525  0.4606986105653171
  0.1634290086462607  0.8331657994747389  0.6200804493003047
  0.1663182543613278  0.8328972662013586  0.3789205057091428
  0.9996944370798521  0.6662776572591078  0.3788476028907597
  0.9985720311518197  0.6639610684282904  0.6248037839848134
  0.5003187826695630  0.6643172895704211  0.5416108146929599
  0.3324211353681265  0.8320051096611993  0.4605137820937358
  0.4997158466901747  0.8356636817727752  0.6194862469148489
  0.4999457930440829  0.8329342235094924  0.3791205242219639
  0.3329974665166756  0.6663622052143103  0.3790033497496215
  0.3337099052313965  0.6664325859128077  0.6242858892277188
  0.8331381533228202  0.6638910689406693  0.5420794907444525
  0.6678246964374089  0.8315308237870902  0.4607954764138873
  0.8360002339392770  0.8324468675880745  0.6226537921159686
  0.8333962248178582  0.8327460825226136  0.3788343485129630
  0.6669447013872775  0.6663148978189153  0.3790945622330215
  0.6665560504639245  0.6672722823505932  0.6249615496766405
  0.5110144073854196  0.4971368886124683  0.7634215954982706
  0.5099738957305443  0.5126371257261276  0.7982471377865662
 
  0.00000000E+00  0.00000000E+00  0.00000000E+00
  0.00000000E+00  0.00000000E+00  0.00000000E+00
  0.00000000E+00  0.00000000E+00  0.00000000E+00
  0.00000000E+00  0.00000000E+00  0.00000000E+00
  0.00000000E+00  0.00000000E+00  0.00000000E+00
  0.00000000E+00  0.00000000E+00  0.00000000E+00
  0.00000000E+00  0.00000000E+00  0.00000000E+00
  0.00000000E+00  0.00000000E+00  0.00000000E+00
  0.00000000E+00  0.00000000E+00  0.00000000E+00
  0.00000000E+00  0.00000000E+00  0.00000000E+00
  0.00000000E+00  0.00000000E+00  0.00000000E+00
  0.00000000E+00  0.00000000E+00  0.00000000E+00
  0.00000000E+00  0.00000000E+00  0.00000000E+00
  0.00000000E+00  0.00000000E+00  0.00000000E+00
  0.00000000E+00  0.00000000E+00  0.00000000E+00
  0.00000000E+00  0.00000000E+00  0.00000000E+00
  0.00000000E+00  0.00000000E+00  0.00000000E+00
  0.00000000E+00  0.00000000E+00  0.00000000E+00
  0.00000000E+00  0.00000000E+00  0.00000000E+00
  0.00000000E+00  0.00000000E+00  0.00000000E+00
  0.00000000E+00  0.00000000E+00  0.00000000E+00
  0.00000000E+00  0.00000000E+00  0.00000000E+00
  0.00000000E+00  0.00000000E+00  0.00000000E+00
  0.00000000E+00  0.00000000E+00  0.00000000E+00
  0.00000000E+00  0.00000000E+00  0.00000000E+00
  0.00000000E+00  0.00000000E+00  0.00000000E+00
  0.00000000E+00  0.00000000E+00  0.00000000E+00
  0.00000000E+00  0.00000000E+00  0.00000000E+00
  0.00000000E+00  0.00000000E+00  0.00000000E+00
  0.00000000E+00  0.00000000E+00  0.00000000E+00
  0.00000000E+00  0.00000000E+00  0.00000000E+00
  0.00000000E+00  0.00000000E+00  0.00000000E+00
  0.00000000E+00  0.00000000E+00  0.00000000E+00
  0.00000000E+00  0.00000000E+00  0.00000000E+00
  0.00000000E+00  0.00000000E+00  0.00000000E+00
  0.00000000E+00  0.00000000E+00  0.00000000E+00
  0.00000000E+00  0.00000000E+00  0.00000000E+00
  0.00000000E+00  0.00000000E+00  0.00000000E+00
  0.00000000E+00  0.00000000E+00  0.00000000E+00
  0.00000000E+00  0.00000000E+00  0.00000000E+00
  0.00000000E+00  0.00000000E+00  0.00000000E+00
  0.00000000E+00  0.00000000E+00  0.00000000E+00
  0.00000000E+00  0.00000000E+00  0.00000000E+00
  0.00000000E+00  0.00000000E+00  0.00000000E+00
  0.00000000E+00  0.00000000E+00  0.00000000E+00
  0.00000000E+00  0.00000000E+00  0.00000000E+00
  0.00000000E+00  0.00000000E+00  0.00000000E+00
  0.00000000E+00  0.00000000E+00  0.00000000E+00
  0.00000000E+00  0.00000000E+00  0.00000000E+00
  0.00000000E+00  0.00000000E+00  0.00000000E+00
  0.00000000E+00  0.00000000E+00  0.00000000E+00
  0.00000000E+00  0.00000000E+00  0.00000000E+00
  0.00000000E+00  0.00000000E+00  0.00000000E+00
  0.00000000E+00  0.00000000E+00  0.00000000E+00
  0.00000000E+00  0.00000000E+00  0.00000000E+00
  0.00000000E+00  0.00000000E+00  0.00000000E+00
  0.00000000E+00  0.00000000E+00  0.00000000E+00
  0.00000000E+00  0.00000000E+00  0.00000000E+00
  0.00000000E+00  0.00000000E+00  0.00000000E+00
  0.00000000E+00  0.00000000E+00  0.00000000E+00
  0.00000000E+00  0.00000000E+00  0.00000000E+00
  0.00000000E+00  0.00000000E+00  0.00000000E+00
  0.00000000E+00  0.00000000E+00  0.00000000E+00
  0.00000000E+00  0.00000000E+00  0.00000000E+00
  0.00000000E+00  0.00000000E+00  0.00000000E+00
  0.00000000E+00  0.00000000E+00  0.00000000E+00
  0.00000000E+00  0.00000000E+00  0.00000000E+00
  0.00000000E+00  0.00000000E+00  0.00000000E+00
  0.00000000E+00  0.00000000E+00  0.00000000E+00
  0.00000000E+00  0.00000000E+00  0.00000000E+00
  0.00000000E+00  0.00000000E+00  0.00000000E+00
  0.00000000E+00  0.00000000E+00  0.00000000E+00
  0.00000000E+00  0.00000000E+00  0.00000000E+00
  0.00000000E+00  0.00000000E+00  0.00000000E+00
  0.00000000E+00  0.00000000E+00  0.00000000E+00
  0.00000000E+00  0.00000000E+00  0.00000000E+00
  0.00000000E+00  0.00000000E+00  0.00000000E+00
  0.00000000E+00  0.00000000E+00  0.00000000E+00
  0.00000000E+00  0.00000000E+00  0.00000000E+00
  0.00000000E+00  0.00000000E+00  0.00000000E+00
  0.00000000E+00  0.00000000E+00  0.00000000E+00
  0.00000000E+00  0.00000000E+00  0.00000000E+00
  0.00000000E+00  0.00000000E+00  0.00000000E+00
  0.00000000E+00  0.00000000E+00  0.00000000E+00
  0.00000000E+00  0.00000000E+00  0.00000000E+00
  0.00000000E+00  0.00000000E+00  0.00000000E+00
  0.00000000E+00  0.00000000E+00  0.00000000E+00
  0.00000000E+00  0.00000000E+00  0.00000000E+00
  0.00000000E+00  0.00000000E+00  0.00000000E+00
  0.00000000E+00  0.00000000E+00  0.00000000E+00
  0.00000000E+00  0.00000000E+00  0.00000000E+00
  0.00000000E+00  0.00000000E+00  0.00000000E+00
  0.00000000E+00  0.00000000E+00  0.00000000E+00
  0.00000000E+00  0.00000000E+00  0.00000000E+00
  0.00000000E+00  0.00000000E+00  0.00000000E+00
  0.00000000E+00  0.00000000E+00  0.00000000E+00
  0.00000000E+00  0.00000000E+00  0.00000000E+00
  0.00000000E+00  0.00000000E+00  0.00000000E+00
  0.00000000E+00  0.00000000E+00  0.00000000E+00
  0.00000000E+00  0.00000000E+00  0.00000000E+00
  0.00000000E+00  0.00000000E+00  0.00000000E+00
  0.00000000E+00  0.00000000E+00  0.00000000E+00
  0.00000000E+00  0.00000000E+00  0.00000000E+00
  0.00000000E+00  0.00000000E+00  0.00000000E+00
  0.00000000E+00  0.00000000E+00  0.00000000E+00
  0.00000000E+00  0.00000000E+00  0.00000000E+00
  0.00000000E+00  0.00000000E+00  0.00000000E+00
  0.00000000E+00  0.00000000E+00  0.00000000E+00
  0.00000000E+00  0.00000000E+00  0.00000000E+00
  0.00000000E+00  0.00000000E+00  0.00000000E+00
  0.00000000E+00  0.00000000E+00  0.00000000E+00
  0.00000000E+00  0.00000000E+00  0.00000000E+00
  0.00000000E+00  0.00000000E+00  0.00000000E+00
  0.00000000E+00  0.00000000E+00  0.00000000E+00
  0.00000000E+00  0.00000000E+00  0.00000000E+00
  0.00000000E+00  0.00000000E+00  0.00000000E+00
  0.00000000E+00  0.00000000E+00  0.00000000E+00
  0.00000000E+00  0.00000000E+00  0.00000000E+00
  0.00000000E+00  0.00000000E+00  0.00000000E+00
  0.00000000E+00  0.00000000E+00  0.00000000E+00
  0.00000000E+00  0.00000000E+00  0.00000000E+00
  0.00000000E+00  0.00000000E+00  0.00000000E+00
  0.00000000E+00  0.00000000E+00  0.00000000E+00
  0.00000000E+00  0.00000000E+00  0.00000000E+00
  0.00000000E+00  0.00000000E+00  0.00000000E+00
  0.00000000E+00  0.00000000E+00  0.00000000E+00
  0.00000000E+00  0.00000000E+00  0.00000000E+00
  0.00000000E+00  0.00000000E+00  0.00000000E+00
