CONTCAR\(9)                             
   1.00000000000000     
    11.9372997283999993    0.0000000000000000    0.0000000000000000
    -5.9686498641999997   10.3380048173999999    0.0000000000000000
     0.0000000000000000    0.0000000000000000   21.4568004608000003
   In   Se   O    H 
    18    27     2     1
Direct
  0.2368212452547185  0.1260715347522436  0.4039560159818378
  0.1164726430705415  0.2350779204719558  0.5859285202522545
  0.5678257030254074  0.1181959666062522  0.4094482421713730
  0.4508955446532971  0.2357636197097345  0.5864503116520779
  0.9011994796743642  0.1252317610882017  0.4046859120020231
  0.7836689509222369  0.2343643979712430  0.5879285783828393
  0.2377816036974299  0.4564695019205030  0.4063553438511566
  0.1148692883166720  0.5709202865371104  0.5860146452760797
  0.5686804641132204  0.4559950674326698  0.4066438353535711
  0.4504937897334123  0.5702219730877305  0.5878632543848776
  0.9023151921003059  0.4563572275124887  0.4066338818362810
  0.7842452736437476  0.5673630863247254  0.5876508910859332
  0.2317497916762517  0.7919073264286617  0.4047659405765591
  0.1169228545292704  0.9012339874454568  0.5878663686191793
  0.5589551097619629  0.7858915382848539  0.4091331217124339
  0.4504912429056290  0.9033872123573233  0.5868431432312302
  0.8951590117809630  0.7930340111546582  0.4056571190516821
  0.7858045301206761  0.9011640944248818  0.5895809799147494
  0.9701212676938996  0.9637344243340291  0.4990511199448391
  0.2281460499199398  0.1214377545943878  0.6495581789560551
  0.1216281804453155  0.2372116398164519  0.3421861653000520
  0.3051650154454600  0.9653431419171086  0.4972654774585845
  0.5604005484354064  0.1206853116169828  0.6506402191148458
  0.4590335793646958  0.2351809399532934  0.3441750889479606
  0.6383684201369753  0.9708358513279500  0.4974593421066046
  0.8958219537360202  0.1206134589177907  0.6510569129694800
  0.7861438111296445  0.2369190660146485  0.3437170929663421
  0.9728692767020041  0.2976055694890105  0.4973497762929577
  0.2235014863118554  0.4539704812536432  0.6480734891849739
  0.1231733005502743  0.5692942810208540  0.3444527357185361
  0.3063084648169622  0.2986949547216827  0.4963445735683420
  0.5608675067172518  0.4535749762572936  0.6497522641900837
  0.4571190671347717  0.5687323605049329  0.3428726009968225
  0.6415579423543187  0.3022232222391012  0.4980702447922304
  0.8933306317714392  0.4518640981629259  0.6515680078362812
  0.7910319892912165  0.5715647398729101  0.3448728398487221
  0.9773342656165737  0.6313531835479261  0.4987776121199713
  0.2288862408565711  0.7870843707293997  0.6505784821830961
  0.1174256550809397  0.9039212628805793  0.3435423232704673
  0.3147236480744375  0.6348151106285040  0.4969759661353201
  0.5621497280478397  0.7886918939378046  0.6501906252297304
  0.4525189068792844  0.9015382344924575  0.3428952761196836
  0.6424719530444625  0.6340202968423169  0.4977007311852127
  0.8954773574433864  0.7846638907230790  0.6519527003399082
  0.7808789259612434  0.9030656314733290  0.3445629369245617
  0.4288791133874644  0.5185396850547929  0.8056930549973060
  0.4084662543000039  0.4852049782291361  0.7443756841705459
  0.3886880043702148  0.4347849909349564  0.8279224717943019
 
  0.00000000E+00  0.00000000E+00  0.00000000E+00
  0.00000000E+00  0.00000000E+00  0.00000000E+00
  0.00000000E+00  0.00000000E+00  0.00000000E+00
  0.00000000E+00  0.00000000E+00  0.00000000E+00
  0.00000000E+00  0.00000000E+00  0.00000000E+00
  0.00000000E+00  0.00000000E+00  0.00000000E+00
  0.00000000E+00  0.00000000E+00  0.00000000E+00
  0.00000000E+00  0.00000000E+00  0.00000000E+00
  0.00000000E+00  0.00000000E+00  0.00000000E+00
  0.00000000E+00  0.00000000E+00  0.00000000E+00
  0.00000000E+00  0.00000000E+00  0.00000000E+00
  0.00000000E+00  0.00000000E+00  0.00000000E+00
  0.00000000E+00  0.00000000E+00  0.00000000E+00
  0.00000000E+00  0.00000000E+00  0.00000000E+00
  0.00000000E+00  0.00000000E+00  0.00000000E+00
  0.00000000E+00  0.00000000E+00  0.00000000E+00
  0.00000000E+00  0.00000000E+00  0.00000000E+00
  0.00000000E+00  0.00000000E+00  0.00000000E+00
  0.00000000E+00  0.00000000E+00  0.00000000E+00
  0.00000000E+00  0.00000000E+00  0.00000000E+00
  0.00000000E+00  0.00000000E+00  0.00000000E+00
  0.00000000E+00  0.00000000E+00  0.00000000E+00
  0.00000000E+00  0.00000000E+00  0.00000000E+00
  0.00000000E+00  0.00000000E+00  0.00000000E+00
  0.00000000E+00  0.00000000E+00  0.00000000E+00
  0.00000000E+00  0.00000000E+00  0.00000000E+00
  0.00000000E+00  0.00000000E+00  0.00000000E+00
  0.00000000E+00  0.00000000E+00  0.00000000E+00
  0.00000000E+00  0.00000000E+00  0.00000000E+00
  0.00000000E+00  0.00000000E+00  0.00000000E+00
  0.00000000E+00  0.00000000E+00  0.00000000E+00
  0.00000000E+00  0.00000000E+00  0.00000000E+00
  0.00000000E+00  0.00000000E+00  0.00000000E+00
  0.00000000E+00  0.00000000E+00  0.00000000E+00
  0.00000000E+00  0.00000000E+00  0.00000000E+00
  0.00000000E+00  0.00000000E+00  0.00000000E+00
  0.00000000E+00  0.00000000E+00  0.00000000E+00
  0.00000000E+00  0.00000000E+00  0.00000000E+00
  0.00000000E+00  0.00000000E+00  0.00000000E+00
  0.00000000E+00  0.00000000E+00  0.00000000E+00
  0.00000000E+00  0.00000000E+00  0.00000000E+00
  0.00000000E+00  0.00000000E+00  0.00000000E+00
  0.00000000E+00  0.00000000E+00  0.00000000E+00
  0.00000000E+00  0.00000000E+00  0.00000000E+00
  0.00000000E+00  0.00000000E+00  0.00000000E+00
  0.00000000E+00  0.00000000E+00  0.00000000E+00
  0.00000000E+00  0.00000000E+00  0.00000000E+00
  0.00000000E+00  0.00000000E+00  0.00000000E+00
