CONTCAR\(14)                            
   1.00000000000000     
    14.3248996734999992    0.0000000000000000    0.0000000000000000
    -7.1590188013000002   12.4195981305000007    0.0000000000000000
     0.0000000000000000    0.0000000000000000   17.6436004639000004
   Rb   O 
    24    13
Direct
  0.3300956290649760  0.3488358263336163  0.5717763615091775
  0.4995695581362226  0.3262540037743665  0.4226992348188460
  0.1702083762644275  0.1579426514852677  0.4192742484004835
  0.0177785996757454  0.1833569819287159  0.5754150215451611
  0.3363022039121883  0.9937044943125477  0.4298518797242894
  0.1770862145286635  0.5004683192936409  0.5681944388343733
  0.8376966871793907  0.3366026386202809  0.5850876240696660
 -0.0076020915077635  0.3344888150009990  0.4183807304470020
  0.6689393498575584  0.1678151342694206  0.4325768199425201
  0.4986926509687634  0.1663880363232468  0.5845851145441726
  0.8432081091515612  0.0077294647510818  0.4299017316138641
  0.6567215370748151  0.5010085574845837  0.5780868435608452
  0.3353024376871767  0.8185067694054248  0.5758522330658913
  0.5119647913655297  0.8424170136125527  0.4195019991172002
  0.1590451628071382  0.6667157429009554  0.4187307377293112
  0.0017935955134728  0.6651493881006877  0.5846803547539094
  0.3352563393481331  0.5001689825671027  0.4030401207498348
  0.1728973001378441  0.0031157866683999  0.5846397756884688
  0.8327648303142964  0.8349946888493016  0.5844242598491247
  0.0018627844435798  0.8342086709046628  0.4325507589952352
  0.6733117659423389  0.6746675901348078  0.4225566863147222
  0.4825431088537111  0.6529442375176041  0.5718903011154408
  0.8287742603221770  0.5008367376394000  0.4299297464003944
  0.6704393858773583 -0.0016460219484229  0.5842458452798658
  0.1637706823003060  0.3291482295120740  0.4720682434976811
  0.3354213083760915  0.1627315417790943  0.5013843365055635
  0.0045234200888458  0.0017144204602684  0.5093922980798026
  0.6675433792806837  0.3338391139070875  0.5090027910441592
  0.8368970672656879  0.1698189868133871  0.5083198606546167
  0.5034940090527514 -0.0004034325592377  0.5089160197699384
  0.1682141117928425  0.8318432026668816  0.5082832367493597
  0.3348589464911569  0.6710552460145770  0.4731556714894018
 -0.0017846162001742  0.5007002187785726  0.5012301227808541
  0.6733540074369381  0.8387929035086075  0.5009217145608431
  0.8344375980583389  0.6679306855936280  0.5084364194791906
  0.5034195517554561  0.5002649433749521  0.4820372374422819
  0.3112080763817858  0.5019902342198574  0.6669689738764708
 
  0.00000000E+00  0.00000000E+00  0.00000000E+00
  0.00000000E+00  0.00000000E+00  0.00000000E+00
  0.00000000E+00  0.00000000E+00  0.00000000E+00
  0.00000000E+00  0.00000000E+00  0.00000000E+00
  0.00000000E+00  0.00000000E+00  0.00000000E+00
  0.00000000E+00  0.00000000E+00  0.00000000E+00
  0.00000000E+00  0.00000000E+00  0.00000000E+00
  0.00000000E+00  0.00000000E+00  0.00000000E+00
  0.00000000E+00  0.00000000E+00  0.00000000E+00
  0.00000000E+00  0.00000000E+00  0.00000000E+00
  0.00000000E+00  0.00000000E+00  0.00000000E+00
  0.00000000E+00  0.00000000E+00  0.00000000E+00
  0.00000000E+00  0.00000000E+00  0.00000000E+00
  0.00000000E+00  0.00000000E+00  0.00000000E+00
  0.00000000E+00  0.00000000E+00  0.00000000E+00
  0.00000000E+00  0.00000000E+00  0.00000000E+00
  0.00000000E+00  0.00000000E+00  0.00000000E+00
  0.00000000E+00  0.00000000E+00  0.00000000E+00
  0.00000000E+00  0.00000000E+00  0.00000000E+00
  0.00000000E+00  0.00000000E+00  0.00000000E+00
  0.00000000E+00  0.00000000E+00  0.00000000E+00
  0.00000000E+00  0.00000000E+00  0.00000000E+00
  0.00000000E+00  0.00000000E+00  0.00000000E+00
  0.00000000E+00  0.00000000E+00  0.00000000E+00
  0.00000000E+00  0.00000000E+00  0.00000000E+00
  0.00000000E+00  0.00000000E+00  0.00000000E+00
  0.00000000E+00  0.00000000E+00  0.00000000E+00
  0.00000000E+00  0.00000000E+00  0.00000000E+00
  0.00000000E+00  0.00000000E+00  0.00000000E+00
  0.00000000E+00  0.00000000E+00  0.00000000E+00
  0.00000000E+00  0.00000000E+00  0.00000000E+00
  0.00000000E+00  0.00000000E+00  0.00000000E+00
  0.00000000E+00  0.00000000E+00  0.00000000E+00
  0.00000000E+00  0.00000000E+00  0.00000000E+00
  0.00000000E+00  0.00000000E+00  0.00000000E+00
  0.00000000E+00  0.00000000E+00  0.00000000E+00
  0.00000000E+00  0.00000000E+00  0.00000000E+00
