CONTCAR\(10)                            
   1.00000000000000     
    12.6843996047999994    0.0000000000000000    0.0000000000000000
     0.0000000000000000   11.4939002990999999    0.0000000000000000
     0.0000000000000000    0.0000000000000000   18.8276996612999987
   Nb   Si   Te   O    H 
    12     4    24     2     1
Direct
  0.0852032114523371  0.0838931185799543  0.4962306242964266
  0.3362598936943034  0.9216197236445283  0.5004813605828875
  0.3456379480922985  0.2080735532952987  0.4998026016472799
  0.1043205526046514  0.7921438532285362  0.4986890501321984
  0.4946844355064669  0.5673718577458674  0.5061554767171903
  0.2338340158305193  0.4402804488886585  0.5074333007437516
  0.5830653269366319  0.0968583217501505  0.5020984453098349
  0.8359902411556805  0.9225274358421411  0.4968278766987331
  0.8531645835501981  0.2208493964357956  0.4976229852394855
  0.6019079638766839  0.7946303960458528  0.4991646101500494
  0.9881310379948770  0.5691422149648033  0.4989842297056473
  0.7399869021022073  0.4463497366361856  0.5000668306989262
  0.0397230735850589  0.3298487744024124  0.4970825349930532
  0.2934048113404503  0.6793415820272695  0.5047439578035218
  0.5457320452425364  0.3342546315670102  0.5114371165461223
  0.7931402713704085  0.6844755677522740  0.4978115262868091
  0.4268224552379082  0.0761358392157163  0.6071487628588070
  0.1806341018776285  0.9356655439177030  0.3939776425064276
  0.1771865055523207  0.9371643483792260  0.6030106447560719
  0.4269683668875270  0.0715582603401964  0.3955203682768444
  0.3506295530984714  0.3934905080553917  0.6293167672964148
  0.1570792677822556  0.5983523870839936  0.4032941475622152
  0.1443310397023147  0.6045465870428287  0.6019990284452086
  0.4038561090767078  0.4065180043310819  0.4118611444204980
  0.1687985222028694  0.2394426816556764  0.5974062476192031
  0.4291648046483763  0.7559028240944050  0.4053795202289855
  0.4344602455834966  0.7639388453201090  0.5981471324152348
  0.1802106873713200  0.2520479265363732  0.4021726307054107
  0.9276482849351473  0.0700367636108867  0.5999227542570725
  0.6739804619844694  0.9446400795468769  0.3962894410795801
  0.6785995381012908  0.9423167489955129  0.6017132438507572
  0.9269654688428901  0.0724097892062661  0.3933619515954808
  0.9037813933429839  0.4113937080564584  0.5987754891042849
  0.6492925331820116  0.6016348284351188  0.4013282055989840
  0.6619876253284930  0.6115171704000926  0.6006836948319713
  0.9016687870432973  0.4118771494464586  0.3983597018772920
  0.6913492231866225  0.2499073551249149  0.5985384143217464
  0.9340783942902915  0.7590359405214944  0.4006859441851616
  0.9306382179454217  0.7622014600025591  0.5947954662928929
  0.6797729349768593  0.2556878685582544  0.4044901766770647
  0.4952878072016139  0.4187411928930446  0.5813569439851041
  0.3798340999066825  0.5452845171748695  0.6832771595926524
  0.4138275943753776  0.5235308642477762  0.7280047791067294
 
  0.00000000E+00  0.00000000E+00  0.00000000E+00
  0.00000000E+00  0.00000000E+00  0.00000000E+00
  0.00000000E+00  0.00000000E+00  0.00000000E+00
  0.00000000E+00  0.00000000E+00  0.00000000E+00
  0.00000000E+00  0.00000000E+00  0.00000000E+00
  0.00000000E+00  0.00000000E+00  0.00000000E+00
  0.00000000E+00  0.00000000E+00  0.00000000E+00
  0.00000000E+00  0.00000000E+00  0.00000000E+00
  0.00000000E+00  0.00000000E+00  0.00000000E+00
  0.00000000E+00  0.00000000E+00  0.00000000E+00
  0.00000000E+00  0.00000000E+00  0.00000000E+00
  0.00000000E+00  0.00000000E+00  0.00000000E+00
  0.00000000E+00  0.00000000E+00  0.00000000E+00
  0.00000000E+00  0.00000000E+00  0.00000000E+00
  0.00000000E+00  0.00000000E+00  0.00000000E+00
  0.00000000E+00  0.00000000E+00  0.00000000E+00
  0.00000000E+00  0.00000000E+00  0.00000000E+00
  0.00000000E+00  0.00000000E+00  0.00000000E+00
  0.00000000E+00  0.00000000E+00  0.00000000E+00
  0.00000000E+00  0.00000000E+00  0.00000000E+00
  0.00000000E+00  0.00000000E+00  0.00000000E+00
  0.00000000E+00  0.00000000E+00  0.00000000E+00
  0.00000000E+00  0.00000000E+00  0.00000000E+00
  0.00000000E+00  0.00000000E+00  0.00000000E+00
  0.00000000E+00  0.00000000E+00  0.00000000E+00
  0.00000000E+00  0.00000000E+00  0.00000000E+00
  0.00000000E+00  0.00000000E+00  0.00000000E+00
  0.00000000E+00  0.00000000E+00  0.00000000E+00
  0.00000000E+00  0.00000000E+00  0.00000000E+00
  0.00000000E+00  0.00000000E+00  0.00000000E+00
  0.00000000E+00  0.00000000E+00  0.00000000E+00
  0.00000000E+00  0.00000000E+00  0.00000000E+00
  0.00000000E+00  0.00000000E+00  0.00000000E+00
  0.00000000E+00  0.00000000E+00  0.00000000E+00
  0.00000000E+00  0.00000000E+00  0.00000000E+00
  0.00000000E+00  0.00000000E+00  0.00000000E+00
  0.00000000E+00  0.00000000E+00  0.00000000E+00
  0.00000000E+00  0.00000000E+00  0.00000000E+00
  0.00000000E+00  0.00000000E+00  0.00000000E+00
  0.00000000E+00  0.00000000E+00  0.00000000E+00
  0.00000000E+00  0.00000000E+00  0.00000000E+00
  0.00000000E+00  0.00000000E+00  0.00000000E+00
  0.00000000E+00  0.00000000E+00  0.00000000E+00
