CONTCAR\(20)                            
   1.00000000000000     
    11.6593999863000004    0.0000000000000000    0.0000000000000000
    -5.8296999931000002   10.0973365810000004    0.0000000000000000
     0.0000000000000000    0.0000000000000000   24.5373001098999985
   Zn   In   S 
     9    18    36
Direct
  0.1111100030000003  0.2222200069999971  0.3249800004397585
  0.4444400100000010  0.2222200069999971  0.3249800004397585
  0.7777799959999996  0.2222200069999971  0.3249800004397585
  0.1111100099999973  0.5555600049999967  0.3249800004397585
  0.4444400169999980  0.5555600049999967  0.3249800004397585
  0.7777800020000001  0.5555600049999967  0.3249800004397585
  0.1111100230000019  0.8888900390000032  0.3249800004397585
  0.4444400300000027  0.8888900390000032  0.3249800004397585
  0.7777800160000012  0.8888900390000032  0.3249800004397585
  0.0000000000000000  0.0000000000000000  0.4846403813041178
  0.2222200049999969  0.1111100030000003  0.6488531005600535
  0.3333300070000007  0.0000000000000000  0.4846403813041178
  0.5555599910000026  0.1111100030000003  0.6488531005600535
  0.6666700339999991  0.0000000000000000  0.4846403813041178
  0.8888900390000032  0.1111100030000003  0.6488531005600535
  0.0000000020000002  0.3333300099999974  0.4846403813041178
  0.2222200069999971  0.4444400140000013  0.6488531005600535
  0.3333300090000009  0.3333300099999974  0.4846403813041178
  0.5555599930000028  0.4444400140000013  0.6488531005600535
  0.6666700350000028  0.3333300099999974  0.4846403813041178
  0.8888900000000035  0.4444400140000013  0.6488531005600535
  0.9999999990000035  0.6666700319999990  0.4846403813041178
  0.2222200129999976  0.7777800120000009  0.6488531005600535
  0.3333300059999971  0.6666700319999990  0.4846403813041178
  0.5555599990000033  0.7777800120000009  0.6488531005600535
  0.6666700330000026  0.6666700319999990  0.4846403813041178
  0.8888900059999969  0.7777800120000009  0.6488531005600535
  0.2222200049999969  0.1111100030000003  0.3087720039944344
  0.2222200049999969  0.1111100030000003  0.5504100570164567
  0.1111100030000003  0.2222200069999971  0.4346352587479956
  0.1111100030000003  0.2222200069999971  0.6957692319371844
  0.5555599910000026  0.1111100030000003  0.3087720039944344
  0.5555599910000026  0.1111100030000003  0.5504100570164567
  0.4444400100000010  0.2222200069999971  0.4346352587479956
  0.4444400100000010  0.2222200069999971  0.6957692319371844
  0.8888900390000032  0.1111100030000003  0.3087720039944344
  0.8888900390000032  0.1111100030000003  0.5504100570164567
  0.7777799959999996  0.2222200069999971  0.4346352587479956
  0.7777799959999996  0.2222200069999971  0.6957692319371844
  0.2222200069999971  0.4444400140000013  0.3087720039944344
  0.2222200069999971  0.4444400140000013  0.5504100570164567
  0.1111100099999973  0.5555600049999967  0.4346352587479956
  0.1111100099999973  0.5555600049999967  0.6957692319371844
  0.5555599930000028  0.4444400140000013  0.3087720039944344
  0.5555599930000028  0.4444400140000013  0.5504100570164567
  0.4444400169999980  0.5555600049999967  0.4346352587479956
  0.4444400169999980  0.5555600049999967  0.6957692319371844
  0.8888900000000035  0.4444400140000013  0.3087720039944344
  0.8888900000000035  0.4444400140000013  0.5504100570164567
  0.7777800020000001  0.5555600049999967  0.4346352587479956
  0.7777800020000001  0.5555600049999967  0.6957692319371844
  0.2222200129999976  0.7777800120000009  0.3087720039944344
  0.2222200129999976  0.7777800120000009  0.5504100570164567
  0.1111100230000019  0.8888900390000032  0.4346352587479956
  0.1111100230000019  0.8888900390000032  0.6957692319371844
  0.5555599990000033  0.7777800120000009  0.3087720039944344
  0.5555599990000033  0.7777800120000009  0.5504100570164567
  0.4444400300000027  0.8888900390000032  0.4346352587479956
  0.4444400300000027  0.8888900390000032  0.6957692319371844
  0.8888900059999969  0.7777800120000009  0.3087720039944344
  0.8888900059999969  0.7777800120000009  0.5504100570164567
  0.7777800160000012  0.8888900390000032  0.4346352587479956
  0.7777800160000012  0.8888900390000032  0.6957692319371844
 
  0.00000000E+00  0.00000000E+00  0.00000000E+00
  0.00000000E+00  0.00000000E+00  0.00000000E+00
  0.00000000E+00  0.00000000E+00  0.00000000E+00
  0.00000000E+00  0.00000000E+00  0.00000000E+00
  0.00000000E+00  0.00000000E+00  0.00000000E+00
  0.00000000E+00  0.00000000E+00  0.00000000E+00
  0.00000000E+00  0.00000000E+00  0.00000000E+00
  0.00000000E+00  0.00000000E+00  0.00000000E+00
  0.00000000E+00  0.00000000E+00  0.00000000E+00
  0.00000000E+00  0.00000000E+00  0.00000000E+00
  0.00000000E+00  0.00000000E+00  0.00000000E+00
  0.00000000E+00  0.00000000E+00  0.00000000E+00
  0.00000000E+00  0.00000000E+00  0.00000000E+00
  0.00000000E+00  0.00000000E+00  0.00000000E+00
  0.00000000E+00  0.00000000E+00  0.00000000E+00
  0.00000000E+00  0.00000000E+00  0.00000000E+00
  0.00000000E+00  0.00000000E+00  0.00000000E+00
  0.00000000E+00  0.00000000E+00  0.00000000E+00
  0.00000000E+00  0.00000000E+00  0.00000000E+00
  0.00000000E+00  0.00000000E+00  0.00000000E+00
  0.00000000E+00  0.00000000E+00  0.00000000E+00
  0.00000000E+00  0.00000000E+00  0.00000000E+00
  0.00000000E+00  0.00000000E+00  0.00000000E+00
  0.00000000E+00  0.00000000E+00  0.00000000E+00
  0.00000000E+00  0.00000000E+00  0.00000000E+00
  0.00000000E+00  0.00000000E+00  0.00000000E+00
  0.00000000E+00  0.00000000E+00  0.00000000E+00
  0.00000000E+00  0.00000000E+00  0.00000000E+00
  0.00000000E+00  0.00000000E+00  0.00000000E+00
  0.00000000E+00  0.00000000E+00  0.00000000E+00
  0.00000000E+00  0.00000000E+00  0.00000000E+00
  0.00000000E+00  0.00000000E+00  0.00000000E+00
  0.00000000E+00  0.00000000E+00  0.00000000E+00
  0.00000000E+00  0.00000000E+00  0.00000000E+00
  0.00000000E+00  0.00000000E+00  0.00000000E+00
  0.00000000E+00  0.00000000E+00  0.00000000E+00
  0.00000000E+00  0.00000000E+00  0.00000000E+00
  0.00000000E+00  0.00000000E+00  0.00000000E+00
  0.00000000E+00  0.00000000E+00  0.00000000E+00
  0.00000000E+00  0.00000000E+00  0.00000000E+00
  0.00000000E+00  0.00000000E+00  0.00000000E+00
  0.00000000E+00  0.00000000E+00  0.00000000E+00
  0.00000000E+00  0.00000000E+00  0.00000000E+00
  0.00000000E+00  0.00000000E+00  0.00000000E+00
  0.00000000E+00  0.00000000E+00  0.00000000E+00
  0.00000000E+00  0.00000000E+00  0.00000000E+00
  0.00000000E+00  0.00000000E+00  0.00000000E+00
  0.00000000E+00  0.00000000E+00  0.00000000E+00
  0.00000000E+00  0.00000000E+00  0.00000000E+00
  0.00000000E+00  0.00000000E+00  0.00000000E+00
  0.00000000E+00  0.00000000E+00  0.00000000E+00
  0.00000000E+00  0.00000000E+00  0.00000000E+00
  0.00000000E+00  0.00000000E+00  0.00000000E+00
  0.00000000E+00  0.00000000E+00  0.00000000E+00
  0.00000000E+00  0.00000000E+00  0.00000000E+00
  0.00000000E+00  0.00000000E+00  0.00000000E+00
  0.00000000E+00  0.00000000E+00  0.00000000E+00
  0.00000000E+00  0.00000000E+00  0.00000000E+00
  0.00000000E+00  0.00000000E+00  0.00000000E+00
  0.00000000E+00  0.00000000E+00  0.00000000E+00
  0.00000000E+00  0.00000000E+00  0.00000000E+00
  0.00000000E+00  0.00000000E+00  0.00000000E+00
  0.00000000E+00  0.00000000E+00  0.00000000E+00
