CONTCAR\(3)                             
   1.00000000000000     
    13.8964004516999999    0.0000000000000000    0.0000000000000000
     0.0991868080000000   15.6682861384999992    0.0000000000000000
     0.0000000000000000    0.0000000000000000   19.4270992279000012
   Ta   Ni   Se   O    H 
    16     8    40     1     1
Direct
  0.0621515522626213  0.1125378613465541  0.4821726062805735
  0.0600937301432441  0.3951866591794533  0.4829595605778609
  0.1853995798569711  0.8966086338180342  0.5208492954514219
  0.1865047529225491  0.6148578866086110  0.5211393442692132
  0.3123485239815932  0.1126334288023696  0.4815414016305962
  0.3056909681865151  0.3890186012361590  0.4773173624289935
  0.4363323435058519  0.8979214857834288  0.5222291673880078
  0.4372867201579381  0.6252372646984320  0.5238196561738163
  0.5631390828451152  0.1125231509831239  0.4816275538903617
  0.5678504839789148  0.3896356423914522  0.4770406376012007
  0.6874793087156658  0.8967654367866184  0.5210402011542463
  0.6876955617907241  0.6151258157626410  0.5207953022903840
  0.8133264944256663  0.1126658876508431  0.4823039275982370
  0.8136474810898416  0.3953429392852801  0.4828977985194363
  0.9365245944772499  0.8956939503660203  0.5211703972593391
  0.9371838961106466  0.6139818927505207  0.5204883361600344
  0.1856469838325055  0.2533009871041530  0.4680212171452549
  0.0621146948584588  0.7546932296103188  0.5346951945431364
  0.4377822487911681  0.2533022368122759  0.4690313598205547
  0.3108565837856041  0.7570148881932546  0.5342982661773045
  0.6889936635710736  0.2534865204118295  0.4682858125113359
  0.5628340212532884  0.7572191642664772  0.5344512537985540
  0.9377214238343481  0.2541624490691280  0.4686630091483014
  0.8115739313287628  0.7550312736506923  0.5343248482400985
  0.1855685552487359  0.1426117537567539  0.3874703428056608
  0.1822968109022724  0.3628667051382297  0.3851480744674002
  0.0627953056157547  0.8651676021064811  0.6155859642325020
  0.0609777438102266  0.6434778360674845  0.6153923660114158
  0.0620006482517010  0.9541896620413822  0.4304976773865413
  0.0622976483267640  0.5540622480262326  0.4310866619476171
  0.1865070946232597  0.0548625432233100  0.5723987324934690
  0.1877678330975011  0.4542770168063677  0.5706007532896952
  0.0618609659864305  0.2536361873485322  0.5525061096054440
  0.1863394715846341  0.7550475207734788  0.4504319257537905
  0.4364865732654020  0.1431303875956506  0.3877386445062759
  0.4369720095272023  0.3618005187383491  0.3859827752376974
  0.3119314452388800  0.8670170775991187  0.6155741298907940
  0.3102679307114808  0.6468172086701542  0.6166286523542984
  0.3124465245055634  0.9549649394604700  0.4308969310708103
  0.3149228598111823  0.5526565219168715  0.4356987541987488
  0.4365932397326804  0.0559504501224251  0.5726331584382280
  0.4366598808280278  0.4610251569065982  0.5578567075600052
  0.3113936008786616  0.2550510954355440  0.5525009558534415
  0.4369582856680689  0.7583498936785565  0.4494648294945042
  0.6872104966385986  0.1429579409994062  0.3875996021467934
  0.6921447039691265  0.3628458513501959  0.3852011961093231
  0.5634476538369624  0.8671075143271759  0.6156395673428707
  0.5628990710829893  0.6469864471663478  0.6166442620743958
  0.5626650322548011  0.9551820733796053  0.4310620190263125
  0.5593669384688839  0.5533523495890390  0.4350428655547229
  0.6869008753333233  0.0551488613672474  0.5726101663779555
  0.6858007968301553  0.4545271390114122  0.5704813288751669
  0.5630508903979108  0.2553982221477398  0.5526392959198685
  0.6871894885155818  0.7555886402972413  0.4503266218939356
  0.9363898928649249  0.1438892404575934  0.3876555045781740
  0.9372277371969510  0.3648410525020682  0.3877558838675929
  0.8129403823316697  0.8653045343060859  0.6156184277872089
  0.8119175200024425  0.6438820639628230  0.6151670626372288
  0.8130705496508331  0.9544963600953481  0.4306043636601306
  0.8117500053604030  0.5543338078517916  0.4309756462977416
  0.9366807234345182  0.0540468770809172  0.5726986940899473
  0.9368534212932125  0.4548604846626177  0.5730043179621418
  0.8129283386999338  0.2539644353807323  0.5524370073808530
  0.9370514257982698  0.7545838494012247  0.4508314316112101
  0.4386268717687768  0.4320768337340747  0.6502002614448372
  0.4647944939489688  0.3737766969496072  0.6518859947050223
 
  0.00000000E+00  0.00000000E+00  0.00000000E+00
  0.00000000E+00  0.00000000E+00  0.00000000E+00
  0.00000000E+00  0.00000000E+00  0.00000000E+00
  0.00000000E+00  0.00000000E+00  0.00000000E+00
  0.00000000E+00  0.00000000E+00  0.00000000E+00
  0.00000000E+00  0.00000000E+00  0.00000000E+00
  0.00000000E+00  0.00000000E+00  0.00000000E+00
  0.00000000E+00  0.00000000E+00  0.00000000E+00
  0.00000000E+00  0.00000000E+00  0.00000000E+00
  0.00000000E+00  0.00000000E+00  0.00000000E+00
  0.00000000E+00  0.00000000E+00  0.00000000E+00
  0.00000000E+00  0.00000000E+00  0.00000000E+00
  0.00000000E+00  0.00000000E+00  0.00000000E+00
  0.00000000E+00  0.00000000E+00  0.00000000E+00
  0.00000000E+00  0.00000000E+00  0.00000000E+00
  0.00000000E+00  0.00000000E+00  0.00000000E+00
  0.00000000E+00  0.00000000E+00  0.00000000E+00
  0.00000000E+00  0.00000000E+00  0.00000000E+00
  0.00000000E+00  0.00000000E+00  0.00000000E+00
  0.00000000E+00  0.00000000E+00  0.00000000E+00
  0.00000000E+00  0.00000000E+00  0.00000000E+00
  0.00000000E+00  0.00000000E+00  0.00000000E+00
  0.00000000E+00  0.00000000E+00  0.00000000E+00
  0.00000000E+00  0.00000000E+00  0.00000000E+00
  0.00000000E+00  0.00000000E+00  0.00000000E+00
  0.00000000E+00  0.00000000E+00  0.00000000E+00
  0.00000000E+00  0.00000000E+00  0.00000000E+00
  0.00000000E+00  0.00000000E+00  0.00000000E+00
  0.00000000E+00  0.00000000E+00  0.00000000E+00
  0.00000000E+00  0.00000000E+00  0.00000000E+00
  0.00000000E+00  0.00000000E+00  0.00000000E+00
  0.00000000E+00  0.00000000E+00  0.00000000E+00
  0.00000000E+00  0.00000000E+00  0.00000000E+00
  0.00000000E+00  0.00000000E+00  0.00000000E+00
  0.00000000E+00  0.00000000E+00  0.00000000E+00
  0.00000000E+00  0.00000000E+00  0.00000000E+00
  0.00000000E+00  0.00000000E+00  0.00000000E+00
  0.00000000E+00  0.00000000E+00  0.00000000E+00
  0.00000000E+00  0.00000000E+00  0.00000000E+00
  0.00000000E+00  0.00000000E+00  0.00000000E+00
  0.00000000E+00  0.00000000E+00  0.00000000E+00
  0.00000000E+00  0.00000000E+00  0.00000000E+00
  0.00000000E+00  0.00000000E+00  0.00000000E+00
  0.00000000E+00  0.00000000E+00  0.00000000E+00
  0.00000000E+00  0.00000000E+00  0.00000000E+00
  0.00000000E+00  0.00000000E+00  0.00000000E+00
  0.00000000E+00  0.00000000E+00  0.00000000E+00
  0.00000000E+00  0.00000000E+00  0.00000000E+00
  0.00000000E+00  0.00000000E+00  0.00000000E+00
  0.00000000E+00  0.00000000E+00  0.00000000E+00
  0.00000000E+00  0.00000000E+00  0.00000000E+00
  0.00000000E+00  0.00000000E+00  0.00000000E+00
  0.00000000E+00  0.00000000E+00  0.00000000E+00
  0.00000000E+00  0.00000000E+00  0.00000000E+00
  0.00000000E+00  0.00000000E+00  0.00000000E+00
  0.00000000E+00  0.00000000E+00  0.00000000E+00
  0.00000000E+00  0.00000000E+00  0.00000000E+00
  0.00000000E+00  0.00000000E+00  0.00000000E+00
  0.00000000E+00  0.00000000E+00  0.00000000E+00
  0.00000000E+00  0.00000000E+00  0.00000000E+00
  0.00000000E+00  0.00000000E+00  0.00000000E+00
  0.00000000E+00  0.00000000E+00  0.00000000E+00
  0.00000000E+00  0.00000000E+00  0.00000000E+00
  0.00000000E+00  0.00000000E+00  0.00000000E+00
  0.00000000E+00  0.00000000E+00  0.00000000E+00
  0.00000000E+00  0.00000000E+00  0.00000000E+00
