CONTCAR\(4)                             
   1.00000000000000     
    10.8957996367999996    0.0000000000000000    0.0000000000000000
     0.0000000000000000   12.8001003265000008    0.0000000000000000
     0.0000000000000000    0.0000000000000000   21.8099994658999989
   Cu   Si   P    O    H 
    12    24    36     1     1
Direct
 -0.0017568975899390  0.1092297382485058  0.4629640537823422
  0.0003732309507592  0.2831821137179523  0.3623178267757123
  0.3318281563142891  0.1101423278662274  0.4625583243665535
  0.3336332618467207  0.2827536736282885  0.3637028725694993
  0.6651113504176144  0.1094173785552048  0.4629532676501173
  0.6672713735969545  0.2836596932122980  0.3628726330362061
 -0.0029444495748296  0.6091404503347473  0.4630323222471901
 -0.0000047341635342  0.7834986108796574  0.3647748952500820
  0.3290358934580036  0.6084217328401234  0.4628003718555463
  0.3337853468478071  0.7836613465931332  0.3653492477765277
  0.6642089223212478  0.6086172830021428  0.4622265152001461
  0.6674483234264498  0.7834523160677165  0.3636671231893212
  0.1682132424484191  0.0431072600791762  0.3881211008022698
  0.1642041193630466  0.1995485767730932  0.6104081414613911
  0.1653356901339196  0.3552996166407135  0.4826981539400119
 -0.0026066934132271  0.4464893764409153  0.6158544873910368
  0.5017099601066369  0.0433770056815312  0.3878629302230538
  0.4989469646263671  0.2001076355261319  0.6105938191062629
  0.4992327313944336  0.3554512314741953  0.4827266010931855
  0.3318379655676542  0.4470081129955357  0.6153344756846368
  0.8349555644627451  0.0433706341598811  0.3881859899004638
  0.8314821274081962  0.1978620270539508  0.6104404631442674
  0.8326444829914187  0.3554851584786390  0.4825378702917631
  0.6665331989102236  0.4466747813255331  0.6155725116308070
  0.1687710948182554  0.5421346391178631  0.3873309860397728
  0.1537304625383171  0.6927276849305068  0.6101474239389240
  0.1637405388346723  0.8563731667748065  0.4837787679030358
 -0.0021820572023321  0.9476475066109535  0.6163074665586943
  0.5030577133798646  0.5422913974933175  0.3868941406422051
  0.5076354030355146  0.6925426198618825  0.6082664860309266
  0.4998324481519971  0.8561147793978370  0.4830229891961406
  0.3315131099054047  0.9582403438237165  0.6140712487505455
  0.8356585185140154  0.5426134996016772  0.3880266826996418
  0.8310923129489415  0.6976294877261788  0.6111152133605423
  0.8317501851515211  0.8553484209091775  0.4836169048068104
  0.6651533203658363  0.9477629732998595  0.6158796578760956
  0.0016742373936536  0.1158593947446286  0.3462449369162505
  0.1647889364960716  0.1891022475508481  0.5081079126800393
  0.1668671823657155  0.3706666534731193  0.3813312202155690
 -0.0026589114995110  0.2794366255116550  0.6567267827371116
 -0.0009924350586569  0.4509198586337703  0.5125803962705413
  0.1637686562146257  0.0358588980713600  0.6579848582097038
  0.3348608044261845  0.1158980764953955  0.3460011098207670
  0.4985489722971742  0.1892554098323532  0.5082512513720158
  0.5003765442596358  0.3707585453367292  0.3813311553891341
  0.3313689013686501  0.2801006287797380  0.6566807709716582
  0.3321458622154417  0.4505548096174570  0.5122572090245179
  0.4994494484560107  0.0356478867214830  0.6577789905023744
  0.6685020530175375  0.1163911582253064  0.3463422489047150
  0.8316588628593888  0.1893033274157466  0.5080592445251675
  0.8340914435603010  0.3710157773123151  0.3811687395527289
  0.6658755826197654  0.2799538489681312  0.6567584172349650
  0.6658945642285664  0.4508030878549443  0.5123134769587017
  0.8312546699457154  0.0337815005843003  0.6577973573679357
  0.0024710513393261  0.6167652693614375  0.3468183663900027
  0.1643724090802487  0.6899076492754606  0.5084869801295546
  0.1667260020756145  0.8713858001387789  0.3824657415525922
 -0.0039344473298756  0.7800013226054354  0.6583428186402597
 -0.0022286300414090  0.9515853991750188  0.5133465212073887
  0.1643108796927538  0.5316220112613720  0.6579923754107757
  0.3358674012715669  0.6169933680026302  0.3469254752876672
  0.4963576403573690  0.6891280460046930  0.5067331795091780
  0.5009603387734757  0.8716933521318559  0.3817450325813159
  0.3313463222196354  0.7807798581349508  0.6429505879748648
  0.3320296489962262  0.9514487441398282  0.5115246917084546
  0.4993649246697831  0.5323134550306158  0.6573073013672448
  0.6696235159691379  0.6165249348699466  0.3460197627175477
  0.8300376023358877  0.6891433076474159  0.5088493906827464
  0.8335597686066789  0.8717961617418777  0.3824077302389354
  0.6641980678124692  0.7799212883810469  0.6573373663970935
  0.6655171987852381  0.9514459959799806  0.5129632512416998
  0.8316958537208732  0.5334963604448357  0.6577030977818565
  0.3236023855813716  0.7761285663310084  0.7183487403918746
  0.3944550066240163  0.8086871660895096  0.7383517459633050
 
  0.00000000E+00  0.00000000E+00  0.00000000E+00
  0.00000000E+00  0.00000000E+00  0.00000000E+00
  0.00000000E+00  0.00000000E+00  0.00000000E+00
  0.00000000E+00  0.00000000E+00  0.00000000E+00
  0.00000000E+00  0.00000000E+00  0.00000000E+00
  0.00000000E+00  0.00000000E+00  0.00000000E+00
  0.00000000E+00  0.00000000E+00  0.00000000E+00
  0.00000000E+00  0.00000000E+00  0.00000000E+00
  0.00000000E+00  0.00000000E+00  0.00000000E+00
  0.00000000E+00  0.00000000E+00  0.00000000E+00
  0.00000000E+00  0.00000000E+00  0.00000000E+00
  0.00000000E+00  0.00000000E+00  0.00000000E+00
  0.00000000E+00  0.00000000E+00  0.00000000E+00
  0.00000000E+00  0.00000000E+00  0.00000000E+00
  0.00000000E+00  0.00000000E+00  0.00000000E+00
  0.00000000E+00  0.00000000E+00  0.00000000E+00
  0.00000000E+00  0.00000000E+00  0.00000000E+00
  0.00000000E+00  0.00000000E+00  0.00000000E+00
  0.00000000E+00  0.00000000E+00  0.00000000E+00
  0.00000000E+00  0.00000000E+00  0.00000000E+00
  0.00000000E+00  0.00000000E+00  0.00000000E+00
  0.00000000E+00  0.00000000E+00  0.00000000E+00
  0.00000000E+00  0.00000000E+00  0.00000000E+00
  0.00000000E+00  0.00000000E+00  0.00000000E+00
  0.00000000E+00  0.00000000E+00  0.00000000E+00
  0.00000000E+00  0.00000000E+00  0.00000000E+00
  0.00000000E+00  0.00000000E+00  0.00000000E+00
  0.00000000E+00  0.00000000E+00  0.00000000E+00
  0.00000000E+00  0.00000000E+00  0.00000000E+00
  0.00000000E+00  0.00000000E+00  0.00000000E+00
  0.00000000E+00  0.00000000E+00  0.00000000E+00
  0.00000000E+00  0.00000000E+00  0.00000000E+00
  0.00000000E+00  0.00000000E+00  0.00000000E+00
  0.00000000E+00  0.00000000E+00  0.00000000E+00
  0.00000000E+00  0.00000000E+00  0.00000000E+00
  0.00000000E+00  0.00000000E+00  0.00000000E+00
  0.00000000E+00  0.00000000E+00  0.00000000E+00
  0.00000000E+00  0.00000000E+00  0.00000000E+00
  0.00000000E+00  0.00000000E+00  0.00000000E+00
  0.00000000E+00  0.00000000E+00  0.00000000E+00
  0.00000000E+00  0.00000000E+00  0.00000000E+00
  0.00000000E+00  0.00000000E+00  0.00000000E+00
  0.00000000E+00  0.00000000E+00  0.00000000E+00
  0.00000000E+00  0.00000000E+00  0.00000000E+00
  0.00000000E+00  0.00000000E+00  0.00000000E+00
  0.00000000E+00  0.00000000E+00  0.00000000E+00
  0.00000000E+00  0.00000000E+00  0.00000000E+00
  0.00000000E+00  0.00000000E+00  0.00000000E+00
  0.00000000E+00  0.00000000E+00  0.00000000E+00
  0.00000000E+00  0.00000000E+00  0.00000000E+00
  0.00000000E+00  0.00000000E+00  0.00000000E+00
  0.00000000E+00  0.00000000E+00  0.00000000E+00
  0.00000000E+00  0.00000000E+00  0.00000000E+00
  0.00000000E+00  0.00000000E+00  0.00000000E+00
  0.00000000E+00  0.00000000E+00  0.00000000E+00
  0.00000000E+00  0.00000000E+00  0.00000000E+00
  0.00000000E+00  0.00000000E+00  0.00000000E+00
  0.00000000E+00  0.00000000E+00  0.00000000E+00
  0.00000000E+00  0.00000000E+00  0.00000000E+00
  0.00000000E+00  0.00000000E+00  0.00000000E+00
  0.00000000E+00  0.00000000E+00  0.00000000E+00
  0.00000000E+00  0.00000000E+00  0.00000000E+00
  0.00000000E+00  0.00000000E+00  0.00000000E+00
  0.00000000E+00  0.00000000E+00  0.00000000E+00
  0.00000000E+00  0.00000000E+00  0.00000000E+00
  0.00000000E+00  0.00000000E+00  0.00000000E+00
  0.00000000E+00  0.00000000E+00  0.00000000E+00
  0.00000000E+00  0.00000000E+00  0.00000000E+00
  0.00000000E+00  0.00000000E+00  0.00000000E+00
  0.00000000E+00  0.00000000E+00  0.00000000E+00
  0.00000000E+00  0.00000000E+00  0.00000000E+00
  0.00000000E+00  0.00000000E+00  0.00000000E+00
  0.00000000E+00  0.00000000E+00  0.00000000E+00
  0.00000000E+00  0.00000000E+00  0.00000000E+00
