CONTCAR\(2)                             
   1.00000000000000     
    14.8165998459000008    0.0000000000000000    0.0000000000000000
    -7.4083277786000004   12.8316514086000009    0.0000000000000000
     0.0000000000000000    0.0000000000000000   18.0188999175999989
   Fe   Br   O 
    16    32     1
Direct
  0.9957395086702444  1.0013634119364443  0.4959470685638633
  0.2711822713560782  0.0448466177229111  0.5038779503046064
  0.4997579535768309  1.0008997267208157  0.4946313883585163
  0.7601672847864303  0.0054670579607139  0.4967478764251732
  0.9996218194186469  0.2415470115358412  0.4945891727464768
  0.2709764384933166  0.2345466253515424  0.5004324490549464
  0.4640932585568630  0.2345244504824621  0.5011360441420316
  0.7453365254424530  0.2474738156932026  0.4948525387952449
  0.9991328955345831  0.4994799298967426  0.4966467646511705
  0.2456980182469669  0.4997359714937393  0.4965408972467028
  0.4986911867280045  0.4974169764225803  0.6193036240207904
  0.7523852158748917  0.5001459226467709  0.4991626717025061
  0.0073433885483299  0.7558853866151042  0.4934400223873156
  0.2416079466222870  0.7544042822603795  0.4930400718967353
  0.4956280928358345  0.7416028079866032  0.4953841356529909
  0.7599908528294990  0.7482259863163997  0.4903070827457729
  0.1700557573821713  0.0858218720579033  0.4107178938113214
  0.0864167540605940  0.1654693004878612  0.5778761898790861
  0.4208268721743623  0.0800781342830794  0.4164095386603148
  0.3374270563733360  0.1748825809824973  0.6079612011123062
  0.6581725786315635  0.0785090530259901  0.4164398121276677
  0.5758497244075949  0.1568308930727620  0.5743459613252303
  0.9162101637794783  0.0834509893434024  0.4072840330791649
  0.8350041797416607  0.1675801528100882  0.5802998170230652
  0.1710739986189271  0.3421743004935948  0.4201674898906358
  0.0836479399585023  0.4239156072630368  0.5708501529427491
  0.4171590147327173  0.3316634913886651  0.4152118653303117
  0.3145250429740915  0.4162976303381198  0.5801671843502213
  0.6701938212378825  0.3432318099006557  0.4216258127968455
  0.6008142798317141  0.4137173563396375  0.5829632591374618
  0.9198717565006324  0.3406181660730277  0.4191708076635955
  0.8401179387321149  0.4245232421552270  0.5729384755257415
  0.1578302877205973  0.5737756478256277  0.4206053079881431
  0.0784330464571430  0.6579900598090150  0.5753074651303272
  0.4008924864818298  0.5814592335339669  0.4191427820890711
  0.3242125278475033  0.6600218802401226  0.5736887170807523
  0.6745254146176701  0.5786817853559668  0.4234527446466416
  0.5864471037958410  0.6824798417971794  0.5890385907711819
  0.9134002641416901  0.5743861329985168  0.4222713381317198
  0.8335626874080028  0.6605692518134999  0.5767755098131752
  0.1635967079575012  0.8271603636931402  0.4054799922370420
  0.0915520751172661  0.9209235092575028  0.5754328227863910
  0.4204734012202859  0.8424335101478156  0.4176320685400081
  0.3408104324145250  0.9243663409742615  0.5716295356630593
  0.6657373365428990  0.8275998798716440  0.4161631069329715
  0.5783852207966901  0.9212018146786964  0.5711146615070242
  0.9225056374643211  0.8365857932717573  0.4091113177678727
  0.8339860386431325  0.9139846025525331  0.5788389080657527
  0.4889302637144216  0.4804502751208170  0.7106658934983974
 
  0.00000000E+00  0.00000000E+00  0.00000000E+00
  0.00000000E+00  0.00000000E+00  0.00000000E+00
  0.00000000E+00  0.00000000E+00  0.00000000E+00
  0.00000000E+00  0.00000000E+00  0.00000000E+00
  0.00000000E+00  0.00000000E+00  0.00000000E+00
  0.00000000E+00  0.00000000E+00  0.00000000E+00
  0.00000000E+00  0.00000000E+00  0.00000000E+00
  0.00000000E+00  0.00000000E+00  0.00000000E+00
  0.00000000E+00  0.00000000E+00  0.00000000E+00
  0.00000000E+00  0.00000000E+00  0.00000000E+00
  0.00000000E+00  0.00000000E+00  0.00000000E+00
  0.00000000E+00  0.00000000E+00  0.00000000E+00
  0.00000000E+00  0.00000000E+00  0.00000000E+00
  0.00000000E+00  0.00000000E+00  0.00000000E+00
  0.00000000E+00  0.00000000E+00  0.00000000E+00
  0.00000000E+00  0.00000000E+00  0.00000000E+00
  0.00000000E+00  0.00000000E+00  0.00000000E+00
  0.00000000E+00  0.00000000E+00  0.00000000E+00
  0.00000000E+00  0.00000000E+00  0.00000000E+00
  0.00000000E+00  0.00000000E+00  0.00000000E+00
  0.00000000E+00  0.00000000E+00  0.00000000E+00
  0.00000000E+00  0.00000000E+00  0.00000000E+00
  0.00000000E+00  0.00000000E+00  0.00000000E+00
  0.00000000E+00  0.00000000E+00  0.00000000E+00
  0.00000000E+00  0.00000000E+00  0.00000000E+00
  0.00000000E+00  0.00000000E+00  0.00000000E+00
  0.00000000E+00  0.00000000E+00  0.00000000E+00
  0.00000000E+00  0.00000000E+00  0.00000000E+00
  0.00000000E+00  0.00000000E+00  0.00000000E+00
  0.00000000E+00  0.00000000E+00  0.00000000E+00
  0.00000000E+00  0.00000000E+00  0.00000000E+00
  0.00000000E+00  0.00000000E+00  0.00000000E+00
  0.00000000E+00  0.00000000E+00  0.00000000E+00
  0.00000000E+00  0.00000000E+00  0.00000000E+00
  0.00000000E+00  0.00000000E+00  0.00000000E+00
  0.00000000E+00  0.00000000E+00  0.00000000E+00
  0.00000000E+00  0.00000000E+00  0.00000000E+00
  0.00000000E+00  0.00000000E+00  0.00000000E+00
  0.00000000E+00  0.00000000E+00  0.00000000E+00
  0.00000000E+00  0.00000000E+00  0.00000000E+00
  0.00000000E+00  0.00000000E+00  0.00000000E+00
  0.00000000E+00  0.00000000E+00  0.00000000E+00
  0.00000000E+00  0.00000000E+00  0.00000000E+00
  0.00000000E+00  0.00000000E+00  0.00000000E+00
  0.00000000E+00  0.00000000E+00  0.00000000E+00
  0.00000000E+00  0.00000000E+00  0.00000000E+00
  0.00000000E+00  0.00000000E+00  0.00000000E+00
  0.00000000E+00  0.00000000E+00  0.00000000E+00
  0.00000000E+00  0.00000000E+00  0.00000000E+00
