 Li2 H2 Pd1                             
   1.00000000000000     
     2.9510627599266996    0.0000000000000000    0.0000000000000000
     0.0000000000000000    2.9510631449651883    0.0000000000000000
     0.0000000000000000    0.0000000000000000   18.3845925971840032
   Li   H    Pd
     2     2     1
Direct
  0.0000000166417209  0.9999999989667003  0.4156291929911120
  0.9999999836793165  0.0000000007894840  0.5843707629583008
  0.5000000029292906  0.5000000053845355  0.5924756130128515
  0.4999999974138234  0.4999999945914553  0.4075244032915961
  0.4999999993358486  0.5000000002678320  0.5000000277461396
 
  0.00000000E+00  0.00000000E+00  0.00000000E+00
  0.00000000E+00  0.00000000E+00  0.00000000E+00
  0.00000000E+00  0.00000000E+00  0.00000000E+00
  0.00000000E+00  0.00000000E+00  0.00000000E+00
  0.00000000E+00  0.00000000E+00  0.00000000E+00
