CONTCAR\(2)                             
   1.00000000000000     
    11.0214996337999995    0.0000000000000000    0.0000000000000000
     0.0000000000000000   14.9139995575000004    0.0000000000000000
     0.0000000000000000    0.0000000000000000   19.5716991425000018
   Nb   Ni   Te   O 
     6     6    30     1
Direct
  0.9996444452420696  0.2480005689173333  0.4955685535086002
  0.0033936989066928  0.7492298858063692  0.5070887835676094
  0.3326475815046122  0.2481113486086528  0.4953205093025115
  0.3352533180261609  0.7461862320141465  0.5072135851613637
  0.6673316648601461  0.2467191073467682  0.4944131872074788
  0.6698404185674627  0.7477672676281575  0.5067741263302370
  0.1679127136746832  0.9996996996429000  0.5010671943293085
  0.1676114623889693  0.4967945439432867  0.4991507301675613
  0.4984534141996679  0.9957293557976881  0.5024669997294472
  0.5101121483698879  0.4954836397616453  0.4960141543773172
  0.8347397881564245  0.9962579838171202  0.5007132154982430
  0.8201115704797591  0.4917788509162740  0.4967837086107278
  0.0008392936303009  0.0738584051096919  0.4283622511606297
  0.0004269624238406  0.9243345644512215  0.5736927676618591
  0.0088283961209790  0.5749850149320377  0.5733542166661744
  0.9957179873059910  0.4232872061224392  0.4287746210072923
  0.1658732948201539  0.2483389808897430  0.3838681474384664
  0.1673431286464631  0.7504524302513005  0.6225061796533616
  0.1697763747663418  0.8532661964207847  0.4292696064792933
  0.1665551580498363  0.1437886894118192  0.5740522260914815
  0.1662374138988864  0.3526526303119484  0.5736436069918449
  0.1687814340294530  0.6445600728926523  0.4278751668459709
  0.3341918165050028  0.0741143176998411  0.4283482867743116
  0.3319042705930600  0.9210328994752186  0.5754083758893090
  0.3430133017800062  0.5662779841385145  0.5666177945414648
  0.3344639591598405  0.4212700100553622  0.4273690268232141
  0.4994068975329016  0.2455826252188084  0.3831850558072928
  0.5037595253731272  0.7484655724875472  0.6184861114939205
  0.5015613215764458  0.8517060804007708  0.4285941614154392
  0.4999549918881909  0.1434421041546314  0.5728850320613270
  0.5020760548252665  0.3522035228318544  0.5720620342153306
  0.5041719079210492  0.6438972034470278  0.4279779984410494
  0.6659733474820557  0.0710869506650897  0.4306699954260780
  0.6673500589777491  0.9215160317406856  0.5745640747187286
  0.6707494400489614  0.5729308626554033  0.5738434522299135
  0.6616725613538117  0.4151265264926912  0.4180982844751828
  0.8346251948198352  0.2419333701384957  0.3831607264563451
  0.8352753254102708  0.7489632912711363  0.6187825323847993
  0.8354793038363606  0.8517742429674684  0.4277791613429657
  0.8332309937681698  0.1416852887079505  0.5723281187218863
  0.8307510663232698  0.3527723033591979  0.5732762778956798
  0.8379615503922824  0.6388310234546375  0.4322083433155560
  0.1214056523635623  0.6241148566436584  0.6507915577834370
 
  0.00000000E+00  0.00000000E+00  0.00000000E+00
  0.00000000E+00  0.00000000E+00  0.00000000E+00
  0.00000000E+00  0.00000000E+00  0.00000000E+00
  0.00000000E+00  0.00000000E+00  0.00000000E+00
  0.00000000E+00  0.00000000E+00  0.00000000E+00
  0.00000000E+00  0.00000000E+00  0.00000000E+00
  0.00000000E+00  0.00000000E+00  0.00000000E+00
  0.00000000E+00  0.00000000E+00  0.00000000E+00
  0.00000000E+00  0.00000000E+00  0.00000000E+00
  0.00000000E+00  0.00000000E+00  0.00000000E+00
  0.00000000E+00  0.00000000E+00  0.00000000E+00
  0.00000000E+00  0.00000000E+00  0.00000000E+00
  0.00000000E+00  0.00000000E+00  0.00000000E+00
  0.00000000E+00  0.00000000E+00  0.00000000E+00
  0.00000000E+00  0.00000000E+00  0.00000000E+00
  0.00000000E+00  0.00000000E+00  0.00000000E+00
  0.00000000E+00  0.00000000E+00  0.00000000E+00
  0.00000000E+00  0.00000000E+00  0.00000000E+00
  0.00000000E+00  0.00000000E+00  0.00000000E+00
  0.00000000E+00  0.00000000E+00  0.00000000E+00
  0.00000000E+00  0.00000000E+00  0.00000000E+00
  0.00000000E+00  0.00000000E+00  0.00000000E+00
  0.00000000E+00  0.00000000E+00  0.00000000E+00
  0.00000000E+00  0.00000000E+00  0.00000000E+00
  0.00000000E+00  0.00000000E+00  0.00000000E+00
  0.00000000E+00  0.00000000E+00  0.00000000E+00
  0.00000000E+00  0.00000000E+00  0.00000000E+00
  0.00000000E+00  0.00000000E+00  0.00000000E+00
  0.00000000E+00  0.00000000E+00  0.00000000E+00
  0.00000000E+00  0.00000000E+00  0.00000000E+00
  0.00000000E+00  0.00000000E+00  0.00000000E+00
  0.00000000E+00  0.00000000E+00  0.00000000E+00
  0.00000000E+00  0.00000000E+00  0.00000000E+00
  0.00000000E+00  0.00000000E+00  0.00000000E+00
  0.00000000E+00  0.00000000E+00  0.00000000E+00
  0.00000000E+00  0.00000000E+00  0.00000000E+00
  0.00000000E+00  0.00000000E+00  0.00000000E+00
  0.00000000E+00  0.00000000E+00  0.00000000E+00
  0.00000000E+00  0.00000000E+00  0.00000000E+00
  0.00000000E+00  0.00000000E+00  0.00000000E+00
  0.00000000E+00  0.00000000E+00  0.00000000E+00
  0.00000000E+00  0.00000000E+00  0.00000000E+00
  0.00000000E+00  0.00000000E+00  0.00000000E+00
