CONTCAR\(2)                             
   1.00000000000000     
    11.4651002884000004    0.0000000000000000    0.0000000000000000
     0.0000000000000000   11.4651002884000004    0.0000000000000000
     0.0000000000000000    0.0000000000000000   29.1504001616999986
   Sr   Mn   Cl   O    H 
    36    27    18    73     1
Direct
  0.0000303151348625  0.9999093488382087  0.3003903269895296
  0.0000187335288557  0.9986537084228526  0.7003002160540673
  0.0000378191577601 -0.0002165134952919  0.4359653924786553
  0.0000292617330057  0.9974107122663510  0.5653257959716624
  0.3334657623942922  0.9998892211825896  0.3001299723975731
  0.3287151817168464  0.0057017132126631  0.6978116593846939
  0.3335171838406537 -0.0000834706206973  0.4365225625797392
  0.3334774321200494 -0.0008044204149320  0.5658765246620925
  0.6665959780915864  0.9998883951595555  0.3001332518099586
  0.6712477444442974  0.0056587047672495  0.6978392208002204
  0.6665220435670973 -0.0000904389224908  0.4365118877747600
  0.6665707975317537 -0.0008016745383548  0.5658733316289093
  0.0000294362094781  0.3333688253319220  0.3002378438874653
  0.0000111245242369  0.3348700207580245  0.7003848138827181
  0.0000321506867928  0.3336262008744312  0.4359850492782273
  0.0000362938370257  0.3361155232432105  0.5653237213973556
  0.3334716721793512  0.3333815916490138  0.2999795744601629
  0.3289678081558519  0.3279868741938937  0.6980310915889905
  0.3334933261164748  0.3334841213424972  0.4365467447279523
  0.3333638487881553  0.3342893269229480  0.5658741411106775
  0.6665844750356733  0.3333905697093454  0.2999809493923101
  0.6709656728779526  0.3280504291916113  0.6980606520545395
  0.6665568269261183  0.3334972323456987  0.4365357500622005
  0.6666997024850930  0.3342891339979350  0.5658685225014840
  0.0000318949854600  0.6665793746505130  0.3002985887535286
  0.0000424516035172  0.6667507091361424  0.7026402612733337
  0.0000271515561617  0.6665776606560250  0.4359502414084336
  0.0000097573258076  0.6666675923681495  0.5649077621980275
  0.3334729975314212  0.6665700140220215  0.3000471281887852
  0.3446013732899056  0.6665927202278310  0.7119287925753495
  0.3335691772760360  0.6666032691888889  0.4364741639229219
  0.3336752375130086  0.6667571047525614  0.5665878613736389
  0.6665740117213238  0.6665701049991538  0.3000487701367618
  0.6557820471989358  0.6666028181562343  0.7117882276634424
  0.6664736947634142  0.6666002571449161  0.4364745187243246
  0.6663823601501561  0.6667560755769130  0.5665750774456630
  0.1662740970871283  0.1667234779506110  0.5002605358707379
  0.1636353615720843  0.1669070779363736  0.6319552306151144
  0.1671691626433460  0.1667938712471822  0.3673712548130374
  0.5000087734029481  0.1668689901615314  0.5004208631823842
  0.5000285840405848  0.1669274660944215  0.6312063650964914
  0.5000130048156682  0.1668051053444165  0.3673987358962029
  0.8337928887807726  0.1667379208630497  0.5002575059255848
  0.8363466521979710  0.1669245205686097  0.6319738187736147
  0.8329006906289044  0.1667969568107080  0.3673673159992816
  0.1669893941036590  0.5004661036029071  0.5007422537909584
  0.1677356668566559  0.5037130188093905  0.6342368258272918
  0.1671695487730825  0.4998814495578956  0.3674696835996697
  0.5000358608256059  0.5005967416426621  0.5011857386930212
  0.5000054579296634  0.5016290932644868  0.6350903924903336
  0.5000234100812986  0.4998821238904810  0.3676300822286623
  0.8330742467078552  0.5004698614887276  0.5007380597198950
  0.8322970791481460  0.5036960317467104  0.6342421077778654
  0.8328980729975813  0.4998827759538940  0.3674683144968344
  0.1669545481237186  0.8328674549756494  0.5007315671286549
  0.1677090407673443  0.8297867523400771  0.6341657405887741
  0.1671347724549921  0.8332206495673565  0.3675079511510849
  0.5000287407628774  0.8327262153155321  0.5011837114131777
  0.5000031060868784  0.8318014082115615  0.6351441585881202
  0.5000188677267371  0.8331736072652020  0.3676396488158976
  0.8330809258269739  0.8328782741371297  0.5007298854774486
  0.8323359652183389  0.8297964552672085  0.6341644931381671
  0.8329434627358956  0.8332145955345833  0.3675046245294951
  0.1665281378379838  0.1664877003336005  0.2558118872327961
  0.1642416700770322  0.1666855883168092  0.7446052314769995
  0.5000227261643624  0.1665236779990950  0.2556812132303440
  0.4999725092583069  0.1663235819852132  0.7404125598288450
  0.8335302250723832  0.1664903305308638  0.2558141974514279
  0.8357322516240879  0.1666983004864209  0.7445821150431190
  0.1665162666927742  0.5000061616201762  0.2557139866860635
  0.1669825885989331  0.4967251774483247  0.7456142282505749
  0.5000201053825899  0.5000505128848871  0.2555094112341287
  0.4998517440829083  0.4628638548551499  0.7377157616243308
  0.8335265214420553  0.5000158309083175  0.2557106586060693
  0.8331489369369933  0.4966804318002778  0.7456177113326750
  0.1664709930159363  0.8333464637912069  0.2558233854822739
  0.1670021854373755  0.8366449021625449  0.7454893878780922
  0.5000303660743322  0.8332613826799712  0.2556807917626816
  0.4998951873946681  0.8697153207903779  0.7360689576073625
  0.8335816658863046  0.8333495930301682  0.2558256913301285
  0.8331493315556725  0.8367188801187435  0.7455070726735030
  0.1669729313779093  0.9999185033221750  0.3566186835658868
  0.0000058789844942  0.1669466389946215  0.6451112728867151
  0.1668562484680511 -0.0004213786504096  0.5008790179969769
  0.0000166099048276  0.1667725160050694  0.4978953042067232
  0.0000236075968974  0.1667978022281892  0.3568193891889173
  0.1690648214821162  0.1669063230511864  0.4319936301219770
  0.1629194551824214 -0.0007768307965222  0.6419197330395944
  0.1615689893468115  0.1669060385311161  0.5676784514920945
  0.5000308028501320 -0.0001391550130515  0.3568342735634503
  0.3308306221982886  0.1670132187511862  0.6400608684959810
  0.5000264885579083  0.9993602972115316  0.5010036752781928
  0.3331300500199167  0.1668183752087774  0.5007328405097927
  0.3336688309643176  0.1667972067077848  0.3562455288479149
  0.5000111725494517  0.1669447242909364  0.4321696336448899
  0.5000182423562490  0.0020149370472151  0.6396114629172642
  0.5000736045465437  0.1671687604888396  0.5674913327160646
  0.8330843875205667  0.9999175362850616  0.3566188936309790
  0.6691869464447838  0.1670228769465619  0.6401010347917188
  0.8331905074561720 -0.0004131572735022  0.5008627354810545
  0.6669322986117520  0.1668285303375256  0.5007019895494732
  0.6663885686240861  0.1667995643981507  0.3562495592951974
  0.8310033301109716  0.1669048910534031  0.4319834776948832
  0.8370775407409022 -0.0007739157957335  0.6419385849806127
  0.8384308554461910  0.1669136110752289  0.5676851576748394
  0.1670051890558142  0.3333373254647802  0.3564100094635378
  0.0000270067956055  0.5050439863118947  0.6448314872438958
  0.1668440641219152  0.3338139868219767  0.5009258605130487
  0.0000277573955082  0.5001670059096067  0.5002560519707403
  0.0000363213157288  0.4999791815263565  0.3569394295895423
  0.1679703707642861  0.4991730710197451  0.4322046538480582
  0.1629714841370356  0.3343846143361379  0.6420635426131573
  0.1660305475456381  0.5040234010939013  0.5693426837254048
  0.5000256453249414  0.3334003241444125  0.3565896035556994
  0.3332242658096123  0.4996381695012015  0.6447373346088229
  0.5000223100128187  0.3340731331398565  0.5010470383646711
  0.3334649514844449  0.5003141092329862  0.5013550104489529
  0.3336363864558971  0.5000247323108260  0.3563292121040840
  0.5000144337322113  0.4992986334292540  0.4322323579893150
  0.5000038023070269  0.3317812962037458  0.6400620746847419
  0.5000350701254883  0.5054936279820603  0.5702401037702816
  0.8330560602224196  0.3333366927045103  0.3564067766570476
  0.6667916550319400  0.4996690679314693  0.6447525262644672
  0.8332244821696810  0.3338034827878951  0.5009009436166005
  0.6665879604712994  0.5002891516648860  0.5013410839425335
  0.6664160275899260  0.5000219183081615  0.3563349063116523
  0.8321013851937011  0.4992325250877553  0.4322028614411371
  0.8370163717905876  0.3343832389139680  0.6420844572356660
  0.8340023453168490  0.5039585205267058  0.5693367739682834
  0.1669747739426293  0.6666219357814455  0.3565945369703902
  0.0000231547234775  0.8285489254173805  0.6448203388756393
  0.1666175292011313  0.6666804079263754  0.4995845569398215
  0.0000180184748869  0.8331094318689951  0.5001943405009297
  0.0000320914026313  0.8330667372688002  0.3569783830998870
  0.1680922318677329  0.8338546564096222  0.4322104161981697
  0.1710768890795592  0.6667801510308133  0.6477216083255003
  0.1658447508266978  0.8294423600019343  0.5693011567951394
  0.5000193678229080  0.6666109404577342  0.3568385463044191
  0.3331051822269905  0.8337942616035943  0.6444837963438922
  0.5000511145696743  0.6667010314557688  0.4997142084666565
  0.3334644596362933  0.8329062498465669  0.5013668094610744
  0.3336373865423204  0.8330337583565344  0.3563533646050842
  0.5000060672125458  0.8337137213704389  0.4322088028105792
  0.4999685436580711  0.6666547449988401  0.6496180166968042
  0.5000457394166794  0.8278398309417050  0.5703128120929696
  0.8330862433421489  0.6666229521120521  0.3565762933255512
  0.6669211112217840  0.8337548951156812  0.6445086486944626
  0.8334114620459843  0.6666830660067575  0.4996155460204940
  0.6665826033018971  0.8329331126260805  0.5013473688013065
  0.6664203837281909  0.8330323307098396  0.3563640455591905
  0.8319711671917550  0.8338192116228756  0.4322106898118498
  0.8290285752335153  0.6667793101566748  0.6476880283192628
  0.8341680810037079  0.8295041934596148  0.5692976521766967
  0.5009618498461940  0.6690750585383779  0.7757312589448656
  0.5013786721386645  0.6594090515680124  0.8089634084575159
 
  0.00000000E+00  0.00000000E+00  0.00000000E+00
  0.00000000E+00  0.00000000E+00  0.00000000E+00
  0.00000000E+00  0.00000000E+00  0.00000000E+00
  0.00000000E+00  0.00000000E+00  0.00000000E+00
  0.00000000E+00  0.00000000E+00  0.00000000E+00
  0.00000000E+00  0.00000000E+00  0.00000000E+00
  0.00000000E+00  0.00000000E+00  0.00000000E+00
  0.00000000E+00  0.00000000E+00  0.00000000E+00
  0.00000000E+00  0.00000000E+00  0.00000000E+00
  0.00000000E+00  0.00000000E+00  0.00000000E+00
  0.00000000E+00  0.00000000E+00  0.00000000E+00
  0.00000000E+00  0.00000000E+00  0.00000000E+00
  0.00000000E+00  0.00000000E+00  0.00000000E+00
  0.00000000E+00  0.00000000E+00  0.00000000E+00
  0.00000000E+00  0.00000000E+00  0.00000000E+00
  0.00000000E+00  0.00000000E+00  0.00000000E+00
  0.00000000E+00  0.00000000E+00  0.00000000E+00
  0.00000000E+00  0.00000000E+00  0.00000000E+00
  0.00000000E+00  0.00000000E+00  0.00000000E+00
  0.00000000E+00  0.00000000E+00  0.00000000E+00
  0.00000000E+00  0.00000000E+00  0.00000000E+00
  0.00000000E+00  0.00000000E+00  0.00000000E+00
  0.00000000E+00  0.00000000E+00  0.00000000E+00
  0.00000000E+00  0.00000000E+00  0.00000000E+00
  0.00000000E+00  0.00000000E+00  0.00000000E+00
  0.00000000E+00  0.00000000E+00  0.00000000E+00
  0.00000000E+00  0.00000000E+00  0.00000000E+00
  0.00000000E+00  0.00000000E+00  0.00000000E+00
  0.00000000E+00  0.00000000E+00  0.00000000E+00
  0.00000000E+00  0.00000000E+00  0.00000000E+00
  0.00000000E+00  0.00000000E+00  0.00000000E+00
  0.00000000E+00  0.00000000E+00  0.00000000E+00
  0.00000000E+00  0.00000000E+00  0.00000000E+00
  0.00000000E+00  0.00000000E+00  0.00000000E+00
  0.00000000E+00  0.00000000E+00  0.00000000E+00
  0.00000000E+00  0.00000000E+00  0.00000000E+00
  0.00000000E+00  0.00000000E+00  0.00000000E+00
  0.00000000E+00  0.00000000E+00  0.00000000E+00
  0.00000000E+00  0.00000000E+00  0.00000000E+00
  0.00000000E+00  0.00000000E+00  0.00000000E+00
  0.00000000E+00  0.00000000E+00  0.00000000E+00
  0.00000000E+00  0.00000000E+00  0.00000000E+00
  0.00000000E+00  0.00000000E+00  0.00000000E+00
  0.00000000E+00  0.00000000E+00  0.00000000E+00
  0.00000000E+00  0.00000000E+00  0.00000000E+00
  0.00000000E+00  0.00000000E+00  0.00000000E+00
  0.00000000E+00  0.00000000E+00  0.00000000E+00
  0.00000000E+00  0.00000000E+00  0.00000000E+00
  0.00000000E+00  0.00000000E+00  0.00000000E+00
  0.00000000E+00  0.00000000E+00  0.00000000E+00
  0.00000000E+00  0.00000000E+00  0.00000000E+00
  0.00000000E+00  0.00000000E+00  0.00000000E+00
  0.00000000E+00  0.00000000E+00  0.00000000E+00
  0.00000000E+00  0.00000000E+00  0.00000000E+00
  0.00000000E+00  0.00000000E+00  0.00000000E+00
  0.00000000E+00  0.00000000E+00  0.00000000E+00
  0.00000000E+00  0.00000000E+00  0.00000000E+00
  0.00000000E+00  0.00000000E+00  0.00000000E+00
  0.00000000E+00  0.00000000E+00  0.00000000E+00
  0.00000000E+00  0.00000000E+00  0.00000000E+00
  0.00000000E+00  0.00000000E+00  0.00000000E+00
  0.00000000E+00  0.00000000E+00  0.00000000E+00
  0.00000000E+00  0.00000000E+00  0.00000000E+00
  0.00000000E+00  0.00000000E+00  0.00000000E+00
  0.00000000E+00  0.00000000E+00  0.00000000E+00
  0.00000000E+00  0.00000000E+00  0.00000000E+00
  0.00000000E+00  0.00000000E+00  0.00000000E+00
  0.00000000E+00  0.00000000E+00  0.00000000E+00
  0.00000000E+00  0.00000000E+00  0.00000000E+00
  0.00000000E+00  0.00000000E+00  0.00000000E+00
  0.00000000E+00  0.00000000E+00  0.00000000E+00
  0.00000000E+00  0.00000000E+00  0.00000000E+00
  0.00000000E+00  0.00000000E+00  0.00000000E+00
  0.00000000E+00  0.00000000E+00  0.00000000E+00
  0.00000000E+00  0.00000000E+00  0.00000000E+00
  0.00000000E+00  0.00000000E+00  0.00000000E+00
  0.00000000E+00  0.00000000E+00  0.00000000E+00
  0.00000000E+00  0.00000000E+00  0.00000000E+00
  0.00000000E+00  0.00000000E+00  0.00000000E+00
  0.00000000E+00  0.00000000E+00  0.00000000E+00
  0.00000000E+00  0.00000000E+00  0.00000000E+00
  0.00000000E+00  0.00000000E+00  0.00000000E+00
  0.00000000E+00  0.00000000E+00  0.00000000E+00
  0.00000000E+00  0.00000000E+00  0.00000000E+00
  0.00000000E+00  0.00000000E+00  0.00000000E+00
  0.00000000E+00  0.00000000E+00  0.00000000E+00
  0.00000000E+00  0.00000000E+00  0.00000000E+00
  0.00000000E+00  0.00000000E+00  0.00000000E+00
  0.00000000E+00  0.00000000E+00  0.00000000E+00
  0.00000000E+00  0.00000000E+00  0.00000000E+00
  0.00000000E+00  0.00000000E+00  0.00000000E+00
  0.00000000E+00  0.00000000E+00  0.00000000E+00
  0.00000000E+00  0.00000000E+00  0.00000000E+00
  0.00000000E+00  0.00000000E+00  0.00000000E+00
  0.00000000E+00  0.00000000E+00  0.00000000E+00
  0.00000000E+00  0.00000000E+00  0.00000000E+00
  0.00000000E+00  0.00000000E+00  0.00000000E+00
  0.00000000E+00  0.00000000E+00  0.00000000E+00
  0.00000000E+00  0.00000000E+00  0.00000000E+00
  0.00000000E+00  0.00000000E+00  0.00000000E+00
  0.00000000E+00  0.00000000E+00  0.00000000E+00
  0.00000000E+00  0.00000000E+00  0.00000000E+00
  0.00000000E+00  0.00000000E+00  0.00000000E+00
  0.00000000E+00  0.00000000E+00  0.00000000E+00
  0.00000000E+00  0.00000000E+00  0.00000000E+00
  0.00000000E+00  0.00000000E+00  0.00000000E+00
  0.00000000E+00  0.00000000E+00  0.00000000E+00
  0.00000000E+00  0.00000000E+00  0.00000000E+00
  0.00000000E+00  0.00000000E+00  0.00000000E+00
  0.00000000E+00  0.00000000E+00  0.00000000E+00
  0.00000000E+00  0.00000000E+00  0.00000000E+00
  0.00000000E+00  0.00000000E+00  0.00000000E+00
  0.00000000E+00  0.00000000E+00  0.00000000E+00
  0.00000000E+00  0.00000000E+00  0.00000000E+00
  0.00000000E+00  0.00000000E+00  0.00000000E+00
  0.00000000E+00  0.00000000E+00  0.00000000E+00
  0.00000000E+00  0.00000000E+00  0.00000000E+00
  0.00000000E+00  0.00000000E+00  0.00000000E+00
  0.00000000E+00  0.00000000E+00  0.00000000E+00
  0.00000000E+00  0.00000000E+00  0.00000000E+00
  0.00000000E+00  0.00000000E+00  0.00000000E+00
  0.00000000E+00  0.00000000E+00  0.00000000E+00
  0.00000000E+00  0.00000000E+00  0.00000000E+00
  0.00000000E+00  0.00000000E+00  0.00000000E+00
  0.00000000E+00  0.00000000E+00  0.00000000E+00
  0.00000000E+00  0.00000000E+00  0.00000000E+00
  0.00000000E+00  0.00000000E+00  0.00000000E+00
  0.00000000E+00  0.00000000E+00  0.00000000E+00
  0.00000000E+00  0.00000000E+00  0.00000000E+00
  0.00000000E+00  0.00000000E+00  0.00000000E+00
  0.00000000E+00  0.00000000E+00  0.00000000E+00
  0.00000000E+00  0.00000000E+00  0.00000000E+00
  0.00000000E+00  0.00000000E+00  0.00000000E+00
  0.00000000E+00  0.00000000E+00  0.00000000E+00
  0.00000000E+00  0.00000000E+00  0.00000000E+00
  0.00000000E+00  0.00000000E+00  0.00000000E+00
  0.00000000E+00  0.00000000E+00  0.00000000E+00
  0.00000000E+00  0.00000000E+00  0.00000000E+00
  0.00000000E+00  0.00000000E+00  0.00000000E+00
  0.00000000E+00  0.00000000E+00  0.00000000E+00
  0.00000000E+00  0.00000000E+00  0.00000000E+00
  0.00000000E+00  0.00000000E+00  0.00000000E+00
  0.00000000E+00  0.00000000E+00  0.00000000E+00
  0.00000000E+00  0.00000000E+00  0.00000000E+00
  0.00000000E+00  0.00000000E+00  0.00000000E+00
  0.00000000E+00  0.00000000E+00  0.00000000E+00
  0.00000000E+00  0.00000000E+00  0.00000000E+00
  0.00000000E+00  0.00000000E+00  0.00000000E+00
  0.00000000E+00  0.00000000E+00  0.00000000E+00
  0.00000000E+00  0.00000000E+00  0.00000000E+00
  0.00000000E+00  0.00000000E+00  0.00000000E+00
  0.00000000E+00  0.00000000E+00  0.00000000E+00
  0.00000000E+00  0.00000000E+00  0.00000000E+00
  0.00000000E+00  0.00000000E+00  0.00000000E+00
  0.00000000E+00  0.00000000E+00  0.00000000E+00
