CONTCAR\(18)                            
   1.00000000000000     
    13.8212003707999997    0.0000000000000000    0.0000000000000000
     2.2957132678000001   11.9646463987999994    0.0000000000000000
     0.0000000000000000    0.0000000000000000   19.5161991119000007
   Li   Cr   C    O 
     6     9    18    55
Direct
  0.0023498013490477 -0.0000649340970249  0.5993926046314348
  0.2584841260937485  0.4484608005038495  0.4008775964845271
  0.3364014210144942  0.0004526078569355  0.6001665525864968
  0.5920488108036130  0.4484230832135724  0.4007881827194317
  0.6688480230884755  0.0001676526803719  0.5997534404650671
  0.9254198228731307  0.4482144147197098  0.4010531612623110
  0.1877887052080265  0.8886056541893547  0.5021661203765228
  0.2973310528140212  0.2237920928412430  0.4995208203928742
  0.0735111805672899  0.5592604381879651  0.4984055781598311
  0.5210254062341041  0.8887332755621735  0.5020353965181242
  0.6305579096563294  0.2238293817819662  0.4994183453640605
  0.4068994796032691  0.5593215504597552  0.4980361021977739
  0.8543805002475418  0.8886256090821825  0.5021165059739351
  0.9640179570481305  0.2239093224404963  0.5001671223730614
  0.7401850878447576  0.5592297349001114  0.4981540530317268
  0.1492633176298633  0.1157020304919203  0.5622442920213397
  0.2591262455509220  0.4471465570461839  0.5539163996082408
  0.1122141903232006  0.3321805986453998  0.4377496336119533
  0.0386183636878646  0.7762340014908120  0.5606548107213272
  0.2224430799291439  0.6717969682276796  0.4398607950811176
  0.0023985852402578  0.0004518499550639  0.4463426610887588
  0.4820439953963812  0.1158415223914632  0.5616083791593821
  0.5923525571705101  0.4469275821801049  0.5535523612666913
  0.4455505255649324  0.3322123501941359  0.4371130897746454
  0.3718944649997802  0.7762554447208789  0.5603981744599877
  0.5560479501186602  0.6718834026609080  0.4396500365253410
  0.3355948843687883  0.0003645155347284  0.4460019773797298
  0.8153422555710200  0.1157863266490396  0.5622036865411878
  0.9255886582252948  0.4471527016482048  0.5540639372914717
  0.7790439247759919  0.3320345179909311  0.4375867256020763
  0.7051534875841756  0.7763115502523206  0.5604295563019170
  0.8893678437267722  0.6717247594948244  0.4398655444983328
  0.6692016178469459  0.0003239939963518  0.4459963124510446
  0.1644805328839526  0.4554537339630807  0.5525382568708639
  0.0970237980079429  0.9922440018710609  0.4478354144465546
  0.0744516613930071  0.2449816056211831  0.4416294830411908
  0.0573790674618912  0.4319455809021420  0.4327587199305850
  0.2041856250903323  0.0160421394368568  0.5676241877940306
  0.3153051783020562  0.3494932738226759  0.5550908466423069
  0.1869590401015184  0.2028907754841626  0.5579892922517584
  0.2973682263260479  0.5360038711088463  0.5531637736377922
  0.2774549606554318  0.7884663794512288  0.5618667271000135
  0.2074631229460046  0.3242591695878543  0.4355185022584495
  0.1814977563529700  0.5832338090606738  0.4344441235869355
  0.2973514661518345  0.9114173651422096  0.4468407593930024
  0.1665491406148709  0.7679635640596001  0.4444122379220085
  0.2793615415254497  0.0979185098838360  0.4442611409816482
  0.0944208520571423  0.6799842453263231  0.5562622433520092
  0.0795452758659123  0.8648055234351898  0.5660666378360151
  0.0539790438508814  0.1236648654402565  0.5643950059633924
  0.3168445917786843  0.6594128247668349  0.4383091925986105
  0.4978089381617002  0.4552918069427089  0.5517050596627856
  0.4301945455840268  0.9920436110815301  0.4474609137033791
  0.4075507042260756  0.2451612666841330  0.4408333509185411
  0.3908831463420730  0.4320897561468078  0.4321350872186015
  0.5369376886092724  0.0162152569965990  0.5674148596787592
  0.6485543284246780  0.3493665770112209  0.5549169179341397
  0.5198388600497635  0.2029928245043184  0.5571354210571425
  0.6306367502189935  0.5358733186118181  0.5532023625024313
  0.6107149533097963  0.7886913342870603  0.5618495340525729
  0.5408253873107882  0.3240840433831271  0.4350564091769900
  0.5150644401580113  0.5833814962536542  0.4340963971772273
  0.6309754732873852  0.9114248874631696  0.4469618518295828
  0.5002098099417285  0.7680952113174465  0.4440952065055676
  0.6129728769178570  0.0978745065618155  0.4440537696628472
  0.4278197546104258  0.6800956265070333  0.5557734630601490
  0.4126644778086064  0.8649058578735225  0.5658625546152019
  0.3869780785392919  0.1235441077046002  0.5631140601569440
  0.6504931782100365  0.6593563200473812  0.4382836371852272
  0.8309777191347090  0.4555415631052720  0.5524157995260996
  0.7638123479121639  0.9921133275138229  0.4475834389685477
  0.7412698201624006  0.2448107396149295  0.4412133913594500
  0.7242219956463068  0.4317989159518846  0.4324433924231166
  0.8701526855545740  0.0160545613349245  0.5676620037498978
  0.9817548040480562  0.3495918363400293  0.5555887267111521
  0.8532792294697046  0.2028792883084361  0.5583449277591352
  0.9638807595619424  0.5360325869373959  0.5534859509989896
  0.9441785573904955  0.7887094622024473  0.5620039504204607
  0.8743105100864040  0.3241189082097411  0.4357762779605086
  0.8484686787741269  0.5831687422464038  0.4343477162647144
  0.9642532603147733  0.9114553075064158  0.4470478692705318
  0.8334975706200800  0.7679407999276280  0.4442221960207718
  0.9461613483248689  0.0979629408872209  0.4448085237938180
  0.7610261805931928  0.6801103986771586  0.5558852534170028
  0.7460585538538460  0.8648788609445611  0.5659382349476019
  0.7200950700580731  0.1237571213802074  0.5639091530922002
  0.9837863217767885  0.6593570174649555  0.4385773336478179
  0.4277148854845951  0.2976570698109473  0.6787383640412258
 
  0.00000000E+00  0.00000000E+00  0.00000000E+00
  0.00000000E+00  0.00000000E+00  0.00000000E+00
  0.00000000E+00  0.00000000E+00  0.00000000E+00
  0.00000000E+00  0.00000000E+00  0.00000000E+00
  0.00000000E+00  0.00000000E+00  0.00000000E+00
  0.00000000E+00  0.00000000E+00  0.00000000E+00
  0.00000000E+00  0.00000000E+00  0.00000000E+00
  0.00000000E+00  0.00000000E+00  0.00000000E+00
  0.00000000E+00  0.00000000E+00  0.00000000E+00
  0.00000000E+00  0.00000000E+00  0.00000000E+00
  0.00000000E+00  0.00000000E+00  0.00000000E+00
  0.00000000E+00  0.00000000E+00  0.00000000E+00
  0.00000000E+00  0.00000000E+00  0.00000000E+00
  0.00000000E+00  0.00000000E+00  0.00000000E+00
  0.00000000E+00  0.00000000E+00  0.00000000E+00
  0.00000000E+00  0.00000000E+00  0.00000000E+00
  0.00000000E+00  0.00000000E+00  0.00000000E+00
  0.00000000E+00  0.00000000E+00  0.00000000E+00
  0.00000000E+00  0.00000000E+00  0.00000000E+00
  0.00000000E+00  0.00000000E+00  0.00000000E+00
  0.00000000E+00  0.00000000E+00  0.00000000E+00
  0.00000000E+00  0.00000000E+00  0.00000000E+00
  0.00000000E+00  0.00000000E+00  0.00000000E+00
  0.00000000E+00  0.00000000E+00  0.00000000E+00
  0.00000000E+00  0.00000000E+00  0.00000000E+00
  0.00000000E+00  0.00000000E+00  0.00000000E+00
  0.00000000E+00  0.00000000E+00  0.00000000E+00
  0.00000000E+00  0.00000000E+00  0.00000000E+00
  0.00000000E+00  0.00000000E+00  0.00000000E+00
  0.00000000E+00  0.00000000E+00  0.00000000E+00
  0.00000000E+00  0.00000000E+00  0.00000000E+00
  0.00000000E+00  0.00000000E+00  0.00000000E+00
  0.00000000E+00  0.00000000E+00  0.00000000E+00
  0.00000000E+00  0.00000000E+00  0.00000000E+00
  0.00000000E+00  0.00000000E+00  0.00000000E+00
  0.00000000E+00  0.00000000E+00  0.00000000E+00
  0.00000000E+00  0.00000000E+00  0.00000000E+00
  0.00000000E+00  0.00000000E+00  0.00000000E+00
  0.00000000E+00  0.00000000E+00  0.00000000E+00
  0.00000000E+00  0.00000000E+00  0.00000000E+00
  0.00000000E+00  0.00000000E+00  0.00000000E+00
  0.00000000E+00  0.00000000E+00  0.00000000E+00
  0.00000000E+00  0.00000000E+00  0.00000000E+00
  0.00000000E+00  0.00000000E+00  0.00000000E+00
  0.00000000E+00  0.00000000E+00  0.00000000E+00
  0.00000000E+00  0.00000000E+00  0.00000000E+00
  0.00000000E+00  0.00000000E+00  0.00000000E+00
  0.00000000E+00  0.00000000E+00  0.00000000E+00
  0.00000000E+00  0.00000000E+00  0.00000000E+00
  0.00000000E+00  0.00000000E+00  0.00000000E+00
  0.00000000E+00  0.00000000E+00  0.00000000E+00
  0.00000000E+00  0.00000000E+00  0.00000000E+00
  0.00000000E+00  0.00000000E+00  0.00000000E+00
  0.00000000E+00  0.00000000E+00  0.00000000E+00
  0.00000000E+00  0.00000000E+00  0.00000000E+00
  0.00000000E+00  0.00000000E+00  0.00000000E+00
  0.00000000E+00  0.00000000E+00  0.00000000E+00
  0.00000000E+00  0.00000000E+00  0.00000000E+00
  0.00000000E+00  0.00000000E+00  0.00000000E+00
  0.00000000E+00  0.00000000E+00  0.00000000E+00
  0.00000000E+00  0.00000000E+00  0.00000000E+00
  0.00000000E+00  0.00000000E+00  0.00000000E+00
  0.00000000E+00  0.00000000E+00  0.00000000E+00
  0.00000000E+00  0.00000000E+00  0.00000000E+00
  0.00000000E+00  0.00000000E+00  0.00000000E+00
  0.00000000E+00  0.00000000E+00  0.00000000E+00
  0.00000000E+00  0.00000000E+00  0.00000000E+00
  0.00000000E+00  0.00000000E+00  0.00000000E+00
  0.00000000E+00  0.00000000E+00  0.00000000E+00
  0.00000000E+00  0.00000000E+00  0.00000000E+00
  0.00000000E+00  0.00000000E+00  0.00000000E+00
  0.00000000E+00  0.00000000E+00  0.00000000E+00
  0.00000000E+00  0.00000000E+00  0.00000000E+00
  0.00000000E+00  0.00000000E+00  0.00000000E+00
  0.00000000E+00  0.00000000E+00  0.00000000E+00
  0.00000000E+00  0.00000000E+00  0.00000000E+00
  0.00000000E+00  0.00000000E+00  0.00000000E+00
  0.00000000E+00  0.00000000E+00  0.00000000E+00
  0.00000000E+00  0.00000000E+00  0.00000000E+00
  0.00000000E+00  0.00000000E+00  0.00000000E+00
  0.00000000E+00  0.00000000E+00  0.00000000E+00
  0.00000000E+00  0.00000000E+00  0.00000000E+00
  0.00000000E+00  0.00000000E+00  0.00000000E+00
  0.00000000E+00  0.00000000E+00  0.00000000E+00
  0.00000000E+00  0.00000000E+00  0.00000000E+00
  0.00000000E+00  0.00000000E+00  0.00000000E+00
  0.00000000E+00  0.00000000E+00  0.00000000E+00
  0.00000000E+00  0.00000000E+00  0.00000000E+00
