 Li4 Cu4 F10                            
   1.00000000000000     
     2.9099798646342783    0.0000000000000000    0.0000000000000000
     0.0000000000000000    7.6298568051442031    0.0000000000000000
     0.0000000000000000    0.0000000000000000   22.6672551092639978
   Li   Cu   F 
     4     4    10
Direct
  0.7499999980960368  0.1389426817904031  0.5193186365641189
  0.7500000018398367  0.8423160424384918  0.6073803349234292
  0.2499999974355731  0.1576809798448485  0.3926202871998516
  0.2500000008279386  0.8610574382072962  0.4806957026295686
  0.2499999965864816  0.4980923383339138  0.5660869214353323
  0.2500000029849687  0.1628783351435038  0.6523305671589723
  0.7500000006665033  0.8371246561490411  0.3476656402086042
  0.7500000004432295  0.5020437868719377  0.4339477249016280
  0.2499999952211240  0.3157632827363415  0.5088199652815469
  0.2500000003213003  0.9914094270514313  0.5550990293740634
  0.2500000016576251  0.6893561891521797  0.6158663814587424
  0.7499999990225845  0.3208203372212424  0.6250014731857839
  0.7500000058874505  0.0050004682524724  0.6727756655496133
  0.2500000033336960 -0.0050289293482284  0.3272334731254926
  0.2499999971711659  0.6791810564998789  0.3749899738464677
  0.7499999969180067  0.3106168885455058  0.3841240593294997
  0.7500000016068782  0.0086167806288855  0.4449015609279346
  0.7499999999796074  0.6841282404808611  0.4911426028993559
 
  0.00000000E+00  0.00000000E+00  0.00000000E+00
  0.00000000E+00  0.00000000E+00  0.00000000E+00
  0.00000000E+00  0.00000000E+00  0.00000000E+00
  0.00000000E+00  0.00000000E+00  0.00000000E+00
  0.00000000E+00  0.00000000E+00  0.00000000E+00
  0.00000000E+00  0.00000000E+00  0.00000000E+00
  0.00000000E+00  0.00000000E+00  0.00000000E+00
  0.00000000E+00  0.00000000E+00  0.00000000E+00
  0.00000000E+00  0.00000000E+00  0.00000000E+00
  0.00000000E+00  0.00000000E+00  0.00000000E+00
  0.00000000E+00  0.00000000E+00  0.00000000E+00
  0.00000000E+00  0.00000000E+00  0.00000000E+00
  0.00000000E+00  0.00000000E+00  0.00000000E+00
  0.00000000E+00  0.00000000E+00  0.00000000E+00
  0.00000000E+00  0.00000000E+00  0.00000000E+00
  0.00000000E+00  0.00000000E+00  0.00000000E+00
  0.00000000E+00  0.00000000E+00  0.00000000E+00
  0.00000000E+00  0.00000000E+00  0.00000000E+00
