CONTCAR\(3)                             
   1.00000000000000     
    13.3121995926000007    0.0000000000000000    0.0000000000000000
    -6.6560997963000004   11.5287030274000006    0.0000000000000000
     0.0000000000000000    0.0000000000000000   18.1366004943999997
   Nb   S    O    H 
    16    32     2     1
Direct
  0.9972675838486094  0.0023780414847078  0.5044838125447442
  0.2513865267374633  0.0011198146987776  0.5052274976297650
  0.4987760905319992  0.0009337931384351  0.5051382605877098
  0.7541864545363121  0.0023030855017453  0.5044662608844539
  0.0004329293278190  0.2519303978754815  0.5047922951581343
  0.2497937768371966  0.2547933990201063  0.5047054460020881
  0.5002198979742944  0.2519311083642406  0.5049192555686808
  0.7541913241061224  0.2545709529331558  0.5047523664678546
  0.9972588368735112  0.4980557971803346  0.5054784926857193
  0.2500081337357659  0.4980204605822825  0.5054045225212519
  0.4858891295450544  0.4941911827419653  0.5050405443210250
  0.7573635275528766  0.4944283494031407  0.5045075964309591
  0.0004922552633242  0.7520803362767869  0.5049218499659377
  0.2514443907526375  0.7535969696612028  0.5054920540640518
  0.5005324234779368  0.7517818786931795  0.5047645101105992
  0.7577046034946866  0.7661125661549667  0.5039131249320414
  0.1673328842474038  0.0850251361539458  0.4198855254432824
  0.1666875725853463  0.0851670010922618  0.5896356699973833
  0.4171659490045133  0.0851846874065102  0.4185827096074989
  0.4175581029248541  0.0857248015712594  0.5917503348415057
  0.6667873148050525  0.0850347163138865  0.4198641265575319
  0.6674876936702190  0.0850116416104518  0.5896965307969344
  0.9179928979094035  0.0868869732894604  0.4171619021603637
  0.9178102881494057  0.0865449856146893  0.5919489120805032
  0.1656585686686772  0.3346231063251053  0.4175673152873751
  0.1652900011836259  0.3338636031577026  0.5923351040400593
  0.4156415981998289  0.3325586808380501  0.4176488525214629
  0.4152240224613686  0.3325179761489320  0.5920527847250654
  0.6657570393815350  0.3322146207765658  0.4178351309453518
  0.6663901719297577  0.3325566222140590  0.5921295214805118
  0.9180837180569899  0.3347822404486053  0.4176167707388454
  0.9177194810148436  0.3339008654429605  0.5924453876606780
  0.1671440262774921  0.5852553878073641  0.4206646249953481
  0.1670258755481963  0.5849621070287836  0.5902601067255677
  0.4153853906585737  0.5858999270976053  0.4179921685993656
  0.4159049816572057  0.5860954129451901  0.5923348372093603
  0.6665709805313627  0.5845099830520629  0.4294521897416753
  0.6688595108988215  0.5879860313191879  0.5787446036835212
  0.9199472122400347  0.5862735565030728  0.4181351277606429
  0.9189827368044745  0.5860918724096414  0.5923769171600588
  0.1671765847318954  0.8350070385373746  0.4186764879365251
  0.1663795068838241  0.8349087831365858  0.5917938535077548
  0.4169563412885595  0.8349829362121639  0.4184967171000374
  0.4178250523379287  0.8348753958737362  0.5917373752293182
  0.6655117132501998  0.8363356839843511  0.4172351018505321
  0.6665592738999033  0.8366300084833617  0.5916709985644046
  0.9201073759444200  0.8365890327053767  0.4172716456911222
  0.9193346760347850  0.8369453747279803  0.5917877156495384
  0.6824659424917229  0.6098385276257136  0.6707513878593867
  0.6210100178025730  0.5001312367927119  0.7109222338280751
  0.6827776219296326  0.4802755046428085  0.7160511931483822
 
  0.00000000E+00  0.00000000E+00  0.00000000E+00
  0.00000000E+00  0.00000000E+00  0.00000000E+00
  0.00000000E+00  0.00000000E+00  0.00000000E+00
  0.00000000E+00  0.00000000E+00  0.00000000E+00
  0.00000000E+00  0.00000000E+00  0.00000000E+00
  0.00000000E+00  0.00000000E+00  0.00000000E+00
  0.00000000E+00  0.00000000E+00  0.00000000E+00
  0.00000000E+00  0.00000000E+00  0.00000000E+00
  0.00000000E+00  0.00000000E+00  0.00000000E+00
  0.00000000E+00  0.00000000E+00  0.00000000E+00
  0.00000000E+00  0.00000000E+00  0.00000000E+00
  0.00000000E+00  0.00000000E+00  0.00000000E+00
  0.00000000E+00  0.00000000E+00  0.00000000E+00
  0.00000000E+00  0.00000000E+00  0.00000000E+00
  0.00000000E+00  0.00000000E+00  0.00000000E+00
  0.00000000E+00  0.00000000E+00  0.00000000E+00
  0.00000000E+00  0.00000000E+00  0.00000000E+00
  0.00000000E+00  0.00000000E+00  0.00000000E+00
  0.00000000E+00  0.00000000E+00  0.00000000E+00
  0.00000000E+00  0.00000000E+00  0.00000000E+00
  0.00000000E+00  0.00000000E+00  0.00000000E+00
  0.00000000E+00  0.00000000E+00  0.00000000E+00
  0.00000000E+00  0.00000000E+00  0.00000000E+00
  0.00000000E+00  0.00000000E+00  0.00000000E+00
  0.00000000E+00  0.00000000E+00  0.00000000E+00
  0.00000000E+00  0.00000000E+00  0.00000000E+00
  0.00000000E+00  0.00000000E+00  0.00000000E+00
  0.00000000E+00  0.00000000E+00  0.00000000E+00
  0.00000000E+00  0.00000000E+00  0.00000000E+00
  0.00000000E+00  0.00000000E+00  0.00000000E+00
  0.00000000E+00  0.00000000E+00  0.00000000E+00
  0.00000000E+00  0.00000000E+00  0.00000000E+00
  0.00000000E+00  0.00000000E+00  0.00000000E+00
  0.00000000E+00  0.00000000E+00  0.00000000E+00
  0.00000000E+00  0.00000000E+00  0.00000000E+00
  0.00000000E+00  0.00000000E+00  0.00000000E+00
  0.00000000E+00  0.00000000E+00  0.00000000E+00
  0.00000000E+00  0.00000000E+00  0.00000000E+00
  0.00000000E+00  0.00000000E+00  0.00000000E+00
  0.00000000E+00  0.00000000E+00  0.00000000E+00
  0.00000000E+00  0.00000000E+00  0.00000000E+00
  0.00000000E+00  0.00000000E+00  0.00000000E+00
  0.00000000E+00  0.00000000E+00  0.00000000E+00
  0.00000000E+00  0.00000000E+00  0.00000000E+00
  0.00000000E+00  0.00000000E+00  0.00000000E+00
  0.00000000E+00  0.00000000E+00  0.00000000E+00
  0.00000000E+00  0.00000000E+00  0.00000000E+00
  0.00000000E+00  0.00000000E+00  0.00000000E+00
  0.00000000E+00  0.00000000E+00  0.00000000E+00
  0.00000000E+00  0.00000000E+00  0.00000000E+00
  0.00000000E+00  0.00000000E+00  0.00000000E+00
