CONTCAR\(14)                            
   1.00000000000000     
    11.5354003905999996    0.0000000000000000    0.0000000000000000
     0.0000000000000000   13.3458003997999999    0.0000000000000000
     0.0000000000000000    0.0000000000000000   18.6074008942000013
   Zr   Ti   Te   O 
     6     6    24     1
Direct
  0.1659584650511636  0.2478928090544883  0.5021890156804714
  0.5000212486921173  0.2490742976011057  0.5005122483615065
  0.8339577259553741  0.2478061973595096  0.5020419044720301
  0.1666325364187710  0.7485326449000701  0.5004429585414247
  0.5000336514245663  0.7594876042471449  0.4976619711112025
  0.8333815871453815  0.7484788450226139  0.5002928673303315
  0.9999644806201545  0.9972898407619649  0.5015955347552004
  0.3324053098276556  0.0009912245777867  0.5020802911666926
  0.6676372098851412  0.0009194800554421  0.5020323035175092
 -0.0000751623775729  0.4987284771623740  0.5014096829314977
  0.3238490188656924  0.4931777950916745  0.4966076314478289
  0.6760458120048815  0.4932355350512001  0.4963281680024667
  0.1669556300342409  0.0759795472686424  0.5965907916226387
  0.1617603344590687  0.4170442816362243  0.4041868118590753
  0.9997908997567607  0.3356816398133625  0.5993504190742195
  0.0000461468644348  0.1604668251046509  0.4042977651265826
  0.5000497268808736  0.0785940451866347  0.5957439522772895
  0.4999646379403075  0.4214059422679809  0.4061437567651081
  0.3337715076661714  0.3396399588309814  0.5978488653918502
  0.3328091087379279  0.1604584975731020  0.4037354255624354
  0.8329711541997278  0.0759835054216916  0.5965388165881798
  0.8382906984784642  0.4170331209779141  0.4040488775313859
  0.6662158758755569  0.3397700292305602  0.5977052986653988
  0.6670408523295763  0.1602822434187134  0.4036755980803564
  0.1672806560672120  0.5758025281925525  0.5946425652628852
  0.1662816801512372  0.9216921139144197  0.4069482204617950
  0.9999714780277799  0.8359828360010941  0.5983944008556673
  0.0000232958313299  0.6596261793355966  0.4031111764936110
  0.5000727815178621  0.5746291422551596  0.5854597150470684
  0.4999123601243102  0.9264174669091634  0.4049861083741134
  0.3336613717433097  0.8356422564918480  0.5982988097152000
  0.3344654812865844  0.6603745475305668  0.4043805351314022
  0.8324766151990267  0.5758107747634724  0.5945138601754187
  0.8338668077199746  0.9216544878723343  0.4068527614746708
  0.6664507388821053  0.8355511453400563  0.5982297565096140
  0.6653216213753290  0.6606070383069054  0.4041140246810171
  0.5005367333375383  0.5588952644710022  0.6842868479548678
 
  0.00000000E+00  0.00000000E+00  0.00000000E+00
  0.00000000E+00  0.00000000E+00  0.00000000E+00
  0.00000000E+00  0.00000000E+00  0.00000000E+00
  0.00000000E+00  0.00000000E+00  0.00000000E+00
  0.00000000E+00  0.00000000E+00  0.00000000E+00
  0.00000000E+00  0.00000000E+00  0.00000000E+00
  0.00000000E+00  0.00000000E+00  0.00000000E+00
  0.00000000E+00  0.00000000E+00  0.00000000E+00
  0.00000000E+00  0.00000000E+00  0.00000000E+00
  0.00000000E+00  0.00000000E+00  0.00000000E+00
  0.00000000E+00  0.00000000E+00  0.00000000E+00
  0.00000000E+00  0.00000000E+00  0.00000000E+00
  0.00000000E+00  0.00000000E+00  0.00000000E+00
  0.00000000E+00  0.00000000E+00  0.00000000E+00
  0.00000000E+00  0.00000000E+00  0.00000000E+00
  0.00000000E+00  0.00000000E+00  0.00000000E+00
  0.00000000E+00  0.00000000E+00  0.00000000E+00
  0.00000000E+00  0.00000000E+00  0.00000000E+00
  0.00000000E+00  0.00000000E+00  0.00000000E+00
  0.00000000E+00  0.00000000E+00  0.00000000E+00
  0.00000000E+00  0.00000000E+00  0.00000000E+00
  0.00000000E+00  0.00000000E+00  0.00000000E+00
  0.00000000E+00  0.00000000E+00  0.00000000E+00
  0.00000000E+00  0.00000000E+00  0.00000000E+00
  0.00000000E+00  0.00000000E+00  0.00000000E+00
  0.00000000E+00  0.00000000E+00  0.00000000E+00
  0.00000000E+00  0.00000000E+00  0.00000000E+00
  0.00000000E+00  0.00000000E+00  0.00000000E+00
  0.00000000E+00  0.00000000E+00  0.00000000E+00
  0.00000000E+00  0.00000000E+00  0.00000000E+00
  0.00000000E+00  0.00000000E+00  0.00000000E+00
  0.00000000E+00  0.00000000E+00  0.00000000E+00
  0.00000000E+00  0.00000000E+00  0.00000000E+00
  0.00000000E+00  0.00000000E+00  0.00000000E+00
  0.00000000E+00  0.00000000E+00  0.00000000E+00
  0.00000000E+00  0.00000000E+00  0.00000000E+00
  0.00000000E+00  0.00000000E+00  0.00000000E+00
