CONTCAR\(2)                             
   1.00000000000000     
    11.2130002975000007    0.0000000000000000    0.0000000000000000
     0.0000000000000000   15.4723997115999996    0.0000000000000000
     0.0000000000000000    0.0000000000000000   19.4957008362000010
   Ta   Te   Pt   O 
     6    30     6     1
Direct
  0.0013422672307186  0.2500056640896631  0.5028476051074975
  0.0015387901790547  0.7499876996840413  0.5006188564551550
  0.3334201314433187  0.2500136181735613  0.5016257950939575
  0.3335777375859195  0.7500018080997677  0.5060976896643652
  0.6649826799760561  0.2500046996358662  0.5028628999981919
  0.6653409570523152  0.7499929050660725  0.5007837539587072
  0.1677155427453627  0.2499968588579122  0.6141032543928446
  0.1683940047998291  0.7500190956375050  0.3896349247250512
  0.9997392782936600  0.9154862272678841  0.4275595572095625
  0.0001828869967824  0.0844462262171390  0.5751627608543544
  0.1676373011709344  0.1481417911698202  0.4246760508492002
  0.1616054020370044  0.8589999780137489  0.5768456001376165
  0.1616901528363854  0.6409842151818168  0.5768384818168855
  0.1676037023280230  0.3518602735185468  0.4246577047163811
  0.9997378744785408  0.5845037980626842  0.4275528709262773
  0.0001976354562316  0.4155601262796438  0.5751517659942351
  0.4985567195314289  0.2500111886039988  0.6141602078254351
  0.4985722726313782  0.7500067262649637  0.3895401775912575
  0.3332965474945269  0.9136299934217931  0.4263107535280852
  0.3331831225771680  0.0852694380811982  0.5743979949571880
  0.4990727432739064  0.1480306538367842  0.4246098862797325
  0.5053061026755472  0.8589934361973022  0.5769247470108070
  0.5052440956306015  0.6409860408850605  0.5769141092972419
  0.4990809648778196  0.3519553438230858  0.4245841462634417
  0.3332721809095105  0.5863655339073119  0.4263117147479747
  0.3332196135489269  0.4147452396487452  0.5743715717043543
  0.8330261548659550  0.2500379370981918  0.6143695048185691
  0.8332966716480641  0.7499868919515293  0.3898493964249781
  0.6668173364842360  0.9152625394455143  0.4278037207585683
  0.6664872367223964  0.0844485528811489  0.5753650322802102
  0.8331367384931809  0.1483173828781972  0.4267613459352262
  0.8335447988467379  0.8527001456919763  0.5765443413240803
  0.8335564017787789  0.6472829689008961  0.5765548057913037
  0.8331378261373459  0.3516894663269170  0.4267668551338701
  0.6668076748621630  0.5847287726152715  0.4277703701904869
  0.6664857379835780  0.4155560043643050  0.5753550709909305
  0.1663392002691992  0.0017836248920844  0.4993732038731835
  0.1663531797939513  0.4982162082497581  0.4993795799553524
  0.5002084054265623  0.0018497605660457  0.4995052160142279
  0.5002106902144874  0.4981381236456670  0.4994671842510456
  0.8332793304389270  0.0002333313557443  0.5012927912865308
  0.8332704149919365  0.4997693781228705  0.5012879237857319
  0.3339917472815230  0.7502101633879903  0.6079089850799448
 
  0.00000000E+00  0.00000000E+00  0.00000000E+00
  0.00000000E+00  0.00000000E+00  0.00000000E+00
  0.00000000E+00  0.00000000E+00  0.00000000E+00
  0.00000000E+00  0.00000000E+00  0.00000000E+00
  0.00000000E+00  0.00000000E+00  0.00000000E+00
  0.00000000E+00  0.00000000E+00  0.00000000E+00
  0.00000000E+00  0.00000000E+00  0.00000000E+00
  0.00000000E+00  0.00000000E+00  0.00000000E+00
  0.00000000E+00  0.00000000E+00  0.00000000E+00
  0.00000000E+00  0.00000000E+00  0.00000000E+00
  0.00000000E+00  0.00000000E+00  0.00000000E+00
  0.00000000E+00  0.00000000E+00  0.00000000E+00
  0.00000000E+00  0.00000000E+00  0.00000000E+00
  0.00000000E+00  0.00000000E+00  0.00000000E+00
  0.00000000E+00  0.00000000E+00  0.00000000E+00
  0.00000000E+00  0.00000000E+00  0.00000000E+00
  0.00000000E+00  0.00000000E+00  0.00000000E+00
  0.00000000E+00  0.00000000E+00  0.00000000E+00
  0.00000000E+00  0.00000000E+00  0.00000000E+00
  0.00000000E+00  0.00000000E+00  0.00000000E+00
  0.00000000E+00  0.00000000E+00  0.00000000E+00
  0.00000000E+00  0.00000000E+00  0.00000000E+00
  0.00000000E+00  0.00000000E+00  0.00000000E+00
  0.00000000E+00  0.00000000E+00  0.00000000E+00
  0.00000000E+00  0.00000000E+00  0.00000000E+00
  0.00000000E+00  0.00000000E+00  0.00000000E+00
  0.00000000E+00  0.00000000E+00  0.00000000E+00
  0.00000000E+00  0.00000000E+00  0.00000000E+00
  0.00000000E+00  0.00000000E+00  0.00000000E+00
  0.00000000E+00  0.00000000E+00  0.00000000E+00
  0.00000000E+00  0.00000000E+00  0.00000000E+00
  0.00000000E+00  0.00000000E+00  0.00000000E+00
  0.00000000E+00  0.00000000E+00  0.00000000E+00
  0.00000000E+00  0.00000000E+00  0.00000000E+00
  0.00000000E+00  0.00000000E+00  0.00000000E+00
  0.00000000E+00  0.00000000E+00  0.00000000E+00
  0.00000000E+00  0.00000000E+00  0.00000000E+00
  0.00000000E+00  0.00000000E+00  0.00000000E+00
  0.00000000E+00  0.00000000E+00  0.00000000E+00
  0.00000000E+00  0.00000000E+00  0.00000000E+00
  0.00000000E+00  0.00000000E+00  0.00000000E+00
  0.00000000E+00  0.00000000E+00  0.00000000E+00
  0.00000000E+00  0.00000000E+00  0.00000000E+00
