CONTCAR\(4)                             
   1.00000000000000     
    14.5763998031999993    0.0000000000000000    0.0000000000000000
     0.0000000000000000   14.5763998031999993    0.0000000000000000
     0.0000000000000000    0.0000000000000000   17.7768993377999998
   Fe   Se   O    H 
    32    32     1     1
Direct
  0.0002279366780169  0.9999155824353705  0.4991784819309408
  0.1253047378231469  0.1252992543460011  0.4991124483856742
  0.2501780931305584  0.9999532745517895  0.4999484841217051
  0.3750536413918316  0.1250856096642555  0.4994075889166038
  0.4999429531023352  0.9999441589121922  0.4999083286370320
  0.6248505948126497  0.1252995176578424  0.4989475317240252
  0.7498429753789969  0.9999161304579307  0.4990000081976437
  0.8751201702720224  0.1251534008696928  0.4990602542808197
  0.0003853258674233  0.2501518894348024  0.4990253150908998
  0.1258912183572815  0.3749827661417748  0.4986631260116662
  0.2500627579689666  0.2508418111698855  0.4986539741563377
  0.3750324675390250  0.3751695087308827  0.4960775063266030
  0.5000121605137348  0.2507511780711021  0.4983549392620591
  0.6241425755714841  0.3749509314611130  0.4984831242251831
  0.7497116174731393  0.2501988822686515  0.4990421281028561
  0.8749785054761520  0.3750801407786485  0.4998502719523742
  0.0001902921702816  0.4999596287671258  0.4995643428550980
  0.1260740201096994  0.6249827144071338  0.4987281769979096
  0.2503564215475651  0.4999894135636905  0.4960697453695784
  0.3750460962106436  0.6247189192033221  0.4960382123229751
  0.4997721056142874  0.4999222122860144  0.4961468141191422
  0.6240536001857133  0.6249664155040312  0.4984811608849610
  0.7498975062096827  0.4999462163677009  0.4993238710405241
  0.8750079778143970  0.6248821460723677  0.4998792782661259
  0.0004334588105479  0.7497261014190513  0.4990262526312536
  0.1253505078400462  0.8745593262574456  0.4992206709039556
  0.2500536577733461  0.7490135008650113  0.4988386647375527
  0.3750311918081804  0.8748248146719961  0.4995489384584682
  0.5000056622182976  0.7490579391144083  0.4985030789696393
  0.6247809597237198  0.8745607541968728  0.4990487674582834
  0.7496567883283138  0.7496892151420466  0.4990480640751246
  0.8750893135452877  0.8747521141382663  0.4990811537641398
  0.1255447462994678  0.9998691997704622  0.4202681176917465
  0.0002461571708628  0.1250986215002216  0.5781545948089255
  0.3750279680401518  0.9998797347122182  0.4205202808511456
  0.2500981856732494  0.1261420970987859  0.5783584346200494
  0.6244825344169581  0.9998722117762279  0.4201759018719159
  0.5001534930223950  0.1262001380042601  0.5782406017245012
  0.8750877050388399 -0.0000350283409741  0.4200530825177246
  0.7499460020277444  0.1250420735640196  0.5780191318659345
  0.1252035310772468  0.2500678599332454  0.4195433983371119
  0.0010845300089179  0.3748232479875022  0.5783373668618461
  0.3748920170845091  0.2487610409093236  0.4190853805395228
  0.2525831369092355  0.3775428821049403  0.5774667289366030
  0.6250701197399056  0.2500471333836131  0.4193839996730402
  0.4976155407944119  0.3772123964922889  0.5772962993851695
  0.8750314543458115  0.2504618050922113  0.4201235967362705
  0.7487354728107543  0.3749707842279307  0.5782686911564094
  0.1238814434047195  0.5000063671990000  0.4192201614426447
  0.0011829891086544  0.6250688331416305  0.5783750942219736
  0.3750955126990719  0.4999929318488700  0.4167806712421655
  0.2529053771915242  0.6221343765314900  0.5777601838467130
  0.6261201421532547  0.4999709194910419  0.4190355507732115
  0.4974225459669830  0.6223792457921956  0.5774786179489576
  0.8751680507791747  0.5000075698315118  0.4205041955263867
  0.7487315233956990  0.6248837893011345  0.5782319845992671
  0.1252981606160787  0.7498515321102716  0.4195942313616911
  0.0002116492962782  0.8747180895376095  0.5781985986591527
  0.3748656688355028  0.7512093485914324  0.4191935437255084
  0.2500811713160601  0.8738695587557089  0.5784826393752343
  0.6249471056044833  0.7498536478324379  0.4194004873863503
  0.5001133523439738  0.8737476920546796  0.5783559600416626
  0.8750246289229638  0.7494810081344989  0.4201644919843832
  0.7499156155637740  0.8748048351179645  0.5780694081956019
  0.3734249253467355  0.5035371519114343  0.6534761176634456
  0.3724398187278271  0.5049709716723558  0.7085212882506484
 
  0.00000000E+00  0.00000000E+00  0.00000000E+00
  0.00000000E+00  0.00000000E+00  0.00000000E+00
  0.00000000E+00  0.00000000E+00  0.00000000E+00
  0.00000000E+00  0.00000000E+00  0.00000000E+00
  0.00000000E+00  0.00000000E+00  0.00000000E+00
  0.00000000E+00  0.00000000E+00  0.00000000E+00
  0.00000000E+00  0.00000000E+00  0.00000000E+00
  0.00000000E+00  0.00000000E+00  0.00000000E+00
  0.00000000E+00  0.00000000E+00  0.00000000E+00
  0.00000000E+00  0.00000000E+00  0.00000000E+00
  0.00000000E+00  0.00000000E+00  0.00000000E+00
  0.00000000E+00  0.00000000E+00  0.00000000E+00
  0.00000000E+00  0.00000000E+00  0.00000000E+00
  0.00000000E+00  0.00000000E+00  0.00000000E+00
  0.00000000E+00  0.00000000E+00  0.00000000E+00
  0.00000000E+00  0.00000000E+00  0.00000000E+00
  0.00000000E+00  0.00000000E+00  0.00000000E+00
  0.00000000E+00  0.00000000E+00  0.00000000E+00
  0.00000000E+00  0.00000000E+00  0.00000000E+00
  0.00000000E+00  0.00000000E+00  0.00000000E+00
  0.00000000E+00  0.00000000E+00  0.00000000E+00
  0.00000000E+00  0.00000000E+00  0.00000000E+00
  0.00000000E+00  0.00000000E+00  0.00000000E+00
  0.00000000E+00  0.00000000E+00  0.00000000E+00
  0.00000000E+00  0.00000000E+00  0.00000000E+00
  0.00000000E+00  0.00000000E+00  0.00000000E+00
  0.00000000E+00  0.00000000E+00  0.00000000E+00
  0.00000000E+00  0.00000000E+00  0.00000000E+00
  0.00000000E+00  0.00000000E+00  0.00000000E+00
  0.00000000E+00  0.00000000E+00  0.00000000E+00
  0.00000000E+00  0.00000000E+00  0.00000000E+00
  0.00000000E+00  0.00000000E+00  0.00000000E+00
  0.00000000E+00  0.00000000E+00  0.00000000E+00
  0.00000000E+00  0.00000000E+00  0.00000000E+00
  0.00000000E+00  0.00000000E+00  0.00000000E+00
  0.00000000E+00  0.00000000E+00  0.00000000E+00
  0.00000000E+00  0.00000000E+00  0.00000000E+00
  0.00000000E+00  0.00000000E+00  0.00000000E+00
  0.00000000E+00  0.00000000E+00  0.00000000E+00
  0.00000000E+00  0.00000000E+00  0.00000000E+00
  0.00000000E+00  0.00000000E+00  0.00000000E+00
  0.00000000E+00  0.00000000E+00  0.00000000E+00
  0.00000000E+00  0.00000000E+00  0.00000000E+00
  0.00000000E+00  0.00000000E+00  0.00000000E+00
  0.00000000E+00  0.00000000E+00  0.00000000E+00
  0.00000000E+00  0.00000000E+00  0.00000000E+00
  0.00000000E+00  0.00000000E+00  0.00000000E+00
  0.00000000E+00  0.00000000E+00  0.00000000E+00
  0.00000000E+00  0.00000000E+00  0.00000000E+00
  0.00000000E+00  0.00000000E+00  0.00000000E+00
  0.00000000E+00  0.00000000E+00  0.00000000E+00
  0.00000000E+00  0.00000000E+00  0.00000000E+00
  0.00000000E+00  0.00000000E+00  0.00000000E+00
  0.00000000E+00  0.00000000E+00  0.00000000E+00
  0.00000000E+00  0.00000000E+00  0.00000000E+00
  0.00000000E+00  0.00000000E+00  0.00000000E+00
  0.00000000E+00  0.00000000E+00  0.00000000E+00
  0.00000000E+00  0.00000000E+00  0.00000000E+00
  0.00000000E+00  0.00000000E+00  0.00000000E+00
  0.00000000E+00  0.00000000E+00  0.00000000E+00
  0.00000000E+00  0.00000000E+00  0.00000000E+00
  0.00000000E+00  0.00000000E+00  0.00000000E+00
  0.00000000E+00  0.00000000E+00  0.00000000E+00
  0.00000000E+00  0.00000000E+00  0.00000000E+00
  0.00000000E+00  0.00000000E+00  0.00000000E+00
  0.00000000E+00  0.00000000E+00  0.00000000E+00
