 K4 Ru2 Br12                            
   1.00000000000000     
     7.2597555756609093    0.0000000000000000    0.0000000000000000
     0.0000000000000000   10.2968633766378215    0.0000000000000000
     0.0000000000000000    0.0000000000000000   22.7085044217999936
   K    Ru   Br
     4     2    12
Direct
  0.8161641663561452  0.7334066239694851  0.5706269093686531
  0.3161614891048993  0.2332843835118716  0.4293311908507975
  0.3161608668041744  0.7667079647935939  0.4293313493068436
  0.8161612643420110  0.2665854926433517  0.5706276872433054
  0.3126664985148345  0.4999947501518638  0.5827028795070613
  0.8126592052633709  0.0000009025918157  0.4173182742452973
  0.0545413262867110  0.5000019669430955  0.6544674551306395
  0.8126223747296021  0.2440709999221884  0.4160098614856127
  0.0579624635658119 -0.0000161656505215  0.4971728151704858
  0.3125442522991336  0.2558492826298429  0.5840157318638841
  0.0849297964116920  0.5000319351645146  0.4974086799891097
  0.8125998038313580  0.7559270512320940  0.4160132813694015
  0.5546368506125902 -0.0000021223116025  0.3455382586812419
  0.5579454012868724  0.4999698885430217  0.5028042006700539
  0.5849800663782320  0.0000640763869442  0.5025761547511896
  0.3125368109129160  0.7441466701954553  0.5840139057836464
  0.0504524942845692 -0.0000062549259173  0.3397256510396479
  0.5504948690150856  0.4999825542088888  0.6603157135430920
 
  0.00000000E+00  0.00000000E+00  0.00000000E+00
  0.00000000E+00  0.00000000E+00  0.00000000E+00
  0.00000000E+00  0.00000000E+00  0.00000000E+00
  0.00000000E+00  0.00000000E+00  0.00000000E+00
  0.00000000E+00  0.00000000E+00  0.00000000E+00
  0.00000000E+00  0.00000000E+00  0.00000000E+00
  0.00000000E+00  0.00000000E+00  0.00000000E+00
  0.00000000E+00  0.00000000E+00  0.00000000E+00
  0.00000000E+00  0.00000000E+00  0.00000000E+00
  0.00000000E+00  0.00000000E+00  0.00000000E+00
  0.00000000E+00  0.00000000E+00  0.00000000E+00
  0.00000000E+00  0.00000000E+00  0.00000000E+00
  0.00000000E+00  0.00000000E+00  0.00000000E+00
  0.00000000E+00  0.00000000E+00  0.00000000E+00
  0.00000000E+00  0.00000000E+00  0.00000000E+00
  0.00000000E+00  0.00000000E+00  0.00000000E+00
  0.00000000E+00  0.00000000E+00  0.00000000E+00
  0.00000000E+00  0.00000000E+00  0.00000000E+00
