CONTCAR                                 
   1.00000000000000     
     9.7571001052999993    0.0000000000000000    0.0000000000000000
    -3.0063686365000000   15.8319856181999992    0.0000000000000000
     0.0000000000000000    0.0000000000000000   18.2793006897000012
   V    P    S    O    H 
     4     8    26     1     1
Direct
  0.6180378967365243  0.6050326804305826  0.4971705242221844
  0.6214659700428484  0.1017961215778413  0.4975573442218675
  0.3844369125663789  0.3938413897270152  0.4973112083648559
  0.3776027874645393  0.9160347231561374  0.5131175043627749
  0.8312575399042430  0.2592860256601668  0.4888384666431520
  0.6981965566102062  0.4325197905666158  0.5326536856941715
  0.1807321873912358  0.7474352699583378  0.5050991975508907
  0.1771816300264035  0.2333771632345290  0.4845760796342446
  0.3192918375758822  0.0612952315839053  0.5187661617653987
  0.6958879467134267  0.9330788751512316  0.4676767654272496
  0.3072237460453877  0.5676417725279563  0.4590651860167299
  0.8351138143960242  0.7599738764877415  0.5095889836427645
  0.1226868526925315  0.0983707375763743  0.5040792658710416
  0.8879081745942372  0.8908525116674753  0.4817117414059808
  0.0086175106812973  0.7491330897276995  0.5779778505333297
  0.4133062725384136  0.0394147325759562  0.4220807982105654
  0.5424828785667444  0.3512240270889322  0.5829233905398681
  0.2367244240170834  0.4552303218911931  0.4110621431577712
  0.1995993749903562  0.3083432780631128  0.5729464945179643
  0.6674365688389159  0.7276586208708977  0.5754124376538456
  0.4678015968132385  0.6439516515031443  0.4076116244680108
  0.6083492064136422  0.4623008954273118  0.4358150667797531
  0.6655616335102934  0.2310871683036027  0.4226043352016973
  0.8901354616417905  0.3898764157081658  0.5178939826567373
  0.0014638371367184  0.2454494664393749  0.4181435266784987
  0.6134457673272635  0.9673158590727837  0.5660332935249457
  0.8093877589719582  0.6834698394561016  0.4223184411072154
  0.3921032775426667  0.5383545588625225  0.5577152888516395
  0.1975483735031318  0.8417065128140777  0.4308359168127751
  0.7626355117455290  0.5430206748129862  0.5842899361886609
  0.5360699661973243  0.8551811712155768  0.4223125204765097
  0.2902113421274493  0.9462284704131463  0.6207024365727491
  0.3520900687541015  0.7688720852623590  0.5660823426039414
  0.8050064905328540  0.1809886140897135  0.5749895392251787
  0.7694956835160696  0.0429216405787685  0.4148555419021207
  0.4531519730960838  0.1486191745721186  0.5763841208163356
  0.1218888563058940  0.6195949950027995  0.4650602635379144
  0.3435408715642438  0.2703201111652334  0.4189814887031531
  0.2989420576652719  0.8740295229774588  0.6874851855789714
  0.2809592422417921  0.9023709907990352  0.7329600708765298
 
  0.00000000E+00  0.00000000E+00  0.00000000E+00
  0.00000000E+00  0.00000000E+00  0.00000000E+00
  0.00000000E+00  0.00000000E+00  0.00000000E+00
  0.00000000E+00  0.00000000E+00  0.00000000E+00
  0.00000000E+00  0.00000000E+00  0.00000000E+00
  0.00000000E+00  0.00000000E+00  0.00000000E+00
  0.00000000E+00  0.00000000E+00  0.00000000E+00
  0.00000000E+00  0.00000000E+00  0.00000000E+00
  0.00000000E+00  0.00000000E+00  0.00000000E+00
  0.00000000E+00  0.00000000E+00  0.00000000E+00
  0.00000000E+00  0.00000000E+00  0.00000000E+00
  0.00000000E+00  0.00000000E+00  0.00000000E+00
  0.00000000E+00  0.00000000E+00  0.00000000E+00
  0.00000000E+00  0.00000000E+00  0.00000000E+00
  0.00000000E+00  0.00000000E+00  0.00000000E+00
  0.00000000E+00  0.00000000E+00  0.00000000E+00
  0.00000000E+00  0.00000000E+00  0.00000000E+00
  0.00000000E+00  0.00000000E+00  0.00000000E+00
  0.00000000E+00  0.00000000E+00  0.00000000E+00
  0.00000000E+00  0.00000000E+00  0.00000000E+00
  0.00000000E+00  0.00000000E+00  0.00000000E+00
  0.00000000E+00  0.00000000E+00  0.00000000E+00
  0.00000000E+00  0.00000000E+00  0.00000000E+00
  0.00000000E+00  0.00000000E+00  0.00000000E+00
  0.00000000E+00  0.00000000E+00  0.00000000E+00
  0.00000000E+00  0.00000000E+00  0.00000000E+00
  0.00000000E+00  0.00000000E+00  0.00000000E+00
  0.00000000E+00  0.00000000E+00  0.00000000E+00
  0.00000000E+00  0.00000000E+00  0.00000000E+00
  0.00000000E+00  0.00000000E+00  0.00000000E+00
  0.00000000E+00  0.00000000E+00  0.00000000E+00
  0.00000000E+00  0.00000000E+00  0.00000000E+00
  0.00000000E+00  0.00000000E+00  0.00000000E+00
  0.00000000E+00  0.00000000E+00  0.00000000E+00
  0.00000000E+00  0.00000000E+00  0.00000000E+00
  0.00000000E+00  0.00000000E+00  0.00000000E+00
  0.00000000E+00  0.00000000E+00  0.00000000E+00
  0.00000000E+00  0.00000000E+00  0.00000000E+00
  0.00000000E+00  0.00000000E+00  0.00000000E+00
  0.00000000E+00  0.00000000E+00  0.00000000E+00
