 Ti2 Te2 P1                             
   1.00000000000000     
     3.6104868241922592    0.0000000000000000    0.0000000000000000
     1.8052434120961296    3.1267696676874941    0.0000000000000000
     0.0000000000000000    0.0000000000000000   21.2774802299440005
   Ti   Te   P 
     2     2     1
Direct
  0.3333333893608664  0.3333333159670939  0.4380222264507193
  0.6666665826669383  0.6666666328586102  0.5619808745357836
  0.6666667483510406  0.6666667119914571  0.3513193730715276
  0.3333332687726426  0.3333333563232063  0.6486826684606877
  0.0000000108485119 -0.0000000171403677  0.4999948574812819
 
  0.00000000E+00  0.00000000E+00  0.00000000E+00
  0.00000000E+00  0.00000000E+00  0.00000000E+00
  0.00000000E+00  0.00000000E+00  0.00000000E+00
  0.00000000E+00  0.00000000E+00  0.00000000E+00
  0.00000000E+00  0.00000000E+00  0.00000000E+00
