 Cu2 Se2                                
   1.00000000000000     
     3.6430896800511130    0.0000000000000000    0.0000000000000000
     0.0000000000000000    3.6430894606745921    0.0000000000000000
     0.0000000000000000    0.0000000000000000   18.0812517465840017
   Cu   Se
     2     2
Direct
 -0.0000000075728091 -0.0000000051239214  0.4999999939158062
  0.5000000104821823  0.4999999908710728  0.5000000060218589
 -0.0000000188531734  0.5000000180705849  0.5898675858645926
  0.5000000159438002 -0.0000000038177369  0.4101324141977419
 
  0.00000000E+00  0.00000000E+00  0.00000000E+00
  0.00000000E+00  0.00000000E+00  0.00000000E+00
  0.00000000E+00  0.00000000E+00  0.00000000E+00
  0.00000000E+00  0.00000000E+00  0.00000000E+00
