CONTCAR                                 
   1.00000000000000     
    11.3364000320000002    0.0000000000000000    0.0000000000000000
     0.0000000000000000   11.1918001174999997    0.0000000000000000
     0.0000000000000000    0.0000000000000000   20.5198993682999991
   Mn   Sb   Se   Br   O    H 
     6     6    12     6     2     1
Direct
  0.1685708080900129  0.5105415421148742  0.5053569971628522
  0.1712044498791582 -0.0086485095012331  0.4946935018441612
  0.4995761191076163  0.5060086627107306  0.5114090071313634
  0.5014579485778372 -0.0047236549470869  0.4993984718176710
  0.8333828885469298  0.5033450337009804  0.5060159683120751
  0.8366856977731857 -0.0034635135200074  0.4902520095251803
  0.0064719865467230  0.7760844970519607  0.5933264476405964
  0.3357024684147480  0.2839574041266926  0.4015112630689580
  0.3271780203143011  0.7916360752233392  0.6211388550324256
  0.6641886479663870  0.2848762442523535  0.4008844433520874
  0.6783708698333636  0.7879910277158468  0.6086020260526391
  0.0015478263430651  0.2824885950829851  0.3981801108635415
  0.3370897980352163  0.5118215463386242  0.4171708155280273
  0.1666042111603207  0.2407242007029337  0.4881065276843762
  0.1640207931682883  0.7462734703386978  0.5034129006204114
  0.0020476865513925  0.0085013547330271  0.5802853367899872
  0.6636331944715270  0.5122505313149932  0.4179288665845142
  0.5009402906944237  0.2415754452646807  0.4911632575973619
  0.4961966267785252  0.7466662283152976  0.5307370407909957
  0.3333669899797943  0.0152975042882200  0.5879639119659597
  0.0004231854824991  0.5094736649150334  0.4150736124001721
  0.8346448807981863  0.2422611447115476  0.4871335633317438
  0.8299090515622416  0.7439450530576113  0.5099296412051125
  0.6798663563927205  0.0151692541155752  0.5825958639253094
  0.0011023608576905  0.4770618403867918  0.5937614025880621
 -0.0000452924803364  0.9789787160867839  0.4022277425853528
  0.3301834860296895  0.4719923905157698  0.5954416877643082
  0.3382184495413706  0.9729761011434696  0.4080305169362756
  0.6699638749697763  0.4727300042559642  0.5963513057190682
  0.6637969661759493  0.9708892420006349  0.4067453099414148
  0.4393081225374458  0.7968164828567353  0.7009172171250904
  0.5334157631648697  0.8892429583983517  0.6978412400181044
  0.5615156157351061  0.8859795132478172  0.7430834350947622
 
  0.00000000E+00  0.00000000E+00  0.00000000E+00
  0.00000000E+00  0.00000000E+00  0.00000000E+00
  0.00000000E+00  0.00000000E+00  0.00000000E+00
  0.00000000E+00  0.00000000E+00  0.00000000E+00
  0.00000000E+00  0.00000000E+00  0.00000000E+00
  0.00000000E+00  0.00000000E+00  0.00000000E+00
  0.00000000E+00  0.00000000E+00  0.00000000E+00
  0.00000000E+00  0.00000000E+00  0.00000000E+00
  0.00000000E+00  0.00000000E+00  0.00000000E+00
  0.00000000E+00  0.00000000E+00  0.00000000E+00
  0.00000000E+00  0.00000000E+00  0.00000000E+00
  0.00000000E+00  0.00000000E+00  0.00000000E+00
  0.00000000E+00  0.00000000E+00  0.00000000E+00
  0.00000000E+00  0.00000000E+00  0.00000000E+00
  0.00000000E+00  0.00000000E+00  0.00000000E+00
  0.00000000E+00  0.00000000E+00  0.00000000E+00
  0.00000000E+00  0.00000000E+00  0.00000000E+00
  0.00000000E+00  0.00000000E+00  0.00000000E+00
  0.00000000E+00  0.00000000E+00  0.00000000E+00
  0.00000000E+00  0.00000000E+00  0.00000000E+00
  0.00000000E+00  0.00000000E+00  0.00000000E+00
  0.00000000E+00  0.00000000E+00  0.00000000E+00
  0.00000000E+00  0.00000000E+00  0.00000000E+00
  0.00000000E+00  0.00000000E+00  0.00000000E+00
  0.00000000E+00  0.00000000E+00  0.00000000E+00
  0.00000000E+00  0.00000000E+00  0.00000000E+00
  0.00000000E+00  0.00000000E+00  0.00000000E+00
  0.00000000E+00  0.00000000E+00  0.00000000E+00
  0.00000000E+00  0.00000000E+00  0.00000000E+00
  0.00000000E+00  0.00000000E+00  0.00000000E+00
  0.00000000E+00  0.00000000E+00  0.00000000E+00
  0.00000000E+00  0.00000000E+00  0.00000000E+00
  0.00000000E+00  0.00000000E+00  0.00000000E+00
