CONTCAR\(4)                             
   1.00000000000000     
    11.1367998122999996    0.0000000000000000    0.0000000000000000
    -5.5683999061999998    9.6447515543000009    0.0000000000000000
     0.0000000000000000    0.0000000000000000   17.5949001311999993
   Ni   Te
     9    18
Direct
  0.0000000000000000  0.0000000000000000  0.5000000000000000
  0.3333300010000002  0.0000000000000000  0.5000000000000000
  0.6666700210000016  0.0000000000000000  0.5000000000000000
  0.9999999979999998  0.3333299960000033  0.5000000000000000
  0.3333299980000035  0.3333299960000033  0.5000000000000000
  0.6666700070000005  0.3333299960000033  0.5000000000000000
  0.0000000040000003  0.6666700279999986  0.5000000000000000
  0.3333300050000005  0.6666700279999986  0.5000000000000000
  0.6666700239999983  0.6666700279999986  0.5000000000000000
  0.1111099990000000  0.2222199970000034  0.4197858567934683
  0.2222200000000001  0.1111099990000000  0.5802141702065374
  0.4444399989999965  0.2222199970000034  0.4197858567934683
  0.5555600089999970  0.1111099990000000  0.5802141702065374
  0.7777799759999979  0.2222199970000034  0.4197858567934683
  0.8888900310000025  0.1111099990000000  0.5802141702065374
  0.1111100030000003  0.5555600049999967  0.4197858567934683
  0.2222199970000034  0.4444399950000033  0.5802141702065374
  0.4444400040000005  0.5555600049999967  0.4197858567934683
  0.5555599959999995  0.4444399950000033  0.5802141702065374
  0.7777799599999966  0.5555600049999967  0.4197858567934683
  0.8888900179999979  0.4444399950000033  0.5802141702065374
  0.1111100270000023  0.8888900749999991  0.4197858567934683
  0.2222200229999984  0.7777800020000001  0.5802141702065374
  0.4444400280000025  0.8888900749999991  0.4197858567934683
  0.5555600220000017  0.7777800020000001  0.5802141702065374
  0.7777799839999986  0.8888900749999991  0.4197858567934683
  0.8888900440000000  0.7777800020000001  0.5802141702065374
 
  0.00000000E+00  0.00000000E+00  0.00000000E+00
  0.00000000E+00  0.00000000E+00  0.00000000E+00
  0.00000000E+00  0.00000000E+00  0.00000000E+00
  0.00000000E+00  0.00000000E+00  0.00000000E+00
  0.00000000E+00  0.00000000E+00  0.00000000E+00
  0.00000000E+00  0.00000000E+00  0.00000000E+00
  0.00000000E+00  0.00000000E+00  0.00000000E+00
  0.00000000E+00  0.00000000E+00  0.00000000E+00
  0.00000000E+00  0.00000000E+00  0.00000000E+00
  0.00000000E+00  0.00000000E+00  0.00000000E+00
  0.00000000E+00  0.00000000E+00  0.00000000E+00
  0.00000000E+00  0.00000000E+00  0.00000000E+00
  0.00000000E+00  0.00000000E+00  0.00000000E+00
  0.00000000E+00  0.00000000E+00  0.00000000E+00
  0.00000000E+00  0.00000000E+00  0.00000000E+00
  0.00000000E+00  0.00000000E+00  0.00000000E+00
  0.00000000E+00  0.00000000E+00  0.00000000E+00
  0.00000000E+00  0.00000000E+00  0.00000000E+00
  0.00000000E+00  0.00000000E+00  0.00000000E+00
  0.00000000E+00  0.00000000E+00  0.00000000E+00
  0.00000000E+00  0.00000000E+00  0.00000000E+00
  0.00000000E+00  0.00000000E+00  0.00000000E+00
  0.00000000E+00  0.00000000E+00  0.00000000E+00
  0.00000000E+00  0.00000000E+00  0.00000000E+00
  0.00000000E+00  0.00000000E+00  0.00000000E+00
  0.00000000E+00  0.00000000E+00  0.00000000E+00
  0.00000000E+00  0.00000000E+00  0.00000000E+00
