 Ag2 Au4 S4                             
   1.00000000000000     
     4.2876725990051918    0.0000000000000000    0.0000000000000000
     0.0000000000000000    7.1598230908373068    0.0000000000000000
     0.0000000000000000    0.0000000000000000   19.5570216443800007
   Ag   Au   S 
     2     4     4
Direct
  0.2459651769219917  0.6424195912968145  0.6016713115892784
  0.7540347582387810  0.1424196025965969  0.6016712216268303
  0.1026010406415665  0.9863478427290957  0.4881471694965924
  0.8973990557809373  0.4863480579386632  0.4881472158970084
  0.5009300199948612  0.7456393934607703  0.4037353800909926
  0.4990700213133650  0.2456393909736363  0.4037354621252476
  0.8339343321436772  0.9961699988731638  0.3846928696036969
  0.7403031634443664  0.4816110844812158  0.6027519302168898
  0.2596967643577131  0.9816110666683144  0.6027519032950011
  0.1660656671627265  0.4961699709817253  0.3846929084695319
 
  0.00000000E+00  0.00000000E+00  0.00000000E+00
  0.00000000E+00  0.00000000E+00  0.00000000E+00
  0.00000000E+00  0.00000000E+00  0.00000000E+00
  0.00000000E+00  0.00000000E+00  0.00000000E+00
  0.00000000E+00  0.00000000E+00  0.00000000E+00
  0.00000000E+00  0.00000000E+00  0.00000000E+00
  0.00000000E+00  0.00000000E+00  0.00000000E+00
  0.00000000E+00  0.00000000E+00  0.00000000E+00
  0.00000000E+00  0.00000000E+00  0.00000000E+00
  0.00000000E+00  0.00000000E+00  0.00000000E+00
