CONTCAR\(5)                             
   1.00000000000000     
    12.6022996902000006    0.0000000000000000    0.0000000000000000
     6.3011498451000003   10.9139116778999998    0.0000000000000000
     0.0000000000000000    0.0000000000000000   22.1669998168999989
   Y    Ge   I 
    18     9    18
Direct
  0.1111099980000034  0.1111100079999972  0.5705299959999977
  0.0000000000000000  0.0000000000000000  0.4294900089999985
  0.4444400009999967  0.1111100079999972  0.5705299959999977
  0.3333300039999969  0.0000000000000000  0.4294900089999985
  0.7777800320000026  0.1111100079999972  0.5705299959999977
  0.6666699960000031  0.0000000000000000  0.4294900089999985
  0.1111099869999990  0.4444400329999993  0.5705299959999977
  0.0000000009999965  0.3333300030000004  0.4294900089999985
  0.4444399910000030  0.4444400329999993  0.5705299959999977
  0.3333300039999969  0.3333300030000004  0.4294900089999985
  0.7777799839999986  0.4444400329999993  0.5705299959999977
  0.6666700350000028  0.3333300030000004  0.4294900089999985
  0.1111099800000019  0.7777800400000032  0.5705299959999977
  0.9999999710000012  0.6666700540000008  0.4294900089999985
  0.4444400209999984  0.7777800400000032  0.5705299959999977
  0.3333299749999981  0.6666700540000008  0.4294900089999985
  0.7777800140000011  0.7777800400000032  0.5705299959999977
  0.6666699669999971  0.6666700540000008  0.4294900089999985
  0.2222199959999998  0.2222200160000014  0.5000000000000000
  0.5555599879999988  0.2222200160000014  0.5000000000000000
  0.8888900680000020  0.2222200160000014  0.5000000000000000
  0.2222200100000009  0.5555599799999982  0.5000000000000000
  0.5555600400000031  0.5555599799999982  0.5000000000000000
  0.8888900440000000  0.5555599799999982  0.5000000000000000
  0.2222199879999991  0.8888900270000022  0.5000000000000000
  0.5555600570000010  0.8888900270000022  0.5000000000000000
  0.8888901360000006  0.8888900270000022  0.5000000000000000
  0.0000000000000000  0.0000000000000000  0.6608200280000034
  0.1111099980000034  0.1111100079999972  0.3391599879999987
  0.3333300039999969  0.0000000000000000  0.6608200280000034
  0.4444400009999967  0.1111100079999972  0.3391599879999987
  0.6666699960000031  0.0000000000000000  0.6608200280000034
  0.7777800320000026  0.1111100079999972  0.3391599879999987
  0.0000000009999965  0.3333300030000004  0.6608200280000034
  0.1111099869999990  0.4444400329999993  0.3391599879999987
  0.3333300039999969  0.3333300030000004  0.6608200280000034
  0.4444399910000030  0.4444400329999993  0.3391599879999987
  0.6666700350000028  0.3333300030000004  0.6608200280000034
  0.7777799839999986  0.4444400329999993  0.3391599879999987
  0.9999999710000012  0.6666700540000008  0.6608200280000034
  0.1111099800000019  0.7777800400000032  0.3391599879999987
  0.3333299749999981  0.6666700540000008  0.6608200280000034
  0.4444400209999984  0.7777800400000032  0.3391599879999987
  0.6666699669999971  0.6666700540000008  0.6608200280000034
  0.7777800140000011  0.7777800400000032  0.3391599879999987
 
  0.00000000E+00  0.00000000E+00  0.00000000E+00
  0.00000000E+00  0.00000000E+00  0.00000000E+00
  0.00000000E+00  0.00000000E+00  0.00000000E+00
  0.00000000E+00  0.00000000E+00  0.00000000E+00
  0.00000000E+00  0.00000000E+00  0.00000000E+00
  0.00000000E+00  0.00000000E+00  0.00000000E+00
  0.00000000E+00  0.00000000E+00  0.00000000E+00
  0.00000000E+00  0.00000000E+00  0.00000000E+00
  0.00000000E+00  0.00000000E+00  0.00000000E+00
  0.00000000E+00  0.00000000E+00  0.00000000E+00
  0.00000000E+00  0.00000000E+00  0.00000000E+00
  0.00000000E+00  0.00000000E+00  0.00000000E+00
  0.00000000E+00  0.00000000E+00  0.00000000E+00
  0.00000000E+00  0.00000000E+00  0.00000000E+00
  0.00000000E+00  0.00000000E+00  0.00000000E+00
  0.00000000E+00  0.00000000E+00  0.00000000E+00
  0.00000000E+00  0.00000000E+00  0.00000000E+00
  0.00000000E+00  0.00000000E+00  0.00000000E+00
  0.00000000E+00  0.00000000E+00  0.00000000E+00
  0.00000000E+00  0.00000000E+00  0.00000000E+00
  0.00000000E+00  0.00000000E+00  0.00000000E+00
  0.00000000E+00  0.00000000E+00  0.00000000E+00
  0.00000000E+00  0.00000000E+00  0.00000000E+00
  0.00000000E+00  0.00000000E+00  0.00000000E+00
  0.00000000E+00  0.00000000E+00  0.00000000E+00
  0.00000000E+00  0.00000000E+00  0.00000000E+00
  0.00000000E+00  0.00000000E+00  0.00000000E+00
  0.00000000E+00  0.00000000E+00  0.00000000E+00
  0.00000000E+00  0.00000000E+00  0.00000000E+00
  0.00000000E+00  0.00000000E+00  0.00000000E+00
  0.00000000E+00  0.00000000E+00  0.00000000E+00
  0.00000000E+00  0.00000000E+00  0.00000000E+00
  0.00000000E+00  0.00000000E+00  0.00000000E+00
  0.00000000E+00  0.00000000E+00  0.00000000E+00
  0.00000000E+00  0.00000000E+00  0.00000000E+00
  0.00000000E+00  0.00000000E+00  0.00000000E+00
  0.00000000E+00  0.00000000E+00  0.00000000E+00
  0.00000000E+00  0.00000000E+00  0.00000000E+00
  0.00000000E+00  0.00000000E+00  0.00000000E+00
  0.00000000E+00  0.00000000E+00  0.00000000E+00
  0.00000000E+00  0.00000000E+00  0.00000000E+00
  0.00000000E+00  0.00000000E+00  0.00000000E+00
  0.00000000E+00  0.00000000E+00  0.00000000E+00
  0.00000000E+00  0.00000000E+00  0.00000000E+00
  0.00000000E+00  0.00000000E+00  0.00000000E+00
