CONTCAR\(7)                             
   1.00000000000000     
    14.1084995269999993    0.0000000000000000    0.0000000000000000
     3.5075286754000001   19.1175987350000014    0.0000000000000000
     0.0000000000000000    0.0000000000000000   19.0792007446000014
   Ta   Te
    24    47
Direct
  0.1608352671542691  0.3559448381630148  0.5038762787060461
  0.0933835704970759  0.1428918128817558  0.5008776206912893
  0.2412152917910539  0.5013271186901891  0.4986855699106595
  0.4057828640040876  0.3566291325195703  0.5038100685184039
  0.3387435932710572  0.1424701320537412  0.4996483694646212
  0.4768868113039511  0.5011477847317949  0.4976203394348487
  0.6580035093592614  0.3535357540614746  0.5041655420951088
  0.5837970246239614  0.1437086413402606  0.5011123703565764
  0.7729653577469940  0.5007125904198055  0.4989328629834590
  0.9134795084831311  0.3535488253706593  0.5028241785505181
  0.8385659554429269  0.1465827246289207  0.5017368607745897
  0.0045007779727212  0.5010560206316049  0.4991389269380256
  0.1658935519785930  0.8561967999725827  0.5023633724916651
  0.0862011582385260  0.6440554680254061  0.4969973892155319
  0.2556056137259401 -0.0006949441439250  0.5010518836301557
  0.4097533909278852  0.8583835141673176  0.4954046955504802
  0.3193158091807237  0.6411100393937476  0.4886139267802171
  0.4932356844785161 -0.0007372190039399  0.5010095983102743
  0.6557623009711652  0.8559525533710107  0.5014101504581864
  0.6063905769599406  0.6378445878270225  0.4850048730869373
  0.7247507615115879  0.9991316376185506  0.5021059991071923
  0.9105533885178405  0.8521019513403996  0.5030573871044175
  0.8470468065862261  0.6441627392300905  0.4969841884341160
  0.0239888712163720  0.9996129375975584  0.5020525722238560
  0.1367531836127109  0.4441745026175639  0.3929204173730920
  0.1177298305520127  0.0527723490866341  0.6105714298873410
  0.0579679776836275  0.2733662408942137  0.4204245101943478
  0.0265462121856193  0.3937879352693445  0.6076032138152302
  0.2230956492043805  0.1079644950239375  0.3941612353670317
  0.1947940635469386  0.2251518313488694  0.5840842730972264
  0.3824004251061074  0.4439114138943963  0.3919420297574594
  0.3613393726844383  0.0520681692563440  0.6087985465278329
  0.3048922524649326  0.2740672279284673  0.4205498561733713
  0.2742195218691795  0.3956501493390402  0.6084291654393178
  0.4717635271136829  0.1082647241936780  0.3943870457468894
  0.4407122842576988  0.2257898890807853  0.5841967084880834
  0.6376760267959559  0.4493555684671818  0.4031197962978245
  0.6045363931726624  0.0527529469846484  0.6103429903072408
  0.5533555708094484  0.2748557652288948  0.4205226366901896
  0.5222224306779469  0.3969172615121966  0.6063985993767876
  0.7205181186780826  0.1076101958969356  0.3979660226184335
  0.6920220725253818  0.2229166647682022  0.5857328368470476
  0.8958781158169112  0.4431556819830449  0.3924533814823853
  0.8624501638958523  0.0453524582798585  0.5977675905661908
  0.8046424089351677  0.2763697765499782  0.4185787876290188
  0.7772396875719355  0.3942401672048349  0.6055240209454190
  0.9744768097324593  0.1075504108003467  0.3973313630237708
  0.9459381258368850  0.2235207331417262  0.5853373240238815
  0.1421331762884747  0.9467397372965782  0.3925195558108681
  0.1101643309474945  0.5542371207065900  0.6068328568809764
  0.0557585000506584  0.7770884834703166  0.4183754894518525
  0.0293311418051165  0.8919087008203744  0.6062006912665219
  0.2144121581928513  0.6021345496990442  0.3859322954871152
  0.1969863225110893  0.7239861829484178  0.5815638958954144
  0.3867982726761965  0.9500488884500656  0.3912931262378559
  0.3555995191506051  0.5591989710323674  0.6033511470809824
  0.3071125043406476  0.7727052119016148  0.4190006180088100
  0.2822532715626420  0.8893490162025606  0.6064382879637278
  0.4692345092234825  0.6069831754307042  0.3928443059422206
  0.6330616329656357  0.9468395752354301  0.3920406890408120
  0.6129678735910453  0.5511751057773105  0.5927354099919747
  0.5540598128016270  0.7719137327111623  0.4197611975432005
  0.5223111129578627  0.8884578114233748  0.6058879265925685
  0.7383208364698088  0.6006588424381722  0.3865503787878967
  0.6885102159275530  0.7209586698796780  0.5773354529672111
  0.8860520502869682  0.9539374397111815  0.4070592824912714
  0.8663452274929792  0.5542981603290283  0.6074775158383500
  0.8041822996058939  0.7765928449633637  0.4170769945207260
  0.7723173178810389  0.8909130615326274  0.6064640572783840
  0.9753879054124154  0.6063963249479027  0.3899365505749375
  0.9454827711840765  0.7224148424524236  0.5862037818537740
 
  0.00000000E+00  0.00000000E+00  0.00000000E+00
  0.00000000E+00  0.00000000E+00  0.00000000E+00
  0.00000000E+00  0.00000000E+00  0.00000000E+00
  0.00000000E+00  0.00000000E+00  0.00000000E+00
  0.00000000E+00  0.00000000E+00  0.00000000E+00
  0.00000000E+00  0.00000000E+00  0.00000000E+00
  0.00000000E+00  0.00000000E+00  0.00000000E+00
  0.00000000E+00  0.00000000E+00  0.00000000E+00
  0.00000000E+00  0.00000000E+00  0.00000000E+00
  0.00000000E+00  0.00000000E+00  0.00000000E+00
  0.00000000E+00  0.00000000E+00  0.00000000E+00
  0.00000000E+00  0.00000000E+00  0.00000000E+00
  0.00000000E+00  0.00000000E+00  0.00000000E+00
  0.00000000E+00  0.00000000E+00  0.00000000E+00
  0.00000000E+00  0.00000000E+00  0.00000000E+00
  0.00000000E+00  0.00000000E+00  0.00000000E+00
  0.00000000E+00  0.00000000E+00  0.00000000E+00
  0.00000000E+00  0.00000000E+00  0.00000000E+00
  0.00000000E+00  0.00000000E+00  0.00000000E+00
  0.00000000E+00  0.00000000E+00  0.00000000E+00
  0.00000000E+00  0.00000000E+00  0.00000000E+00
  0.00000000E+00  0.00000000E+00  0.00000000E+00
  0.00000000E+00  0.00000000E+00  0.00000000E+00
  0.00000000E+00  0.00000000E+00  0.00000000E+00
  0.00000000E+00  0.00000000E+00  0.00000000E+00
  0.00000000E+00  0.00000000E+00  0.00000000E+00
  0.00000000E+00  0.00000000E+00  0.00000000E+00
  0.00000000E+00  0.00000000E+00  0.00000000E+00
  0.00000000E+00  0.00000000E+00  0.00000000E+00
  0.00000000E+00  0.00000000E+00  0.00000000E+00
  0.00000000E+00  0.00000000E+00  0.00000000E+00
  0.00000000E+00  0.00000000E+00  0.00000000E+00
  0.00000000E+00  0.00000000E+00  0.00000000E+00
  0.00000000E+00  0.00000000E+00  0.00000000E+00
  0.00000000E+00  0.00000000E+00  0.00000000E+00
  0.00000000E+00  0.00000000E+00  0.00000000E+00
  0.00000000E+00  0.00000000E+00  0.00000000E+00
  0.00000000E+00  0.00000000E+00  0.00000000E+00
  0.00000000E+00  0.00000000E+00  0.00000000E+00
  0.00000000E+00  0.00000000E+00  0.00000000E+00
  0.00000000E+00  0.00000000E+00  0.00000000E+00
  0.00000000E+00  0.00000000E+00  0.00000000E+00
  0.00000000E+00  0.00000000E+00  0.00000000E+00
  0.00000000E+00  0.00000000E+00  0.00000000E+00
  0.00000000E+00  0.00000000E+00  0.00000000E+00
  0.00000000E+00  0.00000000E+00  0.00000000E+00
  0.00000000E+00  0.00000000E+00  0.00000000E+00
  0.00000000E+00  0.00000000E+00  0.00000000E+00
  0.00000000E+00  0.00000000E+00  0.00000000E+00
  0.00000000E+00  0.00000000E+00  0.00000000E+00
  0.00000000E+00  0.00000000E+00  0.00000000E+00
  0.00000000E+00  0.00000000E+00  0.00000000E+00
  0.00000000E+00  0.00000000E+00  0.00000000E+00
  0.00000000E+00  0.00000000E+00  0.00000000E+00
  0.00000000E+00  0.00000000E+00  0.00000000E+00
  0.00000000E+00  0.00000000E+00  0.00000000E+00
  0.00000000E+00  0.00000000E+00  0.00000000E+00
  0.00000000E+00  0.00000000E+00  0.00000000E+00
  0.00000000E+00  0.00000000E+00  0.00000000E+00
  0.00000000E+00  0.00000000E+00  0.00000000E+00
  0.00000000E+00  0.00000000E+00  0.00000000E+00
  0.00000000E+00  0.00000000E+00  0.00000000E+00
  0.00000000E+00  0.00000000E+00  0.00000000E+00
  0.00000000E+00  0.00000000E+00  0.00000000E+00
  0.00000000E+00  0.00000000E+00  0.00000000E+00
  0.00000000E+00  0.00000000E+00  0.00000000E+00
  0.00000000E+00  0.00000000E+00  0.00000000E+00
  0.00000000E+00  0.00000000E+00  0.00000000E+00
  0.00000000E+00  0.00000000E+00  0.00000000E+00
  0.00000000E+00  0.00000000E+00  0.00000000E+00
  0.00000000E+00  0.00000000E+00  0.00000000E+00
