CONTCAR\(8)                             
   1.00000000000000     
    10.2665004730000007    0.0000000000000000    0.0000000000000000
     0.0000000000000000   17.1711997986000000    0.0000000000000000
     0.0000000000000000    0.0000000000000000   18.9181995391999997
   K    Fe   S    O 
     8    16    24     1
Selective dynamics
Direct
  0.1238085033898102  0.2499800060000013  0.4113783160435034   F   F   F
  0.3738106563227390  0.2499800060000013  0.5916241697533735   F   F   F
  0.6246249848277401  0.2499800060000013  0.4101181598771220   F   F   F
  0.8754488929296187  0.2499800060000013  0.5909811435525683   F   F   F
  0.1255767966997610  0.7499799499999966  0.4157543770301189   F   F   F
  0.3724877340934611  0.7499799499999966  0.5966962202427410   F   F   F
  0.6253499750601748  0.7499799499999966  0.4139941780630565   F   F   F
  0.8771836254216936  0.7499799499999966  0.5985620730503030   F   F   F
  0.9992670400351713  0.0729877354783994  0.4996765406610848   F   F   F
  0.2505209420626784  0.9243647271644875  0.5052730397482819   F   F   F
  0.9991406573847854  0.9248776389344258  0.5056751860998148   F   F   F
  0.2500156036477250  0.0727822170535362  0.4998341727041478   F   F   F
  0.5000368473848766  0.0738815279762193  0.4988772464301334   F   F   F
  0.7490559930278735  0.9268072236175726  0.5039624347361027   F   F   F
  0.5020968306380595  0.9265060620069150  0.5038643717558244   F   F   F
  0.7497758118156170  0.0738457633575820  0.4989614490976280   F   F   F
  0.9991406573847854  0.5751424100655740  0.5056751860998148   F   F   F
  0.2500156036477250  0.4272178109464662  0.4998341727041478   F   F   F
  0.9992670400351713  0.4270322585215993  0.4996765406610848   F   F   F
  0.2505209420626784  0.5756352728355125  0.5052730397482819   F   F   F
  0.5020968306380595  0.5735139869930848  0.5038643717558244   F   F   F
  0.7497758118156170  0.4261542646424203  0.4989614490976280   F   F   F
  0.5000368473848766  0.4261384660237795  0.4988772464301334   F   F   F
  0.7490559930278735  0.5731927763824274  0.5039624347361027   F   F   F
  0.3760471611467224  0.8540457395125642  0.4416422088050496   F   F   F
  0.1247792051859804  0.1437898025601214  0.5651437701639352   F   F   F
  0.1240829254294624  0.8581172522201825  0.5729367006000885   F   F   F
  0.3766455236476816  0.0013956698816671  0.5690697229645991   F   F   F
  0.1243345004799963  0.9954120142711176  0.4383933207751198   F   F   F
  0.3738304533973320  0.1416370884931908  0.4328933020972485   F   F   F
  0.8753906576434929  0.8542936438730493  0.4429042030432697   F   F   F
  0.6248899745378651  0.1448113664048805  0.5637584322607196   F   F   F
  0.6270868590578544  0.8623232924658453  0.5702790525217125   F   F   F
  0.8733984931033092  0.0014078766372521  0.5685917815890562   F   F   F
  0.6256005055954361  0.9973021005909430  0.4360217562331883   F   F   F
  0.8752648837511288  0.1413358895304029  0.4322416046865172   F   F   F
  0.3738304533973320  0.3583829195068091  0.4329033340972472   F   F   F
  0.1240829254294624  0.6419026867798152  0.5729467316000907   F   F   F
  0.1247792051859804  0.3562302054398785  0.5651337391639331   F   F   F
  0.3766455236476816  0.4986043301183329  0.5690697229645991   F   F   F
  0.1243345004799963  0.5045879857288824  0.4383933207751198   F   F   F
  0.3760471611467224  0.6459741994874335  0.4416321768050508   F   F   F
  0.8752648837511288  0.3586841184695970  0.4322516366865159   F   F   F
  0.6270868590578544  0.6376966465341525  0.5702890835217147   F   F   F
  0.6248899745378651  0.3552086415951194  0.5637484012607175   F   F   F
  0.8733984931033092  0.4985921233627479  0.5685917815890562   F   F   F
  0.6256005055954361  0.5026978994090570  0.4360217562331883   F   F   F
  0.8753906576434929  0.6457262951269485  0.4428941710432710   F   F   F
  0.6240770623088424  0.7499799499999967  0.5569082491482936   T   T   T
 
  0.00000000E+00  0.00000000E+00  0.00000000E+00
  0.00000000E+00  0.00000000E+00  0.00000000E+00
  0.00000000E+00  0.00000000E+00  0.00000000E+00
  0.00000000E+00  0.00000000E+00  0.00000000E+00
  0.00000000E+00  0.00000000E+00  0.00000000E+00
  0.00000000E+00  0.00000000E+00  0.00000000E+00
  0.00000000E+00  0.00000000E+00  0.00000000E+00
  0.00000000E+00  0.00000000E+00  0.00000000E+00
  0.00000000E+00  0.00000000E+00  0.00000000E+00
  0.00000000E+00  0.00000000E+00  0.00000000E+00
  0.00000000E+00  0.00000000E+00  0.00000000E+00
  0.00000000E+00  0.00000000E+00  0.00000000E+00
  0.00000000E+00  0.00000000E+00  0.00000000E+00
  0.00000000E+00  0.00000000E+00  0.00000000E+00
  0.00000000E+00  0.00000000E+00  0.00000000E+00
  0.00000000E+00  0.00000000E+00  0.00000000E+00
  0.00000000E+00  0.00000000E+00  0.00000000E+00
  0.00000000E+00  0.00000000E+00  0.00000000E+00
  0.00000000E+00  0.00000000E+00  0.00000000E+00
  0.00000000E+00  0.00000000E+00  0.00000000E+00
  0.00000000E+00  0.00000000E+00  0.00000000E+00
  0.00000000E+00  0.00000000E+00  0.00000000E+00
  0.00000000E+00  0.00000000E+00  0.00000000E+00
  0.00000000E+00  0.00000000E+00  0.00000000E+00
  0.00000000E+00  0.00000000E+00  0.00000000E+00
  0.00000000E+00  0.00000000E+00  0.00000000E+00
  0.00000000E+00  0.00000000E+00  0.00000000E+00
  0.00000000E+00  0.00000000E+00  0.00000000E+00
  0.00000000E+00  0.00000000E+00  0.00000000E+00
  0.00000000E+00  0.00000000E+00  0.00000000E+00
  0.00000000E+00  0.00000000E+00  0.00000000E+00
  0.00000000E+00  0.00000000E+00  0.00000000E+00
  0.00000000E+00  0.00000000E+00  0.00000000E+00
  0.00000000E+00  0.00000000E+00  0.00000000E+00
  0.00000000E+00  0.00000000E+00  0.00000000E+00
  0.00000000E+00  0.00000000E+00  0.00000000E+00
  0.00000000E+00  0.00000000E+00  0.00000000E+00
  0.00000000E+00  0.00000000E+00  0.00000000E+00
  0.00000000E+00  0.00000000E+00  0.00000000E+00
  0.00000000E+00  0.00000000E+00  0.00000000E+00
  0.00000000E+00  0.00000000E+00  0.00000000E+00
  0.00000000E+00  0.00000000E+00  0.00000000E+00
  0.00000000E+00  0.00000000E+00  0.00000000E+00
  0.00000000E+00  0.00000000E+00  0.00000000E+00
  0.00000000E+00  0.00000000E+00  0.00000000E+00
  0.00000000E+00  0.00000000E+00  0.00000000E+00
  0.00000000E+00  0.00000000E+00  0.00000000E+00
  0.00000000E+00  0.00000000E+00  0.00000000E+00
  0.00000000E+00  0.00000000E+00  0.00000000E+00
