 Rb2 Mn2 P2                             
   1.00000000000000     
     3.7787880767001987    0.0000000000000000    0.0000000000000000
     0.0000000000000000    3.7787853187536844    0.0000000000000000
     0.0000000000000000    0.0000000000000000   21.6329944444400013
   Rb   Mn   P 
     2     2     2
Direct
  0.5000000791732395 -0.0000001144469890  0.3471556640052125
 -0.0000000082277877  0.5000000634574104  0.6528433889153202
  0.4999999697105887  0.5000000161494701  0.5000001754119037
 -0.0000000148652328  0.0000000151654598  0.5000002969824542
  0.4999999899893515  0.0000000144668811  0.5588623876713184
 -0.0000000157801593  0.5000000052077678  0.4411380870137910
 
  0.00000000E+00  0.00000000E+00  0.00000000E+00
  0.00000000E+00  0.00000000E+00  0.00000000E+00
  0.00000000E+00  0.00000000E+00  0.00000000E+00
  0.00000000E+00  0.00000000E+00  0.00000000E+00
  0.00000000E+00  0.00000000E+00  0.00000000E+00
  0.00000000E+00  0.00000000E+00  0.00000000E+00
