CONTCAR                                 
   1.00000000000000     
    15.1738004683999996    0.0000000000000000    0.0000000000000000
     7.5869002341999998   13.1408966776000007    0.0000000000000000
     0.0000000000000000    0.0000000000000000   21.6410999297999993
   Tb   Br   O    H 
    32    32     2     1
Selective dynamics
Direct
  0.0839160596037942  0.0811097156544847  0.4336745103597792   F   F   F
  0.1678302586643952  0.1648864184117542  0.5613740381668535   F   F   F
  0.3341720713692524  0.0819277713816646  0.4330339335352136   F   F   F
  0.4190635315914832  0.1591119926015878  0.5619235668152101   F   F   F
  0.5849305000937051  0.0791121902061107  0.4324580472816777   F   F   F
  0.6707257404429470  0.1591755669649615  0.5618579459971187   F   F   F
  0.8327862705288851  0.0821612322941689  0.4328053391558342   F   F   F
  0.9161126200219698  0.1650485783885856  0.5612545580772945   F   F   F
  0.0848437801022115  0.3311994378451502  0.4329714988880866   F   F   F
  0.1622861082796163  0.4161654436544566  0.5616750612879571   F   F   F
  0.3366363070077583  0.3336051959282713  0.4400357398801589   F   F   F
  0.4170565618593116  0.4133902210484663  0.6196358177767607   F   F   F
  0.5784180087890363  0.3337141168825255  0.4400699853963133   F   F   F
  0.6698353759947793  0.4161353912291261  0.5619691088609642   F   F   F
  0.8325904290715656  0.3313630422711924  0.4329898676540864   F   F   F
  0.9179265590401968  0.4126184093943124  0.5593555105733543   F   F   F
  0.0821151296068408  0.5819388080571244  0.4321374878929873   F   F   F
  0.1624782785106902  0.6674878098192067  0.5614065768664247   F   F   F
  0.3366886279901991  0.5754882532335515  0.4395436131037229   F   F   F
  0.4189288945568492  0.6670037705809193  0.5618101806708111   F   F   F
  0.5848346892207132  0.5818677086760786  0.4324230310010009   F   F   F
  0.6680562889421893  0.6648898501082385  0.5600646932338762   F   F   F
  0.8340126580986009  0.5809103322698732  0.4319271764546002   F   F   F
  0.9157302709528992  0.6650509491439607  0.5599332816093039   F   F   F
  0.0849997117101893  0.8301283803638668  0.4325193898729935   F   F   F
  0.1678388102760167  0.9133157505839478  0.5611943446190395   F   F   F
  0.3341315611010742  0.8298098318240648  0.4328704643685199   F   F   F
  0.4156307553115894  0.9148987009466722  0.5593327597417712   F   F   F
  0.5838696518497386  0.8309685720582038  0.4319317233294910   F   F   F
  0.6683420097161346  0.9123215914460587  0.5600387718208779   F   F   F
  0.8341098436263934  0.8310674282327142  0.4317659550598449   F   F   F
  0.9184295979629979  0.9151542439881837  0.5590803961780679   F   F   F
  0.0005331026808619  0.9984498261678496  0.3441821121069282   F   F   F
  0.0007105620580248  0.9981105213715011  0.6496724513855483   F   F   F
  0.2505045295912183  0.9978948247449964  0.3445665767730759   F   F   F
  0.2505388563156501  0.9978583994382717  0.6498498468775864   F   F   F
  0.4998541519206725  0.9983718843414451  0.3430429675360642   F   F   F
  0.5020386649640258  0.9905901303974005  0.6493452090718534   F   F   F
  0.7506604388111953  0.9986095331083575  0.3428984429043282   F   F   F
  0.7564978975290160  0.9906624057497027  0.6491805675837625   F   F   F
  0.0005747611310980  0.2477688307558665  0.3445650029314109   F   F   F
  0.0007615186580097  0.2475533275334456  0.6499435105764277   F   F   F
  0.2536718628645787  0.2506953262589562  0.3471840200053009   F   F   F
  0.2514194539638979  0.2488186487862762  0.6505841876301801   F   F   F
  0.4993820161342768  0.2502005440265478  0.3480217590129300   F   F   F
  0.5201456719108322  0.2088410195167469  0.6569384779636209   F   F   F
  0.7441944000445986  0.2511869636738524  0.3471163225932159   F   F   F
  0.7489219494704500  0.2485354518496408  0.6506156665021123   F   F   F
  0.0012962711955495  0.4968525899618896  0.3429117735353984   F   F   F
  0.9941731107089637  0.4987067607480284  0.6493436088451645   F   F   F
  0.2532501140526264  0.4962567422932480  0.3476443990705178   F   F   F
  0.2131374993222082  0.5170247318949848  0.6562623430109440   F   F   F
  0.4996068709701902  0.4963547221275633  0.3477289761413260   F   F   F
  0.5179053679866144  0.5161850774892613  0.6569807226111593   F   F   F
  0.7506738210070623  0.4971102675781225  0.3429748575478442   F   F   F
  0.7554915790464420  0.4985171836722984  0.6494602048849174   F   F   F
  0.0013206373809140  0.7480575093705113  0.3427075415095828   F   F   F
  0.9943170725445469  0.7529458136216363  0.6490493160353097   F   F   F
  0.2540082777012742  0.7414792776087538  0.3467809503645682   F   F   F
  0.2511320526656817  0.7462078604209523  0.6502086222808856   F   F   F
  0.4998691459476490  0.7478504936520523  0.3429461855695521   F   F   F
  0.5017361586963744  0.7525750017729536  0.6492952826600416   F   F   F
  0.7505250919115056  0.7477785535341610  0.3428143966805237   F   F   F
  0.7508318822716760  0.7472249823939592  0.6496216989958086   F   F   F
  0.4225164989930192  0.3999933378620923  0.7172261476175876   T   T   T
  0.3755345761194278  0.4930511529924146  0.7545939971707725   T   T   T
  0.3847467715359087  0.4627942397947963  0.7949946779010461   T   T   T
 
  0.00000000E+00  0.00000000E+00  0.00000000E+00
  0.00000000E+00  0.00000000E+00  0.00000000E+00
  0.00000000E+00  0.00000000E+00  0.00000000E+00
  0.00000000E+00  0.00000000E+00  0.00000000E+00
  0.00000000E+00  0.00000000E+00  0.00000000E+00
  0.00000000E+00  0.00000000E+00  0.00000000E+00
  0.00000000E+00  0.00000000E+00  0.00000000E+00
  0.00000000E+00  0.00000000E+00  0.00000000E+00
  0.00000000E+00  0.00000000E+00  0.00000000E+00
  0.00000000E+00  0.00000000E+00  0.00000000E+00
  0.00000000E+00  0.00000000E+00  0.00000000E+00
  0.00000000E+00  0.00000000E+00  0.00000000E+00
  0.00000000E+00  0.00000000E+00  0.00000000E+00
  0.00000000E+00  0.00000000E+00  0.00000000E+00
  0.00000000E+00  0.00000000E+00  0.00000000E+00
  0.00000000E+00  0.00000000E+00  0.00000000E+00
  0.00000000E+00  0.00000000E+00  0.00000000E+00
  0.00000000E+00  0.00000000E+00  0.00000000E+00
  0.00000000E+00  0.00000000E+00  0.00000000E+00
  0.00000000E+00  0.00000000E+00  0.00000000E+00
  0.00000000E+00  0.00000000E+00  0.00000000E+00
  0.00000000E+00  0.00000000E+00  0.00000000E+00
  0.00000000E+00  0.00000000E+00  0.00000000E+00
  0.00000000E+00  0.00000000E+00  0.00000000E+00
  0.00000000E+00  0.00000000E+00  0.00000000E+00
  0.00000000E+00  0.00000000E+00  0.00000000E+00
  0.00000000E+00  0.00000000E+00  0.00000000E+00
  0.00000000E+00  0.00000000E+00  0.00000000E+00
  0.00000000E+00  0.00000000E+00  0.00000000E+00
  0.00000000E+00  0.00000000E+00  0.00000000E+00
  0.00000000E+00  0.00000000E+00  0.00000000E+00
  0.00000000E+00  0.00000000E+00  0.00000000E+00
  0.00000000E+00  0.00000000E+00  0.00000000E+00
  0.00000000E+00  0.00000000E+00  0.00000000E+00
  0.00000000E+00  0.00000000E+00  0.00000000E+00
  0.00000000E+00  0.00000000E+00  0.00000000E+00
  0.00000000E+00  0.00000000E+00  0.00000000E+00
  0.00000000E+00  0.00000000E+00  0.00000000E+00
  0.00000000E+00  0.00000000E+00  0.00000000E+00
  0.00000000E+00  0.00000000E+00  0.00000000E+00
  0.00000000E+00  0.00000000E+00  0.00000000E+00
  0.00000000E+00  0.00000000E+00  0.00000000E+00
  0.00000000E+00  0.00000000E+00  0.00000000E+00
  0.00000000E+00  0.00000000E+00  0.00000000E+00
  0.00000000E+00  0.00000000E+00  0.00000000E+00
  0.00000000E+00  0.00000000E+00  0.00000000E+00
  0.00000000E+00  0.00000000E+00  0.00000000E+00
  0.00000000E+00  0.00000000E+00  0.00000000E+00
  0.00000000E+00  0.00000000E+00  0.00000000E+00
  0.00000000E+00  0.00000000E+00  0.00000000E+00
  0.00000000E+00  0.00000000E+00  0.00000000E+00
  0.00000000E+00  0.00000000E+00  0.00000000E+00
  0.00000000E+00  0.00000000E+00  0.00000000E+00
  0.00000000E+00  0.00000000E+00  0.00000000E+00
  0.00000000E+00  0.00000000E+00  0.00000000E+00
  0.00000000E+00  0.00000000E+00  0.00000000E+00
  0.00000000E+00  0.00000000E+00  0.00000000E+00
  0.00000000E+00  0.00000000E+00  0.00000000E+00
  0.00000000E+00  0.00000000E+00  0.00000000E+00
  0.00000000E+00  0.00000000E+00  0.00000000E+00
  0.00000000E+00  0.00000000E+00  0.00000000E+00
  0.00000000E+00  0.00000000E+00  0.00000000E+00
  0.00000000E+00  0.00000000E+00  0.00000000E+00
  0.00000000E+00  0.00000000E+00  0.00000000E+00
  0.00000000E+00  0.00000000E+00  0.00000000E+00
  0.00000000E+00  0.00000000E+00  0.00000000E+00
  0.00000000E+00  0.00000000E+00  0.00000000E+00
