CONTCAR                                 
   1.00000000000000     
    11.8208999634000005    0.0000000000000000    0.0000000000000000
     2.9552306013999998    8.5110336759000003    0.0000000000000000
     0.0000000000000000    0.0000000000000000   24.9838008880999993
   Na   Ti   S    O 
     6    20    40     1
Direct
  0.1432965160275174 -0.0010028117844129  0.4988166833077941
  0.3658463905504840  0.3745217731672224  0.5022092247191465
  0.0547377550104407  0.6177347279351937  0.5020152182771576
  0.6452434274320769 -0.0020036479503033  0.4989857644823070
  0.8665089424928414  0.3778000670509238  0.5022434479019028
  0.5583279721520591  0.6141937700540913  0.5017992217654831
  0.4347130779087393  0.7962764384556744  0.6378041366224521
  0.1382446267295981 -0.0046742716540187  0.6401089318673095
  0.4681434261238164  0.0003678448649699  0.3610487829716519
  0.3352471245905623  0.1959816334919123  0.6397997216551825
  0.1696819616617589  0.1989262325863264  0.3611988808662450
  0.0358824449760008  0.3941316768206227  0.6408037548255845
  0.3675963362330327  0.4015091656514499  0.3600973278526591
  0.2345235448232078  0.5940274556496430  0.6382858334412638
  0.0679383953205500  0.5995104847640467  0.3600627585063750
  0.2687792308375888  0.8018739105986301  0.3613470586093224
  0.9343702075337301  0.7946676387329712  0.6399053166104373
  0.6359920393217274 -0.0074693596006949  0.6421494200481398
  0.9681912532689951  0.0003870025000217  0.3608850284318185
  0.8391732189351329  0.1891519574816393  0.6406302387022480
  0.6695963202908540  0.1988630388244745  0.3612124574184484
  0.5356733067291209  0.3931464850049133  0.6399115175734857
  0.8675650499643222  0.4013818455975533  0.3599580192164660
  0.7327306814595688  0.5927255033469303  0.6403459414469154
  0.5678373935536571  0.5995918336929023  0.3601323669185568
  0.7685949325534887  0.8019286117468094  0.3612695059367566
  0.1019242205568742  0.7970763282218097  0.5814111548136234
  0.4348904326205975  0.8002933959934133  0.3047312113102332
  0.3043546714679118 -0.0039910797551134  0.5808126893329961
  0.1352469194009178  0.0002127895240330  0.3049377482361825
  0.0028133321827724  0.1941602981370412  0.5813891032657867
  0.3351448151270260  0.2003088026812112  0.3046803997664396
  0.1990825299515834  0.3920367288163816  0.5801184942883220
  0.4674105854122669 -0.0068066158055482  0.6957695446468734
  0.0352308944549746  0.3995408848703317  0.3045972877459364
  0.3047762716449874  0.0005432550439621  0.4197849433680341
  0.4005598788169372  0.5934828066836193  0.5801088066101577
  0.1708722673183347  0.1934726653486118  0.6964229733811381
  0.2347663225716234  0.6011516819219430  0.3046611026033218
  0.0022635549241946  0.2007338050283093  0.4193577320769785
  0.3683768543846307  0.3970474077589856  0.6951164355415093
  0.2001786580612099  0.4003089360033159  0.4197585903173840
  0.0700798738965441  0.5957373189940710  0.6954708509687827
  0.4000955372504415  0.6003498412529267  0.4198879833368396
  0.2707369344300308  0.7924818974076043  0.6963619893839071
  0.1020792505115606  0.7998158394261115  0.4195216632565165
  0.6051629649607028  0.7957928531986603  0.5810026156026840
  0.9348517346931638  0.8002536034309640  0.3046665208363661
  0.8042430182769649  0.9942216987987077  0.5819874753262565
  0.6350538187573957  0.0002602329463341  0.3049523046706060
  0.5047199682916286  0.1912055702076343  0.5817005503690345
  0.8349843564055024  0.2003553924350546  0.3045856646740667
  0.7011182968548920  0.3921037227846170  0.5812431596074387
  0.9716611377929492 -0.0082943875498250  0.6963501396273315
  0.5351860248831228  0.3995209819328648  0.3046599337758732
  0.8049662515142622  0.0004179098258523  0.4196811315751365
  0.8996987143344527  0.5939402441545049  0.5815099465907639
  0.6691594540120610  0.1949025863377860  0.6962522990991211
  0.7345862385427374  0.6011366948163037  0.3046222443039006
  0.5024770169721635  0.2005879376105450  0.4194753635555708
  0.8691275326656850  0.3938292869332893  0.6959676451192590
  0.7004593822980472  0.4000298087202676  0.4197830324907684
  0.5663964369892287  0.5951049488478871  0.6952842762707070
  0.8999513584953990  0.6003433094086734  0.4197736754739563
  0.7694825967293919  0.7922234369845116  0.6966450925144727
  0.6021248926294465  0.7998082100045851  0.4195515018683259
  0.2736694334344643  0.7883611365882662  0.7563085884223129
 
  0.00000000E+00  0.00000000E+00  0.00000000E+00
  0.00000000E+00  0.00000000E+00  0.00000000E+00
  0.00000000E+00  0.00000000E+00  0.00000000E+00
  0.00000000E+00  0.00000000E+00  0.00000000E+00
  0.00000000E+00  0.00000000E+00  0.00000000E+00
  0.00000000E+00  0.00000000E+00  0.00000000E+00
  0.00000000E+00  0.00000000E+00  0.00000000E+00
  0.00000000E+00  0.00000000E+00  0.00000000E+00
  0.00000000E+00  0.00000000E+00  0.00000000E+00
  0.00000000E+00  0.00000000E+00  0.00000000E+00
  0.00000000E+00  0.00000000E+00  0.00000000E+00
  0.00000000E+00  0.00000000E+00  0.00000000E+00
  0.00000000E+00  0.00000000E+00  0.00000000E+00
  0.00000000E+00  0.00000000E+00  0.00000000E+00
  0.00000000E+00  0.00000000E+00  0.00000000E+00
  0.00000000E+00  0.00000000E+00  0.00000000E+00
  0.00000000E+00  0.00000000E+00  0.00000000E+00
  0.00000000E+00  0.00000000E+00  0.00000000E+00
  0.00000000E+00  0.00000000E+00  0.00000000E+00
  0.00000000E+00  0.00000000E+00  0.00000000E+00
  0.00000000E+00  0.00000000E+00  0.00000000E+00
  0.00000000E+00  0.00000000E+00  0.00000000E+00
  0.00000000E+00  0.00000000E+00  0.00000000E+00
  0.00000000E+00  0.00000000E+00  0.00000000E+00
  0.00000000E+00  0.00000000E+00  0.00000000E+00
  0.00000000E+00  0.00000000E+00  0.00000000E+00
  0.00000000E+00  0.00000000E+00  0.00000000E+00
  0.00000000E+00  0.00000000E+00  0.00000000E+00
  0.00000000E+00  0.00000000E+00  0.00000000E+00
  0.00000000E+00  0.00000000E+00  0.00000000E+00
  0.00000000E+00  0.00000000E+00  0.00000000E+00
  0.00000000E+00  0.00000000E+00  0.00000000E+00
  0.00000000E+00  0.00000000E+00  0.00000000E+00
  0.00000000E+00  0.00000000E+00  0.00000000E+00
  0.00000000E+00  0.00000000E+00  0.00000000E+00
  0.00000000E+00  0.00000000E+00  0.00000000E+00
  0.00000000E+00  0.00000000E+00  0.00000000E+00
  0.00000000E+00  0.00000000E+00  0.00000000E+00
  0.00000000E+00  0.00000000E+00  0.00000000E+00
  0.00000000E+00  0.00000000E+00  0.00000000E+00
  0.00000000E+00  0.00000000E+00  0.00000000E+00
  0.00000000E+00  0.00000000E+00  0.00000000E+00
  0.00000000E+00  0.00000000E+00  0.00000000E+00
  0.00000000E+00  0.00000000E+00  0.00000000E+00
  0.00000000E+00  0.00000000E+00  0.00000000E+00
  0.00000000E+00  0.00000000E+00  0.00000000E+00
  0.00000000E+00  0.00000000E+00  0.00000000E+00
  0.00000000E+00  0.00000000E+00  0.00000000E+00
  0.00000000E+00  0.00000000E+00  0.00000000E+00
  0.00000000E+00  0.00000000E+00  0.00000000E+00
  0.00000000E+00  0.00000000E+00  0.00000000E+00
  0.00000000E+00  0.00000000E+00  0.00000000E+00
  0.00000000E+00  0.00000000E+00  0.00000000E+00
  0.00000000E+00  0.00000000E+00  0.00000000E+00
  0.00000000E+00  0.00000000E+00  0.00000000E+00
  0.00000000E+00  0.00000000E+00  0.00000000E+00
  0.00000000E+00  0.00000000E+00  0.00000000E+00
  0.00000000E+00  0.00000000E+00  0.00000000E+00
  0.00000000E+00  0.00000000E+00  0.00000000E+00
  0.00000000E+00  0.00000000E+00  0.00000000E+00
  0.00000000E+00  0.00000000E+00  0.00000000E+00
  0.00000000E+00  0.00000000E+00  0.00000000E+00
  0.00000000E+00  0.00000000E+00  0.00000000E+00
  0.00000000E+00  0.00000000E+00  0.00000000E+00
  0.00000000E+00  0.00000000E+00  0.00000000E+00
  0.00000000E+00  0.00000000E+00  0.00000000E+00
  0.00000000E+00  0.00000000E+00  0.00000000E+00
