 K1 V4 O10                              
   1.00000000000000     
     3.5999781192210176    0.0000000000000000    0.0000000000000000
    -1.7999885742227748    5.5365899968013279    0.0000000000000000
     0.0000000000000000    0.0000000000000000   23.2911750450979973
   K    V    O 
     1     4    10
Direct
  0.4001293487273969  0.7998522995067106  0.5000009117178763
  0.2270369812714961  0.4542871256140657  0.3496617078462165
  0.2270277283736633  0.4542758325591123  0.6503403974211253
  0.9330353583315301  0.8660073832555284  0.3485287028755124
  0.9330445168390753  0.8660245834753937  0.6514706381280462
  0.0800786236158260  0.1601243728696744  0.3182591332373761
  0.2119905254680248  0.4241644844899923  0.5815397827806876
  0.2119883666297611  0.4241601755960644  0.4184538824857356
  0.0800785036692204  0.1601238384448322  0.6817525771514212
  0.4020767913860723  0.8041515010901534  0.3296562584511449
  0.4020722189052464  0.8041421055376006  0.6703425013245194
  0.7580637176468272  0.5162282893493995  0.3299753036522972
  0.9494307023419353  0.8986591329556930  0.4177215828526357
  0.7580739528433114  0.5162545320504890  0.6700237338699253
  0.9494356639506307  0.8986683432052800  0.5822728862054660
 
  0.00000000E+00  0.00000000E+00  0.00000000E+00
  0.00000000E+00  0.00000000E+00  0.00000000E+00
  0.00000000E+00  0.00000000E+00  0.00000000E+00
  0.00000000E+00  0.00000000E+00  0.00000000E+00
  0.00000000E+00  0.00000000E+00  0.00000000E+00
  0.00000000E+00  0.00000000E+00  0.00000000E+00
  0.00000000E+00  0.00000000E+00  0.00000000E+00
  0.00000000E+00  0.00000000E+00  0.00000000E+00
  0.00000000E+00  0.00000000E+00  0.00000000E+00
  0.00000000E+00  0.00000000E+00  0.00000000E+00
  0.00000000E+00  0.00000000E+00  0.00000000E+00
  0.00000000E+00  0.00000000E+00  0.00000000E+00
  0.00000000E+00  0.00000000E+00  0.00000000E+00
  0.00000000E+00  0.00000000E+00  0.00000000E+00
  0.00000000E+00  0.00000000E+00  0.00000000E+00
