G   58   36    1    0.005     # Parameters to Generate KPOINTS (Don't Edit This Line)
    1046
Reciprocal lattice
    0.000000000000    0.000000000000    0.000000000000       1
    0.017241379310    0.000000000000    0.000000000000       2
    0.034482758621    0.000000000000    0.000000000000       2
    0.051724137931    0.000000000000    0.000000000000       2
    0.068965517241    0.000000000000    0.000000000000       2
    0.086206896552    0.000000000000    0.000000000000       2
    0.103448275862    0.000000000000    0.000000000000       2
    0.120689655172    0.000000000000    0.000000000000       2
    0.137931034483    0.000000000000    0.000000000000       2
    0.155172413793    0.000000000000    0.000000000000       2
    0.172413793103    0.000000000000    0.000000000000       2
    0.189655172414    0.000000000000    0.000000000000       2
    0.206896551724    0.000000000000    0.000000000000       2
    0.224137931034    0.000000000000    0.000000000000       2
    0.241379310345    0.000000000000    0.000000000000       2
    0.258620689655    0.000000000000    0.000000000000       2
    0.275862068966    0.000000000000    0.000000000000       2
    0.293103448276    0.000000000000    0.000000000000       2
    0.310344827586    0.000000000000    0.000000000000       2
    0.327586206897    0.000000000000    0.000000000000       2
    0.344827586207    0.000000000000    0.000000000000       2
    0.362068965517    0.000000000000    0.000000000000       2
    0.379310344828    0.000000000000    0.000000000000       2
    0.396551724138    0.000000000000    0.000000000000       2
    0.413793103448    0.000000000000    0.000000000000       2
    0.431034482759    0.000000000000    0.000000000000       2
    0.448275862069    0.000000000000    0.000000000000       2
    0.465517241379    0.000000000000    0.000000000000       2
    0.482758620690    0.000000000000    0.000000000000       2
    0.500000000000    0.000000000000    0.000000000000       1
    0.000000000000    0.027777777778    0.000000000000       2
    0.017241379310    0.027777777778    0.000000000000       2
    0.034482758621    0.027777777778    0.000000000000       2
    0.051724137931    0.027777777778    0.000000000000       2
    0.068965517241    0.027777777778    0.000000000000       2
    0.086206896552    0.027777777778    0.000000000000       2
    0.103448275862    0.027777777778    0.000000000000       2
    0.120689655172    0.027777777778    0.000000000000       2
    0.137931034483    0.027777777778    0.000000000000       2
    0.155172413793    0.027777777778    0.000000000000       2
    0.172413793103    0.027777777778    0.000000000000       2
    0.189655172414    0.027777777778    0.000000000000       2
    0.206896551724    0.027777777778    0.000000000000       2
    0.224137931034    0.027777777778    0.000000000000       2
    0.241379310345    0.027777777778    0.000000000000       2
    0.258620689655    0.027777777778    0.000000000000       2
    0.275862068966    0.027777777778    0.000000000000       2
    0.293103448276    0.027777777778    0.000000000000       2
    0.310344827586    0.027777777778    0.000000000000       2
    0.327586206897    0.027777777778    0.000000000000       2
    0.344827586207    0.027777777778    0.000000000000       2
    0.362068965517    0.027777777778    0.000000000000       2
    0.379310344828    0.027777777778    0.000000000000       2
    0.396551724138    0.027777777778    0.000000000000       2
    0.413793103448    0.027777777778    0.000000000000       2
    0.431034482759    0.027777777778    0.000000000000       2
    0.448275862069    0.027777777778    0.000000000000       2
    0.465517241379    0.027777777778    0.000000000000       2
    0.482758620690    0.027777777778    0.000000000000       2
    0.500000000000    0.027777777778    0.000000000000       2
   -0.482758620690    0.027777777778    0.000000000000       2
   -0.465517241379    0.027777777778    0.000000000000       2
   -0.448275862069    0.027777777778    0.000000000000       2
   -0.431034482759    0.027777777778    0.000000000000       2
   -0.413793103448    0.027777777778    0.000000000000       2
   -0.396551724138    0.027777777778    0.000000000000       2
   -0.379310344828    0.027777777778    0.000000000000       2
   -0.362068965517    0.027777777778    0.000000000000       2
   -0.344827586207    0.027777777778    0.000000000000       2
   -0.327586206897    0.027777777778    0.000000000000       2
   -0.310344827586    0.027777777778    0.000000000000       2
   -0.293103448276    0.027777777778    0.000000000000       2
   -0.275862068966    0.027777777778    0.000000000000       2
   -0.258620689655    0.027777777778    0.000000000000       2
   -0.241379310345    0.027777777778    0.000000000000       2
   -0.224137931034    0.027777777778    0.000000000000       2
   -0.206896551724    0.027777777778    0.000000000000       2
   -0.189655172414    0.027777777778    0.000000000000       2
   -0.172413793103    0.027777777778    0.000000000000       2
   -0.155172413793    0.027777777778    0.000000000000       2
   -0.137931034483    0.027777777778    0.000000000000       2
   -0.120689655172    0.027777777778    0.000000000000       2
   -0.103448275862    0.027777777778    0.000000000000       2
   -0.086206896552    0.027777777778    0.000000000000       2
   -0.068965517241    0.027777777778    0.000000000000       2
   -0.051724137931    0.027777777778    0.000000000000       2
   -0.034482758621    0.027777777778    0.000000000000       2
   -0.017241379310    0.027777777778    0.000000000000       2
    0.000000000000    0.055555555556    0.000000000000       2
    0.017241379310    0.055555555556    0.000000000000       2
    0.034482758621    0.055555555556    0.000000000000       2
    0.051724137931    0.055555555556    0.000000000000       2
    0.068965517241    0.055555555556    0.000000000000       2
    0.086206896552    0.055555555556    0.000000000000       2
    0.103448275862    0.055555555556    0.000000000000       2
    0.120689655172    0.055555555556    0.000000000000       2
    0.137931034483    0.055555555556    0.000000000000       2
    0.155172413793    0.055555555556    0.000000000000       2
    0.172413793103    0.055555555556    0.000000000000       2
    0.189655172414    0.055555555556    0.000000000000       2
    0.206896551724    0.055555555556    0.000000000000       2
    0.224137931034    0.055555555556    0.000000000000       2
    0.241379310345    0.055555555556    0.000000000000       2
    0.258620689655    0.055555555556    0.000000000000       2
    0.275862068966    0.055555555556    0.000000000000       2
    0.293103448276    0.055555555556    0.000000000000       2
    0.310344827586    0.055555555556    0.000000000000       2
    0.327586206897    0.055555555556    0.000000000000       2
    0.344827586207    0.055555555556    0.000000000000       2
    0.362068965517    0.055555555556    0.000000000000       2
    0.379310344828    0.055555555556    0.000000000000       2
    0.396551724138    0.055555555556    0.000000000000       2
    0.413793103448    0.055555555556    0.000000000000       2
    0.431034482759    0.055555555556    0.000000000000       2
    0.448275862069    0.055555555556    0.000000000000       2
    0.465517241379    0.055555555556    0.000000000000       2
    0.482758620690    0.055555555556    0.000000000000       2
    0.500000000000    0.055555555556    0.000000000000       2
   -0.482758620690    0.055555555556    0.000000000000       2
   -0.465517241379    0.055555555556    0.000000000000       2
   -0.448275862069    0.055555555556    0.000000000000       2
   -0.431034482759    0.055555555556    0.000000000000       2
   -0.413793103448    0.055555555556    0.000000000000       2
   -0.396551724138    0.055555555556    0.000000000000       2
   -0.379310344828    0.055555555556    0.000000000000       2
   -0.362068965517    0.055555555556    0.000000000000       2
   -0.344827586207    0.055555555556    0.000000000000       2
   -0.327586206897    0.055555555556    0.000000000000       2
   -0.310344827586    0.055555555556    0.000000000000       2
   -0.293103448276    0.055555555556    0.000000000000       2
   -0.275862068966    0.055555555556    0.000000000000       2
   -0.258620689655    0.055555555556    0.000000000000       2
   -0.241379310345    0.055555555556    0.000000000000       2
   -0.224137931034    0.055555555556    0.000000000000       2
   -0.206896551724    0.055555555556    0.000000000000       2
   -0.189655172414    0.055555555556    0.000000000000       2
   -0.172413793103    0.055555555556    0.000000000000       2
   -0.155172413793    0.055555555556    0.000000000000       2
   -0.137931034483    0.055555555556    0.000000000000       2
   -0.120689655172    0.055555555556    0.000000000000       2
   -0.103448275862    0.055555555556    0.000000000000       2
   -0.086206896552    0.055555555556    0.000000000000       2
   -0.068965517241    0.055555555556    0.000000000000       2
   -0.051724137931    0.055555555556    0.000000000000       2
   -0.034482758621    0.055555555556    0.000000000000       2
   -0.017241379310    0.055555555556    0.000000000000       2
    0.000000000000    0.083333333333    0.000000000000       2
    0.017241379310    0.083333333333    0.000000000000       2
    0.034482758621    0.083333333333    0.000000000000       2
    0.051724137931    0.083333333333    0.000000000000       2
    0.068965517241    0.083333333333    0.000000000000       2
    0.086206896552    0.083333333333    0.000000000000       2
    0.103448275862    0.083333333333    0.000000000000       2
    0.120689655172    0.083333333333    0.000000000000       2
    0.137931034483    0.083333333333    0.000000000000       2
    0.155172413793    0.083333333333    0.000000000000       2
    0.172413793103    0.083333333333    0.000000000000       2
    0.189655172414    0.083333333333    0.000000000000       2
    0.206896551724    0.083333333333    0.000000000000       2
    0.224137931034    0.083333333333    0.000000000000       2
    0.241379310345    0.083333333333    0.000000000000       2
    0.258620689655    0.083333333333    0.000000000000       2
    0.275862068966    0.083333333333    0.000000000000       2
    0.293103448276    0.083333333333    0.000000000000       2
    0.310344827586    0.083333333333    0.000000000000       2
    0.327586206897    0.083333333333    0.000000000000       2
    0.344827586207    0.083333333333    0.000000000000       2
    0.362068965517    0.083333333333    0.000000000000       2
    0.379310344828    0.083333333333    0.000000000000       2
    0.396551724138    0.083333333333    0.000000000000       2
    0.413793103448    0.083333333333    0.000000000000       2
    0.431034482759    0.083333333333    0.000000000000       2
    0.448275862069    0.083333333333    0.000000000000       2
    0.465517241379    0.083333333333    0.000000000000       2
    0.482758620690    0.083333333333    0.000000000000       2
    0.500000000000    0.083333333333    0.000000000000       2
   -0.482758620690    0.083333333333    0.000000000000       2
   -0.465517241379    0.083333333333    0.000000000000       2
   -0.448275862069    0.083333333333    0.000000000000       2
   -0.431034482759    0.083333333333    0.000000000000       2
   -0.413793103448    0.083333333333    0.000000000000       2
   -0.396551724138    0.083333333333    0.000000000000       2
   -0.379310344828    0.083333333333    0.000000000000       2
   -0.362068965517    0.083333333333    0.000000000000       2
   -0.344827586207    0.083333333333    0.000000000000       2
   -0.327586206897    0.083333333333    0.000000000000       2
   -0.310344827586    0.083333333333    0.000000000000       2
   -0.293103448276    0.083333333333    0.000000000000       2
   -0.275862068966    0.083333333333    0.000000000000       2
   -0.258620689655    0.083333333333    0.000000000000       2
   -0.241379310345    0.083333333333    0.000000000000       2
   -0.224137931034    0.083333333333    0.000000000000       2
   -0.206896551724    0.083333333333    0.000000000000       2
   -0.189655172414    0.083333333333    0.000000000000       2
   -0.172413793103    0.083333333333    0.000000000000       2
   -0.155172413793    0.083333333333    0.000000000000       2
   -0.137931034483    0.083333333333    0.000000000000       2
   -0.120689655172    0.083333333333    0.000000000000       2
   -0.103448275862    0.083333333333    0.000000000000       2
   -0.086206896552    0.083333333333    0.000000000000       2
   -0.068965517241    0.083333333333    0.000000000000       2
   -0.051724137931    0.083333333333    0.000000000000       2
   -0.034482758621    0.083333333333    0.000000000000       2
   -0.017241379310    0.083333333333    0.000000000000       2
    0.000000000000    0.111111111111    0.000000000000       2
    0.017241379310    0.111111111111    0.000000000000       2
    0.034482758621    0.111111111111    0.000000000000       2
    0.051724137931    0.111111111111    0.000000000000       2
    0.068965517241    0.111111111111    0.000000000000       2
    0.086206896552    0.111111111111    0.000000000000       2
    0.103448275862    0.111111111111    0.000000000000       2
    0.120689655172    0.111111111111    0.000000000000       2
    0.137931034483    0.111111111111    0.000000000000       2
    0.155172413793    0.111111111111    0.000000000000       2
    0.172413793103    0.111111111111    0.000000000000       2
    0.189655172414    0.111111111111    0.000000000000       2
    0.206896551724    0.111111111111    0.000000000000       2
    0.224137931034    0.111111111111    0.000000000000       2
    0.241379310345    0.111111111111    0.000000000000       2
    0.258620689655    0.111111111111    0.000000000000       2
    0.275862068966    0.111111111111    0.000000000000       2
    0.293103448276    0.111111111111    0.000000000000       2
    0.310344827586    0.111111111111    0.000000000000       2
    0.327586206897    0.111111111111    0.000000000000       2
    0.344827586207    0.111111111111    0.000000000000       2
    0.362068965517    0.111111111111    0.000000000000       2
    0.379310344828    0.111111111111    0.000000000000       2
    0.396551724138    0.111111111111    0.000000000000       2
    0.413793103448    0.111111111111    0.000000000000       2
    0.431034482759    0.111111111111    0.000000000000       2
    0.448275862069    0.111111111111    0.000000000000       2
    0.465517241379    0.111111111111    0.000000000000       2
    0.482758620690    0.111111111111    0.000000000000       2
    0.500000000000    0.111111111111    0.000000000000       2
   -0.482758620690    0.111111111111    0.000000000000       2
   -0.465517241379    0.111111111111    0.000000000000       2
   -0.448275862069    0.111111111111    0.000000000000       2
   -0.431034482759    0.111111111111    0.000000000000       2
   -0.413793103448    0.111111111111    0.000000000000       2
   -0.396551724138    0.111111111111    0.000000000000       2
   -0.379310344828    0.111111111111    0.000000000000       2
   -0.362068965517    0.111111111111    0.000000000000       2
   -0.344827586207    0.111111111111    0.000000000000       2
   -0.327586206897    0.111111111111    0.000000000000       2
   -0.310344827586    0.111111111111    0.000000000000       2
   -0.293103448276    0.111111111111    0.000000000000       2
   -0.275862068966    0.111111111111    0.000000000000       2
   -0.258620689655    0.111111111111    0.000000000000       2
   -0.241379310345    0.111111111111    0.000000000000       2
   -0.224137931034    0.111111111111    0.000000000000       2
   -0.206896551724    0.111111111111    0.000000000000       2
   -0.189655172414    0.111111111111    0.000000000000       2
   -0.172413793103    0.111111111111    0.000000000000       2
   -0.155172413793    0.111111111111    0.000000000000       2
   -0.137931034483    0.111111111111    0.000000000000       2
   -0.120689655172    0.111111111111    0.000000000000       2
   -0.103448275862    0.111111111111    0.000000000000       2
   -0.086206896552    0.111111111111    0.000000000000       2
   -0.068965517241    0.111111111111    0.000000000000       2
   -0.051724137931    0.111111111111    0.000000000000       2
   -0.034482758621    0.111111111111    0.000000000000       2
   -0.017241379310    0.111111111111    0.000000000000       2
    0.000000000000    0.138888888889    0.000000000000       2
    0.017241379310    0.138888888889    0.000000000000       2
    0.034482758621    0.138888888889    0.000000000000       2
    0.051724137931    0.138888888889    0.000000000000       2
    0.068965517241    0.138888888889    0.000000000000       2
    0.086206896552    0.138888888889    0.000000000000       2
    0.103448275862    0.138888888889    0.000000000000       2
    0.120689655172    0.138888888889    0.000000000000       2
    0.137931034483    0.138888888889    0.000000000000       2
    0.155172413793    0.138888888889    0.000000000000       2
    0.172413793103    0.138888888889    0.000000000000       2
    0.189655172414    0.138888888889    0.000000000000       2
    0.206896551724    0.138888888889    0.000000000000       2
    0.224137931034    0.138888888889    0.000000000000       2
    0.241379310345    0.138888888889    0.000000000000       2
    0.258620689655    0.138888888889    0.000000000000       2
    0.275862068966    0.138888888889    0.000000000000       2
    0.293103448276    0.138888888889    0.000000000000       2
    0.310344827586    0.138888888889    0.000000000000       2
    0.327586206897    0.138888888889    0.000000000000       2
    0.344827586207    0.138888888889    0.000000000000       2
    0.362068965517    0.138888888889    0.000000000000       2
    0.379310344828    0.138888888889    0.000000000000       2
    0.396551724138    0.138888888889    0.000000000000       2
    0.413793103448    0.138888888889    0.000000000000       2
    0.431034482759    0.138888888889    0.000000000000       2
    0.448275862069    0.138888888889    0.000000000000       2
    0.465517241379    0.138888888889    0.000000000000       2
    0.482758620690    0.138888888889    0.000000000000       2
    0.500000000000    0.138888888889    0.000000000000       2
   -0.482758620690    0.138888888889    0.000000000000       2
   -0.465517241379    0.138888888889    0.000000000000       2
   -0.448275862069    0.138888888889    0.000000000000       2
   -0.431034482759    0.138888888889    0.000000000000       2
   -0.413793103448    0.138888888889    0.000000000000       2
   -0.396551724138    0.138888888889    0.000000000000       2
   -0.379310344828    0.138888888889    0.000000000000       2
   -0.362068965517    0.138888888889    0.000000000000       2
   -0.344827586207    0.138888888889    0.000000000000       2
   -0.327586206897    0.138888888889    0.000000000000       2
   -0.310344827586    0.138888888889    0.000000000000       2
   -0.293103448276    0.138888888889    0.000000000000       2
   -0.275862068966    0.138888888889    0.000000000000       2
   -0.258620689655    0.138888888889    0.000000000000       2
   -0.241379310345    0.138888888889    0.000000000000       2
   -0.224137931034    0.138888888889    0.000000000000       2
   -0.206896551724    0.138888888889    0.000000000000       2
   -0.189655172414    0.138888888889    0.000000000000       2
   -0.172413793103    0.138888888889    0.000000000000       2
   -0.155172413793    0.138888888889    0.000000000000       2
   -0.137931034483    0.138888888889    0.000000000000       2
   -0.120689655172    0.138888888889    0.000000000000       2
   -0.103448275862    0.138888888889    0.000000000000       2
   -0.086206896552    0.138888888889    0.000000000000       2
   -0.068965517241    0.138888888889    0.000000000000       2
   -0.051724137931    0.138888888889    0.000000000000       2
   -0.034482758621    0.138888888889    0.000000000000       2
   -0.017241379310    0.138888888889    0.000000000000       2
    0.000000000000    0.166666666667    0.000000000000       2
    0.017241379310    0.166666666667    0.000000000000       2
    0.034482758621    0.166666666667    0.000000000000       2
    0.051724137931    0.166666666667    0.000000000000       2
    0.068965517241    0.166666666667    0.000000000000       2
    0.086206896552    0.166666666667    0.000000000000       2
    0.103448275862    0.166666666667    0.000000000000       2
    0.120689655172    0.166666666667    0.000000000000       2
    0.137931034483    0.166666666667    0.000000000000       2
    0.155172413793    0.166666666667    0.000000000000       2
    0.172413793103    0.166666666667    0.000000000000       2
    0.189655172414    0.166666666667    0.000000000000       2
    0.206896551724    0.166666666667    0.000000000000       2
    0.224137931034    0.166666666667    0.000000000000       2
    0.241379310345    0.166666666667    0.000000000000       2
    0.258620689655    0.166666666667    0.000000000000       2
    0.275862068966    0.166666666667    0.000000000000       2
    0.293103448276    0.166666666667    0.000000000000       2
    0.310344827586    0.166666666667    0.000000000000       2
    0.327586206897    0.166666666667    0.000000000000       2
    0.344827586207    0.166666666667    0.000000000000       2
    0.362068965517    0.166666666667    0.000000000000       2
    0.379310344828    0.166666666667    0.000000000000       2
    0.396551724138    0.166666666667    0.000000000000       2
    0.413793103448    0.166666666667    0.000000000000       2
    0.431034482759    0.166666666667    0.000000000000       2
    0.448275862069    0.166666666667    0.000000000000       2
    0.465517241379    0.166666666667    0.000000000000       2
    0.482758620690    0.166666666667    0.000000000000       2
    0.500000000000    0.166666666667    0.000000000000       2
   -0.482758620690    0.166666666667    0.000000000000       2
   -0.465517241379    0.166666666667    0.000000000000       2
   -0.448275862069    0.166666666667    0.000000000000       2
   -0.431034482759    0.166666666667    0.000000000000       2
   -0.413793103448    0.166666666667    0.000000000000       2
   -0.396551724138    0.166666666667    0.000000000000       2
   -0.379310344828    0.166666666667    0.000000000000       2
   -0.362068965517    0.166666666667    0.000000000000       2
   -0.344827586207    0.166666666667    0.000000000000       2
   -0.327586206897    0.166666666667    0.000000000000       2
   -0.310344827586    0.166666666667    0.000000000000       2
   -0.293103448276    0.166666666667    0.000000000000       2
   -0.275862068966    0.166666666667    0.000000000000       2
   -0.258620689655    0.166666666667    0.000000000000       2
   -0.241379310345    0.166666666667    0.000000000000       2
   -0.224137931034    0.166666666667    0.000000000000       2
   -0.206896551724    0.166666666667    0.000000000000       2
   -0.189655172414    0.166666666667    0.000000000000       2
   -0.172413793103    0.166666666667    0.000000000000       2
   -0.155172413793    0.166666666667    0.000000000000       2
   -0.137931034483    0.166666666667    0.000000000000       2
   -0.120689655172    0.166666666667    0.000000000000       2
   -0.103448275862    0.166666666667    0.000000000000       2
   -0.086206896552    0.166666666667    0.000000000000       2
   -0.068965517241    0.166666666667    0.000000000000       2
   -0.051724137931    0.166666666667    0.000000000000       2
   -0.034482758621    0.166666666667    0.000000000000       2
   -0.017241379310    0.166666666667    0.000000000000       2
    0.000000000000    0.194444444444    0.000000000000       2
    0.017241379310    0.194444444444    0.000000000000       2
    0.034482758621    0.194444444444    0.000000000000       2
    0.051724137931    0.194444444444    0.000000000000       2
    0.068965517241    0.194444444444    0.000000000000       2
    0.086206896552    0.194444444444    0.000000000000       2
    0.103448275862    0.194444444444    0.000000000000       2
    0.120689655172    0.194444444444    0.000000000000       2
    0.137931034483    0.194444444444    0.000000000000       2
    0.155172413793    0.194444444444    0.000000000000       2
    0.172413793103    0.194444444444    0.000000000000       2
    0.189655172414    0.194444444444    0.000000000000       2
    0.206896551724    0.194444444444    0.000000000000       2
    0.224137931034    0.194444444444    0.000000000000       2
    0.241379310345    0.194444444444    0.000000000000       2
    0.258620689655    0.194444444444    0.000000000000       2
    0.275862068966    0.194444444444    0.000000000000       2
    0.293103448276    0.194444444444    0.000000000000       2
    0.310344827586    0.194444444444    0.000000000000       2
    0.327586206897    0.194444444444    0.000000000000       2
    0.344827586207    0.194444444444    0.000000000000       2
    0.362068965517    0.194444444444    0.000000000000       2
    0.379310344828    0.194444444444    0.000000000000       2
    0.396551724138    0.194444444444    0.000000000000       2
    0.413793103448    0.194444444444    0.000000000000       2
    0.431034482759    0.194444444444    0.000000000000       2
    0.448275862069    0.194444444444    0.000000000000       2
    0.465517241379    0.194444444444    0.000000000000       2
    0.482758620690    0.194444444444    0.000000000000       2
    0.500000000000    0.194444444444    0.000000000000       2
   -0.482758620690    0.194444444444    0.000000000000       2
   -0.465517241379    0.194444444444    0.000000000000       2
   -0.448275862069    0.194444444444    0.000000000000       2
   -0.431034482759    0.194444444444    0.000000000000       2
   -0.413793103448    0.194444444444    0.000000000000       2
   -0.396551724138    0.194444444444    0.000000000000       2
   -0.379310344828    0.194444444444    0.000000000000       2
   -0.362068965517    0.194444444444    0.000000000000       2
   -0.344827586207    0.194444444444    0.000000000000       2
   -0.327586206897    0.194444444444    0.000000000000       2
   -0.310344827586    0.194444444444    0.000000000000       2
   -0.293103448276    0.194444444444    0.000000000000       2
   -0.275862068966    0.194444444444    0.000000000000       2
   -0.258620689655    0.194444444444    0.000000000000       2
   -0.241379310345    0.194444444444    0.000000000000       2
   -0.224137931034    0.194444444444    0.000000000000       2
   -0.206896551724    0.194444444444    0.000000000000       2
   -0.189655172414    0.194444444444    0.000000000000       2
   -0.172413793103    0.194444444444    0.000000000000       2
   -0.155172413793    0.194444444444    0.000000000000       2
   -0.137931034483    0.194444444444    0.000000000000       2
   -0.120689655172    0.194444444444    0.000000000000       2
   -0.103448275862    0.194444444444    0.000000000000       2
   -0.086206896552    0.194444444444    0.000000000000       2
   -0.068965517241    0.194444444444    0.000000000000       2
   -0.051724137931    0.194444444444    0.000000000000       2
   -0.034482758621    0.194444444444    0.000000000000       2
   -0.017241379310    0.194444444444    0.000000000000       2
    0.000000000000    0.222222222222    0.000000000000       2
    0.017241379310    0.222222222222    0.000000000000       2
    0.034482758621    0.222222222222    0.000000000000       2
    0.051724137931    0.222222222222    0.000000000000       2
    0.068965517241    0.222222222222    0.000000000000       2
    0.086206896552    0.222222222222    0.000000000000       2
    0.103448275862    0.222222222222    0.000000000000       2
    0.120689655172    0.222222222222    0.000000000000       2
    0.137931034483    0.222222222222    0.000000000000       2
    0.155172413793    0.222222222222    0.000000000000       2
    0.172413793103    0.222222222222    0.000000000000       2
    0.189655172414    0.222222222222    0.000000000000       2
    0.206896551724    0.222222222222    0.000000000000       2
    0.224137931034    0.222222222222    0.000000000000       2
    0.241379310345    0.222222222222    0.000000000000       2
    0.258620689655    0.222222222222    0.000000000000       2
    0.275862068966    0.222222222222    0.000000000000       2
    0.293103448276    0.222222222222    0.000000000000       2
    0.310344827586    0.222222222222    0.000000000000       2
    0.327586206897    0.222222222222    0.000000000000       2
    0.344827586207    0.222222222222    0.000000000000       2
    0.362068965517    0.222222222222    0.000000000000       2
    0.379310344828    0.222222222222    0.000000000000       2
    0.396551724138    0.222222222222    0.000000000000       2
    0.413793103448    0.222222222222    0.000000000000       2
    0.431034482759    0.222222222222    0.000000000000       2
    0.448275862069    0.222222222222    0.000000000000       2
    0.465517241379    0.222222222222    0.000000000000       2
    0.482758620690    0.222222222222    0.000000000000       2
    0.500000000000    0.222222222222    0.000000000000       2
   -0.482758620690    0.222222222222    0.000000000000       2
   -0.465517241379    0.222222222222    0.000000000000       2
   -0.448275862069    0.222222222222    0.000000000000       2
   -0.431034482759    0.222222222222    0.000000000000       2
   -0.413793103448    0.222222222222    0.000000000000       2
   -0.396551724138    0.222222222222    0.000000000000       2
   -0.379310344828    0.222222222222    0.000000000000       2
   -0.362068965517    0.222222222222    0.000000000000       2