 Ta4 Te10 Pd6                           
   1.00000000000000     
     3.6979515380122194    0.0000000000000000    0.0000000000000000
     0.0000000000000000   18.7102760940498243    0.0000000000000000
     0.0000000000000000    0.0000000000000000   19.2720756804319997
   Ta   Te   Pd
     4    10     6
Direct
  0.0000000260144688  0.9153892904151555  0.5000645548716331
  0.4999999987343244  0.4153871290646811  0.4999378593546108
  0.9999999991858743  0.1678199611391850  0.4961141249661360
  0.4999999861070634  0.6678213402484330  0.5038833312271107
  0.9999999881134798  0.7179857062811155  0.6078222795728034
  0.5000000151572621  0.8636281535097624  0.3969027858979989
  0.4999999910396937  0.2179804243167333  0.3921732035044355
  0.0000000009317489  0.3636257550304373  0.6030964721058201
  0.9999999703026532  0.6465565231413094  0.3910578013837974
  0.5000000020544988  0.1465510983028122  0.6089409122761631
  0.5000000006326744  0.5403661440541125  0.5840164069161329
  0.0000000068548829  0.0403631170738816  0.4159817922967226
  0.0000000135059821  0.4389463993669180  0.3879397061184139
  0.5000000220719656  0.9389411464948227  0.6120685279357422
  0.9999999932411328  0.3101863194520940  0.4488957072978796
  0.9999999973750633  0.7731799052784764  0.4551535992295057
  0.4999999973660181  0.2731762360049652  0.5448465847102100
  0.4999999904723467  0.8101886483480290  0.5511024463495086
  0.9999999901922649  0.5415533310246095  0.4829642807995724
  0.5000000106466018  0.0415453714524540  0.5170376231858034
 
  0.00000000E+00  0.00000000E+00  0.00000000E+00
  0.00000000E+00  0.00000000E+00  0.00000000E+00
  0.00000000E+00  0.00000000E+00  0.00000000E+00
  0.00000000E+00  0.00000000E+00  0.00000000E+00
  0.00000000E+00  0.00000000E+00  0.00000000E+00
  0.00000000E+00  0.00000000E+00  0.00000000E+00
  0.00000000E+00  0.00000000E+00  0.00000000E+00
  0.00000000E+00  0.00000000E+00  0.00000000E+00
  0.00000000E+00  0.00000000E+00  0.00000000E+00
  0.00000000E+00  0.00000000E+00  0.00000000E+00
  0.00000000E+00  0.00000000E+00  0.00000000E+00
  0.00000000E+00  0.00000000E+00  0.00000000E+00
  0.00000000E+00  0.00000000E+00  0.00000000E+00
  0.00000000E+00  0.00000000E+00  0.00000000E+00
  0.00000000E+00  0.00000000E+00  0.00000000E+00
  0.00000000E+00  0.00000000E+00  0.00000000E+00
  0.00000000E+00  0.00000000E+00  0.00000000E+00
  0.00000000E+00  0.00000000E+00  0.00000000E+00
  0.00000000E+00  0.00000000E+00  0.00000000E+00
  0.00000000E+00  0.00000000E+00  0.00000000E+00
