 Cr1 P2 S7                              
   1.00000000000000     
     6.3242477126945493    0.0000000000000000    0.0000000000000000
    -0.6335421531182733    6.2980651930018059    0.0000000000000000
     0.0000000000000000    0.0000000000000000   18.5199498743640021
   Cr   P    S 
     1     2     7
Direct
  0.5068438079470896  0.4929804679159117  0.5000013894769300
  0.9619374769556055  0.6615305107797123  0.4729949071900154
  0.3385784329435945  0.0380405273277891  0.5270256225603314
  0.8396817760788050  0.4919365076426814  0.5595413565989570
  0.4510014874806037  0.7876351319224503  0.5772487361721906
  0.7085458386854243  0.6568940150359073  0.4048392081706123
  0.0102141161860257  0.9896354813370423  0.4999890825713737
  0.3430826611985502  0.2913502329006736  0.5951483546358601
  0.2124378918010537  0.5490285093755890  0.4227337253379911
  0.5081775107232492  0.1604676157622393  0.4404776172857379
 
  0.00000000E+00  0.00000000E+00  0.00000000E+00
  0.00000000E+00  0.00000000E+00  0.00000000E+00
  0.00000000E+00  0.00000000E+00  0.00000000E+00
  0.00000000E+00  0.00000000E+00  0.00000000E+00
  0.00000000E+00  0.00000000E+00  0.00000000E+00
  0.00000000E+00  0.00000000E+00  0.00000000E+00
  0.00000000E+00  0.00000000E+00  0.00000000E+00
  0.00000000E+00  0.00000000E+00  0.00000000E+00
  0.00000000E+00  0.00000000E+00  0.00000000E+00
  0.00000000E+00  0.00000000E+00  0.00000000E+00
