CONTCAR\(8)                             
   1.00000000000000     
    13.5864000320000002    0.0000000000000000    0.0000000000000000
     0.0000000000000000   13.0711002349999994    0.0000000000000000
     0.0000000000000000    0.0000000000000000   20.1478996276999993
   Ta   Ni   Te   Se
    16    32    16    16
Direct
  0.0000000000000000  0.2029000060000001  0.5218670471898008
  0.0000000000000000  0.4528900099999973  0.4781329058101988
  0.2500000000000000  0.2029000060000001  0.5218670471898008
  0.2500000000000000  0.4528900099999973  0.4781329058101988
  0.5000000000000000  0.2029000060000001  0.5218670471898008
  0.5000000000000000  0.4528900099999973  0.4781329058101988
  0.7500000180000015  0.2029000060000001  0.5218670471898008
  0.7500000180000015  0.4528900099999973  0.4781329058101988
  0.0000000000000000  0.7029000060000001  0.5218670471898008
  0.0000000000000000  0.9528899740000014  0.4781329058101988
  0.2500000000000000  0.7029000060000001  0.5218670471898008
  0.2500000000000000  0.9528899740000014  0.4781329058101988
  0.5000000000000000  0.7029000060000001  0.5218670471898008
  0.5000000000000000  0.9528899740000014  0.4781329058101988
  0.7500000180000015  0.7029000060000001  0.5218670471898008
  0.7500000180000015  0.9528899740000014  0.4781329058101988
  0.1250000000000000  0.0495055904080388  0.5572692960598218
  0.1250000000000000  0.1062744075919611  0.4426907069401764
  0.1250000000000000  0.2995456044080385  0.4427106819401772
  0.1250000000000000  0.3562344155919561  0.5573193280598190
  0.3750000089999972  0.0495055904080388  0.5572692960598218
  0.3750000089999972  0.1062744075919611  0.4426907069401764
  0.3750000089999972  0.2995456044080385  0.4427106819401772
  0.3750000089999972  0.3562344155919561  0.5573193280598190
  0.6249999910000028  0.0495055904080388  0.5572692960598218
  0.6249999910000028  0.1062744075919611  0.4426907069401764
  0.6249999910000028  0.2995456044080385  0.4427106819401772
  0.6249999910000028  0.3562344155919561  0.5573193280598190
  0.8749999739999978  0.0495055904080388  0.5572692960598218
  0.8749999739999978  0.1062744075919611  0.4426907069401764
  0.8749999739999978  0.2995456044080385  0.4427106819401772
  0.8749999739999978  0.3562344155919561  0.5573193280598190
  0.1250000000000000  0.5495055854080420  0.5572692960598218
  0.1250000000000000  0.6062744345919597  0.4426907069401764
  0.1250000000000000  0.7995456044080385  0.4427106819401772
  0.1250000000000000  0.8562343795919602  0.5573193280598190
  0.3750000089999972  0.5495055854080420  0.5572692960598218
  0.3750000089999972  0.6062744345919597  0.4426907069401764
  0.3750000089999972  0.7995456044080385  0.4427106819401772
  0.3750000089999972  0.8562343795919602  0.5573193280598190
  0.6249999910000028  0.5495055854080420  0.5572692960598218
  0.6249999910000028  0.6062744345919597  0.4426907069401764
  0.6249999910000028  0.7995456044080385  0.4427106819401772
  0.6249999910000028  0.8562343795919602  0.5573193280598190
  0.8749999739999978  0.5495055854080420  0.5572692960598218
  0.8749999739999978  0.6062744345919597  0.4426907069401764
  0.8749999739999978  0.7995456044080385  0.4427106819401772
  0.8749999739999978  0.8562343795919602  0.5573193280598190
  0.0000000000000000  0.2029599970000007  0.3707973203087960
  0.0000000000000000  0.4529100009999993  0.6292126436912042
  0.2500000000000000  0.2029599970000007  0.3707973203087960
  0.2500000000000000  0.4529100009999993  0.6292126436912042
  0.5000000000000000  0.2029599970000007  0.3707973203087960
  0.5000000000000000  0.4529100009999993  0.6292126436912042
  0.7500000180000015  0.2029599970000007  0.3707973203087960
  0.7500000180000015  0.4529100009999993  0.6292126436912042
  0.0000000000000000  0.7029599789999992  0.3707973203087960
  0.0000000000000000  0.9529100379999988  0.6292126436912042
  0.2500000000000000  0.7029599789999992  0.3707973203087960
  0.2500000000000000  0.9529100379999988  0.6292126436912042
  0.5000000000000000  0.7029599789999992  0.3707973203087960
  0.5000000000000000  0.9529100379999988  0.6292126436912042
  0.7500000180000015  0.7029599789999992  0.3707973203087960
  0.7500000180000015  0.9529100379999988  0.6292126436912042
  0.1250000000000000  0.2028600049999980  0.6224546876968375
  0.1250000000000000  0.4529199970000022  0.3775453363031644
  0.3750000089999972  0.2028600049999980  0.6224546876968375
  0.3750000089999972  0.4529199970000022  0.3775453363031644
  0.6249999910000028  0.2028600049999980  0.6224546876968375
  0.6249999910000028  0.4529199970000022  0.3775453363031644
  0.8749999739999978  0.2028600049999980  0.6224546876968375
  0.8749999739999978  0.4529199970000022  0.3775453363031644
  0.1250000000000000  0.7028600229999995  0.6224546876968375
  0.1250000000000000  0.9529200329999981  0.3775453363031644
  0.3750000089999972  0.7028600229999995  0.6224546876968375
  0.3750000089999972  0.9529200329999981  0.3775453363031644
  0.6249999910000028  0.7028600229999995  0.6224546876968375
  0.6249999910000028  0.9529200329999981  0.3775453363031644
  0.8749999739999978  0.7028600229999995  0.6224546876968375
  0.8749999739999978  0.9529200329999981  0.3775453363031644
 
  0.00000000E+00  0.00000000E+00  0.00000000E+00
  0.00000000E+00  0.00000000E+00  0.00000000E+00
  0.00000000E+00  0.00000000E+00  0.00000000E+00
  0.00000000E+00  0.00000000E+00  0.00000000E+00
  0.00000000E+00  0.00000000E+00  0.00000000E+00
  0.00000000E+00  0.00000000E+00  0.00000000E+00
  0.00000000E+00  0.00000000E+00  0.00000000E+00
  0.00000000E+00  0.00000000E+00  0.00000000E+00
  0.00000000E+00  0.00000000E+00  0.00000000E+00
  0.00000000E+00  0.00000000E+00  0.00000000E+00
  0.00000000E+00  0.00000000E+00  0.00000000E+00
  0.00000000E+00  0.00000000E+00  0.00000000E+00
  0.00000000E+00  0.00000000E+00  0.00000000E+00
  0.00000000E+00  0.00000000E+00  0.00000000E+00
  0.00000000E+00  0.00000000E+00  0.00000000E+00
  0.00000000E+00  0.00000000E+00  0.00000000E+00
  0.00000000E+00  0.00000000E+00  0.00000000E+00
  0.00000000E+00  0.00000000E+00  0.00000000E+00
  0.00000000E+00  0.00000000E+00  0.00000000E+00
  0.00000000E+00  0.00000000E+00  0.00000000E+00
  0.00000000E+00  0.00000000E+00  0.00000000E+00
  0.00000000E+00  0.00000000E+00  0.00000000E+00
  0.00000000E+00  0.00000000E+00  0.00000000E+00
  0.00000000E+00  0.00000000E+00  0.00000000E+00
  0.00000000E+00  0.00000000E+00  0.00000000E+00
  0.00000000E+00  0.00000000E+00  0.00000000E+00
  0.00000000E+00  0.00000000E+00  0.00000000E+00
  0.00000000E+00  0.00000000E+00  0.00000000E+00
  0.00000000E+00  0.00000000E+00  0.00000000E+00
  0.00000000E+00  0.00000000E+00  0.00000000E+00
  0.00000000E+00  0.00000000E+00  0.00000000E+00
  0.00000000E+00  0.00000000E+00  0.00000000E+00
  0.00000000E+00  0.00000000E+00  0.00000000E+00
  0.00000000E+00  0.00000000E+00  0.00000000E+00
  0.00000000E+00  0.00000000E+00  0.00000000E+00
  0.00000000E+00  0.00000000E+00  0.00000000E+00
  0.00000000E+00  0.00000000E+00  0.00000000E+00
  0.00000000E+00  0.00000000E+00  0.00000000E+00
  0.00000000E+00  0.00000000E+00  0.00000000E+00
  0.00000000E+00  0.00000000E+00  0.00000000E+00
  0.00000000E+00  0.00000000E+00  0.00000000E+00
  0.00000000E+00  0.00000000E+00  0.00000000E+00
  0.00000000E+00  0.00000000E+00  0.00000000E+00
  0.00000000E+00  0.00000000E+00  0.00000000E+00
  0.00000000E+00  0.00000000E+00  0.00000000E+00
  0.00000000E+00  0.00000000E+00  0.00000000E+00
  0.00000000E+00  0.00000000E+00  0.00000000E+00
  0.00000000E+00  0.00000000E+00  0.00000000E+00
  0.00000000E+00  0.00000000E+00  0.00000000E+00
  0.00000000E+00  0.00000000E+00  0.00000000E+00
  0.00000000E+00  0.00000000E+00  0.00000000E+00
  0.00000000E+00  0.00000000E+00  0.00000000E+00
  0.00000000E+00  0.00000000E+00  0.00000000E+00
  0.00000000E+00  0.00000000E+00  0.00000000E+00
  0.00000000E+00  0.00000000E+00  0.00000000E+00
  0.00000000E+00  0.00000000E+00  0.00000000E+00
  0.00000000E+00  0.00000000E+00  0.00000000E+00
  0.00000000E+00  0.00000000E+00  0.00000000E+00
  0.00000000E+00  0.00000000E+00  0.00000000E+00
  0.00000000E+00  0.00000000E+00  0.00000000E+00
  0.00000000E+00  0.00000000E+00  0.00000000E+00
  0.00000000E+00  0.00000000E+00  0.00000000E+00
  0.00000000E+00  0.00000000E+00  0.00000000E+00
  0.00000000E+00  0.00000000E+00  0.00000000E+00
  0.00000000E+00  0.00000000E+00  0.00000000E+00
  0.00000000E+00  0.00000000E+00  0.00000000E+00
  0.00000000E+00  0.00000000E+00  0.00000000E+00
  0.00000000E+00  0.00000000E+00  0.00000000E+00
  0.00000000E+00  0.00000000E+00  0.00000000E+00
  0.00000000E+00  0.00000000E+00  0.00000000E+00
  0.00000000E+00  0.00000000E+00  0.00000000E+00
  0.00000000E+00  0.00000000E+00  0.00000000E+00
  0.00000000E+00  0.00000000E+00  0.00000000E+00
  0.00000000E+00  0.00000000E+00  0.00000000E+00
  0.00000000E+00  0.00000000E+00  0.00000000E+00
  0.00000000E+00  0.00000000E+00  0.00000000E+00
  0.00000000E+00  0.00000000E+00  0.00000000E+00
  0.00000000E+00  0.00000000E+00  0.00000000E+00
  0.00000000E+00  0.00000000E+00  0.00000000E+00
  0.00000000E+00  0.00000000E+00  0.00000000E+00
