K-Spacing Value to Generate K-Mesh: 0.030
0
Gamma
   8   6   3
0.0  0.0  0.0
