CONTCAR\(5)                             
   1.00000000000000     
    11.7456998825000003    0.0000000000000000    0.0000000000000000
     0.0000000000000000   17.6870002747000008    0.0000000000000000
     0.0000000000000000    0.0000000000000000   19.5771007537999999
   Ti   Ge   Te   O 
     6     6    36     1
Direct
  0.0921488742996839  0.4774769543146695  0.5137374085410605
  0.2544105088542625  0.9562228247309148  0.4916291413014288
  0.4187996162650909  0.4784591124006321  0.5128686319032847
  0.5813306871824215  0.9570956075813672  0.4912228614215302
  0.7500436764078457  0.4799885443870279  0.5138549469987669
  0.9172691001036930  0.9550403980890045  0.4903203784814857
  0.2490793203703099  0.8053596894169256  0.4796488338721779
  0.0552811112483855  0.6226828203203197  0.5069856795929371
  0.5783058473838056  0.8059095650174846  0.4855569149278522
  0.4116532263941117  0.6293440472766232  0.5243918743644551
  0.9128749040729573  0.8054239595515756  0.4816527095718987
  0.7375694316602531  0.6305362864823036  0.5241865068034678
  0.0833652763625026  0.9265695264580890  0.3844476501220069
  0.2546399864230642  0.2558029573113979  0.5735644604064423
  0.2545704672366303  0.0658915778187107  0.3825120619890818
  0.0828618173335961  0.9004012917187696  0.5868028669913180
  0.2533107807952958  0.5077788974758077  0.6201521340760379
  0.0898476886900099  0.3686091885025140  0.6196004217781075
  0.0857794433823079  0.1762053785364928  0.4263037774705287
  0.2541876362698189  0.7173264902534685  0.5955388232301368
  0.0835212384886789  0.7315977987793447  0.4098313054053412
  0.2548906359771224  0.3772931505170199  0.4579297585183028
  0.0854995186563788  0.0543518925183163  0.5442953921037533
  0.2522206091616267  0.5313988869096197  0.4148415864603100
  0.4188007657201533  0.9256544814797016  0.3849584178997584
  0.5880965311628132  0.2567203641972132  0.5729244553608854
  0.5841110469953643  0.0650156120487700  0.3817744475499150
  0.4104127583393229  0.9072930398596011  0.5948434884363853
  0.5859681654822243  0.5078471260324376  0.6198894517612568
  0.4205857474925785  0.3668255679523445  0.6187718810394686
  0.4186882556905838  0.1830136117197078  0.4047943050159348
  0.5760947272637837  0.7070921405458358  0.5951066921369333
  0.4165122626510975  0.7259736934478231  0.4132541796979323
  0.5867947882524569  0.3802777965530045  0.4577540699501810
  0.4224144256889735  0.0567001602354612  0.5459685501057088
  0.5834068844935216  0.5348608859485419  0.4162793279331578
  0.7518523286238669  0.9256925555855416  0.3845009627103501
  0.9203106682939772  0.2600426811360817  0.5663577502766217
  0.9185409500103144  0.0622600362009165  0.3827732913503520
  0.7491817591673066  0.9004157578658185  0.5874513008359477
  0.9221447917054705  0.5081376041307997  0.6183817321745925
  0.7512903258959758  0.3691901571069187  0.6191242930573128
  0.7512649927752497  0.1763657161860992  0.4276124987258649
  0.9161205000280628  0.7043675785201650  0.5890325202354293
  0.7436144676692032  0.7287714315924027  0.4145884518399297
  0.9211302327004978  0.3822474585919893  0.4600078565411167
  0.7516062661526597  0.0547777358310647  0.5437246789053941
  0.9127416984727680  0.5426159038336531  0.4170162403893730
  0.3676435552519109  0.7834138190296820  0.6344632087385123
 
  0.00000000E+00  0.00000000E+00  0.00000000E+00
  0.00000000E+00  0.00000000E+00  0.00000000E+00
  0.00000000E+00  0.00000000E+00  0.00000000E+00
  0.00000000E+00  0.00000000E+00  0.00000000E+00
  0.00000000E+00  0.00000000E+00  0.00000000E+00
  0.00000000E+00  0.00000000E+00  0.00000000E+00
  0.00000000E+00  0.00000000E+00  0.00000000E+00
  0.00000000E+00  0.00000000E+00  0.00000000E+00
  0.00000000E+00  0.00000000E+00  0.00000000E+00
  0.00000000E+00  0.00000000E+00  0.00000000E+00
  0.00000000E+00  0.00000000E+00  0.00000000E+00
  0.00000000E+00  0.00000000E+00  0.00000000E+00
  0.00000000E+00  0.00000000E+00  0.00000000E+00
  0.00000000E+00  0.00000000E+00  0.00000000E+00
  0.00000000E+00  0.00000000E+00  0.00000000E+00
  0.00000000E+00  0.00000000E+00  0.00000000E+00
  0.00000000E+00  0.00000000E+00  0.00000000E+00
  0.00000000E+00  0.00000000E+00  0.00000000E+00
  0.00000000E+00  0.00000000E+00  0.00000000E+00
  0.00000000E+00  0.00000000E+00  0.00000000E+00
  0.00000000E+00  0.00000000E+00  0.00000000E+00
  0.00000000E+00  0.00000000E+00  0.00000000E+00
  0.00000000E+00  0.00000000E+00  0.00000000E+00
  0.00000000E+00  0.00000000E+00  0.00000000E+00
  0.00000000E+00  0.00000000E+00  0.00000000E+00
  0.00000000E+00  0.00000000E+00  0.00000000E+00
  0.00000000E+00  0.00000000E+00  0.00000000E+00
  0.00000000E+00  0.00000000E+00  0.00000000E+00
  0.00000000E+00  0.00000000E+00  0.00000000E+00
  0.00000000E+00  0.00000000E+00  0.00000000E+00
  0.00000000E+00  0.00000000E+00  0.00000000E+00
  0.00000000E+00  0.00000000E+00  0.00000000E+00
  0.00000000E+00  0.00000000E+00  0.00000000E+00
  0.00000000E+00  0.00000000E+00  0.00000000E+00
  0.00000000E+00  0.00000000E+00  0.00000000E+00
  0.00000000E+00  0.00000000E+00  0.00000000E+00
  0.00000000E+00  0.00000000E+00  0.00000000E+00
  0.00000000E+00  0.00000000E+00  0.00000000E+00
  0.00000000E+00  0.00000000E+00  0.00000000E+00
  0.00000000E+00  0.00000000E+00  0.00000000E+00
  0.00000000E+00  0.00000000E+00  0.00000000E+00
  0.00000000E+00  0.00000000E+00  0.00000000E+00
  0.00000000E+00  0.00000000E+00  0.00000000E+00
  0.00000000E+00  0.00000000E+00  0.00000000E+00
  0.00000000E+00  0.00000000E+00  0.00000000E+00
  0.00000000E+00  0.00000000E+00  0.00000000E+00
  0.00000000E+00  0.00000000E+00  0.00000000E+00
  0.00000000E+00  0.00000000E+00  0.00000000E+00
  0.00000000E+00  0.00000000E+00  0.00000000E+00
