CONTCAR\(6)                             
   1.00000000000000     
    11.7456998825000003    0.0000000000000000    0.0000000000000000
     0.0000000000000000   17.6870002747000008    0.0000000000000000
     0.0000000000000000    0.0000000000000000   19.5771007537999999
   Ti   Ge   Te   O    H 
     6     6    36     1     1
Direct
  0.0845127174533662  0.4814492452487804  0.5141786850549245
  0.2559338689805746  0.9575210967966118  0.4880653863141574
  0.4180951911618934  0.4814430944604651  0.5147757794295299
  0.5848613403460650  0.9579898135250886  0.4877686416630014
  0.7517038702335078  0.4815508200730826  0.5141188174297932
  0.9204766670548734  0.9570994031150268  0.4880650924060891
  0.2518596200591303  0.8056308395382418  0.4809155155174697
  0.0849925572327500  0.6316845616446259  0.5242646465256573
  0.5845289043324348  0.8060423492185119  0.4810388825425503
  0.4179198620397718  0.6318407565787267  0.5236295829149893
  0.9188961907049278  0.8066121163508292  0.4822608564613983
  0.7512072377163259  0.6317858995234310  0.5242250922462851
  0.0867949921550829  0.9259453753966546  0.3819351326631448
  0.2517751337595739  0.2591749417348048  0.5749231018255294
  0.2508363083224701  0.0627111955727390  0.3780883418099503
  0.0870037226764044  0.9035141394783578  0.5860617195180026
  0.2510125047731540  0.5095915293612501  0.6212361140299816
  0.0846539347380561  0.3706207152678838  0.6195189919802667
  0.0877411778735639  0.1773224081874979  0.4218974207579465
  0.2516123155550467  0.7097763943618558  0.5923581708957629
  0.0853447944045732  0.7279498971081042  0.4131915841954641
  0.2514985890840546  0.3828189238259551  0.4591244495612467
  0.0878863525632230  0.0563225122686588  0.5417325089102329
  0.2513142210495583  0.5373355485905940  0.4178943565265683
  0.4205905462467921  0.9252966110478520  0.3810855916634630
  0.5845961543137245  0.2591768550211784  0.5752055097830253
  0.5900532321326291  0.0632164263349893  0.3780476063647257
  0.4184747270237878  0.8989740908799739  0.5850028830877150
  0.5855703626212386  0.5096559373991887  0.6211421284158763
  0.4180400016634337  0.3705940587061793  0.6202697485271728
  0.4200810709689762  0.1763042844628393  0.4212589945389200
  0.5847437144842922  0.7096762627746506  0.5923529735530746
  0.4185674494149630  0.7270595742355480  0.4120420195668888
  0.5845271762330320  0.3828801431954355  0.4591030762465437
  0.4204624221547417  0.0615553356293650  0.5348558437576623
  0.5843894092643673  0.5372652510865118  0.4177526399525168
  0.7538173220269097  0.9260826624796686  0.3818363511191388
  0.9178847622581815  0.2590712453107554  0.5733339879162098
  0.9206132601970755  0.0647904627122647  0.3802994409394319
  0.7524541056651946  0.9035161767669730  0.5858253908216543
  0.9183429373838756  0.5097156443102135  0.6210681839999667
  0.7514406682132688  0.3708595513740359  0.6195655423295027
  0.7534948004374673  0.1775356669057332  0.4221141279105126
  0.9182222465592514  0.7097834717446719  0.5927171885470585
  0.7515252251352597  0.7286839701827866  0.4135621939393331
  0.9179862181269374  0.3828213081286285  0.4586802856023504
  0.7539950363815796  0.0566067555286371  0.5414836054057148
  0.9180975493806530  0.5379287344802219  0.4177104529776905
  0.4018652389726686  0.9655483903258788  0.6721730073376709
  0.4501925584693343  0.9425073597480109  0.7071826765162418
 
  0.00000000E+00  0.00000000E+00  0.00000000E+00
  0.00000000E+00  0.00000000E+00  0.00000000E+00
  0.00000000E+00  0.00000000E+00  0.00000000E+00
  0.00000000E+00  0.00000000E+00  0.00000000E+00
  0.00000000E+00  0.00000000E+00  0.00000000E+00
  0.00000000E+00  0.00000000E+00  0.00000000E+00
  0.00000000E+00  0.00000000E+00  0.00000000E+00
  0.00000000E+00  0.00000000E+00  0.00000000E+00
  0.00000000E+00  0.00000000E+00  0.00000000E+00
  0.00000000E+00  0.00000000E+00  0.00000000E+00
  0.00000000E+00  0.00000000E+00  0.00000000E+00
  0.00000000E+00  0.00000000E+00  0.00000000E+00
  0.00000000E+00  0.00000000E+00  0.00000000E+00
  0.00000000E+00  0.00000000E+00  0.00000000E+00
  0.00000000E+00  0.00000000E+00  0.00000000E+00
  0.00000000E+00  0.00000000E+00  0.00000000E+00
  0.00000000E+00  0.00000000E+00  0.00000000E+00
  0.00000000E+00  0.00000000E+00  0.00000000E+00
  0.00000000E+00  0.00000000E+00  0.00000000E+00
  0.00000000E+00  0.00000000E+00  0.00000000E+00
  0.00000000E+00  0.00000000E+00  0.00000000E+00
  0.00000000E+00  0.00000000E+00  0.00000000E+00
  0.00000000E+00  0.00000000E+00  0.00000000E+00
  0.00000000E+00  0.00000000E+00  0.00000000E+00
  0.00000000E+00  0.00000000E+00  0.00000000E+00
  0.00000000E+00  0.00000000E+00  0.00000000E+00
  0.00000000E+00  0.00000000E+00  0.00000000E+00
  0.00000000E+00  0.00000000E+00  0.00000000E+00
  0.00000000E+00  0.00000000E+00  0.00000000E+00
  0.00000000E+00  0.00000000E+00  0.00000000E+00
  0.00000000E+00  0.00000000E+00  0.00000000E+00
  0.00000000E+00  0.00000000E+00  0.00000000E+00
  0.00000000E+00  0.00000000E+00  0.00000000E+00
  0.00000000E+00  0.00000000E+00  0.00000000E+00
  0.00000000E+00  0.00000000E+00  0.00000000E+00
  0.00000000E+00  0.00000000E+00  0.00000000E+00
  0.00000000E+00  0.00000000E+00  0.00000000E+00
  0.00000000E+00  0.00000000E+00  0.00000000E+00
  0.00000000E+00  0.00000000E+00  0.00000000E+00
  0.00000000E+00  0.00000000E+00  0.00000000E+00
  0.00000000E+00  0.00000000E+00  0.00000000E+00
  0.00000000E+00  0.00000000E+00  0.00000000E+00
  0.00000000E+00  0.00000000E+00  0.00000000E+00
  0.00000000E+00  0.00000000E+00  0.00000000E+00
  0.00000000E+00  0.00000000E+00  0.00000000E+00
  0.00000000E+00  0.00000000E+00  0.00000000E+00
  0.00000000E+00  0.00000000E+00  0.00000000E+00
  0.00000000E+00  0.00000000E+00  0.00000000E+00
  0.00000000E+00  0.00000000E+00  0.00000000E+00
  0.00000000E+00  0.00000000E+00  0.00000000E+00
