CONTCAR\(4)                             
   1.00000000000000     
     6.8951997757000001    0.0000000000000000    0.0000000000000000
     3.4474999904999999    5.9712451425999999    0.0000000000000000
     0.0000000000000000    0.0000000000000000   18.3700008391999994
   Nb   Se   O 
     4     8     1
Direct
  0.1714410710922144  0.1714410740922111  0.5080633367200694
  0.6743501650338044  0.1449230862023704  0.4991068739798208
  0.1449230252023760  0.6743501800338021  0.4991068739798208
  0.6652724578909405  0.6652724618909408  0.5010169014968094
  0.3590645933855534  0.3590645953855535  0.6003643290742539
  0.3302938323326370  0.3302938343326372  0.4111753127333418
  0.8059124970177233  0.3372866119346111  0.5919051779370148
  0.8388428861891907  0.3244343911132759  0.4128389957979242
  0.3372865809346121  0.8059125210177253  0.5919051779370148
  0.3244343601132769  0.8388429101891927  0.4128389957979242
  0.8274912825553584  0.8274913345553556  0.5953983148088470
  0.8269434022828411  0.8269434542828383  0.4037428529443908
  0.2086534469694637  0.2086234539694654  0.6191170567927491
 
  0.00000000E+00  0.00000000E+00  0.00000000E+00
  0.00000000E+00  0.00000000E+00  0.00000000E+00
  0.00000000E+00  0.00000000E+00  0.00000000E+00
  0.00000000E+00  0.00000000E+00  0.00000000E+00
  0.00000000E+00  0.00000000E+00  0.00000000E+00
  0.00000000E+00  0.00000000E+00  0.00000000E+00
  0.00000000E+00  0.00000000E+00  0.00000000E+00
  0.00000000E+00  0.00000000E+00  0.00000000E+00
  0.00000000E+00  0.00000000E+00  0.00000000E+00
  0.00000000E+00  0.00000000E+00  0.00000000E+00
  0.00000000E+00  0.00000000E+00  0.00000000E+00
  0.00000000E+00  0.00000000E+00  0.00000000E+00
  0.00000000E+00  0.00000000E+00  0.00000000E+00
