CONTCAR                                 
   1.00000000000000     
    14.5194997787000002    0.0000000000000000    0.0000000000000000
     0.0000000000000000   10.2968997954999999    0.0000000000000000
     0.0000000000000000    0.0000000000000000   22.7084999084000003
   K    Ru   Br
     8     4    24
Direct
  0.4068167837874047  0.7325381076026164  0.5704031912190857
  0.1568006102790971  0.2326228279108890  0.4296369470059620
  0.1569013756068221  0.7673300342254099  0.4295759729270188
  0.4068195267393289  0.2674836919049648  0.5704059923728908
  0.9068167507874054  0.7325381076026164  0.5704031912190857
  0.6568005602791003  0.2326228279108890  0.4296369470059620
  0.6569013256068249  0.7673300342254099  0.4295759729270188
  0.9068194937393301  0.2674836919049648  0.5704059923728908
  0.1566188358476540  0.5000250373842114  0.5819294656868828
  0.4065030639663154 -0.0000299321509513  0.4180656008286945
  0.6566188028476549  0.5000250373842114  0.5819294656868828
  0.9065030639663154 -0.0000299321509513  0.4180656008286945
  0.0312567243860300  0.5000000456995490  0.6559858627271546
  0.4065070574810037  0.2440095224325242  0.4163580059730966
  0.5254782170194116  0.0000057942188843  0.5002651222857384
  0.1566574742995203  0.2559641747267292  0.5836795631983182
  0.0394978732122943  0.4999940887622450  0.4987504426856090
  0.4066040666310322  0.7559224828833367  0.4162892055810840
  0.2812060091573739  0.0000298554142222  0.3440003631754399
  0.2756964432601298  0.5000370890861958  0.4997731326275258
  0.2893890399114442 -0.0000730238427920  0.5012004019612158
  0.1565679276197249  0.7440499184564316  0.5836400511107180
  0.5293371390002922  0.0000240309072125  0.3426246743523618
  0.2794418107951093  0.5000661683783072  0.6574261062812092
  0.5312567383860312  0.5000000456995490  0.6559858627271546
  0.9065070894810062  0.2440095224325242  0.4163580059730966
  0.0254782130194111  0.0000057942188843  0.5002651222857384
  0.6566574912995181  0.2559641747267292  0.5836795631983182
  0.5394979102122938  0.4999940887622450  0.4987504426856090
  0.9066040336310326  0.7559224828833367  0.4162892055810840
  0.7812060421573730  0.0000298554142222  0.3440003631754399
  0.7756964762601291  0.5000370890861958  0.4997731326275258
  0.7893890399114445 -0.0000730238427920  0.5012004019612158
  0.6565679446197225  0.7440499184564316  0.5836400511107180
  0.0293372010002905  0.0000240309072125  0.3426246743523618
  0.7794418597951097  0.5000661683783072  0.6574261062812092
 
  0.00000000E+00  0.00000000E+00  0.00000000E+00
  0.00000000E+00  0.00000000E+00  0.00000000E+00
  0.00000000E+00  0.00000000E+00  0.00000000E+00
  0.00000000E+00  0.00000000E+00  0.00000000E+00
  0.00000000E+00  0.00000000E+00  0.00000000E+00
  0.00000000E+00  0.00000000E+00  0.00000000E+00
  0.00000000E+00  0.00000000E+00  0.00000000E+00
  0.00000000E+00  0.00000000E+00  0.00000000E+00
  0.00000000E+00  0.00000000E+00  0.00000000E+00
  0.00000000E+00  0.00000000E+00  0.00000000E+00
  0.00000000E+00  0.00000000E+00  0.00000000E+00
  0.00000000E+00  0.00000000E+00  0.00000000E+00
  0.00000000E+00  0.00000000E+00  0.00000000E+00
  0.00000000E+00  0.00000000E+00  0.00000000E+00
  0.00000000E+00  0.00000000E+00  0.00000000E+00
  0.00000000E+00  0.00000000E+00  0.00000000E+00
  0.00000000E+00  0.00000000E+00  0.00000000E+00
  0.00000000E+00  0.00000000E+00  0.00000000E+00
  0.00000000E+00  0.00000000E+00  0.00000000E+00
  0.00000000E+00  0.00000000E+00  0.00000000E+00
  0.00000000E+00  0.00000000E+00  0.00000000E+00
  0.00000000E+00  0.00000000E+00  0.00000000E+00
  0.00000000E+00  0.00000000E+00  0.00000000E+00
  0.00000000E+00  0.00000000E+00  0.00000000E+00
  0.00000000E+00  0.00000000E+00  0.00000000E+00
  0.00000000E+00  0.00000000E+00  0.00000000E+00
  0.00000000E+00  0.00000000E+00  0.00000000E+00
  0.00000000E+00  0.00000000E+00  0.00000000E+00
  0.00000000E+00  0.00000000E+00  0.00000000E+00
  0.00000000E+00  0.00000000E+00  0.00000000E+00
  0.00000000E+00  0.00000000E+00  0.00000000E+00
  0.00000000E+00  0.00000000E+00  0.00000000E+00
  0.00000000E+00  0.00000000E+00  0.00000000E+00
  0.00000000E+00  0.00000000E+00  0.00000000E+00
  0.00000000E+00  0.00000000E+00  0.00000000E+00
  0.00000000E+00  0.00000000E+00  0.00000000E+00
