CONTCAR                                 
   1.00000000000000     
    14.1683998108000004    0.0000000000000000    0.0000000000000000
     0.0000000000000000   20.5298995972000000    0.0000000000000000
     0.0000000000000000    0.0000000000000000   19.1021003723000007
   Nb   Te   O    H 
    32    48     1     1
Direct
  0.0624352778656405  0.1362619277608995  0.5473427034843928
  0.1874083863445398  0.0759608430540336  0.4496226300424433
  0.0626982476904860  0.2943006477115022  0.4983868788137910
  0.1883770749198914  0.4176210245995461  0.5016374816778092
  0.3121745824495274  0.1361111939091724  0.5474836212953128
  0.4374701181064212  0.0758746113510221  0.4502705239659435
  0.3123955923660604  0.2936830993828467  0.4983164149058841
  0.4381179877806142  0.4163659030532534  0.5019354971317382
  0.5625767090008595  0.1359986316630996  0.5478586808603375
  0.6878234609979761  0.0758655160606459  0.4503727555858679
  0.5624934806801345  0.2932047724205337  0.4984263958104940
  0.6869789783372052  0.4163654363185038  0.5018933819003548
  0.8130999601432123  0.1362030749985794  0.5475947305859190
  0.9379705055795515  0.0760799026994880  0.4496573111084409
  0.8127793910516428  0.2937019192673254  0.4983112013282363
  0.9371202460953482  0.4175867514171493  0.5016728662997364
  0.0625434667015821  0.6353221463007163  0.5503023836059319
  0.1863605158339595  0.5754678945990440  0.4534543413097964
  0.0624776394667689  0.7942375074740129  0.4975351884959432
  0.1869641740879350  0.9183936141858352  0.4990947376302924
  0.3183643067093172  0.6354039710475505  0.5535727638429867
  0.4362872946856203  0.5755754042900788  0.4573417646498144
  0.3128643779866019  0.7951923570602979  0.4981761552948527
  0.4372402762831347  0.9190024370648645  0.5004404195691662
  0.5621779353635484  0.6366201982504333  0.5680523660532713
  0.6893034884253876  0.5754086462282263  0.4572449776588759
  0.5625028565163706  0.7949803626824571  0.5016830060892855
  0.6877466700201099  0.9190764859613605  0.5005489706224737
  0.8066662759983431  0.6352837609351302  0.5535309292937549
  0.9388416445153990  0.5754688383810399  0.4533923130348205
  0.8119449373909262  0.7950530341279638  0.4981645916019167
  0.9380953493568933  0.9182955423547416  0.4992329345149571
  0.1877571251314900  0.3292460784304876  0.3922365780514696
  0.0628123942571558  0.1748294779694836  0.4084097630574806
  0.1873507232096271  0.2317646794529526  0.5991552971914659
  0.0626948431868617  0.4801451184163001  0.4007608509114348
  0.0627324666853883  0.3836359936944407  0.6074030837498572
  0.1871437592563133  0.0379431281200354  0.5888794330483968
  0.4378030342932704  0.3281519983361125  0.3922873998172408
  0.3125795355719151  0.1741943888225329  0.4081858617194944
  0.4373397933077643  0.2312520207302867  0.5994781987687134
  0.3136563256208375  0.4807971337572758  0.4017236456299889
  0.3117468371363553  0.3818746161990704  0.6079091542321362
  0.4372635984634200  0.0381041443260151  0.5896976292812649
  0.6873567371159780  0.3281485620454779  0.3923093806566488
  0.5627466059935186  0.1740545140498726  0.4086132419743859
  0.6877708824132189  0.2312772278749589  0.5994279396666031
  0.5627168034851101  0.4806230355276757  0.4044412100093559
  0.5625480055834543  0.3809989680988163  0.6082073349424374
  0.6880335958801989  0.0382493622571288  0.5898790242468287
  0.9375491076188438  0.3291320454765767  0.3923002676613371
  0.8126703415148403  0.1742852531835871  0.4083459596629989
  0.9377342531061779  0.2319467021177805  0.5992705767661931
  0.8118467736080437  0.4806411540822657  0.4016569752763549
  0.8135091643066794  0.3819334648231753  0.6078129998551727
  0.9378392977149265  0.0378044005639837  0.5887741017716713
  0.1875240029563141  0.8285814074679100  0.3911299379584892
  0.0626532313574940  0.6736070719325633  0.4108167798113662
  0.1875238014777399  0.7326158684877757  0.5987516989738184
  0.0624955164323609  0.9802540604483505  0.3979294312907353
  0.0625734422877305  0.8839071980366190  0.6056673762790515
  0.1883372184721068  0.5374400835706028  0.5925136246113752
  0.4390862593936594  0.8282675523211995  0.3929721979190935
  0.3130346829696816  0.6732864337609372  0.4141036463711076
  0.4326034349854452  0.7386229318255781  0.6018179930989145
  0.3127697526561427  0.9801490953130058  0.3983194313282971
  0.3111052267238112  0.8854808587160905  0.6061761654243796
  0.4359925281655274  0.5314958141247111  0.5929826575116597
  0.6859053765513878  0.8285765030421867  0.3930142382528361
  0.5627776920606729  0.6733232817600142  0.4213374830846989
  0.6921533896284123  0.7383588400647279  0.6018611790310801
  0.5625883772051901  0.9801037223241892  0.3991589972892109
  0.5625127813178160  0.8863456207109974  0.6078408903719469
  0.6889854634177405  0.5314582588223862  0.5928723160378752
  0.9372939644991782  0.8286068116058842  0.3911726892705408
  0.8121986267400257  0.6733675061318365  0.4140817658729057
  0.9374022278307890  0.7324794637699704  0.5987291849587152
  0.8125086892856287  0.9801540775443830  0.3986398841009840
  0.8137185448943940  0.8851446011509302  0.6061339211480524
  0.9367674216216439  0.5373742069302284  0.5923855769310802
  0.5623269282482598  0.6409828645834054  0.6729721829206076
  0.5584292846085362  0.6030348665858247  0.7032823691373128
 
  0.00000000E+00  0.00000000E+00  0.00000000E+00
  0.00000000E+00  0.00000000E+00  0.00000000E+00
  0.00000000E+00  0.00000000E+00  0.00000000E+00
  0.00000000E+00  0.00000000E+00  0.00000000E+00
  0.00000000E+00  0.00000000E+00  0.00000000E+00
  0.00000000E+00  0.00000000E+00  0.00000000E+00
  0.00000000E+00  0.00000000E+00  0.00000000E+00
  0.00000000E+00  0.00000000E+00  0.00000000E+00
  0.00000000E+00  0.00000000E+00  0.00000000E+00
  0.00000000E+00  0.00000000E+00  0.00000000E+00
  0.00000000E+00  0.00000000E+00  0.00000000E+00
  0.00000000E+00  0.00000000E+00  0.00000000E+00
  0.00000000E+00  0.00000000E+00  0.00000000E+00
  0.00000000E+00  0.00000000E+00  0.00000000E+00
  0.00000000E+00  0.00000000E+00  0.00000000E+00
  0.00000000E+00  0.00000000E+00  0.00000000E+00
  0.00000000E+00  0.00000000E+00  0.00000000E+00
  0.00000000E+00  0.00000000E+00  0.00000000E+00
  0.00000000E+00  0.00000000E+00  0.00000000E+00
  0.00000000E+00  0.00000000E+00  0.00000000E+00
  0.00000000E+00  0.00000000E+00  0.00000000E+00
  0.00000000E+00  0.00000000E+00  0.00000000E+00
  0.00000000E+00  0.00000000E+00  0.00000000E+00
  0.00000000E+00  0.00000000E+00  0.00000000E+00
  0.00000000E+00  0.00000000E+00  0.00000000E+00
  0.00000000E+00  0.00000000E+00  0.00000000E+00
  0.00000000E+00  0.00000000E+00  0.00000000E+00
  0.00000000E+00  0.00000000E+00  0.00000000E+00
  0.00000000E+00  0.00000000E+00  0.00000000E+00
  0.00000000E+00  0.00000000E+00  0.00000000E+00
  0.00000000E+00  0.00000000E+00  0.00000000E+00
  0.00000000E+00  0.00000000E+00  0.00000000E+00
  0.00000000E+00  0.00000000E+00  0.00000000E+00
  0.00000000E+00  0.00000000E+00  0.00000000E+00
  0.00000000E+00  0.00000000E+00  0.00000000E+00
  0.00000000E+00  0.00000000E+00  0.00000000E+00
  0.00000000E+00  0.00000000E+00  0.00000000E+00
  0.00000000E+00  0.00000000E+00  0.00000000E+00
  0.00000000E+00  0.00000000E+00  0.00000000E+00
  0.00000000E+00  0.00000000E+00  0.00000000E+00
  0.00000000E+00  0.00000000E+00  0.00000000E+00
  0.00000000E+00  0.00000000E+00  0.00000000E+00
  0.00000000E+00  0.00000000E+00  0.00000000E+00
  0.00000000E+00  0.00000000E+00  0.00000000E+00
  0.00000000E+00  0.00000000E+00  0.00000000E+00
  0.00000000E+00  0.00000000E+00  0.00000000E+00
  0.00000000E+00  0.00000000E+00  0.00000000E+00
  0.00000000E+00  0.00000000E+00  0.00000000E+00
  0.00000000E+00  0.00000000E+00  0.00000000E+00
  0.00000000E+00  0.00000000E+00  0.00000000E+00
  0.00000000E+00  0.00000000E+00  0.00000000E+00
  0.00000000E+00  0.00000000E+00  0.00000000E+00
  0.00000000E+00  0.00000000E+00  0.00000000E+00
  0.00000000E+00  0.00000000E+00  0.00000000E+00
  0.00000000E+00  0.00000000E+00  0.00000000E+00
  0.00000000E+00  0.00000000E+00  0.00000000E+00
  0.00000000E+00  0.00000000E+00  0.00000000E+00
  0.00000000E+00  0.00000000E+00  0.00000000E+00
  0.00000000E+00  0.00000000E+00  0.00000000E+00
  0.00000000E+00  0.00000000E+00  0.00000000E+00
  0.00000000E+00  0.00000000E+00  0.00000000E+00
  0.00000000E+00  0.00000000E+00  0.00000000E+00
  0.00000000E+00  0.00000000E+00  0.00000000E+00
  0.00000000E+00  0.00000000E+00  0.00000000E+00
  0.00000000E+00  0.00000000E+00  0.00000000E+00
  0.00000000E+00  0.00000000E+00  0.00000000E+00
  0.00000000E+00  0.00000000E+00  0.00000000E+00
  0.00000000E+00  0.00000000E+00  0.00000000E+00
  0.00000000E+00  0.00000000E+00  0.00000000E+00
  0.00000000E+00  0.00000000E+00  0.00000000E+00
  0.00000000E+00  0.00000000E+00  0.00000000E+00
  0.00000000E+00  0.00000000E+00  0.00000000E+00
  0.00000000E+00  0.00000000E+00  0.00000000E+00
  0.00000000E+00  0.00000000E+00  0.00000000E+00
  0.00000000E+00  0.00000000E+00  0.00000000E+00
  0.00000000E+00  0.00000000E+00  0.00000000E+00
  0.00000000E+00  0.00000000E+00  0.00000000E+00
  0.00000000E+00  0.00000000E+00  0.00000000E+00
  0.00000000E+00  0.00000000E+00  0.00000000E+00
  0.00000000E+00  0.00000000E+00  0.00000000E+00
  0.00000000E+00  0.00000000E+00  0.00000000E+00
  0.00000000E+00  0.00000000E+00  0.00000000E+00
