CONTCAR\(23)                            
   1.00000000000000     
    11.0504999160999997    0.0000000000000000    0.0000000000000000
     0.0000000000000000   15.0270004272000008    0.0000000000000000
     0.0000000000000000    0.0000000000000000   19.5720996856999996
   Ta   Ni   Te
     6     6    30
Direct
  0.0000000000000000  0.7500000000000000  0.4950517763045212
  0.0000000000000000  0.2500000000000000  0.5049481746954783
  0.3333299960000033  0.7500000000000000  0.4950517763045212
  0.3333299960000033  0.2500000000000000  0.5049481746954783
  0.6666700039999967  0.7500000000000000  0.4950517763045212
  0.6666700039999967  0.2500000000000000  0.5049481746954783
  0.1666699929999993  0.5000000000000000  0.5000000000000000
  0.1666699929999993  0.0000000000000000  0.4999899620000008
  0.5000000000000000  0.5000000000000000  0.5000000000000000
  0.5000000000000000  0.0000000000000000  0.4999899620000008
  0.8333299530000033  0.5000000000000000  0.5000000000000000
  0.8333299530000033  0.0000000000000000  0.4999899620000008
  0.0000000000000000  0.4237150337472357  0.5717438263142327
  0.1666699929999993  0.3547719121933213  0.4282118996001785
  0.0000000000000000  0.5762849662527643  0.4282661626857731
  0.0000000000000000  0.9237150337472357  0.4282561246857668
  0.0000000000000000  0.0762849982527669  0.5717338863142274
  0.1666699929999993  0.7499899729999981  0.3835057055710394
  0.1666699929999993  0.8547719431933203  0.5717881003998215
  0.1666699929999993  0.2500100110000005  0.6164942704289587
  0.1666699929999993  0.1452280878066787  0.4282118996001785
  0.1666699929999993  0.6452380838066745  0.5717980893998202
  0.3333299960000033  0.4237150337472357  0.5717438263142327
  0.5000000000000000  0.3547719121933213  0.4282118996001785
  0.3333299960000033  0.5762849662527643  0.4282661626857731
  0.3333299960000033  0.9237150337472357  0.4282561246857668
  0.3333299960000033  0.0762849982527669  0.5717338863142274
  0.5000000000000000  0.7499899729999981  0.3835057055710394
  0.5000000000000000  0.8547719431933203  0.5717881003998215
  0.5000000000000000  0.2500100110000005  0.6164942704289587
  0.5000000000000000  0.1452280878066787  0.4282118996001785
  0.5000000000000000  0.6452380838066745  0.5717980893998202
  0.6666700039999967  0.4237150337472357  0.5717438263142327
  0.8333299530000033  0.3547719121933213  0.4282118996001785
  0.6666700039999967  0.5762849662527643  0.4282661626857731
  0.6666700039999967  0.9237150337472357  0.4282561246857668
  0.6666700039999967  0.0762849982527669  0.5717338863142274
  0.8333299530000033  0.7499899729999981  0.3835057055710394
  0.8333299530000033  0.8547719431933203  0.5717881003998215
  0.8333299530000033  0.2500100110000005  0.6164942704289587
  0.8333299530000033  0.1452280878066787  0.4282118996001785
  0.8333299530000033  0.6452380838066745  0.5717980893998202
 
  0.00000000E+00  0.00000000E+00  0.00000000E+00
  0.00000000E+00  0.00000000E+00  0.00000000E+00
  0.00000000E+00  0.00000000E+00  0.00000000E+00
  0.00000000E+00  0.00000000E+00  0.00000000E+00
  0.00000000E+00  0.00000000E+00  0.00000000E+00
  0.00000000E+00  0.00000000E+00  0.00000000E+00
  0.00000000E+00  0.00000000E+00  0.00000000E+00
  0.00000000E+00  0.00000000E+00  0.00000000E+00
  0.00000000E+00  0.00000000E+00  0.00000000E+00
  0.00000000E+00  0.00000000E+00  0.00000000E+00
  0.00000000E+00  0.00000000E+00  0.00000000E+00
  0.00000000E+00  0.00000000E+00  0.00000000E+00
  0.00000000E+00  0.00000000E+00  0.00000000E+00
  0.00000000E+00  0.00000000E+00  0.00000000E+00
  0.00000000E+00  0.00000000E+00  0.00000000E+00
  0.00000000E+00  0.00000000E+00  0.00000000E+00
  0.00000000E+00  0.00000000E+00  0.00000000E+00
  0.00000000E+00  0.00000000E+00  0.00000000E+00
  0.00000000E+00  0.00000000E+00  0.00000000E+00
  0.00000000E+00  0.00000000E+00  0.00000000E+00
  0.00000000E+00  0.00000000E+00  0.00000000E+00
  0.00000000E+00  0.00000000E+00  0.00000000E+00
  0.00000000E+00  0.00000000E+00  0.00000000E+00
  0.00000000E+00  0.00000000E+00  0.00000000E+00
  0.00000000E+00  0.00000000E+00  0.00000000E+00
  0.00000000E+00  0.00000000E+00  0.00000000E+00
  0.00000000E+00  0.00000000E+00  0.00000000E+00
  0.00000000E+00  0.00000000E+00  0.00000000E+00
  0.00000000E+00  0.00000000E+00  0.00000000E+00
  0.00000000E+00  0.00000000E+00  0.00000000E+00
  0.00000000E+00  0.00000000E+00  0.00000000E+00
  0.00000000E+00  0.00000000E+00  0.00000000E+00
  0.00000000E+00  0.00000000E+00  0.00000000E+00
  0.00000000E+00  0.00000000E+00  0.00000000E+00
  0.00000000E+00  0.00000000E+00  0.00000000E+00
  0.00000000E+00  0.00000000E+00  0.00000000E+00
  0.00000000E+00  0.00000000E+00  0.00000000E+00
  0.00000000E+00  0.00000000E+00  0.00000000E+00
  0.00000000E+00  0.00000000E+00  0.00000000E+00
  0.00000000E+00  0.00000000E+00  0.00000000E+00
  0.00000000E+00  0.00000000E+00  0.00000000E+00
  0.00000000E+00  0.00000000E+00  0.00000000E+00
