 Zr2 Si2 Se2                            
   1.00000000000000     
     3.5201735774413825    0.0000000000000000    0.0000000000000000
     0.0000000000000000    3.5201740854697223    0.0000000000000000
     0.0000000000000000    0.0000000000000000   21.7057111374000016
   Zr   Si   Se
     2     2     2
Direct
  0.5000000360576591  0.0000000658486710  0.5998108798458912
 -0.0000001071072030  0.4999998936572826  0.4001895756080034
  0.0000000406672005  0.0000000138757638  0.4999998700766511
  0.4999999759976099  0.5000000209451692  0.4999998615807065
  0.0000000303919677  0.5000000066048909  0.6544841052635748
  0.5000000239927657 -0.0000000009317776  0.3455157076251730
 
  0.00000000E+00  0.00000000E+00  0.00000000E+00
  0.00000000E+00  0.00000000E+00  0.00000000E+00
  0.00000000E+00  0.00000000E+00  0.00000000E+00
  0.00000000E+00  0.00000000E+00  0.00000000E+00
  0.00000000E+00  0.00000000E+00  0.00000000E+00
  0.00000000E+00  0.00000000E+00  0.00000000E+00
