CONTCAR\(14)                            
   1.00000000000000     
    11.2263002396000005    0.0000000000000000    0.0000000000000000
     0.0000000000000000   21.7961997986000000    0.0000000000000000
     0.0000000000000000    0.0000000000000000   19.3752994536999985
   Ta   Te   Pd
     9    42     9
Direct
  0.1666699969999996  0.4774240794502371  0.4974030374504863
  0.1666699969999996  0.1240865531959509  0.4997406899429514
  0.1666699969999996  0.7760826610105360  0.5170265386609094
  0.5000000000000000  0.4774240794502371  0.4974030374504863
  0.5000000000000000  0.1240865531959509  0.4997406899429514
  0.5000000000000000  0.7760826610105360  0.5170265386609094
  0.8333299490000030  0.4774240794502371  0.4974030374504863
  0.8333299490000030  0.1240865531959509  0.4997406899429514
  0.8333299490000030  0.7760826610105360  0.5170265386609094
 -0.0000000000000000  0.4100802392357491  0.4171256543737275
  0.1666699969999996  0.2397701626420685  0.4230669919339872
  0.1666699969999996  0.8906235316916434  0.5904320247015031
 -0.0000000000000000  0.8429846686414010  0.4363984533680512
 -0.0000000000000000  0.5517071140725923  0.4240009696401454
 -0.0000000000000000  0.4804749781277739  0.6100887892828519
  0.1666699969999996  0.0034432792309366  0.4345382495912439
 -0.0000000000000000  0.0570158384402767  0.5816141394539245
  0.1666699969999996  0.5931431530304098  0.5713790665754874
 -0.0000000000000000  0.1985423945248996  0.5727988702432329
  0.1666699969999996  0.7008670514591553  0.4070289526724954
 -0.0000000000000000  0.1198028591934260  0.3875596858304569
 -0.0000000000000000  0.7399134546000614  0.6143967847950029
  0.1666699969999996  0.3599982935224890  0.5709758256450408
  0.3333300130000012  0.4100802392357491  0.4171256543737275
  0.5000000000000000  0.2397701626420685  0.4230669919339872
  0.5000000000000000  0.8906235316916434  0.5904320247015031
  0.3333300130000012  0.8429846686414010  0.4363984533680512
  0.3333300130000012  0.5517071140725923  0.4240009696401454
  0.3333300130000012  0.4804749781277739  0.6100887892828519
  0.5000000000000000  0.0034432792309366  0.4345382495912439
  0.3333300130000012  0.0570158384402767  0.5816141394539245
  0.5000000000000000  0.5931431530304098  0.5713790665754874
  0.3333300130000012  0.1985423945248996  0.5727988702432329
  0.5000000000000000  0.7008670514591553  0.4070289526724954
  0.3333300130000012  0.1198028591934260  0.3875596858304569
  0.3333300130000012  0.7399134546000614  0.6143967847950029
  0.5000000000000000  0.3599982935224890  0.5709758256450408
  0.6666700079999970  0.4100802392357491  0.4171256543737275
  0.8333299490000030  0.2397701626420685  0.4230669919339872
  0.8333299490000030  0.8906235316916434  0.5904320247015031
  0.6666700079999970  0.8429846686414010  0.4363984533680512
  0.6666700079999970  0.5517071140725923  0.4240009696401454
  0.6666700079999970  0.4804749781277739  0.6100887892828519
  0.8333299490000030  0.0034432792309366  0.4345382495912439
  0.6666700079999970  0.0570158384402767  0.5816141394539245
  0.8333299490000030  0.5931431530304098  0.5713790665754874
  0.6666700079999970  0.1985423945248996  0.5727988702432329
  0.8333299490000030  0.7008670514591553  0.4070289526724954
  0.6666700079999970  0.1198028591934260  0.3875596858304569
  0.6666700079999970  0.7399134546000614  0.6143967847950029
  0.8333299490000030  0.3599982935224890  0.5709758256450408
 -0.0000000000000000  0.9469037438151965  0.5120873609356853
 -0.0000000000000000  0.3018878791637737  0.4945104572625005
 -0.0000000000000000  0.6619681869514269  0.5024374646403366
  0.3333300130000012  0.9469037438151965  0.5120873609356853
  0.3333300130000012  0.3018878791637737  0.4945104572625005
  0.3333300130000012  0.6619681869514269  0.5024374646403366
  0.6666700079999970  0.9469037438151965  0.5120873609356853
  0.6666700079999970  0.3018878791637737  0.4945104572625005
  0.6666700079999970  0.6619681869514269  0.5024374646403366
 
  0.00000000E+00  0.00000000E+00  0.00000000E+00
  0.00000000E+00  0.00000000E+00  0.00000000E+00
  0.00000000E+00  0.00000000E+00  0.00000000E+00
  0.00000000E+00  0.00000000E+00  0.00000000E+00
  0.00000000E+00  0.00000000E+00  0.00000000E+00
  0.00000000E+00  0.00000000E+00  0.00000000E+00
  0.00000000E+00  0.00000000E+00  0.00000000E+00
  0.00000000E+00  0.00000000E+00  0.00000000E+00
  0.00000000E+00  0.00000000E+00  0.00000000E+00
  0.00000000E+00  0.00000000E+00  0.00000000E+00
  0.00000000E+00  0.00000000E+00  0.00000000E+00
  0.00000000E+00  0.00000000E+00  0.00000000E+00
  0.00000000E+00  0.00000000E+00  0.00000000E+00
  0.00000000E+00  0.00000000E+00  0.00000000E+00
  0.00000000E+00  0.00000000E+00  0.00000000E+00
  0.00000000E+00  0.00000000E+00  0.00000000E+00
  0.00000000E+00  0.00000000E+00  0.00000000E+00
  0.00000000E+00  0.00000000E+00  0.00000000E+00
  0.00000000E+00  0.00000000E+00  0.00000000E+00
  0.00000000E+00  0.00000000E+00  0.00000000E+00
  0.00000000E+00  0.00000000E+00  0.00000000E+00
  0.00000000E+00  0.00000000E+00  0.00000000E+00
  0.00000000E+00  0.00000000E+00  0.00000000E+00
  0.00000000E+00  0.00000000E+00  0.00000000E+00
  0.00000000E+00  0.00000000E+00  0.00000000E+00
  0.00000000E+00  0.00000000E+00  0.00000000E+00
  0.00000000E+00  0.00000000E+00  0.00000000E+00
  0.00000000E+00  0.00000000E+00  0.00000000E+00
  0.00000000E+00  0.00000000E+00  0.00000000E+00
  0.00000000E+00  0.00000000E+00  0.00000000E+00
  0.00000000E+00  0.00000000E+00  0.00000000E+00
  0.00000000E+00  0.00000000E+00  0.00000000E+00
  0.00000000E+00  0.00000000E+00  0.00000000E+00
  0.00000000E+00  0.00000000E+00  0.00000000E+00
  0.00000000E+00  0.00000000E+00  0.00000000E+00
  0.00000000E+00  0.00000000E+00  0.00000000E+00
  0.00000000E+00  0.00000000E+00  0.00000000E+00
  0.00000000E+00  0.00000000E+00  0.00000000E+00
  0.00000000E+00  0.00000000E+00  0.00000000E+00
  0.00000000E+00  0.00000000E+00  0.00000000E+00
  0.00000000E+00  0.00000000E+00  0.00000000E+00
  0.00000000E+00  0.00000000E+00  0.00000000E+00
  0.00000000E+00  0.00000000E+00  0.00000000E+00
  0.00000000E+00  0.00000000E+00  0.00000000E+00
  0.00000000E+00  0.00000000E+00  0.00000000E+00
  0.00000000E+00  0.00000000E+00  0.00000000E+00
  0.00000000E+00  0.00000000E+00  0.00000000E+00
  0.00000000E+00  0.00000000E+00  0.00000000E+00
  0.00000000E+00  0.00000000E+00  0.00000000E+00
  0.00000000E+00  0.00000000E+00  0.00000000E+00
  0.00000000E+00  0.00000000E+00  0.00000000E+00
  0.00000000E+00  0.00000000E+00  0.00000000E+00
  0.00000000E+00  0.00000000E+00  0.00000000E+00
  0.00000000E+00  0.00000000E+00  0.00000000E+00
  0.00000000E+00  0.00000000E+00  0.00000000E+00
  0.00000000E+00  0.00000000E+00  0.00000000E+00
  0.00000000E+00  0.00000000E+00  0.00000000E+00
  0.00000000E+00  0.00000000E+00  0.00000000E+00
  0.00000000E+00  0.00000000E+00  0.00000000E+00
  0.00000000E+00  0.00000000E+00  0.00000000E+00
