CONTCAR\(5)                             
   1.00000000000000     
    13.1028995514000002    0.0000000000000000    0.0000000000000000
     0.0000000000000000   13.0989999771000001    0.0000000000000000
     0.0000000000000000    0.0000000000000000   24.4346008300999991
   Nd   Te
    18    54
Direct
  0.1406118289467528  0.0000000000000000  0.5875925518787000
  0.3072718239467491  0.1666700039999967  0.4124074481213000
  0.4739418259467527  0.0000000000000000  0.5875925518787000
  0.6406117919467533  0.1666700039999967  0.4124074481213000
  0.8072718599467521  0.0000000000000000  0.5875925518787000
  0.9739418259467527  0.1666700039999967  0.4124074481213000
  0.1406118289467528  0.3333299960000033  0.5875925518787000
  0.3072718239467491  0.5000000000000000  0.4124074481213000
  0.4739418259467527  0.3333299960000033  0.5875925518787000
  0.6406117919467533  0.5000000000000000  0.4124074481213000
  0.8072718599467521  0.3333299960000033  0.5875925518787000
  0.9739418259467527  0.5000000000000000  0.4124074481213000
  0.1406118289467528  0.6666700399999996  0.5875925518787000
  0.3072718239467491  0.8333299960000033  0.4124074481213000
  0.4739418259467527  0.6666700399999996  0.5875925518787000
  0.6406117919467533  0.8333299960000033  0.4124074481213000
  0.8072718599467521  0.6666700399999996  0.5875925518787000
  0.9739418259467527  0.8333299960000033  0.4124074481213000
  0.1405258854094171  0.1666700039999967  0.3076559671517103
  0.3071958884094173  0.0000000000000000  0.6923439938482900
  0.3072986462788379  0.1666700039999967  0.5477620877222478
  0.1406286432788377  0.0000000000000000  0.4522379122777522
  0.3072036633649873  0.0000000000000000  0.3076542560690427
  0.1405336603649872  0.1666700039999967  0.6923457049309576
  0.4738558834094206  0.1666700039999967  0.3076559671517103
  0.6405258854094171  0.0000000000000000  0.6923439938482900
  0.6406286072788419  0.1666700039999967  0.5477620877222478
  0.4739686122788385  0.0000000000000000  0.4522379122777522
  0.6405336603649872  0.0000000000000000  0.3076542560690427
  0.4738636583649907  0.1666700039999967  0.6923457049309576
  0.8071959244094202  0.1666700039999967  0.3076559671517103
  0.9738559194094165  0.0000000000000000  0.6923439938482900
  0.9739686122788385  0.1666700039999967  0.5477620877222478
  0.8072986462788379  0.0000000000000000  0.4522379122777522
  0.9738636943649865  0.0000000000000000  0.3076542560690427
  0.8072036993649903  0.1666700039999967  0.6923457049309576
  0.1405258854094171  0.5000000000000000  0.3076559671517103
  0.3071958884094173  0.3333299960000033  0.6923439938482900
  0.3072986462788379  0.5000000000000000  0.5477620877222478
  0.1406286432788377  0.3333299960000033  0.4522379122777522
  0.3072036633649873  0.3333299960000033  0.3076542560690427
  0.1405336603649872  0.5000000000000000  0.6923457049309576
  0.4738558834094206  0.5000000000000000  0.3076559671517103
  0.6405258854094171  0.3333299960000033  0.6923439938482900
  0.6406286072788419  0.5000000000000000  0.5477620877222478
  0.4739686122788385  0.3333299960000033  0.4522379122777522
  0.6405336603649872  0.3333299960000033  0.3076542560690427
  0.4738636583649907  0.5000000000000000  0.6923457049309576
  0.8071959244094202  0.5000000000000000  0.3076559671517103
  0.9738559194094165  0.3333299960000033  0.6923439938482900
  0.9739686122788385  0.5000000000000000  0.5477620877222478
  0.8072986462788379  0.3333299960000033  0.4522379122777522
  0.9738636943649865  0.3333299960000033  0.3076542560690427
  0.8072036993649903  0.5000000000000000  0.6923457049309576
  0.1405258854094171  0.8333299960000033  0.3076559671517103
  0.3071958884094173  0.6666700399999996  0.6923439938482900
  0.3072986462788379  0.8333299960000033  0.5477620877222478
  0.1406286432788377  0.6666700399999996  0.4522379122777522
  0.3072036633649873  0.6666700399999996  0.3076542560690427
  0.1405336603649872  0.8333299960000033  0.6923457049309576
  0.4738558834094206  0.8333299960000033  0.3076559671517103
  0.6405258854094171  0.6666700399999996  0.6923439938482900
  0.6406286072788419  0.8333299960000033  0.5477620877222478
  0.4739686122788385  0.6666700399999996  0.4522379122777522
  0.6405336603649872  0.6666700399999996  0.3076542560690427
  0.4738636583649907  0.8333299960000033  0.6923457049309576
  0.8071959244094202  0.8333299960000033  0.3076559671517103
  0.9738559194094165  0.6666700399999996  0.6923439938482900
  0.9739686122788385  0.8333299960000033  0.5477620877222478
  0.8072986462788379  0.6666700399999996  0.4522379122777522
  0.9738636943649865  0.6666700399999996  0.3076542560690427
  0.8072036993649903  0.8333299960000033  0.6923457049309576
 
  0.00000000E+00  0.00000000E+00  0.00000000E+00
  0.00000000E+00  0.00000000E+00  0.00000000E+00
  0.00000000E+00  0.00000000E+00  0.00000000E+00
  0.00000000E+00  0.00000000E+00  0.00000000E+00
  0.00000000E+00  0.00000000E+00  0.00000000E+00
  0.00000000E+00  0.00000000E+00  0.00000000E+00
  0.00000000E+00  0.00000000E+00  0.00000000E+00
  0.00000000E+00  0.00000000E+00  0.00000000E+00
  0.00000000E+00  0.00000000E+00  0.00000000E+00
  0.00000000E+00  0.00000000E+00  0.00000000E+00
  0.00000000E+00  0.00000000E+00  0.00000000E+00
  0.00000000E+00  0.00000000E+00  0.00000000E+00
  0.00000000E+00  0.00000000E+00  0.00000000E+00
  0.00000000E+00  0.00000000E+00  0.00000000E+00
  0.00000000E+00  0.00000000E+00  0.00000000E+00
  0.00000000E+00  0.00000000E+00  0.00000000E+00
  0.00000000E+00  0.00000000E+00  0.00000000E+00
  0.00000000E+00  0.00000000E+00  0.00000000E+00
  0.00000000E+00  0.00000000E+00  0.00000000E+00
  0.00000000E+00  0.00000000E+00  0.00000000E+00
  0.00000000E+00  0.00000000E+00  0.00000000E+00
  0.00000000E+00  0.00000000E+00  0.00000000E+00
  0.00000000E+00  0.00000000E+00  0.00000000E+00
  0.00000000E+00  0.00000000E+00  0.00000000E+00
  0.00000000E+00  0.00000000E+00  0.00000000E+00
  0.00000000E+00  0.00000000E+00  0.00000000E+00
  0.00000000E+00  0.00000000E+00  0.00000000E+00
  0.00000000E+00  0.00000000E+00  0.00000000E+00
  0.00000000E+00  0.00000000E+00  0.00000000E+00
  0.00000000E+00  0.00000000E+00  0.00000000E+00
  0.00000000E+00  0.00000000E+00  0.00000000E+00
  0.00000000E+00  0.00000000E+00  0.00000000E+00
  0.00000000E+00  0.00000000E+00  0.00000000E+00
  0.00000000E+00  0.00000000E+00  0.00000000E+00
  0.00000000E+00  0.00000000E+00  0.00000000E+00
  0.00000000E+00  0.00000000E+00  0.00000000E+00
  0.00000000E+00  0.00000000E+00  0.00000000E+00
  0.00000000E+00  0.00000000E+00  0.00000000E+00
  0.00000000E+00  0.00000000E+00  0.00000000E+00
  0.00000000E+00  0.00000000E+00  0.00000000E+00
  0.00000000E+00  0.00000000E+00  0.00000000E+00
  0.00000000E+00  0.00000000E+00  0.00000000E+00
  0.00000000E+00  0.00000000E+00  0.00000000E+00
  0.00000000E+00  0.00000000E+00  0.00000000E+00
  0.00000000E+00  0.00000000E+00  0.00000000E+00
  0.00000000E+00  0.00000000E+00  0.00000000E+00
  0.00000000E+00  0.00000000E+00  0.00000000E+00
  0.00000000E+00  0.00000000E+00  0.00000000E+00
  0.00000000E+00  0.00000000E+00  0.00000000E+00
  0.00000000E+00  0.00000000E+00  0.00000000E+00
  0.00000000E+00  0.00000000E+00  0.00000000E+00
  0.00000000E+00  0.00000000E+00  0.00000000E+00
  0.00000000E+00  0.00000000E+00  0.00000000E+00
  0.00000000E+00  0.00000000E+00  0.00000000E+00
  0.00000000E+00  0.00000000E+00  0.00000000E+00
  0.00000000E+00  0.00000000E+00  0.00000000E+00
  0.00000000E+00  0.00000000E+00  0.00000000E+00
  0.00000000E+00  0.00000000E+00  0.00000000E+00
  0.00000000E+00  0.00000000E+00  0.00000000E+00
  0.00000000E+00  0.00000000E+00  0.00000000E+00
  0.00000000E+00  0.00000000E+00  0.00000000E+00
  0.00000000E+00  0.00000000E+00  0.00000000E+00
  0.00000000E+00  0.00000000E+00  0.00000000E+00
  0.00000000E+00  0.00000000E+00  0.00000000E+00
  0.00000000E+00  0.00000000E+00  0.00000000E+00
  0.00000000E+00  0.00000000E+00  0.00000000E+00
  0.00000000E+00  0.00000000E+00  0.00000000E+00
  0.00000000E+00  0.00000000E+00  0.00000000E+00
  0.00000000E+00  0.00000000E+00  0.00000000E+00
  0.00000000E+00  0.00000000E+00  0.00000000E+00
  0.00000000E+00  0.00000000E+00  0.00000000E+00
  0.00000000E+00  0.00000000E+00  0.00000000E+00
