CONTCAR\(3)                             
   1.00000000000000     
    11.2130002975000007    0.0000000000000000    0.0000000000000000
     0.0000000000000000   15.4723997115999996    0.0000000000000000
     0.0000000000000000    0.0000000000000000   19.4957008362000010
   Ta   Te   Pt   O    H 
     6    30     6     2     1
Direct
  0.0004589325245447  0.2493541371516534  0.5019507218911856
  0.0002662683956003  0.7483915415925632  0.4963846859334746
  0.3336032607575352  0.2505038736316154  0.5012130497674937
  0.3332508988046817  0.7498718874475938  0.4992819869801648
  0.6665114119121762  0.2492676334997240  0.5018448771486067
  0.6661059338182872  0.7482637387641170  0.4964716770092319
  0.1673383620354748  0.2503715198238067  0.6132124662511964
  0.1689790753205489  0.7495461675705254  0.3860205285262975
  0.0005783465394069  0.9152071380447181  0.4264220748866137
  0.0009228631764649  0.0834474056746729  0.5741332496336551
  0.1674437718106075  0.1485852141154177  0.4242052908627094
  0.1660726742802388  0.8547437898356797  0.5732743633257990
  0.1649927228835863  0.6446456704911934  0.5726232171782649
  0.1667538670897430  0.3516135586295902  0.4240826968538933
  0.9994305596935139  0.5832672647149407  0.4231218287443257
  0.9996948920551384  0.4156301992983811  0.5730250826229761
  0.4998091948683106  0.2502130946839191  0.6130976872640830
  0.4974918796405944  0.7495412683188686  0.3860283315730380
  0.3333696985365033  0.9152648166598044  0.4241058696351616
  0.3334830213302776  0.0859366980005727  0.5740838975450188
  0.4996002656946447  0.1485561991711810  0.4240306554577215
  0.5002965729744633  0.8548290877048347  0.5732393199835378
  0.5011721529596705  0.6447392957504806  0.5728027842228633
  0.5003103417499085  0.3518310153957057  0.4241615416318250
  0.3333960496482932  0.5845108105256674  0.4242692690846822
  0.3335168232465094  0.4157974337458870  0.5735365147586852
  0.8332797921609234  0.2496018144132591  0.6135851486555447
  0.8331725899554283  0.7486686928471178  0.3852105824640773
  0.6660529640645865  0.9148761621840076  0.4262911585456668
  0.6658116452671313  0.0835037490140740  0.5743652964061728
  0.8335363029600235  0.1469530181045348  0.4256673441014890
  0.8330823221618161  0.8494890743077556  0.5736407501665489
  0.8331771949670195  0.6467420197235008  0.5730390432503044
  0.8334849374928728  0.3499672063569804  0.4244293311324315
  0.6668590994326136  0.5831759165033182  0.4231637941080703
  0.6674347469973007  0.4151462661882018  0.5731657060530255
  0.1679188993571019  0.0008547029438070  0.4986001917190567
  0.1662490843901815  0.4991389607226751  0.4978208015236690
  0.4989351861517036  0.0009068135207113  0.4985938101292690
  0.5007129630518385  0.4991923372490379  0.4980886163731906
  0.8331919124642392  0.9989997737997794  0.5004776958630829
  0.8332261697768860  0.4990961678443404  0.4978512339940492
  0.3336288240297836  0.7879827597839579  0.6502614859946404
  0.3341730992744747  0.7392097146199975  0.7124977406816626
  0.3346327022973125  0.6789441956298627  0.6955168150655283
 
  0.00000000E+00  0.00000000E+00  0.00000000E+00
  0.00000000E+00  0.00000000E+00  0.00000000E+00
  0.00000000E+00  0.00000000E+00  0.00000000E+00
  0.00000000E+00  0.00000000E+00  0.00000000E+00
  0.00000000E+00  0.00000000E+00  0.00000000E+00
  0.00000000E+00  0.00000000E+00  0.00000000E+00
  0.00000000E+00  0.00000000E+00  0.00000000E+00
  0.00000000E+00  0.00000000E+00  0.00000000E+00
  0.00000000E+00  0.00000000E+00  0.00000000E+00
  0.00000000E+00  0.00000000E+00  0.00000000E+00
  0.00000000E+00  0.00000000E+00  0.00000000E+00
  0.00000000E+00  0.00000000E+00  0.00000000E+00
  0.00000000E+00  0.00000000E+00  0.00000000E+00
  0.00000000E+00  0.00000000E+00  0.00000000E+00
  0.00000000E+00  0.00000000E+00  0.00000000E+00
  0.00000000E+00  0.00000000E+00  0.00000000E+00
  0.00000000E+00  0.00000000E+00  0.00000000E+00
  0.00000000E+00  0.00000000E+00  0.00000000E+00
  0.00000000E+00  0.00000000E+00  0.00000000E+00
  0.00000000E+00  0.00000000E+00  0.00000000E+00
  0.00000000E+00  0.00000000E+00  0.00000000E+00
  0.00000000E+00  0.00000000E+00  0.00000000E+00
  0.00000000E+00  0.00000000E+00  0.00000000E+00
  0.00000000E+00  0.00000000E+00  0.00000000E+00
  0.00000000E+00  0.00000000E+00  0.00000000E+00
  0.00000000E+00  0.00000000E+00  0.00000000E+00
  0.00000000E+00  0.00000000E+00  0.00000000E+00
  0.00000000E+00  0.00000000E+00  0.00000000E+00
  0.00000000E+00  0.00000000E+00  0.00000000E+00
  0.00000000E+00  0.00000000E+00  0.00000000E+00
  0.00000000E+00  0.00000000E+00  0.00000000E+00
  0.00000000E+00  0.00000000E+00  0.00000000E+00
  0.00000000E+00  0.00000000E+00  0.00000000E+00
  0.00000000E+00  0.00000000E+00  0.00000000E+00
  0.00000000E+00  0.00000000E+00  0.00000000E+00
  0.00000000E+00  0.00000000E+00  0.00000000E+00
  0.00000000E+00  0.00000000E+00  0.00000000E+00
  0.00000000E+00  0.00000000E+00  0.00000000E+00
  0.00000000E+00  0.00000000E+00  0.00000000E+00
  0.00000000E+00  0.00000000E+00  0.00000000E+00
  0.00000000E+00  0.00000000E+00  0.00000000E+00
  0.00000000E+00  0.00000000E+00  0.00000000E+00
  0.00000000E+00  0.00000000E+00  0.00000000E+00
  0.00000000E+00  0.00000000E+00  0.00000000E+00
  0.00000000E+00  0.00000000E+00  0.00000000E+00
