CONTCAR\(14)                            
   1.00000000000000     
    11.4131002426000006    0.0000000000000000    0.0000000000000000
     0.0000000000000000   11.4131002426000006    0.0000000000000000
     0.0000000000000000    0.0000000000000000   19.8188991546999986
   Na   Fe   As   O 
    18    18    18     1
Direct
  0.1621354495026225  0.0020471363588802  0.3697976377690985
  0.0004037363731899  0.1672562495849850  0.6378783119008264
  0.4957883648671810  0.0015332813800327  0.3651971056723545
  0.3390556523482999  0.1696353153935883  0.6344455565892629
  0.8347283194476885  0.0023390468521428  0.3680666738120927
  0.6667656867567529  0.1670235747563915  0.6338080181359927
  0.1615807079040133  0.3309220105627186  0.3693145828509217
 -0.0001808339842320  0.5042525720423802  0.6377630508230818
  0.4997800170184895  0.3286422344958617  0.3642436571814831
  0.3489914792983103  0.5139502113762742  0.6368474852609284
  0.8370419562798905  0.3303663692500801  0.3690298685974346
  0.6520369283290338  0.5138815609654925  0.6367736675176994
  0.1608342569745883  0.6645224540988947  0.3670709770677142
  0.0045018059216941  0.8328355243574640  0.6374939772076866
  0.4988804744625439  0.6660237597172016  0.3638154356890131
  0.3492617679972778  0.8200211508247086  0.6369538268988350
  0.8341542507358799  0.6666749515273873  0.3671296801909589
  0.6533149861167658  0.8181808171653957  0.6379456676154230
  0.0044633682464904 -0.0037790193899753  0.5068042662543735
  0.1705465204897965  0.1690115104492071  0.5067862101348726
  0.3350111879156075 -0.0039655448128392  0.5003386602256210
  0.5003165882361973  0.1648858041242235  0.4993470733917032
  0.6720379386725513  0.9986711801369140  0.5020064628450561
  0.8285971730518260  0.1644323512015815  0.5054029119846689
 -0.0010681298830484  0.3350627257094762  0.5075287477778133
  0.1704982401931924  0.4994945520370775  0.5023100449292213
  0.3284356591062420  0.3341100568985494  0.5010909039206703
  0.5009541929860893  0.4952801843158333  0.4933969451335670
  0.6716570555296130  0.3323098344520094  0.4995174672153259
  0.8281184934765091  0.5018620932492367  0.5031076770647902
  0.0002504972502044  0.6686843639811125  0.5040070188565600
  0.1662598712325437  0.8372655780818510  0.5029442369262646
  0.3267619378226492  0.6636505001753366  0.4945465712373387
  0.4951882447790928  0.8407468888850115  0.4946170680383186
  0.6749310961149427  0.6680962993086196  0.4953823995667169
  0.8279851809262071  0.8340537338915986  0.5010067507882858
  0.0002723240204050  0.1662146510848959  0.4351669172781961
  0.1742504096910665  0.0024570889088417  0.5796813537476657
  0.3314594871247696  0.1658446672108953  0.4288914437755115
  0.5042028536062483  0.9994613681252149  0.5735913118245735
  0.6656392565724790  0.1648978548796913  0.4263814688734772
  0.8367370534280895  0.9961221488711988  0.5796994669998125
 -0.0010946623195107  0.5000339656720943  0.4316941142194464
  0.1655271033982257  0.3377169204803226  0.5795072138238153
  0.3332807041026270  0.4954968090919897  0.4233825673964526
  0.5008253559887849  0.3346784346139686  0.5713186355404923
  0.6679169893956972  0.4972497437838485  0.4231356297494432
  0.8319993406848263  0.3359806916755337  0.5784853563120317
 -0.0035687152655706  0.8337040945081580  0.4298519046738343
  0.1693519703137084  0.6678726481064631  0.5744673505160831
  0.3267806482557302  0.8310073538231849  0.4231979813404037
  0.5000529148092255  0.6677839608486165  0.5557954518058575
  0.6628307799510765  0.8367550262608051  0.4228720588572775
  0.8341178297797036  0.6686453207980381  0.5767947987106207
  0.4992181569658108  0.6655558848515591  0.6490586094829769
 
  0.00000000E+00  0.00000000E+00  0.00000000E+00
  0.00000000E+00  0.00000000E+00  0.00000000E+00
  0.00000000E+00  0.00000000E+00  0.00000000E+00
  0.00000000E+00  0.00000000E+00  0.00000000E+00
  0.00000000E+00  0.00000000E+00  0.00000000E+00
  0.00000000E+00  0.00000000E+00  0.00000000E+00
  0.00000000E+00  0.00000000E+00  0.00000000E+00
  0.00000000E+00  0.00000000E+00  0.00000000E+00
  0.00000000E+00  0.00000000E+00  0.00000000E+00
  0.00000000E+00  0.00000000E+00  0.00000000E+00
  0.00000000E+00  0.00000000E+00  0.00000000E+00
  0.00000000E+00  0.00000000E+00  0.00000000E+00
  0.00000000E+00  0.00000000E+00  0.00000000E+00
  0.00000000E+00  0.00000000E+00  0.00000000E+00
  0.00000000E+00  0.00000000E+00  0.00000000E+00
  0.00000000E+00  0.00000000E+00  0.00000000E+00
  0.00000000E+00  0.00000000E+00  0.00000000E+00
  0.00000000E+00  0.00000000E+00  0.00000000E+00
  0.00000000E+00  0.00000000E+00  0.00000000E+00
  0.00000000E+00  0.00000000E+00  0.00000000E+00
  0.00000000E+00  0.00000000E+00  0.00000000E+00
  0.00000000E+00  0.00000000E+00  0.00000000E+00
  0.00000000E+00  0.00000000E+00  0.00000000E+00
  0.00000000E+00  0.00000000E+00  0.00000000E+00
  0.00000000E+00  0.00000000E+00  0.00000000E+00
  0.00000000E+00  0.00000000E+00  0.00000000E+00
  0.00000000E+00  0.00000000E+00  0.00000000E+00
  0.00000000E+00  0.00000000E+00  0.00000000E+00
  0.00000000E+00  0.00000000E+00  0.00000000E+00
  0.00000000E+00  0.00000000E+00  0.00000000E+00
  0.00000000E+00  0.00000000E+00  0.00000000E+00
  0.00000000E+00  0.00000000E+00  0.00000000E+00
  0.00000000E+00  0.00000000E+00  0.00000000E+00
  0.00000000E+00  0.00000000E+00  0.00000000E+00
  0.00000000E+00  0.00000000E+00  0.00000000E+00
  0.00000000E+00  0.00000000E+00  0.00000000E+00
  0.00000000E+00  0.00000000E+00  0.00000000E+00
  0.00000000E+00  0.00000000E+00  0.00000000E+00
  0.00000000E+00  0.00000000E+00  0.00000000E+00
  0.00000000E+00  0.00000000E+00  0.00000000E+00
  0.00000000E+00  0.00000000E+00  0.00000000E+00
  0.00000000E+00  0.00000000E+00  0.00000000E+00
  0.00000000E+00  0.00000000E+00  0.00000000E+00
  0.00000000E+00  0.00000000E+00  0.00000000E+00
  0.00000000E+00  0.00000000E+00  0.00000000E+00
  0.00000000E+00  0.00000000E+00  0.00000000E+00
  0.00000000E+00  0.00000000E+00  0.00000000E+00
  0.00000000E+00  0.00000000E+00  0.00000000E+00
  0.00000000E+00  0.00000000E+00  0.00000000E+00
  0.00000000E+00  0.00000000E+00  0.00000000E+00
  0.00000000E+00  0.00000000E+00  0.00000000E+00
  0.00000000E+00  0.00000000E+00  0.00000000E+00
  0.00000000E+00  0.00000000E+00  0.00000000E+00
  0.00000000E+00  0.00000000E+00  0.00000000E+00
  0.00000000E+00  0.00000000E+00  0.00000000E+00
