CONTCAR\(6)                             
   1.00000000000000     
    15.7593002318999993    0.0000000000000000    0.0000000000000000
     0.0000000000000000   15.7517004013000008    0.0000000000000000
     0.0000000000000000    0.0000000000000000   17.5345993042000003
   Fe   S    O    H 
    32    40     2     1
Direct
  0.4461872386414477  0.1321824167311712  0.4975657937481495
  0.3899954532016649  0.2834210619251397  0.4970785275868088
  0.3470203210356974  0.4358740303959063  0.5069623148324878
  0.2933589629181804  0.0924275625958216  0.5098504406471601
  0.0425713889645403  0.3410655266409262  0.4975751039955689
  0.0981135761053470  0.1884244724851521  0.4994331961113251
  0.1411172715309444  0.0352273228077986  0.5102807934189437
  0.1948927401047688  0.3805724277187065  0.5074877226486566
  0.9457755105927740  0.1324381766651337  0.4991831521143238
  0.8901139722241626  0.2850564909957873  0.4989038585657808
  0.8481195239547676  0.4386629433386137  0.5091883096617960
  0.7935809723264424  0.0916343486971223  0.5107201668921327
  0.5426114097533734  0.3420153994429184  0.4972252194349769
  0.5985023277108544  0.1893116285618988  0.4985699184243676
  0.6410772329495468  0.0358020482596269  0.5097565064389716
  0.6951573092082862  0.3834960536458211  0.5090982191427887
  0.4471583983235653  0.6366250280713287  0.4985659886356429
  0.3914714397611895  0.7881044496422941  0.4992462735022509
  0.3488055864325025  0.9404483514782438  0.5100090626531495
  0.2966156187243192  0.5887856823717962  0.5024366042631949
  0.0446628748853698  0.8408010081691556  0.4998957992292662
  0.0998541539677009  0.6879668391506821  0.4990023795175897
  0.1426985749504246  0.5340931153164860  0.5063342928309397
  0.1967814429435697  0.8826796698169652  0.5106025672526524
  0.9465462915568850  0.6325013486498479  0.4995567639946706
  0.8920410327501639  0.7853039563291666  0.5011307622581246
  0.8490484564926468  0.9388458531700529  0.5108578548422140
  0.7938572409957447  0.5917300297833866  0.5104202693473835
  0.5441133162852706  0.8436450093241317  0.4987611603269400
  0.5992607077763377  0.6907448247018227  0.4994080960874684
  0.6408942593640062  0.5366105494176857  0.5088033050966093
  0.6965222104182561  0.8830938639485033  0.5114611047399328
  0.4940724323832339  0.2372948686747002  0.5685184039025972
  0.3936175041719496  0.0442199733657027  0.5806399412177740
  0.3461552752442298  0.1797107369679884  0.4261718983780634
  0.2992940690864325  0.3353614833825680  0.5765402826212909
  0.2441567308920330  0.4836130267442125  0.4347345856866551
  0.0504542531695187  0.0865196036080769  0.4305522042278200
  0.0961138055745893  0.4315437813358069  0.5782289521469316
  0.1417428569110415  0.2909731043564571  0.4264294463075239
  0.1886845757599643  0.1371152007435058  0.5792379086757639
  0.4376106600280768  0.3848181011639277  0.4268483933965424
  0.9942313980248976  0.2374420573490358  0.5697340773036951
  0.8934586975829308  0.0431067792781205  0.5817111043120331
  0.8460016275206798  0.1807139391637240  0.4279864565247238
  0.7994028572304088  0.3372547527503905  0.5780758510238261
  0.7446812936026267  0.4881061309970012  0.4384947413575471
  0.5514717892200616  0.0874037785109952  0.4292725891873088
  0.5948386893490027  0.4324990115713279  0.5791671819726202
  0.6431057805933299  0.2933352008383743  0.4271010181704687
  0.6884281572819650  0.1376883629115340  0.5788386091499360
  0.9376387548482649  0.3862333330321591  0.4289464559825061
  0.4951325964264982  0.7398891438106066  0.5698826672923398
  0.3955259459016697  0.5403650367963913  0.5727877152203373
  0.3474330720514031  0.6849238589318584  0.4272402463689652
  0.3018810737248319  0.8389814481597225  0.5796277801550267
  0.2446310036486979  0.9874633149999241  0.4393058692771304
  0.0503735546318350  0.5873279772537504  0.4297643918842218
  0.0967886699399293  0.9311380967060564  0.5815076427944048
  0.1442375838771953  0.7925426209470808  0.4288231436103598
  0.1946297079593376  0.6347580830011588  0.5741438558294381
  0.4391929888116779  0.8892736255042528  0.4301940618886657
  0.9966032972572869  0.7359383799581998  0.5708235957318764
  0.8936302869665119  0.5419629073579773  0.5807295635500079
  0.8465992796988915  0.6823000075591759  0.4294476558396323
  0.8012855972264536  0.8374573913595459  0.5803004766076471
  0.7453140697153737  0.9868530626100839  0.4397923424171653
  0.5511358562391228  0.5897420112009994  0.4293011471166105
  0.5962766031027752  0.9325438949794547  0.5814761822803082
  0.6443890383661610  0.7943832517947871  0.4285793103375700
  0.6888816719970429  0.6373704160333173  0.5788220436641620
  0.9396302159046538  0.8866428143089526  0.4316452209234141
  0.3030888212380501  0.5130249177239794  0.6985961162041113
  0.3784478780281612  0.5565045944049067  0.6728256535568444
  0.2579431089604637  0.5531682706030824  0.6831315076618633
 
  0.00000000E+00  0.00000000E+00  0.00000000E+00
  0.00000000E+00  0.00000000E+00  0.00000000E+00
  0.00000000E+00  0.00000000E+00  0.00000000E+00
  0.00000000E+00  0.00000000E+00  0.00000000E+00
  0.00000000E+00  0.00000000E+00  0.00000000E+00
  0.00000000E+00  0.00000000E+00  0.00000000E+00
  0.00000000E+00  0.00000000E+00  0.00000000E+00
  0.00000000E+00  0.00000000E+00  0.00000000E+00
  0.00000000E+00  0.00000000E+00  0.00000000E+00
  0.00000000E+00  0.00000000E+00  0.00000000E+00
  0.00000000E+00  0.00000000E+00  0.00000000E+00
  0.00000000E+00  0.00000000E+00  0.00000000E+00
  0.00000000E+00  0.00000000E+00  0.00000000E+00
  0.00000000E+00  0.00000000E+00  0.00000000E+00
  0.00000000E+00  0.00000000E+00  0.00000000E+00
  0.00000000E+00  0.00000000E+00  0.00000000E+00
  0.00000000E+00  0.00000000E+00  0.00000000E+00
  0.00000000E+00  0.00000000E+00  0.00000000E+00
  0.00000000E+00  0.00000000E+00  0.00000000E+00
  0.00000000E+00  0.00000000E+00  0.00000000E+00
  0.00000000E+00  0.00000000E+00  0.00000000E+00
  0.00000000E+00  0.00000000E+00  0.00000000E+00
  0.00000000E+00  0.00000000E+00  0.00000000E+00
  0.00000000E+00  0.00000000E+00  0.00000000E+00
  0.00000000E+00  0.00000000E+00  0.00000000E+00
  0.00000000E+00  0.00000000E+00  0.00000000E+00
  0.00000000E+00  0.00000000E+00  0.00000000E+00
  0.00000000E+00  0.00000000E+00  0.00000000E+00
  0.00000000E+00  0.00000000E+00  0.00000000E+00
  0.00000000E+00  0.00000000E+00  0.00000000E+00
  0.00000000E+00  0.00000000E+00  0.00000000E+00
  0.00000000E+00  0.00000000E+00  0.00000000E+00
  0.00000000E+00  0.00000000E+00  0.00000000E+00
  0.00000000E+00  0.00000000E+00  0.00000000E+00
  0.00000000E+00  0.00000000E+00  0.00000000E+00
  0.00000000E+00  0.00000000E+00  0.00000000E+00
  0.00000000E+00  0.00000000E+00  0.00000000E+00
  0.00000000E+00  0.00000000E+00  0.00000000E+00
  0.00000000E+00  0.00000000E+00  0.00000000E+00
  0.00000000E+00  0.00000000E+00  0.00000000E+00
  0.00000000E+00  0.00000000E+00  0.00000000E+00
  0.00000000E+00  0.00000000E+00  0.00000000E+00
  0.00000000E+00  0.00000000E+00  0.00000000E+00
  0.00000000E+00  0.00000000E+00  0.00000000E+00
  0.00000000E+00  0.00000000E+00  0.00000000E+00
  0.00000000E+00  0.00000000E+00  0.00000000E+00
  0.00000000E+00  0.00000000E+00  0.00000000E+00
  0.00000000E+00  0.00000000E+00  0.00000000E+00
  0.00000000E+00  0.00000000E+00  0.00000000E+00
  0.00000000E+00  0.00000000E+00  0.00000000E+00
  0.00000000E+00  0.00000000E+00  0.00000000E+00
  0.00000000E+00  0.00000000E+00  0.00000000E+00
  0.00000000E+00  0.00000000E+00  0.00000000E+00
  0.00000000E+00  0.00000000E+00  0.00000000E+00
  0.00000000E+00  0.00000000E+00  0.00000000E+00
  0.00000000E+00  0.00000000E+00  0.00000000E+00
  0.00000000E+00  0.00000000E+00  0.00000000E+00
  0.00000000E+00  0.00000000E+00  0.00000000E+00
  0.00000000E+00  0.00000000E+00  0.00000000E+00
  0.00000000E+00  0.00000000E+00  0.00000000E+00
  0.00000000E+00  0.00000000E+00  0.00000000E+00
  0.00000000E+00  0.00000000E+00  0.00000000E+00
  0.00000000E+00  0.00000000E+00  0.00000000E+00
  0.00000000E+00  0.00000000E+00  0.00000000E+00
  0.00000000E+00  0.00000000E+00  0.00000000E+00
  0.00000000E+00  0.00000000E+00  0.00000000E+00
  0.00000000E+00  0.00000000E+00  0.00000000E+00
  0.00000000E+00  0.00000000E+00  0.00000000E+00
  0.00000000E+00  0.00000000E+00  0.00000000E+00
  0.00000000E+00  0.00000000E+00  0.00000000E+00
  0.00000000E+00  0.00000000E+00  0.00000000E+00
  0.00000000E+00  0.00000000E+00  0.00000000E+00
  0.00000000E+00  0.00000000E+00  0.00000000E+00
  0.00000000E+00  0.00000000E+00  0.00000000E+00
  0.00000000E+00  0.00000000E+00  0.00000000E+00
