CONTCAR\(9)                             
   1.00000000000000     
    13.8964004516999999    0.0000000000000000    0.0000000000000000
     0.0991868080000000   15.6682861384999992    0.0000000000000000
     0.0000000000000000    0.0000000000000000   19.4270992279000012
   Ta   Ni   Se   O 
    16     8    40     1
Direct
  0.0622531951690794  0.1109551158227957  0.4794313674340983
  0.0592793121933262  0.3907696041719265  0.4797748206170427
  0.1852696082232336  0.8918548303750743  0.5193756742323012
  0.1881951003529343  0.6099192560859816  0.5196243402005983
  0.3139576392245779  0.1106179798077839  0.4807365693433963
  0.3109816709309707  0.3911319439374495  0.4809018920363285
  0.4348067929033644  0.8924262469753886  0.5201372323603124
  0.4378158069322211  0.6094829055615807  0.5202236993623967
  0.5638742086438450  0.1125551055353920  0.4805872794203971
  0.5609322525087708  0.3895956548607021  0.4804368084556394
  0.6847960579988068  0.8919350527979009  0.5207055513770479
  0.6876682667996968  0.6101947358681930  0.5206970447709883
  0.8119796936238430  0.1081476131904199  0.4828854699237130
  0.8090415565506711  0.3938182576010908  0.4831232635384629
  0.9351252370279666  0.8913223932021901  0.5202189191178610
  0.9380432418743481  0.6105680610328814  0.5203248071247131
  0.1862370752711915  0.2508422678372894  0.4668840548590789
  0.0617086008139189  0.7508011141258463  0.5328182945407980
  0.4398836472050348  0.2510144047819265  0.4664123354513415
  0.3112291767547536  0.7509912845138361  0.5333790045355794
  0.7067557863777183  0.2512084257188262  0.4603990525882194
  0.5614204362238738  0.7511089315516299  0.5338564922285886
  0.9292129335731036  0.2505412989167636  0.4678019496168840
  0.8113353047432209  0.7511310432095052  0.5336520756500426
  0.1860672572693720  0.1399857100680841  0.3859539460461534
  0.1875471749777184  0.3620892873260192  0.3862881451905003
  0.0629861499118765  0.8610183819464218  0.6141930783926978
  0.0612923495892611  0.6408406116975360  0.6143731276492829
  0.0619151516334160  0.9506356885059349  0.4298667551402941
  0.0604123074105835  0.5508096548363891  0.4302378870427595
  0.1857720170916836  0.0509385980322463  0.5696750351008744
  0.1873498906926449  0.4507788810555916  0.5700338825143422
  0.0596361471676021  0.2506724108531859  0.5500511475665670
  0.1868825178695289  0.7506927771214884  0.4492333490595884
  0.4357530717501271  0.1399218263253207  0.3858334033486266
  0.4371695952761224  0.3618838808643751  0.3857876197048904
  0.3119939061331978  0.8617463791947239  0.6143975013751793
  0.3104569720715046  0.6401267478325033  0.6144649357112681
  0.3125875907236503  0.9509374347717581  0.4296562417120348
  0.3109239947856796  0.5508014779879630  0.4297986165875708
  0.4366550944477472  0.0518496537276693  0.5706266699338370
  0.4382553475903349  0.4497585150797582  0.5706002813315729
  0.3129285190902197  0.2507271530181561  0.5499040637066982
  0.4366738170672304  0.7508481302546026  0.4500803800709333
  0.6856984399315729  0.1380707033722762  0.3853873666704536
  0.6878266718511657  0.3648119079173787  0.3855234715260406
  0.5618187871785751  0.8616141607195412  0.6149550679555219
  0.5601187420684253  0.6405037718057093  0.6149333237289184
  0.5622946244573667  0.9523458387677092  0.4311656165648907
  0.5608089988280941  0.5497207901493915  0.4311205768049909
  0.6850454335265408  0.0515156337461191  0.5716999968479479
  0.6862129123965977  0.4506751982977042  0.5718441083978605
  0.5538740819864602  0.2509680620345557  0.5574136461378900
  0.6861343415676273  0.7509897605644721  0.4501562954342332
  0.9345145904565936  0.1392318040570071  0.3867266283880996
  0.9360974549249310  0.3618994899713866  0.3868383641552762
  0.8123844467534433  0.8616225716250688  0.6149501673896316
  0.8107826390486049  0.6405635452842353  0.6148681147306337
  0.8117749401416193  0.9502585979275853  0.4304505163117809
  0.8103918423521289  0.5517651675937295  0.4305187973237681
  0.9369036088147088  0.0503146818820846  0.5710802231971757
  0.9382722111635819  0.4514116053028770  0.5712100985288487
  0.8097174548577575  0.2510388612174733  0.5540229879244103
  0.9359583256133500  0.7508743294862400  0.4494858782891830
  0.4948083126108722  0.2508976652953372  0.6340138427209344
 
  0.00000000E+00  0.00000000E+00  0.00000000E+00
  0.00000000E+00  0.00000000E+00  0.00000000E+00
  0.00000000E+00  0.00000000E+00  0.00000000E+00
  0.00000000E+00  0.00000000E+00  0.00000000E+00
  0.00000000E+00  0.00000000E+00  0.00000000E+00
  0.00000000E+00  0.00000000E+00  0.00000000E+00
  0.00000000E+00  0.00000000E+00  0.00000000E+00
  0.00000000E+00  0.00000000E+00  0.00000000E+00
  0.00000000E+00  0.00000000E+00  0.00000000E+00
  0.00000000E+00  0.00000000E+00  0.00000000E+00
  0.00000000E+00  0.00000000E+00  0.00000000E+00
  0.00000000E+00  0.00000000E+00  0.00000000E+00
  0.00000000E+00  0.00000000E+00  0.00000000E+00
  0.00000000E+00  0.00000000E+00  0.00000000E+00
  0.00000000E+00  0.00000000E+00  0.00000000E+00
  0.00000000E+00  0.00000000E+00  0.00000000E+00
  0.00000000E+00  0.00000000E+00  0.00000000E+00
  0.00000000E+00  0.00000000E+00  0.00000000E+00
  0.00000000E+00  0.00000000E+00  0.00000000E+00
  0.00000000E+00  0.00000000E+00  0.00000000E+00
  0.00000000E+00  0.00000000E+00  0.00000000E+00
  0.00000000E+00  0.00000000E+00  0.00000000E+00
  0.00000000E+00  0.00000000E+00  0.00000000E+00
  0.00000000E+00  0.00000000E+00  0.00000000E+00
  0.00000000E+00  0.00000000E+00  0.00000000E+00
  0.00000000E+00  0.00000000E+00  0.00000000E+00
  0.00000000E+00  0.00000000E+00  0.00000000E+00
  0.00000000E+00  0.00000000E+00  0.00000000E+00
  0.00000000E+00  0.00000000E+00  0.00000000E+00
  0.00000000E+00  0.00000000E+00  0.00000000E+00
  0.00000000E+00  0.00000000E+00  0.00000000E+00
  0.00000000E+00  0.00000000E+00  0.00000000E+00
  0.00000000E+00  0.00000000E+00  0.00000000E+00
  0.00000000E+00  0.00000000E+00  0.00000000E+00
  0.00000000E+00  0.00000000E+00  0.00000000E+00
  0.00000000E+00  0.00000000E+00  0.00000000E+00
  0.00000000E+00  0.00000000E+00  0.00000000E+00
  0.00000000E+00  0.00000000E+00  0.00000000E+00
  0.00000000E+00  0.00000000E+00  0.00000000E+00
  0.00000000E+00  0.00000000E+00  0.00000000E+00
  0.00000000E+00  0.00000000E+00  0.00000000E+00
  0.00000000E+00  0.00000000E+00  0.00000000E+00
  0.00000000E+00  0.00000000E+00  0.00000000E+00
  0.00000000E+00  0.00000000E+00  0.00000000E+00
  0.00000000E+00  0.00000000E+00  0.00000000E+00
  0.00000000E+00  0.00000000E+00  0.00000000E+00
  0.00000000E+00  0.00000000E+00  0.00000000E+00
  0.00000000E+00  0.00000000E+00  0.00000000E+00
  0.00000000E+00  0.00000000E+00  0.00000000E+00
  0.00000000E+00  0.00000000E+00  0.00000000E+00
  0.00000000E+00  0.00000000E+00  0.00000000E+00
  0.00000000E+00  0.00000000E+00  0.00000000E+00
  0.00000000E+00  0.00000000E+00  0.00000000E+00
  0.00000000E+00  0.00000000E+00  0.00000000E+00
  0.00000000E+00  0.00000000E+00  0.00000000E+00
  0.00000000E+00  0.00000000E+00  0.00000000E+00
  0.00000000E+00  0.00000000E+00  0.00000000E+00
  0.00000000E+00  0.00000000E+00  0.00000000E+00
  0.00000000E+00  0.00000000E+00  0.00000000E+00
  0.00000000E+00  0.00000000E+00  0.00000000E+00
  0.00000000E+00  0.00000000E+00  0.00000000E+00
  0.00000000E+00  0.00000000E+00  0.00000000E+00
  0.00000000E+00  0.00000000E+00  0.00000000E+00
  0.00000000E+00  0.00000000E+00  0.00000000E+00
  0.00000000E+00  0.00000000E+00  0.00000000E+00
