CONTCAR\(16)                            
   1.00000000000000     
    11.8035001755000000    0.0000000000000000    0.0000000000000000
    -5.9028060597999996   10.2219826981999997    0.0000000000000000
     0.0000000000000000    0.0000000000000000   24.2695999146000005
   Cr   Te   O 
    27    36     1
Direct
  0.0016009449660974  0.9968348465930589  0.4983012106682931
  0.9996575543780892  0.3333201063521792  0.6299617177316713
  0.3338199239348912  0.0000372062048153  0.3635080188787285
  0.3333050896654114 -0.0001054311878813  0.4971114003224632
  0.3359891391412789  0.3339209489863729  0.6300971310842151
  0.6684486161112113  0.0011695668974342  0.3650071004920257
  0.6619063624031262 -0.0032028067886004  0.4983659679087030
  0.6639184068377147  0.3341433001699810  0.6301376684515874
  0.0002621539151852  0.0009517978617896  0.3649660116491832
  0.0000767709676228  0.3332963239769950  0.4980927960830130
  0.9987502462964233  0.6687285916702368  0.6300708762518268
  0.3329310783380863  0.3334526644288874  0.3648130325550774
  0.3366623271158555  0.3318301387637809  0.4983064577217494
  0.3361097242711385  0.6688706343118891  0.6300928202111418
  0.6680924770370106  0.3335692613974144  0.3650195246459832
  0.6619019382167621  0.3320040536057019  0.4983811027605299
  0.6659302264429648  0.6667484260343175  0.7238227996336878
  0.0003444474969030  0.3332042763941329  0.3652333666946940
  0.0015589143037453  0.6713867654661728  0.4982221461952493
 -0.0012775802899791 -0.0033588636771045  0.6300951167862869
  0.3329487649321827  0.6655597119343496  0.3649064531371460
  0.3367716446303921  0.6714140932785160  0.4982245451555511
  0.3329223067321003 -0.0002708739531174  0.6318761872784669
  0.6671985669197625  0.6667967520633620  0.3659361428888797
  0.6666036541400889  0.6667876934157807  0.5007451175526981
  0.6639428903796373  0.9971652281986423  0.6302508040317840
  0.0000865877019948  0.6655326973679837  0.3649365443714321
  0.1112795532538109  0.2211876477257629  0.6881815260589577
  0.1119993414147089  0.2218310132287946  0.4337913546853507
  0.2219465653593772  0.1116772106564629  0.3052276447267422
  0.2231516218858710  0.1098884407310790  0.5634915564382514
  0.4441174313066673  0.2223769866413707  0.6906489670735033
  0.4441303946902275  0.2212415283077073  0.4316367596562412
  0.5575921391820885  0.1119715163043347  0.3053116019385052
  0.5531729806934110  0.1100632766406995  0.5634684918121381
  0.7761074835081769  0.2218641233018777  0.6882886380335993
  0.7769562526866534  0.2218158167954404  0.4339275764557952
  0.8896804237006721  0.1117878867419636  0.3055547380553115
  0.8879315211311979  0.1095478726455037  0.5624782937745081
  0.1114646768382238  0.5569345245469635  0.6882037144640822
  0.1118341630063726  0.5564869513349560  0.4336925830332301
  0.2218806294893628  0.4440475048370789  0.3055459455973213
  0.2237174874091906  0.4452409374045598  0.5623375464597484
  0.4214613800334096  0.5440891398267048  0.6961787498722619
  0.4454864707487056  0.5558549619842137  0.4336596334695773
  0.5563115395715675  0.4449484913978600  0.3062542431933759
  0.5571258070173597  0.4480769914685301  0.5639000589709844
  0.7881378861350250  0.5447213320702958  0.6960854319724472
  0.7775768144220193  0.5559893740306509  0.4337638676112017
  0.8894582612097882  0.4440349405009849  0.3056177891266389
  0.8879797711486112  0.4452325495817425  0.5623201564754651
  0.1102465837974024  0.8883957561594982  0.6905713966875884
  0.1123284018725766  0.8893791146730979  0.4315786477182142
  0.2219118180969552  0.7763352698577092  0.3053203589799829
  0.2231234846309892  0.7797316969568960  0.5634112919105519
  0.4440873495428559  0.8884906999388041  0.6906959358161914
  0.4442558176350534  0.8894337851754799  0.4315723657316327
  0.5564200268113343  0.7779144534693717  0.3063622968133501
  0.5572764496316480  0.7761725007631584  0.5639902802492909
  0.7884042116021299  0.9110792592270451  0.6961324592693973
  0.7776473348265202  0.8882355893181546  0.4338306880921357
  0.8890261204936352  0.7777311743903544  0.3062604913150855
  0.8852483212642082  0.7759524704476802  0.5638413081129586
  0.6659707349663255  0.6671610421501621  0.7889535882062625
 
  0.00000000E+00  0.00000000E+00  0.00000000E+00
  0.00000000E+00  0.00000000E+00  0.00000000E+00
  0.00000000E+00  0.00000000E+00  0.00000000E+00
  0.00000000E+00  0.00000000E+00  0.00000000E+00
  0.00000000E+00  0.00000000E+00  0.00000000E+00
  0.00000000E+00  0.00000000E+00  0.00000000E+00
  0.00000000E+00  0.00000000E+00  0.00000000E+00
  0.00000000E+00  0.00000000E+00  0.00000000E+00
  0.00000000E+00  0.00000000E+00  0.00000000E+00
  0.00000000E+00  0.00000000E+00  0.00000000E+00
  0.00000000E+00  0.00000000E+00  0.00000000E+00
  0.00000000E+00  0.00000000E+00  0.00000000E+00
  0.00000000E+00  0.00000000E+00  0.00000000E+00
  0.00000000E+00  0.00000000E+00  0.00000000E+00
  0.00000000E+00  0.00000000E+00  0.00000000E+00
  0.00000000E+00  0.00000000E+00  0.00000000E+00
  0.00000000E+00  0.00000000E+00  0.00000000E+00
  0.00000000E+00  0.00000000E+00  0.00000000E+00
  0.00000000E+00  0.00000000E+00  0.00000000E+00
  0.00000000E+00  0.00000000E+00  0.00000000E+00
  0.00000000E+00  0.00000000E+00  0.00000000E+00
  0.00000000E+00  0.00000000E+00  0.00000000E+00
  0.00000000E+00  0.00000000E+00  0.00000000E+00
  0.00000000E+00  0.00000000E+00  0.00000000E+00
  0.00000000E+00  0.00000000E+00  0.00000000E+00
  0.00000000E+00  0.00000000E+00  0.00000000E+00
  0.00000000E+00  0.00000000E+00  0.00000000E+00
  0.00000000E+00  0.00000000E+00  0.00000000E+00
  0.00000000E+00  0.00000000E+00  0.00000000E+00
  0.00000000E+00  0.00000000E+00  0.00000000E+00
  0.00000000E+00  0.00000000E+00  0.00000000E+00
  0.00000000E+00  0.00000000E+00  0.00000000E+00
  0.00000000E+00  0.00000000E+00  0.00000000E+00
  0.00000000E+00  0.00000000E+00  0.00000000E+00
  0.00000000E+00  0.00000000E+00  0.00000000E+00
  0.00000000E+00  0.00000000E+00  0.00000000E+00
  0.00000000E+00  0.00000000E+00  0.00000000E+00
  0.00000000E+00  0.00000000E+00  0.00000000E+00
  0.00000000E+00  0.00000000E+00  0.00000000E+00
  0.00000000E+00  0.00000000E+00  0.00000000E+00
  0.00000000E+00  0.00000000E+00  0.00000000E+00
  0.00000000E+00  0.00000000E+00  0.00000000E+00
  0.00000000E+00  0.00000000E+00  0.00000000E+00
  0.00000000E+00  0.00000000E+00  0.00000000E+00
  0.00000000E+00  0.00000000E+00  0.00000000E+00
  0.00000000E+00  0.00000000E+00  0.00000000E+00
  0.00000000E+00  0.00000000E+00  0.00000000E+00
  0.00000000E+00  0.00000000E+00  0.00000000E+00
  0.00000000E+00  0.00000000E+00  0.00000000E+00
  0.00000000E+00  0.00000000E+00  0.00000000E+00
  0.00000000E+00  0.00000000E+00  0.00000000E+00
  0.00000000E+00  0.00000000E+00  0.00000000E+00
  0.00000000E+00  0.00000000E+00  0.00000000E+00
  0.00000000E+00  0.00000000E+00  0.00000000E+00
  0.00000000E+00  0.00000000E+00  0.00000000E+00
  0.00000000E+00  0.00000000E+00  0.00000000E+00
  0.00000000E+00  0.00000000E+00  0.00000000E+00
  0.00000000E+00  0.00000000E+00  0.00000000E+00
  0.00000000E+00  0.00000000E+00  0.00000000E+00
  0.00000000E+00  0.00000000E+00  0.00000000E+00
  0.00000000E+00  0.00000000E+00  0.00000000E+00
  0.00000000E+00  0.00000000E+00  0.00000000E+00
  0.00000000E+00  0.00000000E+00  0.00000000E+00
  0.00000000E+00  0.00000000E+00  0.00000000E+00
