CONTCAR\(12)                            
   1.00000000000000     
    14.1683998108000004    0.0000000000000000    0.0000000000000000
     0.0000000000000000   20.5298995972000000    0.0000000000000000
     0.0000000000000000    0.0000000000000000   19.1021003723000007
   Nb   Te   O 
    32    48     1
Direct
  0.0625273670941127  0.1359858811097894  0.5475714954971451
  0.1877197303575713  0.0754021024913882  0.4501857610198812
  0.0626546041253349  0.2933460982834930  0.4980141910682079
  0.1863054952484262  0.4164201286458464  0.4995270929701690
  0.3124294513127950  0.1358402821888873  0.5476981811493218
  0.4374628258384021  0.0752426899441971  0.4505526869815881
  0.3117601441471081  0.2933413857019573  0.4974915535883753
  0.4365179728054471  0.4162972393939341  0.4994139910083177
  0.5623887191107286  0.1358787689932441  0.5478125036796300
  0.6874753838787697  0.0752096224552687  0.4505630622175332
  0.5624230279027245  0.2929683908995528  0.4969065690291430
  0.6885895849922719  0.4162180906573454  0.4994213978273621
  0.8125795155753011  0.1358174772682617  0.5476350385526771
  0.9375505980523542  0.0755129496287097  0.4500937593873076
  0.8128750681673225  0.2931966744505345  0.4974478514881469
  0.9386006327766907  0.4162662638721102  0.4994875756805683
  0.0623469957963607  0.6347831177715477  0.5483633766325298
  0.1838930045313703  0.5749156226477936  0.4502799762845768
  0.0624421359671743  0.7949152441911949  0.4983448143129152
  0.1868533856282681  0.9186425312909492  0.4995191711313538
  0.3154560584442692  0.6347127298702233  0.5525031952064410
  0.4226745359523605  0.5747576362217472  0.4539520280027460
  0.3073961712848003  0.7951930208543843  0.4988673471069234
  0.4370258545472083  0.9180838504384354  0.5007520702184749
  0.5625424913991210  0.6384217466615922  0.5885215412386984
  0.7025418545064213  0.5747686220844415  0.4538914167054600
  0.5625558521985639  0.7927077566718310  0.5022590702545244
  0.6877802481965674  0.9181840743808038  0.5007522850714565
  0.8099212417825541  0.6347357533905225  0.5524255987114586
  0.9410288149095507  0.5750066069182509  0.4501612873887524
  0.8176605626575579  0.7952132071171008  0.4988940998654883
  0.9384914832696865  0.9186294111447708  0.4994161750733994
  0.1869291659776380  0.3272704470931700  0.3910195799747456
  0.0626817949089400  0.1737209340982417  0.4083690602233929
  0.1876040168650164  0.2316183689042788  0.5991061607300807
  0.0624171541346712  0.4784409166926764  0.3978450477041164
  0.0624924296571976  0.3830559078391005  0.6065125552295783
  0.1874479330531074  0.0380138592023798  0.5897363169797529
  0.4374110602449122  0.3274564160095466  0.3909608243080882
  0.3127299923880713  0.1734991753045279  0.4083855248882244
  0.4372925902771811  0.2315658522480817  0.5988319707410170
  0.3111000998319753  0.4782026186855290  0.3972993919389438
  0.3111911714476108  0.3825861220177345  0.6061413891783687
  0.4375289612572217  0.0377095501198212  0.5899049409464681
  0.6873193753789337  0.3274394611769509  0.3908390533302963
  0.5623921111583243  0.1731894841873682  0.4083617813063825
  0.6874928033216392  0.2314348815416807  0.5988097782825719
  0.5626214032131784  0.4841562293644941  0.4064883538167194
  0.5625434298946459  0.3815013750055343  0.6053294468181534
  0.6874440618549684  0.0378108164673279  0.5900303567667891
  0.9379334650320246  0.3267727032212449  0.3911436460935533
  0.8122376328873315  0.1734387343807242  0.4082798660188871
  0.9373002131634465  0.2315528913055473  0.5990495480564988
  0.8139774228662375  0.4781349299576050  0.3973201970158300
  0.8138113830256586  0.3823674948875819  0.6062086205936694
  0.9376323658974357  0.0378742983232030  0.5895553023874669
  0.1865821761578346  0.8297628178814094  0.3907495059612245
  0.0626044286133478  0.6746173610933042  0.4094627746827513
  0.1854187437488406  0.7328812890989909  0.5989203595484867
  0.0626407801525062  0.9805820349971341  0.3978541991458968
  0.0626341876027041  0.8849775885417515  0.6062773493528368
  0.1870312963357534  0.5367118253077408  0.5898052351519354
  0.4383312205034855  0.8260021325068223  0.3945894858075434
  0.3081992318834139  0.6754562078244462  0.4133215067592104
  0.4287695857638454  0.7392791904492242  0.6033408783186403
  0.3130512359998079  0.9794828556029174  0.3987765263088932
  0.3105878719595978  0.8857877317399883  0.6066700507249010
  0.4344655973382245  0.5313345937453207  0.5887748075771810
  0.6866608670733356  0.8260951214966141  0.3946811676016253
  0.5625790599353238  0.6680081300586878  0.4294778848146379
  0.6964389785155660  0.7391274837106536  0.6033751744437907
  0.5624645867573435  0.9788444956237470  0.3997304221658453
  0.5625072534975430  0.8849577427532296  0.6079474444299819
  0.6909798922774044  0.5314049394117220  0.5888127777988856
  0.9383753848469638  0.8296422042363361  0.3907077805751982
  0.8168350780490030  0.6755547807569116  0.4131967017631055
  0.9396112243170478  0.7331669168571935  0.5990113163321951
  0.8120722311072228  0.9796744473188426  0.3987977519835937
  0.8144414257534649  0.8860443549251684  0.6064539993377664
  0.9379842315470555  0.5363609686167692  0.5895250061178459
  0.5621416230688894  0.6373042187705664  0.6791354996157608
 
  0.00000000E+00  0.00000000E+00  0.00000000E+00
  0.00000000E+00  0.00000000E+00  0.00000000E+00
  0.00000000E+00  0.00000000E+00  0.00000000E+00
  0.00000000E+00  0.00000000E+00  0.00000000E+00
  0.00000000E+00  0.00000000E+00  0.00000000E+00
  0.00000000E+00  0.00000000E+00  0.00000000E+00
  0.00000000E+00  0.00000000E+00  0.00000000E+00
  0.00000000E+00  0.00000000E+00  0.00000000E+00
  0.00000000E+00  0.00000000E+00  0.00000000E+00
  0.00000000E+00  0.00000000E+00  0.00000000E+00
  0.00000000E+00  0.00000000E+00  0.00000000E+00
  0.00000000E+00  0.00000000E+00  0.00000000E+00
  0.00000000E+00  0.00000000E+00  0.00000000E+00
  0.00000000E+00  0.00000000E+00  0.00000000E+00
  0.00000000E+00  0.00000000E+00  0.00000000E+00
  0.00000000E+00  0.00000000E+00  0.00000000E+00
  0.00000000E+00  0.00000000E+00  0.00000000E+00
  0.00000000E+00  0.00000000E+00  0.00000000E+00
  0.00000000E+00  0.00000000E+00  0.00000000E+00
  0.00000000E+00  0.00000000E+00  0.00000000E+00
  0.00000000E+00  0.00000000E+00  0.00000000E+00
  0.00000000E+00  0.00000000E+00  0.00000000E+00
  0.00000000E+00  0.00000000E+00  0.00000000E+00
  0.00000000E+00  0.00000000E+00  0.00000000E+00
  0.00000000E+00  0.00000000E+00  0.00000000E+00
  0.00000000E+00  0.00000000E+00  0.00000000E+00
  0.00000000E+00  0.00000000E+00  0.00000000E+00
  0.00000000E+00  0.00000000E+00  0.00000000E+00
  0.00000000E+00  0.00000000E+00  0.00000000E+00
  0.00000000E+00  0.00000000E+00  0.00000000E+00
  0.00000000E+00  0.00000000E+00  0.00000000E+00
  0.00000000E+00  0.00000000E+00  0.00000000E+00
  0.00000000E+00  0.00000000E+00  0.00000000E+00
  0.00000000E+00  0.00000000E+00  0.00000000E+00
  0.00000000E+00  0.00000000E+00  0.00000000E+00
  0.00000000E+00  0.00000000E+00  0.00000000E+00
  0.00000000E+00  0.00000000E+00  0.00000000E+00
  0.00000000E+00  0.00000000E+00  0.00000000E+00
  0.00000000E+00  0.00000000E+00  0.00000000E+00
  0.00000000E+00  0.00000000E+00  0.00000000E+00
  0.00000000E+00  0.00000000E+00  0.00000000E+00
  0.00000000E+00  0.00000000E+00  0.00000000E+00
  0.00000000E+00  0.00000000E+00  0.00000000E+00
  0.00000000E+00  0.00000000E+00  0.00000000E+00
  0.00000000E+00  0.00000000E+00  0.00000000E+00
  0.00000000E+00  0.00000000E+00  0.00000000E+00
  0.00000000E+00  0.00000000E+00  0.00000000E+00
  0.00000000E+00  0.00000000E+00  0.00000000E+00
  0.00000000E+00  0.00000000E+00  0.00000000E+00
  0.00000000E+00  0.00000000E+00  0.00000000E+00
  0.00000000E+00  0.00000000E+00  0.00000000E+00
  0.00000000E+00  0.00000000E+00  0.00000000E+00
  0.00000000E+00  0.00000000E+00  0.00000000E+00
  0.00000000E+00  0.00000000E+00  0.00000000E+00
  0.00000000E+00  0.00000000E+00  0.00000000E+00
  0.00000000E+00  0.00000000E+00  0.00000000E+00
  0.00000000E+00  0.00000000E+00  0.00000000E+00
  0.00000000E+00  0.00000000E+00  0.00000000E+00
  0.00000000E+00  0.00000000E+00  0.00000000E+00
  0.00000000E+00  0.00000000E+00  0.00000000E+00
  0.00000000E+00  0.00000000E+00  0.00000000E+00
  0.00000000E+00  0.00000000E+00  0.00000000E+00
  0.00000000E+00  0.00000000E+00  0.00000000E+00
  0.00000000E+00  0.00000000E+00  0.00000000E+00
  0.00000000E+00  0.00000000E+00  0.00000000E+00
  0.00000000E+00  0.00000000E+00  0.00000000E+00
  0.00000000E+00  0.00000000E+00  0.00000000E+00
  0.00000000E+00  0.00000000E+00  0.00000000E+00
  0.00000000E+00  0.00000000E+00  0.00000000E+00
  0.00000000E+00  0.00000000E+00  0.00000000E+00
  0.00000000E+00  0.00000000E+00  0.00000000E+00
  0.00000000E+00  0.00000000E+00  0.00000000E+00
  0.00000000E+00  0.00000000E+00  0.00000000E+00
  0.00000000E+00  0.00000000E+00  0.00000000E+00
  0.00000000E+00  0.00000000E+00  0.00000000E+00
  0.00000000E+00  0.00000000E+00  0.00000000E+00
  0.00000000E+00  0.00000000E+00  0.00000000E+00
  0.00000000E+00  0.00000000E+00  0.00000000E+00
  0.00000000E+00  0.00000000E+00  0.00000000E+00
  0.00000000E+00  0.00000000E+00  0.00000000E+00
  0.00000000E+00  0.00000000E+00  0.00000000E+00
