CONTCAR\(2)                             
   1.00000000000000     
    12.9315996169999998    0.0000000000000000    0.0000000000000000
     0.0000000000000000   12.9343004226999998    0.0000000000000000
     0.0000000000000000    0.0000000000000000   24.0856990814000014
   La   Te   Se   O    H 
    18    36    18     2     1
Direct
  0.1641438466449309  0.0029904292252022  0.5785573761255369
  0.9986322077409410  0.1692291471761636  0.4238773040185171
  0.4984533894928680  0.0024264460934068  0.5781333061936949
  0.3314194044630051  0.1685408154979854  0.4230466130133705
  0.8327505028050582  0.0030692999634331  0.5784163400612402
  0.6658717614199067  0.1684952879710512  0.4228762228922513
  0.1657652701129025  0.3361411749535669  0.5790975813695876
  0.9986075406904914  0.5025332951352099  0.4240119869436054
  0.4997551160846150  0.3292511677148761  0.5741454284267610
  0.3317787647212664  0.5024855184188100  0.4233605851914152
  0.8324103928379123  0.3363345969529212  0.5787387482863746
  0.6657051362239805  0.5025191209539618  0.4232409858633174
  0.1646897100412057  0.6693684532633570  0.5785396781193940
  0.9985789978153844  0.8357471304243651  0.4237205691086669
  0.4992183521336088  0.6755518578028746  0.5748723937795449
  0.3315778212675556  0.8363629792275518  0.4230927940025515
  0.8318118662974729  0.6694083699678544  0.5786763599775830
  0.6656644075239064  0.8363589699602306  0.4229381067873109
 -0.0028390380139697  0.0028036317615344  0.6902606617657879
  0.1646902088195192  0.1690966880988573  0.3126566833431261
  0.1655579737973870  0.1699637027906097  0.6902585196182490
  0.9986234421592441  0.0020523932085566  0.3127431590614260
  0.3307102587302048  0.0039499404754295  0.6897310138218035
  0.4986692948534212  0.1693220760492770  0.3121734443277028
  0.4988690056268457  0.1690361175537824  0.6881558639268865
  0.3316864439314902  0.0027556314395092  0.3122791911050019
  0.6652984572037858  0.0030228391088817  0.6895527147772799
  0.8322052577646182  0.1689940972212019  0.3125470708787933
  0.8318407979001371  0.1708008855244570  0.6901062508305151
  0.6651699562845834  0.0026315320963358  0.3121461908902347
 -0.0006250740398637  0.3354990664879477  0.6906284947931882
  0.1649272257360219  0.5026208022645113  0.3128807318348593
  0.1645634285051964  0.5027444290006853  0.6897673774876060
  0.9982909440122925  0.3359532224616750  0.3131841582095130
  0.3331958803663315  0.3373685182770761  0.6907372723113701
  0.4986077813585560  0.5020587309777967  0.3127767560510248
  0.4963840107763038  0.5031480729991566  0.6786931881622299
  0.3317818600458968  0.3357047963626930  0.3125001454443427
  0.6655312244319652  0.3366111890707376  0.6891043667169302
  0.8320301724144623  0.5027186824939707  0.3128254068361113
  0.8305892196716292  0.5034402019502018  0.6897099651480170
  0.6657268291471408  0.3357230339166254  0.3123529539671390
  0.9981767865671661  0.6689944337301598  0.6899934512792731
  0.1654104003184801  0.8357121222055237  0.3126189447471470
  0.1643352406867074  0.8382042470209540  0.6898638793483636
  0.9986829077195585  0.6693158436048514  0.3129487814561580
  0.3309827275262829  0.6723801453845771  0.6880906327804243
  0.4981216475708851  0.8359238073555310  0.3122194595875069
  0.4997941483457731  0.8359570421956921  0.6885249490830230
  0.3317301634009057  0.6689689106876089  0.3124965799339655
  0.6651464342256531  0.6694109281104196  0.6891937007379151
  0.8320566634581412  0.8357301962513248  0.3125030620941178
  0.8333469007137643  0.8382131584266068  0.6897450247723762
  0.6650853596653271  0.6690829420383848  0.3124063816433827
  0.9986714896497426  0.1699801290746484  0.5509197763773742
  0.1648158738151657  0.0023788939637881  0.4518279448690297
  0.3312658744654861  0.1684916558274978  0.5501437344767114
  0.4985027330113610  0.0025118621740241  0.4514183548317887
  0.6663069832095430  0.1680530347961849  0.5498277305003680
  0.8325516053329168  0.0024295773072781  0.4516743308815601
  0.9986184535188317  0.5024666097607422  0.5510238848035305
  0.1658998007772417  0.3362479293651202  0.4523939313570855
  0.3356895677059993  0.5026249452091363  0.5511685413337452
  0.4987125237019011  0.3347761492499580  0.4500103010622001
  0.6626389655754623  0.5024520174512852  0.5506239025455384
  0.8314755763545295  0.3361165893365216  0.4520803002944140
  0.9985841467008125  0.8355563933704032  0.5506753229579375
  0.1657254887514815  0.6688989617138417  0.4520931113834115
  0.3310689146186315  0.8369146180842177  0.5501243196633387
  0.4985587199593979  0.6698131124329989  0.4502970267609260
  0.6663007034750227  0.8370829630598530  0.5499179078777101
  0.8315827289726531  0.6690378312263821  0.4519754092359318
  0.4190474469825821  0.5043689787728418  0.7973053856078698
  0.5104142371196824  0.5270604780482843  0.7662610825258159
  0.3796691903026350  0.5696395614690575  0.7940180857201886
 
  0.00000000E+00  0.00000000E+00  0.00000000E+00
  0.00000000E+00  0.00000000E+00  0.00000000E+00
  0.00000000E+00  0.00000000E+00  0.00000000E+00
  0.00000000E+00  0.00000000E+00  0.00000000E+00
  0.00000000E+00  0.00000000E+00  0.00000000E+00
  0.00000000E+00  0.00000000E+00  0.00000000E+00
  0.00000000E+00  0.00000000E+00  0.00000000E+00
  0.00000000E+00  0.00000000E+00  0.00000000E+00
  0.00000000E+00  0.00000000E+00  0.00000000E+00
  0.00000000E+00  0.00000000E+00  0.00000000E+00
  0.00000000E+00  0.00000000E+00  0.00000000E+00
  0.00000000E+00  0.00000000E+00  0.00000000E+00
  0.00000000E+00  0.00000000E+00  0.00000000E+00
  0.00000000E+00  0.00000000E+00  0.00000000E+00
  0.00000000E+00  0.00000000E+00  0.00000000E+00
  0.00000000E+00  0.00000000E+00  0.00000000E+00
  0.00000000E+00  0.00000000E+00  0.00000000E+00
  0.00000000E+00  0.00000000E+00  0.00000000E+00
  0.00000000E+00  0.00000000E+00  0.00000000E+00
  0.00000000E+00  0.00000000E+00  0.00000000E+00
  0.00000000E+00  0.00000000E+00  0.00000000E+00
  0.00000000E+00  0.00000000E+00  0.00000000E+00
  0.00000000E+00  0.00000000E+00  0.00000000E+00
  0.00000000E+00  0.00000000E+00  0.00000000E+00
  0.00000000E+00  0.00000000E+00  0.00000000E+00
  0.00000000E+00  0.00000000E+00  0.00000000E+00
  0.00000000E+00  0.00000000E+00  0.00000000E+00
  0.00000000E+00  0.00000000E+00  0.00000000E+00
  0.00000000E+00  0.00000000E+00  0.00000000E+00
  0.00000000E+00  0.00000000E+00  0.00000000E+00
  0.00000000E+00  0.00000000E+00  0.00000000E+00
  0.00000000E+00  0.00000000E+00  0.00000000E+00
  0.00000000E+00  0.00000000E+00  0.00000000E+00
  0.00000000E+00  0.00000000E+00  0.00000000E+00
  0.00000000E+00  0.00000000E+00  0.00000000E+00
  0.00000000E+00  0.00000000E+00  0.00000000E+00
  0.00000000E+00  0.00000000E+00  0.00000000E+00
  0.00000000E+00  0.00000000E+00  0.00000000E+00
  0.00000000E+00  0.00000000E+00  0.00000000E+00
  0.00000000E+00  0.00000000E+00  0.00000000E+00
  0.00000000E+00  0.00000000E+00  0.00000000E+00
  0.00000000E+00  0.00000000E+00  0.00000000E+00
  0.00000000E+00  0.00000000E+00  0.00000000E+00
  0.00000000E+00  0.00000000E+00  0.00000000E+00
  0.00000000E+00  0.00000000E+00  0.00000000E+00
  0.00000000E+00  0.00000000E+00  0.00000000E+00
  0.00000000E+00  0.00000000E+00  0.00000000E+00
  0.00000000E+00  0.00000000E+00  0.00000000E+00
  0.00000000E+00  0.00000000E+00  0.00000000E+00
  0.00000000E+00  0.00000000E+00  0.00000000E+00
  0.00000000E+00  0.00000000E+00  0.00000000E+00
  0.00000000E+00  0.00000000E+00  0.00000000E+00
  0.00000000E+00  0.00000000E+00  0.00000000E+00
  0.00000000E+00  0.00000000E+00  0.00000000E+00
  0.00000000E+00  0.00000000E+00  0.00000000E+00
  0.00000000E+00  0.00000000E+00  0.00000000E+00
  0.00000000E+00  0.00000000E+00  0.00000000E+00
  0.00000000E+00  0.00000000E+00  0.00000000E+00
  0.00000000E+00  0.00000000E+00  0.00000000E+00
  0.00000000E+00  0.00000000E+00  0.00000000E+00
  0.00000000E+00  0.00000000E+00  0.00000000E+00
  0.00000000E+00  0.00000000E+00  0.00000000E+00
  0.00000000E+00  0.00000000E+00  0.00000000E+00
  0.00000000E+00  0.00000000E+00  0.00000000E+00
  0.00000000E+00  0.00000000E+00  0.00000000E+00
  0.00000000E+00  0.00000000E+00  0.00000000E+00
  0.00000000E+00  0.00000000E+00  0.00000000E+00
  0.00000000E+00  0.00000000E+00  0.00000000E+00
  0.00000000E+00  0.00000000E+00  0.00000000E+00
  0.00000000E+00  0.00000000E+00  0.00000000E+00
  0.00000000E+00  0.00000000E+00  0.00000000E+00
  0.00000000E+00  0.00000000E+00  0.00000000E+00
  0.00000000E+00  0.00000000E+00  0.00000000E+00
  0.00000000E+00  0.00000000E+00  0.00000000E+00
  0.00000000E+00  0.00000000E+00  0.00000000E+00
