CONTCAR                                 
   1.00000000000000     
    10.7850999832000003    0.0000000000000000    0.0000000000000000
     0.0000000000000000   11.5594997405999997    0.0000000000000000
     0.0000000000000000    0.0000000000000000   23.1807994842999996
   V    O    H 
    36    80     1
Direct
  0.0000409367604670  0.3541949562571992  0.6572769497192149
  0.1689188062764425  0.8512768955487624  0.3419724868340805
  0.1658877517812810  0.8547146275528215  0.6573005639849644
  0.0011434826460703  0.6482309855917924  0.3436660937372499
  0.1669390192077362  0.1481783262992226  0.3430664734642278
  0.1660054698647548  0.1482642652735252  0.6570111512788860
  0.9996016803922096  0.3528978400247491  0.3431568775710579
  0.9986040205146159  0.6497521654897183  0.6578760695406983
  0.1681635841240533  0.8508363589797738  0.4969217172998295
  0.0017113734917597  0.6504373540809414  0.5009986712667943
  0.0003540425870715  0.3525845082817370  0.5003071147262594
  0.1678863841383899  0.1493518306532040  0.5003579038326256
  0.3333164419796373  0.3524484886785844  0.6573665974881167
  0.4976954161535246  0.8512853419704551  0.3419679645768941
  0.5003856341240051  0.8545381709985892  0.6573152938529102
  0.3332942134142625  0.6438438852623112  0.3371683834928427
  0.4996968086314661  0.1481571319358532  0.3430846830015966
  0.5004012081743996  0.1481318233261071  0.6570414630734804
  0.3333154734973132  0.3537236534137191  0.3419372270845797
  0.3330499535391447  0.6504478578487967  0.6880574535040217
  0.4982409768480427  0.8508209452125011  0.4969472428732625
  0.3332415864762097  0.6516233142132333  0.5278805648840058
  0.3332762258218274  0.3601084406358406  0.4984744565304773
  0.4986889872546662  0.1493403650980370  0.5003600350947611
  0.6664604443364621  0.3541694797742702  0.6573133962832407
  0.8332817514864158  0.8529659815487185  0.3441158292189962
  0.8331715697721452  0.8559469710973737  0.6574379905507902
  0.6654930736961562  0.6482344991117830  0.3436720766654605
  0.8333256708646867  0.1474006921090527  0.3427587446464933
  0.8332104658400631  0.1501494674478796  0.6568035766581530
  0.6670473001646431  0.3528936391591732  0.3432228796242724
  0.6676171178698996  0.6497955143172459  0.6579164296517841
  0.8332143543840462  0.8511783405857405  0.5016968327612669
  0.6646722397491989  0.6504709218693615  0.5009898967380060
  0.6661896449015094  0.3526164733488882  0.5003642241012419
  0.8332706821261291  0.1493430450147447  0.4993393170281376
  0.1757842579974376  0.8506669593032191  0.4138835347406417
  0.1631530892328908  0.8597985867508720  0.5866559783279469
 -0.0004888118111989  0.3554384274081009  0.4143704596394298
  0.0000117588198160  0.3558993839817932  0.5860300246040405
  0.9971437147349218  0.6479620570345016  0.5864600057413887
  0.0055791483230613  0.6457890149095034  0.4149360478005530
  0.1665465569476898  0.1444206393320029  0.5856705670265608
  0.1681312521004351  0.1469644612587666  0.4142398267460155
  0.0010995038509207  0.1766748233096477  0.5001060504329151
  0.0020574271802143  0.8254581042764071  0.4985888019696754
  0.1711614519152646  0.6766548249362613  0.5041729278810990
  0.1671417282613207  0.3270044122751735  0.4997099208705333
  0.0000994115216397  0.1815951702411264  0.3229620280534314
  0.1647703556782680  0.6810036002466718  0.3193553514732813
  0.1662276724518435  0.3187808060649145  0.3233130967369590
  0.0005760103243471  0.8193455841233798  0.3248332517580433
  0.9981610861321923  0.8227593688026510  0.6772184611935027
  0.9995446800161132  0.1832953023067220  0.6769825974394533
  0.1661134323396675  0.3178239088298803  0.6773486585757890
  0.1609618094940746  0.6862457603994131  0.6788345149530638
  0.1675517233442768  0.9995283974368260  0.3207813071642895
  0.1652937087204132  0.0026383801223042  0.6814829718686811
  0.0002842239008146  0.5018779138756982  0.6803297623875283
  0.9992206252927210  0.5002648211415377  0.3204279840087193
  0.1738208466238240  0.0005468315586041  0.4982969058065792
 -0.0007768827477772  0.5009859213788883  0.5007707270853300
  0.4908113430541283  0.8507213687431935  0.4138903063053872
  0.5030985312725181  0.8596220705812644  0.5866805277510801
  0.3332709154998459  0.3633908666852424  0.4135107695625054
  0.3333343195241954  0.3626323520508279  0.5862459009903980
  0.3333425039011382  0.6400705645121849  0.5990045932749976
  0.3332503321385303  0.6355055164779145  0.4057690528956661
  0.4999520726630279  0.1444167514863824  0.5857019579757738
  0.4984482074256585  0.1469083549557297  0.4142566435591938
  0.3332796994245769  0.1855662110979505  0.5006379748472901
  0.3332053382006241  0.8183999240623675  0.5080739177464944
  0.4952535934933168  0.6766501325702359  0.5040512138661276
  0.4994092953303674  0.3269967735091056  0.4996992420028487
  0.3333289229604662  0.1831935795734927  0.3222532139310929
  0.5018420511265811  0.6810072041345732  0.3193813659823955
  0.5004217678490510  0.3187989040038373  0.3233750455084307
  0.3333060201122884  0.8166740779859065  0.3193213086987335
  0.3330833712648154  0.8244090383323841  0.6781788547975905
  0.3332403242310762  0.1821230727018102  0.6763660595686444
  0.5004275564072048  0.3176903573512104  0.6774656705148993
  0.5053590096911557  0.6862724413232971  0.6790948801177122
  0.4990891912039528  0.9995369752242003  0.3207693589542754
  0.5010375930664844  0.0025079723655691  0.6814809151904615
  0.3336091064005493  0.4924647353803909  0.6890023839769958
  0.3333462525622647  0.4954226008817189  0.3123063560023547
  0.4926943890189174  0.0005327371136181  0.4983400699928978
  0.3332653503036062  0.5084697092914521  0.5024762104292892
  0.8332358059541672  0.8564566338774949  0.4150145274784977
  0.8332318675093344  0.8560826124595216  0.5859196620461522
  0.6671367766251929  0.3554674916983978  0.4144235211591674
  0.6664670027259774  0.3558459113798045  0.5860607653001978
  0.6689749109024919  0.6480046300770366  0.5865080350856302
  0.6610547064012847  0.6458302655836198  0.4149433382261991
  0.8332354833861572  0.1472978196882869  0.5856737350579162
  0.8333192000871426  0.1453394245750680  0.4141108721723791
  0.6654429444613080  0.1766637301385775  0.5001148929041314
  0.6643789116276652  0.8254792512459292  0.4986562355516867
  0.8331991299249538  0.6761528978126541  0.4997497181829400
  0.8332546513798872  0.3245900478076580  0.4997978300646703
  0.6665360179512945  0.1815971772707159  0.3229997239896075
  0.8333175578084973  0.6824911040043440  0.3248678472328651
  0.8333183539746444  0.3180442193595465  0.3226137148504771
  0.6660282483511112  0.8193639045995156  0.3248096379592496
  0.6681792444467907  0.8228452185551967  0.6771800987226494
  0.6669030091704549  0.1831803383946723  0.6769879617507720
  0.8332184640539450  0.3203149168830776  0.6774652575335787
  0.8331169356496172  0.6844109022557699  0.6787315460044386
  0.8333226465982033  0.0001612659932852  0.3197330492075125
  0.8332521883010190  0.0029603413350747  0.6803489562071062
  0.6660663629404945  0.5018486870171709  0.6803356888617164
  0.6674178508359100  0.5002513355748202  0.3204776165614875
  0.8332596296576755  0.0008892103676053  0.5005166604054231
  0.6672816265192439  0.5010122850278728  0.5008182333820618
  0.3328034730071882  0.6540189672646841  0.7659133628896131
  0.3406874066529366  0.5547379175633016  0.8016397254938259
  0.3414085684332089  0.4923294094768348  0.7720071573484947
 
  0.00000000E+00  0.00000000E+00  0.00000000E+00
  0.00000000E+00  0.00000000E+00  0.00000000E+00
  0.00000000E+00  0.00000000E+00  0.00000000E+00
  0.00000000E+00  0.00000000E+00  0.00000000E+00
  0.00000000E+00  0.00000000E+00  0.00000000E+00
  0.00000000E+00  0.00000000E+00  0.00000000E+00
  0.00000000E+00  0.00000000E+00  0.00000000E+00
  0.00000000E+00  0.00000000E+00  0.00000000E+00
  0.00000000E+00  0.00000000E+00  0.00000000E+00
  0.00000000E+00  0.00000000E+00  0.00000000E+00
  0.00000000E+00  0.00000000E+00  0.00000000E+00
  0.00000000E+00  0.00000000E+00  0.00000000E+00
  0.00000000E+00  0.00000000E+00  0.00000000E+00
  0.00000000E+00  0.00000000E+00  0.00000000E+00
  0.00000000E+00  0.00000000E+00  0.00000000E+00
  0.00000000E+00  0.00000000E+00  0.00000000E+00
  0.00000000E+00  0.00000000E+00  0.00000000E+00
  0.00000000E+00  0.00000000E+00  0.00000000E+00
  0.00000000E+00  0.00000000E+00  0.00000000E+00
  0.00000000E+00  0.00000000E+00  0.00000000E+00
  0.00000000E+00  0.00000000E+00  0.00000000E+00
  0.00000000E+00  0.00000000E+00  0.00000000E+00
  0.00000000E+00  0.00000000E+00  0.00000000E+00
  0.00000000E+00  0.00000000E+00  0.00000000E+00
  0.00000000E+00  0.00000000E+00  0.00000000E+00
  0.00000000E+00  0.00000000E+00  0.00000000E+00
  0.00000000E+00  0.00000000E+00  0.00000000E+00
  0.00000000E+00  0.00000000E+00  0.00000000E+00
  0.00000000E+00  0.00000000E+00  0.00000000E+00
  0.00000000E+00  0.00000000E+00  0.00000000E+00
  0.00000000E+00  0.00000000E+00  0.00000000E+00
  0.00000000E+00  0.00000000E+00  0.00000000E+00
  0.00000000E+00  0.00000000E+00  0.00000000E+00
  0.00000000E+00  0.00000000E+00  0.00000000E+00
  0.00000000E+00  0.00000000E+00  0.00000000E+00
  0.00000000E+00  0.00000000E+00  0.00000000E+00
  0.00000000E+00  0.00000000E+00  0.00000000E+00
  0.00000000E+00  0.00000000E+00  0.00000000E+00
  0.00000000E+00  0.00000000E+00  0.00000000E+00
  0.00000000E+00  0.00000000E+00  0.00000000E+00
  0.00000000E+00  0.00000000E+00  0.00000000E+00
  0.00000000E+00  0.00000000E+00  0.00000000E+00
  0.00000000E+00  0.00000000E+00  0.00000000E+00
  0.00000000E+00  0.00000000E+00  0.00000000E+00
  0.00000000E+00  0.00000000E+00  0.00000000E+00
  0.00000000E+00  0.00000000E+00  0.00000000E+00
  0.00000000E+00  0.00000000E+00  0.00000000E+00
  0.00000000E+00  0.00000000E+00  0.00000000E+00
  0.00000000E+00  0.00000000E+00  0.00000000E+00
  0.00000000E+00  0.00000000E+00  0.00000000E+00
  0.00000000E+00  0.00000000E+00  0.00000000E+00
  0.00000000E+00  0.00000000E+00  0.00000000E+00
  0.00000000E+00  0.00000000E+00  0.00000000E+00
  0.00000000E+00  0.00000000E+00  0.00000000E+00
  0.00000000E+00  0.00000000E+00  0.00000000E+00
  0.00000000E+00  0.00000000E+00  0.00000000E+00
  0.00000000E+00  0.00000000E+00  0.00000000E+00
  0.00000000E+00  0.00000000E+00  0.00000000E+00
  0.00000000E+00  0.00000000E+00  0.00000000E+00
  0.00000000E+00  0.00000000E+00  0.00000000E+00
  0.00000000E+00  0.00000000E+00  0.00000000E+00
  0.00000000E+00  0.00000000E+00  0.00000000E+00
  0.00000000E+00  0.00000000E+00  0.00000000E+00
  0.00000000E+00  0.00000000E+00  0.00000000E+00
  0.00000000E+00  0.00000000E+00  0.00000000E+00
  0.00000000E+00  0.00000000E+00  0.00000000E+00
  0.00000000E+00  0.00000000E+00  0.00000000E+00
  0.00000000E+00  0.00000000E+00  0.00000000E+00
  0.00000000E+00  0.00000000E+00  0.00000000E+00
  0.00000000E+00  0.00000000E+00  0.00000000E+00
  0.00000000E+00  0.00000000E+00  0.00000000E+00
  0.00000000E+00  0.00000000E+00  0.00000000E+00
  0.00000000E+00  0.00000000E+00  0.00000000E+00
  0.00000000E+00  0.00000000E+00  0.00000000E+00
  0.00000000E+00  0.00000000E+00  0.00000000E+00
  0.00000000E+00  0.00000000E+00  0.00000000E+00
  0.00000000E+00  0.00000000E+00  0.00000000E+00
  0.00000000E+00  0.00000000E+00  0.00000000E+00
  0.00000000E+00  0.00000000E+00  0.00000000E+00
  0.00000000E+00  0.00000000E+00  0.00000000E+00
  0.00000000E+00  0.00000000E+00  0.00000000E+00
  0.00000000E+00  0.00000000E+00  0.00000000E+00
  0.00000000E+00  0.00000000E+00  0.00000000E+00
  0.00000000E+00  0.00000000E+00  0.00000000E+00
  0.00000000E+00  0.00000000E+00  0.00000000E+00
  0.00000000E+00  0.00000000E+00  0.00000000E+00
  0.00000000E+00  0.00000000E+00  0.00000000E+00
  0.00000000E+00  0.00000000E+00  0.00000000E+00
  0.00000000E+00  0.00000000E+00  0.00000000E+00
  0.00000000E+00  0.00000000E+00  0.00000000E+00
  0.00000000E+00  0.00000000E+00  0.00000000E+00
  0.00000000E+00  0.00000000E+00  0.00000000E+00
  0.00000000E+00  0.00000000E+00  0.00000000E+00
  0.00000000E+00  0.00000000E+00  0.00000000E+00
  0.00000000E+00  0.00000000E+00  0.00000000E+00
  0.00000000E+00  0.00000000E+00  0.00000000E+00
  0.00000000E+00  0.00000000E+00  0.00000000E+00
  0.00000000E+00  0.00000000E+00  0.00000000E+00
  0.00000000E+00  0.00000000E+00  0.00000000E+00
  0.00000000E+00  0.00000000E+00  0.00000000E+00
  0.00000000E+00  0.00000000E+00  0.00000000E+00
  0.00000000E+00  0.00000000E+00  0.00000000E+00
  0.00000000E+00  0.00000000E+00  0.00000000E+00
  0.00000000E+00  0.00000000E+00  0.00000000E+00
  0.00000000E+00  0.00000000E+00  0.00000000E+00
  0.00000000E+00  0.00000000E+00  0.00000000E+00
  0.00000000E+00  0.00000000E+00  0.00000000E+00
  0.00000000E+00  0.00000000E+00  0.00000000E+00
  0.00000000E+00  0.00000000E+00  0.00000000E+00
  0.00000000E+00  0.00000000E+00  0.00000000E+00
  0.00000000E+00  0.00000000E+00  0.00000000E+00
  0.00000000E+00  0.00000000E+00  0.00000000E+00
  0.00000000E+00  0.00000000E+00  0.00000000E+00
  0.00000000E+00  0.00000000E+00  0.00000000E+00
  0.00000000E+00  0.00000000E+00  0.00000000E+00
  0.00000000E+00  0.00000000E+00  0.00000000E+00
  0.00000000E+00  0.00000000E+00  0.00000000E+00
